LAMMPS (29 Oct 2020)
###################### polyelectrolyte complexation ######################
clear

#Initialization
#------------------------------------
units				lj
dimension			3
atom_style			full
boundary			p p p

#Atom Definition
#-------------------------------------
read_restart			restart.equil
Reading restart file ...
  restart file = 29 Oct 2020, LAMMPS = 29 Oct 2020
  restoring atom style full from restart
  orthogonal box = (-80.000000 -80.000000 -80.000000) to (80.000000 80.000000 80.000000)
  1 by 1 by 1 MPI processor grid
  restoring pair style lj/cut from restart
  restoring bond style harmonic from restart
  60 atoms
  59 bonds
Finding 1-2 1-3 1-4 neighbors ...
  special bond factors lj:    0.0      1.0      1.0     
  special bond factors coul:  0.0      0.0      0.0     
     2 = max # of 1-2 neighbors
     2 = max # of 1-3 neighbors
     4 = max # of 1-4 neighbors
     6 = max # of special neighbors
  special bonds CPU = 0.000 seconds
  read_restart CPU = 0.003 seconds

#Force definition
#----------------------------------------------
#Bond definition
bond_style			harmonic
bond_coeff			1 5000 1
#Pair definition
special_bonds	lj 0 1 1
dielectric		80
pair_style		 lj/cut 1.12
pair_modify 		 shift yes
pair_coeff	1 1 1 1 1.12

#Timestep etc
#--------------------------------------------
timestep		0.001
run_style		verlet
velocity		all	create	1	5

#Fix
#---------------------------------------
group polymers type 1
60 atoms in group polymers
fix 1 all nve
fix 2 all langevin 1	1	10	5

#Dump
#------------------------------------------------
compute  1 all gyration
variable  myRg2 equal c_1
variable  i equal step
fix  mythermofile all print 5000 "$i ${myRg2}" file radius_of_gyration.dat screen no

thermo_style		 custom step temp press pe evdwl ecoul ebond ke etotal enthalpy
thermo 	5000
dump	3 all custom 5000 dump.lammpstrj id mol type xu yu zu
run		2000000
Neighbor list info ...
  update every 1 steps, delay 10 steps, check yes
  max neighbors/atom: 2000, page size: 100000
  master list distance cutoff = 1.42
  ghost atom cutoff = 1.42
  binsize = 0.71, bins = 226 226 226
  1 neighbor lists, perpetual/occasional/extra = 1 0 0
  (1) pair lj/cut, perpetual
      attributes: half, newton on
      pair build: half/bin/newton
      stencil: half/bin/3d/newton
      bin: standard
WARNING: Communication cutoff 1.4200000000000002 is shorter than a bond length based estimate of 1.8. This may lead to errors. (../comm.cpp:667)
Per MPI rank memory allocation (min/avg/max) = 54.71 | 54.71 | 54.71 Mbytes
Step Temp Press PotEng E_vdwl E_coul E_bond KinEng TotEng Enthalpy 
 2000000            1 -0.00012130765   0.43871753 0.0060657727            0   0.43265176        1.475    1.9137175   -6.3675516 
 2005000   0.94331074 6.2043537e-05   0.53895678 0.0029994397            0   0.53595734    1.3913833    1.9303401    6.1658456 
 2010000    1.0637312 9.0102659e-05   0.44345262 1.1301571e-05            0   0.44344131    1.5690035    2.0124561    8.1634643 
 2015000   0.91434368 1.0360904e-05   0.55878768  0.024792286            0   0.53399539    1.3486569    1.9074446     2.614749 
 2020000   0.99196814 2.8808615e-05   0.61205318  0.026116644            0   0.58593653     1.463153    2.0752062    4.0418743 
 2025000    1.0264278 4.4781507e-05   0.52357756  0.037254054            0   0.48632351    1.5139811    2.0375586    5.0946429 
 2030000    1.0522724 -3.2408637e-05   0.54162399  0.039436157            0   0.50218783    1.5521018    2.0937258  -0.11870383 
 2035000    1.0499135 -4.1363925e-05   0.42895556  0.016755364            0    0.4122002    1.5486225     1.977578  -0.84619928 
 2040000   0.99185789 -9.6432076e-05   0.61202519 0.0039448522            0   0.60808034    1.4629904    2.0750156   -4.5080808 
 2045000   0.96722082 -0.00012707876   0.62316204 0.00091098998            0   0.62225105    1.4266507    2.0498128   -6.6254305 
 2050000   0.89900955 -8.2111655e-05   0.56652796            0            0   0.56652796    1.3260391    1.8925671   -3.7129219 
 2055000    1.0194106 -2.9132002e-06   0.46833039  0.026363809            0   0.44196658    1.5036307    1.9719611    1.7730866 
 2060000    1.0766182 -2.2081198e-05   0.44504166 0.0091766763            0   0.43586498    1.5880119    2.0330536   0.52564375 
 2065000    1.0944972 -3.3340751e-05   0.26952186 0.0010513553            0   0.26847051    1.6143833    1.8839052  -0.39215671 
 2070000    1.1037892 1.3523194e-05   0.46139171 0.0054892264            0   0.45590249     1.628089    2.0894807    3.0126641 
 2075000   0.96015235 2.8137648e-06   0.31819066 0.0092846287            0   0.30890603    1.4162247    1.7344154    1.9265017 
 2080000   0.92026793 4.2768381e-05   0.55025591  0.046505463            0   0.50375045    1.3573952    1.9076511    4.8273059 
 2085000    1.1420272 2.7370544e-05   0.41531214  0.010325086            0   0.40498706    1.6844901    2.0998023    3.9682981 
 2090000   0.84833535 -6.8197554e-05   0.64965673  0.079325582            0   0.57033115    1.2512946    1.9009514   -2.7546683 
 2095000   0.99172898 -4.6933683e-05   0.56125022  0.041701944            0   0.51954828    1.4628003    2.0240505   -1.1799556 
 2100000   0.97770346 -0.00016116839   0.60840326  0.010603185            0   0.59780007    1.4421126    2.0505159    -8.951913 
 2105000    1.1456609 9.1929148e-05   0.45521892 0.0046932224            0    0.4505257    1.6898498    2.1450687    8.4207652 
 2110000    1.0024552 -6.2236191e-05   0.53795669 0.0073072412            0   0.53064945    1.4786215    2.0165781   -2.2320792 
 2115000    1.0291535 -1.7446262e-05   0.44174279  0.015563183            0   0.42617961    1.5180015    1.9597443    0.7687461 
 2120000    1.0314376 9.7314178e-06   0.32090513  0.014512469            0   0.30639266    1.5213704    1.8422756     2.506607 
 2125000    1.0176693 -6.4360301e-05   0.46437558  0.034019086            0   0.43035649    1.5010623    1.9654378   -2.4282254 
 2130000    1.0927501 1.6740668e-05   0.42884876  0.028916811            0   0.39993195    1.6118065    2.0406552    3.1834849 
 2135000   0.96742842 -6.5668875e-05   0.60134069  0.021274439            0   0.58006625    1.4269569    2.0282976   -2.4546976 
 2140000    1.0498676 -8.4770768e-05   0.44776269  0.035353784            0   0.41240891    1.5485546    1.9963173   -3.7907004 
 2145000    1.0483738 -1.9906726e-05   0.73427158  0.045641823            0   0.68862976    1.5463513    2.2806229   0.92165704 
 2150000    1.0305933 1.8177999e-05   0.50069682  0.025398521            0    0.4752983    1.5201251    2.0208219    3.2617733 
 2155000   0.99956488 -3.9158683e-05   0.47670303   0.02198655            0   0.45471648    1.4743582    1.9510612  -0.72217152 
 2160000    1.0375063 5.4864402e-05    0.6571983  0.014809934            0   0.64238837    1.5303218    2.1875201    5.9329299 
 2165000    1.0718353 -6.3388944e-05   0.47405722  0.011282964            0   0.46277426     1.580957    2.0550143   -2.2723376 
 2170000    1.0519973 -0.00013852301   0.58249663 0.0069372331            0   0.57555939     1.551696    2.1341926   -7.3223118 
 2175000    1.0198919 -8.2422003e-05   0.51866727  0.011302775            0   0.50736449    1.5043405    2.0230078   -3.6036676 
 2180000    1.0353586 -9.0560301e-05   0.53196576 0.0022141493            0   0.52975161    1.5271539    2.0591197   -4.1231302 
 2185000    1.1760931 3.5533619e-05   0.60608051  0.017067409            0    0.5890131    1.7347374    2.3408179    4.7665796 
 2190000    1.0858219 -8.607701e-05   0.65197471   0.08860128            0   0.56337343    1.6015873     2.253562   -3.6226285 
 2195000    1.0547555 8.1086081e-05   0.60338615            0            0   0.60338615    1.5557644    2.1591505    7.6946269 
 2200000    1.1700761 6.6268034e-05   0.47958628 0.0020968035            0   0.47748947    1.7258622    2.2054485    6.7293462 
 2205000    1.0732323 2.5829974e-05   0.45293929  0.026384241            0   0.42655505    1.5830176    2.0359569    3.7992832 
 2210000    1.1932029 2.2382357e-06   0.43685675  0.012526006            0   0.42433075    1.7599743    2.1968311     2.349628 
 2215000    1.0809978 -9.2960138e-05   0.47233185  0.018894237            0   0.45343761    1.5944718    2.0668036   -4.2792751 
 2220000   0.89975845 1.7965023e-05   0.44699489  0.019640828            0   0.42735406    1.3271437    1.7741386    3.0005508 
 2225000    1.0171558 -2.9110634e-05   0.36781199   0.01780429            0    0.3500077    1.5003048    1.8681168  -0.11916923 
 2230000   0.92087915 -5.2950721e-06   0.40083373 0.0034106847            0   0.39742304    1.3582968    1.7591305    1.3976536 
 2235000   0.98768302 -0.00011277568   0.63341389  0.025070935            0   0.60834295    1.4568325    2.0902463   -5.6085732 
 2240000   0.84354152 4.6363367e-05   0.70698802    0.0230916            0   0.68389642    1.2442237    1.9512118    5.1162843 
 2245000   0.89303365 6.6664422e-05   0.52320403  0.015064227            0   0.50813981    1.3172246    1.8404287    6.3913865 
 2250000   0.97412737 -8.8891877e-05   0.64596215 0.00026670979            0   0.64569544    1.4368379       2.0828   -3.9855521 
 2255000    1.0505649 -1.1514292e-05   0.58639308  0.045727655            0   0.54066542    1.5495833    2.1359763     1.349934 
 2260000   0.96520135 -7.0167293e-05   0.69392671  0.061002973            0   0.63292373     1.423672    2.1175987   -2.6724885 
 2265000    1.0598846 -7.7839415e-05    0.4375871 0.0025235882            0   0.43506351    1.5633297    2.0009168   -3.3129206 
 2270000   0.88024761 -2.4861033e-05   0.53632136  0.034876225            0   0.50144514    1.2983652    1.8346866    0.1375067 
 2275000    1.0663966 -6.9842384e-05   0.62545623  0.016006865            0   0.60944937    1.5729351    2.1983913   -2.5695155 
 2280000    1.1752733 7.6698115e-05   0.59304144 0.0029884575            0   0.59005298    1.7335281    2.3265695    7.5624941 
 2285000   0.84908943 4.7537766e-05   0.63424807  0.021214476            0    0.6130336    1.2524069     1.886655    5.1318998 
 2290000    1.0300688 -1.5057954e-05   0.37115495  0.005826224            0   0.36532872    1.5193514    1.8905064   0.86255007 
 2295000    1.0242327 -8.7600568e-05   0.54119619  0.025519702            0   0.51567649    1.5107432    2.0519394   -3.9282594 
 2300000   0.97870694 9.3421489e-05   0.73999268  0.017957234            0   0.72203544    1.4435927    2.1835854    8.5611591 
 2305000    1.0058585 0.00010157926   0.62697782  0.022086022            0    0.6048918    1.4836412    2.1106191    9.0450968 
 2310000    1.0419296 3.4324551e-05   0.73148285  0.032831411            0   0.69865144    1.5368462     2.268329    4.6115517 
 2315000    1.2295632 -1.7195092e-05   0.63141997  0.016673533            0   0.61474643    1.8136057    2.4450257    1.2711741 
 2320000     1.237399 -0.00014518523   0.58241408  0.036948685            0    0.5454654    1.8251636    2.4075777   -7.5037339 
 2325000   0.97494642 6.6441406e-05   0.58396084   0.03396703            0   0.54999381     1.438046    2.0220068    6.5577401 
 2330000    1.0019049 -3.0785807e-05    0.4582149 0.0026675945            0   0.45554731    1.4778098    1.9360247  -0.16561974 
 2335000     1.135354 -8.2464161e-05   0.43241889 0.0012603882            0   0.43115851    1.6746471     2.107066   -3.5224874 
 2340000    1.0218179 -0.00019595976    0.5457354   0.05431523            0   0.49142017    1.5071814    2.0529168   -11.324603 
 2345000   0.95729122 2.3203983e-05   0.43255597  0.025808058            0   0.40674792    1.4120045    1.8445605    3.4286191 
 2350000    1.0801245 -5.8582932e-05   0.44712624  0.024902039            0    0.4222242    1.5931837    2.0403099   -1.9589516 
 2355000    1.1570282 -8.7360796e-05   0.55943715  0.011571015            0   0.54786614    1.7066166    2.2660538   -3.6977765 
 2360000    1.0898807 9.0984965e-06   0.69112501  0.016514447            0   0.67461056     1.607574     2.298699     2.919823 
 2365000   0.84295873 -1.3899153e-05   0.59779925   0.03661183            0   0.56118742    1.2433641    1.8411634   0.89231456 
 2370000    0.9926199 -1.0809774e-06   0.39425633  0.025495603            0   0.36876073    1.4641144    1.8583707     1.784576 
 2375000   0.99240152 5.2828805e-05   0.64874887  0.017887948            0   0.63086092    1.4637922    2.1125411    5.7189875 
 2380000    1.2810753 -2.5014203e-05   0.36856126  0.021250687            0   0.34731058    1.8895861    2.2581474    0.5505111 
 2385000    0.9640376 8.9474433e-06   0.53474432  0.032919171            0   0.50182515    1.4219555    1.9566998    2.5675119 
 2390000   0.85508871 -3.6070736e-05   0.46160528  0.030668101            0   0.43093718    1.2612558    1.7228611  -0.73956776 
 2395000   0.87576009 6.5053259e-06   0.48710433  0.011139396            0   0.47596494    1.2917461    1.7788505    2.2229474 
 2400000   0.83237732 -5.7228614e-05   0.66944762 0.00040263035            0   0.66904499    1.2277565    1.8972042   -2.0096025 
 2405000    1.1628762 -5.5016318e-05   0.52298115 0.0040515689            0   0.51892958    1.7152423    2.2382235   -1.5175571 
 2410000   0.93205389 4.1438173e-05    0.5682687  0.039326996            0   0.52894171    1.3747795    1.9430482    4.7718942 
 2415000   0.87129095 -1.1512151e-05    0.6305388  0.058156017            0   0.57238278    1.2851542     1.915693    1.1297968 
 2420000    1.0642794 -9.985275e-05   0.46103577  0.020046268            0    0.4409895    1.5698121    2.0308478   -4.7857666 
 2425000    1.0072753 4.8413753e-05   0.59846306   0.10580506            0   0.49265801     1.485731    2.0841941    5.3892397 
 2430000   0.90159041 2.4951042e-05   0.75748769  0.062517972            0   0.69496972    1.3298458    2.0873335     3.790658 
 2435000    1.1553885 4.4224634e-05   0.60190003  0.021546238            0   0.58035379     1.704198    2.3060981    5.3251664 
 2440000    1.0591847 7.7501278e-05    0.4945791   0.02198597            0   0.47259313    1.5622974    2.0568765    7.3476304 
 2445000   0.91295808 -3.0324291e-05   0.54962089 0.0040918572            0   0.54552903    1.3466132    1.8962341  -0.17390417 
 2450000    1.0430362 -5.191085e-05   0.56450291  0.013579526            0   0.55092338    1.5384784    2.1029813   -1.4407994 
 2455000   0.80555985 0.00013952801   0.50008228  0.053065391            0   0.44701689    1.1882008    1.6882831    11.213395 
 2460000    1.0119564 5.5342324e-05   0.45923145  0.012738888            0   0.44649256    1.4926357    1.9518671    5.7299031 
 2465000    1.1141244 1.0151467e-06   0.38509155 0.0086642172            0   0.37642733    1.6433334     2.028425    2.0977256 
 2470000    1.0499764 1.6534999e-05   0.37317528 0.0057502862            0   0.36742499    1.5487152    1.9218905    3.0506798 
 2475000   0.99647889 9.0366116e-05   0.33181817  0.040399334            0   0.29141884    1.4698064    1.8016245     7.970618 
 2480000   0.97866852 -2.9650895e-05   0.36970099  0.014462327            0   0.35523867    1.4435361    1.8132371  -0.21093074 
 2485000   0.94053878 -1.0570518e-05   0.41639092  0.027106204            0   0.38928472    1.3872947    1.8036856    1.0820716 
 2490000   0.80938441 3.0471312e-05     0.457708 0.0070579225            0   0.45065008     1.193842      1.65155    3.7317249 
 2495000   0.91306774 -7.6877715e-05   0.55645812 0.0063312963            0   0.55012682    1.3467749     1.903233   -3.3449523 
 2500000    1.0154158 1.3521678e-05   0.50054859  0.050800903            0   0.44974768    1.4977383    1.9982869    2.9213668 
 2505000    1.0728491 8.9655025e-06   0.60163613  0.068459424            0    0.5331767    1.5824524    2.1840885    2.7961334 
 2510000    1.3003548 1.7006389e-05   0.60103303  0.026966599            0   0.57406643    1.9180233    2.5190564    3.6800259 
 2515000    1.2200437 -0.00013899079   0.69119961  0.047848652            0   0.64335096    1.7995645    2.4907641   -6.9976735 
 2520000    1.0401267 8.033543e-05    0.5854959   0.04378247            0   0.54171343    1.5341868    2.1196827    7.6039148 
 2525000    1.1248492 7.264743e-06   0.62528698 0.0081919984            0   0.61709498    1.6591526    2.2844396    2.7803794 
 2530000    1.0293008 1.0156857e-05   0.65698758  0.028235782            0   0.62875179    1.5182186    2.1752062     2.868581 
 2535000    1.0479634 6.5964856e-05   0.50276214  0.010291752            0   0.49247038    1.5457459    2.0485081    6.5517089 
 2540000   0.92561164 0.00011234363   0.53638276 6.7448005e-05            0   0.53631531    1.3652772    1.9016599    9.5709852 
 2545000     1.125137 3.3603162e-05   0.45286319  0.016529612            0   0.43633358    1.6595771    2.1124403    4.4064161 
 2550000   0.90699831 9.012069e-05   0.60502269  0.026886696            0     0.578136    1.3378225    1.9428452    8.0950843 
 2555000     0.876352 1.6145527e-05   0.67975193  0.039881449            0   0.63987049    1.2926192    1.9723711    3.0745724 
 2560000   0.87992323 3.2841213e-05   0.37047215  0.018173328            0   0.35229883    1.2978868    1.6683589     3.910319 
 2565000   0.87283492 3.6020674e-05   0.59351485  0.039602598            0   0.55391225    1.2874315    1.8809464    4.3399577 
 2570000    0.9738418 8.7141561e-05   0.57284777  0.046214292            0   0.52663348    1.4364167    2.0092644    7.9581283 
 2575000   0.78848035 6.0317164e-05   0.42908209  0.023482252            0   0.40559984    1.1630085    1.5920906    5.7097423 
 2580000   0.93960875 -5.1395217e-05     0.440892  0.011908779            0   0.42898322    1.3859229    1.8268149   -1.6817653 
 2585000   0.95768252 3.5018419e-05   0.42709299  0.055049906            0   0.37204308    1.4125817    1.8396747    4.2302654 
 2590000    1.1050062 5.2543191e-05   0.61080098  0.012818496            0   0.59798249    1.6298841    2.2406851    5.8276336 
 2595000   0.97960365 -3.1193358e-05   0.55969217 0.0087137056            0   0.55097846    1.4449154    2.0046076  -0.12485902 
 2600000   0.95716405 8.504893e-06   0.51675983  0.010710897            0   0.50604893     1.411817    1.9285768    2.5091775 
 2605000   0.77728046 5.8460479e-05   0.66226717 0.0081346626            0   0.65413251    1.1464887    1.8087558    5.7996579 
 2610000   0.94965098 -0.00010625759   0.56432874 0.0033686814            0   0.56096006    1.4007352    1.9650639   -5.2887874 
 2615000    1.0201097 7.0017755e-05   0.52958643  0.017704325            0   0.51188211    1.5046618    2.0342483    6.8141271 
 2620000   0.99704438 -3.5837855e-05   0.53791673 0.0065756511            0   0.53134108    1.4706405    2.0085572  -0.43797374 
 2625000   0.92199431 -5.0626652e-05   0.43184195  0.014025151            0    0.4178168    1.3599416    1.7917836   -1.6643292 
 2630000    0.9527404 -4.3899568e-05   0.50284325  0.023315779            0   0.47952747    1.4052921    1.9081353   -1.0887418 
 2635000   0.96407023 0.00012335618   0.69151998  0.035174138            0   0.65634585    1.4220036    2.1135236    10.534639 
 2640000   0.94765627 4.6950158e-05   0.42245951 0.0022920342            0   0.42016748     1.397793    1.8202525    5.0253833 
 2645000    1.0200705 -1.5004223e-06   0.51489303 0.0015470096            0   0.51334602    1.5046039    2.0194969    1.9170681 
 2650000   0.99112246 -8.7879027e-05   0.54829802  0.009906808            0   0.53839121    1.4619056    2.0102036   -3.9890046 
 2655000   0.86868942 -0.0001580475   0.68379802  0.050664744            0   0.63313328    1.2813169    1.9651149    -8.824261 
 2660000    1.0881933 -2.5244316e-05   0.65361781  0.029269436            0   0.62434837    1.6050851    2.2587029    0.5353576 
 2665000    1.0503958 -2.4823516e-05   0.75280179  0.016592903            0   0.73620888    1.5493338    2.3021356   0.60751694 
 2670000    1.0983143 6.5225626e-05   0.46330393 0.0029396386            0   0.46036429    1.6200136    2.0833176    6.5360536 
 2675000    1.0004293 -7.6924095e-05   0.55564386 0.0094911868            0   0.54615267    1.4756332    2.0312771   -3.2200745 
 2680000   0.82107414 9.5445517e-05   0.54356105  0.056655565            0   0.48690548    1.2110844    1.7546454    8.2703927 
 2685000   0.85531264 1.8987736e-05   0.41971977  0.043265467            0   0.37645431    1.2615861    1.6813059    2.9775353 
 2690000    1.0954426 -1.6545568e-05    0.5651484 0.0071766692            0   0.55797173    1.6157778    2.1809262    1.0514154 
 2695000    1.1470709 3.6168409e-05   0.51978352  0.047121352            0   0.47266217    1.6919296    2.2117131    4.6808099 
 2700000    1.2855308 2.3294775e-05   0.58281266  0.043107121            0   0.53970554    1.8961579    2.4789706    4.0692272 
 2705000    1.2661486 -0.00010460588   0.57538399 0.0070286145            0   0.56835538    1.8675692    2.4429532   -4.6981413 
 2710000    1.0520605 5.8238074e-06   0.48273694  0.033458983            0   0.44927796    1.5517892    2.0345261     2.432098 
 2715000     1.013493 -7.6673131e-05   0.49082616 0.0034275747            0   0.48739859    1.4949022    1.9857284   -3.2484906 
 2720000    1.0691556 -5.8416691e-05   0.45717387  0.042298072            0   0.41487579    1.5770045    2.0341783   -1.9537345 
 2725000   0.98291754 -6.3324845e-05   0.51312504  0.011991751            0   0.50113329    1.4498034    1.9629284   -2.3600477 
 2730000   0.98091866 -7.0749193e-06   0.46697009  0.014517357            0   0.45245273     1.446855    1.9138251     1.430844 
 2735000    0.9008141 2.294782e-05   0.56067631 0.0013231482            0   0.55935316    1.3287008    1.8893771    3.4559483 
 2740000   0.93292435 1.9868368e-05    0.4259236 0.0063598451            0   0.41956375    1.3760634     1.801987    3.1583343 
 2745000   0.82050603 5.301844e-05   0.42258166 0.0055864299            0   0.41699523    1.2102464     1.632828    5.2522202 
 2750000    0.8560383 0.00010670977   0.50575665  0.013203769            0   0.49255288    1.2626565    1.7684131    9.0531333 
 2755000    1.0853295 9.9038954e-05   0.57885434  0.017254425            0   0.56159992     1.600861    2.1797153    8.9407746 
 2760000    1.0684245 -5.1843629e-05   0.52250381  0.014977096            0   0.50752671    1.5759261    2.0984299   -1.4407618 
 2765000    1.0670472 8.7442523e-05   0.70001284  0.037554666            0   0.66245818    1.5738946    2.2739074     8.243317 
 2770000   0.98460658 -3.7420723e-05   0.47543097  0.020870731            0   0.45456024    1.4522947    1.9277257  -0.62686239 
 2775000   0.93961576 -2.5925171e-05    0.3861884 0.0034171772            0   0.38277123    1.3859333    1.7721217 0.0022966641 
 2780000    1.0145462 7.3057969e-05   0.45182799  0.055291877            0   0.39653612    1.4964556    1.9482836    6.9357076 
 2785000    1.0082344 1.5989373e-05   0.60829005   0.04284931            0   0.56544074    1.4871458    2.0954358     3.186977 
 2790000    1.1406232 -2.567793e-07   0.37762685    0.0264853            0   0.35114155    1.6824192    2.0600461    2.0425166 
 2795000   0.99842482 9.4262541e-05   0.51196521   0.01766951            0    0.4942957    1.4726766    1.9846418    8.4196313 
 2800000    1.1000226 -1.0289189e-05   0.49377611  0.049171602            0   0.44460451    1.6225334    2.1163095    1.4139009 
 2805000   0.93162883 -0.00013421312    0.5046338  0.025378464            0   0.47925534    1.3741525    1.8787863   -7.2834959 
 2810000   0.92822351 0.00019128452   0.47364259 0.0073671627            0   0.46627543    1.3691297    1.8427723    14.901129 
 2815000   0.86168697 0.00010674025   0.48769356  0.010025892            0   0.47766767    1.2709883    1.7586818    9.0454827 
 2820000   0.99630337 3.3788242e-05   0.51264829 0.0060487996            0   0.50659949    1.4695475    1.9821958    4.2888064 
 2825000    1.1065387 3.0435141e-05   0.45006619  0.084055167            0   0.36601102    1.6321445    2.0822107    4.1599164 
 2830000   0.95731604 3.5831745e-05   0.43750601  0.021611131            0   0.41589488    1.4120412    1.8495472     4.295661 
 2835000    1.0078055 -8.2804587e-06   0.37358307  0.046820524            0   0.32676255    1.4865131    1.8600962    1.2948168 
 2840000    1.0379736 -3.0720541e-05   0.52501179   0.01354449            0    0.5114673     1.531011    2.0560228 -0.041166065 
 2845000    1.0609401 1.8331888e-05   0.55662977  0.019232095            0   0.53739767    1.5648866    2.1215164    3.3729733 
 2850000    1.0164896 0.00010949279   0.49208998            0            0   0.49208998    1.4993222    1.9914122    9.4661199 
 2855000    1.0006945 -7.4715418e-05   0.53366489 0.00097209386            0    0.5326928    1.4760244    2.0096893   -3.0908833 
 2860000    1.0534534 -8.0731875e-05   0.48207148  0.018885776            0    0.4631857    1.5538437    2.0359152   -3.4753808 
 2865000    1.1631392 7.2741715e-05   0.50841929  0.010996334            0   0.49742295    1.7156303    2.2240496     7.189884 
 2870000    1.0464723 0.0001911735   0.60368336  0.022066419            0   0.58161694    1.5435466      2.14723    15.198008 
 2875000   0.97545668 0.00012758881   0.71563076  0.012121276            0   0.70350948    1.4387986    2.1544294    10.864492 
 2880000    1.0505779 -5.4391417e-05   0.46857703  0.013206586            0   0.45537044    1.5496024    2.0181794   -1.6949413 
 2885000   0.91750708 -6.0914909e-05   0.56370339    0.0165293            0   0.54717409    1.3533229    1.9170263   -2.2414314 
 2890000   0.99720309 -8.8857151e-05   0.45662562 0.0059587175            0    0.4506669    1.4708746    1.9275002   -4.1384813 
 2895000    1.0909469 -9.2215565e-07   0.47738656  0.080971954            0    0.3964146    1.6091466    2.0865332    2.0235807 
 2900000    1.2829328 7.0629357e-05   0.43914154 0.0017283525            0   0.43741318    1.8923258    2.3314674    7.1530982 
 2905000   0.97054371 -0.00015464113   0.52919666 0.0056038289            0   0.52359283     1.431552    1.9607486   -8.5960858 
 2910000    1.0254479 -7.4681083e-05    0.6477221   0.04470124            0   0.60302086    1.5125356    2.1602578   -2.9379708 
 2915000   0.92142015 -6.4552438e-05   0.42501332 3.0826476e-05            0    0.4249825    1.3590947     1.784108   -2.6226717 
 2920000    1.0355508 2.8695436e-05   0.46512873 0.00024349794            0   0.46488523    1.5274374    1.9925662    3.9515079 
 2925000    1.1099136 -6.0840573e-05   0.40972508 0.00024048728            0   0.40948459    1.6371226    2.0468477   -2.1065354 
 2930000   0.99970622 -4.7328398e-05   0.47552313 0.0084833482            0   0.46703978    1.4745667    1.9500898   -1.2808621 
 2935000    1.0281187 -3.7904797e-05   0.49407143  0.042874603            0   0.45119683    1.5164751    2.0105465  -0.57708759 
 2940000     1.129058 4.0326894e-05   0.51260463  0.032624383            0   0.47998025    1.6653605    2.1779651    4.9309477 
 2945000    1.2465386 -1.2608313e-05   0.50848902  0.019838397            0   0.48865062    1.8386445    2.3471335     1.486406 
 2950000     1.005345 3.3577558e-05    0.5776303  0.092037067            0   0.48559323    1.4828838    2.0605141    4.3527421 
 2955000    1.0400975 -0.00010721083   0.46684257 0.0070208111            0   0.45982176    1.5341439    2.0009864   -5.3179393 
 2960000   0.99625211 1.2774964e-05   0.58738514  0.016610909            0   0.57077423    1.4694719     2.056857    2.9289612 
 2965000    1.0152657 1.3387754e-05   0.47898549  0.016807255            0   0.46217823    1.4975169    1.9765024    2.8904397 
 2970000   0.96495149 5.2954019e-07   0.49833578  0.044623875            0    0.4537119    1.4233035    1.9216392    1.9577892 
 2975000    1.0411498 3.2853941e-05   0.45760365  0.010008558            0   0.44759509     1.535696    1.9932996    4.2361286 
 2980000    1.1632952 6.8562503e-05   0.64429563  0.027078161            0   0.61721747    1.7158604     2.360156    7.0406896 
 2985000    1.3011082 2.697398e-06   0.53505659 0.00021349952            0   0.53484309    1.9191346    2.4541912    2.6383335 
 2990000    1.1821921 -3.827564e-05   0.69263427  0.033026261            0   0.65960801    1.7437333    2.4363676   -0.1765828 
 2995000    0.9270918 3.1036524e-05   0.60294945 0.0050380268            0   0.59791142    1.3674604    1.9704099    4.0891699 
 3000000   0.95007798 -2.9377354e-06   0.58737983  0.015059742            0   0.57232009     1.401365    1.9887449    1.7881954 
 3005000   0.83677441 -0.00014440072   0.58489099 0.0029117226            0   0.58197927    1.2342423    1.8191333   -8.0386229 
 3010000   0.98715731 4.1471085e-05   0.56457239  0.015686864            0   0.54888553     1.456057    2.0206294    4.8517222 
 3015000    1.1538239 -7.5111238e-05   0.45039563 0.0086975481            0   0.44169808    1.7018902    2.1522858    -2.975308 
 3020000    1.0440642 -6.2471606e-05   0.54769285 0.0071006005            0   0.54059225    1.5399947    2.0876876   -2.1770407 
 3025000    1.0519561 8.9243913e-05   0.46006885 0.0082455559            0   0.45182329    1.5516353    2.0117041    8.1040886 
 3030000    1.0434143 -8.4587797e-06    0.4838267  0.014134863            0   0.46969183     1.539036    2.0228627      1.44541 
 3035000    1.0993962 4.5085804e-05   0.47738913    0.0154007            0   0.46198843    1.6216093    2.0989985     5.176856 
 3040000    1.0313856 4.0751002e-05   0.63943143  0.046423468            0   0.59300796    1.5212938    2.1607252    4.9426603 
 3045000     1.129246 4.0745553e-06   0.65062773 0.0041082927            0   0.64651944    1.6656378    2.3162655    2.5944218 
 3050000    1.0808412 -1.5363933e-05   0.77994837  0.019529418            0   0.76041896    1.5942407    2.3741891    1.3253446 
 3055000   0.87319117 3.0251282e-05   0.53538579  0.019614692            0    0.5157711     1.287957    1.8233428    3.8884969 
 3060000   0.80188263 -3.7868568e-05   0.62907858   0.03965666            0   0.58942192    1.1827769    1.8118555  -0.77330547 
 3065000   0.96303601 5.6456539e-05   0.51107841   0.10512296            0   0.40595545    1.4204781    1.9315565    5.7856562 
 3070000    1.1247664 1.2301037e-05   0.49141424  0.025876615            0   0.46553762    1.6590304    2.1504446    2.9901955 
 3075000   0.98648805 -0.00016059773   0.48517473 0.0090080438            0   0.47616668    1.4550699    1.9402446   -9.0232274 
 3080000     1.030335 3.1975012e-05   0.36339404  0.016820259            0   0.34657379    1.5197441    1.8831381    4.0659656 
 3085000   0.93873475 2.9838477e-05   0.47011023  0.032817777            0   0.43729245    1.3846338     1.854744    3.8917173 
 3090000   0.88767283 4.1966254e-05   0.51677357 0.0079490844            0   0.50882449    1.3093174     1.826091    4.6909873 
 3095000    1.0596557 3.1777287e-05    0.3936614  0.017909543            0   0.37575186    1.5629922    1.9566536    4.1259831 
 3100000    0.9687761 1.6062778e-05   0.59936376  0.046357376            0   0.55300638    1.4289448    2.0283085    3.1248608 
 3105000    1.0024828 -4.1614858e-05   0.45911902 0.0033086721            0   0.45581035    1.4786621    1.9377811  -0.90312651 
 3110000    1.0070101 0.00011120395   0.41342473  0.013144855            0   0.40027988    1.4853399    1.8987647    9.4902874 
 3115000   0.88331327 -2.5652681e-05   0.58180079  0.059952001            0   0.52184879    1.3028871    1.8846879   0.13346482 
 3120000   0.86168184 8.0088698e-05   0.67039064  0.034287339            0    0.6361033    1.2709807    1.9413713    7.4087598 
 3125000   0.97620671 -8.3672689e-07   0.45383986  0.024473415            0   0.42936645    1.4399049    1.8937448    1.8366242 
 3130000   0.85161882 4.5256673e-05   0.62977643  0.017154667            0   0.61262177    1.2561378    1.8859142    4.9754364 
 3135000    1.0529472 -8.9753485e-05   0.65091214  0.063097869            0   0.58781427    1.5530971    2.2040093    -3.923162 
 3140000    1.0882809 -3.3174064e-05   0.57947231  0.027274891            0   0.55219742    1.6052144    2.1846867 -0.079996106 
 3145000   0.90447311 4.3037306e-05   0.64837292   0.08376036            0   0.56461256    1.3340978    1.9824708    4.9204842 
 3150000   0.99180961 6.6157039e-05   0.48022984  0.012630997            0   0.46759884    1.4629192     1.943149    6.4594695 
 3155000    1.2122581 -4.2422378e-05   0.49537911  0.034943287            0   0.46043583    1.7880806    2.2834597  -0.61257458 
 3160000   0.96753325 -1.3247398e-06   0.48282496 8.7882632e-05            0   0.48273707    1.4271116    1.9099365    1.8195009 
 3165000    1.0541668 -0.00014840997   0.42459795 0.0054639334            0   0.41913402    1.5548961     1.979494     -8.15196 
 3170000   0.97913099 6.5121157e-05   0.45076707 0.0021082424            0   0.44865883    1.4442182    1.8949853    6.3405896 
 3175000    1.0500202 -4.3916116e-05   0.50274446  0.037244653            0    0.4654998    1.5487798    2.0515242  -0.94648261 
 3180000    1.0967241 1.3725102e-05   0.57716328  0.043346724            0   0.53381655    1.6176681    2.1948314    3.1317983 
 3185000   0.99456589 -6.6518311e-05   0.48289727  0.017448754            0   0.46544851    1.4669847     1.949882   -2.5911014 
 3190000    1.1794606 1.3210455e-05   0.39947997  0.013463749            0   0.38601622    1.7397044    2.1391844    3.0410182 
 3195000    1.1425708 -6.5276015e-05   0.56237131  0.015369751            0   0.54700156     1.685292    2.2476633   -2.2085127 
 3200000    1.2921127 -1.8060572e-05   0.55396022  0.048017599            0   0.50594263    1.9058662    2.4598264    1.2268914 
 3205000    1.1921218 -3.5061785e-05   0.69252861  0.059103234            0   0.63342537    1.7583796    2.4509082  0.057356996 
 3210000    1.1608772 8.6544057e-05   0.63780184  0.009692546            0   0.62810929    1.7122938    2.3500956      8.25817 
 3215000     1.222509 -2.7623308e-06   0.59151102  0.046009211            0   0.54550181    1.8032008    2.3947118    2.2061367 
 3220000    1.1699624 4.0610649e-05   0.56965257  0.035795642            0   0.53385693    1.7256945    2.2953471    5.0677007 
 3225000    1.1358359 0.00012629471   0.39919695   0.00381617            0   0.39538078    1.6753579    2.0745548    10.696274 
 3230000    1.1344266 -4.2754215e-05    0.4802898  0.013773633            0   0.46651616    1.6732792     2.153569  -0.76511874 
 3235000    1.0575587 -5.488541e-05   0.48689105  0.027550555            0   0.45934049    1.5598991    2.0467902   -1.7000538 
 3240000   0.86129252 -8.0190795e-05   0.49929642  0.051985264            0   0.44731116    1.2704065    1.7697029   -3.7046553 
 3245000   0.96052124 3.6650068e-05   0.47077886  0.015143005            0   0.45563585    1.4167688    1.8875477    4.3895256 
 3250000    1.0728198 6.068876e-05   0.55046662  0.050034902            0   0.50043172    1.5824092    2.1328758    6.2758952 
 3255000    1.2465262 8.2171515e-06   0.52556378 0.0025812402            0   0.52298254    1.8386262      2.36419    2.9251475 
 3260000    1.0984721 4.1697851e-05   0.65714938  0.014696083            0   0.64245329    1.6202464    2.2773957    5.1239691 
 3265000    1.0944219 -8.1166424e-06   0.55537466 0.0047556952            0   0.55061897    1.6142723     2.169647    1.6155508 
 3270000   0.97313433 -1.606222e-05   0.67640262 0.0019507545            0   0.67445187    1.4353731    2.1117758    1.0152615 
 3275000    1.1461123 3.7623726e-05   0.35623246 0.0049053263            0   0.35132713    1.6905156    2.0467481    4.6151944 
 3280000    1.1427012 3.6143715e-05   0.61580869  0.018767905            0   0.59704079    1.6854842    2.3012929    4.7687039 
 3285000    1.0144734 -8.4143302e-05   0.50756621  0.012062029            0   0.49550418    1.4963482    2.0039145   -3.7402683 
 3290000    1.0125556 -3.3539589e-05   0.59188942  0.028753517            0    0.5631359    1.4935195    2.0854089  -0.20422697 
 3295000   0.90799201 -0.00015835989   0.71882564 0.0025477853            0   0.71627786    1.3392882    2.0581139   -8.7525877 
 3300000    1.0790532 5.0858402e-05   0.46381921 0.0091807207            0   0.45463849    1.5916035    2.0554227    5.5273563 
 3305000   0.84274033 -8.9614265e-06   0.69591515 0.0098946789            0   0.68602047     1.243042    1.9389571    1.3271904 
 3310000   0.98975908 -9.1665061e-05   0.61271797  0.018122348            0   0.59459562    1.4598946    2.0726126   -4.1850556 
 3315000    1.1211957 -0.00011854176   0.66447606  0.015884648            0   0.64859142    1.6537636    2.3182397   -5.7742108 
 3320000    1.0418311 6.9725892e-05   0.64703193  0.038376155            0   0.60865578    1.5367008    2.1837328     6.943687 
 3325000   0.94381075 -4.4160658e-05   0.66435018  0.012886417            0   0.65146376    1.3921209     2.056471   -0.9582299 
 3330000    1.1968578 3.6320202e-05   0.61341628  0.013603512            0   0.59981277    1.7653653    2.3787816    4.8582407 
 3335000    1.0630027 5.0029474e-06   0.39361557  0.012776887            0   0.38083869    1.5679289    1.9615445     2.303079 
 3340000    1.0694557 -6.0136032e-05     0.520721  0.016446784            0   0.50427421    1.5774472    2.0981682   -2.0071182 
 3345000     1.027083 -6.1731668e-05   0.46376407 0.0052447347            0   0.45851934    1.5149474    1.9787115   -2.2355037 
 3350000    1.1558095 2.365253e-06   0.63257459  0.039617538            0   0.59295705    1.7048191    2.3373936    2.4988616 
 3355000   0.98172395 2.8527952e-05   0.66406901  0.097623467            0   0.56644555    1.4480428    2.1121118      4.05962 
 3360000    1.0126935 -2.2216415e-05   0.61098132 0.0029578216            0    0.6080235    1.4937229    2.1047042   0.58806363 
 3365000    1.3168022 4.0671572e-05   0.46716461  0.015937765            0   0.45122684    1.9422833    2.4094479    5.1859605 
 3370000    1.1299489 6.8468722e-05   0.47984823  0.051139031            0    0.4287092    1.6666746    2.1465229    6.8206543 
 3375000   0.84746338 1.8312677e-05   0.53884714  0.027251681            0   0.51159546    1.2500085    1.7888556    3.0390011 
 3380000   0.72934762 0.00011459011   0.71507509  0.020347328            0   0.69472776    1.0757877    1.7908628    9.6135475 
 3385000    1.0399387 7.4979342e-05    0.5083615 0.0026727733            0   0.50568873    1.5339096    2.0422711    7.1608608 
 3390000   0.99045714 -0.00013147209    0.5552649  0.020392658            0   0.53487224    1.4609243    2.0161892   -6.9589725 
 3395000    1.0981908 -6.3873218e-05   0.43500439 0.0051226313            0   0.42988176    1.6198314    2.0548358   -2.3055759 
 3400000    1.0876074 7.6894807e-05   0.42660987 0.0041471487            0   0.42246272    1.6042209    2.0308308    7.2801829 
 3405000   0.84916841 -6.8504592e-05   0.72906528   0.12513828            0   0.60392701    1.2525234    1.9815887   -2.6949914 
 3410000    1.0858106 -4.7191352e-05   0.53716912  0.019489683            0   0.51767943    1.6015707    2.1387398   -1.0828565 
 3415000    1.0423958 -2.2347263e-05   0.60626105  0.015964565            0   0.59029648    1.5375338    2.1437949   0.61822174 
 3420000   0.91598917 3.7091179e-05   0.61632072 0.0026333263            0   0.61368739     1.351084    1.9674047    4.4994959 
 3425000   0.98129181 1.0010458e-05    0.7196066  0.023272079            0   0.69633452    1.4474054     2.167012    2.8503926 
 3430000    1.0930057 -1.7711095e-05   0.65672624  0.024876803            0   0.63184944    1.6121834    2.2689097    1.0598322 
 3435000    1.0202598 -3.7747019e-05   0.55633745  0.036912094            0   0.51942536    1.5048832    2.0612206  -0.51564251 
 3440000    1.0539687 2.4725704e-05   0.39397089 0.0051150146            0   0.38885587    1.5546038    1.9485747    3.6365161 
 3445000    1.0268505 -5.9801471e-05   0.41699421  0.015105847            0   0.40188836    1.5146045    1.9315987   -2.1508484 
 3450000   0.97443908 7.2511659e-05   0.47977285  0.054637511            0   0.42513534    1.4372976    1.9170705    6.8671998 
 3455000   0.85811992 -2.3201123e-05   0.50797414  0.020378448            0   0.48759569    1.2657269     1.773701   0.18983766 
 3460000   0.91578687 -2.8164411e-05   0.59614914  0.015366548            0   0.58078259    1.3507856    1.9469348  0.024244324 
 3465000   0.91219467 3.3494384e-05    0.6926725  0.030654878            0   0.66201762    1.3454871    2.0381596    4.3247096 
 3470000    1.0031749 -1.5736843e-05    0.6169604 0.0086929945            0    0.6082674     1.479683    2.0966434    1.0223415 
 3475000    1.0276951 9.2041114e-05   0.62918623   0.10611909            0   0.52306715    1.5158503    2.1450366    8.4283766 
 3480000   0.90081914 9.5527281e-05   0.44872813 0.0023831197            0   0.44634501    1.3287082    1.7774364    8.2987654 
 3485000   0.89261744 -2.8879371e-05   0.42262266 0.0031970491            0   0.41942561    1.3166107    1.7392334  -0.23226498 
 3490000    1.0852188 -8.5086563e-05   0.47566042  0.012784209            0   0.46287621    1.6006978    2.0763582   -3.7322178 
 3495000    1.1263595 -6.6575065e-05   0.47715291 0.00050415897            0   0.47664875    1.6613803    2.1385332   -2.4063245 
 3500000    1.0968992 -6.1978377e-05   0.38779035  0.020905752            0    0.3668846    1.6179263    2.0057167   -2.2253405 
 3505000    1.0451406 4.8093543e-05   0.57854448    0.0410106            0   0.53753388    1.5415824    2.1201269    5.4033128 
 3510000     1.087199 -8.7181178e-05    0.6535797   0.10998864            0   0.54359106    1.6036185    2.2571982   -3.6943702 
 3515000    1.1138843 -0.00013888507    0.7256168  0.076996565            0   0.64862023    1.6429794    2.3685962   -7.1126244 
 3520000    1.1062973 3.6760199e-05   0.44957221 3.4722581e-05            0   0.44953749    1.6317886    2.0813608     4.590857 
 3525000   0.95576401 -6.1874677e-05   0.64640673   0.01701953            0    0.6293872    1.4097519    2.0561586   -2.1678193 
 3530000   0.99618586 0.00012027248   0.77596319  0.011960141            0   0.76400305    1.4693741    2.2453373    10.455939 
 3535000    1.0470248 -0.00012222863   0.50235782  0.018443067            0   0.48391476    1.5443616    2.0467195   -6.2974214 
 3540000   0.92160509 -9.6997929e-05   0.58278798 0.0094315634            0   0.57335641    1.3593675    1.9421555   -4.6795698 
 3545000   0.78204226 3.605069e-06   0.47031959  0.011950934            0   0.45836866    1.1535123    1.6238319     1.869938 
 3550000    1.0544229 5.5140547e-05   0.47578461   0.10170022            0   0.37408438    1.5552738    2.0310584    5.7953198 
 3555000   0.98160894 -1.0549702e-05   0.52849673  0.012577817            0   0.51591892    1.4478732    1.9763699    1.2561769 
 3560000   0.99270333 -1.8466034e-06   0.58947991  0.050921623            0   0.53855829    1.4642374    2.0537173    1.9276559 
 3565000    1.0225748 -4.511184e-05   0.48895917  0.048755756            0   0.44020342    1.5082979    1.9972571   -1.0823779 
 3570000    1.1160181 4.0258998e-05   0.43428828  0.028716748            0   0.40557153    1.6461267     2.080415    4.8287626 
 3575000    1.1216468 4.896451e-05   0.40434207  0.013769287            0   0.39057278     1.654429    2.0587711    5.4014149 
 3580000    1.0294825 8.3248133e-05   0.59095662  0.050527602            0   0.54042901    1.5184866    2.1094432    7.7925158 
 3585000    1.0591352 -3.0079245e-06   0.40341897 0.0051379963            0   0.39828098    1.5622244    1.9656433    1.7603024 
 3590000    1.1415594 -2.3724338e-05   0.48661601 0.0051809797            0   0.48143503       1.6838    2.1704161   0.55083458 
 3595000    1.0238196 -7.7072299e-05   0.60541916   0.05117644            0   0.55424272     1.510134    2.1155531   -3.1459158 
 3600000    1.0174849 1.3013908e-05   0.52639417  0.059429012            0   0.46696516    1.5007902    2.0271843    2.9156005 
 3605000   0.91628148 7.8491367e-05   0.51126869 0.0072693809            0    0.5039993    1.3515152    1.8627839    7.2211279 
 3610000    1.1491758 0.00015413483     0.465827  0.024890894            0    0.4409361    1.6950343    2.1608613    12.683132 
 3615000     1.106395 -0.00010482207   0.57561496  0.029321344            0   0.54629361    1.6319327    2.2075476   -4.9483057 
 3620000    1.1622401 -1.7604322e-05   0.33089964 0.0036507583            0   0.32724888    1.7143041    2.0452038   0.84341537 
 3625000   0.94681672 6.7614713e-06   0.60305822 0.0021878475            0   0.60087037    1.3965547    1.9996129     2.461196 
 3630000    1.0125546 8.2799823e-05   0.44952957 0.0014203069            0   0.44810926     1.493518    1.9430476    7.5955155 
 3635000   0.89320424 -5.7978445e-05   0.33939692 0.0074784163            0    0.3319185    1.3174763    1.6568732    -2.301122 
 3640000   0.91497498 -0.00015877218     0.460499  0.019988522            0   0.44051047    1.3495881    1.8100871   -9.0287605 
 3645000    1.0284402 3.704243e-05   0.46208131  0.013100622            0   0.44898069    1.5169494    1.9790307    4.5077939 
 3650000    1.0965354 -4.0685343e-05   0.55655046  0.014053804            0   0.54249666    1.6173897    2.1739402  -0.60351258 
 3655000    1.0007154 -3.2179518e-05   0.59513485  0.032212036            0   0.56292282    1.4760553    2.0711901  -0.12559833 
 3660000    1.2122495 5.8119154e-05   0.44133337  0.062240636            0   0.37909273     1.788068    2.2294014    6.1970023 
 3665000    1.2289286 -5.4809863e-05   0.42933765  0.017307545            0    0.4120301    1.8126698    2.2420074   -1.4996793 
 3670000    1.0397519 -1.0689429e-05   0.61162155  0.042814206            0   0.56880735     1.533634    2.1452556    1.4155239 
 3675000    1.0688333 -1.1880498e-05    0.5015792  0.018903695            0    0.4826755    1.5765291    2.0781083    1.2670663 
 3680000   0.98917088 2.5773073e-05   0.57597214  0.041178112            0   0.53479403     1.459027    2.0349992     3.794441 
 3685000   0.94969732 4.2301183e-05   0.52129258  0.009985617            0   0.51130696    1.4008036    1.9220961    4.8098569 
 3690000   0.93515133 -3.0785047e-05   0.61951817 0.0055867369            0   0.61393143    1.3793482    1.9988664  -0.10272616 
 3695000   0.94782474 2.3641084e-05   0.45703922  0.037904705            0   0.41913452    1.3980415    1.8550807    3.4689787 
 3700000    1.0880957 3.9504051e-05   0.41225337  0.016553501            0   0.39569987    1.6049412    2.0171946    4.7140044 
 3705000    1.0939752 2.840087e-05   0.59693184  0.014958366            0   0.58197348    1.6136134    2.2105452     4.149378 
 3710000    0.9983746 2.4796333e-05   0.50780694  0.028253031            0   0.47955391    1.4726025    1.9804095    3.6731725 
 3715000    1.0758844 -2.2576779e-05    0.4625173 0.0092101765            0   0.45330713    1.5869294    2.0494467   0.50820525 
 3720000   0.90013784 5.4036177e-06   0.41179437 0.0019247706            0    0.4098696    1.3277033    1.7394977    2.1083847 
 3725000   0.90246574 -4.6670363e-05   0.57798467  0.018965308            0   0.55901936     1.331137    1.9091216   -1.2769085 
 3730000   0.93943483 -2.0183283e-05   0.64445961  0.024938786            0   0.61952083    1.3856664     2.030126   0.65228053 
 3735000   0.87071771 5.7390751e-05    0.4718191  0.011360593            0   0.46045851    1.2843086    1.7561277     5.674003 
 3740000     1.093801 1.2015657e-06   0.47977974  0.074871688            0   0.40490805    1.6133565    2.0931362    2.1751631 
 3745000     1.226887 -2.8858653e-05   0.38259258  0.016896806            0   0.36569578    1.8096584    2.1922509   0.22216689 
 3750000   0.84733155 2.0445766e-05   0.46562908  0.013557048            0   0.45207203     1.249814    1.7154431    3.1112074 
 3755000   0.93885809 4.9769727e-05   0.47876126  0.045976216            0   0.43278505    1.3848157    1.8635769    5.2611903 
 3760000    1.0005285 -4.9586526e-06   0.43029635 0.0033681437            0   0.42692821    1.4757796     1.906076    1.5675653 
 3765000   0.87909229 -6.0521222e-05   0.56970935  0.027483056            0    0.5422263    1.2966611    1.8663705   -2.2652116 
 3770000   0.95030288 7.3520887e-05   0.44839181  0.024715338            0   0.42367647    1.4016967    1.8500886    6.8691144 
 3775000    0.8847448 1.5104136e-05   0.38310383  0.012838278            0   0.37026556    1.3049986    1.6881024    2.7192114 
 3780000    0.8123742 3.7900114e-05   0.33042081  0.011997849            0   0.31842296    1.1982519    1.5286728    4.1159872 
 3785000    1.0213866 -2.0881661e-06   0.40397715 0.0025767176            0   0.40140043    1.5065453    1.9105224    1.7679703 
 3790000   0.96774867 -2.6976805e-06   0.56412369   0.01585544            0   0.54826826    1.4274293     1.991553    1.8073913 
 3795000   0.92629261 3.3618397e-05   0.54047904  0.013270791            0   0.52720825    1.3662816    1.9067606    4.2017766 
 3800000   0.99510686 -0.00011267846   0.63892737 0.0057165202            0   0.63321085    1.4677826      2.10671   -5.5854731 
 3805000    1.0545727 -8.4424559e-05   0.53374124 0.0055427885            0   0.52819845    1.5554948     2.089236   -3.6741472 
 3810000   0.98137298 2.3796824e-05   0.45945007   0.01814356            0   0.44130651    1.4475251    1.9069752    3.5315051 
 3815000   0.91751603 -1.3356045e-05   0.50180571  0.018419852            0   0.48338586    1.3533362    1.8551419   0.94336921 
 3820000   0.84854935 8.6551576e-05   0.47975755 0.0051835212            0   0.47457403    1.2516103    1.7313678    7.6399554 
 3825000   0.93048779 1.9222749e-05   0.48916011  0.040549273            0   0.44861084    1.3724695    1.8616296    3.1739026 
 3830000   0.90880471 -2.4645783e-05   0.48280847  0.020643895            0   0.46216458    1.3404869    1.8232954   0.14080999 
 3835000   0.87613395 -3.3620745e-05   0.46509373   0.01401169            0   0.45108204    1.2922976    1.7573913  -0.53778491 
 3840000   0.81505908 -2.0521483e-05   0.53805297 0.0016760712            0    0.5363769    1.2022121    1.7402651    0.3393319 
 3845000   0.95097163 -7.6336346e-05   0.56462645  0.050088991            0   0.51453746    1.4026832    1.9673096   -3.2439183 
 3850000   0.86271057 -7.6311517e-06   0.47925439  0.012418392            0     0.466836    1.2724981    1.7517525    1.2307992 
 3855000   0.98304289 3.3777241e-05   0.55083242   0.03710624            0   0.51372618    1.4499883    2.0008207    4.3066803 
 3860000   0.92356853 -0.00016108754   0.43563511  0.040791078            0   0.39484404    1.3622636    1.7978987   -9.1990108 
 3865000   0.93266211 -3.5027988e-06   0.63740022  0.015492319            0    0.6219079    1.3756766    2.0130768    1.7739524 
 3870000   0.98821927 1.3468906e-05   0.53783318 0.0032293278            0   0.53460385    1.4576234    1.9954566    2.9149339 
 3875000   0.96627202 3.1604147e-05   0.71558633  0.038232677            0   0.67735365    1.4252512    2.1408375    4.2983473 
 3880000      1.10187 -6.126023e-05   0.55825904 0.0083507626            0   0.54990827    1.6252583    2.1835173   -1.9985144 
 3885000    1.1118001 3.9940837e-05    0.4295445   0.01306757            0   0.41647693    1.6399052    2.0694497    4.7960775 
 3890000   0.99907004 5.0826278e-05   0.32456517 0.0071438389            0   0.31742133    1.4736283    1.7981935    5.2679341 
 3895000   0.98091726 4.9974117e-05   0.36664506 0.0028229387            0   0.36382212     1.446853     1.813498    5.2250644 
 3900000   0.79442248 2.5814742e-06   0.49085659 0.0018564825            0    0.4890001    1.1717732    1.6626297    1.8388584 
 3905000   0.98232417 -2.8729988e-05   0.32330694  0.028324101            0   0.29498284    1.4489281    1.7722351  -0.18906541 
 3910000    1.1579018 -0.00010332412   0.41661324 0.0014699213            0   0.41514332    1.7079051    2.1245184    -4.929075 
 3915000   0.92612413 -7.2322431e-05    0.4702629 0.00089473509            0   0.46936817    1.3660331     1.836296   -3.1009153 
 3920000   0.87499449 -2.7051989e-05   0.45906604 0.0053773587            0   0.45368868    1.2906169    1.7496829 -0.097066218 
 3925000   0.99910354 2.395421e-05   0.47751688 0.0049854674            0   0.47253141    1.4736777    1.9511946    3.5864687 
 3930000    1.0049569 5.9751715e-05   0.49442885  0.032616128            0   0.46181272    1.4823114    1.9767403    6.0557907 
 3935000    1.0029847 -3.0964333e-05   0.45683298 0.00024712807            0   0.45658585    1.4794025    1.9362355  -0.17759636 
 3940000    1.0278386 3.839369e-05   0.38990272 0.0041641026            0   0.38573862     1.516062    1.9059647    4.5269739 
 3945000   0.93039628 -4.7975912e-05   0.59894104   0.09085924            0    0.5080818    1.3723345    1.9712755     -1.30388 
 3950000    1.0053334 -4.0118627e-05    0.6473196 0.0010793312            0   0.64624027    1.4828668    2.1301864   -0.6085785 
 3955000    1.0907682 9.4495335e-05   0.57305032   0.04220728            0   0.53084304    1.6088831    2.1819335     8.632815 
 3960000    1.1824111 4.9791734e-05    0.5454916   0.09046248            0   0.45502912    1.7440563    2.2895479    5.6886636 
 3965000    1.1086874 -4.5866789e-05   0.59021356  0.012524073            0   0.57768948    1.6353138    2.2255274  -0.90564538 
 3970000   0.93617676 -0.00013719499   0.45665077  0.072889193            0   0.38376158    1.3808607    1.8375115   -7.5283331 
 3975000    1.1453683 -4.0735425e-05     0.386996  0.029158098            0    0.3578379    1.6894183    2.0764143  -0.70445743 
 3980000   0.98877098 3.4737564e-05   0.34026417   0.04162025            0   0.29864392    1.4584372    1.7987014     4.170119 
 3985000    1.0356162 4.2946273e-05   0.39616657 0.0069310398            0   0.38923553    1.5275339    1.9237005    4.8554994 
 3990000   0.88977401 3.6800519e-05    0.5146607   0.04085754            0   0.47380316    1.3124167    1.8270774    4.3393261 
 3995000    1.2159462 4.0214468e-05   0.48755232 0.0090214499            0   0.47853087    1.7935207     2.281073    5.0263807 
 4000000   0.94363631 2.4350205e-05   0.66435083  0.020540751            0   0.64381008    1.3918636    2.0562144    3.7185217 
Loop time of 210.377 on 1 procs for 2000000 steps with 60 atoms

Performance: 821382.077 tau/day, 9506.737 timesteps/s
99.3% CPU use with 1 MPI tasks x no OpenMP threads

MPI task timing breakdown:
Section |  min time  |  avg time  |  max time  |%varavg| %total
---------------------------------------------------------------
Pair    | 0.74718    | 0.74718    | 0.74718    |   0.0 |  0.36
Bond    | 1.8387     | 1.8387     | 1.8387     |   0.0 |  0.87
Neigh   | 178.44     | 178.44     | 178.44     |   0.0 | 84.82
Comm    | 24.689     | 24.689     | 24.689     |   0.0 | 11.74
Output  | 0.039916   | 0.039916   | 0.039916   |   0.0 |  0.02
Modify  | 4.013      | 4.013      | 4.013      |   0.0 |  1.91
Other   |            | 0.6141     |            |       |  0.29

Nlocal:        60.0000 ave          60 max          60 min
Histogram: 1 0 0 0 0 0 0 0 0 0
Nghost:        0.00000 ave           0 max           0 min
Histogram: 1 0 0 0 0 0 0 0 0 0
Neighs:        23.0000 ave          23 max          23 min
Histogram: 1 0 0 0 0 0 0 0 0 0

Total # of neighbors = 23
Ave neighs/atom = 0.38333333
Ave special neighs/atom = 5.8000000
Neighbor list builds = 38337
Dangerous builds = 0
write_restart restart.rerun.1
System init for write_restart ...
WARNING: Communication cutoff 1.4200000000000002 is shorter than a bond length based estimate of 1.8. This may lead to errors. (../comm.cpp:667)
#--------------End of Input file ------------------
Total wall time: 0:03:30
