LAMMPS (29 Oct 2020)
###################### polyelectrolyte complexation ######################
clear

#Initialization
#------------------------------------
units				lj
dimension			3
atom_style			full
boundary			p p p

#Atom Definition
#-------------------------------------
read_restart			restart.equil
Reading restart file ...
  restart file = 29 Oct 2020, LAMMPS = 29 Oct 2020
  restoring atom style full from restart
  orthogonal box = (-80.000000 -80.000000 -80.000000) to (80.000000 80.000000 80.000000)
  1 by 1 by 1 MPI processor grid
  restoring pair style lj/cut from restart
  restoring bond style harmonic from restart
  60 atoms
  59 bonds
Finding 1-2 1-3 1-4 neighbors ...
  special bond factors lj:    0.0      1.0      1.0     
  special bond factors coul:  0.0      0.0      0.0     
     2 = max # of 1-2 neighbors
     2 = max # of 1-3 neighbors
     4 = max # of 1-4 neighbors
     6 = max # of special neighbors
  special bonds CPU = 0.000 seconds
  read_restart CPU = 0.003 seconds

#Force definition
#----------------------------------------------
#Bond definition
bond_style			harmonic
bond_coeff			1 5000 1
#Pair definition
special_bonds	lj 0 1 1
dielectric		80
pair_style		 lj/cut 1.12
pair_modify 		 shift yes
pair_coeff	1 1 1 1 1.12

#Timestep etc
#--------------------------------------------
timestep		0.001
run_style		verlet
velocity		all	create	1	2

#Fix
#---------------------------------------
group polymers type 1
60 atoms in group polymers
fix 1 all nve
fix 2 all langevin 1	1	1000	2

#Dump
#------------------------------------------------
compute  1 all gyration
variable  myRg2 equal c_1
variable  i equal step
fix  mythermofile all print 5000 "$i ${myRg2}" file radius_of_gyration.dat screen no

thermo_style		 custom step temp press pe evdwl ecoul ebond ke etotal enthalpy
thermo 	5000
dump	3 all custom 5000 dump.lammpstrj id mol type xu yu zu
run		2000000
Neighbor list info ...
  update every 1 steps, delay 10 steps, check yes
  max neighbors/atom: 2000, page size: 100000
  master list distance cutoff = 1.42
  ghost atom cutoff = 1.42
  binsize = 0.71, bins = 226 226 226
  1 neighbor lists, perpetual/occasional/extra = 1 0 0
  (1) pair lj/cut, perpetual
      attributes: half, newton on
      pair build: half/bin/newton
      stencil: half/bin/3d/newton
      bin: standard
WARNING: Communication cutoff 1.4200000000000002 is shorter than a bond length based estimate of 1.8. This may lead to errors. (../comm.cpp:667)
Per MPI rank memory allocation (min/avg/max) = 54.71 | 54.71 | 54.71 Mbytes
Step Temp Press PotEng E_vdwl E_coul E_bond KinEng TotEng Enthalpy 
 2000000            1 -0.00012130765   0.43871753 0.0060657727            0   0.43265176        1.475    1.9137175   -6.3675516 
 2005000   0.96670698 7.3494068e-05   0.48254296  0.024008407            0   0.45853455    1.4258928    1.9084358    6.9256308 
 2010000   0.90949915 -2.636692e-05    0.5527892 0.0080545138            0   0.54473469    1.3415113    1.8943005  0.094318721 
 2015000   0.86427123 4.6698204e-05   0.60872052  0.009223991            0   0.59949653    1.2748001    1.8835206    5.0714513 
 2020000   0.94233013 -4.6084997e-05   0.50727003  0.030932895            0   0.47633714    1.3899369     1.897207   -1.2488622 
 2025000   0.90744033 -3.4730195e-05   0.56500163  0.019407136            0   0.54559449    1.3384745    1.9034761  -0.46743852 
 2030000   0.96947081 3.2259192e-05   0.48810954  0.034749679            0   0.45335986    1.4299695     1.918079    4.1203065 
 2035000   0.92744993 4.942103e-05   0.57552762 0.0028522741            0   0.57267535    1.3679886    1.9435163    5.3173253 
 2040000   0.88645263 -3.719403e-05   0.61714466  0.031859358            0    0.5852853    1.3075176    1.9246623  -0.61445018 
 2045000   0.91086143 -1.0245036e-05   0.60345229 0.0011254699            0   0.60232682    1.3435206    1.9469729    1.2475784 
 2050000   0.93308041 5.2788359e-05    0.5641719  0.016345551            0   0.54782635    1.3762936    1.9404655    5.5441508 
 2055000   0.79720279 2.3713696e-06   0.72720647  0.049674117            0   0.67753235    1.1758741    1.9030806    2.0649661 
 2060000   0.82994731 -7.0818287e-05   0.65191959  0.026847773            0   0.62507182    1.2241723    1.8760919   -2.9584365 
 2065000   0.83625831 9.0714208e-05   0.62383768 0.0072766469            0   0.61656103     1.233481    1.8573187    8.0500753 
 2070000   0.79167744 9.9096433e-05   0.67393764  0.029264088            0   0.64467355    1.1677242    1.8416619     8.606645 
 2075000   0.88620801 -3.0863752e-06   0.53818262  0.014752507            0   0.52343012    1.3071568    1.8453394    1.6346429 
 2080000   0.92885641 -4.0395796e-05   0.50162826  0.044231876            0   0.45739638    1.3700632    1.8716915  -0.88599491 
 2085000   0.91870041 3.8309663e-05    0.5574121  0.011941591            0   0.54547051    1.3550831    1.9124952    4.5277682 
 2090000    1.0186747 3.452602e-05   0.41827624  0.016069824            0   0.40220641    1.5025452    1.9208214    4.2777977 
 2095000    0.8670034 -9.9933535e-05   0.66845369  0.023472241            0   0.64498144      1.27883    1.9472837   -4.8748456 
 2100000   0.96755929 -0.00022555539    0.4962975 0.0045641202            0   0.49173338      1.42715    1.9234475   -13.474467 
 2105000    0.9872263 -7.1991788e-05   0.46589212  0.013936482            0   0.45195564    1.4561588    1.9220509   -2.9925885 
 2110000   0.80993593 -6.9498103e-05   0.70822918  0.081353225            0   0.62687596    1.1946555    1.9028847   -2.8415191 
 2115000   0.96399601 -3.9375999e-05   0.49572458 0.0041357657            0   0.49158881    1.4218941    1.9176187   -0.7704495 
 2120000   0.83104258 -3.2723483e-05   0.69584675  0.059413527            0   0.63643322    1.2257878    1.9216346  -0.31228856 
 2125000   0.96100774 -5.3637783e-06   0.47412907  0.022186852            0   0.45194221    1.4174864    1.8916155    1.5254482 
 2130000   0.97371936 -5.4758995e-05    0.4622007 0.0017018557            0   0.46049884     1.436236    1.8984368   -1.8397773 
 2135000   0.91299121 1.6900816e-05   0.53084269 0.0071243755            0   0.52371831     1.346662    1.8775047    3.0312671 
 2140000   0.95216852 -5.9680769e-05   0.46730661            0            0   0.46730661    1.4044486    1.8717552    -2.202452 
 2145000    0.9112799 8.5765123e-05   0.52049459  0.023128411            0   0.49736618    1.3441378    1.8646324    7.7195315 
 2150000   0.98623113 8.4731774e-05   0.43315368   0.04110284            0   0.39205084    1.4546909    1.8878446    7.6722004 
 2155000    0.8745701 -2.4143715e-05   0.60161521  0.016265681            0   0.58534953    1.2899909    1.8916061   0.24339517 
 2160000   0.82652321 -1.7829887e-05   0.67332301  0.033916879            0   0.63940613    1.2191217    1.8924447   0.67525778 
 2165000   0.87884178 -0.00011204124   0.59801877  0.011819441            0   0.58619933    1.2962916    1.8943104   -5.7543713 
 2170000   0.91566955 0.00013211178   0.56826566 0.0056794464            0   0.56258621    1.3506126    1.9188783    10.937709 
 2175000   0.84280195 2.4683496e-05   0.65300571  0.013910658            0   0.63909505    1.2431329    1.8961386    3.5811986 
 2180000   0.93336191 7.7848151e-05   0.51877808  0.011185278            0    0.5075928    1.3767088    1.8954869    7.2099207 
 2185000   0.94540163 -2.5556087e-05   0.48738315 0.0090185552            0   0.47836459    1.3944674    1.8818506   0.13722171 
 2190000    1.0698298 -4.9873973e-05   0.29993302 0.0043420429            0   0.29559098    1.5779989    1.8779319    -1.526798 
 2195000    1.0103226 9.5661003e-05    0.4175175 0.0045737841            0   0.41294372    1.4902258    1.9077433    8.4382011 
 2200000   0.98119575 1.3753283e-05   0.43202889   0.04097274            0   0.39105615    1.4472637    1.8792926    2.8181834 
 2205000   0.98886434 -8.7088771e-05   0.44429902 0.0070229469            0   0.43727608    1.4585749    1.9028739   -4.0423862 
 2210000   0.94637494 2.1981096e-05   0.51355748 0.0040771857            0    0.5094803     1.395903    1.9094605    3.4100367 
 2215000   0.94944516 -6.1271757e-05    0.5151968  0.009852181            0   0.50534462    1.4004316    1.9156284   -2.2671902 
 2220000   0.95158359 -4.848998e-05   0.49053474   0.02097569            0   0.46955905    1.4035858    1.8941205   -1.4161288 
 2225000   0.95815618 0.00018398426    0.4834346 0.0033105869            0   0.48012401    1.4132804     1.896715    14.456707 
 2230000   0.90695007 4.184961e-05   0.54309755  0.039698525            0   0.50339902    1.3377513    1.8808489    4.7377823 
 2235000    1.0195807 4.6149223e-05   0.35726103 0.0018733996            0   0.35538763    1.5038816    1.8611426    5.0115962 
 2240000   0.95539706 7.7679069e-05   0.45847575  0.028272531            0   0.43020322    1.4092107    1.8676864    7.1705775 
 2245000   0.99861172 7.0939872e-05   0.39042805 0.0042090043            0   0.38621905    1.4729523    1.8633803    6.7062089 
 2250000   0.86036204 3.1223195e-05   0.60729479  0.052887647            0   0.55440714     1.269034    1.8763288    4.0078322 
 2255000   0.84811591 8.7716067e-05   0.60788222            0            0   0.60788222     1.250971    1.8588532    7.8469367 
 2260000   0.94384132 2.2467737e-05   0.46432336  0.023007319            0   0.44131604    1.3921659    1.8564893    3.3902868 
 2265000   0.91950983 -3.2509465e-05   0.50172482 0.0043361522            0   0.49738866     1.356277    1.8580018  -0.36131098 
 2270000   0.90770407 -2.9416526e-05   0.52098803 0.0023287394            0   0.51865929    1.3388635    1.8598515  -0.14831668 
 2275000   0.91458821 -8.6732918e-05   0.51593386  0.011581888            0   0.50435197    1.3490176    1.8649515   -4.0560157 
 2280000   0.97890941 -3.4897098e-05   0.38534128  0.011390263            0   0.37395102    1.4438914    1.8292327   -0.5530759 
 2285000   0.94699873 -1.0728885e-05   0.42777481 0.0042925502            0   0.42348226    1.3968231    1.8245979    1.0921727 
 2290000   0.85746251 -6.5204818e-06   0.59219683  0.040764749            0   0.55143208    1.2647572     1.856954    1.4118225 
 2295000   0.94081489 1.2806272e-05   0.49459296  0.021266729            0   0.47332623     1.387702    1.8822949    2.7565364 
 2300000    0.8792261 -5.8408727e-05   0.61616844 0.0095791014            0   0.60658933    1.2968585    1.9130269   -2.0743421 
 2305000   0.93459745 -0.00010009644   0.50971173 0.00090347504            0   0.50880825    1.3785312     1.888243   -4.9450073 
 2310000   0.90260718 6.2203316e-05   0.56669545  0.015890983            0   0.55080447    1.3313456     1.898041    6.1444541 
 2315000   0.90833976 4.4493739e-05    0.5159275  0.013308023            0   0.50261947    1.3398011    1.8557286    4.8931679 
 2320000   0.89780724 -8.0428072e-05   0.52761526 0.0056399237            0   0.52197533    1.3242657    1.8518809   -3.6386755 
 2325000   0.87520779 6.2295778e-05   0.52543074  0.030034872            0   0.49539587    1.2909315    1.8163622    6.0690873 
 2330000   0.98411593 4.0530737e-05   0.38232005 0.0010663432            0   0.38125371     1.451571     1.833891    4.6007893 
 2335000   0.88112384 0.00011571186   0.52378388  0.019895742            0   0.50388814    1.2996577    1.8234415    9.7227043 
 2340000   0.80366583 5.589148e-05   0.66266475 0.0093856312            0   0.65327912    1.1854071    1.8480718    5.6635969 
 2345000   0.90173101 -0.00010847658   0.55328256 0.00018478942            0   0.55309777    1.3300532    1.8833358   -5.5219986 
 2350000   0.80616541 8.2818704e-06   0.67965976            0            0   0.67965976     1.189094    1.8687537    2.4341294 
 2355000   0.84594208 6.833331e-05   0.64211903  0.000544498            0   0.64157453    1.2477646    1.8898836    6.5547709 
 2360000   0.81647909 5.5948364e-05   0.71068013  0.012008374            0   0.69867176    1.2043067    1.9149868    5.7343951 
 2365000   0.85443143 9.6703323e-05   0.60815212   0.01819404            0   0.58995808    1.2602864    1.8684385     8.470052 
 2370000   0.92370119 -0.00010045483   0.48337466 0.0067948438            0   0.47657982    1.3624592    1.8458339   -5.0118822 
 2375000   0.83372751 9.3462564e-06   0.62966372 4.5993694e-05            0   0.62961772    1.2297481    1.8594118    2.4974496 
 2380000   0.91446208 4.7871426e-05   0.49167737  0.015912411            0   0.47576496    1.3488316    1.8405089    5.1085316 
 2385000   0.86823299 3.5754705e-05   0.59316998  0.050102584            0    0.5430674    1.2806437    1.8738136    4.3146682 
 2390000     0.896594 0.00011059381    0.5368076  0.024146539            0   0.51266106    1.3224761    1.8592837    9.4091546 
 2395000   0.92922376 1.4671817e-05   0.48177236 0.0056760952            0   0.47609626     1.370605    1.8523774    2.8539735 
 2400000   0.94986495 -4.3969986e-05    0.4519189  0.013440567            0   0.43847833    1.4010508    1.8529697   -1.1487146 
 2405000   0.97357358 -5.4727905e-05   0.45415042  0.010843946            0   0.44330648     1.436021    1.8901715   -1.8459202 
 2410000   0.98890542 5.7783052e-05   0.43104627  0.015951272            0   0.41509499    1.4586355    1.8896818    5.8343381 
 2415000   0.82715141 -9.2460037e-05   0.65492047 0.0068980884            0   0.64802238    1.2200483    1.8749688   -4.4369697 
 2420000   0.94088984 -0.00013847633   0.48094554  0.010250769            0   0.47069477    1.3878125    1.8687581   -7.5845591 
 2425000   0.95267279 -1.4799003e-05   0.46395151 0.0055647382            0   0.45838677    1.4051924    1.8691439   0.85886528 
 2430000   0.94390754 -7.5955879e-05   0.45466485 0.00062589022            0   0.45403896    1.3922636    1.8469285   -3.3383262 
 2435000   0.94449557 0.00014052607   0.47778772  0.012559931            0   0.46522779     1.393131    1.8709187    11.464165 
 2440000    1.0034848 1.8360838e-05   0.39181068 0.0063047145            0   0.38550597      1.48014    1.8719507    3.1253839 
 2445000   0.97463673 8.096532e-05   0.45468042  0.023261746            0   0.43141868    1.4375892    1.8922696    7.4195021 
 2450000   0.99740532 7.8576658e-05   0.42501177 0.0012453032            0   0.42376646    1.4711728    1.8961846    7.2603511 
 2455000   0.95316185 1.6824347e-05   0.47673415  0.027760658            0   0.44897349    1.4059137    1.8826479      3.03119 
 2460000   0.89624576 4.0307618e-05   0.53242954  0.023382968            0   0.50904657    1.3219625     1.854392    4.6060587 
 2465000   0.92955963 3.0451418e-05   0.47966125  0.004070744            0   0.47559051    1.3711005    1.8507617    3.9295785 
 2470000   0.84551204 -3.4371661e-05   0.61051233 0.00064683517            0   0.60986549    1.2471303    1.8576426  -0.48879613 
 2475000   0.85209517 -0.00013844664   0.56740033            0            0   0.56740033    1.2568404    1.8242407   -7.6270496 
 2480000    0.8604127 -1.1192403e-05   0.58636171   0.02784671            0     0.558515    1.2691087    1.8554704    1.0914024 
 2485000   0.94070006 -0.00010070363   0.47767499 0.0023591427            0   0.47531585    1.3875326    1.8652076   -5.0094934 
 2490000   0.78896522 -6.3816624e-05    0.6860969  0.015061597            0    0.6710353    1.1637237    1.8498206   -2.5067276 
 2495000   0.81264822 1.8237167e-05   0.65654916 0.0024302447            0   0.65411892    1.1986561    1.8552053    3.1001958 
 2500000    0.8696156 -6.876638e-05   0.56074229  0.056342547            0   0.50439974     1.282683    1.8434253   -2.8510263 
 2505000   0.86369385 1.7572366e-05   0.59621072  0.025478741            0   0.57073197    1.2739484    1.8701591     3.069766 
 2510000    1.0379417 4.5914383e-05   0.35586803    0.0072306            0   0.34863743     1.530964    1.8868321     5.021254 
 2515000   0.99318838 4.4532276e-05   0.42668181  0.020699211            0    0.4059826    1.4649529    1.8916347    4.9317047 
 2520000   0.94849355 -4.0920311e-06   0.49509465 0.0096802386            0   0.48541441     1.399028    1.8941226    1.6147733 
 2525000   0.91206477 0.00010187416    0.5560955  0.050238897            0   0.50585661    1.3452955     1.901391    8.8560004 
 2530000    0.9828591 0.00011228131   0.44353167  0.027035638            0   0.41649603    1.4497172    1.8932488    9.5583199 
 2535000   0.82336683 1.2451702e-05   0.67888715  0.041292462            0   0.63759468    1.2144661    1.8933532    2.7433894 
 2540000   0.90517664 -8.5587348e-05   0.53063735  0.033481519            0   0.49715583    1.3351355    1.8657729   -3.9769901 
 2545000    0.8970109 7.6259638e-05   0.57855302 4.7898617e-06            0   0.57854823    1.3230911    1.9016441    7.1076354 
 2550000   0.91376162 -2.2787771e-05   0.60362404  0.008713448            0   0.59491059    1.3477984    1.9514224   0.39577728 
 2555000    0.9098864 0.00012403843   0.59115457  0.032698814            0   0.55845575    1.3420824     1.933237    10.400927 
 2560000    1.0523362 6.2099508e-05   0.36415819 0.0041999181            0   0.35995827    1.5521959     1.916354    6.1556805 
 2565000    1.0162025 2.4914529e-06    0.4365187 0.00080300092            0   0.43571569    1.4988986    1.9354173    2.1055005 
 2570000   0.88818497 5.6614991e-05   0.64130172 0.0099798606            0   0.63132186    1.3100728    1.9513746    5.8162913 
 2575000   0.96797569 0.00012179292   0.52598274  0.040568989            0   0.48541375    1.4277641    1.9537469    10.268144 
 2580000   0.98530928 -3.4064734e-05   0.50618817 0.0092712529            0   0.49691692    1.4533312    1.9595194  -0.36596647 
 2585000   0.95931678  7.25834e-05   0.53179547  0.018965482            0   0.51282998    1.4149923    1.9467877    6.9018145 
 2590000   0.95159587 -7.4902327e-05    0.5455861  0.013493269            0   0.53209283    1.4036039      1.94919   -3.1641422 
 2595000   0.88496327 -5.7435102e-05   0.62634018  0.037763809            0   0.58857637    1.3053208     1.931661   -1.9892419 
 2600000    1.0007719 -8.1020455e-05   0.45902013  0.015670525            0    0.4433496    1.4761386    1.9351587   -3.5958377 
 2605000   0.95585246 -5.3117544e-05   0.56738446 0.0027312665            0   0.56465319    1.4098824    1.9772668   -1.6488908 
 2610000   0.93311802 -4.235852e-05   0.58301114  0.022244118            0   0.56076702    1.3763491    1.9593602  -0.93231476 
 2615000   0.99726624 2.0330198e-05   0.49084493 0.0016743356            0   0.48917059    1.4709677    1.9618126    3.3496875 
 2620000   0.95455313 0.00013375502    0.5748529  0.010826955            0   0.56402594    1.4079659    1.9828188    11.113828 
 2625000    0.9781155 5.6389418e-06   0.54737694 0.00099356285            0   0.54638338    1.4427204    1.9900973    2.3750491 
 2630000   0.96964397 -9.6941367e-06   0.53653555  0.010181525            0   0.52635402    1.4302249    1.9667604     1.304974 
 2635000    1.0641031 2.2860328e-05   0.40007127 0.0023377911            0   0.39773348    1.5695521    1.9696234    3.5302218 
 2640000    1.0119698 4.2399907e-05    0.4683352   0.02517477            0   0.44316043    1.4926555    1.9609907    4.8554911 
 2645000    1.0035774 -2.58926e-05   0.48904455   0.01517416            0   0.47387039    1.4802766    1.9693212   0.20171966 
 2650000   0.93962899 -2.1199567e-05   0.57037742  0.015779014            0   0.55459841    1.3859528    1.9563302   0.50910641 
 2655000   0.98527906 -2.8698125e-05   0.53927359  0.036974654            0   0.50229894    1.4532866    1.9925602  0.033434842 
 2660000   0.95234001 -6.8892274e-05   0.61242012 0.0022451784            0   0.61017495    1.4047015    2.0171216   -2.6859242 
 2665000    1.0974421 -4.6005874e-05   0.40353811 0.0075127828            0   0.39602532    1.6187271    2.0222652   -1.1184025 
 2670000    1.0210454 -7.2953241e-05   0.51359354 0.0077133205            0   0.50588022     1.506042    2.0196355   -2.9606391 
 2675000   0.96999215 6.2223377e-05   0.56386978  0.011426445            0   0.55244334    1.4307384    1.9946082    6.2423907 
 2680000    0.9797274 5.3016355e-05   0.56092089  0.018796157            0   0.54212473    1.4450979    2.0060188    5.6252686 
 2685000    1.0345135 8.5564916e-05   0.49243664  0.019851364            0   0.47258528    1.5259075    2.0183441    7.8595757 
 2690000   0.99851356 -2.1444312e-05   0.54768765  0.029217754            0   0.51846989    1.4728075    2.0204951   0.55656342 
 2695000    0.9657159 3.9221662e-05   0.63352637  0.039176409            0   0.59434996    1.4244309    2.0579573    4.7354894 
 2700000   0.96301089 -1.946927e-05   0.65957309  0.048406884            0   0.61116621    1.4204411    2.0800141   0.75091201 
 2705000    1.0117804 6.2165471e-05   0.59338046  0.036961804            0   0.55641865     1.492376    2.0857565     6.329586 
 2710000    1.1161581 2.1233999e-05   0.39659543  0.010081763            0   0.38651366    1.6463331    2.0429286    3.4925029 
 2715000   0.84921068 9.405704e-05   0.75644125  0.055573419            0   0.70086783    1.2525858     2.009027    8.4299876 
 2720000    1.0258679 -1.8352048e-05   0.47885837 0.0024793568            0   0.47637902    1.5131551    1.9920135   0.73918035 
 2725000    1.0122765 2.3407478e-05   0.49700795  0.023211651            0    0.4737963    1.4931079    1.9901159    3.5880663 
 2730000   0.94081196 1.4323069e-05   0.58890377 0.0010832322            0   0.58782053    1.3876976    1.9766014    2.9543896 
 2735000   0.98305139 -2.2578599e-05   0.55144042  0.019204909            0   0.53223551    1.4500008    2.0014412   0.46007552 
 2740000   0.97050563 4.2399186e-05   0.56312753  0.031891334            0   0.53123619    1.4314958    1.9946233    4.8890745 
 2745000    1.0476497 8.1790414e-05   0.43734834  0.044418993            0   0.39292935    1.5452833    1.9826317    7.5661906 
 2750000   0.88820497 -6.08094e-05   0.69588777  0.018195585            0   0.67769219    1.3101023    2.0059901   -2.1452649 
 2755000   0.93840247 -1.5310361e-05   0.62956766  0.034237171            0   0.59533049    1.3841436    2.0137113   0.96852399 
 2760000    1.0043962 -5.8505049e-05    0.5255027 0.0034662695            0   0.52203643    1.4814843     2.006987   -1.9869577 
 2765000   0.98180733 -8.6153029e-05    0.5674203  0.015050192            0   0.55237011    1.4481658    2.0155861    -3.865794 
 2770000    1.0213404 -0.00011411135   0.51331928   0.01260048            0    0.5007188    1.5064772    2.0197964   -5.7702052 
 2775000   0.93287129 -5.8714236e-05   0.65251369   0.01444522            0   0.63806847    1.3759852    2.0284988   -1.9797263 
 2780000   0.98577908 3.1273932e-05   0.58771577  0.030735243            0   0.55698053    1.4540241    2.0417399     4.176707 
 2785000   0.98902784 -7.3995556e-05   0.59699716  0.026110029            0   0.57088713    1.4588161    2.0558132   -2.9956168 
 2790000    1.0406858 -2.5162725e-05   0.52720233 0.0017489508            0   0.52545338    1.5350116    2.0622139   0.34443852 
 2795000   0.93902426 4.0724974e-05   0.67276063  0.019041638            0   0.65371899    1.3850608    2.0578214    4.8379797 
 2800000    1.0452824 6.8092091e-05   0.51929888  0.017563916            0   0.50173497    1.5417915    2.0610904    6.7095105 
 2805000    1.0082406 2.1579406e-05   0.56879267 0.0081396529            0   0.56065302    1.4871549    2.0559476    3.5291017 
 2810000   0.90238092 5.4682444e-05   0.69005141   0.01054643            0   0.67950498    1.3310119    2.0210633    5.7540514 
 2815000   0.96586674 0.00015302852   0.55635633  0.028210978            0   0.52814535    1.4246534    1.9810098    12.427756 
 2820000     1.036229 1.4700542e-05   0.47800081  0.006053253            0   0.47194756    1.5284377    2.0064386    3.0099956 
 2825000   0.94425796 4.4495943e-05   0.58280493  0.042786961            0   0.54001797    1.3927805    1.9755854    5.0131752 
 2830000   0.92452814 4.467077e-06    0.5956039 0.00033300682            0    0.5952709     1.363679    1.9592829    2.2642354 
 2835000    1.0811755 9.5769381e-05    0.3858476 0.00049881527            0   0.38534879    1.5947339    1.9805815    8.5184379 
 2840000   0.98140614 -9.6982973e-06   0.55321548  0.061758495            0   0.49145698    1.4475741    2.0007895    1.3387191 
 2845000   0.94559564 -0.00011679162   0.61464058  0.033337758            0   0.58130282    1.3947536    2.0093942   -5.9635806 
 2850000    1.0495582 3.1166959e-05   0.50268066  0.034426187            0   0.46825447    1.5480983     2.050779    4.1784434 
 2855000   0.99657219 1.4492906e-05   0.57593551 0.0044580565            0   0.57147746     1.469944    2.0458795    3.0352619 
 2860000   0.94821541 8.0975857e-05   0.65000754  0.016644321            0   0.63336322    1.3986177    2.0486253    7.5765771 
 2865000   0.96673037 7.8529558e-05   0.63998212  0.061344456            0   0.57863766    1.4259273    2.0659094    7.4268606 
 2870000    1.0124956 1.9827074e-05   0.56083711 0.00021680116            0   0.56062031    1.4934311    2.0542682    3.4077964 
 2875000   0.96009359 0.00015185817   0.64199445  0.048757705            0   0.59323674     1.416138    2.0581325    12.424984 
 2880000   0.94869361 0.00016432245   0.65535554   0.03987493            0   0.61548061    1.3993231    2.0546786    13.272425 
 2885000    1.0254974 -5.7850255e-05   0.57196468  0.050765268            0   0.52119942    1.5126087    2.0845734   -1.8646707 
 2890000    1.0961344 -7.5940236e-06   0.50056119 0.0066248866            0    0.4939363    1.6167983    2.1173595    1.5989408 
 2895000    1.1183988 -2.7865462e-05    0.4824602 0.0021898911            0   0.48027031    1.6496383    2.1320985    0.2298163 
 2900000    1.0942576 -2.5579614e-05   0.47020901  0.046668519            0   0.42354049      1.61403     2.084239   0.33800398 
 2905000    1.0969489 3.0843837e-05   0.41804553  0.003784697            0   0.41426083    1.6179997    2.0360452    4.1416511 
 2910000   0.96823375 -0.00014174125   0.65280583  0.019829534            0   0.63297629    1.4281448    2.0809506    -7.595252 
 2915000    1.0390122 6.518956e-05   0.53105617 0.0043736758            0   0.52668249     1.532543    2.0635991    6.5138731 
 2920000   0.98357162 -7.6923981e-05   0.63102917  0.040513601            0   0.59051557    1.4507681    2.0817973   -3.1695465 
 2925000    1.1020027 1.5321541e-05   0.47293216  0.053491364            0    0.4194408    1.6254539    2.0983861    3.1443366 
 2930000    1.0979749 -6.0464176e-05   0.51195365  0.024731356            0    0.4872223    1.6195129    2.1314666   -1.9962212 
 2935000    1.0329339 -7.4628286e-05   0.60607387   0.01609486            0   0.58997901    1.5235775    2.1296514   -2.9649729 
 2940000    1.0773066 3.3163019e-05   0.54776771  0.017215692            0   0.53055202    1.5890272    2.1367949    4.4007237 
 2945000    1.1333557 0.00010715329   0.48416069 0.0012562169            0   0.48290447    1.6716996    2.1558603    9.4708583 
 2950000    1.0095524 -2.1646613e-05   0.63615613  0.096652078            0   0.53950406    1.4890898    2.1252459   0.64750383 
 2955000   0.95273396 4.3031051e-05   0.71126119  0.057497322            0   0.65376387    1.4052826    2.1165438    5.0541302 
 2960000    1.0637193 -6.0924387e-05   0.58070327  0.011598213            0   0.56910506     1.568986    2.1496893   -2.0094155 
 2965000   0.96626795 -8.5167473e-05   0.72833098 0.0082658099            0   0.72006517    1.4252452    2.1535762   -3.6605233 
 2970000    1.0042755 -4.5723765e-05   0.67064472  0.069281167            0   0.60136355    1.4813063    2.1519511  -0.96945797 
 2975000    1.0505201 5.9617095e-05   0.57251539  0.059713471            0   0.51280192    1.5495172    2.1220326    6.1918929 
 2980000     1.079767 5.915613e-05   0.54006659 0.0069376044            0   0.53312898    1.5926563    2.1327229    6.1711147 
 2985000   0.94022897 -9.8264188e-05   0.71811379  0.068165541            0   0.64994825    1.3868377    2.1049515    -4.603217 
 2990000    1.0283993 1.743653e-05   0.59336477  0.019357309            0   0.57400746    1.5168889    2.1102537    3.3005874 
 2995000    1.0454258 -3.4522407e-05   0.55458387  0.018990995            0   0.53559287    1.5420031    2.0965869  -0.26014274 
 3000000    1.0419496 -6.3011573e-05   0.53671083   0.00934034            0   0.52737049    1.5368757    2.0735865   -2.2280036 
 3005000    1.0167155 2.1816463e-05   0.58849407  0.010827032            0   0.57766704    1.4996554    2.0881495    3.5774867 
 3010000    1.0308974 2.3946079e-05   0.56333266  0.048412588            0   0.51492007    1.5205736    2.0839063    3.7186253 
 3015000    1.0693098 -6.041172e-05   0.49732683  0.010521035            0   0.48680579     1.577232    2.0745588    -2.049548 
 3020000     1.143121 3.9148553e-05   0.44411189  0.034136283            0   0.40997561    1.6861034    2.1302153    4.8027565 
 3025000    1.0365364 0.0001057216   0.60776547  0.044983418            0   0.56278205    1.5288911    2.1366566    9.3539181 
 3030000    1.0071909 -8.3726036e-05   0.64694704  0.011036018            0   0.63591102    1.4856066    2.1325536   -3.5831437 
 3035000    1.1135175 1.2331841e-05   0.50343378  0.019689946            0   0.48374384    1.6424383    2.1458721    2.9877257 
 3040000    1.0320376 -6.1054725e-05   0.63381428  0.096817092            0   0.53699719    1.5222555    2.1560698   -2.0119328 
 3045000   0.99916797 3.6422615e-05   0.68510102  0.020603435            0   0.66449758    1.4737728    2.1588738    4.6453243 
 3050000    1.1429763 3.1577183e-05   0.46615176  0.018614863            0    0.4475369      1.68589    2.1520417    4.3077108 
 3055000    1.0924328 1.4852218e-05   0.50059719 0.00049750265            0   0.50009969    1.6113384    2.1119356     3.125847 
 3060000    1.0936961 5.1153625e-05   0.44897432 0.0098766483            0   0.43909768    1.6132018    2.0621761    5.5542635 
 3065000    1.0950442 4.2094785e-05   0.43449083  0.012259503            0   0.42223133    1.6151902     2.049681    4.9233517 
 3070000    0.9736882 6.4161956e-05   0.61242321     0.062621            0   0.54980221    1.4361901    2.0486133    6.4287362 
 3075000    1.0054152 1.8228679e-06   0.58613103 0.0066184905            0   0.57951254    1.4829874    2.0691185    2.1935596 
 3080000     1.082836 -5.1121105e-05   0.44632105 0.0066723513            0    0.4396487    1.5971831    2.0435041   -1.4463633 
 3085000    1.1114537 1.0056662e-05   0.41476403  0.017068382            0   0.39769565    1.6393943    2.0541583    2.7406931 
 3090000    1.0261372 6.8736743e-05    0.5596693 0.0045398835            0   0.55512941    1.5135523    2.0732216    6.7656499 
 3095000     1.062346 8.071699e-05   0.55610095            0            0   0.55610095    1.5669604    2.1230613    7.6333412 
 3100000    1.0707507 -1.3675833e-05   0.51388939 0.0030926607            0   0.51079673    1.5793572    2.0932466    1.1596431 
 3105000    1.0413931 4.0635408e-05   0.54331991  0.027734337            0   0.51558557    1.5360549    2.0793748    4.8534186 
 3110000    1.0183985 -7.7675403e-05   0.56890918  0.022760875            0    0.5461483    1.5021379     2.071047   -3.2315938 
 3115000    1.0197646 2.7676185e-05   0.54299885  0.022304142            0   0.52069471    1.5041527    2.0471516    3.9365125 
 3120000    1.0866419 6.0377307e-06   0.46404403 0.0013709291            0    0.4626731    1.6027968    2.0668409    2.4790166 
 3125000    1.0519433 -2.6130129e-05    0.5222499  0.021263158            0   0.50098674    1.5516163    2.0738662   0.29004939 
 3130000   0.99747269 -0.00015039238   0.59813487  0.053088235            0   0.54504664    1.4712722    2.0694071   -8.1973791 
 3135000    1.0830245 2.1945691e-05   0.45358931  0.026101866            0   0.42748745    1.5974611    2.0510504    3.5492096 
 3140000    1.0141075 7.4320832e-05   0.53119896            0            0   0.53119896    1.4958086    2.0270075     7.100643 
 3145000   0.99549038 -1.3210254e-05   0.57067164  0.022953209            0   0.54771843    1.4683483      2.03902    1.1371999 
 3150000    1.0390862 1.191599e-05   0.51098905 0.0075984584            0   0.50339059    1.5326521    2.0436411    2.8571061 
 3155000   0.98608638 -1.141111e-05   0.58525429 0.0095522038            0   0.57570209    1.4544774    2.0397317    1.2607332 
 3160000   0.95725506 6.6124659e-05   0.62607523  0.026625117            0   0.59945011    1.4119512    2.0380264    6.5521365 
 3165000    1.0259649 1.9959497e-05   0.50241799 0.0097043098            0   0.49271369    1.5132983    2.0157163    3.3782846 
 3170000     1.015203 6.6855229e-06   0.48384998  0.024014474            0    0.4598355    1.4974244    1.9812744    2.4376728 
 3175000    1.0522301 -1.6001551e-05   0.41670331 0.0083775522            0   0.40832576    1.5520394    1.9687427   0.87637017 
 3180000    1.0118773 -4.0706884e-05   0.45666631 0.0030744436            0   0.45359187    1.4925191    1.9491854  -0.82973785 
 3185000   0.98189085 5.625297e-05   0.50528534  0.015659623            0   0.48962572     1.448289    1.9535743    5.7937771 
 3190000    1.0120939 0.00012428631   0.46876745  0.009025519            0   0.45974193    1.4928385    1.9616059    10.446218 
 3195000   0.92617692 1.2476764e-05   0.61243534  0.077339231            0   0.53509611     1.366111    1.9785463    2.8302934 
 3200000   0.95557084 -7.3215025e-05   0.54070554  0.015937828            0   0.52476771     1.409467    1.9501725   -3.0479732 
 3205000   0.94764904 -4.2541126e-05   0.54777921  0.040458849            0   0.50732036    1.3977823    1.9455615   -0.9585793 
 3210000   0.93459449 4.7712633e-06   0.56927153 0.0066592902            0   0.56261224    1.3785269    1.9477984    2.2735166 
 3215000     0.988149 8.6344456e-05   0.48830147  0.015532883            0   0.47276859    1.4575198    1.9458212    7.8402694 
 3220000   0.98919736 -0.00013913952   0.48061053  0.013283628            0    0.4673269    1.4590661    1.9396766   -7.5589144 
 3225000    1.0175788 -1.2142127e-05   0.41233933  0.021377621            0   0.39096171    1.5009288    1.9132681    1.0843656 
 3230000   0.99087349 -2.5173316e-05   0.42986073 0.00077506658            0   0.42908566    1.4615384    1.8913991   0.17290072 
 3235000    1.0092278 -1.9379659e-05   0.40957657 0.0086117019            0   0.40096487     1.488611    1.8981876   0.57520287 
 3240000   0.93781786 6.0994981e-05   0.48329851  0.029620718            0   0.45367779    1.3832813    1.8665799    6.0305039 
 3245000   0.92198002 -1.3497434e-05   0.53354817  0.022233735            0   0.51131444    1.3599205    1.8934687   0.97204389 
 3250000   0.86795258 6.2372785e-05   0.60799627  0.025805255            0   0.58219102    1.2802301    1.8882263    6.1462084 
 3255000   0.93358748 -7.5926544e-05    0.4954835 0.0002615014            0   0.49522199    1.3770415     1.872525    -3.310727 
 3260000   0.90136371 -2.7695165e-05    0.5403822  0.034481145            0   0.50590106    1.3295115    1.8698937 -0.020762924 
 3265000   0.96116701 -3.0085296e-05   0.45337556  0.043590016            0   0.40978555    1.4177213    1.8710969  -0.18272595 
 3270000    1.0102104 1.4038577e-05   0.39896627  0.004428682            0   0.39453759    1.4900604    1.8890266    2.8473935 
 3275000   0.86476679 6.9010506e-05   0.62714325  0.091711594            0   0.53543166     1.275531    1.9026743    6.6137915 
 3280000   0.93244403 -0.00012457691    0.5429172 0.0072992333            0   0.53561796    1.3753549    1.9182721    -6.586178 
 3285000   0.95455552 1.5593386e-05   0.48265721  0.052163612            0   0.43049359    1.4079694    1.8906266    2.9551351 
 3290000    1.0177965 1.7232608e-05   0.37125823 0.0022266215            0   0.36903161    1.5012498    1.8725081    3.0489208 
 3295000   0.91034078 4.8335714e-05   0.52080111  0.019337105            0   0.50146401    1.3427527    1.8635538    5.1632718 
 3300000   0.94350422 -3.6359053e-05   0.46578721 0.00015961177            0    0.4656276    1.3916687    1.8574559  -0.62465544 
 3305000    1.0054031 -7.2711891e-06   0.36042593   0.01200407            0   0.34842186    1.4829696    1.8433955    1.3470157 
 3310000   0.90061518 3.1190947e-07   0.49019118  0.033294825            0   0.45689635    1.3284074    1.8185986    1.8398916 
 3315000   0.91058462 1.9664542e-06   0.45059191  0.021898374            0   0.42869353    1.3431123    1.7937042    1.9279475 
 3320000   0.92390565 -5.4748927e-05   0.42602434  0.038943952            0   0.38708039    1.3627608    1.7887852   -1.9487416 
 3325000    0.9065787 -0.00012802793   0.45134434  0.039378449            0   0.41196589    1.3372036    1.7885479    -6.951492 
 3330000   0.94639341 -2.2316687e-05   0.40361877            0            0   0.40361877    1.3959303    1.7995491   0.27606321 
 3335000   0.96176835 3.6271176e-05   0.40553785 0.0062579875            0   0.39927986    1.4186083    1.8241462    4.3002584 
 3340000    0.9386756 9.6338317e-05    0.4399373  0.017227367            0   0.42270993    1.3845465    1.8244838    8.4011796 
 3345000   0.97427596 7.3192426e-05   0.36820745  0.011193398            0   0.35701405     1.437057    1.8052645    6.8018675 
 3350000   0.82406538 1.7650387e-05     0.583212  0.017173753            0   0.56603825    1.2154964    1.7987084    3.0036415 
 3355000    1.0071036 4.0499278e-05   0.30142012 0.0041918694            0   0.29722825    1.4854778    1.7868979    4.5516486 
 3360000   0.84807969 -5.5590726e-05   0.51167393 0.0062560715            0   0.50541785    1.2509175    1.7625915   -2.0324021 
 3365000   0.85282619 6.6139875e-05   0.46977326  0.014523936            0   0.45524932    1.2579186    1.7276919    6.2428407 
 3370000   0.84488989 6.2330913e-05   0.46322261  0.014661059            0   0.44856155    1.2462126    1.7094352    5.9645589 
 3375000   0.82720744 1.4698755e-05   0.50293501  0.014891461            0   0.48804354     1.220131     1.723066     2.726501 
 3380000   0.81144203 -9.2383031e-06   0.55934702  0.015370806            0   0.54397621     1.196877     1.756224    1.1255558 
 3385000   0.83548857 -5.6594311e-05    0.4890248 0.0010893474            0   0.48793545    1.2323456    1.7213704   -2.1421346 
 3390000   0.90395309 -2.0529629e-06    0.4027079  0.017697109            0    0.3850108    1.3333308    1.7360387    1.5958898 
 3395000   0.82836443 5.4083389e-05   0.56906656 0.0067164032            0   0.56235015    1.2218375    1.7909041    5.4829968 
 3400000   0.86256065 -4.7840003e-05   0.51005186 0.0056343096            0   0.50441755     1.272277    1.7823288   -1.4835487 
 3405000   0.96237048 8.0030566e-05   0.37986064 0.0043299639            0   0.37553068    1.4194965    1.7993571    7.2627771 
 3410000   0.97567805 9.4363153e-06   0.38885093  0.022388208            0   0.36646272    1.4391251    1.8279761    2.4721618 
 3415000   0.82017942 1.3558516e-05   0.61553286 0.0069647173            0   0.60856814    1.2097646    1.8252975    2.7508922 
 3420000   0.80108298 -0.00015613726   0.63559572   0.02381464            0   0.61178108    1.1815974    1.8171931   -8.8417771 
 3425000   0.91105202 4.3316552e-05    0.4805384 0.0013651973            0    0.4791732    1.3438017    1.8243401    4.7814167 
 3430000   0.94197132 -6.8047753e-05   0.43653556  0.010055843            0   0.42647972    1.3894077    1.8259433     -2.81945 
 3435000   0.90794411 5.5759765e-06   0.50545119   0.01349911            0   0.49195208    1.3392176    1.8446688    2.2253221 
 3440000   0.95854957 6.7613287e-06   0.42477203 0.0051481739            0   0.41962385    1.4138606    1.8386326     2.300206 
 3445000    0.8674949 -1.8941854e-05   0.54237957  0.013933634            0   0.52844594     1.279555    1.8219346   0.52883734 
 3450000   0.84736352 6.7388191e-05   0.58919033 0.0066239415            0   0.58256639    1.2498612    1.8390515    6.4394187 
 3455000    0.9889909 -7.226722e-05   0.38787064  0.010731297            0   0.37713934    1.4587616    1.8466322     -3.08681 
 3460000    0.8741674 -1.5593138e-05   0.57034522 0.0057887187            0    0.5645565    1.2893969    1.8597421   0.79525056 
 3465000   0.96331114 -2.1160385e-05   0.42214579  0.023970781            0   0.39817501    1.4208839    1.8430297   0.39848074 
 3470000   0.97008926 7.7954719e-05   0.41872475  0.039442498            0   0.37928225    1.4308817    1.8496064    7.1713152 
 3475000     1.030308 4.9391368e-05   0.35505556  0.030910485            0   0.32414507    1.5197043    1.8747599    5.2465439 
 3480000   0.97910508 -6.2071627e-05   0.45629157  0.012467947            0   0.44382363      1.44418    1.9004716   -2.3369515 
 3485000    1.0262192 7.8954749e-06   0.39347278  0.015996552            0   0.37747623    1.5136733    1.9071461    2.4461438 
 3490000   0.94227411 9.5366984e-05   0.51083878  0.025843253            0   0.48499553    1.3898543    1.9006931    8.4110792 
 3495000   0.96497864 0.00010872918   0.43597287            0            0   0.43597287    1.4233435    1.8593164    9.2818947 
 3500000   0.93433949 -3.3725598e-07   0.45572648  0.012119535            0   0.44360695    1.3781507    1.8338772    1.8108539 
 3505000    0.8462895 1.0262611e-05   0.58887136  0.017925846            0   0.57094551     1.248277    1.8371484    2.5377426 
 3510000   0.86369916 1.8141428e-05   0.52217202  0.011778771            0   0.51039325    1.2739563    1.7961283    3.0345831 
 3515000    0.9349193 1.825714e-05     0.407988   0.03551708            0   0.37247092     1.379006     1.786994    3.0333481 
 3520000   0.90221908 0.00013787226   0.45223813  0.061080184            0   0.39115795    1.3307731    1.7830113    11.195091 
 3525000   0.93961986 5.4249809e-05   0.43255396 0.0079014298            0   0.42465253    1.3859393    1.8184932    5.5219468 
 3530000   0.90503014 -2.8469103e-05   0.45916206  0.051783567            0   0.40737849    1.3349195    1.7940815  -0.14940926 
 3535000   0.82256946 -3.2707568e-05   0.56876647 0.0061988652            0    0.5625676    1.2132899    1.7820564  -0.45078026 
 3540000   0.97834311 6.6841327e-06    0.3699324  0.045784212            0   0.32414819    1.4430561    1.8129885    2.2692919 
 3545000   0.98940865 1.5477455e-05   0.36474921 0.0050802857            0   0.35966892    1.4593778     1.824127    2.8807212 
 3550000   0.91162511 7.9321424e-05   0.46757079  0.013710269            0   0.45386052     1.344647    1.8122178     7.227227 
 3555000    1.0020259 2.4883657e-05   0.31929431 0.0020588233            0   0.31723549    1.4779882    1.7972826    3.4960068 
 3560000   0.87817197 -9.9705746e-05   0.48589523  0.034063879            0   0.45183135    1.2953036    1.7811989     -5.02538 
 3565000   0.87633782 3.2796702e-05   0.46623197  0.036281912            0   0.42995006    1.2925983    1.7588303    3.9977517 
 3570000    0.8162617 4.5787666e-05   0.54694506    0.0763588            0   0.47058626     1.203986    1.7509311    4.8767024 
 3575000   0.91232922 0.00012684721   0.38200991 0.00019299699            0   0.38181691    1.3456856    1.7276955    10.387132 
 3580000   0.87913295 -6.5154477e-06   0.45448216 0.0037791771            0   0.45070299    1.2967211    1.7512033    1.3064154 
 3585000   0.81403782 -0.00011257804   0.57310884  0.022460587            0   0.55064825    1.2007058    1.7738146   -5.9115128 
 3590000   0.87776678 4.8327905e-06   0.47844344  0.021376494            0   0.45706694     1.294706    1.7731494    2.1030679 
 3595000   0.85536127 -1.0536986e-05   0.50663016 0.0071620926            0   0.49946806    1.2616579     1.768288    1.0489631 
 3600000   0.85114521 9.1471022e-05   0.47715449  0.019361519            0   0.45779297    1.2554392    1.7325937    7.9770155 
 3605000   0.85911164 3.091914e-05   0.44611914  0.030552598            0   0.41556654    1.2671897    1.7133088    3.8240554 
 3610000   0.76934822 7.9119769e-06   0.53891923  0.023531481            0   0.51538775    1.1347886    1.6737079    2.2138322 
 3615000   0.83735112 -3.6924553e-05   0.43504649 0.0061545646            0   0.42889193    1.2350929    1.6701394  -0.85057678 
 3620000   0.78661158 -9.2520045e-05   0.51191893 0.0054706332            0    0.5064483    1.1602521     1.672171   -4.6438641 
 3625000   0.83498294 2.734316e-05   0.44399428  0.012781029            0   0.43121325    1.2315998    1.6755941    3.5422205 
 3630000   0.87896243 2.7571225e-05   0.39198917            0            0   0.39198917    1.2964696    1.6884588    3.5706544 
 3635000    0.7777349 3.5063343e-05   0.53175904  0.018485371            0   0.51327367     1.147159     1.678918    4.0725755 
 3640000   0.83947135 -0.00011544983   0.45552506 0.0076630805            0   0.44786198    1.2382202    1.6937453   -6.1876299 
 3645000    0.8705753 -5.6142391e-05   0.41093832 0.0057722212            0    0.4051661    1.2840986    1.6950369    -2.137617 
 3650000   0.80632957 -4.9987071e-05   0.48931565 0.0083941517            0   0.48092149    1.1893361    1.6786518    -1.733799 
 3655000   0.74780919 -4.7271658e-05   0.53990705 0.0098826389            0   0.53002442    1.1030186    1.6429256   -1.5841529 
 3660000   0.75221616 -2.7632312e-05   0.53042509 0.0095323918            0    0.5208927    1.1095188    1.6399439   -0.2464219 
 3665000   0.74110176 -0.0001060918   0.55339063  0.041556964            0   0.51183367    1.0931251    1.6465157   -5.5960177 
 3670000   0.79212449 -2.6526556e-05   0.45433075  0.001636043            0    0.4526947    1.1683836    1.6227144  -0.18816518 
 3675000   0.79459372 -5.3686296e-05   0.46521451  0.020396706            0    0.4448178    1.1720257    1.6372402   -2.0277442 
 3680000   0.76638415 -5.7995842e-05   0.49046515 0.0030889091            0   0.48737624    1.1304166    1.6208818   -2.3383011 
 3685000   0.81897176 -2.6945898e-05   0.40208797  0.023763972            0     0.378324    1.2079834    1.6100713  -0.22943529 
 3690000   0.77997459 -1.5889357e-05   0.43992424  0.027356519            0   0.41256772    1.1504625    1.5903868   0.50567332 
 3695000   0.76318366 0.00011144979   0.44696845 0.0059110342            0   0.44105742    1.1256959    1.5726643    9.1809702 
 3700000   0.77289925 7.6310398e-05   0.43239652  0.018176672            0   0.41421984    1.1400264    1.5724229    6.7818794 
 3705000   0.79227005 0.00011168157   0.39573193 0.0096364598            0   0.38609547    1.1685983    1.5643303    9.1884588 
 3710000   0.79033041 4.3458501e-05   0.41300178 0.00039264426            0   0.41260914    1.1657374    1.5787391    4.5455061 
 3715000   0.78809805 -5.5569305e-05    0.4068921 0.0090794184            0   0.39781269    1.1624446    1.5693367   -2.2241945 
 3720000   0.73801557 -0.00010605108   0.45557203  0.043240076            0   0.41233195     1.088573     1.544145   -5.6956088 
 3725000   0.73761963 5.0720164e-06   0.46013787  0.020877065            0   0.43926081     1.087989    1.5481268    1.8943765 
 3730000   0.77570323 6.1898034e-05   0.40669857  0.018639141            0   0.38805943    1.1441623    1.5508608    5.7764333 
 3735000   0.71292697 -3.9848868e-05   0.51268441 0.0022120267            0   0.51047238    1.0515673    1.5642517   -1.1560977 
 3740000   0.76338244 -1.9555395e-05   0.46169193  0.012879695            0   0.44881224    1.1259891     1.587681   0.25269941 
 3745000   0.79002331 0.00010477086   0.41917026 0.0084231916            0   0.41074707    1.1652844    1.5844546    8.7368122 
 3750000   0.71845077 -5.2687308e-05   0.49650497 0.0020779905            0   0.49442698    1.0597149    1.5562199    -2.040567 
 3755000   0.72733262 0.00011011379   0.48403322  0.026795475            0   0.45723775    1.0728156    1.5568488    9.0739501 
 3760000   0.67774805 -2.6689668e-05   0.53337045 0.0029984909            0   0.53037196   0.99967837    1.5330488  -0.28896582 
 3765000   0.75024339 -1.2772223e-05   0.42178376  0.045466535            0   0.37631723     1.106609    1.5283928   0.65647567 
 3770000   0.76428491 -6.0267332e-06   0.41812228 0.0088993288            0   0.40922295    1.1273202    1.5454425    1.1340175 
 3775000   0.69814893 7.8076774e-05   0.50280902  0.018904058            0   0.48390496    1.0297697    1.5325787    6.8626198 
 3780000   0.76224486 -3.7872281e-05   0.38815375   0.01437518            0   0.37377857    1.1243112    1.5124649   -1.0729494 
 3785000   0.71498108 -9.7920891e-06   0.43540437  0.016615205            0   0.41878917    1.0545971    1.4900015   0.82152818 
 3790000   0.69555596 2.6263198e-05   0.43068034 0.0035617723            0   0.42711857     1.025945    1.4566254    3.2495263 
 3795000   0.80292129 -4.1790923e-06   0.30093495 0.0095020961            0   0.29143286    1.1843089    1.4852439    1.1999512 
 3800000   0.77568904 -0.00012135123   0.34194925 0.0007350559            0   0.34121419    1.1441413    1.4860906   -6.7981534 
 3805000   0.67620455 -0.00010184716   0.50155901  0.030527447            0   0.47103156   0.99740171    1.4989607   -5.4538054 
 3810000   0.71114596 -3.1305314e-05   0.44339604 0.0018934056            0   0.44150264    1.0489403    1.4923363  -0.64477314 
 3815000   0.71650306 -3.5011164e-05    0.4262118 0.00055264422            0   0.42565916     1.056842    1.4830538  -0.90704164 
 3820000   0.73447471 -5.7458394e-05    0.4045165  0.010680643            0   0.39383586    1.0833502    1.4878667   -2.4346263 
 3825000   0.78192391 -4.5314137e-05   0.32339653  0.019452051            0   0.30394448    1.1533378    1.4767343   -1.6167108 
 3830000   0.73360412 6.0912911e-05   0.40511958 0.0067357526            0   0.39838383    1.0820661    1.4871857     5.645507 
 3835000   0.66621516 5.8394694e-05   0.50822652  0.039370146            0   0.46885637   0.98266737    1.4908939     5.477305 
 3840000    0.7577404 -2.2676398e-05   0.37065564 0.0045705528            0   0.36608509    1.1176671    1.4883227 -0.059719345 
 3845000   0.76939763 -2.4465641e-05   0.39966004 0.0017818006            0   0.39787824    1.1348615    1.5345215  -0.13566622 
 3850000   0.71134514 -8.5659345e-05   0.48873454 0.0097925821            0   0.47894196    1.0492341    1.5379686   -4.3097093 
 3855000   0.72855365 -1.5660486e-05   0.45782974 0.0044950382            0    0.4533347    1.0746166    1.5324464   0.46335718 
 3860000    0.6871991 7.4480411e-05   0.51661901  0.040710665            0   0.47590834    1.0136187    1.5302377    6.6147671 
 3865000   0.78486315 1.2935477e-05   0.36960586  0.017510482            0   0.35209537    1.1576732     1.527279    2.4103409 
 3870000   0.71854741 2.9395316e-05   0.48401331  0.012003824            0   0.47200948    1.0598574    1.5438707     3.550591 
 3875000   0.81830609 1.8942995e-05   0.33491728  0.025879333            0   0.30903794    1.2070015    1.5419188    2.8350939 
 3880000   0.71090993 -5.967221e-06   0.49479359  0.030917357            0   0.46387624    1.0485921    1.5433857    1.1360234 
 3885000    0.6689234 -2.0722893e-05   0.53494709  0.023974546            0   0.51097254   0.98666202    1.5216091   0.10692627 
 3890000   0.72361788 -2.1480966e-05   0.48118532  0.026814088            0   0.45437124    1.0673364    1.5485217  0.082087777 
 3895000   0.78008869 -4.225623e-06    0.4257362  0.041562998            0    0.3841732    1.1506308     1.576367    1.2878978 
 3900000   0.64648196 5.102363e-05   0.60519408  0.030448472            0   0.57474561   0.95356088     1.558755    5.0419681 
 3905000    0.7616271 1.3336121e-06   0.42860314   0.01497389            0   0.41362925       1.1234    1.5520031    1.6430444 
 3910000   0.78401499 -2.1334674e-05   0.40020296  0.010168552            0   0.39003441    1.1564221    1.5566251   0.10017798 
 3915000   0.76735515 3.1697371e-05   0.44017272  0.011606422            0    0.4285663    1.1318488    1.5720216    3.7358954 
 3920000   0.69155336 -0.00010506806   0.56998804  0.036258291            0   0.53372975    1.0200412    1.5900292   -5.5826167 
 3925000   0.81675258 -6.9590975e-05   0.39322919 0.0033276386            0   0.38990155    1.2047101    1.5979392   -3.1528047 
 3930000   0.77782256 7.4633481e-05   0.43463823  0.022577899            0   0.41206033    1.1472883    1.5819265    6.6769055 
 3935000   0.79352043 -7.9668212e-05    0.4165555 0.0021399591            0   0.41441554    1.1704426    1.5869981   -3.8516851 
 3940000   0.75888082 2.8183012e-05   0.47087851  0.012593903            0   0.45828461    1.1193492    1.5902277     3.514188 
 3945000   0.82073655 9.8126329e-05   0.37383671  0.079954733            0   0.29388198    1.2105864    1.5844231    8.2831805 
 3950000   0.78986299 9.0489053e-05   0.40465275  0.013483821            0   0.39116892    1.1650479    1.5697007    7.7470867 
 3955000   0.68324962 -9.1001952e-05   0.54093516  0.023511068            0   0.51742409    1.0077932    1.5487284   -4.6636715 
 3960000     0.723288 4.5083553e-05    0.4842443 0.0022155352            0   0.48202876    1.0668498    1.5510941     4.628798 
 3965000   0.79417657 0.0001982739   0.40404531  0.037769295            0   0.36627601    1.1714104    1.5754557    15.110954 
 3970000   0.79132606 -4.6602407e-06   0.40677078 0.0078008341            0   0.39896995    1.1672059    1.5739767    1.2558376 
 3975000   0.74303181 2.5498013e-05   0.47535242  0.012748486            0   0.46260393    1.0959719    1.5713243    3.3119887 
 3980000   0.80575747 3.1612915e-05   0.38388883 0.00012232767            0    0.3837665    1.1884923    1.5723811    3.7304894 
 3985000   0.84221331 -2.7256397e-05   0.32775283 0.00026675997            0   0.32748607    1.2422646    1.5700175  -0.29068591 
 3990000   0.76236141 -5.0486588e-06   0.44813289 0.00019630618            0   0.44793659    1.1244831     1.572616    1.2279609 
 3995000   0.74902604 8.4411686e-06   0.45615174  0.025379752            0   0.43077199    1.1048134    1.5609651    2.1372156 
 4000000   0.68021875 0.0001054213    0.5690713 0.0039787181            0   0.56509258    1.0033227     1.572394    8.7691546 
Loop time of 188.584 on 1 procs for 2000000 steps with 60 atoms

Performance: 916300.790 tau/day, 10605.333 timesteps/s
99.8% CPU use with 1 MPI tasks x no OpenMP threads

MPI task timing breakdown:
Section |  min time  |  avg time  |  max time  |%varavg| %total
---------------------------------------------------------------
Pair    | 0.70845    | 0.70845    | 0.70845    |   0.0 |  0.38
Bond    | 1.8114     | 1.8114     | 1.8114     |   0.0 |  0.96
Neigh   | 157.57     | 157.57     | 157.57     |   0.0 | 83.55
Comm    | 23.6       | 23.6       | 23.6       |   0.0 | 12.51
Output  | 0.038919   | 0.038919   | 0.038919   |   0.0 |  0.02
Modify  | 4.259      | 4.259      | 4.259      |   0.0 |  2.26
Other   |            | 0.5977     |            |       |  0.32

Nlocal:        60.0000 ave          60 max          60 min
Histogram: 1 0 0 0 0 0 0 0 0 0
Nghost:        0.00000 ave           0 max           0 min
Histogram: 1 0 0 0 0 0 0 0 0 0
Neighs:        19.0000 ave          19 max          19 min
Histogram: 1 0 0 0 0 0 0 0 0 0

Total # of neighbors = 19
Ave neighs/atom = 0.31666667
Ave special neighs/atom = 5.8000000
Neighbor list builds = 35338
Dangerous builds = 0
write_restart restart.rerun.1
System init for write_restart ...
WARNING: Communication cutoff 1.4200000000000002 is shorter than a bond length based estimate of 1.8. This may lead to errors. (../comm.cpp:667)
#--------------End of Input file ------------------
Total wall time: 0:03:08
