LAMMPS (29 Oct 2020)
###################### polyelectrolyte complexation ######################
clear

#Initialization
#------------------------------------
units				lj
dimension			3
atom_style			full
boundary			p p p

#Atom Definition
#-------------------------------------
read_restart			restart.equil
Reading restart file ...
  restart file = 29 Oct 2020, LAMMPS = 29 Oct 2020
  restoring atom style full from restart
  orthogonal box = (-80.000000 -80.000000 -80.000000) to (80.000000 80.000000 80.000000)
  1 by 1 by 1 MPI processor grid
  restoring pair style lj/cut from restart
  restoring bond style harmonic from restart
  60 atoms
  59 bonds
Finding 1-2 1-3 1-4 neighbors ...
  special bond factors lj:    0.0      1.0      1.0     
  special bond factors coul:  0.0      0.0      0.0     
     2 = max # of 1-2 neighbors
     2 = max # of 1-3 neighbors
     4 = max # of 1-4 neighbors
     6 = max # of special neighbors
  special bonds CPU = 0.000 seconds
  read_restart CPU = 0.002 seconds

#Force definition
#----------------------------------------------
#Bond definition
bond_style			harmonic
bond_coeff			1 5000 1
#Pair definition
special_bonds	lj 0 1 1
dielectric		80
pair_style		 lj/cut 1.12
pair_modify 		 shift yes
pair_coeff	1 1 1 1 1.12

#Timestep etc
#--------------------------------------------
timestep		0.001
run_style		verlet
velocity		all	create	1	6

#Fix
#---------------------------------------
group polymers type 1
60 atoms in group polymers
fix 1 all nve
fix 2 all langevin 1	1	1000	6

#Dump
#------------------------------------------------
compute  1 all gyration
variable  myRg2 equal c_1
variable  i equal step
fix  mythermofile all print 5000 "$i ${myRg2}" file radius_of_gyration.dat screen no

thermo_style		 custom step temp press pe evdwl ecoul ebond ke etotal enthalpy
thermo 	5000
dump	3 all custom 5000 dump.lammpstrj id mol type xu yu zu
run		2000000
Neighbor list info ...
  update every 1 steps, delay 10 steps, check yes
  max neighbors/atom: 2000, page size: 100000
  master list distance cutoff = 1.42
  ghost atom cutoff = 1.42
  binsize = 0.71, bins = 226 226 226
  1 neighbor lists, perpetual/occasional/extra = 1 0 0
  (1) pair lj/cut, perpetual
      attributes: half, newton on
      pair build: half/bin/newton
      stencil: half/bin/3d/newton
      bin: standard
WARNING: Communication cutoff 1.4200000000000002 is shorter than a bond length based estimate of 1.8. This may lead to errors. (../comm.cpp:667)
Per MPI rank memory allocation (min/avg/max) = 54.71 | 54.71 | 54.71 Mbytes
Step Temp Press PotEng E_vdwl E_coul E_bond KinEng TotEng Enthalpy 
 2000000            1 -0.00012130765   0.43871753 0.0060657727            0   0.43265176        1.475    1.9137175   -6.3675516 
 2005000     1.022492 8.8816794e-05   0.38363664  0.027180807            0   0.35645583    1.5081758    1.8918124    7.9550389 
 2010000   0.91346697 1.5656211e-05   0.53654537  0.038162189            0   0.49838318    1.3473638    1.8839092    2.9527065 
 2015000   0.92731204 -5.1814292e-06   0.49865421   0.03198978            0   0.46666443    1.3677853    1.8664395    1.5127206 
 2020000   0.99597743 -4.2764325e-05   0.43340908 0.0088118151            0   0.42459727    1.4690667    1.9024758   -1.0169021 
 2025000   0.95217262 -9.0282452e-05    0.4902965 0.0069117012            0    0.4833848    1.4044546    1.8947511    -4.268531 
 2030000   0.92793963 8.8476337e-05   0.50853494 0.0071671914            0   0.50136775     1.368711    1.8772459    7.9172305 
 2035000    1.0648308 5.7891944e-05   0.31037653 0.0011636177            0   0.30921291    1.5706254     1.881002     5.833092 
 2040000    0.9793639 5.2670658e-05   0.43333734            0            0   0.43333734    1.4445617    1.8778991    5.4735494 
 2045000    1.0073008 1.1984382e-05   0.41491638 0.00071522596            0   0.41420116    1.4857687     1.900685    2.7188188 
 2050000   0.96510328 -0.00016783435   0.47683822 0.0014727017            0   0.47536551    1.4235273    1.9003656    -9.557126 
 2055000   0.97824729 -4.3501783e-05   0.46546344  0.021198918            0   0.44426452    1.4429147    1.9083782   -1.0613435 
 2060000    1.0206407 7.1669925e-05   0.41548954  0.010989571            0   0.40449997     1.505445    1.9209345    6.8136014 
 2065000   0.98335218 -4.6618057e-05     0.490951 0.0014084049            0    0.4895426    1.4504445    1.9413955   -1.2410639 
 2070000    1.0057883 -5.582784e-05   0.47140531  0.016297492            0   0.45510782    1.4835378    1.9549431   -1.8562375 
 2075000   0.94223968 -3.1262744e-05   0.55141186  0.027509669            0   0.52390219    1.3898035    1.9412154  -0.19298796 
 2080000    1.0511696 -4.7294711e-06   0.39990144  0.013118613            0   0.38678282    1.5504752    1.9503766    1.6275114 
 2085000   0.94379456 4.2460364e-05   0.55728018 0.0098797594            0   0.54740042     1.392097    1.9493772    4.8480047 
 2090000    1.0316322 4.1658857e-05   0.43528245  0.025000043            0   0.41028241    1.5216575      1.95694    4.8008513 
 2095000   0.99058125 4.0513393e-05   0.51175058   0.10703259            0   0.40471799    1.4611073    1.9728579    4.7385722 
 2100000   0.97202038 8.0919963e-05   0.52960279  0.040390834            0   0.48921195    1.4337301    1.9633328     7.487469 
 2105000    1.0144629 6.6451474e-06   0.49313146 0.0023919323            0   0.49073953    1.4963328    1.9894642    2.4431063 
 2110000    1.0990679 -2.8451435e-05   0.38505472 0.0067045276            0   0.37835019    1.6211252    2.0061799  0.063895281 
 2115000   0.97154452 3.9054846e-05   0.51934319 0.0037272426            0   0.51561595    1.4330282    1.9523714    4.6185155 
 2120000   0.98159474 -9.0600177e-05   0.46048596 0.0014276051            0   0.45905835    1.4478522    1.9083382   -4.2766339 
 2125000   0.96044484 8.5853144e-05   0.47443348  0.014493688            0   0.45993979    1.4166561    1.8910896    7.7519976 
 2130000   0.91179986 -1.2789787e-07   0.59784541  0.024987666            0   0.57285774    1.3449048    1.9427502     1.934019 
 2135000   0.91831042 3.9755876e-05   0.59971202  0.011131763            0   0.58858025    1.3545079    1.9542199     4.668221 
 2140000   0.99404369 3.8622007e-05   0.48897898  0.010157082            0    0.4788219    1.4662144    1.9551934    4.5917891 
 2145000    1.0527495 8.9720451e-06    0.4207776 0.0063404452            0   0.41443716    1.5528055    1.9735831    2.5860747 
 2150000   0.99966132 -3.8148371e-05   0.50106079 0.0037211912            0    0.4973396    1.4745004    1.9755612  -0.62870087 
 2155000   0.98023849 5.1390833e-05   0.52039229            0            0   0.52039229    1.4458518    1.9662441    5.4745249 
 2160000   0.97713725 5.0462466e-05   0.49988528 0.0098886924            0   0.48999658    1.4412774    1.9411627    5.3860671 
 2165000   0.91374623 -5.4312317e-05   0.57377535 0.0071129763            0   0.56666237    1.3477757     1.921551   -1.7861698 
 2170000   0.91942408 0.00011635857   0.55017263  0.020782067            0   0.52939056    1.3561505    1.9063231    9.8497347 
 2175000   0.98671558 6.4915652e-05   0.47346893 0.00035797692            0   0.47311096    1.4554055    1.9288744    6.3604496 
 2180000    1.0373829 -0.00011264602   0.42232921  0.003376676            0   0.41895254    1.5301398     1.952469   -5.7374996 
 2185000    1.0338395 7.733215e-05   0.44672042  0.011552036            0   0.43516838    1.5249133    1.9716337    7.2508418 
 2190000   0.97339511 -5.8004874e-06   0.52687185  0.020696828            0   0.50617502    1.4357578    1.9626296    1.5666497 
 2195000   0.97424956 2.2076177e-05   0.52927006 0.0044305074            0   0.52483956    1.4370181    1.9662882    3.4733552 
 2200000    1.0082358 -8.2556149e-06   0.49147264  0.022955321            0   0.46851732    1.4871478    1.9786205    1.4150371 
 2205000    1.0767744 -7.7086095e-06   0.40627059  0.016610686            0   0.38965991    1.5882423    1.9945129    1.4682718 
 2210000   0.98976779 -4.0159552e-05   0.55227732  0.001118932            0   0.55115839    1.4599075    2.0121848  -0.72937397 
 2215000    1.0441061 4.7649935e-05   0.43772254   0.01046663            0   0.42725591    1.5400565     1.977779    5.2306812 
 2220000    1.0182948 -4.3305355e-06   0.43310819 0.0088804467            0   0.42422774    1.5019848     1.935093    1.6394618 
 2225000   0.94648584 -6.9833352e-05   0.49321892  0.013242288            0   0.47997664    1.3960666    1.8892855   -2.8780046 
 2230000   0.99445757 -4.3947236e-05    0.4309088  0.022186316            0   0.40872249    1.4668249    1.8977337   -1.1023976 
 2235000   0.90614904 1.7227545e-05   0.53654036  0.010634427            0   0.52590593    1.3365698    1.8731102    3.0491773 
 2240000   0.88400013 -2.6034689e-06   0.59795876  0.029883004            0   0.56807575    1.3039002    1.9018589    1.7241288 
 2245000    0.9016219 2.0916982e-05   0.60221992  0.047377577            0   0.55484234    1.3298923    1.9321122    3.3600448 
 2250000   0.96114072 -5.189016e-05   0.50776561 0.0031758339            0   0.50458978    1.4176826    1.9254482   -1.6169201 
 2255000    0.9048263 2.4241208e-05   0.56928255  0.029327097            0   0.53995545    1.3346188    1.9039013    3.5587678 
 2260000   0.95937596 6.3201265e-05    0.4816179 0.0086858987            0     0.472932    1.4150795    1.8966974    6.2112371 
 2265000   0.91033744 5.3925052e-05   0.54051745  0.045477814            0   0.49503964    1.3427477    1.8832652    5.5645487 
 2270000   0.95662557 -4.0777801e-05   0.46681342  0.015191019            0    0.4516224    1.4110227    1.8778361  -0.90592845 
 2275000    1.0133425 2.5896177e-05   0.38396776  0.010153538            0   0.37381423    1.4946802     1.878648    3.6464936 
 2280000    1.0163546 0.00015565829   0.36699284 0.00093939874            0   0.36605345     1.499123    1.8661159    12.492389 
 2285000    0.8934751 9.5311627e-05   0.55856537  0.015494254            0   0.54307111    1.3178758    1.8764411    8.3830482 
 2290000   0.94363581 6.0265308e-05   0.53086951  0.018344373            0   0.51252514    1.3918628    1.9227323    6.0368441 
 2295000      0.97392 -3.6190042e-05   0.46341835  0.016394334            0   0.44702402     1.436532    1.8999504  -0.57062318 
 2300000   0.98848316 8.6702583e-05   0.42303243 0.0011288781            0   0.42190355    1.4580127    1.8810451    7.7999414 
 2305000   0.97819059 -4.1786317e-05   0.37976255 3.6750243e-05            0    0.3797258    1.4428311    1.8225937   -1.0300189 
 2310000   0.91213224 3.5535522e-05   0.49743039 0.0030500045            0   0.49438039    1.3453951    1.8428255    4.2687171 
 2315000   0.99234169 2.808524e-05   0.38450592   0.01647101            0   0.36803491     1.463704    1.8482099    3.7654956 
 2320000   0.93279214 5.5208997e-06   0.45908052 0.00016500666            0   0.45891551    1.3758684    1.8349489    2.2118423 
 2325000   0.97499077 -3.589494e-05   0.41700133  0.032781203            0   0.38422013    1.4381114    1.8551127   -0.5953152 
 2330000     0.929172 8.4779892e-05   0.47151708  0.011527892            0   0.45998919    1.3705287    1.8420458    7.6296864 
 2335000   0.87630532 -6.9221574e-05   0.53113818  0.019619989            0   0.51151819    1.2925503    1.8236885   -2.9018376 
 2340000   0.92256094 4.2833685e-05   0.47752484  0.022318844            0   0.45520599    1.3607774    1.8383022    4.7624151 
 2345000    1.0006871 -3.935715e-05   0.40077776 0.0091950211            0   0.39158273    1.4760134    1.8767912  -0.80999024 
 2350000   0.90015716 8.7353632e-05   0.51689532    0.1252704            0   0.39162491    1.3277318    1.8446271    7.8079684 
 2355000   0.94765302 -1.0709056e-05   0.44526006  0.019585619            0   0.42567445    1.3977882    1.8430483    1.1119767 
 2360000    1.0107301 -4.4993737e-05    0.3585943  0.021369293            0   0.33722501    1.4908269    1.8494212   -1.2221512 
 2365000   0.88759681 1.0714022e-05   0.54569839  0.045189284            0    0.5005091    1.3092053    1.8549037    2.5863143 
 2370000   0.94893988 4.7306022e-05   0.47305102   0.02455291            0   0.44849811    1.3996863    1.8727373    5.1021618 
 2375000   0.91819608 1.1531115e-06   0.53358056  0.032034239            0   0.50154632    1.3543392    1.8879198    1.9666388 
 2380000   0.91738611 -9.9437334e-05   0.53046703  0.011587841            0   0.51887919    1.3531445    1.8836115   -4.9046438 
 2385000   0.92502143 -4.9222968e-05   0.50619865  0.025659399            0   0.48053925    1.3644066    1.8706053   -1.4896827 
 2390000   0.91426757 -3.9271594e-05    0.5403758  0.010466602            0    0.5299092    1.3485447    1.8889205  -0.79202037 
 2395000   0.91965225 9.2630855e-05   0.50643844 0.0036100376            0    0.5028284    1.3564871    1.8629255    8.1865252 
 2400000   0.99066396 -3.0067748e-05   0.37944482  0.055733344            0   0.32371148    1.4612293    1.8406742  -0.21195079 
 2405000   0.92688371 1.690694e-05   0.47869804 0.0084631812            0   0.47023485    1.3671535    1.8458515    3.0000319 
 2410000   0.89855291 8.958053e-06   0.53561629  0.022004376            0   0.51361192    1.3253655    1.8609818    2.4725182 
 2415000   0.92141243 9.2472118e-05   0.48499181  0.024532921            0   0.46045889    1.3590833    1.8440751    8.1568384 
 2420000   0.94997312 -0.00010992039   0.44215392 0.00060504112            0   0.44154888    1.4012104    1.8433643   -5.6605345 
 2425000   0.96652936 -9.1410475e-05   0.44762181  0.048096514            0    0.3995253    1.4256308    1.8732526   -4.3670358 
 2430000   0.96251615 5.9530981e-05   0.48819433 0.0055902854            0   0.48260405    1.4197113    1.9079057    5.9718873 
 2435000     1.003397 -9.5037756e-05   0.44367294  0.027134209            0   0.41653873    1.4800106    1.9236836   -4.5642272 
 2440000    1.0103298 4.3724772e-05   0.44395776  0.012616662            0    0.4313411    1.4902365    1.9341942    4.9191386 
 2445000    1.0272648 5.2923222e-05   0.42689526 0.0081890119            0   0.41870625    1.5152156    1.9421109    5.5550028 
 2450000    1.0387125 4.580921e-06   0.40018935  0.022312243            0    0.3778771    1.5321009    1.9322902    2.2450144 
 2455000   0.99760795 -5.4410792e-05   0.50754897 0.0050453708            0    0.5025036    1.4714717    1.9790207   -1.7354227 
 2460000    1.0181632 9.9257147e-05   0.50154608 0.0043129433            0   0.49723313    1.5017907    2.0033368    8.7792913 
 2465000   0.96614352 -5.9052605e-05   0.60595539   0.11976093            0   0.48619447    1.4250617    2.0310171   -2.0003074 
 2470000    1.0242271 2.3823903e-06   0.50426484 0.00094120905            0   0.50332363     1.510735    2.0149998    2.1776377 
 2475000   0.99336377 -1.7088278e-05   0.55950655  0.056326156            0   0.50318039    1.4652116    2.0247181   0.85815836 
 2480000    1.0543699 5.8300389e-05    0.4633398  0.041162044            0   0.42217776    1.5551957    2.0185355    5.9985087 
 2485000     1.056062 4.0845726e-05   0.45391892  0.031088339            0   0.42283058    1.5576914    2.0116103    4.8000119 
 2490000    1.0708171 1.2891469e-05   0.43002738  0.037714369            0   0.39231302    1.5794552    2.0094826    2.8895402 
 2495000   0.96965494 5.2754138e-05   0.55800656  0.058217838            0   0.49978873     1.430241    1.9882476    5.5895968 
 2500000     1.007612 -3.1601668e-06   0.49071194 0.0060268016            0   0.48468514    1.4862278    1.9769397    1.7612057 
 2505000   0.95315175 2.1036665e-05   0.61892731   0.11803281            0    0.5008945    1.4058988    2.0248261    3.4609291 
 2510000    1.0343267 2.7190552e-05   0.49914335  0.015461147            0    0.4836822    1.5256319    2.0247752    3.8809836 
 2515000     1.040188 -3.7185366e-05   0.48491569 0.0076354131            0   0.47728027    1.5342773     2.019193  -0.51932795 
 2520000    1.0483355 -1.7859861e-05    0.5029139  0.031178258            0   0.47173564    1.5462948    2.0492087   0.82997553 
 2525000   0.97456516 5.1730199e-05   0.63578299   0.01321023            0   0.62257276    1.4374836    2.0732666    5.6047149 
 2530000    1.0498467 2.9545566e-07   0.53018619  0.029542467            0   0.50064373    1.5485239    2.0787101    2.0988799 
 2535000    1.0140762 -0.00012808247   0.57474997 0.0086933455            0   0.56605663    1.4957624    2.0705124   -6.6732509 
 2540000    1.0761862 -9.6649012e-05   0.45331885  0.011700356            0    0.4416185    1.5873747    2.0406935   -4.5572123 
 2545000   0.98234045 -9.2121289e-05   0.58624354  0.035067952            0   0.55117559    1.4489522    2.0351957   -4.2536176 
 2550000   0.98584592 6.7053912e-06   0.55517824 0.0021231329            0   0.55305511    1.4541227     2.009301    2.4670557 
 2555000   0.93142267 4.2889488e-05   0.64257661  0.062661763            0   0.57991484    1.3738484     2.016425    4.9443474 
 2560000     1.119718 3.7141855e-05   0.35808696  0.030072236            0   0.32801473    1.6515841     2.009671    4.5452217 
 2565000   0.99491198 -5.1864459e-05   0.57068811  0.020934084            0   0.54975402    1.4674952    2.0381833   -1.5024304 
 2570000    1.0148977 -9.3589884e-05   0.57120669  0.071193066            0   0.50001363    1.4969741    2.0681808   -4.3208886 
 2575000    1.0735996 3.3982824e-05   0.50972191   0.07897489            0   0.43074702    1.5835594    2.0932813    4.4131754 
 2580000    1.1066589 -3.4680124e-05   0.47398861  0.033980093            0   0.44000852    1.6323218    2.1063104  -0.26118605 
 2585000    1.0479659 2.3105741e-05   0.54602369 0.0047757562            0   0.54124793    1.5457497    2.0917734    3.6691253 
 2590000    1.1020995 -1.2515677e-05   0.47655945   0.01753451            0   0.45902494    1.6255967    2.1021562    1.2477526 
 2595000    1.0632799 5.5168211e-05   0.50510545 0.0029760727            0   0.50212938    1.5683379    2.0734434    5.8395933 
 2600000    1.0352324 -9.6009033e-05   0.55512561 0.0013771086            0    0.5537485    1.5269678    2.0820934   -4.4721232 
 2605000   0.99003589 -2.1601232e-05   0.57178872 0.0054099033            0   0.56637882    1.4603029    2.0320917   0.55744755 
 2610000    1.0130887 2.6902465e-05   0.52754909  0.052162064            0   0.47538702    1.4943058    2.0218549    3.8583965 
 2615000   0.99264438 -6.0833104e-05   0.54286025 0.0031324333            0   0.53972782    1.4641505    2.0070107   -2.1458625 
 2620000    1.1268188 1.8831919e-05   0.36006678 0.0018945723            0   0.35817221    1.6620578    2.0221246    3.3077169 
 2625000     1.043047 -2.9342807e-05   0.47006252  0.032616404            0   0.43744612    1.5384944    2.0085569 0.0054212692 
 2630000   0.99284666 -4.1423581e-05   0.52275217  0.020305327            0   0.50244685    1.4644488     1.987201  -0.84064883 
 2635000   0.99887778 -6.1966161e-05   0.48969257  0.024515939            0   0.46517663    1.4733447    1.9630373    -2.267186 
 2640000    1.1017571 -3.1550617e-05    0.3508728 0.0099735859            0   0.34089921    1.6250917    1.9759645  -0.17789088 
 2645000    1.0016547 -4.0713295e-06   0.51080687  0.018382596            0   0.49242427    1.4774407    1.9882476    1.7103115 
 2650000    1.0501272 3.7082023e-05   0.45835045  0.039251724            0   0.41909873    1.5489377    2.0072881    4.5387542 
 2655000    1.0894666 -8.8024685e-06   0.39409069  0.029310527            0   0.36478016    1.6069633     2.001054    1.4001388 
 2660000    1.0145174 -3.929747e-05   0.51527488  0.011564087            0    0.5037108    1.4964132     2.011688  -0.67101923 
 2665000   0.97584703 -1.3040556e-05   0.59171672  0.031074282            0   0.56064244    1.4393744    2.0310911    1.1408558 
 2670000    1.0285522 2.3592011e-05   0.49631289  0.019960274            0   0.47635261    1.5171146    2.0134274    3.6239754 
 2675000    1.0469095 1.5017111e-05   0.46565992 0.0010870472            0   0.46457288    1.5441915    2.0098514    3.0350195 
 2680000   0.97587267 -1.2952079e-05   0.54903411  0.018439832            0   0.53059428    1.4394122    1.9884463     1.104251 
 2685000    1.0115759 3.4101234e-05   0.50710242 0.0024817027            0   0.50462072    1.4920745    1.9991769    4.3271545 
 2690000   0.96640465 -1.3461332e-06   0.56378617  0.034289426            0   0.52949674    1.4254469     1.989233     1.897337 
 2695000   0.92516001 -4.0440894e-05   0.62142839  0.057436029            0   0.56399236     1.364611    1.9860394  -0.77472562 
 2700000    1.0179244 -3.4989567e-05   0.47259669  0.048015874            0   0.42458082    1.5014384    1.9740351  -0.41458597 
 2705000    1.0174702 0.00013888166   0.46476412  0.015208553            0   0.44955557    1.5007686    1.9655327     11.44652 
 2710000    0.9870732 -3.0752709e-05   0.52695162  0.016152291            0   0.51079933     1.455933    1.9828846  -0.11650036 
 2715000     1.030217 0.00011914623   0.46453409  0.034184885            0   0.43034921      1.51957    1.9841041     10.11782 
 2720000    1.0897593 -7.0689699e-05   0.38049809  0.019746907            0   0.36075119    1.6073949     1.987893   -2.8378571 
 2725000   0.99835568 -7.0745612e-05   0.53407736  0.039410362            0     0.494667    1.4725746     2.006652   -2.8229151 
 2730000    1.0097587 -3.2746606e-05   0.51206158 0.0035628348            0   0.50849874    1.4893941    2.0014557  -0.23404591 
 2735000    1.0682129 -9.3360358e-05   0.42304475 0.0093606637            0   0.41368409     1.575614    1.9986588   -4.3747417 
 2740000     1.111819 -2.1219543e-05   0.33728468  0.022682684            0     0.314602     1.639933    1.9772177   0.52863019 
 2745000    1.0244594 2.4819499e-05   0.49274166 0.0090290221            0   0.48371264    1.5110777    2.0038193    3.6981638 
 2750000   0.97635967 9.3006089e-05   0.56150211  0.032771772            0   0.52873033    1.4401305    2.0016326    8.3508483 
 2755000    1.0205366 -4.1380293e-05    0.5225436 0.0034388886            0   0.51910471    1.5052915    2.0278351  -0.79705962 
 2760000   0.99073188 6.6118345e-05   0.55186822   0.02055738            0   0.53131084    1.4613295    2.0131977    6.5268768 
 2765000    1.0050753 -3.0249841e-05   0.55016362  0.021198106            0   0.52896551    1.4824861    2.0326497 -0.032406125 
 2770000    1.1054833 4.737731e-06   0.37696576 0.0051511652            0    0.3718146    1.6305878    2.0075536    2.3309827 
 2775000    1.0367933 2.0961806e-05   0.49791253  0.026946212            0   0.47096631    1.5292702    2.0271827    3.4581753 
 2780000    1.0325039 -5.8686278e-05   0.50345995  0.039869692            0   0.46359026    1.5229433    2.0264032   -1.9799133 
 2785000    1.0321446 -4.1299892e-06   0.57296551   0.04257554            0   0.53038997    1.5224133    2.0953788    1.8134382 
 2790000     1.050088 -3.9346564e-05    0.5305094  0.031464716            0   0.49904469    1.5488798    2.0793892  -0.60666953 
 2795000    1.0829362 -0.00011810615   0.47735966  0.029728805            0   0.44763086    1.5973309    2.0746905   -5.9880228 
 2800000    1.1321059 0.00015125853   0.39863323  0.031020029            0    0.3676132    1.6698562    2.0684894    12.394405 
 2805000    1.0502545 -7.5544881e-05   0.52592073 0.00090243272            0    0.5250183    1.5491254    2.0750461    -3.082151 
 2810000    1.1093903 5.9992642e-05   0.45013998  0.046339893            0   0.40380009    1.6363507    2.0864907    6.1819884 
 2815000   0.97346767 1.8018842e-05   0.59641097  0.061284763            0   0.53512621    1.4358648    2.0322758    3.2623621 
 2820000    1.0384534 -7.2452668e-05   0.46521373  0.016171254            0   0.44904247    1.5317187    1.9969325   -2.9491696 
 2825000    1.0999607 4.4402134e-05   0.35572631 0.0057473362            0   0.34997897     1.622442    1.9781683     5.009354 
 2830000    1.0568115 9.1795019e-06   0.44299152  0.023871216            0   0.41912031    1.5587969    2.0017884    2.6284424 
 2835000    1.0102752 -3.9776946e-05   0.49953175 0.0098839811            0   0.48964777    1.4901559    1.9896877  -0.72575189 
 2840000     1.036764 8.7019397e-05   0.43430808 0.00073608923            0   0.43357199    1.5292269     1.963535    7.9040592 
 2845000   0.89758531 3.9043266e-05   0.64407602  0.041857403            0   0.60221862    1.3239383    1.9680144     4.633368 
 2850000   0.97120573 -6.6642532e-05   0.48684181  0.044549747            0   0.44229206    1.4325285    1.9193703   -2.6300933 
 2855000     0.988901 2.1706673e-05   0.42697127  0.011886437            0   0.41508484     1.458629    1.8856003    3.3674425 
 2860000   0.97508723 -4.2009582e-05   0.42703234  0.036772434            0    0.3902599    1.4382537     1.865286   -1.0025682 
 2865000   0.86861592 5.2127607e-05   0.58820971  0.013129599            0   0.57508011    1.2812085    1.8694182    5.4279962 
 2870000    0.9044051 -8.5540618e-05   0.54400411 0.0080877087            0    0.5359164    1.3339975    1.8780016   -3.9615712 
 2875000   0.96177643 4.2268101e-05   0.47370626  0.025711543            0   0.44799471    1.4186202    1.8923265    4.7778288 
 2880000    1.0509867 -1.2121306e-05   0.34392432  0.031469152            0   0.31245517    1.5502054    1.8941298    1.0666486 
 2885000   0.95568674 8.3667389e-06   0.52238304  0.017619591            0   0.50476345    1.4096379     1.932021    2.5031904 
 2890000   0.94214117 2.008754e-05   0.54125237  0.022493383            0   0.51875899    1.3896582    1.9309106      3.30222 
 2895000   0.99944473 0.00010194978   0.44105155 0.00011419668            0   0.44093735     1.474181    1.9152325    8.8750044 
 2900000   0.98192112 8.3888056e-05   0.44535679  0.026386516            0   0.41897028    1.4483337    1.8936905    7.6204484 
 2905000   0.96799885 9.5040914e-05   0.45685104  0.014616565            0   0.44223447    1.4277983    1.8846493    8.3727758 
 2910000   0.98611506 1.5598961e-05   0.42503929  0.039015755            0   0.38602353    1.4545197     1.879559    2.9444481 
 2915000   0.94722417 -2.8753087e-05   0.49835597  0.030411432            0   0.46794454    1.3971557    1.8955116 -0.067365803 
 2920000   0.99945361 0.00016416776   0.45081781 0.0053346958            0   0.44548311    1.4741941    1.9250119    13.132197 
 2925000   0.92750692 2.7551274e-05   0.50729216  0.014849492            0   0.49244267    1.3680727    1.8753649    3.7561985 
 2930000    0.9403137 -5.7475823e-05   0.52405414  0.024904375            0   0.49914977    1.3869627    1.9110168    -2.012666 
 2935000     0.879431 9.2725372e-05   0.62988391  0.027624823            0   0.60225909    1.2971607    1.9270446    8.2570967 
 2940000    1.0568612 -1.866461e-05   0.37221036 1.5128388e-05            0   0.37219523    1.5588703    1.9310806   0.65690991 
 2945000    1.0046509 3.9619236e-05   0.43655707  0.060262848            0   0.37629423      1.48186    1.9184171    4.6230903 
 2950000   0.88548304 5.8972096e-05   0.61422327  0.061595493            0   0.55262777    1.3060875    1.9203108    5.9461391 
 2955000   0.96149213 0.00018238906   0.50199729   0.01405006            0   0.48794723    1.4182009    1.9201982    14.371291 
 2960000   0.91055592 -5.7540214e-05   0.55748846  0.062526177            0   0.49496228      1.34307    1.9005584   -2.0275202 
 2965000   0.99414751 -2.7001259e-05   0.45253721 0.0047728981            0   0.44776431    1.4663676    1.9189048  0.075618865 
 2970000    1.0188791 -8.9946782e-06   0.41382905  0.010617382            0   0.40321167    1.5028467    1.9166757    1.3026391 
 2975000     1.017518 4.4061721e-07   0.43929961   0.01535298            0   0.42394663    1.5008391    1.9401387    1.9702182 
 2980000   0.94016674 8.7674019e-05   0.52316096  0.024522928            0   0.49863803    1.3867459    1.9099069    7.8951199 
 2985000   0.89817546 -7.7386184e-05   0.60004422  0.021206846            0   0.57883738    1.3248088     1.924853   -3.3580438 
 2990000   0.96569586 -3.6975024e-05   0.48599562 0.0076425443            0   0.47835308    1.4244014     1.910397  -0.61376461 
 2995000    1.0694667 -9.3005606e-05   0.34190726 0.0059552609            0     0.335952    1.5774634    1.9193707    -4.429812 
 3000000   0.94547984 -5.5712208e-06   0.56857686 0.0025409816            0   0.56603588    1.3945828    1.9631596    1.5828309 
 3005000    0.9790531 3.3978295e-05   0.54200746  0.018780674            0   0.52322679    1.4441033    1.9861108    4.3056957 
 3010000   0.91713052 -3.7610834e-05   0.66957743  0.047995572            0   0.62158186    1.3527675    2.0223449   -0.5452213 
 3015000    1.0352879 -5.2867304e-05   0.50255128  0.011715388            0    0.4908359    1.5270497     2.029601   -1.5794736 
 3020000     1.063655 3.6351484e-05   0.50453237 0.0046651059            0   0.49986726    1.5688912    2.0734235    4.5550182 
 3025000   0.97972306 4.8260073e-06   0.64802353  0.014262287            0   0.63376124    1.4450915     2.093115    2.4225705 
 3030000   0.99760423 -6.7402184e-07   0.60725929 0.0081179095            0   0.59914138    1.4714662    2.0787255    2.0327123 
 3035000    1.0400731 6.5260665e-06   0.56117647  0.002440417            0   0.55873605    1.5341078    2.0952843    2.5407971 
 3040000   0.93575431 2.9475001e-05   0.68856976  0.014645259            0    0.6739245    1.3802376    2.0688074    4.0809674 
 3045000    1.0022611 -5.1412555e-06   0.60096255 0.0018212407            0   0.59914131    1.4783351    2.0792976    1.7283213 
 3050000    1.0369224 -9.1507211e-05   0.54691184  0.019790881            0   0.52712095    1.5294605    2.0763724   -4.1705199 
 3055000   0.93197034 -3.0332804e-05   0.69614015  0.011822805            0   0.68431734    1.3746563    2.0707964 7.6953795e-05 
 3060000   0.96550266 -4.8381736e-05   0.67778889 0.0043603255            0   0.67342857    1.4241164    2.1019053   -1.2009545 
 3065000    1.0105505 -0.00011974523   0.64110799  0.036268684            0    0.6048393     1.490562    2.1316699   -6.0429376 
 3070000   0.93720583 3.1129289e-05   0.73577884 0.0082871469            0   0.72749169    1.3823786    2.1181574    4.2432503 
 3075000    0.9940406 -2.0977118e-07   0.66137188  0.054893304            0   0.60647858    1.4662099    2.1275818    2.1132614 
 3080000    1.0554262 -0.00010610758   0.59303875  0.012828216            0   0.58021053    1.5567536    2.1497923   -5.0938188 
 3085000    1.0502839 1.7832024e-05    0.6053693 0.0062138329            0   0.59915547    1.5491687     2.154538    3.3718709 
 3090000   0.97824392 -5.2625987e-05   0.71944416  0.026248813            0   0.69319535    1.4429098    2.1623539   -1.4302467 
 3095000    1.0491882 3.3713655e-05   0.62907337  0.049070393            0   0.58000298    1.5475526     2.176626    4.4781448 
 3100000    1.1162367 2.3615937e-05   0.51290987 0.0032207281            0   0.50968914    1.6464491    2.1593589    3.7715402 
 3105000    1.0079769 6.7371612e-06    0.6464594 0.0030374501            0   0.64342195     1.486766    2.1332254    2.5931489 
 3110000    1.0528398 9.743443e-05   0.55590322  0.030364621            0    0.5255386    1.5529387     2.108842    8.7603657 
 3115000    1.0195256 -5.9402125e-06    0.5950241  0.074308982            0   0.52071511    1.5038003    2.0988244    1.6933059 
 3120000     1.001028 -4.4443633e-05    0.6036774  0.010444874            0   0.59323253    1.4765163    2.0801937  -0.95382497 
 3125000    0.9665764 -5.6155885e-05   0.63958842  0.027579675            0   0.61200875    1.4257002    2.0652886   -1.7682865 
 3130000     1.021492 -0.00013861676   0.56506675 0.0052163893            0   0.55985036    1.5067008    2.0717675   -7.3911364 
 3135000    1.0127908 -9.3688751e-06   0.63171714 0.0062147757            0   0.62550237    1.4938664    2.1255836    1.4860017 
 3140000    1.0056834 -1.6528953e-05   0.60019854  0.021748771            0   0.57844977     1.483383    2.0835815   0.95520501 
 3145000    1.1035891 3.4181957e-06   0.43650831 0.0092661686            0   0.42724214    1.6277939    2.0643022     2.297651 
 3150000   0.99161096 -9.8867254e-06   0.56256143  0.033147626            0    0.5294138    1.4626262    2.0251876    1.3502538 
 3155000   0.97769623 3.649241e-05   0.57756147  0.010943021            0   0.56661845    1.4421019    2.0196634    4.5108786 
 3160000    1.0076995 -2.9859747e-06   0.50695316  0.013332634            0   0.49362052    1.4863568      1.99331    1.7894674 
 3165000   0.95304675 -7.8623725e-05   0.55262821  0.046209966            0   0.50641824     1.405744    1.9583722   -3.4090075 
 3170000   0.92042105 -4.0821693e-05   0.63361163  0.031874869            0   0.60173676     1.357621    1.9912327  -0.79552827 
 3175000   0.96014819 2.8418809e-05   0.57110318  0.031743361            0   0.53935982    1.4162186    1.9873218    3.9273791 
 3180000    1.1197661 5.0748044e-06    0.3620848 0.0049886815            0   0.35709612     1.651655    2.0137399    2.3601798 
 3185000    0.9050718 2.9077887e-05   0.68806685  0.050805453            0    0.6372614    1.3349809    2.0230477    4.0080981 
 3190000   0.98433431 -2.1074947e-05   0.57315611 0.0030431045            0     0.570113    1.4518931    2.0250492   0.58633284 
 3195000    1.0120551 1.2072934e-05   0.53671253  0.012152461            0   0.52456007    1.4927813    2.0294938    2.8536728 
 3200000    1.0277017 1.2122014e-05   0.54183218  0.029361405            0   0.51247077      1.51586    2.0576922    2.8852217 
 3205000    1.0772962 7.5689141e-05   0.49391998 0.00079248427            0   0.49312749    1.5890119    2.0829318    7.2499772 
 3210000    1.0164519 6.9771971e-05   0.60570452  0.037349712            0    0.5683548    1.4992666    2.1049711     6.868071 
 3215000    1.1046722 2.6663761e-05   0.48878695  0.021841056            0    0.4669459    1.6293915    2.1181785    3.9384246 
 3220000    1.0729144 -4.5499042e-05   0.55360934   0.05372133            0   0.49988801    1.5825487    2.1361581  -0.96990988 
 3225000    1.1290628 6.6535879e-05   0.48071542  0.023710058            0   0.45700536    1.6653677    2.1460831    6.6882658 
 3230000    1.1209436 3.5569367e-06   0.48440418  0.013631546            0   0.47077264    1.6533919     2.137796    2.3806162 
 3235000    1.0714619 -1.6205831e-05   0.55218081 0.0083604697            0   0.54382034    1.5804062    2.1325871     1.026269 
 3240000    1.1402423 2.9624352e-05   0.45558052  0.016498114            0    0.4390824    1.6818574    2.1374379    4.1597937 
 3245000    1.1352947 2.5522704e-05   0.46370622  0.033670032            0   0.43003619    1.6745597    2.1382659    3.8806159 
 3250000   0.99719827 -5.8512949e-05   0.66077305  0.065586078            0   0.59518697    1.4708675    2.1316405   -1.8628435 
 3255000    1.0898726 -1.6301349e-05   0.53789108  0.042153948            0   0.49573713    1.6075621    2.1454532    1.0326145 
 3260000    1.1193027 -7.2965349e-05   0.50044708 0.00026069044            0   0.50018638    1.6509716    2.1514186   -2.8296825 
 3265000    1.0432892 8.1359801e-05   0.59579688 0.0076066419            0   0.58819024    1.5388515    2.1346484    7.6888108 
 3270000    1.0897501 -3.4653692e-06   0.50437104  0.010992215            0   0.49337883    1.6073815    2.1117525    1.8751833 
 3275000     1.010931 -2.9197799e-05    0.6268638  0.012893648            0   0.61397015    1.4911232     2.117987   0.12475057 
 3280000   0.99568304 9.6613438e-05   0.68623895  0.057794301            0   0.62844465    1.4686325    2.1548714    8.7503488 
 3285000     1.033702 -6.1642507e-06   0.64496757 0.0080389696            0    0.6369286    1.5247105    2.1696781    1.7488652 
 3290000    1.1137087 -8.9549148e-05   0.51428489  0.064496092            0    0.4497888    1.6427204    2.1570053   -3.9562166 
 3295000    1.1687954 -2.2633462e-05   0.44057153 0.0095894934            0   0.43098203    1.7239733    2.1645448   0.61943382 
 3300000     1.079755 -4.4272281e-06   0.54914592 0.0028600228            0    0.5462859    1.5926386    2.1417846    1.8395525 
 3305000    1.0981578 2.9074633e-05   0.50924617  0.055174466            0   0.45407171    1.6197827    2.1290289    4.1138572 
 3310000    1.1235104 6.7611743e-05   0.47127078  0.017734519            0   0.45353626    1.6571779    2.1284487     6.744077 
 3315000    1.1094546 -7.7519625e-05    0.4989593 0.0019134025            0    0.4970459    1.6364455    2.1354048   -3.1566016 
 3320000    1.0500062 -2.9425646e-05   0.59049528            0            0   0.59049528    1.5487591    2.1392544   0.13046368 
 3325000    1.0490317 -3.942523e-05   0.59150861  0.031999944            0   0.55950867    1.5473218    2.1388304  -0.55259865 
 3330000    1.0539766 -2.9452648e-05   0.59269302  0.044019321            0    0.5486737    1.5546154    2.1473084   0.13667431 
 3335000     1.090257 -5.4595516e-05   0.55343103  0.054080617            0   0.49935042    1.6081291    2.1615602   -1.5654937 
 3340000    1.1011245 8.5611549e-05   0.52941777  0.016889491            0   0.51252828    1.6241586    2.1535764    7.9979915 
 3345000    1.1326635 -1.4136677e-05   0.49603277  0.019032385            0   0.47700039    1.6706786    2.1667114    1.2016476 
 3350000    1.1283129 9.148462e-06     0.499821  0.039464735            0   0.46035627    1.6642615    2.1640825    2.7886175 
 3355000    1.0904992 -2.3885356e-05   0.55494035  0.018324894            0   0.53661546    1.6084864    2.1634267   0.53285308 
 3360000     1.095022 -4.6781531e-05   0.54865518  0.026408814            0   0.52224637    1.6151574    2.1638126   -1.0298066 
 3365000    1.1049074 6.1382811e-05   0.54494497   0.04788234            0   0.49706263    1.6297385    2.1746834    6.3650834 
 3370000    1.0832372 -4.518694e-05    0.5717273  0.018219275            0   0.55350802    1.5977749    2.1695022  -0.91525955 
 3375000    1.1202285 -2.0626624e-05   0.51210117 0.0082406158            0   0.50386055     1.652337    2.1644382   0.75632735 
 3380000    1.0571335 2.0541425e-05   0.61216996  0.024214347            0   0.58795561     1.559272    2.1714419    3.5737365 
 3385000    1.1458852 -5.3877286e-05   0.50662688 0.0011489834            0    0.5054779    1.6901807    2.1968076   -1.4812152 
 3390000    1.0477933 -9.7256521e-05   0.62654885  0.032321341            0   0.59422751    1.5454952     2.172044   -4.4673345 
 3395000    1.0686663 -6.0441736e-05    0.5695003 0.0087563433            0   0.56074395    1.5762828    2.1457831   -1.9803727 
 3400000     1.056871 5.2391303e-05   0.59147761  0.014464273            0   0.57701334    1.5588848    2.1503624     5.726942 
 3405000    1.0130884 6.9108079e-05   0.64656431  0.018891897            0   0.62767241    1.4943054    2.1408697     6.858648 
 3410000     1.023206 5.374474e-05   0.58741158  0.026141743            0   0.56126984    1.5092289    2.0966404    5.7656147 
 3415000    1.0779536 5.5291529e-05   0.56577447  0.018268277            0   0.54750619    1.5899816    2.1557561    5.9303245 
 3420000    1.0306922 -4.9638648e-05    0.6849772  0.046088275            0   0.63888893     1.520271    2.2052482   -1.1834168 
 3425000    1.1113099 -4.5379939e-05   0.58789299  0.039021773            0   0.54887122     1.639182     2.227075  -0.87086214 
 3430000    1.0577962 -0.00010200354   0.67523235  0.055451613            0   0.61978073    1.5602493    2.2354817   -4.7279597 
 3435000    1.0728159 -2.6763474e-05   0.67782852  0.041190644            0   0.63663787    1.5824034    2.2602319   0.43317878 
 3440000    1.1354282 -0.00012920897   0.56918433   0.08404626            0   0.48513807    1.6747566    2.2439409   -6.5767245 
 3445000    1.0779085 -1.8535895e-06   0.62140814  0.019258289            0   0.60214985    1.5899151    2.2113232    2.0847848 
 3450000    1.1139537 -1.9052342e-05   0.58296316  0.029752124            0   0.55321103    1.6430818    2.2260449   0.92540502 
 3455000     1.026985 -7.0318432e-05   0.75647489  0.091493575            0   0.66498132    1.5148029    2.2712778   -2.5291272 
 3460000    1.0405615 2.1636209e-05     0.729183  0.064813498            0    0.6643695    1.5348282    2.2640112    3.7410431 
 3465000    1.0991304 9.6768718e-08   0.64971783 0.0014447999            0   0.64827303    1.6212173    2.2709352    2.2775413 
 3470000    1.1278441 1.5257067e-05   0.57491539  0.014371354            0   0.56054404    1.6635701    2.2384855    3.2800346 
 3475000   0.99203575 -5.5538523e-06   0.74136535  0.041308733            0   0.70005661    1.4632527    2.2046181    1.8254751 
 3480000    1.0330748 -4.3678534e-05   0.66499256  0.020238089            0   0.64475447    1.5237854    2.1887779  -0.79300998 
 3485000    1.0671998 0.00012626387   0.62899971  0.029874543            0   0.59912517    1.5741198    2.2031195    10.822733 
 3490000     1.087095 -6.3555785e-05   0.62855624 0.0042383574            0   0.62431788    1.6034651    2.2320214   -2.1067202 
 3495000    1.0951446 8.4845276e-05   0.62145995  0.010014969            0   0.61144498    1.6153382    2.2367982    8.0289023 
 3500000   0.98739716 -0.0001001688   0.77879437  0.006387575            0    0.7724068    1.4564108    2.2352052   -4.6029847 
 3505000    1.0009004 -1.0957698e-06   0.76130109 0.00075610701            0   0.76054498    1.4763282    2.2376292    2.1628247 
 3510000    1.2019296 -1.7060828e-05   0.47520016 0.0034707754            0   0.47172938    1.7728462    2.2480464    1.0833605 
 3515000   0.99072805 3.0161441e-05   0.76917632  0.011595899            0   0.75758042    1.4613239    2.2305002    4.2895212 
 3520000     1.037615 -0.00016879978   0.71036159 0.0011917421            0   0.70916985    1.5304821    2.2408437   -9.2825548 
 3525000    1.0395503 -4.3076296e-05      0.70338  0.025932022            0   0.67744798    1.5333367    2.2367167  -0.70395845 
 3530000    1.0576765 3.4896805e-05     0.697146 0.0086809946            0     0.688465    1.5600729    2.2572189    4.6395075 
 3535000    1.1762273 0.00011884096   0.51287418  0.020446088            0   0.49242809    1.7349353    2.2478095    10.360686 
 3540000    1.0607806 5.5931802e-05   0.66501925 0.00033120615            0   0.66468804    1.5646514    2.2296707    6.0479484 
 3545000    1.0371642 0.00010029235   0.71706121  0.076773658            0   0.64028755    1.5298171    2.2468783    9.0935029 
 3550000    1.0819689 -0.00016399136   0.68246618 0.0047285223            0   0.67773765    1.5959041    2.2783703   -8.9167734 
 3555000    1.0934437 1.0337038e-05   0.66341432 0.0011717722            0   0.66224255    1.6128294    2.2762437    2.9819189 
 3560000    1.0492391 3.6643289e-06   0.68834269  0.015747783            0    0.6725949    1.5476276    2.2359703    2.4861218 
 3565000   0.98742903 0.00012358736   0.77188389  0.064609376            0   0.70727451    1.4564578    2.2283417    10.665239 
 3570000    1.0636508 -7.0515274e-06   0.65106998   0.02254001            0   0.62852997    1.5688849    2.2199549    1.7385706 
 3575000    1.0866671 -5.4690177e-05   0.61961483  0.019127991            0   0.60048684     1.602834    2.2224489   -1.5110672 
 3580000     1.053205 -0.00013411674   0.68158814 0.0097725796            0   0.67181556    1.5534774    2.2350655    -6.920637 
 3585000    1.0362654 -3.4033713e-06   0.70230257  0.010569703            0   0.69173286    1.5284914     2.230794    1.9984572 
 3590000    1.0400421 -5.5265256e-05   0.66944407 0.0032277493            0   0.66621632    1.5340621    2.2035062   -1.5692686 
 3595000   0.97088766 5.3752114e-05   0.73894004  0.026293391            0   0.71264665    1.4320593    2.1709993     5.840477 
 3600000   0.97814149 -7.8176557e-05   0.70719571  0.019614086            0   0.68758163    1.4427587    2.1499544   -3.1868986 
 3605000   0.99076292 -6.4503281e-05   0.70444017 0.0050674747            0    0.6993727    1.4613753    2.1658155   -2.2376085 
 3610000   0.88447529 -0.00015910298   0.85372431  0.019859488            0   0.83386482    1.3046011    2.1583254   -8.7031048 
 3615000    1.0914941 6.115039e-05   0.57835022 0.0083836284            0   0.56996659    1.6099537     2.188304    6.3628373 
 3620000   0.98409895 -5.5422506e-05   0.75547523 0.0022615556            0   0.75321367    1.4515459    2.2070212   -1.5764886 
 3625000    1.0255931 -0.00011027745   0.67808825  0.004411332            0   0.67367692    1.5127498    2.1908381   -5.3374356 
 3630000    1.0597427 -8.7491667e-05   0.61058716 0.0029272775            0   0.60765988    1.5631206    2.1737077   -3.7990568 
 3635000     1.097144 0.00014542537    0.6069292 0.00032219909            0     0.606607    1.6182874    2.2252166    12.152922 
 3640000   0.93102328 -0.00011539279   0.81015659  0.040835391            0    0.7693212    1.3732593    2.1834159   -5.6940654 
 3645000     1.070475 0.00012864047   0.60770154            0            0   0.60770154    1.5789506    2.1866521    10.968508 
 3650000    1.1280303 4.9921893e-05   0.56921266 0.0053599362            0   0.56385273    1.6638447    2.2330574    5.6410586 
 3655000    1.0741426 7.0326765e-05   0.66805035  0.021886727            0   0.64616363    1.5843604    2.2524107    7.0533845 
 3660000    1.1811635 -0.00011054147   0.50635446 0.0059833716            0   0.50037109    1.7422161    2.2485706    -5.297727 
 3665000    1.1675996 1.4061604e-05   0.56328001 0.00057951987            0   0.56270049    1.7222094    2.2854894    3.2454282 
 3670000    1.1032966 -2.9569723e-05   0.64830877  0.046691147            0   0.60161762    1.6273625    2.2756712   0.25704481 
 3675000    1.2053664 6.3585484e-05   0.48255926   0.03063099            0   0.45192827    1.7779155    2.2604747    6.6012438 
 3680000    1.1126521 -2.5156238e-05   0.60681384 0.0090121754            0   0.59780167    1.6411618    2.2479756   0.53064312 
 3685000    1.0979721 1.9338812e-05   0.60202928  0.012186787            0   0.58984249    1.6195088    2.2215381    3.5417343 
 3690000    1.0875956 0.00012498463    0.6035023  0.007458954            0   0.59604335    1.6042035    2.2077058     10.73999 
 3695000     1.191841 -5.1141326e-05   0.49692651 0.0074018281            0   0.48952469    1.7579655     2.254892   -1.2363558 
 3700000    1.0934688 3.0101221e-06   0.67541174  0.035590519            0   0.63982122    1.6128665    2.2882782    2.4937692 
 3705000    1.1477624 5.1605058e-05   0.59274636  0.032300715            0   0.56044564    1.6929496     2.285696    5.8086012 
 3710000     1.038258 6.4130101e-06   0.73042253  0.013270285            0   0.71715225    1.5314306    2.2618531     2.699648 
 3715000    1.1396561 2.3526427e-05   0.52652766  0.041958718            0   0.48456894    1.6809927    2.2075204    3.8135911 
 3720000    1.0636067 -2.6392021e-05   0.64763104  0.060895466            0   0.58673557    1.5688199    2.2164509   0.41475559 
 3725000    1.0979348 3.8211912e-05   0.61265913  0.024797651            0   0.58786148    1.6194539     2.232113    4.8407129 
 3730000   0.99838175 -7.1987889e-05   0.72885972 0.0089551056            0   0.71990462    1.4726131    2.2014728   -2.7129004 
 3735000    1.1043511 -4.5704344e-05   0.54382547 0.0087612521            0   0.53506422    1.6289179    2.1727434  -0.94733983 
 3740000    1.0093926 -1.7049484e-05    0.6402714  0.012481951            0   0.62778945    1.4888541    2.1291255   0.96521408 
 3745000   0.92924023 7.2756885e-05   0.74158074 0.0041868678            0   0.73739388    1.3706293    2.1122101    7.0790801 
 3750000    1.1114049 -8.6636482e-07   0.48311923   0.04242914            0   0.44069009    1.6393222    2.1224414    2.0632976 
 3755000    0.9673775 -8.6189442e-05   0.69299963 0.0090630342            0    0.6839366    1.4268818    2.1198814   -3.7639845 
 3760000   0.93815645 9.8736225e-05   0.73192111  0.022961749            0   0.70895936    1.3837808    2.1157019    8.8560948 
 3765000   0.99023137 0.00012326344   0.66260782 0.0025795943            0   0.66002822    1.4605913    2.1231991    10.537983 
 3770000   0.92148302 3.2558834e-05   0.75460809 0.0058882716            0   0.74871982    1.3591875    2.1137955    4.3364786 
 3775000   0.96445252 -3.1890761e-05   0.68605329 0.0054875437            0   0.68056574    1.4225675    2.1086208 -0.068455178 
 3780000     1.003341 4.3267062e-06   0.66391832  0.011732955            0   0.65218536     1.479928    2.1438463    2.4392162 
 3785000    1.1008485 6.3320346e-05   0.53816935  0.028524877            0   0.50964448    1.6237516    2.1619209    6.4845899 
 3790000    1.0063068 3.5438592e-05   0.62509803  0.006336419            0   0.61876161    1.4843026    2.1094006    4.5286751 
 3795000    1.0201146 -7.5024148e-05   0.60255795  0.017657427            0   0.58490052     1.504669    2.1072269   -3.0144215 
 3800000   0.91888073 -0.00012189935   0.74618962  0.053735985            0   0.69245363    1.3553491    2.1015387   -6.2201237 
 3805000   0.92173024 -5.6660398e-06   0.70569466 0.0062391961            0   0.69945546    1.3595521    2.0652468    1.6784451 
 3810000   0.94638477 8.6119815e-05   0.71567471  0.013415689            0   0.70225902    1.3959175    2.1115922    7.9907049 
 3815000    1.0155828 -3.1006039e-05   0.59220567  0.047729633            0   0.54447604    1.4979846    2.0901903 -0.026488643 
 3820000    1.0352333 -4.5652951e-05   0.55235227 0.0042634588            0   0.54808881    1.5269691    2.0793214   -1.0372534 
 3825000     1.041988 8.7525203e-05   0.55567162  0.015660222            0    0.5400114    1.5369323     2.092604    8.0676578 
 3830000   0.97008056 -0.00010005948   0.66727433 0.0062393149            0   0.66103502    1.4308688    2.0981432   -4.7325842 
 3835000   0.99849581 -2.7073735e-05   0.60837513  0.022207541            0   0.58616759    1.4727813    2.0811564   0.23292277 
 3840000   0.97987143 8.660708e-05   0.63397957 0.0051661614            0    0.6288134    1.4453104    2.0792899    7.9916666 
 3845000    1.0168068 0.00015789668     0.551219            0            0     0.551219      1.49979     2.051009    12.830089 
 3850000     1.065943 5.2594186e-05   0.47680282 0.0019712385            0   0.47483158     1.572266    2.0490688    5.6394986 
 3855000     1.079783 8.1217867e-05   0.46445814 0.0039078368            0    0.4605503    1.5926799     2.057138     7.601611 
 3860000   0.92827451 7.2162396e-05   0.62611962 0.0033456409            0   0.62277398    1.3692049    1.9953245    6.9216108 
 3865000   0.94031131 5.6150824e-05   0.62855745  0.024321095            0   0.60423636    1.3869592    2.0155166    5.8487463 
 3870000   0.92586776 -6.3225126e-05   0.68230693   0.02961915            0   0.65268778    1.3656549    2.0479619   -2.2682067 
 3875000   0.99246108 1.0030824e-05   0.60089801 0.0013360856            0   0.59956193    1.4638801    2.0647781     2.749549 
 3880000   0.96454991 -0.00012939814    0.6597344 0.0005527062            0    0.6591817    1.4227111    2.0824455    -6.751134 
 3885000   0.99497373 0.00010535781   0.66883306            0            0   0.66883306    1.4675862    2.1364193    9.3288459 
 3890000     1.008335 -0.00014089467   0.64077953  0.024484288            0   0.61629524    1.4872942    2.1280737   -7.4903358 
 3895000    1.0071684 5.835916e-05   0.65099624 0.0037473121            0   0.64724893    1.4855734    2.1365696    6.1205549 
 3900000    1.0882387 -5.2065851e-05   0.54989748  0.032942941            0   0.51695454    1.6051521    2.1550495   -1.3993125 
 3905000    1.0530668 -4.9304608e-05   0.58255524  0.011838222            0   0.57071701    1.5532736    2.1358288   -1.2300324 
 3910000   0.95899276 7.2612681e-05   0.72326669  0.069903744            0   0.65336295    1.4145143     2.137781    7.0948067 
 3915000    1.0562767 1.1632154e-05   0.57903726  0.012583151            0   0.56645411    1.5580082    2.1370455    2.9311338 
 3920000    1.0300517 2.6294344e-05   0.63815241 0.0040617152            0    0.6340907    1.5193263    2.1574787    3.9525059 
 3925000    1.0669686 -3.5528316e-05   0.63998464   0.03630821            0   0.60367643    1.5737786    2.2137633  -0.21163642 
 3930000    1.0655156 -1.3046879e-05   0.60734696  0.023315504            0   0.58403146    1.5716355    2.1789824    1.2883155 
 3935000    1.0501668 4.3906127e-05   0.63070913 0.0080955758            0   0.62261355     1.548996    2.1797051    5.1770301 
 3940000    1.1178787 -9.6126617e-05   0.54790933 0.0050239809            0   0.54288535    1.6488712    2.1967805   -4.3654632 
 3945000    1.0551721 -5.3359296e-05   0.64596273   0.02628709            0   0.61967564    1.5563788    2.2023416   -1.4403197 
 3950000    1.0575914 3.4878694e-05   0.64306854  0.045084707            0   0.59798383    1.5599473    2.2030158     4.584068 
 3955000   0.94648546 6.9832672e-05   0.79242658  0.019991522            0   0.77243506    1.3960661    2.1884926    6.9557364 
 3960000    1.0420957 8.3742058e-06   0.64694973  0.030013447            0   0.61693628    1.5370912    2.1840409    2.7557201 
 3965000    1.0363612 -3.8283284e-05   0.64716544  0.019183742            0    0.6279817    1.5286328    2.1757982  -0.43767397 
 3970000    1.0518496 9.8734522e-05     0.621215 0.0024856882            0   0.61872931    1.5514782    2.1726932    8.9129699 
 3975000    1.0484515 0.00014925918   0.64769042  0.093232378            0   0.55445805    1.5464659    2.1941564    12.383583 
 3980000    1.0390126 2.0343952e-05   0.66776843 0.00044219683            0   0.66732623    1.5325436     2.200312    3.5891258 
 3985000    1.1039333 8.7660827e-06   0.56042688 0.0018856673            0   0.55854121    1.6283016    2.1887285    2.7871597 
 3990000    1.0315013 -0.0001054824   0.66975959  0.024658685            0   0.64510091    1.5214644     2.191224   -5.0097077 
 3995000    1.1492776 -8.755457e-05   0.50782566  0.005520205            0   0.50230546    1.6951845    2.2030101   -3.7740485 
 4000000    1.0804789 -7.364739e-05   0.60101941 0.0050844664            0   0.59593494    1.5937063    2.1947257   -2.8329361 
Loop time of 203.149 on 1 procs for 2000000 steps with 60 atoms

Performance: 850606.629 tau/day, 9844.984 timesteps/s
99.7% CPU use with 1 MPI tasks x no OpenMP threads

MPI task timing breakdown:
Section |  min time  |  avg time  |  max time  |%varavg| %total
---------------------------------------------------------------
Pair    | 0.72966    | 0.72966    | 0.72966    |   0.0 |  0.36
Bond    | 1.8152     | 1.8152     | 1.8152     |   0.0 |  0.89
Neigh   | 171.79     | 171.79     | 171.79     |   0.0 | 84.56
Comm    | 23.958     | 23.958     | 23.958     |   0.0 | 11.79
Output  | 0.039291   | 0.039291   | 0.039291   |   0.0 |  0.02
Modify  | 4.214      | 4.214      | 4.214      |   0.0 |  2.07
Other   |            | 0.6072     |            |       |  0.30

Nlocal:        60.0000 ave          60 max          60 min
Histogram: 1 0 0 0 0 0 0 0 0 0
Nghost:        0.00000 ave           0 max           0 min
Histogram: 1 0 0 0 0 0 0 0 0 0
Neighs:        32.0000 ave          32 max          32 min
Histogram: 1 0 0 0 0 0 0 0 0 0

Total # of neighbors = 32
Ave neighs/atom = 0.53333333
Ave special neighs/atom = 5.8000000
Neighbor list builds = 37825
Dangerous builds = 0
write_restart restart.rerun.1
System init for write_restart ...
WARNING: Communication cutoff 1.4200000000000002 is shorter than a bond length based estimate of 1.8. This may lead to errors. (../comm.cpp:667)
#--------------End of Input file ------------------
Total wall time: 0:03:23
