LAMMPS (29 Oct 2020)
###################### polyelectrolyte complexation ######################
clear

#Initialization
#------------------------------------
units				lj
dimension			3
atom_style			full
boundary			p p p

#Atom Definition
#-------------------------------------
read_data			data.complexation
Reading data file ...
  orthogonal box = (-80.000000 -80.000000 -80.000000) to (80.000000 80.000000 80.000000)
  1 by 1 by 1 MPI processor grid
  reading atoms ...
  80 atoms
  scanning bonds ...
  1 = max bonds/atom
  reading bonds ...
  79 bonds
Finding 1-2 1-3 1-4 neighbors ...
  special bond factors lj:    0.0      0.0      0.0     
  special bond factors coul:  0.0      0.0      0.0     
     2 = max # of 1-2 neighbors
     2 = max # of 1-3 neighbors
     4 = max # of 1-4 neighbors
     6 = max # of special neighbors
  special bonds CPU = 0.000 seconds
  read_data CPU = 0.002 seconds

#Force definition
#----------------------------------------------
#Bond definition
bond_style			harmonic
bond_coeff			1 5000 1
#Pair definition
special_bonds	lj 0 1 1
Finding 1-2 1-3 1-4 neighbors ...
  special bond factors lj:    0.0      1.0      1.0     
  special bond factors coul:  0.0      0.0      0.0     
     2 = max # of 1-2 neighbors
     2 = max # of 1-3 neighbors
     4 = max # of 1-4 neighbors
     6 = max # of special neighbors
  special bonds CPU = 0.000 seconds
pair_style		 lj/cut 1.12
pair_modify 		 shift yes
pair_coeff	1 1 1 1 1.12

#Timestep etc
#--------------------------------------------
timestep		1e-05
run_style		verlet
velocity		all	create	1	14

#Fix
#---------------------------------------
group polymers type 1
80 atoms in group polymers
fix 1 all nve
fix 2 all langevin 1	1	10	14
fix 3 polymers recenter INIT INIT INIT units box

#Dump
#------------------------------------------------
compute  1 all gyration
variable  myRg2 equal c_1
variable  i equal step
fix  mythermofile all print 5000 "$i ${myRg2}" file radius_of_gyration.dat screen no

thermo_style		 custom step temp press pe evdwl ecoul ebond ke etotal enthalpy
thermo 	5000
dump	3 all custom 5000 dump.lammpstrj id mol type xu yu zu
run		20000000
Neighbor list info ...
  update every 1 steps, delay 10 steps, check yes
  max neighbors/atom: 2000, page size: 100000
  master list distance cutoff = 1.42
  ghost atom cutoff = 1.42
  binsize = 0.71, bins = 226 226 226
  1 neighbor lists, perpetual/occasional/extra = 1 0 0
  (1) pair lj/cut, perpetual
      attributes: half, newton on
      pair build: half/bin/newton
      stencil: half/bin/3d/newton
      bin: standard
WARNING: Communication cutoff 1.4200000000000002 is shorter than a bond length based estimate of 1.8. This may lead to errors. (../comm.cpp:667)
Per MPI rank memory allocation (min/avg/max) = 54.71 | 54.71 | 54.71 Mbytes
Step Temp Press PotEng E_vdwl E_coul E_bond KinEng TotEng Enthalpy 
       0            1 1.9287109e-05            0            0            0            0      1.48125      1.48125      2.46875 
    5000   0.76269559 -0.00029727411   0.34967211            0            0   0.34967211    1.1297428     1.479415   -13.741019 
   10000   0.46382133 -0.00067461743   0.79968294            0            0   0.79968294   0.68703535    1.4867183   -33.053694 
   15000   0.69242474 -0.00034110454   0.47508234            0            0   0.47508234    1.0256541    1.5007365   -15.963816 
   20000   0.66634089 -0.0002677246   0.49084129            0            0   0.49084129   0.98701744    1.4778587   -12.229641 
   25000   0.55414612 -0.00050369651   0.65779048            0            0   0.65779048   0.82082894    1.4786194   -24.310642 
   30000   0.63510966 -0.00042797869   0.52260186            0            0   0.52260186   0.94075619    1.4633581   -20.449151 
   35000   0.79008942 -5.3959016e-05   0.33376472            0            0   0.33376472    1.1703199    1.5040847   -1.2586169 
   40000   0.75776215 -5.4963151e-05   0.37541901            0            0   0.37541901    1.1224352    1.4978542   -1.3162592 
   45000   0.73846863 -0.00035997235   0.39492872            0            0   0.39492872    1.0938567    1.4887854   -16.941799 
   50000   0.80076328 -0.0002202759   0.30030613            0            0   0.30030613    1.1861306    1.4864367   -9.7916893 
   55000   0.76967878 0.00012872025    0.3490872            0            0    0.3490872    1.1400867    1.4891739    8.0796505 
   60000   0.82608786 5.6992174e-06   0.27090947            0            0   0.27090947    1.2236426    1.4945521     1.786352 
   65000   0.72224418 -0.00032465506   0.44282729            0            0   0.44282729    1.0698242    1.5126515   -15.109688 
   70000   0.76731033 -0.0001107052   0.36062942            0            0   0.36062942    1.1365784    1.4972079   -4.1708983 
   75000   0.82327272 0.00014545612   0.28345212            0            0   0.28345212    1.2194727    1.5029248    8.9502781 
   80000   0.77565265 -3.577091e-05   0.35570598            0            0   0.35570598    1.1489355    1.5046415  -0.32682914 
   85000   0.76635678 -0.00022341868   0.38165566            0            0   0.38165566     1.135166    1.5168216   -9.9222148 
   90000   0.85151495 -6.9814094e-06   0.26800589            0            0   0.26800589    1.2613065    1.5293124    1.1718643 
   95000   0.77115133 0.00012799318   0.39903953            0            0   0.39903953    1.1422679    1.5413074     8.094558 
  100000   0.78950404 -9.110569e-05    0.3600305            0            0    0.3600305    1.1694529    1.5294834    -3.135128 
  105000    0.7353034 -0.00012879533   0.44168233            0            0   0.44168233    1.0891682    1.5308505   -5.0634706 
  110000   0.82239599 4.6060563e-05   0.32653694            0            0   0.32653694    1.2181741     1.544711    3.9030118 
  115000   0.85228706 9.4517475e-05   0.30106982            0            0   0.30106982    1.2624502      1.56352    6.4028147 
  120000   0.74677809 -0.00018020201   0.46639974            0            0   0.46639974     1.106165    1.5725648   -7.6537779 
  125000   0.87265904 -1.7870688e-05   0.28187612            0            0   0.28187612    1.2926262    1.5745023   0.65952309 
  130000   0.79714022 0.00012378483   0.40679247            0            0   0.40679247     1.180764    1.5875564    7.9253398 
  135000   0.83893746 -5.5226062e-05   0.33421375            0            0   0.33421375    1.2426761    1.5768899   -1.2506845 
  140000   0.85767516 -1.3506555e-05   0.31856851            0            0   0.31856851    1.2704313    1.5889998   0.89746421 
  145000   0.83778136 4.380097e-05   0.34822081            0            0   0.34822081    1.2409636    1.5891845    3.8317941 
  150000   0.81776263 4.2648993e-05   0.38514253            0            0   0.38514253    1.2113109    1.5964534    3.7800819 
  155000   0.82505758 -7.1389221e-05   0.38402351            0            0   0.38402351    1.2221165    1.6061401    -2.048988 
  160000   0.84269861 7.1767416e-05   0.37815825            0            0   0.37815825    1.2482473    1.6264056    5.3008973 
  165000   0.85510109 -0.00011730348   0.37378008            0            0   0.37378008    1.2666185    1.6403986   -4.3655394 
  170000   0.81984519 0.00013448884   0.41942826            0            0   0.41942826    1.2143957    1.6338239    8.5196527 
  175000    0.8320446 -0.00012099025   0.42232432            0            0   0.42232432    1.2324661    1.6547904   -4.5399105 
  180000   0.88579907 -1.1227131e-05   0.35228867            0            0   0.35228867    1.3120899    1.6643786    1.0895495 
  185000   0.80277895 0.0001465978   0.46380397            0            0   0.46380397    1.1891163    1.6529203    9.1587276 
  190000   0.77210482 -7.7594347e-05   0.50700256            0            0   0.50700256    1.1436803    1.6506828   -2.3221477 
  195000   0.89868901 -6.3432132e-05   0.32888937            0            0   0.32888937    1.3311831    1.6600725   -1.5876527 
  200000   0.88048837 0.00019125761   0.37147795            0            0   0.37147795    1.3042234    1.6757013    11.468091 
  205000   0.79303641 -0.00019442666   0.46652133            0            0   0.46652133    1.1746852    1.6412065   -8.3134383 
  210000   0.88733631 1.2517395e-05   0.33673691            0            0   0.33673691    1.3143669    1.6511038    2.2919944 
  215000   0.86985676 0.00016477181   0.36153951            0            0   0.36153951    1.2884753    1.6500148    10.086332 
  220000    0.8271215 -9.7929111e-05   0.40307709            0            0   0.40307709    1.2251737    1.6282508   -3.3857197 
  225000   0.87152392 -5.8030428e-05   0.35470482            0            0   0.35470482    1.2909448    1.6456496   -1.3255083 
  230000   0.80917708 5.774181e-05   0.43458669            0            0   0.43458669    1.1985935    1.6331802    4.5895609 
  235000   0.86458885 -1.5893664e-05   0.37737103            0            0   0.37737103    1.2806722    1.6580433   0.84428767 
  240000   0.88458227 -5.6630162e-05    0.3428062            0            0    0.3428062    1.3102875    1.6530937   -1.2463706 
  245000   0.82084211 8.5632355e-05   0.42279142            0            0   0.42279142    1.2158724    1.6386638    6.0230404 
  250000   0.77265719 -4.0691959e-05   0.47353946            0            0   0.47353946    1.1444985    1.6180379  -0.46539036 
  255000   0.81166521 -9.3572801e-05    0.4228095            0            0    0.4228095    1.2022791    1.6250886   -3.1658388 
  260000   0.77962792 4.1852176e-05   0.48938319            0            0   0.48938319    1.1548239    1.6442071    3.7870384 
  265000   0.85239968 7.1360324e-05   0.37907472            0            0   0.37907472     1.262617    1.6416917    5.2953404 
  270000   0.86304018 -0.00018498456   0.36739717            0            0   0.36739717    1.2783783    1.6457754   -7.8254339 
  275000   0.79944893 0.0001897423   0.46849211            0            0   0.46849211    1.1841837    1.6526758    11.367482 
  280000   0.80515762 -9.2254299e-05   0.45162104            0            0   0.45162104    1.1926397    1.6442608   -3.0791593 
  285000   0.83122028 -0.00011374533   0.39846315            0            0   0.39846315     1.231245    1.6297082   -4.1940528 
  290000   0.85848804 0.00022588994   0.36974248            0            0   0.36974248    1.2716354    1.6413779    13.206943 
  295000   0.85133931 -0.00016643412   0.40770619            0            0   0.40770619    1.2610464    1.6687526   -6.8526743 
  300000   0.92488729 -9.0255591e-05   0.30349038            0            0   0.30349038    1.3699893    1.6734797   -2.9476066 
  305000   0.84702594 0.0002738072   0.41392007            0            0   0.41392007    1.2546572    1.6685772    15.687506 
  310000   0.80181958 -0.00028861404   0.47421181            0            0   0.47421181    1.1876953    1.6619071   -13.115132 
  315000   0.79525273 0.00020436459   0.45815794            0            0   0.45815794    1.1779681     1.636126    12.099593 
  320000    0.8447741 -0.00017072867   0.38005522            0            0   0.38005522    1.2513216    1.6313769   -7.1099312 
  325000     0.869579 0.00010394491   0.35492786            0            0   0.35492786    1.2880639    1.6429917    6.9649712 
  330000    0.9114811 1.7631661e-05   0.31201198            0            0   0.31201198    1.3501314    1.6621434    2.5648844 
  335000   0.85618637 -0.00010320865   0.40872761            0            0   0.40872761    1.2682261    1.6769537   -3.6073294 
  340000   0.82904966 0.00015835585   0.47136055            0            0   0.47136055    1.2280298    1.6993904    9.8072097 
  345000   0.81507723 -0.00015000846   0.52810252            0            0   0.52810252    1.2073332    1.7354357   -5.9449976 
  350000   0.88743873 8.489699e-05   0.44118407            0            0   0.44118407    1.3145186    1.7557027    6.1024286 
  355000   0.90526847 -9.5283599e-06   0.38721209            0            0   0.38721209    1.3409289     1.728141     1.240289 
  360000     0.883746 -0.00014884832   0.42578975            0            0   0.42578975    1.3090488    1.7348385   -5.8861956 
  365000   0.85921201 0.00022675384   0.47165858            0            0   0.47165858    1.2727078    1.7443664    13.354163 
  370000   0.88273507 -0.00020680377   0.43851029            0            0   0.43851029    1.3075513    1.7460616   -8.8422912 
  375000    0.8195358 9.6442939e-06   0.51696698            0            0   0.51696698    1.2139374    1.7309044    2.2246922 
  380000   0.87396001 -5.0086135e-05   0.43040764            0            0   0.43040764    1.2945533    1.7249609  -0.83944922 
  385000   0.83889742 -1.0146774e-05   0.48148528            0            0   0.48148528    1.2426168    1.7241021    1.2045872 
  390000   0.85952217 0.00011940128   0.42857709            0            0   0.42857709    1.2731672    1.7017443    7.8150897 
  395000   0.90119858 -0.00016141427   0.34496689            0            0   0.34496689    1.3349004    1.6798673   -6.5845434 
  400000    0.8118899 0.0001065468   0.49105528            0            0   0.49105528    1.2026119    1.6936672    7.1488635 
  405000   0.85417762 -0.00014356105   0.44220272            0            0   0.44220272    1.2652506    1.7074533   -5.6428726 
  410000   0.92394251 7.1771491e-05   0.33505799            0            0   0.33505799    1.3685898    1.7036478    5.3783482 
  415000   0.82283288 -7.0257741e-05   0.45516299            0            0   0.45516299    1.2188212    1.6739842   -1.9232121 
  420000    0.8045225 2.0440758e-05   0.49530055            0            0   0.49530055    1.1916989    1.6869995    2.7335663 
  425000   0.82697753 8.7913077e-05   0.44025002            0            0   0.44025002    1.2249605    1.6652105      6.16636 
  430000   0.84945622 -8.5557682e-05   0.44148459            0            0   0.44148459     1.258257    1.6997416   -2.6808117 
  435000   0.87315465 -5.2234579e-05   0.38497313            0            0   0.38497313    1.2933603    1.6783335  -0.99607697 
  440000   0.91876975 9.0523011e-05   0.33362465            0            0   0.33362465    1.3609277    1.6945524    6.3293305 
  445000   0.86381967 -7.5515943e-05   0.40395437            0            0   0.40395437    1.2795329    1.6834873    -2.182929 
  450000   0.82237771 0.00013347149   0.45996239            0            0   0.45996239     1.218147    1.6781094    8.5118497 
  455000    0.8356109 -4.6726068e-05   0.43176328            0            0   0.43176328    1.2377487    1.6695119  -0.72286277 
  460000   0.85661959 -2.2722553e-07   0.38659613            0            0   0.38659613    1.2688678    1.6554639      1.64383 
  465000   0.81761802 4.5550631e-05   0.45179227            0            0   0.45179227    1.2110967     1.662889    3.9950813 
  470000   0.82902816 -0.00016813614   0.41983042            0            0   0.41983042     1.227998    1.6478284    -6.960742 
  475000   0.84784765 8.3581139e-05   0.41395517 2.3604794e-05            0   0.41393156    1.2558743    1.6698295    5.9491838 
  480000   0.84278095 5.0986358e-06   0.43253132 0.00023002327            0   0.43230129    1.2483693    1.6809006    1.9419508 
  485000   0.83951005 -0.00012602534   0.42024149 0.0021238405            0   0.41811764    1.2435243    1.6637657   -4.7887319 
  490000   0.80847653 8.3190587e-05   0.48239375 0.0031725318            0   0.47922121    1.1975559    1.6799496    5.9393077 
  495000   0.81799897 -0.00018463732   0.46555517 0.0076623887            0   0.45789278     1.211661    1.6772161   -7.7762144 
  500000   0.84723482 7.9547527e-05   0.41752804 0.0015435318            0   0.41598451    1.2549666    1.6724946     5.745328 
  505000   0.84140109 -7.1016571e-05   0.41708364 0.0004910037            0   0.41659263    1.2463254     1.663409   -1.9726394 
  510000   0.82901378 -1.9133851e-05   0.41399733 2.4577342e-05            0   0.41397275    1.2279767     1.641974   0.66232081 
  515000   0.85665573 -6.2248211e-05   0.35612361            0            0   0.35612361    1.2689213    1.6250449   -1.5620635 
  520000   0.80611743 0.00011187708   0.42837947 7.4705455e-05            0   0.42830476    1.1940614    1.6224409    7.3505473 
  525000   0.80309532 -0.00017417979   0.42639725 0.00042247588            0   0.42597478    1.1895849    1.6159822   -7.3020231 
  530000   0.83680142 0.0002122709   0.34880291 0.00058953938            0   0.34821337    1.2395121     1.588315    12.456585 
  535000   0.88106507 -0.00011082815   0.28125794 0.00059213827            0    0.2806658    1.3050776    1.5863356   -4.0880658 
  540000   0.86786646 -3.169745e-06   0.31300599 0.00013491774            0   0.31287107    1.2855272    1.5985332    1.4362422 
  545000   0.81248586 3.3916739e-05   0.40370132            0            0   0.40370132    1.2034947     1.607196     3.343733 
  550000   0.77332682 -0.00018228991   0.46417965            0            0   0.46417965    1.1454904      1.60967   -7.7235732 
  555000    0.8575743 8.7873634e-05   0.33535832 3.0591442e-06            0   0.33535526    1.2702819    1.6056403    6.1047703 
  560000   0.85848841 7.2471877e-05   0.36246615 0.0015665468            0    0.3608996     1.271636    1.6341021    5.3446622 
  565000    0.7833974 2.0800351e-05   0.48796476 0.0040005711            0   0.48396419    1.1604074    1.6483722    2.7133501 
  570000   0.86192307 6.3831448e-05   0.37544231 0.0045355895            0   0.37090672    1.2767235    1.6521659     4.920336 
  575000   0.84909933 7.6402075e-06   0.40149068 0.00034915147            0   0.40114152    1.2577284    1.6592191    2.0503977 
  580000   0.83268777 -0.0001858955   0.44488383            0            0   0.44488383    1.2334188    1.6783026   -7.8395471 
  585000   0.82169731 0.00015118672   0.46374254            0            0   0.46374254    1.2171391    1.6808817    9.4216416 
  590000   0.86997072 -1.1070721e-06   0.41439319            0            0   0.41439319    1.2886441    1.7030373    1.6463552 
  595000   0.88341506 -8.9789025e-05   0.40737257 5.3295877e-06            0   0.40736724    1.3085586    1.7159311   -2.8812669 
  600000   0.82437068 3.7814849e-05   0.49230376 0.00066119388            0   0.49164257    1.2210991    1.7134028    3.6495231 
  605000   0.93472194 4.6642215e-05   0.34738806 0.0016881306            0   0.34569993    1.3845569    1.7319449    4.1200263 
  610000    0.8627786 -3.6022995e-05   0.44357461 0.0013177325            0   0.44225687    1.2779908    1.7215654  -0.12281194 
  615000   0.96875176 9.5984531e-05   0.30849105 0.00076831013            0   0.30772274    1.4349635    1.7434546    6.6578626 
  620000   0.80497645 6.0417633e-05   0.53093404 5.132421e-05            0   0.53088272    1.1923714    1.7233054    4.8166882 
  625000   0.86007131 0.00011648241   0.43079748            0            0   0.43079748    1.2739806    1.7047781    7.6686773 
  630000   0.86142544 -6.7844402e-05   0.43400591 5.7852843e-05            0   0.43394806    1.2759864    1.7099923   -1.7636411 
  635000   0.92633262 1.8239914e-05   0.30432785 0.00019241895            0   0.30413543    1.3721302     1.676458    2.6103417 
  640000   0.86933349 -4.4095393e-05   0.41736708 0.0028625277            0   0.41450455    1.2877002    1.7050673  -0.55261684 
  645000   0.80524127 4.8588418e-05   0.48065373 0.00081810084            0   0.47983563    1.1927636    1.6734174    4.1611443 
  650000   0.83576357 -0.00011464158   0.43282143 0.0089343631            0   0.42388707    1.2379748    1.6707962   -4.1988529 
  655000   0.91976375 4.3128323e-05    0.3182015  0.010614708            0   0.30758679    1.3624001    1.6806016    3.8887717 
  660000   0.76933845 -0.00017253136   0.55892591 0.0068068158            0   0.55211909    1.1395826    1.6985085   -7.1350969 
  665000   0.83504409 0.00011821239   0.45355701            0            0   0.45355701    1.2369091    1.6904661    7.7429404 
  670000   0.88048372 2.4190153e-05   0.37699195            0            0   0.37699195    1.3042165    1.6812085    2.9197443 
  675000   0.83994844 0.00012069109   0.43911136            0            0   0.43911136    1.2441736     1.683285    7.8626689 
  680000   0.81839536 -5.6456371e-05   0.49650937            0            0   0.49650937    1.2122481    1.7087575   -1.1818087 
  685000   0.85349347 8.2551482e-05   0.42995168            0            0   0.42995168    1.2642372    1.6941889    5.9208248 
  690000   0.88969028 2.7566849e-05   0.38988529 0.00019650763            0   0.38968879    1.3178537     1.707739    3.1191617 
  695000   0.89392768 3.9401836e-05   0.40503143 0.0031994407            0   0.40183199    1.3241304    1.7291618    3.7465358 
  700000   0.84563876 -2.1851758e-05   0.47432876 0.0063431031            0   0.46798566    1.2526024    1.7269312   0.60812117 
  705000   0.86395576 9.6457316e-05   0.47242779 0.0025727687            0   0.46985502    1.2797345    1.7521623    6.6907769 
  710000   0.88838242 3.7797725e-05   0.43665483 0.0014537484            0   0.43520109    1.3159165    1.7525713    3.6878148 
  715000   0.88681898 -0.00022705137    0.4623124 0.0078906195            0   0.45442178    1.3136006     1.775913   -9.8491172 
  720000   0.93558561 8.6472932e-05   0.40298555  0.011140402            0   0.39184514    1.3858362    1.7888217    6.2162358 
  725000   0.91587613 0.00019740656   0.42200079 0.0076754072            0   0.41432538    1.3566415    1.7786423    11.885858 
  730000   0.89871873 -0.00017822055   0.45985713 0.00068571413            0   0.45917142    1.3312271    1.7910842   -7.3338077 
  735000   0.87702197 8.4933159e-05   0.46424151 0.0012104974            0   0.46303101    1.2990888    1.7633303     6.111908 
  740000   0.94627313 1.6177058e-05   0.34151936 0.0087925644            0   0.33272679    1.4016671    1.7431864    2.5714518 
  745000   0.84799787 5.4586142e-05   0.47299116 0.0074262746            0   0.46556488    1.2560968     1.729088    4.5238985 
  750000   0.91277993 9.8983331e-05   0.39125901 0.00076454268            0   0.39049447    1.3520553    1.7433143    6.8112609 
  755000   0.89782173 -0.00012104474   0.43463358            0            0   0.43463358    1.3298984     1.764532   -4.4329588 
  760000   0.88015123 -0.00014217819   0.44591418 6.6188394e-05            0   0.44584799     1.303724    1.7496382   -5.5298854 
  765000   0.88938795 5.5627548e-05   0.42897591 0.0014604884            0   0.42751542    1.3174059    1.7463818    4.5945123 
  770000   0.87275791 -4.9807823e-05   0.43424725 0.0031050552            0    0.4311422    1.2927726    1.7270199  -0.82314065 
  775000   0.91686973 0.00011992852   0.38214727 0.0011435614            0   0.38100371    1.3581133    1.7402606    7.8806007 
  780000    0.8619527 0.00015820122   0.46939046 0.00095122735            0   0.46843924    1.2767674    1.7461579    9.8460602 
  785000   0.87571917 -0.0001083617   0.45820437 0.0020533368            0   0.45615103     1.297159    1.7553634   -3.7927558 
  790000   0.90057325 0.00015906423   0.42577076 0.0021428117            0   0.42362795    1.3339741    1.7597449    9.9038335 
  795000   0.87798843 1.3877662e-05   0.45042672  0.014347128            0   0.43607959    1.3005204    1.7509471    2.4614834 
  800000   0.91347633 0.00014196247   0.37164508  0.020132767            0   0.35151231    1.3530868    1.7247319    8.9932104 
  805000   0.77172116 0.00015284046   0.56693774 0.0030261154            0   0.56391162     1.143112    1.7100497    9.5354811 
  810000   0.81408518 -0.00012187347   0.54492903            0            0   0.54492903    1.2058637    1.7507927   -4.4891289 
  815000   0.89977749 4.3535484e-05   0.41215554 0.00010434488            0   0.41205119    1.3327954    1.7449509    3.9739677 
  820000   0.94749432 8.9064658e-05   0.36633458 0.0011016211            0   0.36523296     1.403476    1.7698105     6.329921 
  825000   0.97821771 -5.6795606e-05   0.32575364 0.0031013015            0   0.32265234     1.448985    1.7747386   -1.1331964 
  830000   0.89678222  9.19335e-05   0.45666879 0.0039419736            0   0.45272681    1.3283587    1.7850275    6.4920227 
  835000   0.82674771 -0.00018148014   0.55386892 0.0018315081            0   0.55203741      1.22462     1.778489   -7.5132941 
  840000   0.85858942 0.00018151713   0.47789461 0.0057798234            0   0.47211479    1.2717856    1.7496802    11.043357 
  845000   0.87647536 -0.00018081924   0.44427015  0.030224772            0   0.41404538    1.2982791    1.7425493   -7.5153958 
  850000   0.94020804 -5.3596786e-05   0.37478372  0.010119241            0   0.36466448    1.3926832    1.7674669  -0.97668855 
  855000   0.94846588 0.00013385336   0.33781652  0.022898783            0   0.31491773    1.4049151    1.7427316    8.5960235 
  860000   0.92333917 -5.9768616e-05   0.40011876  0.022035429            0   0.37808333    1.3676961    1.7678149   -1.2923382 
  865000   0.85556926 0.00010046126   0.49816264 0.00052766943            0   0.49763497     1.267312    1.7654746    6.9090914 
  870000   0.82684588 -0.00023587206   0.57134368 6.200242e-05            0   0.57128167    1.2247655    1.7961091    -10.28054 
  875000   0.92324669 0.00021354956   0.43167075 5.9979116e-05            0   0.43161077    1.3675592    1.7992299    12.732967 
  880000   0.97898338 -9.8297653e-05   0.35052399 0.00067853572            0   0.34984545    1.4501191    1.8006431   -3.2321967 
  885000   0.94439614 3.9317893e-05   0.38532983 0.0025352232            0   0.38279461    1.3988868    1.7842166    3.7972927 
  890000   0.94551622 9.9524493e-05   0.37857449  0.015833493            0     0.362741    1.4005459    1.7791204    6.8747744 
  895000   0.88846204 -0.00013115061   0.47664005  0.027555903            0   0.44908414    1.3160344    1.7926744   -4.9222368 
  900000   0.87684125 1.9437077e-05   0.50156502 0.0090259416            0   0.49253907    1.2988211    1.8003861    2.7955645 
  905000     0.888142 -3.1501671e-05    0.4732887 0.00051247508            0   0.47277622    1.3155603     1.788849    0.1759635 
  910000   0.90249733 0.00010433046   0.45965992 7.0059779e-05            0   0.45958986    1.3368242    1.7964841    7.1382036 
  915000   0.90186007 -0.00018321386    0.4407678 3.3682816e-05            0   0.44073411    1.3358802     1.776648   -7.6039014 
  920000    0.9647401 6.970435e-05   0.36214841 3.8225521e-05            0   0.36211018    1.4290213    1.7911697    5.3600324 
  925000   0.95388337 -3.2295365e-05   0.37939331 8.4328179e-05            0   0.37930898    1.4129397    1.7923331   0.13881037 
  930000   0.96479707 -6.8904895e-05   0.36820266 0.0014116718            0   0.36679099    1.4291057    1.7973083   -1.7306223 
  935000   0.95044178 4.2749592e-05   0.39642319 0.0018432567            0   0.39457993    1.4078419    1.8042651    3.9930442 
  940000   0.91350928 -0.00014263347   0.44192312 0.0013037747            0   0.44061934    1.3531356    1.7950587   -5.5077749 
  945000   0.96023083 7.1832194e-05   0.33671809 0.0041480835            0   0.33257001    1.4223419      1.75906    5.4368684 
  950000   0.89085027 5.4344213e-05   0.43529429 0.0079266671            0   0.42736763     1.319572    1.7548663      4.53729 
  955000   0.87385193 -4.8602746e-05   0.44331521 0.0014435354            0   0.44187167    1.2943932    1.7377084  -0.75075223 
  960000   0.88326066 -5.6827388e-05   0.42257977            0            0   0.42257977    1.3083298    1.7309096   -1.1786526 
  965000   0.90693309 1.7966129e-05   0.41830191            0            0   0.41830191    1.3433946    1.7616966    2.6815624 
  970000   0.84387491 -0.00019964642   0.49660729            0            0   0.49660729    1.2499897     1.746597   -8.4752999 
  975000   0.97073581 0.00016202204   0.33079001            0            0   0.33079001    1.4379024    1.7686924    10.064221 
  980000   0.85291773 -4.2664815e-05   0.50793556            0            0   0.50793556    1.2633844    1.7713199   -0.4131186 
  985000   0.88968137 1.7095763e-05   0.49525011            0            0   0.49525011    1.3178405    1.8130906    2.6883937 
  990000     0.920706 -6.6343612e-05   0.42443104 5.6914547e-05            0   0.42437412    1.3637958    1.7882268   -1.6085661 
  995000   0.91028158 5.3687536e-05   0.42345385 0.00070858822            0   0.42274526    1.3483546    1.7718084    4.5206103 
 1000000   0.87427916 -0.00019185584   0.44034135 0.00090274554            0   0.43943861     1.295026    1.7353674   -8.0876515 
 1005000   0.89866509 1.3086976e-05   0.41916803 0.00021545199            0   0.41895258    1.3311477    1.7503157    2.4203689 
 1010000   0.89127114 1.0310951e-05    0.4086467 0.00080249887            0    0.4078442    1.3201954    1.7288421    2.2567628 
 1015000   0.82056538 -9.768631e-05   0.47369799 0.0033124538            0   0.47038554    1.2154625    1.6891605   -3.3123786 
 1020000   0.87224312 9.2002988e-05   0.39249553 0.0066434528            0   0.38585207    1.2920101    1.6845056    6.3950586 
 1025000   0.84333046 -4.069388e-05   0.42874246 0.0057777175            0   0.42296475    1.2491833    1.6779257  -0.40560094 
 1030000   0.77884363 5.1265264e-05   0.48630903 0.0085873574            0   0.47772168    1.1536621    1.6399712    4.2647527 
 1035000   0.83324191 -0.00019549559   0.42277585   0.01030779            0   0.41246806    1.2342396    1.6570154   -8.3523587 
 1040000    0.8902947 0.00012366742   0.33528741 0.0038982506            0   0.33138916     1.318749    1.6540364    7.9858081 
 1045000   0.83364901 -4.5650533e-05   0.39294938 0.0034596916            0   0.38948969    1.2348426     1.627792  -0.70951532 
 1050000   0.84402609 9.6280004e-05   0.40405165 0.0029099004            0   0.40114174    1.2502136    1.6542653    6.5838015 
 1055000   0.87544866 0.00012018935   0.36971892 0.0014182495            0   0.36830067    1.2967583    1.6664772    7.8201722 
 1060000    0.8234435 -5.2609073e-05   0.46410732 0.0048582789            0   0.45924904    1.2197257     1.683833   -1.0097515 
 1065000   0.83297282 0.00024327286   0.43619872 0.0065779938            0   0.42962073     1.233841    1.6700397     14.12561 
 1070000   0.88919585 -3.8159288e-05    0.3851047 0.0050615522            0   0.38004315    1.3171213     1.702226  -0.25152951 
 1075000   0.87200395 -6.0297342e-05   0.41114022  0.011390435            0   0.39974979    1.2916559    1.7027961   -1.3844278 
 1080000   0.85637324 -0.00016733167   0.41102008  0.012059802            0   0.39896028    1.2685029    1.6795229   -6.8878587 
 1085000   0.80736605 0.00011145032   0.49757679   0.02486175            0   0.47271504     1.195911    1.6934877     7.399744 
 1090000   0.89806237 -3.6158411e-05   0.36996615  0.012806952            0    0.3571592    1.3302549     1.700221  -0.15108962 
 1095000   0.91984484 1.5820257e-05   0.35723055 0.0035766045            0   0.35365394    1.3625202    1.7197507    2.5297479 
 1100000   0.92215081 -3.5062781e-06   0.35275827 0.0041547561            0   0.34860351    1.3659359    1.7186942    1.5391727 
 1105000     0.894682 -4.1127876e-05   0.39911727 0.0092376994            0   0.38987957    1.3252477     1.724365  -0.38138226 
 1110000   0.85444082 -0.00012418798   0.45300787  0.020542203            0   0.43246566    1.2656405    1.7186483   -4.6397763 
 1115000   0.84348427 -0.00011305955   0.44441161   0.01483622            0   0.42957539    1.2494111    1.6938227   -4.0948261 
 1120000   0.85355978 4.2494739e-05   0.44533136 0.0084004562            0    0.4369309    1.2643354    1.7096668    3.8853974 
 1125000   0.88739442 0.00016344271    0.3857537 0.0030758054            0    0.3826779     1.314453    1.7002067    10.068473 
 1130000   0.86902742 -7.6385277e-06   0.44387145  0.008527533            0   0.43534392    1.2872469    1.7311183    1.3400257 
 1135000   0.85359289 0.00018946068   0.50277521   0.01327942            0   0.48949579    1.2643845    1.7671597    11.467547 
 1140000   0.89794526 3.0246074e-06   0.45787007 0.0073570148            0   0.45051305    1.3300814    1.7879515    1.9428114 
 1145000   0.96024341 0.00010649802   0.35815621 0.0091242889            0   0.34903192    1.4223605    1.7805168    7.2332156 
 1150000   0.92987239 5.8254383e-05   0.41094985 0.0095108061            0   0.40143904    1.3773735    1.7883233    4.7709477 
 1155000   0.95612127 -7.9042958e-05   0.37062269 0.0074944108            0   0.36312828    1.4162546    1.7868773   -2.2601222 
 1160000    0.9722262 6.8136209e-05   0.36895163 0.00067030635            0   0.36828132    1.4401101    1.8090617    5.2976356 
 1165000   0.90508341 -8.0598971e-05    0.4677647 0.0018259901            0   0.46593871    1.3406548    1.8084195   -2.3182478 
 1170000    0.9569997 5.0496584e-05   0.40771762 0.0045056506            0   0.40321197    1.4175558    1.8252734    4.4106985 
 1175000   0.91666201 -4.5014212e-05   0.48209533 0.0072988769            0   0.47479645    1.3578056    1.8399009  -0.46482675 
 1180000   0.95617656 -0.00011870208   0.43820496 0.0043883997            0   0.43381656    1.4163365    1.8545415   -4.2230048 
 1185000   0.94242006 9.2541858e-05    0.4530396 0.0074149358            0   0.44562467    1.3959597    1.8489993    6.5871425 
 1190000   0.96022944 -2.1473132e-05    0.4227129  0.007915991            0   0.41479691    1.4223399    1.8450528   0.74562841 
 1195000   0.97451594 -1.1913067e-05   0.39603845  0.014148853            0   0.38188959    1.4435017    1.8395402    1.2295911 
 1200000   0.99417774 0.00013055246   0.38380331  0.025428329            0   0.35837499    1.4726258    1.8564291    8.5407152 
 1205000   0.96140181 0.00010030922   0.42943926  0.014531363            0    0.4149079    1.4240764    1.8535157    6.9893476 
 1210000   0.93598608 -0.0001513973     0.455361 0.0061713336            0   0.44918967    1.3864294    1.8417904   -5.9097512 
 1215000   0.99178455 -9.1362938e-05   0.41234862 0.0086858034            0   0.40366282    1.4690809    1.8814295   -2.7963529 
 1220000    1.0351243 0.00013958061   0.33720483  0.012394821            0   0.32481001    1.5332779    1.8704827    9.0170097 
 1225000   0.92551795 7.9105265e-05   0.47000588 0.0049870369            0   0.46501884    1.3709235    1.8409293    5.8911189 
 1230000   0.94470696 -2.9699608e-06   0.41664553  0.002916683            0   0.41372885    1.3993472    1.8159927    1.6639307 
 1235000   0.97271663 -4.6940044e-05   0.38911447  0.010579618            0   0.37853485    1.4408365     1.829951  -0.57337928 
 1240000    0.9882955 1.7207499e-05   0.38940678  0.012417792            0   0.37698899    1.4639127    1.8533195    2.7343435 
 1245000   0.92508932 0.00016267259    0.4650459  0.030305637            0   0.43474027    1.3702886    1.8353345    10.164171 
 1250000   0.92681517 9.2305608e-05   0.42378827  0.054476865            0    0.3693114     1.372845    1.7966332    6.5226804 
 1255000   0.89806208 -8.8937254e-05   0.44394919  0.019083156            0   0.42486603    1.3302545    1.7742036   -2.7793837 
 1260000   0.88550693 -6.6522737e-05   0.44885732  0.018347684            0   0.43050963    1.3116571    1.7605145   -1.6454497 
 1265000   0.79883456 -6.100581e-05   0.56366488  0.017802885            0   0.54586199    1.1832737    1.7469386   -1.3765589 
 1270000   0.85074231 -6.1040907e-05   0.48027675 0.0075758442            0    0.4727009     1.260162    1.7404388   -1.3848557 
 1275000   0.90188636 -4.8263631e-05   0.43372895   0.01643635            0    0.4172926    1.3359192    1.7696481  -0.70144978 
 1280000   0.96403247 2.078505e-05   0.35563725  0.011886458            0   0.34375079    1.4279731    1.7836103    2.8478049 
 1285000   0.96019088 5.1193088e-05   0.36638921 0.0049775843            0   0.36141163    1.4222827     1.788672     4.409758 
 1290000   0.94246757 0.0001070692    0.3734331  0.018467358            0   0.35496574    1.3960301    1.7694632    7.2514064 
 1295000   0.90621644 -9.437189e-06   0.45243722  0.020208464            0   0.43222876    1.3423331    1.7947703    1.3115862 
 1300000   0.93814703 -8.8558273e-05   0.41643817 0.0063878139            0   0.41005036    1.3896303    1.8060685   -2.7281151 
 1305000   0.95591162 -2.6705394e-05    0.4063378  0.018050733            0   0.38828707    1.4159441    1.8222819   0.45496573 
 1310000    1.0326678 6.0290999e-05   0.26434609 0.0087705547            0   0.25557554    1.5296392    1.7939853    4.8808844 
 1315000   0.84033602 1.8735663e-05   0.53018376  0.011915235            0   0.51826853    1.2447477    1.7749315    2.7341974 
 1320000   0.87107322 -1.1374814e-05   0.47787325  0.027492967            0   0.45038029    1.2902772    1.7681505      1.18576 
 1325000   0.91613034 -9.2574178e-05   0.42149525  0.048033292            0   0.37346196    1.3570181    1.7785133   -2.9612846 
 1330000   0.94320575 3.4444409e-05   0.40731934  0.021665893            0   0.38565344    1.3971235    1.8044428    3.5679966 
 1335000   0.85452181 0.00020157593   0.50556871  0.005807551            0   0.49976116    1.2657604    1.7713291    12.092017 
 1340000   0.92206763 0.00011030256   0.39919409 0.0019907542            0   0.39720333    1.3658127    1.7650068    7.4124978 
 1345000   0.88504147 -6.2552135e-05   0.45715417 0.00064779483            0   0.45650637    1.3109677    1.7681218   -1.4345475 
 1350000   0.91658891 -7.1493317e-05   0.39745326 5.5148432e-05            0   0.39739811    1.3576973    1.7551506   -1.9053072 
 1355000   0.92455722 1.4437395e-05   0.38157001 1.7041553e-05            0   0.38155297    1.3695004    1.7510704     2.490265 
 1360000   0.89732597 -1.9320315e-05   0.43810259 0.00014270176            0   0.43795988    1.3291641    1.7672667   0.77806654 
 1365000   0.85142723 -5.6645357e-05   0.52504237 0.00028953184            0   0.52475284    1.2611766    1.7862189   -1.1140233 
 1370000   0.93460075 6.2518406e-05   0.39969882 0.0013855324            0   0.39831329    1.3843774    1.7840762    4.9850186 
 1375000   0.93250936 2.3582615e-05   0.40212674  0.010922454            0   0.39120429    1.3812795    1.7834062    2.9908361 
 1380000   0.86486473 -1.7989128e-05   0.47322479  0.017280741            0   0.45594405    1.2810809    1.7543057    0.8332623 
 1385000   0.87591684 0.00016232794    0.4409067 0.0075525301            0   0.43335417    1.2974518    1.7383585    10.049549 
 1390000   0.89341878 0.00014553614   0.41765245  0.013353612            0   0.40429884    1.3233766     1.741029    9.1924794 
 1395000   0.89191051 -0.00010099657    0.4365851  0.051075379            0   0.38550972    1.3211424    1.7577276   -3.4132968 
 1400000   0.89813205 -0.00015292484   0.42971328  0.060490768            0   0.36922251    1.3303581    1.7600714   -6.0696806 
 1405000   0.88822924 0.00011905202   0.42809545   0.02307911            0   0.40501634    1.3156896     1.743785    7.8392483 
 1410000   0.86314323 8.7584235e-05   0.43898184 0.0031182591            0   0.43586358    1.2785309    1.7175128    6.2018256 
 1415000   0.92667349 5.4683723e-05   0.36164439 0.0086628375            0   0.35298156    1.3726351    1.7342795    4.5340861 
 1420000   0.88269136 -2.006021e-05   0.40703615  0.013226863            0   0.39380929    1.3074866    1.7145227   0.68743998 
 1425000   0.81372958 -6.6652295e-05     0.513484  0.039987635            0   0.47349636    1.2053369    1.7188209   -1.6937766 
 1430000    0.8071305 2.420304e-05   0.51342171   0.02842929            0   0.48499242     1.195562    1.7089838    2.9481794 
 1435000   0.89951578 -6.6961039e-05   0.38387201  0.011929176            0   0.37194284    1.3324077    1.7162798   -1.7121254 
 1440000   0.88039006 -2.9970093e-05   0.42687767  0.010920197            0   0.41595747    1.3040778    1.7309555   0.19648667 
 1445000   0.86771539 2.8169237e-05   0.45698815  0.014658065            0   0.44233008    1.2853034    1.7422916    3.1845565 
 1450000   0.92445708 2.8514837e-05   0.39636426  0.027210814            0   0.36915345     1.369352    1.7657163     3.225676 
 1455000   0.94052264 -3.6540254e-05   0.36310801  0.010116154            0   0.35299185    1.3931492    1.7562572  -0.11460385 
 1460000   0.91603634 6.3737872e-05   0.40322243  0.002803617            0   0.40041882    1.3568788    1.7601013    5.0234803 
 1465000   0.88659483 0.00013578874   0.42956441 0.0010967002            0   0.42846771    1.3132686     1.742833    8.6952165 
 1470000   0.89709363 -5.2908079e-05   0.41971991 0.00028303416            0   0.41943688    1.3288199    1.7485399  -0.96035378 
 1475000   0.88590324 3.7955535e-05   0.43977247 0.0045115263            0   0.43526094    1.3122442    1.7520166      3.69534 
 1480000   0.89611315 -3.2839361e-05   0.41317481  0.012281035            0   0.40089378    1.3273676    1.7405424  0.059167142 
 1485000   0.88081798 -7.1195927e-05   0.46522389 0.0070163326            0   0.45820756    1.3047116    1.7699355   -1.8752959 
 1490000   0.91572229 0.00011048207   0.41001152  0.013810286            0   0.39620124    1.3564136    1.7664252    7.4231069 
 1495000   0.83901141 6.2610682e-05   0.52385943  0.016897634            0   0.50696179    1.2427856    1.7666451     4.972312 
 1500000    0.8841896 -8.2044136e-05   0.45001367  0.010666905            0   0.43934676    1.3097058    1.7597195   -2.4409402 
 1505000   0.80662213 -1.4700149e-05   0.53544346  0.016167039            0   0.51927642     1.194809    1.7302525   0.97760485 
 1510000   0.87338649 8.4190078e-05   0.44374752  0.010213413            0    0.4335341    1.2937037    1.7374513    6.0479833 
 1515000   0.90061088 -9.2716417e-06   0.40523636 0.0042927464            0   0.40094361    1.3340299    1.7392662    1.2645582 
 1520000   0.87827219 -2.5259648e-05   0.45921402 0.0038274523            0   0.45538656    1.3009407    1.7601547   0.46686073 
 1525000   0.90114198 5.2097091e-05   0.42723905  0.005850411            0   0.42138863    1.3348166    1.7620556    4.4294267 
 1530000   0.95869651 4.5636808e-05    0.3669487 0.0061180275            0   0.36083067    1.4200692    1.7870179    4.1236225 
 1535000   0.89859018 5.7419654e-05   0.44968078 0.0076165569            0   0.44206422    1.3310367    1.7807175    4.7206037 
 1540000   0.89634536 4.9714365e-05    0.4241715 0.0099729684            0   0.41419853    1.3277116    1.7518831    4.2972585 
 1545000   0.91721633 0.00010415688   0.36375233 0.0041732097            0   0.35957912    1.3586267     1.722379    7.0552113 
 1550000   0.88632647 2.9311322e-05   0.39332067  0.004977854            0   0.38834282    1.3128711    1.7061918    3.2069315 
 1555000   0.81543383 -7.27369e-05   0.48442147  0.023862777            0   0.46055869    1.2078614    1.6922828   -2.0318464 
 1560000    0.7937754 0.00013789807   0.51639248  0.060082802            0   0.45630968    1.1757798    1.6921723    8.7525535 
 1565000   0.86898733 -5.5984795e-05   0.42389834  0.027581469            0   0.39631687    1.2871875    1.7110858   -1.1553357 
 1570000   0.82049825 -9.3350297e-05   0.50072031  0.025229433            0   0.47549088     1.215363    1.7160833   -3.0634519 
 1575000   0.88665529 0.00018698587   0.41070869 0.0097892117            0   0.40091948    1.3133581    1.7240668    11.297743 
 1580000   0.83316081 7.6517063e-05   0.48719343 0.00086866917            0   0.48632476    1.2341194    1.7213129    5.6389865 
 1585000   0.86811368 -1.6516345e-05   0.43728759 4.7003979e-05            0   0.43724058    1.2858934     1.723181   0.87754411 
 1590000   0.89997411 6.4893448e-06   0.40595044            0            0   0.40595044    1.3330867    1.7390371    2.0712916 
 1595000   0.90607695 -0.00010595164   0.34804369 2.4099956e-06            0   0.34804128    1.3421265    1.6901702   -3.7345538 
 1600000   0.81011608 -2.0048106e-05   0.48176447 0.0052968907            0   0.47646758    1.1999844    1.6817489   0.65528588 
 1605000   0.80415913 0.00013646705   0.49040313  0.031028495            0   0.45937464    1.1911607    1.6815638    8.6686768 
 1610000   0.85683081 4.2472542e-05   0.40248902  0.017667385            0   0.38482164    1.2691806    1.6716697    3.8462638 
 1615000    0.7762254 -5.48631e-07   0.54591087 0.0076474249            0   0.53826344    1.1497839    1.6956947    1.6676048 
 1620000   0.88689741 8.7968674e-05   0.38708546 0.0064432842            0   0.38064218    1.3137168    1.7008022    6.2047984 
 1625000   0.84859507 5.8592636e-05   0.45550779 0.0041285257            0   0.45137927    1.2569814    1.7124892    4.7124322 
 1630000    0.9011433 4.4930593e-05   0.39366014 0.0026643348            0    0.3909958    1.3348185    1.7284787     4.028925 
 1635000   0.80070998 1.5226295e-05   0.54277222 0.0094190666            0   0.53335316    1.1860517    1.7288239    2.5084102 
 1640000   0.91770302 -0.00012711927    0.3972576  0.012818879            0   0.38443872    1.3593476    1.7566052   -4.7519016 
 1645000   0.88846327 -4.1396858e-05   0.44946349 0.0075193228            0   0.44194417    1.3160362    1.7654997  -0.35401944 
 1650000   0.84648142 1.915985e-05   0.50747414  0.008322111            0   0.49915203    1.2538506    1.7613247    2.7423091 
 1655000   0.85438272 5.2524994e-05    0.5304462 0.0073847816            0   0.52306142    1.2655544    1.7960006    4.4852803 
 1660000   0.93776886 -9.0433553e-05   0.43121076  0.041818229            0   0.38939253    1.3890701    1.8202809    -2.809917 
 1665000   0.88331702 -6.2013047e-05   0.49951518  0.035380572            0    0.4641346    1.3084133    1.8079285   -1.3671395 
 1670000   0.85059368 2.1736169e-05   0.56974739   0.02366909            0    0.5460783    1.2599419    1.8296893    2.9425811 
 1675000   0.92546834 -6.1934296e-05   0.46729579   0.01066132            0   0.45663447      1.37085    1.8381458   -1.3328902 
 1680000   0.89445092 0.0001174286   0.48150204  0.005402633            0   0.47609941    1.3249054    1.8064075    7.8187518 
 1685000   0.90023656 0.00016745481    0.4865025  0.016353672            0   0.47014883    1.3334754    1.8199779    10.393664 
 1690000   0.91632269 4.447828e-06   0.46872618 0.0092114331            0   0.45951474     1.357303    1.8260292     2.053758 
 1695000   0.90204986 -0.00012680393   0.49743333   0.00941494            0   0.48801839    1.3361614    1.8335947   -4.6587664 
 1700000   0.94250533 -8.5688242e-05    0.4567608  0.013309132            0   0.44345167     1.396086    1.8528468   -2.5343912 
 1705000   0.84800949 -4.0490236e-05   0.56830577  0.012533564            0   0.55577221    1.2561141    1.8244198  -0.24868026 
 1710000   0.90183427 -4.378747e-05   0.49697229  0.016795032            0   0.48017726     1.335842    1.8328143  -0.40910415 
 1715000   0.86708726 -5.6402914e-05   0.53570478  0.063357226            0   0.47234755     1.284373    1.8200778   -1.0677514 
 1720000   0.82873135 -3.4388339e-05   0.59583821  0.033353728            0   0.56248448    1.2275583    1.8233965  0.062713544 
 1725000   0.94307594 2.6071435e-06   0.40111663  0.022558384            0   0.37855824    1.3969312    1.7980479    1.9315336 
 1730000   0.86752106 -4.6143633e-06   0.49918147   0.01946678            0   0.47971469    1.2850156     1.784197    1.5479416 
 1735000   0.83600776 1.0552179e-05   0.51410446   0.01964695            0   0.49445751    1.2383365     1.752441    2.2927125 
 1740000   0.90847273 8.4422491e-05   0.40983301  0.011120008            0     0.398713    1.3456752    1.7555082    6.0779398 
 1745000   0.91193178 8.8116776e-05   0.42443059  0.012013415            0   0.41241718     1.350799    1.7752296    6.2868085 
 1750000   0.81735481 -5.4804513e-06   0.55110286  0.015493159            0    0.5356097    1.2107068    1.7618097    1.4812106 
 1755000   0.89234882 4.5830379e-05   0.46745195 0.0081292115            0   0.45932274    1.3217917    1.7892436     4.135759 
 1760000   0.86353404 4.0506442e-05    0.4980098  0.011825068            0   0.48618473    1.2791098    1.7771196    3.8510494 
 1765000   0.90864212 -1.3228505e-06   0.44373645 0.0035934428            0     0.440143    1.3459261    1.7896626    1.7219326 
 1770000   0.85810345 0.00014025592    0.5026321 0.0085413329            0   0.49409076    1.2710657    1.7736978     8.954801 
 1775000   0.85238616 0.00014068777   0.52142685  0.015956908            0   0.50546995     1.262597    1.7840238    8.9872377 
 1780000   0.94435792 -2.8964452e-05   0.40912752 0.0090159601            0   0.40011156    1.3988302    1.8079577   0.32497773 
 1785000   0.83064425 -9.1081978e-05   0.56760091  0.018242817            0   0.54935809    1.2303918    1.7979927   -2.8654046 
 1790000   0.92729408 2.6087992e-05   0.40784755  0.027024527            0   0.38082303    1.3735544    1.7814019    3.1171071 
 1795000   0.85706285 9.047009e-07    0.5169211  0.017887801            0   0.49903329    1.2695244    1.7864454    1.8327661 
 1800000   0.87330951 3.7049014e-05   0.50930013  0.015967734            0    0.4933324    1.2935897    1.8028898    3.6997994 
 1805000   0.89573097 9.6018963e-06    0.4670749  0.014348376            0   0.45272653    1.3268015    1.7938764    2.2854935 
 1810000   0.91677507 5.7719653e-06   0.45336143  0.023098159            0   0.43026327    1.3579731    1.8113345    2.1068591 
 1815000   0.87952497 -6.331516e-05   0.51703995  0.026882219            0   0.49015774    1.3027964    1.8198363   -1.4218999 
 1820000   0.96572045 -7.2487529e-05   0.39496192  0.013693184            0   0.38126873    1.4304734    1.8254353   -1.8859261 
 1825000   0.94617205 7.7624808e-05   0.44423115  0.031059709            0   0.41317144    1.4015173    1.8457485    5.8201387 
 1830000    0.8679222 -4.5121331e-05   0.54128931  0.065386657            0   0.47590266    1.2856098    1.8268991  -0.48331307 
 1835000    0.8675979 -9.6230352e-05   0.51708879   0.01782192            0   0.49926687    1.2851294    1.8022182   -3.1247758 
 1840000   0.93187383 4.2630065e-06   0.42732071  0.021513524            0   0.40580718    1.3803381    1.8076588    2.0259248 
 1845000   0.89686324 -3.430068e-05   0.49446726    0.0117424            0   0.48272486    1.3284787    1.8229459  0.066751108 
 1850000   0.95609851 4.5608113e-05   0.41603897  0.010671005            0   0.40536796    1.4162209    1.8322599    4.1673953 
 1855000   0.89511656 3.9405438e-05    0.5333087  0.011818982            0   0.52148972    1.3258914    1.8592001    3.8767585 
 1860000   0.92364253 -0.00019320204   0.47545249 0.0037244947            0     0.471728    1.3681455     1.843598   -8.0483466 
 1865000   0.96305779 -8.5270529e-05   0.40389082  0.016108895            0   0.38778192    1.4265294    1.8304202   -2.5354309 
 1870000   0.90251783 0.00011934304   0.49045522  0.018421873            0   0.47203335    1.3368545    1.8273098    7.9376732 
 1875000   0.90229678 -6.1031673e-06   0.49171586 0.0092978942            0   0.48241797    1.3365271     1.828243    1.5157608 
 1880000   0.95350849 0.00011263836   0.43767562  0.008641056            0   0.42903456    1.4123844    1.8500601    7.6171442 
 1885000    0.9885458 0.0001001247   0.39306378 0.0033817266            0   0.38968206    1.4642835    1.8573472    6.9837317 
 1890000   0.98450704 0.00015639237   0.42757108 0.0013363027            0   0.42623477     1.458301    1.8858721    9.8931615 
 1895000   0.96753968 9.5986142e-05   0.45357072 0.0012184238            0    0.4523523    1.4331681    1.8867389    6.8012293 
 1900000   0.96208832 -7.6898632e-05   0.49028388  0.013195923            0   0.47708795    1.4250933    1.9153772   -2.0218327 
 1905000   0.97844834 -6.9491022e-05   0.46653315  0.025375415            0   0.44115774    1.4493266    1.9158598   -1.6420806 
 1910000   0.93452938 -0.00020890933   0.53241097  0.019513079            0   0.51289789    1.3842716    1.9166826   -8.7794749 
 1915000   0.96947253 -2.6245214e-05   0.49360325  0.029363942            0    0.4642393    1.4360312    1.9296344   0.58587949 
 1920000   0.98134048 5.9217318e-05   0.48480949   0.01682278            0   0.46798671    1.4536106    1.9384201    4.9703468 
 1925000   0.90044938 -3.1206236e-05   0.59547372   0.02553939            0   0.56993433    1.3337906    1.9292644   0.33150509 
 1930000   0.92530898 0.00015970266   0.57039347  0.054222113            0   0.51617136    1.3706139    1.9410074    10.117783 
 1935000   0.90897375 -9.5848088e-05   0.58815605  0.048428687            0   0.53972736    1.3464174    1.9345734   -2.9728487 
 1940000   0.98675048 8.4337044e-05   0.49347668   0.02041224            0   0.47306444    1.4616242    1.9551008    6.2731575 
 1945000     1.005541 -3.0746602e-06   0.46976824 0.0077670284            0   0.46200121    1.4894576    1.9592258    1.8018032 
 1950000   0.93733371 -1.2092525e-05   0.57479396  0.026628603            0   0.54816536    1.3884256    1.9632195    1.3440822 
 1955000   0.97519212 -3.5144615e-05   0.51961575  0.013337694            0   0.50627805    1.4445033    1.9641191    0.1647148 
 1960000     1.002702 -6.2882646e-05   0.50255003  0.012901345            0   0.48964869    1.4852523    1.9878023   -1.2317892 
 1965000   0.90844755 -4.9825739e-05   0.65027309  0.033521771            0   0.61675132    1.3456379     1.995911  -0.55516684 
 1970000     1.003474 -9.4995029e-05   0.54520408   0.10106504            0   0.44413904    1.4863958    2.0315999   -2.8321456 
 1975000   0.99828838 1.0866198e-06   0.52952309  0.018914218            0   0.51060887    1.4787147    2.0082378    2.0638727 
 1980000   0.98102891 6.7114842e-05   0.55129439  0.034965128            0   0.51632926    1.4531491    2.0044435    5.4407233 
 1985000    1.0142114 -7.3421399e-05   0.50478426    0.0323815            0   0.47240276    1.5023006    2.0070848   -1.7520908 
 1990000   0.98706996 0.00011040788   0.55629984   0.06837359            0   0.48792625    1.4620974    2.0183972    7.6712808 
 1995000    1.0426027 0.00013149431   0.43868799  0.016979297            0   0.42170869    1.5443552    1.9830432    8.7155517 
 2000000    1.0166614 -4.4341929e-05   0.47125397  0.036677271            0    0.4345767    1.5059297    1.9771837  -0.29312307 
 2005000    1.0645437 2.8576006e-05   0.41866666  0.025948594            0   0.39271807    1.5768553     1.995522    3.4586135 
 2010000    0.8964948 -8.3175151e-05   0.61158272  0.088560923            0    0.5230218    1.3279329    1.9395156   -2.3190521 
 2015000    0.9426009 3.1575789e-05   0.53365337 0.0073937994            0   0.52625957    1.3962276    1.9298809    3.5465614 
 2020000   0.94082763 -5.5298113e-05   0.53114871 0.0089801279            0   0.52216858    1.3936009    1.9247496  -0.90651376 
 2025000     1.009411 0.00015399139   0.45427832 0.0020988602            0   0.45217946      1.49519    1.9494683    9.8338275 
 2030000    1.0611549 8.5686617e-05   0.37392491 0.0035781062            0    0.3703468    1.5718358    1.9457607    6.3329155 
 2035000   0.98070715 -7.6396302e-06    0.4927634  0.020134409            0   0.47262899    1.4526725    1.9454359    1.5542868 
 2040000   0.99600164 -4.2966325e-05   0.48803262  0.011887223            0    0.4761454    1.4753274    1.9633601  -0.23651577 
 2045000    0.9934367 -0.00016828386   0.50595291  0.012705021            0   0.49324789    1.4715281     1.977481   -6.6386527 
 2050000    0.9832859 0.00014202737   0.52583777  0.012802012            0   0.51303576    1.4564922      1.98233    9.2541315 
 2055000    1.0602833 8.6367535e-05     0.437429  0.034174623            0   0.40325438    1.5705447    2.0079737    6.4299915 
 2060000   0.99955915 2.9233315e-05   0.53611846  0.025400426            0   0.51071804     1.480597    2.0167155    3.5134612 
 2065000   0.94903409 0.00020401813   0.59439815  0.031056701            0   0.56334145    1.4057568    2.0001549    12.445883 
 2070000    1.0337287 -2.2831982e-05   0.47577079  0.012836984            0   0.46293381    1.5312107    2.0069814   0.83798395 
 2075000    1.0342171 -1.7132733e-05   0.46991954 0.0010282397            0    0.4688913    1.5319341    2.0018536    1.1246577 
 2080000    1.0590769 7.009768e-05   0.47069441 0.00059726879            0   0.47009714    1.5687577    2.0394521    5.6284533 
 2085000    1.0305922 -0.00014625884   0.50322258 4.5510009e-05            0   0.50317707    1.5265647    2.0297873   -5.4586652 
 2090000     1.058566 -4.4738261e-05   0.44257198 0.0016038093            0   0.44096818    1.5680008    2.0105728  -0.28002613 
 2095000    1.0665191 7.2734884e-05   0.41503097  0.007072614            0   0.40795836    1.5797815    1.9948124    5.7188385 
 2100000   0.94701355 -0.00011952081   0.57460551 0.0054804614            0   0.56912505    1.4027638    1.9773693   -4.1420962 
 2105000      1.01723 2.448782e-05   0.47722199 0.0052372995            0   0.47198469    1.5067719    1.9839939    3.2377703 
 2110000   0.99394275 2.2647627e-05   0.51956069  0.011705208            0   0.50785548    1.4722777    1.9918384    3.1513969 
 2115000    1.0039292 -0.00013896292   0.47894461 0.0094288461            0   0.46951576    1.4870701    1.9660147   -5.1488867 
 2120000   0.98850497 -4.764452e-05   0.49079741  0.018212204            0   0.47258521     1.464223    1.9550204  -0.48437901 
 2125000   0.96762748 4.2885685e-05   0.54112759  0.024816668            0   0.51631092    1.4332982    1.9744258    4.1701728 
 2130000    1.0327947 6.3046945e-05   0.45217599   0.03132133            0   0.42085466    1.5298272    1.9820032    5.2100068 
 2135000   0.98345855 -7.5853448e-05   0.54758916  0.043807282            0   0.50378187     1.456748    2.0043371   -1.8793594 
 2140000    1.0425773 3.2932774e-05   0.47557695  0.032069391            0   0.44350756    1.5443177    2.0198946    3.7060526 
 2145000    1.0830062 4.3212953e-06   0.40987885 0.0097211671            0   0.40015769    1.6042029    2.0140818    2.2353321 
 2150000   0.98580542 -0.00017442517   0.55482258  0.016546925            0   0.53827565    1.4602243    2.0150469    -6.915522 
 2155000    1.0264483 7.1387275e-06   0.53999262  0.051550013            0   0.48844261    1.5204266    2.0604192     2.425922 
 2160000    1.0235835 6.0646619e-06    0.5379265   0.05161519            0   0.48631131    1.5161831    2.0541096    2.3646202 
 2165000    1.0816897 1.0335475e-05   0.47363195 0.0051755001            0   0.46845645    1.6022529    2.0758849    2.6050612 
 2170000    1.0146869 -6.5055111e-05   0.56929906 0.00025227992            0   0.56904678    1.5030049     2.072304   -1.2585177 
 2175000    1.0692024 -0.00013602668   0.50687325 0.00092779862            0   0.50594545     1.583756    2.0906292    -4.873937 
 2180000     1.042119 1.2281055e-05   0.52093356 0.0073689242            0   0.51356463    1.5436388    2.0645723    2.6933623 
 2185000    1.0260061 -5.1426968e-06    0.5550481 0.0097554609            0   0.54529264    1.5197716    2.0748197    1.8115136 
 2190000    1.0633132 -6.6420809e-05    0.5177209   0.01127499            0   0.50644591    1.5750327    2.0927536   -1.3079919 
 2195000    1.0675784 4.1934735e-05   0.48196839  0.022669477            0   0.45929892    1.5813505    2.0633189    4.2103773 
 2200000   0.95172049 5.0490932e-05   0.62950744  0.034152762            0   0.59535468     1.409736    2.0392434    4.6243791 
 2205000    1.0076865 0.0001355494   0.51356461  0.036654307            0    0.4769103    1.4926356    2.0062002    8.9463293 
 2210000    1.0637933 5.9812617e-06   0.43519164  0.027918173            0   0.40727347    1.5757438    2.0109354     2.317176 
 2215000    1.0274875 -8.4137326e-05   0.47204286   0.01773964            0   0.45430322    1.5219658    1.9940087   -2.3138224 
 2220000   0.99425068 -1.8311178e-05   0.52032012  0.046129768            0   0.47419035    1.4727338    1.9930539    1.0555216 
 2225000   0.99521417 8.8834098e-05   0.52093722  0.022777929            0   0.49815929     1.474161    1.9950982     6.543404 
 2230000    1.0002243 7.2146302e-05   0.48964519  0.015288035            0   0.47435716    1.4815822    1.9712274     5.665118 
 2235000   0.94478375 -0.00019088406   0.58402433  0.016133346            0   0.56789099    1.3994609    1.9834853   -7.7897786 
 2240000   0.95391241 -1.7824628e-05   0.58122098  0.035714758            0   0.54550622    1.4129828    1.9942037    1.0815828 
 2245000   0.96362895 0.00012893633   0.54386134  0.024514918            0   0.51934642    1.4273754    1.9712367    8.5727768 
 2250000    0.9545409 -2.6370603e-06   0.57766712  0.019935134            0   0.55773199    1.4139137    1.9915808    1.8565633 
 2255000   0.98295554 6.2575444e-05   0.52928786  0.023978666            0   0.50530919    1.4560029    1.9852908    5.1891535 
 2260000   0.97092154 8.9241092e-05   0.55600431  0.025505353            0   0.53049896    1.4381775    1.9941818    6.5633258 
 2265000   0.90596739 -1.42711e-05   0.64497267  0.050303899            0   0.59466877    1.3419642    1.9869369    1.2562565 
 2270000   0.97543191 -1.0123498e-05   0.54140254  0.051968709            0   0.48943383    1.4448585    1.9862611     1.467938 
 2275000   0.98247803 1.110422e-05   0.53158111  0.010739806            0    0.5208413    1.4552956    1.9868767    2.5554127 
 2280000   0.94999006 5.874163e-05   0.60052284  0.010129015            0   0.59039383    1.4071728    2.0076956    5.0152671 
 2285000   0.99681205 2.2163324e-05   0.54678546  0.010513016            0   0.53627244    1.4765278    2.0233133    3.1580755 
 2290000    0.9999189 4.7856742e-05   0.53147905 0.0035452744            0   0.52793378    1.4811299    2.0126089    4.4628741 
 2295000   0.96945059 0.00010852319   0.57702169 0.0079546622            0   0.56906703    1.4359987    2.0130204    7.5694076 
 2300000   0.94680205 -3.4901532e-05   0.60920738  0.012949218            0   0.59625816    1.4024505    2.0116579   0.22469947 
 2305000   0.95561273 -1.746434e-05   0.60832797  0.014289385            0   0.59403858    1.4155014    2.0238293    1.1296551 
 2310000   0.97431848 5.7799546e-05   0.57782911   0.01437067            0   0.56345844    1.4432092    2.0210384    4.9803751 
 2315000    1.0473144 5.542316e-06   0.43848954  0.016503221            0   0.42198632    1.5513344     1.989824    2.2735906 
 2320000   0.86152945 -1.7841469e-05    0.7006829  0.046732776            0   0.65395012    1.2761405    1.9768234    1.0633402 
 2325000    1.0052157 2.3615832e-05      0.50684   0.01507189            0   0.49176811    1.4889758    1.9958158    3.2049464 
 2330000    0.9877533 -2.0433998e-05    0.5499433  0.013182901            0    0.5367604    1.4631096    2.0130529   0.96683216 
 2335000   0.90224679 -2.3830424e-05   0.67308867   0.03400965            0   0.63907902    1.3364531    2.0095417   0.78942403 
 2340000   0.98862058 0.00012074278   0.54415219  0.034094057            0   0.51005814    1.4643942    2.0085464     8.190577 
 2345000   0.95230244 0.0001541778   0.58861148  0.012014894            0   0.57659659     1.410598    1.9992095    9.8931128 
 2350000    1.0474012 -2.3581468e-05   0.46259672 0.0058646366            0   0.45673208     1.551463    2.0140598   0.80668857 
 2355000   0.97566558 -9.4172169e-05   0.53855105 0.0078115966            0   0.53073945    1.4452046    1.9837557   -2.8378593 
 2360000   0.91956873 3.0666162e-05   0.59224906  0.037845058            0   0.55440401    1.3621112    1.9543603    3.5244677 
 2365000    1.0301785 5.7508946e-05   0.44258968  0.019780253            0   0.42280943    1.5259519    1.9685416    4.9129996 
 2370000   0.91608946 -8.145952e-05   0.56702007 0.0040378474            0   0.56298222    1.3569575    1.9239776   -2.2467498 
 2375000   0.97036897 8.5730409e-06   0.48583502  0.035299596            0   0.45053543     1.437359    1.9231941    2.3621337 
 2380000   0.96222262 0.0001230381   0.48196231  0.016848737            0   0.46511357    1.4252923    1.9072546     8.206805 
 2385000   0.99885896 0.00010583903   0.45369421  0.021075127            0   0.43261908    1.4795598     1.933254    7.3522124 
 2390000   0.92799077 -1.3937136e-05   0.57761568  0.057301529            0   0.52031415    1.3745863     1.952202    1.2386206 
 2395000    1.0285037 -4.221924e-05   0.43802977   0.01634775            0   0.42168202     1.523471    1.9615008  -0.20012428 
 2400000    1.0351333 -2.3430346e-06   0.47206452 0.0015149122            0   0.47054961    1.5332912    2.0053557    1.8853924 
 2405000   0.95276568 -3.2586381e-05   0.58971261  0.013731151            0   0.57598146    1.4112842    2.0009968   0.33257408 
 2410000    0.9276695 2.1740095e-05   0.60524272  0.042331365            0   0.56291135    1.3741105    1.9793532     3.092446 
 2415000    1.0514364 -2.6771578e-06   0.43617561  0.027137928            0   0.40903768    1.5574402    1.9936158    1.8565454 
 2420000   0.98173843 -9.1147054e-05   0.55319844  0.010805523            0   0.54239292       1.4542    2.0073985   -2.6593307 
 2425000    1.0484652 3.328769e-05   0.44750438  0.010273018            0   0.43723136    1.5530391    2.0005434    3.7048731 
 2430000   0.99227414 9.2590152e-05   0.54994206  0.048183695            0   0.50175837    1.4698061    2.0197481    6.7603639 
 2435000    1.0286993 3.8791166e-05   0.54421786  0.075018025            0   0.46919984    1.5237609    2.0679787    4.0540864 
 2440000    1.0406919 9.5415064e-05   0.53587174  0.047820521            0   0.48805122    1.5415249    2.0773967     6.962648 
 2445000    1.0063681 0.00015237953   0.58748782  0.036149085            0   0.55133874    1.4906828    2.0781706    9.8800028 
 2450000    1.0051832 0.00012395753   0.56185622  0.022402239            0   0.53945398    1.4889275    2.0507838    8.3974091 
 2455000   0.97439356 0.00011947089   0.60068819  0.038383702            0   0.56230449    1.4433205    2.0440087    8.1609184 
 2460000    0.9736386 8.9208675e-05   0.61082553  0.086099584            0   0.52472595    1.4422022    2.0530277    6.6205119 
 2465000     1.034296 2.7562374e-05   0.49063183  0.047506476            0   0.44312535    1.5320509    2.0226828    3.4338763 
 2470000    1.0018364 -7.5655229e-05   0.55717397 0.0079069584            0   0.54926701    1.4839702    2.0411442   -1.8324035 
 2475000    1.0158519 -0.00011341697   0.52854946 0.0039841656            0    0.5245653    1.5047307    2.0332801   -3.7736688 
 2480000    1.0727896 -7.592404e-07    0.4499362 0.0040395519            0   0.44589665    1.5890696    2.0390058    2.0001327 
 2485000   0.95039955 8.7094725e-05    0.6273111 0.0042577351            0   0.62305336    1.4077793    2.0350904    6.4943404 
 2490000    1.0515749 4.8842288e-05   0.48104387 0.0060545447            0   0.47498932    1.5576453    2.0386892    4.5394143 
 2495000    1.0741963 -4.6471482e-05   0.43903147  0.011678324            0   0.42735315    1.5911533    2.0301848  -0.34915513 
 2500000   0.90490801 -0.00011651936    0.6920345  0.031488157            0   0.66054635     1.340395    2.0324295   -3.9333618 
 2505000   0.99242934 -4.2304367e-05   0.57902788  0.013020144            0   0.56600774     1.470036    2.0490638  -0.11691976 
 2510000    1.0471532 7.580484e-05   0.45181735  0.017281527            0   0.43453583    1.5510957    2.0029131    5.8841209 
 2515000    1.0498737 0.00010485864   0.45574302  0.021443936            0   0.43429908    1.5551254    2.0108684    7.3796306 
 2520000    1.0173576 -6.8346728e-05   0.48604006  0.025013029            0   0.46102703     1.506961     1.993001   -1.5063515 
 2525000   0.96543877 -9.2732873e-05   0.54187184  0.015565129            0   0.52630671    1.4300562     1.971928   -2.7759951 
 2530000   0.99601799 3.9009354e-05   0.51570199  0.013716153            0   0.50198583    1.4753516    1.9910536    3.9883326 
 2535000    1.0048426 1.239788e-05   0.50031864  0.010818147            0   0.48950049    1.4884231    1.9887417    2.6235132 
 2540000    0.9186234 -0.00011825917    0.6287449 0.0044980748            0   0.62424682    1.3607109    1.9894558    -4.065414 
 2545000   0.90345632 -4.3891249e-05   0.64861655 0.0022946469            0    0.6463219    1.3382447    1.9868612  -0.26037074 
 2550000     1.008388 8.9894959e-05   0.49393761 0.00030014338            0   0.49363747    1.4936747    1.9876123    6.5902342 
 2555000    1.0290254 3.0995714e-05   0.44337693 0.00022929536            0   0.44314763    1.5242439    1.9676209    3.5546014 
 2560000   0.96033717 1.4475635e-05   0.52945788 0.0010033461            0   0.52845454    1.4224994    1.9519573    2.6931098 
 2565000   0.87997649 -7.9581396e-05   0.66388536 0.0067835702            0   0.65710179    1.3034652    1.9673505   -2.1072169 
 2570000   0.95765328 -1.5092527e-05   0.56163111  0.016132335            0   0.54549877    1.4185239     1.980155    1.2074177 
 2575000   0.97016404 6.4222965e-06   0.58257044  0.022317645            0    0.5602528    1.4370555    2.0196259    2.3484475 
 2580000    1.0259293 4.1932073e-05   0.50446785  0.023773291            0   0.48069456    1.5196578    2.0241257    4.1710478 
 2585000   0.96324069 0.00010872381   0.57115439  0.025908145            0   0.54524624    1.4268003    1.9979547    7.5646137 
 2590000    1.0005918 -4.8768843e-05   0.50309212  0.012367221            0    0.4907249    1.4821267    1.9852188  -0.51174595 
 2595000    1.0057045 4.5896293e-06   0.48639576 0.0052091157            0   0.48118665    1.4896998    1.9760956    2.2110846 
 2600000   0.97019186 -0.00012166572    0.5421413 0.0065785055            0    0.5355628    1.4370967     1.979238   -4.2500468 
 2605000    1.0532827 6.2173846e-05   0.47791317 0.0075840664            0   0.47032911    1.5601749    2.0380881     5.221389 
 2610000     1.062923 9.1229195e-05   0.47819937  0.034651944            0   0.44354743    1.5744547    2.0526541    6.7235889 
 2615000    1.0896324 -4.8675815e-07   0.45009283  0.019594266            0   0.43049857    1.6140181    2.0641109    2.0391889 
 2620000    1.0127667 5.1061328e-05   0.51648644  0.013544889            0   0.50294155    1.5001607    2.0166472    4.6309871 
 2625000    1.0220783 2.5259138e-05    0.4840512  0.048631588            0   0.43541961    1.5139535    1.9980047    3.2912726 
 2630000   0.98442537 8.0657317e-05   0.53611027  0.011832125            0   0.52427814    1.4581801    1.9942903     6.123945 
 2635000    0.9724991 5.9682689e-05   0.55682514 0.0044471437            0   0.55237799    1.4405143    1.9973394    5.0530931 
 2640000    0.9850234 2.0762654e-05   0.50841788  0.022857067            0   0.48556082    1.4590659    1.9674838    3.0305317 
 2645000   0.95197526 -3.0026561e-05   0.56243615  0.042178366            0   0.52025778    1.4101133    1.9725495   0.43518956 
 2650000   0.99565152 -6.6178088e-06   0.51254377  0.037084898            0   0.47545887    1.4748088    1.9873526    1.6485208 
 2655000    1.0548081 9.2902156e-05    0.4395556  0.032082208            0   0.40747339    1.5624345    2.0019901    6.7585805 
 2660000   0.92882385 0.00016157963   0.63550447  0.019290022            0   0.61621444    1.3758203    2.0113248    10.284202 
 2665000     1.065074 3.0861269e-05   0.44672226  0.015208448            0   0.43151382    1.5776408    2.0243631      3.60446 
 2670000    1.0215431 -0.00021158649   0.52403015  0.025698863            0   0.49833129    1.5131608    2.0371909   -8.7960371 
 2675000    1.0128407 -9.383579e-05   0.54401274  0.042818338            0    0.5011944    1.5002703     2.044283   -2.7601094 
 2680000    1.0335225 0.00014177625   0.51637077  0.019553443            0   0.49681733    1.5309052     2.047276    9.3062201 
 2685000   0.97076295 2.2880616e-06    0.5808388  0.024442418            0   0.55639638    1.4379426    2.0187814    2.1359302 
 2690000    1.0858902 -6.6982145e-07   0.41100456  0.016293271            0   0.39471129    1.6084749    2.0194794    1.9851846 
 2695000    0.9915703 8.8624275e-05   0.56028058  0.010519418            0   0.54976116    1.4687635    2.0290441     6.566607 
 2700000    1.0163063 0.00010402228   0.52645863  0.012111055            0   0.51434757    1.5054037    2.0318623    7.3578029 
 2705000   0.96713594 4.5053134e-05   0.57167415  0.024013054            0   0.54766109    1.4325701    2.0042443    4.3109647 
 2710000   0.95921268 -9.7229876e-05    0.5934156  0.014177701            0    0.5792379    1.4208338    2.0142494   -2.9639203 
 2715000    1.0655544 -7.9714018e-05   0.42014966  0.001194308            0   0.41895536    1.5783525    1.9985021   -2.0828556 
 2720000    1.0807454 -2.104134e-06   0.43267544 0.0030398752            0   0.42963556    1.6008541    2.0335295    1.9257979 
 2725000   0.97882903 0.0001100351   0.56225901   0.01011064            0   0.55214837    1.4498905    2.0121495    7.6459468 
 2730000    1.0130771 0.0001661632   0.49978182  0.030451639            0   0.46933018    1.5006204    2.0004022    10.507958 
 2735000    1.0045936 4.3535715e-05   0.51855828  0.062900024            0   0.45565825    1.4880542    2.0066125    4.2356411 
 2740000   0.98636041 -2.6018041e-05   0.50432051  0.045316856            0   0.45900365    1.4610464    1.9653669   0.63324319 
 2745000   0.92433986 -8.8557092e-05    0.6066634 0.0085201099            0   0.59814329    1.3691784    1.9758418   -2.5582813 
 2750000    1.0151715 -6.9487609e-05   0.48053763 0.0019524253            0    0.4785852    1.5037227    1.9842604   -1.5735052 
 2755000   0.98326035 4.8085512e-05    0.5467305 0.0051050921            0   0.54162541    1.4564544    2.0031849    4.4651631 
 2760000     1.009209 4.7894902e-05   0.52171493  0.016429099            0   0.50528583    1.4948908    2.0166057    4.4688247 
 2765000    0.9971644 9.4116345e-05   0.54116746  0.031336704            0   0.50983075    1.4770498    2.0182172    6.8369741 
 2770000   0.96293044 0.00016749309   0.57318786  0.018889276            0   0.55429859    1.4263407    1.9995286    10.575175 
 2775000   0.97955079 1.6612992e-05    0.5552428  0.012496216            0   0.54274659    1.4509596    2.0062024    2.8567876 
 2780000    1.0203115 -5.9821285e-05   0.49965914  0.017322528            0   0.48233661    1.5113365    2.0109956   -1.0518542 
 2785000   0.97783476 -9.4798687e-05   0.55463869  0.029703233            0   0.52493545    1.4484177    2.0030564   -2.8506363 
 2790000    1.0385262 -6.6814245e-05   0.46244965  0.021186011            0   0.44126364     1.538317    2.0007666   -1.4201227 
 2795000    1.0100598 9.6244219e-05   0.49177754  0.015736186            0   0.47604136    1.4961511    1.9879286    6.9156326 
 2800000   0.98760559 7.6621095e-05   0.52313829 0.0060526549            0   0.51708563    1.4628908    1.9860291    5.9090291 
 2805000   0.96063927 -0.00014994695   0.58466039 0.0042303186            0   0.58043007    1.4229469    2.0076073   -5.6696763 
 2810000   0.94436566 -1.2208474e-05   0.60157999 0.0078069274            0   0.59377306    1.3988416    2.0004216    1.3753477 
 2815000   0.96521788 0.00017708313   0.55960129  0.021391378            0   0.53820991     1.429729    1.9893303    11.055987 
 2820000   0.97496401 -3.316582e-05   0.51960256  0.011728242            0   0.50787432    1.4441654     1.963768   0.26567799 
 2825000    1.0503052 -0.000106946   0.41670219 0.0026784023            0   0.41402379    1.5557646    1.9724668   -3.5031686 
 2830000    1.0490716 -2.2485464e-05    0.4479664  0.011608577            0   0.43635782    1.5539373    2.0019037   0.85064793 
 2835000   0.92927725 3.0484868e-05   0.59710102  0.044705185            0   0.55239584    1.3764919     1.973593    3.5344182 
 2840000    1.0089352 -2.3688349e-05   0.44858302  0.038788764            0   0.40979426    1.4944852    1.9430683   0.73022482 
 2845000   0.96850355 -4.5148967e-05   0.49094671  0.035251311            0    0.4556954    1.4345959    1.9255426  -0.38608454 
 2850000    1.0020205 0.0001244528    0.4746564   0.02387281            0   0.45078359    1.4842428    1.9588992    8.3308827 
 2855000   0.96426634 0.00012559674   0.52188039  0.018342278            0   0.50353811    1.4283195    1.9501999     8.380753 
 2860000   0.96033629 6.6113906e-05   0.51445362  0.019120553            0   0.49533307    1.4224981    1.9369518    5.3219837 
 2865000   0.96954027 4.3761968e-05   0.48187309  0.035498686            0   0.44637441    1.4361315    1.9180046    4.1586174 
 2870000   0.94680782 -5.1637471e-05   0.50474194  0.030508518            0   0.47423342    1.4024591     1.907201  -0.73663751 
 2875000   0.94632219 -0.00011620135   0.51638658  0.012888937            0   0.50349765    1.4017397    1.9181263   -4.0313826 
 2880000   0.91711355 -2.2413118e-05   0.56227267  0.035867647            0   0.52640502    1.3584744    1.9207471   0.77319549 
 2885000   0.96442268 8.3835097e-07   0.52213631  0.012162812            0    0.5099735    1.4285511    1.9506874     1.993611 
 2890000    1.0216576 -5.8087877e-05    0.4479425 0.0062726502            0   0.44166985    1.5133303    1.9612728   -1.0128265 
 2895000   0.92519557 -7.1325411e-05   0.60418161   0.03591736            0   0.56826425    1.3704459    1.9746275   -1.6772335 
 2900000   0.88534799 -5.6430252e-05   0.65836208  0.089728321            0   0.56863376    1.3114217    1.9697838   -0.9194451 
 2905000    1.0323849 1.0329652e-05   0.44378337  0.047386357            0   0.39639701    1.5292201    1.9730034    2.5018816 
 2910000   0.94125392 -1.4260705e-05   0.57430928  0.007672134            0   0.56663715    1.3942324    1.9685416    1.2383935 
 2915000   0.94860619 0.00012953607   0.56063427  0.006726818            0   0.55390745    1.4051229    1.9657572    8.5980038 
 2920000   0.97036335 -2.1465179e-05   0.52725626 0.0060770293            0   0.52117923    1.4373507     1.964607   0.86558983 
 2925000   0.96485711 1.4413842e-05   0.53134057  0.013546256            0   0.51779431    1.4291946    1.9605352    2.6985239 
 2930000   0.99226676 0.00017725459   0.49911228  0.013513151            0   0.48559912    1.4697951    1.9689074    11.044342 
 2935000   0.98025586 0.00014023801   0.50047537  0.013770238            0   0.48670514     1.452004    1.9524794    9.1326656 
 2940000    1.0415298 -9.3815136e-06   0.40654346  0.030615898            0   0.37592756    1.5427661    1.9493095     1.468976 
 2945000   0.92167667 -0.00011929924   0.58526701  0.027986816            0   0.55728019    1.3652336    1.9505006   -4.1576206 
 2950000   0.98446664 -6.5886805e-05   0.48286162 0.0015601185            0    0.4813015    1.4582412    1.9411028   -1.4323016 
 2955000   0.96092543 5.8491183e-05   0.52596582  0.016210521            0    0.5097553    1.4233708    1.9493366    4.9440852 
 2960000   0.87285006 4.7044929e-05   0.66885372  0.054785305            0   0.61406842    1.2929091    1.9617629    4.3704632 
 2965000   0.95412743 5.7568335e-06   0.52789153  0.068103498            0   0.45978803    1.4133012    1.9411928    2.2359427 
 2970000   0.97081364 7.0230117e-05   0.47833981  0.019677601            0   0.45866221    1.4380177    1.9163575    5.5121395 
 2975000    1.0196328 -5.8293633e-05   0.41288647  0.013589068            0    0.3992974     1.510331    1.9232175   -1.0614165 
 2980000   0.95879766 -3.3228736e-05   0.50060018 0.0080681111            0   0.49253206     1.420219    1.9208192   0.21950795 
 2985000   0.89002987 9.4762766e-05   0.56868655  0.010588172            0   0.55809838    1.3183567    1.8870433    6.7388969 
 2990000   0.94044389 -3.7990286e-06   0.50049085  0.015947334            0   0.48454352    1.3930325    1.8935234    1.6990131 
 2995000   0.86356747 -1.4612085e-05   0.60526102  0.053314722            0    0.5519463    1.2791593    1.8844203    1.1362816 
 3000000   0.93769186 4.3885013e-05   0.49200966  0.040979829            0   0.45102983    1.3889561    1.8809657    4.1278784 
 3005000   0.97181948 4.6906455e-05   0.43272949 0.0086057405            0   0.42412375    1.4395076    1.8722371    4.2738476 
 3010000   0.91382876 -1.7933302e-05   0.52039542 4.9661924e-06            0   0.52039046    1.3536089    1.8740043   0.95581919 
 3015000   0.86056351 -7.3563151e-05   0.58299205 0.0002850832            0   0.58270697    1.2747097    1.8577017   -1.9087316 
 3020000   0.91142736 0.00014828555   0.51024886 0.0039893182            0   0.50625954    1.3500518    1.8603006    9.4525208 
 3025000   0.88311265 4.7476177e-05   0.53193851  0.010974653            0   0.52096386    1.3081106    1.8400491    4.2708294 
 3030000   0.95959859 -2.3775931e-05   0.41806968 0.0049495644            0   0.41312011    1.4214054    1.8394751   0.62214743 
 3035000    0.9149758 0.0001389096   0.49435814 0.0042531871            0   0.49010495    1.3553079     1.849666    8.9618373 
 3040000   0.92118433 -0.0001186651   0.49449239  0.013162441            0   0.48132994    1.3645043    1.8589967   -4.2166563 
 3045000   0.99328695 -0.0001504838   0.40987814  0.018205205            0   0.39167293    1.4713063    1.8811844   -5.8235863 
 3050000   0.87695185 -5.8533597e-05   0.60445423  0.020476335            0   0.58397789    1.2989849    1.9034391    -1.093481 
 3055000   0.94783349 -6.5533844e-06   0.50945985 0.0054709529            0    0.5039889    1.4039784    1.9134382    1.5779049 
 3060000   0.93396603 -1.4114822e-06   0.54873545 0.0042554945            0   0.54447995    1.3834372    1.9321726    1.8599047 
 3065000   0.92871213 3.5759407e-05   0.56279249  0.012227036            0   0.55056545    1.3756548    1.9384473     3.769329 
 3070000   0.99845308 -4.3723966e-06   0.45929971  0.018948348            0   0.44035136    1.4789586    1.9382583    1.7143916 
 3075000   0.89326757 -6.539477e-05   0.60571915  0.011535507            0   0.59418364    1.3231526    1.9288717   -1.4193405 
 3080000    0.9652697 3.5137985e-05   0.49938563  0.011817191            0   0.48756844    1.4298057    1.9291914    3.7282562 
 3085000   0.92820776 2.5278565e-05   0.53964514 0.0056177562            0   0.53402738    1.3749077    1.9145529    3.2088154 
 3090000   0.87675113 -5.1803608e-05   0.63124784 0.0066848871            0   0.62456295    1.2986876    1.9299355   -0.7224093 
 3095000   0.90695186 -4.0507375e-05   0.59277362  0.062978256            0   0.52979537    1.3434224    1.9361961   -0.1377815 
 3100000   0.86802192 -7.7013602e-05   0.63294507  0.061698835            0   0.57124623    1.2857575    1.9187025   -2.0243939 
 3105000   0.90125328 -2.7402705e-05   0.57343431  0.080913457            0   0.49252086    1.3349814    1.9084157   0.50539721 
 3110000   0.87416485 0.00014748232   0.62230133  0.021088851            0   0.60121248    1.2948567     1.917158    9.4682526 
 3115000   0.88209235 0.00019004575   0.58474812 0.0085550043            0   0.57619312    1.3065993    1.8913474     11.62169 
 3120000   0.92215968 5.7640021e-05   0.53591592 0.0088219518            0   0.52709397     1.365949     1.901865     4.853034 
 3125000   0.91225405 -3.1515524e-06   0.55733132 0.0056288654            0   0.55170246    1.3512763    1.9086076    1.7472481 
 3130000   0.87725991 2.2975036e-06   0.57690116 0.0077037146            0   0.56919744    1.2994412    1.8763424    1.9939746 
 3135000   0.85704978 -6.2022592e-05   0.61277767  0.012319381            0   0.60045829     1.269505    1.8822827    -1.293274 
 3140000    0.8942538 1.620951e-05   0.58813066  0.004266149            0   0.58386451    1.3246134    1.9127441     2.742671 
 3145000   0.97911498 0.00010121079   0.46818681  0.011137979            0   0.45704883    1.4503141    1.9185009    7.1004933 
 3150000   0.87604326 -5.7084119e-05   0.57929549  0.055317322            0   0.52397817    1.2976391    1.8769346   -1.0457723 
 3155000   0.89874664 -3.8136642e-05    0.5426522   0.03618677            0   0.50646543    1.3312685    1.8739207 -0.078675411 
 3160000    0.8545861 9.5269881e-05   0.57257512  0.020388861            0   0.55218626    1.2658557    1.8384308    6.7162487 
 3165000   0.90314959 -9.9382412e-05   0.48092117  0.015925793            0   0.46499538    1.3377903    1.8187115    -3.269668 
 3170000   0.81158846 -9.5680702e-05   0.62839046  0.012396603            0   0.61599386    1.2021654    1.8305559   -3.0682961 
 3175000   0.91494744 6.4910022e-05   0.48950004 0.0048399039            0   0.48466013    1.3552659    1.8447659    5.1681591 
 3180000   0.87874403 -9.4548551e-05   0.55555408  0.021973657            0   0.53358042    1.3016396    1.8571937   -2.9836921 
 3185000    0.8740608 -0.00016097421    0.5571288  0.016610096            0    0.5405187    1.2947026    1.8518314   -6.3900481 
 3190000   0.95964639 2.8553229e-05    0.4500346 0.00099072907            0   0.44904387    1.4214762    1.8715108    3.3334361 
 3195000    0.8792652 7.4650501e-05    0.5582024 0.00036051267            0   0.55784189    1.3024116     1.860614    5.6827196 
 3200000   0.94026479 -3.0625682e-05   0.47065672  0.004157613            0   0.46649911    1.3927672    1.8634239   0.29538904 
 3205000   0.93127349 -8.1453133e-05   0.50033369  0.012622035            0   0.48771166    1.3794489    1.8797826   -2.2906178 
 3210000   0.88557943 2.213365e-05   0.57895123  0.030486347            0   0.54846489    1.3117645    1.8907158    3.0239586 
 3215000   0.91470008 6.9176603e-05   0.56064668  0.014880025            0   0.54576665    1.3548995    1.9155462    5.4573882 
 3220000   0.97525585 -2.1510176e-05   0.46435431 0.0020958674            0   0.46225844    1.4445977     1.908952     0.807631 
 3225000   0.93533732 6.6484801e-06   0.52252956 0.00036009363            0   0.52216946    1.3854684     1.907998    2.2484001 
 3230000   0.95019937 1.3878485e-05   0.50117972 0.00049150722            0   0.50068821    1.4074828    1.9086625     2.619241 
 3235000   0.91758838 4.2802179e-05   0.54565838 0.00092633613            0   0.54473205    1.3591778    1.9048362    4.0963077 
 3240000    0.8642951 3.207933e-06   0.62988729 0.0011279676            0   0.62875933    1.2802371    1.9101244    2.0743706 
 3245000    0.9752888 -6.808964e-05   0.46684754 0.0029720914            0   0.46387545    1.4446465    1.9114941   -1.5746955 
 3250000   0.96590349 1.2257104e-05   0.48134653  0.011849588            0   0.46949694    1.4307446    1.9120911    2.5396548 
 3255000   0.85000855 2.9306947e-05   0.64033455   0.01442677            0   0.62590778    1.2590752    1.8994097    3.3999254 
 3260000   0.86647734 9.1798808e-05    0.6167011   0.02275289            0   0.59394821    1.2834696    1.9001707    6.6002696 
 3265000    1.0236297 -3.5995763e-05   0.38630528 0.0098632223            0   0.37644206    1.5162515    1.9025568  0.059573716 
 3270000   0.91857302 2.0966004e-05   0.54790416  0.001839761            0    0.5460644    1.3606363    1.9085404    2.9819998 
 3275000   0.92434167 7.4310459e-06   0.52931815 0.0058762341            0   0.52344191    1.3691811    1.8984993    2.2789688 
 3280000   0.89985416 -5.4253432e-05   0.55417497  0.010020053            0   0.54415492     1.332909    1.8870839  -0.89069175 
 3285000   0.92445483 -0.00012677651   0.52774524  0.010712418            0   0.51703282    1.3693487     1.897094   -4.5938633 
 3290000   0.83487406 -0.00018175419   0.64932738   0.01438438            0     0.634943    1.2366572    1.8859846   -7.4198301 
 3295000    0.8525277 6.6209458e-05   0.60641845 0.0040866127            0   0.60233184    1.2628067    1.8692251    5.2591494 
 3300000   0.91550563 0.00013292189   0.55419293 0.0053079039            0   0.54888502    1.3560927    1.9102856    8.7158866 
 3305000   0.93685634 0.00012855225   0.52769659   0.01383686            0   0.51385973    1.3877185     1.915415      8.49729 
 3310000   0.89494531 0.00010398085   0.58011556 0.0075294793            0   0.57258608    1.3256377    1.9057533    7.2295729 
 3315000   0.99177319 -8.1502308e-05   0.46331144  0.023734373            0   0.43957707     1.469064    1.9323755   -2.2405427 
 3320000   0.94802687 -0.00013726471   0.52847516  0.022205132            0   0.50627003    1.4042648      1.93274   -5.0952133 
 3325000    0.9458607 -1.8598485e-05   0.53786413 0.0016666197            0   0.53619751    1.4010562    1.9389203   0.98667784 
 3330000   0.99654341 -4.0300221e-05   0.45293908            0            0   0.45293908    1.4761299     1.929069   -0.1343023 
 3335000   0.83830718 -3.2776919e-05   0.69472266 0.00050541075            0   0.69421725    1.2417425    1.9364652    0.2582869 
 3340000   0.87264378 0.0001329004    0.6374283 0.0044010041            0    0.6330273    1.2926036    1.9300319    8.7345324 
 3345000   0.97453043 6.2072581e-05   0.50644142     0.057833            0   0.44860842    1.4435232    1.9499646    5.1280808 
 3350000   0.92793388 -3.9369396e-05   0.59457387  0.033019434            0   0.56155444    1.3745021    1.9690759 -0.046637133 
 3355000   0.88707097 0.0001137635   0.65346956  0.013919942            0   0.63954962    1.3139739    1.9674434    7.7921348 
 3360000   0.92783049 -5.4526529e-05   0.57099286  0.011620111            0   0.55937275    1.3743489    1.9453418   -0.8464165 
 3365000   0.88980432 -7.0557804e-05   0.62065642 0.0058315011            0   0.61482492    1.3180227    1.9386791   -1.6738805 
 3370000   0.94986194 0.00010124461   0.49888919  0.015398491            0    0.4834907     1.406983    1.9058722     7.089596 
 3375000   0.91022468 8.6252018e-06   0.57112962  0.018645669            0   0.55248395    1.3482703    1.9193999    2.3610103 
 3380000   0.87848286 -5.6939045e-05   0.62748813  0.014005604            0   0.61348253    1.3012527    1.9287409  -0.98653824 
 3385000   0.96735276 -6.9312567e-05   0.50226098  0.012881286            0   0.48937969    1.4328913    1.9351523   -1.6136512 
 3390000   0.88040378 6.4294681e-05   0.64106688  0.011985796            0   0.62908108    1.3040981     1.945165    5.2370526 
 3395000   0.91635772 7.3555772e-05   0.58399588    0.0140923            0   0.56990358    1.3573549    1.9413507    5.7074063 
 3400000    0.8389911 0.00011272164     0.705015 0.0035303518            0   0.70148465    1.2427556    1.9477706    7.7191184 
 3405000    0.9567856 0.00010577526   0.52898257  0.015658025            0   0.51332454    1.4172387    1.9462212    7.3619145 
 3410000   0.87092738 1.127287e-05   0.63154023  0.027291982            0   0.60424825    1.2900612    1.9216014    2.4987723 
 3415000   0.93201931 -6.5341379e-06   0.54957555  0.017184172            0   0.53239138    1.3805536    1.9301291    1.5955813 
 3420000   0.97623872 8.4164569e-05   0.51238712  0.006346873            0   0.50604025    1.4460536    1.9584407    6.2676666 
 3425000    0.8726465 0.00011527489   0.64824821  0.016994388            0   0.63125382    1.2926076    1.9408558    7.8429304 
 3430000   0.91834945 7.6726643e-05   0.58099191  0.053340198            0   0.52765171    1.3603051     1.941297    5.8697012 
 3435000   0.91261881 0.00013135959   0.57862691  0.016910591            0   0.56171632    1.3518166    1.9304435    8.6560547 
 3440000   0.84204022 6.476128e-05   0.69698771  0.014369467            0   0.68261824    1.2472721    1.9442598    5.2600373 
 3445000   0.94615719 3.1998219e-05   0.54933426 0.0098154874            0   0.53951878    1.4014953    1.9508296    3.5891384 
 3450000   0.97118564 7.5601335e-05   0.50084624 0.0080237466            0    0.4928225    1.4385687     1.939415    5.8102033 
 3455000   0.82063882 -6.9410075e-05   0.73212813  0.016383621            0   0.71574451    1.2155712    1.9476994   -1.6060965 
 3460000   0.86703094 -0.00012589424   0.66809104   0.01517028            0   0.65292076    1.2842896    1.9523806   -4.4934043 
 3465000   0.91320107 -3.7086828e-05   0.60807947 0.0024081144            0   0.60567136    1.3526791    1.9607586  0.061912974 
 3470000   0.94442208 -4.6928313e-05   0.56718182 0.0030168521            0   0.56416497    1.3989252     1.966107  -0.43662259 
 3475000   0.91552327 -9.8149052e-05    0.6387803  0.024354942            0   0.61442536    1.3561188    1.9948991   -3.0303323 
 3480000    0.9454524 -5.1570302e-05   0.60069575  0.031249996            0   0.56944575    1.4004514    2.0011471  -0.63925232 
 3485000   0.89926299 -2.2042086e-05    0.6680247  0.032744476            0   0.63528023    1.3320333     2.000058   0.87150322 
 3490000     1.020198 -0.00013057686   0.50925325  0.020802887            0   0.48845037    1.5111684    2.0204216   -4.6651139 
 3495000   0.90096775 -8.0235459e-05   0.65337727  0.015990939            0   0.63738633    1.3345585    1.9879358   -2.1201197 
 3500000   0.89400095 -4.565473e-05    0.6510529  0.031328485            0   0.61972441    1.3242389    1.9752918  -0.36223038 
 3505000   0.94748332 -5.7375592e-05   0.59441573  0.064675646            0   0.52974008    1.4034597    1.9978754  -0.93975491 
 3510000   0.94884923 1.8542366e-05     0.575389  0.011239949            0   0.56414905    1.4054829    1.9808719    2.9302411 
 3515000    0.9464023 7.2797696e-05   0.57554185  0.016589777            0   0.55895208    1.4018584    1.9774003    5.7046423 
 3520000   0.94257515 3.3311764e-05   0.58207629 0.0089987517            0   0.57307754    1.3961894    1.9782657     3.683828 
 3525000    0.9719609 -3.2839382e-05   0.52024631  0.017525871            0   0.50272044    1.4397171    1.9599634   0.27858706 
 3530000   0.99244697 -4.6210826e-05   0.51471712  0.018267886            0   0.49644923    1.4700621    1.9847792  -0.38121508 
 3535000   0.93942678 2.3182502e-05   0.59635984 0.0061477038            0   0.59021213    1.3915259    1.9878858    3.1748299 
 3540000   0.99111205 -4.6742012e-05   0.55070544  0.011051742            0    0.5396537    1.4680847    2.0187902  -0.37440086 
 3545000   0.97483148 -9.083539e-05   0.56883926  0.058960378            0   0.50987888    1.4439691    2.0128084   -2.6379636 
 3550000   0.93557357 -0.00010027156   0.63567407  0.010463234            0   0.62521084    1.3858184    2.0214924   -3.1124113 
 3555000    1.0700929 -2.1598147e-05   0.44221957 0.0016812623            0    0.4405383    1.5850751    2.0272946   0.92146949 
 3560000   0.98391183 4.5582262e-05   0.59804782  0.006609262            0   0.59143855    1.4574194    2.0554672     4.389279 
 3565000    1.0020884 9.102973e-05   0.58021868  0.017019698            0   0.56319899    1.4843435    2.0645621    6.7252843 
 3570000    1.0244917 4.948265e-05   0.53341155  0.038865553            0   0.49454599    1.5175283    2.0509399    4.5844516 
 3575000   0.96928741 -9.2106744e-05   0.61103092  0.042946081            0   0.56808484     1.435757    2.0467879   -2.6690774 
 3580000   0.93425633 1.8514829e-06   0.63142102  0.045068607            0   0.58635241    1.3838672    2.0152882    2.1100841 
 3585000    0.9725214 6.4938281e-06    0.5815011  0.016484681            0   0.56501642    1.4405473    2.0220484    2.3545324 
 3590000    1.0076136 -9.4275346e-05   0.53399355  0.001831988            0   0.53216156    1.4925276    2.0265211   -2.8003766 
 3595000   0.97495533 -0.00011257133   0.55529783 0.0031437039            0   0.55215413    1.4441526    1.9994504   -3.7642019 
 3600000   0.94621413 -0.00019777094   0.58833794 0.0067929698            0   0.58154497    1.4015797    1.9899176   -8.1359544 
 3605000   0.99180436 -4.7530244e-05   0.53931835 0.0043576404            0   0.53496071    1.4691102    2.0084286  -0.42511992 
 3610000   0.99377315 0.00013677386   0.53610807  0.026158804            0   0.50994927    1.4720265    2.0081345     9.010956 
 3615000    1.0273242 6.8947521e-05    0.5041188  0.021839217            0   0.48227959     1.521724    2.0258428    5.5559559 
 3620000   0.98551787  0.000147044   0.54394997  0.025460124            0   0.51848984    1.4597983    2.0037483    9.5324013 
 3625000   0.98880422 9.4570672e-05   0.55004486  0.020157364            0   0.52988749    1.4646663    2.0147111    6.8567295 
 3630000    1.0252194 -0.00010252546   0.48286285   0.01057987            0   0.47228298    1.5186063    2.0014691   -3.2478346 
 3635000   0.91412916 -0.00021355995   0.64815743  0.022884465            0   0.62527296    1.3540538    2.0022113   -8.9320584 
 3640000   0.92874329 1.2176038e-05   0.61962625  0.013416043            0   0.60621021     1.375701    1.9953272    2.6187404 
 3645000    1.0362176 8.8571951e-05   0.46921845  0.014017235            0   0.45520122    1.5348973    2.0041158    6.5389997 
 3650000   0.91174902 5.3505756e-05   0.63933077   0.02439011            0   0.61494066    1.3505282     1.989859    4.7293537 
 3655000    1.0043386 2.6887829e-05   0.51764396  0.023712348            0   0.49393161    1.4876766    2.0053205    3.3819774 
 3660000    1.0157591 8.6632078e-05   0.50526344  0.017729567            0   0.48753387    1.5045932    2.0098567     6.445419 
 3665000    0.9487528 3.9916891e-06   0.61287856  0.022452745            0   0.59042581    1.4053401    2.0182186    2.2225931 
 3670000    0.9402803 2.5009381e-05   0.64741878  0.015161085            0   0.63225769    1.3927902     2.040209    3.3206893 
 3675000    1.0418011 -3.992129e-05   0.45480994 0.0097788835            0   0.44503106    1.5431679    1.9979779 -0.045992157 
 3680000   0.91615937 -0.00011358205   0.66662532  0.007341018            0    0.6592843    1.3570611    2.0236864   -3.7917146 
 3685000   0.95283627 -2.9202194e-05   0.61515959  0.020013739            0   0.59514585    1.4113887    2.0265483   0.53139597 
 3690000   0.94767366 0.00018224598   0.60783389  0.061870764            0   0.54596313    1.4037416    2.0115755     11.34257 
 3695000   0.96657777 2.5977434e-05   0.61004238 0.0056601464            0   0.60438223    1.4317433    2.0417857    3.3718303 
 3700000    1.0204859 -6.6384853e-05   0.50668483 0.0038649974            0   0.50281983    1.5115948    2.0182796   -1.3806248 
 3705000   0.94499179 -2.7850445e-05   0.63360135 0.0059718975            0   0.62762945    1.3997691    2.0333704   0.60742767 
 3710000    1.0122227 -6.8750375e-05   0.55772324 0.0042555204            0   0.55346772    1.4993549    2.0570782    -1.462941 
 3715000     1.008347 6.408874e-06   0.55881984  0.017490169            0   0.54132968    1.4936139    2.0524338    2.3805681 
 3720000   0.99630995 7.2993679e-06   0.59009497  0.028643122            0   0.56145185    1.4757841    2.0658791    2.4396067 
 3725000    1.0541729 -4.2269533e-05   0.48536472  0.018497176            0   0.46686754    1.5614936    2.0468584  -0.11734171 
 3730000   0.94243063 5.9362845e-05   0.63428654  0.046044067            0   0.58824247    1.3959754    2.0302619    5.0696396 
 3735000   0.92138812 -2.4196459e-05   0.63305783  0.015412887            0   0.61764494    1.3648061     1.997864   0.75900528 
 3740000   0.95904221 5.9796369e-05   0.56615819   0.02811963            0   0.53803856    1.4205813    1.9867395    5.0483135 
 3745000    1.0642759 0.00016012737    0.3959738  0.012193761            0   0.38378004    1.5764587    1.9724325    10.170954 
 3750000    0.9722196 9.9127299e-05   0.53687801   0.03154393            0   0.50533408    1.4401003    1.9769783     7.052296 
 3755000   0.90952538 2.5346841e-05   0.65311775  0.044723594            0   0.60839416    1.3472345    2.0003522    3.2981105 
 3760000   0.87798865 -2.8965135e-05   0.71490272  0.035686639            0   0.67921608    1.3005207    2.0154234   0.53240849 
 3765000   0.97118069 1.0315333e-05   0.58962733  0.025271786            0   0.56435555    1.4385614    2.0281887    2.5563338 
 3770000    1.0061915 -3.5553901e-05   0.57082864   0.01907119            0   0.55175745    1.4904212    2.0612498   0.24089005 
 3775000    1.0015949 -4.7040552e-05   0.56426799  0.037919509            0   0.52634848    1.4836124    2.0478804  -0.36059588 
 3780000   0.84937601 -4.8513968e-05   0.75011385  0.056783168            0   0.69333068    1.2581382    2.0082521  -0.47566308 
 3785000   0.95428264 -2.1820711e-05   0.59492722  0.019208499            0   0.57571872    1.4135312    2.0084584   0.89123799 
 3790000   0.98037778 3.0327197e-05   0.53918892 0.0053172398            0   0.53387168    1.4521846    1.9913735     3.544126 
 3795000   0.98429824 8.2328304e-05   0.53444373   0.01862922            0   0.51581451    1.4579918    1.9924355    6.2076447 
 3800000   0.99098282 1.6635047e-05    0.5182825  0.030109789            0   0.48817272    1.4678933    1.9861758    2.8378902 
 3805000   0.99417937 -1.2230083e-05   0.49920705  0.023469282            0   0.47573777    1.4726282    1.9718352     1.345655 
 3810000   0.97108373 5.5522458e-05    0.5322407  0.034793097            0   0.49744761    1.4384178    1.9706585    4.8134083 
 3815000   0.96749964 3.6368218e-05   0.51155637  0.036020415            0   0.47553595    1.4331088    1.9446652     3.806718 
 3820000   0.94395905 8.2913758e-06   0.54043563  0.017786318            0   0.52264931    1.3982393     1.938675    2.3631934 
 3825000   0.89819715 -3.828999e-05   0.60239611  0.022272515            0   0.58012359    1.3304545    1.9328506 -0.027596859 
 3830000   0.92986019 -2.7951211e-05    0.5494592  0.016983347            0   0.53247585    1.3773554    1.9268146   0.49571259 
 3835000    0.9632186 4.507612e-05   0.47652779 0.0058370634            0   0.47069073    1.4267676    1.9032953    4.2111927 
 3840000   0.97421073 0.00012126027   0.47187129  0.021119861            0   0.45075143    1.4430496    1.9149209    8.1234469 
 3845000   0.87271762 9.432615e-05   0.61683358  0.025129499            0   0.59170408     1.292713    1.9095466    6.7390454 
 3850000   0.93939414 9.8972551e-05   0.54867955  0.026257285            0   0.52242226    1.3914776    1.9401571    7.0075517 
 3855000   0.96805747 9.6223366e-05   0.52940869  0.026065352            0   0.50334334    1.4339351    1.9633438    6.8899802 
 3860000   0.98312909 0.00012847543    0.5168312 0.0085236812            0   0.50830752      1.45626    1.9730912    8.5510331 
 3865000   0.99868393 -7.4056301e-05   0.46512686  0.018835298            0   0.44629156    1.4793006    1.9444274   -1.8472552 
 3870000   0.86465898 -0.00020282413   0.65146344  0.040756125            0   0.61070732    1.2807761    1.9322396   -8.4523559 
 3875000   0.92663687 -0.0001020725   0.54948494  0.024225906            0   0.52525904    1.3725809    1.9220658   -3.3040464 
 3880000   0.97924041 -6.9133135e-05   0.48971192 0.0071770499            0   0.48253487    1.4504999    1.9402118   -1.5994047 
 3885000   0.83299748 -2.0745213e-05   0.72000821  0.064745221            0   0.65526299    1.2338775    1.9538857   0.89173081 
 3890000    0.9007936 -3.9578545e-06   0.59701233   0.02897581            0   0.56803652    1.3343005    1.9313129    1.7286707 
 3895000   0.87741551 8.0263838e-05   0.63116435  0.014011535            0   0.61715282    1.2996717    1.9308361    6.0403446 
 3900000   0.86998686 -1.3823234e-05   0.62253782 0.0030748553            0   0.61946296     1.288668    1.9112059    1.2034563 
 3905000    0.9160035 -1.8974121e-06   0.56881499 0.0011062591            0   0.56770873    1.3568302    1.9256452    1.8284977 
 3910000   0.90213664 1.2106703e-05   0.62517895  0.036997412            0   0.58818154    1.3362899    1.9614688     2.581332 
 3915000   0.87781418 4.9267826e-05   0.66847677   0.03308132            0   0.63539545    1.3002623     1.968739    4.4912517 
 3920000    0.9578694 -1.4464763e-05   0.53000253  0.013574901            0   0.51642763    1.4188441    1.9488466    1.2082507 
 3925000   0.88795236 -0.00013731657   0.61748344  0.020739188            0   0.59674425    1.3152794    1.9327629   -5.0978457 
 3930000    0.8183857 -9.656811e-05   0.75028224 0.0065224306            0    0.7437598    1.2122338     1.962516   -2.9817712 
 3935000   0.96403094 -2.0706225e-05   0.50084675  0.013636474            0   0.48721028    1.4279708    1.9288176   0.86865887 
 3940000   0.89549952 5.7309352e-05   0.60855391  0.018405318            0    0.5901486    1.3264587    1.9350126    4.8692514 
 3945000   0.91626283 -3.8310822e-05   0.61045259  0.020325371            0   0.59012722    1.3572143    1.9676669 0.0061528245 
 3950000   0.83656784 -3.2040662e-05   0.71918557  0.031938562            0   0.68724701    1.2391661    1.9583517   0.31786981 
 3955000   0.90583254 -0.0001471922   0.64184374  0.026538155            0   0.61530558    1.3417645    1.9836082   -5.5526324 
 3960000   0.97182822 -5.3296264e-05   0.58311196  0.018488501            0   0.56462346    1.4395206    2.0226325  -0.70613619 
 3965000    1.0137664 5.5841654e-05   0.51873036  0.019116327            0   0.49961404    1.5016415    2.0203719    4.8794645 
 3970000   0.96855436 0.0001196312   0.63445853  0.013061259            0   0.62139727    1.4346711    2.0691297    8.1942473 
 3975000    0.8561106 0.00010223075   0.79478801  0.042739179            0   0.75204883    1.2681138    2.0629018    7.2971165 
 3980000   0.95062433 0.00016082459     0.652198  0.050266139            0   0.60193186    1.4081123    2.0603103    10.294529 
 3985000   0.94601362 0.00013774013   0.65082898 0.0079800945            0   0.64284888    1.4012827    2.0521117    9.1044061 
 3990000   0.92047407 -6.7593492e-05   0.68908975 0.0078842951            0   0.68120546    1.3634522     2.052542   -1.4082448 
 3995000   0.90301433 1.9663076e-05   0.70681945  0.014085849            0    0.6927336      1.33759    2.0444094    3.0511589 
 4000000   0.93624642 8.2597106e-05   0.66287381  0.027195151            0   0.63567866     1.386815    2.0496888    6.2786606 
 4005000   0.81494699 -1.34046e-05   0.81444604     0.030059            0   0.78438704    1.2071402    2.0215863    1.3352707 
 4010000     0.969668 -5.2766367e-05    0.5842079 0.00049514565            0   0.58371275    1.4363207    2.0205286  -0.68110937 
 4015000     1.031796 -4.0885489e-05   0.50561859 0.00048679156            0    0.5051318    1.5283478    2.0339664 -0.059370638 
 4020000   0.89186189 -1.4098895e-05   0.71498415 0.0045727626            0   0.71041139    1.3210704    2.0360546    1.3141911 
 4025000   0.99384777 -8.8034818e-05    0.5684179  0.019398684            0   0.54901921     1.472137    2.0405549   -2.4668277 
 4030000   0.94118993 -5.6150443e-06   0.60205246  0.013851385            0   0.58820107    1.3941376      1.99619    1.7086998 
 4035000   0.89059832 -6.2014573e-05   0.70129177 0.0051940856            0   0.69609768    1.3191988    2.0204905   -1.1546556 
 4040000    1.0073667 -4.6473113e-05   0.51465103  0.032787674            0   0.48186335    1.4921619    2.0068129  -0.37261045 
 4045000   0.91735251 6.0388882e-05   0.63331598  0.023141845            0   0.61017414    1.3588284    1.9921444    5.0840551 
 4050000   0.95992786 0.00010432444    0.5600349  0.021180616            0   0.53885428    1.4218931     1.981928    7.3233394 
 4055000   0.90187351 -1.424581e-05   0.62022484  0.012610147            0    0.6076147    1.3359001     1.956125    1.2267395 
 4060000   0.86447069 -0.00013234668   0.67584271  0.026572042            0   0.64927067    1.2804972    1.9563399   -4.8198103 
 4065000   0.86472463 -4.1470025e-05   0.69120703  0.037398969            0   0.65380807    1.2808734    1.9720804  -0.15118488 
 4070000    0.9406836 0.00010409634   0.57573792 0.0078361596            0   0.56790176    1.3933876    1.9691255     7.298858 
 4075000   0.95120455 -1.293503e-05   0.55343304 0.0060352047            0   0.54739784    1.4089717    1.9624048    1.3001313 
 4080000   0.86504778 -3.6727035e-05   0.70049797  0.019039854            0   0.68145812     1.281352      1.98185   0.10142583 
 4085000   0.90937743 0.00010956255   0.64959695  0.026804493            0   0.62279245    1.3470153    1.9966123    7.6062146 
 4090000   0.90717178 5.8221578e-05   0.63678253  0.029407581            0   0.60737495    1.3437482    1.9805307    4.9614755 
 4095000   0.89416959 2.1277768e-05   0.64718769  0.013107837            0   0.63407986    1.3244887    1.9716764    3.0610981 
 4100000   0.92523003 -1.5733303e-05   0.60392811  0.004488976            0   0.59943914     1.370497    1.9744251      1.16888 
 4105000   0.95300692 -7.4182702e-05   0.53114137 0.0036901517            0   0.52745122    1.4116415    1.9427829   -1.8553715 
 4110000   0.93118692 -7.1727797e-05   0.56424176 0.0038459721            0   0.56039579    1.3793206    1.9435624   -1.7289008 
 4115000   0.93776625 3.8965381e-06    0.5386077   0.02253829            0   0.51606941    1.3890663    1.9276739    2.1271767 
 4120000   0.96428348 -0.00013000037   0.51750276  0.020400129            0   0.49710263    1.4283449    1.9458477    -4.710171 
 4125000   0.94902008 -0.00012620511   0.54789596 0.00079373737            0   0.54710223     1.405736     1.953632   -4.5080697 
 4130000   0.97903195 -6.2909286e-05   0.53260358 0.0027650549            0   0.52983853    1.4501911    1.9827947   -1.2381608 
 4135000   0.95810239 -4.9810846e-05   0.57398109  0.018224614            0   0.55575648    1.4191892    1.9931703  -0.55714505 
 4140000   0.88672745 -2.0546206e-05    0.6355819  0.025655193            0   0.60992671     1.313465    1.9490469   0.89708119 
 4145000   0.86029358 -9.0442314e-05   0.67192008   0.01069308            0     0.661227    1.2743099    1.9462299   -2.6844166 
 4150000   0.88163183 -3.9830333e-05   0.65125925 0.0050877662            0   0.64617148    1.3059172    1.9571764 -0.082136651 
 4155000   0.95713639 -3.5011953e-05    0.5327348 0.0069097203            0   0.52582508    1.4177583    1.9504931   0.15788108 
 4160000    0.8827084 -1.8649717e-05   0.62223341 0.0085337505            0   0.61369966    1.3075118    1.9297452   0.97487973 
 4165000   0.82784228 7.6788322e-05   0.67540943  0.042946778            0   0.63246265    1.2262414    1.9016508    5.8332129 
 4170000   0.90135464 -7.849698e-06   0.58441292  0.053130189            0   0.53128273    1.3351316    1.9195445    1.5176399 
 4175000   0.87411198 -7.1480707e-05   0.60915067  0.054369219            0   0.55478146    1.2947784     1.903929   -1.7558831 
 4180000   0.96264724 -9.3042745e-05   0.50458874  0.018502032            0   0.48608671    1.4259212      1.93051   -2.8332786 
 4185000   0.93383319 -5.8836829e-05   0.54579536 0.0021415791            0   0.54365378    1.3832404    1.9290358   -1.0834099 
 4190000   0.98755396 9.1923923e-05   0.44691862 0.00086095778            0   0.44605766    1.4628143    1.9097329    6.6162378 
 4195000   0.98097758 -4.9169517e-06    0.4431907 0.0043510901            0   0.43883961     1.453073    1.8962637    1.6445158 
 4200000   0.96001364 -9.5715327e-05   0.47056952  0.009777706            0   0.46079181    1.4220202    1.8925897    -3.008035 
 4205000   0.88768078 -5.7957285e-05   0.58698274 0.0092380169            0   0.57774472    1.3148772    1.9018599   -1.0655531 
 4210000    0.9435436 3.7459396e-05   0.47258132  0.011712856            0   0.46086846     1.397624    1.8702053    3.7881264 
 4215000   0.89664296 0.00011039487   0.55563377  0.022694093            0   0.53293968    1.3281524    1.8837862    7.5360034 
 4220000    0.8656516 6.6683391e-05   0.58001721  0.024347397            0   0.55566982    1.2822464    1.8622637    5.2764533 
 4225000   0.91698963 -5.0771799e-05   0.50191151 0.0096940498            0   0.49221746    1.3582909    1.8602024  -0.73931368 
 4230000   0.84898725 -9.8397092e-05   0.57981471  0.005993875            0   0.57382083    1.2575624    1.8373771   -3.2005541 
 4235000   0.89456774 -5.5736804e-05   0.49128173 0.0097387322            0     0.481543    1.3250785    1.8163602   -1.0373642 
 4240000   0.81802726 8.4240641e-05   0.61257311  0.011939642            0   0.60063347    1.2117029     1.824276    6.1373968 
 4245000   0.91136586 2.9249063e-05   0.48819427  0.065243462            0   0.42295081    1.3499607    1.8381549     3.335707 
 4250000   0.78399709 -0.00016638359   0.71830654  0.037620247            0   0.68068629    1.1612957    1.8796022   -6.6392373 
 4255000    0.8954799 2.1116113e-05   0.52335813  0.019768064            0   0.50359007    1.3264296    1.8497877    2.9309327 
 4260000   0.95044775 1.7527059e-05   0.43166987  0.021855789            0   0.40981409    1.4078507    1.8395206     2.736906 
 4265000   0.79586721 -3.2975472e-05   0.65112722  0.021512065            0   0.62961516    1.1788783    1.8300055   0.14166135 
 4270000   0.93180509 -3.6210597e-05   0.45705807 0.0034976596            0   0.45356041    1.3802363    1.8372944 -0.016688219 
 4275000   0.84398869 3.1040026e-05   0.59414434 0.0071213625            0   0.58702298    1.2501582    1.8443026    3.4335519 
 4280000    1.0133854 -3.3372613e-05   0.35299351 0.0095361654            0   0.34345735    1.5010772    1.8540707   0.14539292 
 4285000    0.8316494 -0.00011847883   0.62607095 0.0098023474            0   0.61626861    1.2318807    1.8579516   -4.2081646 
 4290000   0.90863101 -3.4824926e-05   0.50690129  0.039600468            0   0.46730082    1.3459097     1.852811  0.069774757 
 4295000   0.85585352 1.6507572e-05    0.5577186  0.039774611            0   0.51794399     1.267733    1.8254516    2.6706393 
 4300000   0.90560099 2.2541137e-05   0.48360812  0.038373806            0   0.44523431    1.3414215    1.8250296    2.9791358 
 4305000   0.83945097 5.9094668e-05   0.55592761  0.011313522            0   0.54461409    1.2434368    1.7993644    4.8250114 
 4310000   0.87053872 -9.1287561e-05   0.51047756  0.032546445            0   0.47793112    1.2894855     1.799963   -2.8739601 
 4315000   0.88113849 -7.6341066e-05   0.47615531  0.037933522            0   0.43822179    1.3051864    1.7813417   -2.1273209 
 4320000    0.8131327 9.2634359e-06   0.56548564  0.053425485            0   0.51206015    1.2044528    1.7699384    2.2442264 
 4325000   0.83859249 -0.00010400128   0.50706617   0.03107431            0   0.47599186    1.2421651    1.7492313   -3.5756343 
 4330000   0.87413251 -4.8036152e-05    0.4408105  0.024279856            0   0.41653064    1.2948088    1.7356193  -0.72383169 
 4335000   0.87802461 0.00010561593   0.43869275  0.010753225            0   0.42793952    1.3005739    1.7392667    7.1468021 
 4340000   0.86205442 7.4244894e-05   0.43356254 0.0025165773            0   0.43104596    1.2769181    1.7104806    5.5118192 
 4345000   0.85401163 5.1171284e-05   0.44191605 0.0042233147            0   0.43769274    1.2650047    1.7069208    4.3268905 
 4350000   0.86314148 -7.4444015e-05   0.44373435  0.010837972            0   0.43289638    1.2785283    1.7222627   -2.0892709 
 4355000   0.77191648 -9.0927859e-05   0.58640833  0.033437293            0   0.55297104    1.1434013    1.7298096   -2.9256967 
 4360000   0.78393133 -3.0237268e-05   0.55818041  0.036143346            0   0.52203706    1.1611983    1.7193787   0.17123055 
 4365000   0.93948061 -7.9944156e-05   0.35632511  0.010005184            0   0.34631993    1.3916057    1.7479308     -2.34521 
 4370000   0.77945963 -5.0632696e-05   0.57146671 0.0074395578            0   0.56402716    1.1545746    1.7260413  -0.86635274 
 4375000   0.81220607 3.2564283e-05   0.50553224  0.011423128            0   0.49410912    1.2030802    1.7086125    3.3759038 
 4380000   0.85442949 -1.2794337e-05   0.46315187    0.0234712            0   0.43968067    1.2656237    1.7287756    1.0737055 
 4385000   0.85902984 -7.4010983e-05   0.46867872  0.021935927            0   0.44674279    1.2724379    1.7411167   -2.0482457 
 4390000   0.79989524 -4.0976959e-05   0.53118332 0.0058920361            0   0.52529128    1.1848448    1.7160281  -0.38199216 
 4395000   0.85410986 4.5138329e-05   0.44928632 0.0094505677            0   0.43983575    1.2651502    1.7144365     4.025519 
 4400000   0.75636746 4.9388258e-05   0.60192181 0.0088690621            0   0.59305274    1.1203693    1.7222911    4.2509699 
 4405000   0.86745143 -3.0098454e-05   0.41349208 0.0041363796            0    0.4093557    1.2849124    1.6984045   0.15736364 
 4410000   0.83293966 -0.00019073985   0.45699439 0.0070348199            0   0.44995957    1.2337919    1.6907863   -8.0750942 
 4415000   0.76933976 -8.1153053e-05   0.58758413  0.021803684            0   0.56578044    1.1395845    1.7271687   -2.4278677 
 4420000   0.87400291 0.00012967507   0.45664941  0.016011343            0   0.44063807    1.2946168    1.7512662    8.3906298 
 4425000   0.86777129 -1.888623e-06   0.46013556 0.0040245724            0   0.45611099    1.2853862    1.7455218    1.6488243 
 4430000   0.87639789 -9.3511507e-05   0.48495867 0.0026217144            0   0.48233696    1.2981644     1.783123   -3.0046661 
 4435000   0.89866431 3.0026465e-05   0.47306184  0.015697467            0   0.45736438    1.3311465    1.8042083    3.3415634 
 4440000   0.90660569 1.3352772e-05   0.43836059  0.028506946            0   0.40985365    1.3429097    1.7812703    2.4649322 
 4445000   0.80844984 -3.8742315e-06   0.60334695  0.034527329            0   0.56881962    1.1975163    1.8008633    1.6025026 
 4450000   0.91772414 6.4874536e-05   0.47478008  0.031871351            0   0.44290873    1.3593789     1.834159    5.1557352 
 4455000   0.82518424 4.7974198e-06   0.62389971  0.038156762            0   0.58574295    1.2223042    1.8462039    2.0918318 
 4460000   0.92827367 1.8908427e-05   0.50614101  0.033786714            0   0.47235429    1.3750054    1.8811464    2.8492579 
 4465000   0.90952866 -3.5439629e-05   0.53643444  0.036282269            0   0.50015217    1.3472393    1.8836738  0.069164767 
 4470000   0.88836436 -5.3214409e-05   0.59451636  0.021863312            0   0.57265305    1.3158897    1.9104061  -0.81417169 
 4475000    1.0107695 4.1416642e-05   0.45127764 0.0011031658            0   0.45017447    1.4972023    1.9484799     4.069012 
 4480000   0.95333504 0.00010844554   0.55091749 0.0015584017            0   0.54935909    1.4121275     1.963045    7.5154565 
 4485000    1.0054897 0.00014524843   0.46166709 0.0070799403            0   0.45458715    1.4893817    1.9510488    9.3877683 
 4490000    1.0036304 6.7513332e-05   0.48571336 0.0070577059            0   0.47865565    1.4866276    1.9723409    5.4290235 
 4495000    1.0035932 -0.00011610268    0.4675904 0.0092329475            0   0.45835746    1.4865724    1.9541628   -3.9902943 
 4500000   0.90206471 -0.00015022345   0.62786975  0.013577272            0   0.61429248    1.3361834    1.9640531   -5.7273874 
 4505000   0.99999908 -6.9860936e-05   0.48541796  0.027264949            0   0.45815301    1.4812486    1.9666666   -1.6102133 
 4510000   0.95089812 -3.2613865e-05   0.58613314  0.030781835            0    0.5553513    1.4085178     1.994651   0.32482107 
 4515000   0.97058862 3.1491677e-06   0.55914958   0.04142218            0    0.5177274    1.4376844     1.996834    2.1580714 
 4520000    0.9991601 6.4098485e-05   0.52511683 0.0073575267            0    0.5177593    1.4800059    2.0051227    5.2869651 
 4525000    1.0326336 7.3941177e-05   0.48176841  0.027351948            0   0.45441646    1.5295886     2.011357    5.7971452 
 4530000    1.0117308 3.0269728e-05   0.53502023  0.054882765            0   0.48013747    1.4986262    2.0336465    3.5834566 
 4535000    1.0441203 5.6602406e-05   0.52022971  0.015633692            0   0.50459601    1.5466032    2.0668329    4.9648761 
 4540000    1.0176031 -7.2367343e-05   0.53520593  0.019521735            0    0.5156842    1.5073245    2.0425305   -1.6626775 
 4545000    1.0544156 4.0132614e-05   0.47925086  0.055401648            0   0.42384921    1.5618531    2.0411039    4.0958938 
 4550000   0.97405278 -3.7587886e-05   0.61691143   0.04000151            0   0.57690992    1.4428157    2.0597271   0.13522732 
 4555000    1.0672763 -4.049375e-06   0.47602259  0.011099276            0   0.46492331    1.5809031    2.0569256    1.8495976 
 4560000    1.0318896 4.0790569e-05   0.48420685  0.016531881            0   0.46767497    1.5284864    2.0126933    4.1011704 
 4565000   0.96332654 6.7621387e-05   0.59088091  0.049970567            0   0.54091035    1.4269274    2.0178084    5.4800233 
 4570000    0.9933724 6.2870538e-05   0.54044111 0.0071688535            0   0.53327226    1.4714329     2.011874    5.2308455 
 4575000    1.0762653 4.5634174e-05   0.39345476 0.0077762607            0    0.3856785     1.594218    1.9876728    4.3241425 
 4580000   0.96238081 -2.1683407e-05   0.57707524 0.0093183822            0   0.56775686    1.4255266    2.0026018    0.8924114 
 4585000   0.97123519 7.354519e-05   0.55033483  0.018932863            0   0.53140197    1.4386421     1.988977    5.7544907 
 4590000   0.93371715 7.8665709e-05   0.59070218  0.022106879            0    0.5685953    1.3830685    1.9737707     6.001455 
 4595000   0.94242223 -9.9487851e-06   0.57852927  0.018731895            0   0.55979737    1.3959629    1.9744922    1.4651144 
 4600000    1.0293259 7.2944278e-05   0.47240145  0.015817214            0   0.45658424     1.524689    1.9970904    5.7318375 
 4605000    1.0610065 3.2195969e-05   0.41149478 0.0066078033            0   0.40488697    1.5716159    1.9831107    3.6315443 
 4610000   0.94711919 -2.6147004e-05   0.56729315 0.0019880974            0   0.56530506    1.4029203    1.9702135   0.63148687 
 4615000   0.97796081 -6.1588098e-06   0.51069956 0.0060553965            0   0.50464417    1.4486044     1.959304    1.6439729 
 4620000   0.87495589 -4.3293782e-05   0.65021219  0.030047383            0   0.62016481    1.2960284    1.9462406  -0.27040101 
 4625000   0.96249581 -0.00013586897   0.56984946  0.013940217            0   0.55590924    1.4256969    1.9955464   -4.9609447 
 4630000    1.0116044 -4.6936166e-05   0.46625357 0.0027280788            0   0.46352549     1.498439    1.9646926  -0.43843912 
 4635000   0.95057135 2.7144795e-05   0.55747064  0.020489281            0   0.53698136    1.4080338    1.9655045     3.355318 
 4640000   0.92639874 -7.3271879e-05   0.56436738  0.024936493            0   0.53943089    1.3722281    1.9365955   -1.8149247 
 4645000    1.0037251 -2.3183252e-05   0.48956377  0.013798964            0   0.47576481    1.4867678    1.9763316   0.78934905 
 4650000    1.0235962 -2.6870537e-05   0.44490656  0.014373878            0   0.43053269    1.5162019    1.9611084   0.58533694 
 4655000   0.89638998 -0.00010037258   0.59804771  0.012777455            0   0.58527026    1.3277777    1.9258254   -3.2132509 
 4660000   0.89027679 2.923778e-05   0.61427263 0.0035586348            0   0.61071399    1.3187225    1.9329951    3.4299695 
 4665000   0.95057296 4.8135738e-05   0.52862755 0.0066892258            0   0.52193832    1.4080362    1.9366637    4.4012135 
 4670000   0.96871568 4.2558477e-06   0.51774848 0.0086745231            0   0.50907396    1.4349101    1.9526586     2.170558 
 4675000    1.0636257 9.6358794e-05   0.39142382  0.026723145            0   0.36470068    1.5754956    1.9669194    6.9004897 
 4680000   0.96850098 -3.8987115e-05   0.54220667  0.047126816            0   0.49507985    1.4345921    1.9767987 -0.019341542 
 4685000    0.9584703 -9.9375476e-05   0.54938795  0.032201136            0   0.51718682    1.4197341    1.9691221   -3.1189023 
 4690000   0.96701358 5.1852683e-05   0.51214863  0.036468452            0   0.47568017    1.4323889    1.9445375    4.5993949 
 4695000   0.94457938 6.4065326e-05   0.53162032  0.013543199            0   0.51807712    1.3991582    1.9307785    5.2109232 
 4700000   0.94804824 6.3558303e-05    0.5371429  0.025401194            0   0.51174171    1.4042964    1.9414394    5.1956245 
 4705000   0.94941527 7.6736358e-05    0.5492019  0.026501352            0   0.52270055    1.4063214    1.9555233    5.8844248 
 4710000   0.95153391 1.9207845e-05   0.55828054  0.043467371            0   0.51481317    1.4094596    1.9677401    2.9511818 
 4715000    1.0072086 -5.2204928e-05   0.46310315  0.040817402            0   0.42228575    1.4919278    1.9550309   -0.7178614 
 4720000   0.94586299 -4.4297368e-06   0.59326515  0.034461333            0   0.55880382    1.4010596    1.9943247    1.7675222 
 4725000   0.98947562 1.8856475e-05   0.51261759  0.034306099            0   0.47831149    1.4656608    1.9782784    2.9437299 
 4730000   0.90835253 4.2218065e-05   0.62351639  0.056848772            0   0.56666762    1.3454972    1.9690136    4.1305785 
 4735000   0.97729072 5.3231234e-05   0.50875805  0.024847742            0   0.48391031    1.4476119    1.9563699    4.6818091 
 4740000   0.94968672 2.4946197e-05   0.57387639  0.023696666            0   0.55017973    1.4067235    1.9805999    3.2578452 
 4745000   0.91228974 -2.983127e-05   0.63469743   0.02693985            0   0.60775758    1.3513292    1.9860266   0.45866558 
 4750000    1.0276304 1.1607975e-05   0.50594536  0.026728955            0    0.4792164    1.5221776    2.0281229    2.6224512 
 4755000    1.0011192 7.9057708e-05   0.57077131  0.020902077            0   0.54986923    1.4829079    2.0536792    6.1014338 
 4760000     1.000312 0.00014487616   0.56950164  0.018009963            0   0.55149168    1.4817121    2.0512137     9.468873 
 4765000    1.0678617 0.00012150491   0.41629184  0.022413651            0   0.39387819    1.5817701    1.9980619    8.2191135 
 4770000   0.95890831 0.00012872211   0.56516593  0.064568711            0   0.50059722    1.4203829    1.9855489     8.576121 
 4775000   0.95122323 8.6691392e-05   0.60190489  0.081879494            0    0.5200254    1.4089994    2.0109043    6.4495036 
 4780000   0.93552426 5.6348847e-06   0.59664357  0.038293023            0   0.55835054    1.3857453    1.9823889     2.270895 
 4785000   0.95667132 7.2603701e-05   0.56526874 0.0073933919            0   0.55787535    1.4170694    1.9823381    5.6996476 
 4790000   0.97196931 -4.9616258e-05   0.53264589 0.0052339895            0    0.5274119    1.4397295    1.9723754  -0.56797701 
 4795000   0.96112155 -0.00011765388   0.52679553  0.012119216            0   0.51467631    1.4236613    1.9504568   -4.0734218 
 4800000   0.91697274 -2.8009897e-06    0.6044909  0.036052898            0     0.568438    1.3582659    1.9627568    1.8193461 
 4805000   0.99649421 -5.6789356e-05   0.51105183  0.050600688            0   0.46045114     1.476057    1.9871089  -0.92050616 
 4810000    1.0164474 -2.3760018e-05   0.47960215  0.025838379            0   0.45376377    1.5056127    1.9852149   0.76870195 
 4815000   0.96778857 0.00010591685   0.53597964  0.036064807            0   0.49991484    1.4335368    1.9695165    7.3924594 
 4820000   0.99941648 3.675351e-05   0.49097561  0.034197879            0   0.45677773    1.4803857    1.9713613     3.853141 
 4825000   0.95318088 1.8223486e-05   0.56191449  0.024423905            0   0.53749059    1.4118992    1.9738137    2.9068562 
 4830000   0.99083226 0.00014253703     0.530283  0.019934039            0   0.51034896    1.4676703    1.9979533     9.295849 
 4835000    1.0208403 6.9512915e-05   0.46252891 0.0064713168            0   0.45605759    1.5121197    1.9746487    5.5337099 
 4840000    1.0714134 -0.00014422528   0.41962486 0.0014589186            0   0.41816594    1.5870311    2.0066559   -5.3776784 
 4845000     1.032642 -0.00018792141   0.45498959 0.0039669222            0   0.45102267     1.529601    1.9845906   -7.6369857 
 4850000   0.98344286 -1.5814731e-05   0.51546862  0.011380195            0   0.50408843    1.4567247    1.9721934    1.1624791 
 4855000    1.0315095 7.3695003e-05   0.44600433   0.01152668            0   0.43447765    1.5279234    1.9739277    5.7471119 
 4860000    1.0365958 3.5421742e-05   0.44862508  0.011591866            0   0.43703322    1.5354575    1.9840826    3.7976758 
 4865000    1.0359976 9.1729107e-05   0.44330385  0.021595399            0   0.42170846    1.5345715    1.9778754    6.6744056 
 4870000   0.96457052 1.8650493e-05   0.54169701  0.040505108            0   0.50119191    1.4287701    1.9704671    2.9253723 
 4875000   0.98700642 -0.00015686969   0.50141502  0.010986017            0   0.49042901    1.4620033    1.9634183   -6.0683097 
 4880000    1.0160052 4.4908354e-05   0.44220659  0.011839975            0   0.43036662    1.5049577    1.9471643    4.2464721 
 4885000   0.97392086 0.00010843545   0.52261607  0.019620768            0    0.5029953    1.4426203    1.9652363    7.5171315 
 4890000   0.93768041 3.8735624e-05   0.57750651  0.031994623            0   0.54551188    1.3889391    1.9664456    3.9497095 
 4895000    1.0204499 3.3269086e-05   0.46929194  0.045167575            0   0.42412437    1.5115415    1.9808334    3.6842106 
 4900000    1.0195012 -7.5443574e-05   0.47585198  0.043149414            0   0.43270257    1.5101361    1.9859881   -1.8767229 
 4905000   0.98591237 4.4221322e-05   0.55760884  0.031385732            0   0.52622311    1.4603827    2.0179915    4.2821232 
 4910000    0.9452853 3.3336213e-05   0.60637901  0.047695999            0   0.55868301    1.4002039    2.0065829     3.713397 
 4915000    1.0825222 3.8983451e-05   0.38303406  0.016401119            0   0.36663294     1.603486      1.98652    3.9824727 
 4920000   0.98418405 -1.0610252e-06   0.53234747  0.016203992            0   0.51614348    1.4578226    1.9901701    1.9358456 
 4925000    0.9861295 7.9609344e-05   0.54590805  0.060186299            0   0.48572175    1.4607043    2.0066124    6.0826108 
 4930000   0.97773658 8.699824e-05   0.55213962   0.04530419            0   0.50683543    1.4482723    2.0004119    6.4547218 
 4935000    1.0189221 1.7200976e-05   0.48918335  0.024738026            0   0.46444532    1.5092784    1.9984617    2.8791517 
 4940000    1.0370898 9.3112053e-05   0.45919452  0.036006505            0   0.42318801    1.5361893    1.9953839     6.762721 
 4945000   0.93831448 -2.4252974e-05   0.62985577  0.011243609            0   0.61861216    1.3898783    2.0197341   0.77798183 
 4950000    1.0853465 4.4314127e-05   0.40563518  0.014497367            0   0.39113781    1.6076696    2.0133047     4.282188 
 4955000    1.0614679 2.4014767e-05   0.44427792  0.021311265            0   0.42296665    1.5722994    2.0165773    3.2461334 
 4960000    1.0206142 -0.00013664305   0.52786202  0.014262649            0   0.51359937    1.5117848    2.0396468   -4.9564773 
 4965000     1.036185 -1.8613834e-05   0.50469573  0.017501902            0   0.48719383    1.5348491    2.0395448    1.0865165 
 4970000    1.0991636 4.150794e-05    0.4241201  0.010317422            0   0.41380268     1.628136    2.0522561    4.1774627 
 4975000    1.0111676 7.3855139e-05   0.56147082  0.059811225            0   0.50165959    1.4977919    2.0592628    5.8406459 
 4980000    1.0016635 -2.4384032e-05   0.59907402  0.036713797            0   0.56236022     1.483714     2.082788   0.83432559 
 4985000     1.078166 -3.0492734e-05    0.4853156  0.035103027            0   0.45021258    1.5970335    2.0823491    0.5211211 
 4990000    1.0784713 3.5714763e-05   0.46318011  0.076303205            0   0.38687691    1.5974856    2.0606657    3.8892616 
 4995000    1.0262765 2.3915638e-06   0.52231682   0.01837449            0   0.50394233    1.5201721    2.0424889     2.164937 
 5000000    1.0356933 0.00010218295   0.49336739 0.0045799047            0   0.48878748    1.5341208    2.0274882    7.2592551 
 5005000    1.0950846 -1.9263853e-05   0.39526455  0.020886268            0   0.37437828     1.622094    2.0173586    1.0310493 
 5010000    1.0721189 -2.3770662e-05   0.42585774  0.015503154            0   0.41035459    1.5880762    2.0139339   0.79687602 
 5015000    0.9953988 -6.6465875e-06   0.53721445 0.0065576114            0   0.53065684    1.4744345    2.0116489    1.6713436 
 5020000    1.0663187 4.7396761e-05    0.4255041  0.039275576            0   0.38622852    1.5794846    2.0049887    4.4317029 
 5025000   0.94010221 5.9122454e-05   0.59155502  0.093136174            0   0.49841884    1.3925264    1.9840814     5.011151 
 5030000   0.94421435 0.00012716029   0.60700577    0.0758489            0   0.53115687    1.3986175    2.0056233    8.5162302 
 5035000    1.0404695 9.2331653e-05   0.47631076  0.034036906            0   0.44227386    1.5411955    2.0175063    6.7448869 
 5040000    1.0002872 -2.1713797e-05   0.50002838  0.069231323            0   0.43079706    1.4816754    1.9817038   0.86995742 
 5045000   0.97356374 -6.2214025e-05   0.56201819  0.048716197            0     0.513302    1.4420913    2.0041095   -1.1812486 
 5050000    1.0517642 9.1734093e-05   0.44752559  0.046178863            0   0.40134672    1.5579258    2.0054514    6.7022369 
 5055000     1.020693 0.00018608574   0.49971201  0.031140094            0   0.46857191    1.5119015    2.0116135    11.539203 
 5060000    1.0400477 -4.2701356e-05   0.46732621 0.0099023582            0   0.45742385    1.5405706    2.0078968   -0.1784126 
 5065000   0.92738404 -0.00012082691   0.60813104   0.08073589            0   0.52739515    1.3736876    1.9818186    -4.204519 
 5070000   0.97899695 4.8134992e-05   0.54905697  0.047577686            0   0.50147928    1.4501392    1.9991962    4.4637078 
 5075000    1.0464775 0.00013371255    0.4343332   0.02064495            0   0.41368825    1.5500949    1.9844281    8.8305107 
 5080000   0.99959703 5.1217249e-06   0.51116365   0.06185612            0   0.44930753    1.4806531    1.9918167    2.2540491 
 5085000    0.9774276 1.4630224e-06   0.56600689  0.031672545            0   0.53433434    1.4478146    2.0138215    2.0887283 
 5090000    1.0207218 6.6219443e-05   0.48256977  0.014664064            0   0.46790571    1.5119442     1.994514    5.3849495 
 5095000   0.96004326 2.2741826e-05   0.56631137 0.0080588174            0   0.55825255    1.4220641    1.9883755    3.1527569 
 5100000    1.0708161 -2.5082457e-05   0.42520404 0.0086956506            0   0.41650839    1.5861464    2.0113505   0.72712866 
 5105000    1.0696036 -9.9146528e-06   0.43936393 0.0034806577            0   0.43588328    1.5843503    2.0237143    1.5160841 
 5110000    1.1069322 5.2521693e-05    0.3986221 0.0018187439            0   0.39680335    1.6396434    2.0382655    4.7273761 
 5115000    1.0541113 -7.5934131e-05   0.46564982 0.0096505013            0   0.45599932    1.5614024    2.0270522   -1.8607753 
 5120000    1.0102015 -0.00017601849   0.50318801  0.016860341            0   0.48632767     1.496361     1.999549   -7.0125976 
 5125000   0.95865812 -6.9983379e-05   0.58722583 0.0082546618            0   0.57897117    1.4200123    2.0072382   -1.5759108 
 5130000    1.0141234 3.8357338e-05   0.51760124 0.0071411617            0   0.51046008    1.5021703    2.0197715    3.9836672 
 5135000    1.0883057 0.00014440964   0.42122803  0.018037912            0   0.40319012    1.6120528    2.0332809    9.4270542 
 5140000    1.0794839 3.5188625e-05   0.43882428  0.018394533            0   0.42042975    1.5989855    2.0378098    3.8394674 
 5145000    1.0205422 -6.0592051e-05   0.53806706  0.019533126            0   0.51853393    1.5116781    2.0497452   -1.0525679 
 5150000    1.0211798 -5.5313853e-05    0.5289529 0.0028652067            0   0.52608769    1.5126226    2.0415755  -0.79049379 
 5155000    1.0063481 3.3575556e-07   0.52763343 0.0066563779            0   0.52097706    1.4906532    2.0182866    2.0354773 
 5160000    1.0559172 1.532182e-05   0.47083263  0.010844594            0   0.45998804    1.5640773      2.03491    2.8193871 
 5165000    1.0290448 -2.111417e-05   0.53125586  0.015584399            0   0.51567146    1.5242726    2.0555285   0.97448294 
 5170000    1.0025478 7.6317809e-05   0.53967713  0.029190197            0   0.51048693    1.4850239     2.024701    5.9321728 
 5175000   0.99816215 3.7950736e-05   0.54281564  0.031747754            0   0.51106788    1.4785277    2.0213433     3.964421 
 5180000    1.0695185 6.9473592e-05   0.45786062  0.028780829            0   0.42907979    1.5842242    2.0420848    5.5991328 
 5185000    1.0040466 6.0136663e-05   0.51654605 0.0056328891            0   0.51091317     1.487244    2.0037901    5.0827872 
 5190000    1.0480179 -4.9861374e-06   0.45592427 0.0074628043            0   0.44846147    1.5523765    2.0083008    1.7530105 
 5195000    1.0206093 -9.5199501e-05   0.49638205 0.0096553586            0   0.48672669    1.5117776    2.0081596   -2.8660549 
 5200000    1.0176599 6.3153816e-05   0.48163964  0.041270434            0   0.44036921    1.5074087    1.9890483    5.2225237 
 5205000   0.99496519 2.7413751e-05   0.53177304  0.051813876            0   0.47995916    1.4737922    2.0055652    3.4091493 
 5210000    0.9847235 -0.00018790899    0.5750678  0.026883406            0   0.54818439    1.4586217    2.0336895    -7.587251 
 5215000    1.0431395 -5.3979746e-05   0.46793504  0.025668354            0   0.44226668    1.5451503    2.0130854  -0.75067766 
 5220000    1.0646865 4.5242103e-05   0.45829872  0.019178847            0   0.43911987    1.5770669    2.0353656    4.3517613 
 5225000    1.0471334 -6.0390948e-05   0.51362439  0.013922832            0   0.49970156    1.5510663    2.0646907   -1.0273258 
 5230000    1.0609505 -4.5899962e-05   0.49875054  0.013796701            0   0.48495384    1.5715329    2.0702834  -0.27979464 
 5235000    1.0936973 -3.6111802e-05   0.46623434 0.0091429466            0   0.45709139    1.6200391    2.0862734   0.23734917 
 5240000    1.0455847 -6.0614917e-05   0.57554296  0.016777914            0   0.55876505    1.5487723    2.1243153  -0.97916843 
 5245000    1.1033612 2.4606054e-05    0.4891049  0.041139024            0   0.44796587    1.6343538    2.1234587    3.3832887 
 5250000    1.0520258 0.00015321502   0.54076591  0.038944074            0   0.50182183    1.5583132    2.0990791    9.9436881 
 5255000    1.0319155 7.6149377e-05   0.57992849  0.042632485            0   0.53729601    1.5285248    2.1084533    6.0073014 
 5260000    1.0835744 -0.00013306915   0.49607034 0.0046289006            0   0.49144144    1.6050445    2.1011149   -4.7120256 
 5265000    1.0994427 -4.8619448e-05   0.46838946 0.00091168579            0   0.46747778    1.6285495     2.096939  -0.39237671 
 5270000    1.1166688 1.2813163e-05   0.45389074  0.012758832            0   0.44113191    1.6540656    2.1079563    2.7639903 
 5275000    1.0838804 -3.4275377e-05   0.50322077  0.025369261            0   0.47785151    1.6054979    2.1087186   0.35381932 
 5280000    1.0698812 -6.1914141e-06   0.54794606  0.033699369            0   0.51424669    1.5847615    2.1327075    1.8157071 
 5285000    1.0937241 -4.1116465e-05   0.52511307  0.032385103            0   0.49272797    1.6200788    2.1451919   0.04002884 
 5290000    1.0764889 -9.8916269e-05   0.55140192   0.05747015            0   0.49393177    1.5945492    2.1459512   -2.9185618 
 5295000    1.1236019 -0.00010133461   0.46347265  0.033181469            0   0.43029118    1.6643354     2.127808   -3.0605239 
 5300000    1.0333416 5.0327186e-05   0.59742706  0.016596551            0   0.58083051    1.5306373    2.1280643    4.7048163 
 5305000    1.1566001 3.2616381e-05   0.41640776  0.023136275            0   0.39327149    1.7132139    2.1296216    3.7995803 
 5310000    1.1450319 -7.1851616e-05   0.41407207  0.015679041            0   0.39839303    1.6960786    2.1101506   -1.5686521 
 5315000    1.1349461 -2.883448e-05   0.47307264 0.0053539949            0   0.46771865    1.6811389    2.1542116   0.67788618 
 5320000    1.1147457 -5.0466272e-05   0.51566057  0.012521907            0   0.50313866     1.651217    2.1668776  -0.41699549 
 5325000    1.0580872 -7.6724792e-05   0.59971296   0.02204678            0   0.57766618    1.5672917    2.1670047   -1.7613047 
 5330000    1.1486328 -0.00010729724   0.46100267  0.018632377            0   0.44237029    1.7014124     2.162415   -3.3312037 
 5335000     1.092521 -8.7549759e-05    0.5222173  0.026400696            0    0.4958166    1.6182968    2.1405141   -2.3420336 
 5340000    1.1357376 -9.4641286e-06   0.45391589  0.011151764            0   0.44276413    1.6823114    2.1362273    1.6516639 
 5345000    1.1463801 4.0568259e-05   0.45051046 0.0019722915            0   0.44853817    1.6980755     2.148586    4.2256809 
 5350000    1.1187361 2.8545729e-06   0.48315192 0.0050538772            0   0.47809804    1.6571279    2.1402798    2.2864339 
 5355000    1.1162154 -0.0001034985   0.48410812  0.066919306            0   0.41718882    1.6533941    2.1375022   -3.1616208 
 5360000    1.1858386 -0.00010326843   0.40769098  0.016220164            0   0.39147081    1.7565234    2.1642144    -3.123129 
 5365000    1.0750798 2.8281722e-05   0.55348745  0.014724582            0   0.53876287     1.592462    2.1459495    3.5939737 
 5370000    1.0373388 6.5335165e-05   0.59974297   0.02051516            0   0.57922781    1.5365581    2.1363011    5.4814615 
 5375000    1.0507817 8.0777627e-05   0.58493421  0.019503407            0   0.56543081    1.5564704    2.1414046    6.2772191 
 5380000    1.1778294 2.6539958e-05   0.39751435  0.011271243            0   0.38624311    1.7446598    2.1421742      3.50102 
 5385000    1.1566392 -6.0620457e-05   0.43002965  0.017389175            0   0.41264048    1.7132717    2.1433014  -0.96046598 
 5390000    1.0943957 -2.6192227e-05   0.55447498  0.016593669            0   0.53788131    1.6210737    2.1755486   0.83450661 
 5395000     1.095641 7.7835617e-05   0.56912651  0.011005752            0   0.55812076    1.6229183    2.1920448    6.1772284 
 5400000    1.0184024 -9.9271843e-06   0.67804446  0.038516089            0   0.63952837    1.5085085     2.186553    1.6782812 
 5405000     1.099041 3.4426958e-05   0.55932928  0.027358214            0   0.53197107    1.6279545    2.1872838     3.949944 
 5410000    1.1110042 2.2199792e-05   0.54538456  0.060008542            0   0.48537602    1.6456749    2.1910595    3.3276889 
 5415000    1.0798581 -9.1465328e-05    0.5960985  0.077688526            0   0.51840997    1.5995399    2.1956383   -2.4873864 
 5420000    1.1165945  7.42112e-05   0.53865811  0.057252004            0   0.48140611    1.6539556    2.1926137    5.9922272 
 5425000    1.0782654 8.2905071e-05   0.59682819    0.0327164            0   0.56411179    1.5971806    2.1940088    6.4387484 
 5430000    1.1793221 -4.1879101e-05   0.47807061 0.0099863481            0   0.46808427    1.7468708    2.2249414   0.08073142 
 5435000    1.1602386 -9.6240762e-05   0.51253822 0.0029971938            0   0.50954103    1.7186034    2.2311417   -2.6963854 
 5440000     1.093691 -3.1178079e-05   0.59110686  0.003056623            0   0.58805024    1.6200298    2.2111366   0.61481896 
 5445000    1.1059135 6.9978155e-05   0.56685081  0.013494256            0   0.55335655    1.6381343    2.2049851    5.7878667 
 5450000    1.1427419 8.3241263e-05    0.4722316  0.031297426            0   0.44093417    1.6926864     2.164918    6.4268706 
 5455000    1.1414841 5.2374502e-05   0.49265137   0.02782042            0   0.46483095    1.6908233    2.1834747    4.8650492 
 5460000    1.0340693 -6.3479212e-05   0.61239879 0.0018680969            0    0.6105307    1.5317151    2.1441139   -1.1060217 
 5465000    1.1792613 -1.6686559e-05   0.43923831 0.0063960807            0   0.43284223    1.7467808    2.1860191    1.3316673 
 5470000    1.1471056 9.5184972e-06   0.45756113  0.029375277            0   0.42818585    1.6991502    2.1567113    2.6440583 
 5475000    1.0416126 -0.00011091825   0.61417715  0.037829823            0   0.57634732    1.5428887    2.1570659   -3.5219486 
 5480000     1.087079 -5.0289796e-06   0.53649171  0.044492934            0   0.49199878    1.6102358    2.1467275    1.8892437 
 5485000    1.0695004 8.035332e-05   0.53251038  0.030523134            0   0.50198724    1.5841974    2.1167078    6.2307978 
 5490000     1.043318 4.0106735e-05   0.54933018 0.0045848911            0   0.54474529    1.5454147    2.0947449    4.1482097 
 5495000    1.1020265 3.6289824e-05   0.42097214            0            0   0.42097214    1.6323767    2.0533488    3.9113878 
 5500000    1.0716554 1.230792e-05   0.41986223  0.001133183            0   0.41872904    1.5873895    2.0072517    2.6374172 
 5505000    1.0038884 -7.6310099e-05   0.51779568 0.0065926339            0   0.51120305    1.4870097    2.0048054   -1.9022717 
 5510000   0.95713593 -5.0618947e-05   0.57476693  0.026329149            0   0.54843778    1.4177576    1.9925245  -0.59916553 
 5515000   0.99376513 4.9445706e-05   0.52233573 0.0096958882            0   0.51263984    1.4720146    1.9943503    4.5259705 
 5520000    1.0209161 4.5160927e-06   0.50060815 0.0013351648            0   0.49927298    1.5122319    2.0128401     2.244064 
 5525000    1.0863065 9.8757681e-05   0.42436471 0.00011639084            0   0.42424832    1.6090916    2.0334563    7.0898495 
 5530000    1.0213451 2.4580616e-05   0.52480993  0.020780292            0   0.50402964    1.5128674    2.0376773    3.2962049 
 5535000    1.0186072 2.3823032e-05   0.51565791   0.07921288            0   0.43644503    1.5088119    2.0244698    3.2442091 
 5540000   0.86040003 3.1840827e-06   0.68675343  0.093148233            0    0.5936052    1.2744675     1.961221     2.124246 
 5545000   0.95358623 -6.425666e-05   0.58210689  0.020496307            0   0.56161058    1.4124996    1.9946065   -1.2953345 
 5550000    1.0479956 -0.00011493303   0.42900115            0            0   0.42900115    1.5523434    1.9813446   -3.9032266 
 5555000    1.0688275 -5.050247e-05   0.39068266            0            0   0.39068266    1.5832007    1.9738834  -0.61184305 
 5560000   0.96205934 -8.791915e-06   0.55914959 0.00021469972            0   0.55893489    1.4250504       1.9842    1.5340539 
 5565000   0.97091907 -3.1324056e-05   0.56019389  0.022682989            0    0.5375109    1.4381739    1.9983678   0.39457609 
 5570000     1.041944 -8.4752737e-05   0.44701919  0.035892614            0   0.41112657    1.5433796    1.9903988   -2.3489413 
 5575000    1.0571042 -1.4353762e-05   0.43169762 0.0043301764            0   0.42736745    1.5658356    1.9975332    1.2626206 
 5580000    1.0265919 0.00017733752   0.49490503  0.011076974            0   0.48382806    1.5206393    2.0155443    11.095225 
 5585000   0.96854592 0.00012415251   0.54690257  0.020513966            0    0.5263886    1.4346586    1.9815612    8.3381697 
 5590000    1.0130857 -2.341366e-05   0.48969242  0.039008711            0   0.45068371    1.5006332    1.9903257   0.79154628 
 5595000   0.93611759 -3.6306052e-06   0.58704892   0.02541457            0   0.56163435    1.3866242    1.9736731    1.7877861 
 5600000   0.98786941 4.3963647e-05   0.48341634  0.003393132            0   0.48002321    1.4632816    1.9466979    4.1976366 
 5605000     1.046268 4.0100737e-05   0.39577855  0.015443617            0   0.38033493    1.5497845     1.945563    3.9987208 
 5610000   0.92124914 8.5789549e-05   0.63505947  0.089900367            0   0.54515911    1.3646003    1.9996598    6.3920847 
 5615000     1.024488 4.2634303e-05   0.48925945   0.02643014            0   0.46282931    1.5175229    2.0067824    4.1896587 
 5620000    1.0243237 3.6909687e-06   0.50769095  0.024433773            0   0.48325717    1.5172795    2.0249704     2.213948 
 5625000   0.99432458 -9.5258642e-05   0.56636813  0.039032582            0   0.52733554    1.4728433    2.0392114    -2.838031 
 5630000    1.0425407 -8.3629456e-05   0.53029346  0.018027121            0   0.51226634    1.5442634    2.0745568   -2.2072713 
 5635000    1.1019651 1.4749896e-05    0.4588375   0.02513315            0   0.43370435    1.6322858    2.0911233    2.8463179 
 5640000   0.99474436 7.8433769e-05   0.58514972  0.094207485            0   0.49094224    1.4734651    2.0586148    6.0744238 
 5645000     1.035237 6.2431445e-05   0.52628846  0.045582441            0   0.48070602    1.5334448    2.0597332    5.2562232 
 5650000    1.0422006 -5.8325071e-05   0.51158622  0.013315474            0   0.49827075    1.5437596    2.0553458   -0.9308978 
 5655000    1.0391543 -7.7145287e-05   0.53977229  0.022733538            0   0.51703875    1.5392473    2.0790196   -1.8708191 
 5660000    1.1135954 -2.6843688e-05   0.43453476  0.015183269            0   0.41935149    1.6495132     2.084048   0.70965117 
 5665000    1.0998062 -2.6628302e-05   0.45847601  0.013386589            0   0.44508942    1.6290879    2.0875639   0.72419481 
 5670000    1.1100602 4.8412076e-05   0.43760392  0.011671736            0   0.42593219    1.6442767    2.0818807    4.5605789 
 5675000    1.0673357 0.00010063036   0.51447016  0.016657204            0   0.49781295     1.580991    2.0954612    7.2477355 
 5680000    1.0481365 0.0001118322    0.5317764  0.019523418            0   0.51225298    1.5525521    2.0843285    7.8101371 
 5685000    1.0656161 0.00015064327   0.49351637  0.010445559            0   0.48307081    1.5784439    2.0719603    9.7848959 
 5690000    1.0512147 8.0205523e-05    0.4930433  0.024780464            0   0.46826284    1.5571118    2.0501551    6.1566779 
 5695000    1.0486679 -4.2973076e-06   0.49447703  0.018156903            0   0.47632013    1.5533393    2.0478164    1.8277942 
 5700000    1.0498969 9.707051e-05   0.50617966  0.026615252            0   0.47956441    1.5551597    2.0613394    7.0313495 
 5705000    1.0409998 3.8814602e-05    0.4970894  0.036214501            0    0.4608749     1.541981    2.0390704     4.026378 
 5710000   0.93087836 4.2854103e-05   0.66784971  0.043848623            0   0.62400109    1.3788636    2.0467133    4.2408434 
 5715000     1.027403  4.65905e-05   0.54465498  0.017783799            0   0.52687118    1.5218406    2.0664956    4.4519292 
 5720000    1.1249738 4.6770217e-05   0.43447582  0.021874828            0   0.41260099    1.6663675    2.1008433    4.4954784 
 5725000    1.0739077 0.00012999784    0.5214672  0.026838058            0   0.49462914    1.5907257    2.1121929    8.7680825 
 5730000    1.0490696 5.2469336e-05   0.56461439  0.059298115            0   0.50531627    1.5539344    2.1185488    4.8049788 
 5735000    1.0983924 -0.00017451035   0.48965886  0.015137013            0   0.47452185    1.6269938    2.1166526   -6.8182773 
 5740000     1.052726 -0.00011485473   0.55294052  0.011868462            0   0.54107206    1.5593504     2.112291   -3.7682713 
 5745000    1.0899839 -7.002857e-05    0.4896456  0.022111238            0   0.46753436    1.6145387    2.1041843   -1.4812785 
 5750000   0.99252265 -1.2122681e-05   0.60963033  0.026450472            0   0.58317986    1.4701742    2.0798045    1.4591232 
 5755000    1.0564082 8.8994208e-05   0.52763008  0.018257292            0   0.50937278    1.5648047    2.0924348    6.6489382 
 5760000    1.0600093 -9.3801876e-05   0.55419743  0.036893404            0   0.51730402    1.5701387    2.1243361   -2.6783199 
 5765000    1.0327937 -4.7013515e-05   0.55912396  0.041297153            0   0.51782681    1.5298256    2.0889496  -0.31814238 
 5770000    1.0187766 6.3301145e-05   0.58004435  0.017246583            0   0.56279777    1.5090629    2.0891072    5.3301259 
 5775000    1.0459271 -1.7351721e-05   0.52285545  0.010072637            0   0.51278282    1.5492794    2.0721349    1.1837268 
 5780000    1.0483293 -4.6184923e-05    0.4719797   0.01859442            0   0.45338528    1.5528377    2.0248174  -0.33985061 
 5785000    1.0241668 -5.4943308e-05   0.52640562  0.033452861            0   0.49295275    1.5170471    2.0434527   -0.7696447 
 5790000    1.0392148 5.7807452e-05   0.51196203  0.035466927            0    0.4764951     1.539337     2.051299    5.0110405 
 5795000    1.0077051 8.6025269e-05   0.55415925  0.019310382            0   0.53484886    1.4926631    2.0468224    6.4513162 
 5800000    1.0817798 -1.1268406e-05   0.46005708 0.0078560565            0   0.45220103    1.6023864    2.0624435    1.4855011 
 5805000    1.0686628 6.5002036e-06   0.51885488 0.0059270919            0   0.51292779    1.5829568    2.1018116    2.4346221 
 5810000    1.1839191 5.7022748e-05   0.32738916   0.00644543            0   0.32094373    1.7536802    2.0810694    5.0006341 
 5815000    1.0540339 5.9383645e-05   0.52277594 0.0056260756            0   0.51714986    1.5612877    2.0840636    5.1245062 
 5820000    1.1324845 3.124304e-05   0.42362367 0.0095939861            0   0.41402969    1.6774927    2.1011164      3.70076 
 5825000    1.1025864 -7.3145797e-06   0.48915403 0.0039730543            0   0.48518098    1.6332061    2.1223601    1.7478536 
 5830000    1.0866758 1.7190528e-05   0.54410088            0            0   0.54410088    1.6096385    2.1537394    3.0338944 
 5835000     1.084817 -6.3497273e-05    0.5053374 0.0027835755            0   0.50255383    1.6068851    2.1122225   -1.1388379 
 5840000    1.0898713 -7.2538939e-05   0.49343887  0.024291884            0   0.46914699    1.6143719    2.1078108   -1.6061829 
 5845000    1.0044985 -3.4684628e-05   0.58690427  0.014508414            0   0.57239586    1.4879134    2.0748176   0.29896468 
 5850000    1.0065321 2.1184556e-05   0.55414829  0.010172969            0   0.54397532    1.4909257     2.045074    3.1297233 
 5855000    1.0793783 3.8201065e-05   0.44385575  0.024309991            0   0.41954576    1.5988291    2.0426848    3.9985794 
 5860000    1.0567933 -3.0017278e-05   0.50554783  0.015755912            0   0.48979192     1.565375    2.0709229   0.53403821 
 5865000    1.1114359 1.9559799e-05   0.42349965 0.0082514206            0   0.41524823    1.6463144     2.069814    3.0712757 
 5870000    0.9918369 3.5752525e-06   0.59542809 0.0051539829            0    0.5902741    1.4691584    2.0645865    2.2476394 
 5875000    1.1005471 4.6480404e-05   0.45625644  0.010113114            0   0.44614333    1.6301853    2.0864418    4.4662385 
 5880000    1.1078344 2.4490634e-05   0.42836008 0.0092959752            0    0.4190641    1.6409798    2.0693398    3.3232603 
 5885000    1.0542682 0.00010709591   0.48092982  0.023071674            0   0.45785815    1.5616348    2.0425647    7.5258752 
 5890000    1.0402319 8.2047133e-05   0.51332985  0.027421125            0   0.48590873    1.5408435    2.0541734    6.2549866 
 5895000    1.0465131 -1.45988e-05   0.51711659   0.02750322            0   0.48961337    1.5501475    2.0672641    1.3198056 
 5900000    1.0698657 -3.5366487e-05    0.4628358  0.014057208            0   0.44877859    1.5847386    2.0475744   0.23681028 
 5905000    1.0658961 -8.3361497e-05   0.45815232 0.0019810014            0   0.45617131    1.5788586    2.0370109   -2.2310977 
 5910000    1.0558651 -1.8111339e-05   0.48404551 0.0052636951            0   0.47878182    1.5640002    2.0480457    1.1207452 
 5915000    1.0061171 8.4872828e-05   0.54129773  0.018939582            0   0.52235815     1.490311    2.0316087    6.3770975 
 5920000    1.0575585 3.2178049e-05   0.48190891  0.016462077            0   0.46544683    1.5665085    2.0484175    3.6959335 
 5925000    1.0275172 -8.0311285e-05   0.49585914  0.016200442            0   0.47965869    1.5220099     2.017869   -2.0940688 
 5930000   0.97902414 1.0823522e-05   0.59682606  0.036632695            0   0.56019336    1.4501795    2.0470056    2.6011699 
 5935000    1.0377481 3.6889988e-05    0.5454227  0.025489261            0   0.51993344    1.5371643     2.082587    3.9713544 
 5940000    1.0702621 8.740933e-05   0.49089454  0.013839748            0   0.47705479    1.5853258    2.0762203     6.551578 
 5945000    1.0786997 2.4787231e-05   0.48095908  0.014248121            0   0.46671096    1.5978239    2.0787829    3.3478891 
 5950000     1.031438 -0.00011438349   0.56037804 0.0072789906            0   0.55309905    1.5278176    2.0881956   -3.7682393 
 5955000    1.0572666 8.1014477e-06   0.51670602  0.010614148            0   0.50609188    1.5660762    2.0827822    2.4975763 
 5960000    1.1166563  5.87765e-05   0.45804381  0.020272951            0   0.43777086    1.6540472     2.112091    5.1214478 
 5965000    1.1145658 4.7768744e-05   0.45675154  0.022084033            0   0.43466751    1.6509505    2.1077021    4.5534618 
 5970000    1.0626445 -9.1126576e-06   0.53124354 0.0087779268            0   0.52246561    1.5740422    2.1052857    1.6387177 
 5975000    1.0974373 -6.063969e-05   0.51364788 0.0060750258            0   0.50757286    1.6255791    2.1392269  -0.96552519 
 5980000    1.0343195 -4.0149167e-05   0.60434023  0.046630618            0   0.55770961    1.5320857    2.1364259  0.080788584 
 5985000    1.1078877 7.7309308e-05   0.49231929  0.032641108            0   0.45967818    1.6410586    2.1333779    6.0916145 
 5990000     1.066457 5.6303632e-05   0.54808015 0.0080636955            0   0.54001646    1.5796895    2.1277696    5.0105156 
 5995000    1.0665525 -5.7100434e-05   0.56423266  0.020958096            0   0.54327457    1.5798308    2.1440635  -0.77947873 
 6000000    1.0659817 -4.6092782e-05   0.55358182 0.0099373206            0   0.54364449    1.5789854    2.1325672   -0.2273832 
 6005000    1.0829063 -2.9280171e-05   0.50559116  0.024792595            0   0.48079856     1.604055    2.1096462   0.61050143 
 6010000    1.0458806 5.3676675e-06   0.55567221  0.032712457            0   0.52295975    1.5492107    2.1048829    2.3797074 
 6015000    1.0889353 -7.6773431e-05    0.4997686 0.0074547419            0   0.49231386    1.6129855    2.1127541   -1.8180456 
 6020000    1.1496136 -8.8975097e-05   0.43180347  0.010758814            0   0.42104466    1.7028651    2.1346686   -2.4208564 
 6025000    1.0591763 6.6134743e-05   0.58803248  0.029622099            0   0.55841038    1.5689048    2.1569373    5.5430362 
 6030000    1.1316562 0.00014555362   0.45492356  0.016425157            0    0.4384984    1.6762658    2.1311893    9.5835348 
 6035000    1.1291567 5.9785448e-05    0.4481456 0.00080111445            0   0.44734449    1.6725633    2.1207089    5.1817239 
 6040000    1.0407905 5.5736223e-05   0.57583998  0.013226514            0   0.56261347    1.5416709    2.1175109    4.9712055 
 6045000    1.0877234 8.0724139e-05   0.49880537 0.0096797304            0   0.48912564    1.6111904    2.1099957    6.2430716 
 6050000     1.013369 -5.8547541e-05   0.63033063  0.013959307            0   0.61637132    1.5010528    2.1313834  -0.86625068 
 6055000    1.0815445 -8.9016374e-05   0.53608575   0.01145807            0   0.52462768    1.6020378    2.1381236   -2.4195148 
 6060000    1.0114096 2.3036967e-05   0.61497788 0.0016698604            0   0.61330802    1.4981505    2.1131284    3.2926211 
 6065000    1.1230524 3.973892e-05   0.44868964  0.027328528            0   0.42136112    1.6635214    2.1122111    4.1468438 
 6070000    1.1019576 -5.9178725e-05   0.49064483  0.049481335            0    0.4411635    1.6322747    2.1229196  -0.90703117 
 6075000    1.0602826 3.2412376e-05   0.55480111  0.016017127            0   0.53878398    1.5705436    2.1253447    3.7848584 
 6080000     1.135557 4.7672645e-05   0.44592197  0.010933441            0   0.43498853    1.6820438    2.1279658    4.5688052 
 6085000    1.1317501 1.9508619e-06   0.45192446 0.0052551819            0   0.44666927    1.6764049    2.1283293    2.2282134 
 6090000     1.101536 4.3623313e-05   0.47670902 0.0016895649            0   0.47501946    1.6316502    2.1083592    4.3418728 
 6095000    1.0721431 -4.983672e-05   0.51669067  0.013096271            0    0.5035944     1.588112    2.1048027  -0.44683737 
 6100000     1.014796 -2.8919436e-05    0.5421059  0.020111113            0   0.52199478    1.5031666    2.0452725   0.56459741 
 6105000    1.0091279 -1.0243922e-05   0.52339055 0.0085972299            0   0.51479332    1.4947707    2.0181612    1.4936724 
 6110000    1.0124115 2.6180838e-05   0.49160309  0.025213526            0   0.46638957    1.4996345    1.9912376    3.3316966 
 6115000    0.9150108 -8.6119083e-05   0.63183153   0.01315539            0   0.61867614    1.3553597    1.9871913   -2.4221058 
 6120000   0.97046872 3.3900232e-05    0.5495446 0.00071207297            0   0.54883253    1.4375068    1.9870514    3.7227433 
 6125000    1.0570491 4.1853854e-06    0.3901067  0.011842834            0   0.37826386    1.5657539    1.9558606    2.1701523 
 6130000   0.97688575 2.032252e-06   0.50354457  0.016079939            0   0.48746463     1.447012    1.9505566    2.0546079 
 6135000   0.99414113 5.7235488e-05    0.4617149  0.013185345            0   0.44852955    1.4725716    1.9342864    4.8647434 
 6140000   0.97013436 7.0184706e-05    0.5099577 0.0052635294            0   0.50469417    1.4370115    1.9469692    5.5404261 
 6145000   0.98134417 -6.3315722e-05   0.49584008 6.8335094e-05            0   0.49577174     1.453616    1.9494561   -1.2923088 
 6150000   0.97206756 -6.4342178e-05   0.51910941 0.0017323823            0   0.51737703    1.4398751    1.9589845    -1.335335 
 6155000   0.98707263 9.3741381e-05   0.50563278 0.0065017926            0   0.49913099    1.4621013    1.9677341    6.7672928 
 6160000   0.98107466 5.0556436e-05   0.51614464 0.0089075094            0   0.50723713    1.4532168    1.9693615     4.557851 
 6165000   0.96737382 -4.9736589e-05   0.49429517  0.014006969            0    0.4802882    1.4329225    1.9272176  -0.61929573 
 6170000   0.89466125 -9.1450372e-06   0.58859436  0.064777638            0   0.52381672     1.325217    1.9138113    1.4455854 
 6175000   0.99718153 -5.896415e-05   0.45175658 0.0034483594            0   0.44830822    1.4770751    1.9288317   -1.0901328 
 6180000   0.95076146 -6.0993263e-05   0.49467621  0.010147946            0   0.48452826    1.4083154    1.9029916   -1.2198634 
 6185000   0.87951692 2.963231e-05   0.59006025  0.019670827            0   0.57038942    1.3027844    1.8928447    3.4100189 
 6190000   0.97503741 -5.1542511e-05   0.44052621 0.0058446854            0   0.43468152    1.4442742    1.8848004   -0.7541762 
 6195000   0.95765552 -5.0235201e-05   0.48468382 0.0066871278            0   0.47799669    1.4185272     1.903211  -0.66883125 
 6200000    0.9349075 8.1441096e-05   0.49591399 0.0058755312            0   0.49003846    1.3848317    1.8807457    6.0505299 
 6205000   0.90190594 4.4085371e-05   0.52081755  0.006203955            0    0.5146136    1.3359482    1.8567657    4.1139367 
 6210000   0.94213101 -8.3505591e-05   0.46718909 0.0053994954            0    0.4617896    1.3955316    1.8627206   -2.4127656 
 6215000    0.9124229 2.4833448e-05   0.52740944  0.015129189            0   0.51228025    1.3515264    1.8789359    3.1504084 
 6220000    1.0179636 4.5198478e-05    0.4163182 0.0091425953            0   0.40717561    1.5078586    1.9241768    4.2383389 
 6225000   0.96980302 -2.1781496e-05   0.47926519 0.0017071529            0   0.47755804    1.4365207    1.9157859    0.8005733 
 6230000    0.9701418 8.9690523e-05    0.4814705  0.013391087            0   0.46807941    1.4370225     1.918493    6.5106478 
 6235000   0.93808784 4.9943679e-05   0.53115154  0.062799395            0   0.46835214    1.3895426    1.9206942    4.4778105 
 6240000    1.0347844 -3.5177411e-05   0.40305546  0.024529809            0   0.37852565    1.5327744    1.9358299   0.13474643 
 6245000   0.93935576 7.0139862e-05   0.51076237 0.0034841972            0   0.50727817    1.3914207    1.9021831     5.493344 
 6250000   0.96112285 -1.9889088e-05   0.45459236 0.0013588404            0   0.45323352    1.4236632    1.8782556   0.85993427 
 6255000   0.97470205 -9.1718634e-06   0.46861386 0.0048035329            0   0.46381032    1.4437774    1.9123913    1.4427919 
 6260000   0.99262574 -2.7231009e-06   0.44905741  0.038376544            0   0.41068086    1.4703269    1.9193843    1.7799615 
 6265000   0.90419654 2.9468925e-05    0.5582417   0.01482884            0   0.54341286    1.3393411    1.8975828    3.4063918 
 6270000   0.93840914 1.926652e-05   0.48770949  0.012509953            0   0.47519954    1.3900185     1.877728    2.8641738 
 6275000   0.94177648 -6.8366719e-05   0.47562569  0.054458821            0   0.42116687    1.3950064    1.8706321   -1.6297439 
 6280000   0.99323158 -5.2336667e-05   0.37985645  0.014717843            0    0.3651386    1.4712243    1.8510807  -0.82855662 
 6285000   0.89840938 -2.4403882e-05   0.51742117  0.011481497            0   0.50593968    1.3307689    1.8481901   0.59871132 
 6290000   0.89943442 4.3678303e-05   0.51739059  0.013986165            0   0.50340442    1.3322872    1.8496778    4.0860069 
 6295000   0.88148132 3.3244934e-05   0.53681931  0.011584706            0    0.5252346    1.3056942    1.8425135    3.5446541 
 6300000   0.90535963 -0.00010368031   0.51563544  0.014786126            0   0.50084932    1.3410639    1.8566994   -3.4517327 
 6305000   0.92938091 -5.2464617e-05   0.49666557   0.02325822            0   0.47340735    1.3766455     1.873311  -0.81287737 
 6310000   0.92404279 -0.00010200982   0.45853279  0.020649837            0   0.43788296    1.3687384    1.8272712   -3.3956315 
 6315000   0.91438748 -9.9360216e-05   0.47063945  0.025763623            0   0.44487583    1.3544365    1.8250759   -3.2621671 
 6320000   0.88556771 5.2080359e-05   0.50018148  0.065020243            0   0.43516123    1.3117472    1.8119286     4.478443 
 6325000   0.87780704 -9.6268587e-05   0.52445024  0.066440908            0   0.45800933    1.3002517    1.8247019   -3.1042497 
 6330000   0.90901349 6.3230188e-06   0.46952203   0.02575629            0   0.44376574    1.3464762    1.8159983    2.1397368 
 6335000   0.93613042  8.96376e-05   0.44113089 0.0095018814            0     0.431629    1.3866432    1.8277741    6.4172192 
 6340000   0.86736873 -1.7922948e-05   0.54862097  0.043001821            0   0.50561915    1.2847899    1.8334109   0.91575598 
 6345000   0.86179732 5.7325661e-05   0.56058124  0.092857537            0    0.4677237    1.2765373    1.8371185    4.7721923 
 6350000   0.90939717 6.7276431e-05   0.51144487  0.017167649            0   0.49427722    1.3470446    1.8584894    5.3030427 
 6355000   0.85695152 -4.5823039e-05    0.6101052     0.030342            0    0.5797632    1.2693594    1.8794646  -0.46667497 
 6360000    0.9727096 5.4267476e-05   0.45267061  0.052393579            0   0.40027703    1.4408261    1.8934967    4.6719915 
 6365000   0.93961457 0.00010063873   0.50381329  0.053444568            0   0.45036872    1.3918041    1.8956174    7.0483204 
 6370000   0.96018994 2.9326521e-05   0.45830043  0.028982881            0   0.42931755    1.4222813    1.8805818    3.3820997 
 6375000   0.94519053 2.9711669e-05   0.47983174  0.012080116            0   0.46775162    1.4000635    1.8798952    3.4011327 
 6380000    0.8798881 -2.1173092e-05   0.57582082   0.02140351            0   0.55441731    1.3033343    1.8791551   0.79509278 
 6385000   0.97426459 1.7498436e-05    0.3980439 0.0070223968            0    0.3910215    1.4431294    1.8411733    2.7370932 
 6390000   0.91481272 -7.6896394e-05   0.47703028 0.0082248663            0   0.46880542    1.3550663    1.8320966   -2.1049988 
 6395000   0.92285123 7.7324961e-05   0.45067728  0.019379748            0   0.43129753    1.3669734    1.8176507    5.7766886 
 6400000   0.88694922 3.5350719e-05   0.50097096  0.026083375            0   0.47488759    1.3137935    1.8147645    3.6247213 
 6405000   0.90809661 5.5317941e-05   0.46287751  0.019494243            0   0.44338326    1.3451181    1.8079956    4.6402742 
 6410000   0.85727527 -0.00013801738    0.5593733  0.020532614            0   0.53884068     1.269839    1.8292123   -5.2372774 
 6415000   0.90273486 -9.117406e-05   0.49264176  0.028842833            0   0.46379892     1.337176    1.8298178   -2.8382941 
 6420000   0.90125317 0.00012624225   0.49036705  0.065904492            0   0.42446256    1.3349813    1.8253483    8.2889517 
 6425000   0.88783089 6.4413714e-05   0.52386989 0.0040249423            0   0.51984494    1.3150995    1.8389694    5.1369515 
 6430000   0.91277795 1.9641206e-05   0.47509549  0.013148719            0   0.46194677    1.3520523    1.8271478    2.8327776 
 6435000   0.86672836 4.1291427e-05   0.52800618  0.033172746            0   0.49483343    1.2838414    1.8118476    3.9259686 
 6440000   0.94664319 0.00010825597   0.42398102  0.021339775            0   0.40264125    1.4022152    1.8261962    7.3689019 
 6445000    0.8757824 5.9490078e-05   0.56120906  0.013571303            0   0.54763775    1.2972527    1.8584617    4.9043537 
 6450000   0.97196109 -1.3726837e-05   0.45795041  0.011275914            0    0.4466745    1.4397174    1.8976678    1.1948537 
 6455000   0.95133266 -3.3518195e-06   0.47776483  0.042435257            0   0.43532957    1.4091615    1.8869263    1.7153132 
 6460000   0.83293302 -2.4100433e-05   0.69255378  0.095732092            0   0.59682169     1.233782    1.9263358   0.69239365 
 6465000   0.85520568 -0.00014751998   0.64885342  0.015479886            0   0.63337354    1.2667734    1.9156268   -5.6373963 
 6470000   0.92466575 -8.2149955e-05   0.52778737 0.0006444807            0   0.52714289    1.3696611    1.8974485   -2.3086292 
 6475000   0.96456676 3.2156942e-05   0.50033939 0.0029455463            0   0.49739384    1.4287645    1.9291039    3.5755393 
 6480000    0.9608086 -7.9977848e-05   0.51196961 0.0082909998            0   0.50367861    1.4231977    1.9351673   -2.1596985 
 6485000   0.95729031 -3.2472287e-05    0.5304019   0.01850481            0   0.51189709    1.4179863    1.9483882   0.28580709 
 6490000   0.94340059 3.0354396e-05   0.54409762  0.022938713            0   0.52115891    1.3974121    1.9415098    3.4956548 
 6495000    0.9455988 -2.2707697e-05   0.55624685   0.02445943            0   0.53178742    1.4006682    1.9569151     0.794281 
 6500000   0.99631576 -2.4231921e-05   0.48946302  0.013305821            0    0.4761572    1.4757927    1.9652557   0.72458138 
 6505000   0.96142232 -5.0834715e-05    0.5474252 0.0045619772            0   0.54286322    1.4241068     1.971532  -0.63120543 
 6510000    1.0310561 4.7815316e-05   0.48344385  0.017297462            0   0.46614638    1.5272519    2.0106958    4.4588399 
 6515000    1.0231165 0.00013216003    0.5183709  0.017767605            0   0.50060329    1.5154914    2.0338623    8.8004558 
 6520000    1.0072044 3.4924949e-05   0.52089666 0.0062891803            0   0.51460748    1.4919215    2.0128181    3.8009755 
 6525000   0.91878474 -1.2529199e-05   0.66136845  0.021906373            0   0.63946208    1.3609499    2.0223183    1.3808234 
 6530000    1.0101914 2.4538945e-05   0.52767207  0.057247096            0   0.47042498    1.4963461    2.0240181    3.2804121 
 6535000   0.97286906 0.00011011029     0.580197  0.040951019            0   0.53924598    1.4410623    2.0212593    7.6589063 
 6540000   0.92818202 2.8634618e-05   0.64699938  0.046609123            0   0.60039026    1.3748696     2.021869    3.4879614 
 6545000    1.0433495 -2.9691403e-05   0.46297962   0.04078839            0   0.42219123    1.5454615    2.0084411   0.48824124 
 6550000    1.0088897 4.4201556e-05   0.53319391 0.0056801595            0   0.52751375    1.4944179    2.0276118    4.2907315 
 6555000    1.0360704 2.4940579e-05   0.48806658  0.011610776            0    0.4764558    1.5346794    2.0227459    3.2997036 
 6560000   0.98834171 -1.8785301e-05   0.53966133  0.015683091            0   0.52397824    1.4639812    2.0036425    1.0418351 
 6565000    1.0278854 -3.0367538e-05    0.5045557  0.043210219            0   0.46134548    1.5225553     2.027111   0.47229304 
 6570000   0.99264022 2.7295837e-05   0.57156625  0.056124983            0   0.51544126    1.4703483    2.0419146    3.4394614 
 6575000    1.0390138 7.7567821e-05   0.49193448  0.011928145            0   0.48000633    1.5390391    2.0309736    6.0024461 
 6580000    1.0530576 5.7523942e-06   0.46161497  0.018065325            0   0.44354964    1.5598416    2.0214565    2.3159791 
 6585000    1.0754126 -3.6125682e-05   0.40722054  0.017052567            0   0.39016798    1.5929549    2.0001755   0.15054052 
 6590000   0.99282517 4.3637961e-05   0.53431032  0.026051284            0   0.50825904    1.4706223    2.0049326    4.2391962 
 6595000    1.0031177 3.7462571e-06    0.5175702  0.029140491            0   0.48842971    1.4858682    2.0034384    2.1952467 
 6600000   0.97884302 -0.00011228324   0.54682017 0.0058050168            0   0.54101516    1.4499112    1.9967314   -3.7521707 
 6605000   0.99754738 -5.4013906e-06   0.52576254 0.0037364145            0   0.52202613    1.4776171    2.0033796    1.7268284 
 6610000     1.019408 5.3623741e-05   0.45974972 0.0069084213            0   0.45284129     1.509998    1.9697478    4.7152833 
 6615000   0.93737367 8.1858161e-06   0.54850308  0.047881286            0    0.5006218    1.3884847    1.9369878    2.3561016 
 6620000   0.98418255 8.2593336e-05   0.49618871  0.071432095            0   0.42475662    1.4578204    1.9540091    6.1827879 
 6625000    1.0069466 -2.2820995e-05   0.46346917  0.011626496            0   0.45184268    1.4915396    1.9550088   0.78657382 
 6630000    1.0038174 4.9986619e-07   0.51358116  0.019136398            0   0.49444477    1.4869046    2.0004858    2.0260789 
 6635000   0.97001698 1.4166541e-05   0.58589232   0.02000576            0   0.56588656    1.4368377      2.02273    2.7480569 
 6640000    1.0358583 -9.0339092e-05   0.49596276  0.026120191            0   0.46984257    1.5343651    2.0303278   -2.5950337 
 6645000     1.014631 -0.00014186501   0.54612557    0.0263533            0   0.51977227    1.5029222    2.0490478   -5.2144405 
 6650000    1.0870637 3.3437822e-05   0.44113623  0.028800609            0   0.41233562    1.6102131    2.0513493    3.7633658 
 6655000    1.0607898 0.00011624106   0.48739783 0.0027953778            0   0.48460246    1.5712949    2.0586928     8.010235 
 6660000   0.99248578 8.5124665e-05   0.57951102 7.5670023e-06            0   0.57950345    1.4701196    2.0496306    6.4080134 
 6665000    1.0415229 4.6027195e-05   0.53149718 0.0029137103            0   0.52858347    1.5427558    2.0742529    4.4308453 
 6670000    1.0175357 3.9743752e-05   0.56564999 0.0099670261            0   0.55568297    1.5072248    2.0728748    4.1077549 
 6675000    1.0743802 4.6025758e-05   0.50403042  0.012826406            0   0.49120401    1.5914257    2.0954561     4.451975 
 6680000    1.0462364 8.9367234e-07   0.53064282 0.0074758518            0   0.52316697    1.5497377    2.0803805    2.1261365 
 6685000    1.0127694 7.8324756e-05   0.52129284 0.0080977589            0   0.51319508    1.5001647    2.0214575     6.031685 
 6690000    1.0398428 -6.9119594e-05   0.50614957 0.0063312978            0   0.49981828    1.5402672    2.0464167   -1.4925065 
 6695000   0.95142579 -7.9885459e-05   0.67855737  0.059329461            0   0.61922791    1.4092994    2.0878568   -2.0022787 
 6700000    1.0424744 -0.00011732336   0.54408286  0.052510873            0   0.49157199    1.5441652    2.0882481   -3.9187078 
 6705000    1.0707617 -4.0133257e-05   0.53434674  0.025734525            0   0.50861222    1.5860657    2.1204125  0.065589704 
 6710000    1.1029082 3.227555e-05   0.48267225  0.019334533            0   0.46333771    1.6336828     2.116355    3.7688631 
 6715000    1.0461047 5.3180504e-05   0.55742039  0.022668559            0   0.53475183    1.5495426     2.106963    4.8298048 
 6720000    1.1292911 4.1110498e-05   0.43882028  0.040588642            0   0.39823164    1.6727625    2.1115828    4.2164403 
 6725000   0.98908036 -4.4734516e-06   0.65552073  0.036250726            0   0.61927001    1.4650753     2.120596    1.8915553 
 6730000    1.0533148 8.5196214e-05   0.57491676  0.043194096            0   0.53172266    1.5602226    2.1351394    6.4971855 
 6735000      1.15692 7.1221543e-05   0.43007377  0.022704107            0   0.40736967    1.7136878    2.1437616    5.7903046 
 6740000    1.0742218 1.509918e-06   0.56134264  0.024200091            0   0.53714255     1.591191    2.1525337    2.2298415 
 6745000    1.0685708 4.3019445e-05   0.55257836  0.032116102            0   0.52046225    1.5828205    2.1353988    4.3379944 
 6750000    1.0416484 5.857428e-05   0.58429873  0.018901291            0   0.56539743    1.5429417    2.1272404    5.1262436 
 6755000    1.1003318 -2.659134e-05   0.49500772  0.020841312            0   0.47416641    1.6298666    2.1248743   0.76339764 
 6760000    1.0204012 3.0493022e-05   0.61064081    0.0770906            0   0.53355021    1.5114693    2.1221101    3.6833528 
 6765000     1.028537 0.00013885816   0.60722701   0.06134574            0   0.54588127    1.5235204    2.1307474     9.240285 
 6770000    1.0482586 7.9839015e-05   0.56321768  0.016697349            0   0.54652033    1.5527331    2.1159508    6.2037083 
 6775000    1.0666974 -9.7613565e-05   0.50159211   0.04462598            0   0.45696613    1.5800456    2.0816377   -2.9161768 
 6780000    1.1277238 -8.4924533e-05   0.40846292  0.017022868            0   0.39144005    1.6704409    2.0789038   -2.2692323 
 6785000    1.0402522 -6.6425448e-05   0.57740097 0.0065986656            0   0.57080231    1.5408736    2.1182746   -1.2827084 
 6790000    1.1825816 -6.5216564e-05   0.36472837   0.02315363            0   0.34157474     1.751699    2.1164274   -1.2226607 
 6795000    1.0704271 -4.1678145e-05   0.53905785  0.011930316            0   0.52712753    1.5855702     2.124628 -0.0092930089 
 6800000     1.104406 -7.1100675e-06   0.48370554  0.026300625            0   0.45740491    1.6359015     2.119607    1.7555715 
 6805000    1.0230026 6.1489769e-05   0.57195317  0.022877311            0   0.54907586    1.5153226    2.0872758     5.235552 
 6810000    1.0265984 7.8840119e-05   0.58063308  0.026044741            0   0.55458834    1.5206489     2.101282    6.1378961 
 6815000     1.045495 0.00014098201   0.55103625   0.04373873            0   0.50729752    1.5486395    2.0996758    9.3179548 
 6820000    1.0473421 7.6185296e-05   0.52504993  0.023743071            0   0.50130685    1.5513754    2.0764254    5.9771125 
 6825000    1.0034724 -1.8247036e-05   0.56940119  0.020004911            0   0.54939627    1.4863935    2.0557947    1.1215465 
 6830000   0.98313668 -5.7659044e-06   0.56354975  0.012439344            0    0.5511104    1.4562712     2.019821    1.7246067 
 6835000    1.0487482 8.7894836e-06   0.44828774  0.021329221            0   0.42695852    1.5534583    2.0017461    2.4517676 
 6840000    1.0683136 2.4381282e-05   0.43712086  0.046827323            0   0.39029353    1.5824395    2.0195603    3.2678819 
 6845000   0.99742088 4.2289297e-05   0.55926688  0.033436675            0    0.5258302    1.4774297    2.0366966    4.2019086 
 6850000    1.0277178 -2.2847103e-05   0.48822523  0.054493939            0   0.43373129    1.5223069    2.0105322    0.8407605 
 6855000   0.98755789 -8.0805945e-05   0.54640156  0.012564999            0   0.53383656    1.4628201    2.0092217   -2.1280427 
 6860000    1.0843966 -1.4764251e-05   0.37058152  0.023817856            0   0.34676367    1.6062625    1.9768441    1.2209144 
 6865000   0.97947187 -7.8263083e-05   0.52358404  0.064811637            0   0.45877241    1.4508427    1.9744267   -2.0326431 
 6870000    1.0334945 -0.00013338865    0.4478329 0.0081296602            0   0.43970324    1.5308637    1.9786966   -4.8508021 
 6875000    1.0277828 6.6249887e-05   0.42265324 0.00027290542            0   0.42238033    1.5224033    1.9450566    5.3370508 
 6880000    1.0417775 0.00011686542   0.39152191 0.0054409728            0   0.38608094     1.543133    1.9346549    7.9181642 
 6885000   0.97666051 -1.6658366e-05   0.48252077  0.013252167            0    0.4692686    1.4466784    1.9291991    1.0762908 
 6890000   0.97266829 -2.2335832e-05   0.48212681  0.031626983            0   0.45049983    1.4407649    1.9228917   0.77929712 
 6895000    1.0042396 -5.0405681e-05   0.46634614  0.059658913            0   0.40668723    1.4875298     1.953876  -0.62689488 
 6900000   0.98465543 -0.00010543665   0.49774368  0.048257244            0   0.44948644    1.4585209    1.9562645    -3.442092 
 6905000   0.97586859 -4.8709059e-06   0.49951481   0.04585633            0   0.45365848    1.4455054    1.9450202    1.6956298 
 6910000    0.9541168 3.6452876e-05   0.49473337  0.018229212            0   0.47650416    1.4132855    1.9080189    3.7744062 
 6915000   0.97981306 -0.00012842724   0.47052229  0.010028887            0    0.4604934    1.4513481    1.9218704   -4.6536044 
 6920000   0.97888723 -0.00014591297   0.44193113  0.011062428            0   0.43086871    1.4499767    1.8919078   -5.5788361 
 6925000    1.0728604 1.0538109e-05   0.31899753 0.0057449009            0   0.31325263    1.5891744     1.908172    2.4477231 
 6930000    0.9242404 6.392546e-05   0.53610296  0.018121726            0   0.51798124    1.3690311     1.905134    5.1781176 
 6935000   0.97948337 8.9303291e-05   0.45482073  0.013262581            0   0.44155815    1.4508597    1.9056805     6.478009 
 6940000   0.93204406 -4.4181949e-05   0.50204006 0.0018387511            0   0.50020131    1.3805903    1.8826303  -0.37948544 
 6945000    0.9413282 -3.0368473e-05   0.49125136 0.0077248783            0   0.48352648    1.3943424    1.8855937   0.33072794 
 6950000   0.95224085 -7.7551547e-07    0.4655464  0.031127861            0   0.43441854    1.4105068    1.8760532    1.8363468 
 6955000   0.93664783 -0.00018918056   0.48030545   0.04341697            0   0.43688848    1.3874096     1.867715   -7.8183295 
 6960000   0.95920354 -0.00014862375   0.45641873  0.048716975            0   0.40770176    1.4208202     1.877239   -5.7322971 
 6965000   0.95736003 3.8890201e-05   0.49096036  0.028452301            0   0.46250806    1.4180895    1.9090499    3.9002282 
 6970000   0.96744494 4.733686e-06   0.48633563  0.019998937            0   0.46633669    1.4330278    1.9193635    2.1617282 
 6975000   0.89784905 -1.9767787e-06   0.58842638  0.011542856            0   0.57688353    1.3299389    1.9183653    1.8171542 
 6980000   0.95711433 -6.331064e-05   0.53401092  0.029377573            0   0.50463335    1.4177256    1.9517365   -1.2897682 
 6985000     1.030224 3.3339938e-05    0.4332166  0.031407207            0   0.40180939    1.5260193    1.9592359    3.6662407 
 6990000   0.98684604 4.4948075e-06   0.51885649  0.017507039            0   0.50134945    1.4617657    1.9806222    2.2107563 
 6995000   0.92852008 -0.00012334825   0.61216556  0.076776591            0   0.53538897    1.3753704    1.9875359   -4.3278945 
 7000000    1.0614686 0.00011573388   0.42133511  0.022817121            0   0.39851799    1.5723003    1.9936354      7.91921 
 7005000   0.93428672 5.9833597e-05   0.59452071  0.042698943            0   0.55182177    1.3839122    1.9784329    5.0419131 
 7010000   0.99839099 -0.00010780913    0.4959745  0.015383461            0   0.48059104    1.4788667    1.9748412   -3.5449865 
 7015000   0.97627213 -2.8413586e-05    0.5163734 0.0039041829            0   0.51246922    1.4461031    1.9624765   0.50770089 
 7020000   0.92928271 5.5106349e-05   0.57047481   0.01179347            0   0.55868134       1.3765    1.9469748    4.7684199 
 7025000   0.96384787 1.5918482e-05   0.54016525  0.026411063            0   0.51375419    1.4276997    1.9678649    2.7828912 
 7030000    0.9615023 2.3146776e-06   0.53812719   0.03173468            0   0.50639251    1.4242253    1.9623525     2.080864 
 7035000    1.0465328 3.4192707e-05   0.42838335  0.016626219            0   0.41175713    1.5501767      1.97856    3.7292266 
 7040000    1.0069291 -3.6893994e-06   0.51133951 0.0023156666            0   0.50902384    1.4915137    2.0028532    1.8139559 
 7045000   0.98348761 9.1004231e-05   0.54791362  0.017132596            0   0.53078103     1.456791    2.0047046    6.6641213 
 7050000    1.0005746 7.7001794e-05   0.50280988  0.026342595            0   0.47646728    1.4821011    1.9849109    5.9274028 
 7055000   0.89369494 -8.7913493e-05   0.64689487  0.011635954            0   0.63525891    1.3237856    1.9706805   -2.5304904 
 7060000   0.99052729 -4.3712276e-05    0.5015218  0.027340191            0   0.47418161    1.4672185    1.9687403  -0.26932818 
 7065000   0.92844988 2.1511281e-06   0.62951552  0.035472071            0   0.59404345    1.3752664    2.0047819    2.1149197 
 7070000    1.0074138 1.3802702e-05   0.50305499  0.014442484            0    0.4886125    1.4922317    1.9952866     2.701985 
 7075000     1.119325 -2.1880673e-05   0.35668714  0.011492581            0   0.34519456    1.6580001    2.0146872   0.89439676 
 7080000    1.0335615 -3.0822141e-05   0.45192573 0.0047989181            0   0.44712681     1.530963    1.9828887   0.40479512 
 7085000    1.0444586 7.2545831e-06    0.4634729 0.0070849765            0   0.45638792    1.5471044    2.0105773    2.3820119 
 7090000    1.0082604 3.1816807e-05   0.50696957  0.011702048            0   0.49526752    1.4934857    2.0004552    3.6294757 
 7095000   0.90429833 1.0181466e-05   0.61210493  0.034772268            0   0.57733266    1.3394919    1.9515968    2.4728879 
 7100000    0.9068578 6.3390361e-05   0.60640439  0.021124765            0   0.58527962    1.3432831    1.9496875     5.195274 
 7105000   0.89800333 -3.4463621e-06   0.62934495  0.034292712            0   0.59505224    1.3301674    1.9595124    1.7830586 
 7110000   0.93449938 -5.5081849e-06   0.56383327 0.0096094262            0   0.55422384    1.3842272    1.9480605    1.6660414 
 7115000   0.90964707 -7.2455645e-05   0.60853293 0.0023493604            0   0.60618357    1.3474147    1.9559476   -1.7537814 
 7120000    0.9002999 2.3891755e-05   0.62677206  0.056180255            0   0.57059181    1.3335692    1.9603413    3.1835991 
 7125000   0.93419806 6.8808319e-06   0.56315357   0.05465604            0   0.50849753    1.3837809    1.9469344     2.299233 
 7130000   0.97342671 4.2494318e-05   0.49122562  0.044858336            0   0.44636728    1.4418883    1.9331139     4.108823 
 7135000   0.89281435 0.00015053444   0.58710647  0.026393819            0   0.56071265    1.3224813    1.9095877    9.6169511 
 7140000   0.94787493 -7.2638547e-05   0.53401506  0.029391522            0   0.50462354    1.4040397    1.9380548   -1.7810388 
 7145000   0.93998282 -7.9511613e-05   0.53279059   0.06909236            0   0.46369824    1.3923496    1.9251401   -2.1458544 
 7150000   0.85281248 -0.00014907871    0.6544674   0.11185349            0   0.54261391    1.2632285    1.9176959   -5.7151341 
 7155000   0.97123543 6.5261928e-06   0.47256776   0.01364122            0   0.45892654    1.4386425    1.9112102    2.2453513 
 7160000   0.97316669 5.4033853e-05   0.45656971  0.012793423            0   0.44377629    1.4415032    1.8980729    4.6646061 
 7165000   0.93596808 5.412906e-05   0.53710442  0.055810665            0   0.48129376    1.3864027    1.9235071     4.694915 
 7170000    1.0707928 -1.2522354e-05   0.35248686 0.0079757238            0   0.34451113    1.5861119    1.9385987    1.2974542 
 7175000   0.97251122 1.4098472e-05   0.47873755  0.005170882            0   0.47356667    1.4405322    1.9192698    2.6411115 
 7180000   0.98317625 -5.6381568e-06   0.44114373  0.025915336            0   0.41522839    1.4563298    1.8974736    1.6087999 
 7185000   0.90344944 -2.5969009e-05   0.53041953  0.026282442            0   0.50413709    1.3382345     1.868654   0.53904077 
 7190000   0.88120809 9.5342947e-05    0.5701671  0.022964729            0   0.54720237    1.3052895    1.8754566    6.7570155 
 7195000   0.94967103 9.695256e-05   0.47021321 0.0045549845            0   0.46565822    1.4067002    1.8769134    6.8408845 
 7200000   0.92230568 0.00014347309    0.5299174  0.010798938            0   0.51911846    1.3661653    1.8960827     9.241905 
 7205000   0.96272808 6.486109e-05   0.43559585  0.024040413            0   0.41155544     1.426041    1.8616368    5.1825246 
 7210000   0.97353339 -4.6435278e-05   0.41945954  0.063544687            0   0.35591486    1.4420463    1.8615059  -0.51598037 
 7215000   0.96384999 5.4572627e-05   0.43574998  0.029190436            0   0.40655954    1.4277028    1.8634528    4.6575713 
 7220000   0.89143329 -4.382074e-05   0.55345093  0.049393181            0   0.50405775    1.3204356    1.8738865  -0.36973539 
 7225000   0.90850979 -7.5575558e-05   0.54949994  0.039714529            0   0.50978541    1.3457301    1.8952301   -1.9742385 
 7230000    1.0032981 7.3382582e-05    0.4002222 0.0056931842            0   0.39452902    1.4861352    1.8863574    5.6435456 
 7235000   0.93143563 -6.9178339e-05   0.49450936 0.0058872906            0   0.48862207     1.379689    1.8741984   -1.6677326 
 7240000   0.92160898 -8.717198e-05   0.50277975  0.014650046            0   0.48812971    1.3651333    1.8679131   -2.5952923 
 7245000   0.94633533 -2.8063274e-05   0.44697964 0.0043093829            0   0.44267026    1.4017592    1.8487389   0.41189922 
 7250000   0.96046545 -7.4684526e-05   0.44654191  0.009655568            0   0.43688634    1.4226895    1.8692314   -1.9546164 
 7255000    0.9462237 2.4649155e-05   0.45305888   0.01339921            0   0.43965967    1.4015939    1.8546527    3.1166895 
 7260000   0.99243971 4.2347829e-05   0.39045558 0.0053613994            0   0.38509418    1.4700513    1.8605069    4.0287158 
 7265000   0.94720661 -4.6065828e-05   0.45438422  0.024059434            0   0.43032479    1.4030498     1.857434  -0.50113639 
 7270000   0.90365588 -6.5899333e-05   0.52878616  0.024618051            0   0.50416811    1.3385403    1.8673264   -1.5067194 
 7275000   0.92186346 -8.209205e-05   0.47898359  0.012854856            0   0.46612874    1.3655102    1.8444938   -2.3586191 
 7280000   0.97403019 -3.1571767e-05   0.38997461   0.01001814            0   0.37995647    1.4427822    1.8327568   0.21628236 
 7285000   0.91651676 -3.4975743e-05   0.47990567  0.064882069            0    0.4150236    1.3575905    1.8374961  0.046738071 
 7290000   0.89116243 7.1450777e-05   0.51199672  0.054792426            0   0.45720429    1.3200344    1.8320311    5.4903108 
 7295000   0.96319837 0.00010296493   0.42320283  0.024595321            0   0.39860751    1.4267376    1.8499404    7.1217448 
 7300000   0.92219998 -4.5048998e-05   0.49999421 0.0079144883            0   0.49207972    1.3660087    1.8660029  -0.44050578 
 7305000   0.92343154 -1.9699092e-05   0.52065247  0.019345056            0   0.50130741     1.367833    1.8884854   0.87989192 
 7310000   0.88688074 -1.4609951e-05   0.59019412   0.02852255            0   0.56167157    1.3136921    1.9038862    1.1558567 
 7315000   0.97935825 5.9189592e-05   0.46599801  0.014733713            0   0.45126429    1.4506744    1.9166724    4.9471795 
 7320000   0.98761861 5.4799325e-05   0.44520744  0.010913316            0   0.43429413    1.4629101    1.9081175     4.713843 
 7325000   0.99471034 -3.4932931e-05   0.44755499 0.0082258275            0   0.43932916    1.4734147    1.9209697   0.13240362 
 7330000   0.92041885 1.6725579e-05   0.54495215  0.022335228            0   0.52261692    1.3633704    1.9083226    2.7646722 
 7335000   0.95233921 5.3861538e-06   0.53242271  0.024879956            0   0.50754275    1.4106525    1.9430752    2.2188462 
 7340000   0.96445896 1.3084967e-05   0.52640459 0.0098055221            0   0.51659907    1.4286048    1.9550094    2.6249597 
 7345000     1.003575 7.6547668e-06   0.45623912 0.0053096708            0   0.45092945    1.4865454    1.9427846    2.3347086 
 7350000   0.93451103 -5.7208718e-05   0.54874506 0.0037915976            0   0.54495346    1.3842445    1.9329895  -0.99609685 
 7355000   0.91418688 2.6878391e-06    0.5558804  0.036179412            0   0.51970098    1.3541393    1.9100197    2.0476371 
 7360000   0.92357452 0.00014377817   0.53056495  0.048157696            0   0.48240726    1.3680448    1.8986097    9.2600518 
 7365000    1.0031012 6.3501164e-05   0.40456677  0.030925135            0   0.37364163    1.4858436    1.8904104      5.14167 
 7370000   0.91652108 -0.0001325035   0.58220178 0.0050003981            0   0.57720138    1.3575968    1.9397986   -4.8443807 
 7375000    1.0034429 -9.0824375e-05   0.44906727 0.0063632589            0   0.44270402    1.4863499    1.9354171   -2.7147909 
 7380000   0.95471903 3.7077229e-05   0.49570189  0.014531077            0   0.48117082    1.4141776    1.9098795    3.8082336 
 7385000   0.95195127 -5.5727777e-05   0.49314596  0.010814967            0     0.482331    1.4100778    1.9032238   -0.9500384 
 7390000    0.9225614 -6.5775605e-05   0.53160547  0.031889443            0   0.49971603    1.3665441    1.8981495   -1.4695614 
 7395000   0.93314085 8.1339677e-05    0.4992082  0.033106927            0   0.46610127    1.3822149    1.8814231    6.0460145 
 7400000   0.97545506 9.263063e-05   0.43612051   0.01742572            0   0.41869479    1.4448928    1.8810133    6.6237016 
 7405000   0.98861451 -6.6017855e-05   0.42921209  0.032515921            0   0.39669617    1.4643852    1.8935973   -1.4865168 
 7410000   0.92443427 -5.38638e-05   0.52305944  0.031090853            0   0.49196858    1.3693183    1.8923777  -0.86544888 
 7415000    0.9785001 -9.3735084e-06   0.45573992  0.018860487            0   0.43687943    1.4494033    1.9051432    1.4252196 
 7420000   0.94356944 7.7410587e-05   0.50198616 0.0095902682            0   0.49239589    1.3976622    1.8996484    5.8630704 
 7425000   0.95915136 0.00014850745   0.46897153 0.0063856194            0   0.46258591    1.4207429    1.8897145    9.4932959 
 7430000   0.96638429 7.3225629e-05   0.48352549  0.018341449            0   0.46518404    1.4314567    1.9149822    5.6641344 
 7435000    1.0251919 8.7112879e-06   0.41325262  0.013475648            0   0.39977697    1.5185655    1.9318181     2.377836 
 7440000   0.95441171 8.1929999e-06   0.52107018 0.0044914993            0   0.51657868    1.4137224    1.9347925    2.3542741 
 7445000   0.97481479 9.4889625e-05   0.50551941 0.0069074136            0     0.498612    1.4439444    1.9494638    6.8078126 
 7450000   0.94176098 7.0794253e-05   0.51167044  0.020881841            0    0.4907886    1.3949834    1.9066539    5.5313197 
 7455000   0.96976417 1.6487208e-05    0.4741995  0.026020792            0   0.44817871    1.4364632    1.9106627    2.7548077 
 7460000   0.99082384 -2.0856517e-05   0.42305462  0.011609099            0   0.41144552    1.4676578    1.8907124   0.82285876 
 7465000   0.94607493 -1.9093742e-05   0.51162061  0.015189207            0    0.4964314    1.4013735    1.9129941   0.93539454 
 7470000   0.91011385 -3.2427399e-06   0.58645311  0.015865278            0   0.57058783    1.3481061    1.9345592     1.768531 
 7475000   0.98432899 0.00012516828   0.46510403  0.020069408            0   0.44503463    1.4580373    1.9231413    8.3317574 
 7480000     1.037818 6.1539925e-05   0.40610623  0.013889663            0   0.39221657    1.5372679    1.9433741    5.0942183 
 7485000    0.9709196 3.6056508e-05   0.52566306  0.047029197            0   0.47863386    1.4381747    1.9638377    3.8099309 
 7490000   0.95122728 7.9147306e-05   0.57487328  0.028875767            0   0.54599752    1.4090054    1.9838787    6.0362208 
 7495000   0.96187863 2.8815004e-05   0.54300586   0.01733592            0   0.52566994    1.4247827    1.9677886    3.4431168 
 7500000   0.93006962 0.00010370862   0.57662028 0.0058023716            0   0.57081791    1.3776656    1.9542859    7.2641675 
 7505000   0.98809677 0.00017450872   0.47367946  0.018749482            0   0.45492998    1.4636183    1.9372978    10.872144 
 7510000   0.96225894 4.7537389e-05   0.52964425  0.027538467            0   0.50210579    1.4253461    1.9549903    4.3889046 
 7515000   0.94669211 6.7957627e-06   0.56049858  0.013515599            0   0.54698298    1.4022877    1.9627863    2.3107293 
 7520000    1.0655771 5.3979645e-05   0.37383562  0.010870874            0   0.36296475    1.5783861    1.9522217    4.7159795 
 7525000   0.98599713 1.4895172e-05   0.48894071 0.0097000782            0   0.47924063    1.4605082     1.949449    2.7120818 
 7530000     1.014392 -1.0806092e-06    0.4878485  0.025526273            0   0.46232222    1.5025681    1.9904166    1.9350894 
 7535000   0.98142283 -2.2863461e-05   0.56024193  0.010697445            0   0.54954448    1.4537326    2.0139745    0.8433653 
 7540000   0.95239366 -5.0878903e-05   0.57385784  0.020682366            0   0.55317548    1.4107331    1.9845909  -0.62040891 
 7545000    1.0514141 -4.2414352e-05   0.44736544   0.01201165            0   0.43535379    1.5574071    2.0047725  -0.16684232 
 7550000    1.0526464 -6.3404118e-05   0.46200946  0.021744238            0   0.44026523    1.5592325     2.021242   -1.2250489 
 7555000   0.93512669 -0.00010367143   0.63989327  0.076935564            0   0.56295771    1.3851564    2.0250497   -3.2829275 
 7560000    1.0107274 -3.6766649e-05   0.51617193   0.05992704            0   0.45624489      1.49714    2.0133119   0.13085947 
 7565000    1.0874713 5.2005052e-05   0.45336461  0.018649802            0    0.4347148    1.6108168    2.0641814    4.7268401 
 7570000    1.0508625 -3.6534281e-06   0.54514094 0.0027015511            0   0.54243939      1.55659     2.101731    1.9146754 
 7575000    1.0204687 -1.001013e-05   0.55518032  0.024867845            0   0.53031248    1.5115693    2.0667496     1.554231 
 7580000    1.0936511 -1.5141492e-05   0.48436764  0.030606282            0   0.45376135    1.6199706    2.1043383    1.3290939 
 7585000    1.0682284 -6.7983818e-05   0.49798424 0.0049236869            0   0.49306055    1.5823133    2.0802975    -1.400474 
 7590000    1.1007035 -1.4614279e-05   0.42199163  0.013154123            0    0.4088375     1.630417    2.0524086    1.3041575 
 7595000    1.0235742 3.2700586e-06   0.51733872  0.034309187            0   0.48302954    1.5161693     2.033508     2.200935 
 7600000    1.0025157 7.6409567e-05   0.55116628  0.047513798            0   0.50365248    1.4849763    2.0361426    5.9483124 
 7605000    1.0446688 0.00011406813   0.48902447  0.040436659            0   0.44858781    1.5474157    2.0364402    7.8767284 
 7610000   0.97658899 3.4242295e-05   0.57981896  0.066963451            0   0.51285551    1.4465724    2.0263914    3.7795969 
 7615000   0.91434393 -0.00010399853   0.69056152  0.032635069            0   0.65792645    1.3543719    2.0449335   -3.2797911 
 7620000   0.94255762 -0.00012140983   0.62409744   0.04056257            0   0.58353487    1.3961635    2.0202609   -4.1959226 
 7625000     1.045307  -3.9086e-05    0.5164594  0.012028254            0   0.50443114    1.5483611    2.0648205  0.063617228 
 7630000    1.1376983 -1.9838921e-05   0.39339178 0.0010163719            0   0.39237541    1.6852155    2.0786073    1.0628546 
 7635000    1.0731704 1.0638601e-05   0.49176383  0.012441947            0   0.47932188    1.5896336    2.0813974    2.6260938 
 7640000    1.0258527 -4.362681e-05   0.54547509  0.040063654            0   0.50541143    1.5195443    2.0650194  -0.16867324 
 7645000    1.0580218 3.8448386e-05   0.51879604  0.018175361            0   0.50062068    1.5671948    2.0859909    4.0545482 
 7650000    1.0236698 8.1244346e-05   0.57254404 0.0003837576            0   0.57216028    1.5163108    2.0888549    6.2485654 
 7655000     1.090364 -1.0288765e-06   0.46245857 0.0031099072            0   0.45934867    1.6151017    2.0775603    2.0248818 
 7660000      1.02317 -5.4341735e-05    0.5229248  0.033314482            0   0.48961031    1.5155706    2.0384954  -0.74380146 
 7665000    1.0286243 -9.6450085e-05    0.5053752  0.023497525            0   0.48187767    1.5236498     2.029025   -2.9092194 
 7670000    1.0736161 7.2707179e-06   0.45231434  0.010581156            0   0.44173318    1.5902938    2.0426082    2.4148689 
 7675000    1.0013109 -2.7662973e-05   0.53528376 0.0047325422            0   0.53055122    1.4831918    2.0184755   0.60213131 
 7680000      1.06648 -9.5839126e-05     0.423529 0.0034553392            0   0.42007366    1.5797235    2.0032525   -2.9037107 
 7685000    1.0388049 5.7955529e-05   0.44781546  0.014647338            0   0.43316813    1.5387297    1.9865451    4.9538682 
 7690000   0.97750559 3.9817713e-05    0.4843541  0.013681526            0   0.47067258    1.4479302    1.9322843    3.9709512 
 7695000    0.9717638 -9.812327e-05   0.48238863 0.0082258794            0   0.47416275    1.4394251    1.9218138   -3.1020976 
 7700000   0.91544434 -9.2889492e-05   0.56381697  0.037895923            0   0.52592105    1.3560019    1.9198189   -2.8361231 
 7705000   0.96386628 -0.00017178631   0.48544847  0.032314216            0   0.45313426    1.4277269    1.9131754   -6.8822838 
 7710000   0.97841182 -0.00020200014   0.42766242 0.0038914784            0   0.42377095    1.4492725    1.8769349   -8.4654721 
 7715000   0.93997835 -2.6363622e-05    0.4910685  0.013394636            0   0.47767387    1.3923429    1.8834114   0.53359402 
 7720000   0.95926751 9.4890196e-05   0.48197534  0.034468673            0   0.44750667     1.420915    1.9028903    6.7612684 
 7725000     1.026882 9.4471538e-05   0.41818796  0.018922098            0   0.39926586    1.5210689    1.9392569    6.7761996 
 7730000    1.0054052 1.2581174e-06   0.48089074  0.043853398            0   0.43703735    1.4892565    1.9701472    2.0345628 
 7735000   0.96475842 -2.6188653e-05   0.55760415  0.054868305            0   0.50273584    1.4290484    1.9866525   0.64579354 
 7740000    1.0237794  5.45616e-05   0.48669863   0.01492856            0   0.47177007    1.5164732    2.0031718    4.7967257 
 7745000    1.0545499 5.7403957e-05   0.44485402 0.0037768383            0   0.44107718     1.562052     2.006906    4.9459886 
 7750000    1.0135627 -1.4621148e-05   0.52414095 0.0034985814            0   0.52064237    1.5013398    2.0254807    1.2768779 
 7755000    1.0051716 -7.4263493e-05   0.51707439 0.0048310173            0   0.51224337    1.4889104    2.0059848   -1.7963061 
 7760000    1.0566057 3.5351724e-05   0.44708154 0.0062304926            0   0.44085105    1.5650972    2.0121787     3.822187 
 7765000    1.0485265  5.84299e-05   0.44359957  0.016640485            0   0.42695909    1.5531299    1.9967294    4.9883403 
 7770000   0.96952228 -3.7671587e-05   0.57547431  0.027924757            0   0.54754955    1.4361049    2.0115792  0.082793906 
 7775000    1.0648023 3.152091e-05    0.4142652    0.0320881            0    0.3821771    1.5772385    1.9915037    3.6053743 
 7780000   0.93253084 7.8464668e-06   0.62197579  0.027678718            0   0.59429707    1.3813113    2.0032871    2.4050262 
 7785000   0.97446883 -1.8996623e-05   0.55696195  0.011133211            0   0.54582874     1.443432    2.0003939    1.0277668 
 7790000   0.99742568 3.9621207e-05   0.52779343 0.0087309725            0   0.51906246    1.4774368    2.0052302     4.033836 
 7795000    1.0036063 1.2953872e-05   0.52260855  0.043818959            0   0.47878959    1.4865918    2.0092004    2.6724386 
 7800000    1.0173907 2.2584284e-05   0.48366196  0.038338304            0   0.44532366      1.50701     1.990672    3.1469873 
 7805000    1.0318954 -5.8811478e-05   0.47689062  0.023840043            0   0.45305057    1.5284951    2.0053857    -1.005762 
 7810000   0.93869795 -8.0332074e-05   0.59892111  0.047110128            0   0.55181098    1.3904463    1.9893675   -2.1236347 
 7815000    1.0356539 -7.2561441e-05   0.46254672   0.02678428            0   0.43576244    1.5340623     1.996609   -1.7185368 
 7820000   0.94077082 -4.7320042e-05   0.60134043 0.0068454569            0   0.59449498    1.3935168    1.9948572  -0.42792892 
 7825000   0.97393545 0.00010719777   0.50312728  0.020654094            0   0.48247318    1.4426419    1.9457692    7.4342949 
 7830000    1.0150079 3.7573677e-05   0.45232953  0.017835117            0   0.43449441    1.5034805      1.95581    3.8795823 
 7835000    1.0333927 -7.4235901e-05   0.44530874  0.007755712            0   0.43755303     1.530713    1.9760217   -1.8248564 
 7840000   0.98229026 1.3125864e-05   0.51640157 0.0031257967            0   0.51327577    1.4550174     1.971419    2.6434633 
 7845000   0.95414647 0.00014953764   0.57289018 0.0011877962            0   0.57170239    1.4133295    1.9862196    9.6425468 
 7850000    1.0492846 3.8845785e-05   0.44664541 0.0038281847            0   0.44281722    1.5542528    2.0008982    3.9898024 
 7855000   0.94087464 -0.0001229645   0.59672731 0.0085052399            0   0.58822207    1.3936706    1.9903979   -4.3053843 
 7860000    1.0134237 -6.3696606e-05   0.50167683   0.01077235            0   0.49090448    1.5011338    2.0028107   -1.2584556 
 7865000    1.0313124 -2.0335616e-05   0.47334812 0.0037132153            0    0.4696349    1.5276315    2.0009796   0.95979606 
 7870000    1.0288719 -9.7963454e-06   0.48864982 0.0055682566            0   0.48308157    1.5240165    2.0126663    1.5110934 
 7875000    0.9700834 4.6389186e-05   0.57831098  0.014608418            0   0.56370256     1.436936     2.015247    4.3903733 
 7880000   0.99112118 -1.3979914e-05   0.55029554  0.042018885            0   0.50827666    1.4680982    2.0183938    1.3026222 
 7885000    1.0501557 -3.7064074e-05   0.45814866  0.027852201            0   0.43029646    1.5555431    2.0136917   0.11601118 
 7890000    1.0125153 -5.7802741e-06    0.5482656  0.029677959            0   0.51858765    1.4997883    2.0480539    1.7521039 
 7895000     1.012228 7.3063547e-05   0.52106715  0.015448195            0   0.50561896    1.4993627    2.0204298    5.7612835 
 7900000    1.0087996 -5.3328977e-05   0.50036686 0.0010679981            0   0.49929887    1.4942845    1.9946513  -0.73579226 
 7905000    1.0689638 -0.00010183837    0.4291462  0.005921639            0   0.42322456    1.5834027    2.0125489   -3.2015757 
 7910000   0.96980097 4.9225286e-05   0.57354725  0.032385693            0   0.54116156    1.4365177    2.0100649    4.5303996 
 7915000    0.9268144 -4.5276557e-06   0.67643073  0.051086872            0   0.62534385    1.3728438    2.0492746    1.8174586 
 7920000    1.0331786 -0.0001354381    0.5228232  0.017205425            0   0.50561777    1.5303958     2.053219   -4.8812115 
 7925000    1.0965615 1.0234005e-05   0.42937167  0.028742951            0   0.40062872    1.6242818    2.0536534    2.5776345 
 7930000    1.0589792 -8.7070319e-07   0.49248109  0.014209471            0   0.47827162     1.568613    2.0610941    2.0165141 
 7935000   0.97985208 -7.5962722e-06   0.62600129  0.021511333            0   0.60448996    1.4514059    2.0774072     1.688478 
 7940000     1.086022 -5.3805483e-05    0.4880954   0.01862675            0   0.46946865    1.6086701    2.0967655  -0.65807523 
 7945000    1.1416926 -2.5274229e-05   0.45603379  0.012597891            0    0.4434359    1.6911322     2.147166   0.85312544 
 7950000    1.1651119 -2.519833e-05   0.41550878  0.012530961            0   0.40297782     1.725822    2.1413308   0.85117627 
 7955000    1.0725726 -0.00011568829   0.54114706  0.010228016            0   0.53091905    1.5887481    2.1298952   -3.7933453 
 7960000    1.1288916 8.6001302e-05   0.45579422 0.0076182513            0   0.44817597    1.6721706    2.1279648    6.5312315 
 7965000    1.0942809 0.00014743242   0.48769708  0.002180907            0   0.48551617    1.6209037    2.1086007    9.6571406 
 7970000    1.0771206 -2.0713332e-05   0.50005431  0.002214076            0   0.49784024    1.5954848    2.0955392    1.0350165 
 7975000    1.0763193 -9.8016244e-05   0.52302262  0.011793459            0   0.51122916     1.594298    2.1173206    -2.901111 
 7980000    1.0803752 -5.0631543e-05   0.52101956  0.025853476            0   0.49516609    1.6003058    2.1213254  -0.47100961 
 7985000    1.0909856 -4.7733602e-05   0.50462609  0.017794264            0   0.48683183    1.6160224    2.1206485  -0.32331194 
 7990000     1.087271 -8.2217535e-05   0.50917486  0.012365335            0   0.49680952    1.6105201     2.119695   -2.0898428 
 7995000    1.1309535   5.2139e-10   0.44668011   0.02191501            0   0.42476509    1.6752249     2.121905    2.1219317 
 8000000    1.1394867 4.3130128e-05   0.44602635  0.012728708            0   0.43329765    1.6878647     2.133891    4.3421536 
 8005000    1.0928212 2.9737512e-05   0.53982207  0.014192244            0   0.52562982    1.6187415    2.1585635    3.6811241 
 8010000     1.105416 -1.7419281e-05   0.52414794   0.01144762            0   0.51270032    1.6373975    2.1615454    1.2696783 
 8015000    1.1322217 2.1285748e-05   0.52788277  0.015496658            0   0.51238611    1.6771034    2.2049862    3.2948165 
 8020000    1.1351655 3.7639327e-05   0.51423029  0.018446763            0   0.49578352     1.681464    2.1956942    4.1228278 
 8025000    1.1873705 -3.6257567e-05   0.43653725  0.010529031            0   0.42600822    1.7587925    2.1953297    0.3389423 
 8030000    1.1174961 3.3763224e-06   0.53417448  0.030291541            0   0.50388294    1.6552911    2.1894656    2.3623333 
 8035000    1.1083469 4.9268118e-05   0.54319539  0.035885104            0   0.50731029    1.6417388    2.1849342    4.7074618 
 8040000    1.0949768 -6.2965292e-05   0.54734999  0.029620059            0   0.51772993    1.6219344    2.1692844   -1.0545386 
 8045000    1.1097842 -6.538548e-05   0.50424538  0.021766901            0   0.48247848    1.6438678    2.1481132   -1.1996234 
 8050000    1.0448104 -8.2066534e-05   0.59299523  0.025893267            0   0.56710196    1.5476254    2.1406206    -2.061186 
 8055000    1.1587695 1.1458097e-05   0.41256589  0.031542628            0   0.38102326    1.7164273    2.1289932    2.7156477 
 8060000    1.0763048 0.00010811852   0.57798449  0.022702435            0   0.55528206    1.5942764    2.1722609    7.7079291 
 8065000    1.1597394 0.00011438437   0.45739418  0.026306579            0    0.4310876    1.7178639    2.1752581    8.0317379 
 8070000    1.0988545 3.6296967e-05   0.57179119  0.028512378            0   0.54327881    1.6276783    2.1994695    4.0578742 
 8075000    1.0828697 -3.4792647e-05   0.57726583 0.0061959048            0   0.57106993    1.6040008    2.1812666   0.39988309 
 8080000     1.172892 -5.101758e-05   0.43803331  0.014100357            0   0.42393296    1.7373463    2.1753796  -0.43672047 
 8085000    1.1281081 -0.00011433331   0.51798449  0.045359418            0   0.47262507      1.67101    2.1889945   -3.6648709 
 8090000    1.0826929 1.4893439e-05   0.60499372  0.063432104            0   0.54156162    1.6037388    2.2087325    2.9712766 
 8095000    1.0718208 -5.94673e-05   0.62828797  0.017875128            0   0.61041284    1.5876346    2.2159226  -0.82880321 
 8100000    1.0736612 -0.00011210385   0.60506478  0.024552977            0    0.5805118    1.5903606    2.1954254   -3.5442917 
 8105000     1.087319 2.7230263e-05   0.57718354  0.046041946            0    0.5311416    1.6105913    2.1877748    3.5819643 
 8110000    1.1306371 2.5644097e-05   0.51837368  0.029973295            0   0.48840038    1.6747562    2.1931299    3.5061076 
 8115000    1.1066351 1.1923028e-05   0.55268661  0.010312145            0   0.54237447    1.6392033    2.1918899    2.8023489 
 8120000    1.1348889 4.8355763e-05   0.50651099 0.0065964626            0   0.49991453    1.6810542    2.1875652    4.6633802 
 8125000    1.0569518 7.6966828e-05   0.59792355  0.023221259            0   0.57470229    1.5656098    2.1635333    6.1042349 
 8130000    1.1063985 7.9485086e-05    0.4820392  0.022161392            0   0.45987781    1.6388527    2.1208919    6.1905283 
 8135000    1.0602885 -1.1595498e-05   0.55311003 0.0025949772            0   0.55051505    1.5705524    2.1236624    1.5299729 
 8140000     1.121473 2.9981235e-05   0.43348682 0.0063674301            0   0.42711939    1.6611818    2.0946687    3.6297079 
 8145000    1.0151316 0.00016853412   0.58741136  0.054735839            0   0.53267552    1.5036637     2.091075    10.720022 
 8150000    1.0903536 2.5313282e-05   0.46451066  0.041597105            0   0.42291355    1.6150862    2.0795969    3.3756369 
 8155000    1.0624322 -1.5235261e-06   0.48280673  0.023288363            0   0.45951836    1.5737277    2.0565344    1.9785299 
 8160000     1.037223 6.8411006e-06   0.53740963  0.025188957            0   0.51222067    1.5363866    2.0737963    2.4240606 
 8165000    1.0638346 -1.856883e-05   0.51522074  0.012047795            0   0.50317295    1.5758051    2.0910258    1.1403017 
 8170000    1.0329935 -8.0845945e-05   0.53551172  0.020933921            0    0.5145778    1.5301216    2.0656334    -2.073679 
 8175000    1.0521234 1.1047157e-05   0.48965487  0.054723101            0   0.43493177    1.5584578    2.0481127    2.6137271 
 8180000     1.057798 -6.0944299e-05   0.46817882  0.030510696            0   0.43766812    1.5668632     2.035042   -1.0853061 
 8185000    1.0850058 -3.7950907e-05   0.42797905  0.025346362            0   0.40263269    1.6071648    2.0351439  0.092057391 
 8190000    1.0719392 -3.7470951e-05   0.46036748  0.043359407            0   0.41700807    1.5878099    2.0481773   0.12966468 
 8195000    1.0375604 2.532243e-05   0.47715202     0.031226            0   0.44592602    1.5368863    2.0140383    3.3105467 
 8200000    1.0508537 9.6549366e-05   0.48095542  0.039450674            0   0.44150474     1.556577    2.0375324      6.98086 
 8205000    1.0528035 -9.0935876e-05   0.48708825  0.042445855            0   0.44464239    1.5594652    2.0465534   -2.6093634 
 8210000     1.014395 -2.4148989e-05     0.558332  0.082844369            0   0.47548763    1.5025726    2.0609046    0.8244764 
 8215000    1.0898649 0.0001343944   0.46322722  0.024546466            0   0.43868075    1.6143624    2.0775896    8.9585829 
 8220000    1.0532419 1.3842932e-05   0.51651429   0.02906149            0    0.4874528    1.5601145    2.0766288    2.7853869 
 8225000   0.96735062 -0.00013150272     0.627522  0.042578475            0   0.58494353    1.4328881    2.0604101   -4.6725292 
 8230000    1.0805471 -0.00016566482   0.45726336  0.030555266            0   0.42670809    1.6005605    2.0578238   -6.4242151 
 8235000    1.0691983 2.0959506e-05   0.49297581  0.013634656            0   0.47934115    1.5837499    2.0767257    3.1498525 
 8240000    1.0639843 5.8532706e-05   0.49665373  0.014806687            0   0.48184705    1.5760267    2.0726805     5.069555 
 8245000    1.0960915 -7.4348211e-05   0.45287649  0.017435243            0   0.43544125    1.6235855     2.076462   -1.7301664 
 8250000    1.1175794 -7.8896624e-05    0.4476084  0.014642463            0   0.43296594    1.6554144    2.1030228   -1.9364844 
 8255000     1.076192 -1.3250314e-05    0.4838138  0.010464773            0   0.47334903    1.5941094    2.0779232    1.3995072 
 8260000    1.1162857 9.1531246e-06   0.42587462  0.016271677            0   0.40960295    1.6534982    2.0793729    2.5480128 
 8265000    1.0971119 -0.00011399544   0.44340877  0.009201298            0   0.43420748     1.625097    2.0685058   -3.7680606 
 8270000    1.0777783 -0.00012253663     0.450108  0.052701236            0   0.39740676    1.5964591    2.0465671   -4.2273081 
 8275000     1.035133 -6.1594446e-05   0.51983638  0.037852765            0   0.48198362    1.5332907    2.0531271   -1.1005086 
 8280000     1.002691 1.5941634e-05   0.60436653  0.031100976            0   0.57326556    1.4852361    2.0896026    2.9058143 
 8285000    1.0687413 2.0070216e-05   0.51674511  0.018640275            0   0.49810484    1.5830731    2.0998182    3.1274133 
 8290000     1.028941 2.7850448e-05   0.57500147  0.040745541            0   0.53425592    1.5241189    2.0991203    3.5250632 
 8295000    1.0835245 -4.6724367e-05   0.50375719  0.004057953            0   0.49969924    1.6049707    2.1087279  -0.28355972 
 8300000    1.0829449 -2.5608889e-05   0.50582577 0.0055395051            0   0.50028627    1.6041121    2.1099379   0.79876276 
 8305000    1.1202923 -8.1694509e-05   0.43194476  0.017119314            0   0.41482544    1.6594329    2.0913777   -2.0913812 
 8310000    1.1010875 -0.00011833082   0.45992611 0.0039986157            0   0.45592749    1.6309859     2.090912   -3.9676258 
 8315000    1.1543257 -7.965925e-06   0.40761371 0.0095650679            0   0.39804864     1.709845    2.1174587    1.7096034 
 8320000    1.0533183 1.6332497e-05   0.58829281  0.086330988            0   0.50196182    1.5602278    2.1485206    2.9847444 
 8325000    1.0117883 -6.7741167e-05   0.66850499  0.043704746            0   0.62480024    1.4987114    2.1672164   -1.3011314 
 8330000    1.1600524 -0.00010549869   0.46739668 0.0077343206            0   0.45966236    1.7183277    2.1857244   -3.2158086 
 8335000    1.0612247 -5.6921775e-06   0.63428948  0.041162259            0   0.59312722     1.571939    2.2062285     1.914789 
 8340000    1.2078902 -1.4078976e-05   0.46698125  0.024782696            0   0.44219855    1.7891873    2.2561685     1.535325 
 8345000    1.1038394 -4.5678394e-05   0.63037338  0.035584059            0   0.59478932    1.6350622    2.2654355 -0.073298233 
 8350000    1.1251777 -2.5788423e-05   0.57516497  0.029886665            0    0.5452783    1.6666694    2.2418344   0.92146714 
 8355000      1.19414 -6.8175004e-05   0.47204508  0.018127244            0   0.45391784    1.7688199     2.240865   -1.2496952 
 8360000    1.1671769 -7.4967065e-05   0.53419565  0.012407026            0   0.52178862    1.7288807    2.2630764   -1.5752373 
 8365000    1.1947795 3.4888557e-05   0.48902045  0.035851394            0   0.45316905    1.7697671    2.2587875    4.0450817 
 8370000    1.1624982 5.6087878e-05   0.54629944 0.0088631835            0   0.53743626    1.7219505    2.2682499    5.1399493 
 8375000    1.2070164 -1.6307769e-05   0.47550469 0.0074100771            0   0.46809461     1.787893    2.2633977    1.4284399 
 8380000    1.2127958 6.0550363e-05   0.49291071  0.030486141            0   0.46242457    1.7964538    2.2893645    5.3895431 
 8385000    1.2245878 0.00013332507   0.47173168  0.021511363            0   0.45022032    1.8139207    2.2856523    9.1118957 
 8390000    1.1889733 2.836065e-05   0.50498937  0.013512569            0   0.49147681    1.7611667    2.2661561    3.7182214 
 8395000    1.1734299 8.8103666e-06   0.52168218  0.034061178            0     0.487621     1.738143    2.2598252     2.710916 
 8400000    1.1650645 7.3092373e-05   0.52585036  0.073425813            0   0.45242455    1.7257518    2.2516022    5.9939317 
 8405000    1.1386188 3.3668034e-05   0.55783602  0.022723473            0   0.53511254     1.686579    2.2444151    3.9682184 
 8410000     1.198699 -7.288412e-05   0.47546617  0.027520226            0   0.44794595     1.775573    2.2510391   -1.4806278 
 8415000     1.190736 -3.5196059e-05   0.44610824  0.019979744            0    0.4261285    1.7637778     2.209886   0.40784779 
 8420000    1.1872285 7.002774e-05   0.49143636  0.013197072            0   0.47823929    1.7585822    2.2500185    5.8354388 
 8425000    1.1038921 5.4370728e-06   0.57243004  0.050101179            0   0.52232886    1.6351401    2.2075702    2.4859483 
 8430000    1.1743034 -6.5946791e-05   0.45886829  0.020759683            0   0.43810861    1.7394369    2.1983052   -1.1781705 
 8435000    1.1907211 -1.8308667e-05   0.42955099  0.062098868            0   0.36745213    1.7637557    2.1933067    1.2559029 
 8440000    1.1271438 -1.2721396e-05   0.54036441  0.019617464            0   0.52074695    1.6695817    2.2099461    1.5586106 
 8445000    1.1750019 -9.0654442e-05   0.45938014 0.0044458532            0   0.45493429    1.7404715    2.1998517   -2.4416558 
 8450000    1.1495192 -0.00011859512   0.48730099  0.042398676            0   0.44490231    1.7027253    2.1900263    -3.882044 
 8455000    1.1496607 -4.5463518e-05   0.48650199  0.042391165            0   0.44411082    1.7029349    2.1894369  -0.13829526 
 8460000    1.1062297 -0.00011843833   0.58102506   0.02094414            0   0.56008092    1.6386027    2.2196278   -3.8444148 
 8465000    1.1021988 -9.8893978e-05   0.58141988  0.070150235            0   0.51126965    1.6326319    2.2140518   -2.8493199 
 8470000    1.1683824 8.9897018e-06   0.49945932    0.0155039            0   0.48395542    1.7306664    2.2301258    2.6903985 
 8475000    1.1133265 -0.00010077278   0.58234153  0.011995325            0    0.5703462    1.6491149    2.2314565   -2.9281098 
 8480000    1.1246055 -0.00018017643   0.56027403  0.018699933            0    0.5415741    1.6658219    2.2260959   -6.9989376 
 8485000    1.2382787 -6.8742547e-05   0.38872062  0.039099162            0   0.34962146    1.8342003    2.2229209   -1.2966975 
 8490000    1.1977609 7.8806625e-05   0.45287936  0.032489893            0   0.42038946    1.7741833    2.2270627    6.2619619 
 8495000     1.114202 -1.3552444e-05   0.58828473   0.02909904            0   0.55918569    1.6504117    2.2386965    1.5448113 
 8500000    1.1407605 -5.1153719e-05    0.5094869  0.022554212            0   0.48693268    1.6897515    2.1992384  -0.41983206 
 8505000    1.1773527 -9.7115785e-06   0.43219726  0.015314196            0   0.41688306    1.7439537    2.1761509    1.6789181 
 8510000    1.2026059 3.4270687e-05   0.40307793 0.0018235924            0   0.40125434      1.78136    2.1844379    3.9390971 
 8515000    1.1970214 4.0871082e-05    0.4014214  0.015234755            0   0.38618664     1.773088    2.1745094    4.2671088 
 8520000    1.0795449 9.2629698e-06   0.58835561  0.016964545            0   0.57139106    1.5990759    2.1874315    2.6616956 
 8525000      1.18625 3.4634008e-05   0.44754883 0.0056930583            0   0.44185578    1.7571328    2.2046816    3.9779429 
 8530000    1.2170247 -1.0377055e-05   0.40781219 0.0023284426            0   0.40548374    1.8027178      2.21053    1.6792248 
 8535000    1.2174508 4.174664e-05   0.41226505 0.0080228273            0   0.40424222    1.8033491    2.2156141    4.3530421 
 8540000    1.1359897 6.5803763e-05   0.53326984  0.057472103            0   0.47579774    1.6826847    2.2159545    5.5851072 
 8545000    1.1468588 -4.5781291e-05   0.51110975  0.021478402            0   0.48963134    1.6987846    2.2098944  -0.13410773 
 8550000    1.1623908 -0.00015571698   0.50738296  0.014719585            0   0.49266337    1.7217914    2.2291744   -5.7435349 
 8555000    1.1996161 -9.6437819e-05   0.44444341 0.0076032586            0   0.43684015    1.7769314    2.2213748   -2.7162416 
 8560000    1.1834308 -3.6426024e-05    0.4505964  0.020422496            0   0.43017391    1.7529568    2.2035532   0.33854076 
 8565000    1.1460916 5.8204859e-06   0.50184696  0.015521073            0   0.48632588    1.6976482    2.1994952    2.4975041 
 8570000    1.1306776 -1.8810568e-05   0.49756422    0.0100524            0   0.48751183    1.6748162    2.1723805    1.2092794 
 8575000    1.1013096 3.8476793e-06   0.50289343  0.030709073            0   0.47218436    1.6313148    2.1342083    2.3312094 
 8580000    1.0673291 4.0211791e-05   0.54669163  0.080498995            0   0.46619263    1.5809812    2.1276728    4.1865165 
 8585000     1.096074 3.2964546e-05   0.50047747  0.018829707            0   0.48164776    1.6235596    2.1240371    3.8118218 
 8590000    1.0662029 8.1373627e-05   0.50861862  0.032018044            0   0.47660057     1.579313    2.0879317    6.2542613 
 8595000    1.0806515 2.421951e-05   0.49240631   0.02677734            0   0.46562897     1.600715    2.0931213    3.3331602 
 8600000    1.1419408 -5.0639203e-05   0.38356347  0.029019389            0   0.35454408    1.6914998    2.0750633  -0.51766392 
 8605000    1.0986688 -2.8056884e-05   0.45811086 0.0071080634            0    0.4510028    1.6274032    2.0855141   0.64900161 
 8610000     1.128413 7.6487207e-05   0.42634537 0.0018562709            0    0.4244891    1.6714618    2.0978071    6.0139521 
 8615000    1.1006862 9.1803543e-05   0.46096415 0.0023872867            0   0.45857686    1.6303914    2.0913556     6.791697 
 8620000    1.0694277 -3.2691902e-05   0.47895969  0.023328716            0   0.45563097    1.5840897    2.0630494   0.38922406 
 8625000    1.1191604 -6.6369387e-05   0.39939251  0.024063513            0     0.375329    1.6577563    2.0571488   -1.3409638 
 8630000    1.0643411 -2.8110008e-05   0.48724649  0.034696761            0   0.45254973    1.5765552    2.0638017   0.62456929 
 8635000    1.1401271 -3.1237027e-05   0.37337874  0.026254432            0   0.34712431    1.6888132     2.062192   0.46285617 
 8640000    1.1187967 -3.7744342e-05   0.41265432  0.024332139            0   0.38832218    1.6572176    2.0698719   0.13736163 
 8645000    1.0994285 6.5668914e-06   0.43613403  0.050951017            0   0.38518302    1.6285284    2.0646625    2.4008873 
 8650000     1.091986 -4.7685379e-05   0.47587914  0.065239034            0    0.4106401    1.6175043    2.0933834  -0.34810802 
 8655000    1.1514971 5.5486913e-06   0.38476816  0.015174812            0   0.36959334    1.7056551    2.0904232    2.3745162 
 8660000    1.1095613 -4.8119183e-06     0.460137 0.0054010161            0   0.45473599    1.6435377    2.1036747    1.8573045 
 8665000    1.1314405 -5.6987538e-05   0.45371426  0.013217028            0   0.44049723    1.6759462    2.1296604  -0.78810152 
 8670000    1.1807374 5.4346146e-05   0.39455774  0.043742428            0   0.35081531    1.7489673     2.143525    4.9260477 
 8675000    1.1237293 2.290952e-05   0.47349959  0.017511847            0   0.45598774     1.664524    2.1380236     3.310991 
 8680000    1.0840478 -8.2623568e-05   0.52675157  0.083810529            0   0.44294104    1.6057458    2.1324973   -2.0978293 
 8685000    1.0764434 -2.9506075e-05   0.53354163  0.023971986            0   0.50956964    1.5944819    2.1280235   0.61731243 
 8690000    1.1094288 0.00010158463   0.45692094  0.011985933            0   0.44493501    1.6433414    2.1002623    7.3013955 
 8695000    1.1389295 6.3327285e-05    0.3987558 0.0046733957            0    0.3940824    1.6870394    2.0857952    5.3281521 
 8700000    1.1038177 1.2365062e-05    0.4380343  0.015918955            0   0.42211535      1.63503    2.0730643    2.7061555 
 8705000    1.0742665 1.5997652e-05   0.46173527  0.023596658            0   0.43813861    1.5912573    2.0529926    2.8720724 
 8710000    1.0321067 2.7437198e-05   0.52782608  0.014215324            0   0.51361075    1.5288081    2.0566342    3.4614187 
 8715000     1.071095 -8.5745699e-07   0.46270044  0.023544879            0   0.43915556    1.5865594    2.0492599    2.0053581 
 8720000    1.0230548 7.3417185e-05   0.52502229  0.078347898            0   0.44667439    1.5153999    2.0404222    5.7993821 
 8725000    1.1532099 7.9304936e-05   0.31981723  0.038698433            0   0.28111879    1.7081922    2.0280094    6.0884221 
 8730000    1.0988467 3.178155e-05   0.39539888  0.028752172            0   0.36664671    1.6276666    2.0230655    3.6502809 
 8735000    1.0203955 -2.0662619e-05   0.49631122  0.019380522            0    0.4769307    1.5114608     2.007772   0.94984594 
 8740000    1.0976322 -5.0130011e-05   0.39657032  0.031774908            0   0.36479541    1.6258676    2.0224379   -0.5442186 
 8745000    1.0570222 1.5909104e-05   0.42674761  0.039359851            0   0.38738776    1.5657141    1.9924617    2.8070078 
 8750000    1.0275722 4.8489891e-05     0.488715  0.018655135            0   0.47005987    1.5220913    2.0108063    4.4934887 
 8755000    1.0454785 2.7441827e-05   0.43984199  0.026453124            0   0.41338887    1.5486151     1.988457    3.3934786 
 8760000   0.99001674 -4.7514417e-05   0.48770746  0.020594268            0   0.46711319    1.4664623    1.9541697  -0.47856841 
 8765000    1.0039519 -2.3923833e-05   0.46395763  0.097681642            0   0.36627598    1.4871037    1.9510613   0.72616108 
 8770000    1.0120815 1.939815e-05   0.45561432  0.033191175            0   0.42242314    1.4991458    1.9547601    2.9479454 
 8775000    1.0316924 7.7995314e-05   0.44046453  0.022120312            0   0.41834422    1.5281943    1.9686588    5.9620189 
 8780000     1.074691 8.4876842e-05   0.38500223 0.0095161022            0   0.37548613    1.5918861    1.9768883    6.3225826 
 8785000    1.0196764 5.7313332e-05   0.43338282  0.017842814            0   0.41554001    1.5103957    1.9437785    4.8782211 
 8790000    1.0337284 6.1334717e-05   0.38865959  0.011122124            0   0.37753746    1.5312102    1.9198698    5.0602073 
 8795000    1.0270933 2.1577364e-05   0.38815867  0.056051364            0   0.33210731     1.521382    1.9095407    3.0143017 
 8800000    1.0055426 -6.6779935e-05   0.40245608  0.025491504            0   0.37696457    1.4894599     1.891916   -1.5272167 
 8805000     1.000576 1.6543989e-05   0.39372322  0.010033589            0   0.38368963    1.4821032    1.8758264    2.7228787 
 8810000     1.034039 5.1774337e-05   0.36416767  0.018542431            0   0.34562524    1.5316703     1.895838     4.546684 
 8815000   0.98828869 -5.3124182e-05   0.42272336 0.0026913486            0   0.42003201    1.4639026     1.886626  -0.83333213 
 8820000    1.0080914 2.2801891e-06   0.41035011 0.0044514104            0    0.4058987    1.4932353    1.9035854    2.0203311 
 8825000   0.98731286 7.2907385e-05   0.45637984  0.049138007            0   0.40724183    1.4624572     1.918837    5.6516951 
 8830000   0.93298844 5.5065282e-05   0.52620345   0.11512079            0   0.41108266    1.3819891    1.9081926     4.727535 
 8835000    1.0513343 5.5207202e-05   0.36759089  0.023469757            0   0.34412113    1.5572889    1.9248798    4.7514885 
 8840000    1.0379285 7.1830246e-06   0.37066159  0.014267915            0   0.35639367    1.5374315    1.9080931     2.275864 
 8845000    1.0028356 -7.5530955e-05   0.39183932 0.0017053998            0   0.39013392    1.4854503    1.8772896   -1.9898953 
 8850000    0.9712586 -2.9879796e-05    0.4188269  0.048801327            0   0.37002557    1.4386768    1.8575037   0.32765813 
 8855000   0.99671336 4.6459105e-05    0.3575985     0.035004            0    0.3225945    1.4763817    1.8339802    4.2126863 
 8860000   0.95438557 0.00014918225   0.42304072  0.037249823            0    0.3857909    1.4136836    1.8367243    9.4748555 
 8865000   0.99850479 0.0001004475   0.37914228  0.036016634            0   0.34312565    1.4790352    1.8581775    7.0010893 
 8870000    1.0037843 -9.2104476e-05    0.3955495  0.015826314            0   0.37972319    1.4868556    1.8824051   -2.8333441 
 8875000   0.97892306 -0.00010385803   0.44539355 0.0017583805            0   0.44363517    1.4500298    1.8954233   -3.4221076 
 8880000   0.99844465 -1.7499766e-05   0.40582096 0.0032899454            0   0.40253101    1.4789461    1.8847671   0.98877907 
 8885000    1.0268121 3.5748507e-05   0.40382199  0.019787612            0   0.38403437    1.5209654    1.9247874     3.755111 
 8890000    1.0613954  2.79463e-05   0.36468189  0.012325734            0   0.35235616     1.572192    1.9368739    3.3677244 
 8895000    1.0325127 4.4098414e-05   0.42046389 0.0079175607            0   0.41254633    1.5294095    1.9498734    4.2077121 
 8900000   0.99226327 8.9277421e-05   0.46751255  0.032664281            0   0.43484827      1.46979    1.9373025    6.5083065 
 8905000    1.0499571 2.7614267e-05   0.39526284  0.017253046            0    0.3780098     1.555249    1.9505118    3.3643623 
 8910000    1.0236757 -4.3885464e-05   0.44223697  0.016959139            0   0.42527783    1.5163197    1.9585566   -0.2883791 
 8915000    1.0337105 -0.00010782986    0.4442685 0.0060167789            0   0.43825172    1.5311837    1.9754522   -3.5454365 
 8920000   0.99812586 -8.1875873e-05   0.48347449  0.010111204            0   0.47336329    1.4784739    1.9619484   -2.2300963 
 8925000    1.0550364 -7.0648867e-05   0.40839155  0.017143071            0   0.39124848    1.5627727    1.9711642   -1.6460578 
 8930000    1.0066122 -2.8307953e-05   0.44871298  0.031738915            0   0.41697407    1.4910443    1.9397572   0.49039007 
 8935000    1.0180061 1.6348911e-05   0.41308119 0.0035053091            0   0.40957588    1.5079215    1.9210027    2.7580669 
 8940000   0.95551781 5.4343619e-05   0.50763464            0            0   0.50763464    1.4153608    1.9229954    4.7053887 
 8945000     1.011806 1.4175338e-05    0.4299705 0.0032632019            0    0.4267073    1.4987377    1.9287082    2.6544855 
 8950000     1.048572 3.2599616e-05   0.38888164 0.0075340451            0   0.38134759    1.5531973     1.942079    3.6111793 
 8955000    1.0429404 0.00011958186   0.39788963 0.00086836776            0   0.39702126    1.5448554    1.9427451    8.0653364 
 8960000    1.0093832 8.295895e-05   0.45355815 0.00037890068            0   0.45317925    1.4951489     1.948707    6.1962053 
 8965000   0.99379098 1.9264221e-05   0.46764198  0.034235908            0   0.43340607    1.4720529    1.9396949     2.926023 
 8970000   0.98548109 9.8266737e-06   0.48638356  0.067670349            0   0.41871321    1.4597439    1.9461274    2.4492531 
 8975000    1.0170154 0.0001461422   0.44279504  0.044718359            0   0.39807668     1.506454    1.9492491    9.4317299 
 8980000    1.0140396 9.2451001e-05   0.46155223  0.020552632            0    0.4409996    1.5020461    1.9635984    6.6970896 
 8985000    1.0814216 9.4182917e-08    0.3675235  0.012424887            0   0.35509862    1.6018558    1.9693793    1.9742015 
 8990000     1.016797 -0.0001042668   0.46755043  0.019180084            0   0.44837035    1.5061306     1.973681   -3.3647792 
 8995000    1.0162603 -0.00017796339   0.50025004  0.059506296            0   0.44074375    1.5053355    2.0055855   -7.1061401 
 9000000    1.0338347 -0.00010622109   0.47007196  0.022210787            0   0.44786117    1.5313676    2.0014396     -3.43708 
 9005000    1.0562774 -3.2825692e-05   0.41730851 0.0035092583            0   0.41379925    1.5646109    1.9819194   0.30124395 
 9010000    1.0703589 3.1456983e-05   0.40090917  0.025304627            0   0.37560454    1.5854692    1.9863784    3.5969759 
 9015000   0.99579976 1.149419e-05    0.4969583  0.022125607            0   0.47483269    1.4750284    1.9719867    2.5604892 
 9020000     1.036206 2.1209008e-06   0.42790566  0.045544432            0   0.38236123    1.5348801    1.9627857    2.0713759 
 9025000    1.0534347 4.0959639e-05   0.39825096  0.017730051            0   0.38052091    1.5604002    1.9586511    4.0557846 
 9030000    1.0324189 -2.4259509e-05   0.41727326 0.0053894274            0   0.41188383    1.5292705    1.9465437   0.70445684 
 9035000    1.0219474 -3.1610174e-05   0.44792289  0.012773089            0    0.4351498    1.5137596    1.9616825   0.34324162 
 9040000    1.0527232 3.6144663e-06   0.40380581  0.022480481            0   0.38132532    1.5593463    1.9631521    2.1482127 
 9045000    1.0416123 4.429277e-05   0.43496115  0.010697659            0    0.4242635    1.5428882    1.9778494    4.2456392 
 9050000    1.0043244 1.9590497e-05   0.49764547  0.025653551            0   0.47199192    1.4876555    1.9853009    2.9883344 
 9055000    1.0572032 -9.9298678e-05   0.41198511  0.091955163            0   0.32002995    1.5659823    1.9779674   -3.1061249 
 9060000    1.0737543 -9.224739e-05   0.39772946  0.035195006            0   0.36253445    1.5904985     1.988228   -2.7348384 
 9065000    1.0911838 2.8447644e-05   0.39704069  0.017288755            0   0.37975193     1.616316    2.0133567    3.4698761 
 9070000    1.0734019 8.6704012e-05   0.44310357  0.048297588            0   0.39480598    1.5899765    2.0330801    6.4723255 
 9075000     1.073786 2.0670745e-05   0.43328152  0.059306962            0   0.37397456    1.5905455    2.0238271    3.0821692 
 9080000    1.0687252 -6.9584981e-05   0.44564253  0.016391105            0   0.42925143    1.5830492    2.0286917   -1.5340593 
 9085000      1.04764 -7.7908967e-05   0.47695512  0.011778964            0   0.46517616    1.5518167    2.0287719   -1.9601673 
 9090000    1.0992153 -5.5594446e-06   0.40675263  0.018938452            0   0.38781418    1.6282126    2.0349652    1.7503217 
 9095000    1.1106534 8.3342545e-06   0.35760345  0.012130945            0    0.3454725    1.6451554    2.0027589    2.4294727 
 9100000      1.01074 -4.8760349e-05   0.47973988   0.01492821            0   0.46481167    1.4971586    1.9768985  -0.51963134 
 9105000     1.001131 -8.8447899e-05    0.4807348  0.048677595            0   0.43205721    1.4829253    1.9636601   -2.5648723 
 9110000    1.0077079 -5.1025726e-05   0.47734614  0.019747573            0   0.45759857    1.4926674    1.9700135  -0.64250364 
 9115000    1.0681643 6.1224371e-06    0.3828134 0.0092021054            0    0.3736113    1.5822184    1.9650318    2.2785006 
 9120000    1.0180487 -2.9250917e-06   0.45821462  0.036659726            0    0.4215549    1.5079846    1.9661992    1.8164346 
 9125000    1.0538089 2.7352665e-05   0.41721107  0.061591693            0   0.35561937    1.5609544    1.9781655    3.3786219 
 9130000    1.0253046 3.437694e-05   0.49706876  0.050413015            0   0.44665574    1.5187324    2.0158012    3.7759005 
 9135000    1.0409355 7.5905117e-05   0.50473064  0.020215264            0   0.48451537    1.5418857    2.0466164    5.9329584 
 9140000     1.030675 -2.2767179e-05   0.52762098  0.015267156            0   0.51235382    1.5266873    2.0543083   0.88862872 
 9145000    1.0691747 -0.00015459443   0.45394608 0.0061017551            0   0.44784433     1.583715    2.0376611   -5.8775735 
 9150000    1.0739593 4.7300624e-05   0.44753324  0.011377294            0   0.43615594    1.5908022    2.0383354    4.4601273 
 9155000    1.0645596 0.00015537587   0.47443631  0.017269292            0   0.45716701    1.5768789    2.0513152     10.00656 
 9160000    1.1114138 3.4089707e-05   0.38552703   0.02411877            0   0.36140826    1.6462817    2.0318087    3.7772017 
 9165000     1.092105 -2.8614749e-05   0.41628524  0.035855343            0    0.3804299    1.6176805    2.0339658    0.5688906 
 9170000    1.0703047 -2.5759767e-05    0.4695635 0.0062051312            0   0.46335837    1.5853888    2.0549523   0.73605225 
 9175000    1.0533607 -4.3199792e-05   0.47345286 0.00047611568            0   0.47297675    1.5602905    2.0337434  -0.17808596 
 9180000    1.0936233 4.9277049e-05   0.39120856 0.0070242873            0   0.38418427    1.6199294     2.011138    4.5341229 
 9185000    1.0449433 0.00011783336   0.45169141 0.0093330433            0   0.44235836    1.5478222    1.9995136    8.0325814 
 9190000    1.0602376 8.360223e-06   0.37550992 0.0026914771            0   0.37281844    1.5704769    1.9459868    2.3740303 
 9195000    1.0206497 -9.7862976e-05   0.41704966 0.00074142958            0   0.41630823    1.5118373     1.928887   -3.0816974 
 9200000    1.0743334 -2.6345787e-05   0.30878889 0.0067263641            0   0.30206252    1.5913563    1.9001452   0.55124089 
 9205000    0.9839248 -2.4562585e-06    0.4402871  0.017829573            0   0.42245753    1.4574386    1.8977257    1.7719653 
 9210000    1.0084305 -2.110153e-05   0.38916555  0.016358648            0    0.3728069    1.4937377    1.8829032   0.80250491 
 9215000   0.97726751 4.5535795e-05   0.48089533  0.034646205            0   0.44624913    1.4475775    1.9284728    4.2599055 
 9220000   0.96010226 -2.6977156e-05   0.48999741  0.038956006            0    0.4510414    1.4221515    1.9121489   0.53091849 
 9225000   0.99639944 -4.8507275e-05   0.41283886   0.01708852            0   0.39575034    1.4759167    1.8887555  -0.59481695 
 9230000   0.98672337 -0.00011901212   0.42010518 0.0015533198            0   0.41855186     1.461584    1.8816892   -4.2117315 
 9235000    1.0119698 -5.130307e-05   0.37930501 0.0080103835            0   0.37129463    1.4989803    1.8782853  -0.74843183 
 9240000   0.94498664 1.0445635e-06   0.45267572   0.01112986            0   0.44154586    1.3997615    1.8524372    1.9059188 
 9245000    0.9160094 -0.00011036089   0.50723868  0.018170497            0   0.48906818    1.3568389    1.8640776   -3.7863999 
 9250000   0.99653744 -1.3341804e-05   0.39741577 0.0034577551            0   0.39395802    1.4761211    1.8735368    1.1904365 
 9255000    0.9859503 -5.2672357e-05   0.39512091            0            0   0.39512091    1.4604389    1.8555598  -0.84126488 
 9260000    1.0231363 -4.7742211e-05   0.33874404 0.00044621764            0   0.33829782    1.5155207    1.8542647  -0.59013648 
 9265000   0.94844655 9.3831698e-05   0.48053262 0.0065529498            0   0.47397967    1.4048865    1.8854191     6.689602 
 9270000   0.97636214 4.0518443e-05   0.44257737  0.018983902            0   0.42359347    1.4462364    1.8888138     3.963358 
 9275000    0.9705942 2.4128902e-05   0.44105295   0.03274443            0   0.40830852    1.4376927    1.8787456    3.1141454 
 9280000   0.95716116 -6.5482901e-05   0.41993888  0.011247998            0   0.40869088     1.417795    1.8377339   -1.5149907 
 9285000   0.94539795 -5.5990917e-05   0.44544098 0.0016631719            0   0.44377781    1.4003707    1.8458117   -1.0209233 
 9290000   0.94726604 7.9868178e-06   0.46949606 0.0024912248            0   0.46700484    1.4031378    1.8726339     2.281559 
 9295000   0.95703673 5.7986743e-05   0.44627563  0.017171001            0   0.42910463    1.4176107    1.8638863    4.8328075 
 9300000   0.99222819 2.9278584e-05    0.3842133  0.011667314            0   0.37254599     1.469738    1.8539513    3.3530148 
 9305000   0.91390497 -0.00014078061   0.51420718 0.0038668608            0   0.51034032    1.3537217    1.8679289   -5.3400382 
 9310000   0.93840656 5.2850588e-06   0.46124093   0.01031703            0    0.4509239    1.3900147    1.8512556    2.1218507 
 9315000    1.0057135 1.8655804e-05   0.36776451  0.046936374            0   0.32082813    1.4897131    1.8574776    2.8126548 
 9320000   0.95304218 -1.3608238e-05   0.43602873  0.032676787            0   0.40335194    1.4116937    1.8477225    1.1509807 
 9325000   0.96279539 0.00011454616   0.42958932   0.01802167            0   0.41156765    1.4261407      1.85573    7.7204933 
 9330000    0.9838147 6.8317064e-05   0.43283475   0.01858529            0   0.41424946    1.4572755    1.8901103    5.3879439 
 9335000   0.92900074 8.0023268e-05   0.51906721  0.038551046            0   0.48051616    1.3760824    1.8951496    5.9923409 
 9340000    0.9695156 5.8536914e-05   0.40673389  0.010269114            0   0.39646477     1.436095    1.8428289    4.8399189 
 9345000   0.93399683 9.2580245e-06   0.45355547  0.012894524            0   0.44066094    1.3834828    1.8370383    2.3110491 
 9350000   0.92672625 5.5899685e-06   0.45822634  0.031948447            0   0.42627789    1.3727133    1.8309396     2.117146 
 9355000   0.89820023 1.6384531e-05   0.46887248     0.039315            0   0.42955748    1.3304591    1.7993316    2.6382196 
 9360000   0.89346632 3.4032478e-05   0.47505422  0.040191942            0   0.43486228     1.323447    1.7985012    3.5409641 
 9365000   0.88341991 -3.8004049e-05   0.49246304  0.050137567            0   0.44232547    1.3085657    1.8010288  -0.14477853 
 9370000   0.93304516 -7.757546e-05   0.41926329 0.0036300312            0   0.41563326    1.3820731    1.8013364   -2.1705271 
 9375000   0.95823485 8.1761359e-05   0.39229226 0.0018996287            0   0.39039263    1.4193854    1.8116776    5.9978592 
 9380000   0.94524396 8.7216817e-05   0.40404413 0.0023774879            0   0.40166664    1.4001426    1.8041867    6.2696878 
 9385000   0.92678318 -4.1796307e-05   0.45356962 0.0040673168            0   0.44950231    1.3727976    1.8263672  -0.31360368 
 9390000    0.9162431 2.0336504e-05   0.47317867  0.005263323            0   0.46791535    1.3571851    1.8303638    2.8715928 
 9395000   0.95177936 7.6928867e-05   0.42203901  0.014430256            0   0.40760875    1.4098232    1.8318622    5.7706202 
 9400000    1.0072058 0.00013529324   0.37049905  0.027229433            0   0.34326962    1.4919236    1.8624227    8.7894367 
 9405000   0.97158794 5.6746193e-06   0.44812652 0.0031316832            0   0.44499484    1.4391646    1.8872912    2.1778317 
 9410000   0.95191779 4.5832987e-05   0.45542855 0.0011970093            0   0.45423154    1.4100282    1.8654568    4.2121057 
 9415000    1.0042162 9.5734072e-05   0.39291572  0.011539986            0   0.38137574    1.4874953     1.880411    6.7819955 
 9420000   0.96744787 1.9161108e-05   0.43435273  0.042369766            0   0.39198296    1.4330322    1.8673849    2.8484336 
 9425000   0.90220712 6.8499391e-05   0.52536476  0.014872243            0   0.51049251    1.3363943     1.861759    5.3689279 
 9430000   0.97260151 1.8592918e-05   0.41122487 0.0066681387            0   0.40455673     1.440666    1.8518909    2.8038482 
 9435000   0.96039293 -7.606271e-05   0.46286628  0.023523561            0   0.43934272     1.422582    1.8854483   -2.0089625 
 9440000   0.96608894 -6.9215916e-05   0.45515105  0.033217518            0   0.42193353    1.4310192    1.8861703   -1.6576846 
 9445000   0.96535358 -8.6615737e-06   0.45981334  0.010077691            0   0.44973565      1.42993    1.8897433    1.4462708 
 9450000    0.9761283 -1.2791764e-05    0.4544909 0.0012012107            0   0.45328969      1.44589    1.9003809    1.2454426 
 9455000   0.91882187 -3.0790934e-05   0.49901609 0.0080055537            0   0.49101053    1.3610049     1.860021   0.28352515 
 9460000   0.97761314 -8.6033327e-05   0.41700345  0.011898539            0   0.40510491    1.4480895    1.8650929   -2.5398135 
 9465000    0.9191869 -4.9152994e-05    0.4682453  0.025782243            0   0.44246305    1.3615456    1.8297909  -0.68684238 
 9470000   0.98068248 4.1315216e-05   0.38575097  0.011559473            0    0.3741915    1.4526359    1.8383869     3.953726 
 9475000   0.92562063 -1.991089e-05    0.4913012  0.002338487            0   0.48896271    1.3710756    1.8623768   0.84293919 
 9480000   0.98163289 8.8794144e-05   0.42233405  0.030920927            0   0.39141312    1.4540437    1.8763778     6.422638 
 9485000    1.0153308 5.6000896e-05   0.36828143  0.053502351            0   0.31477907    1.5039587    1.8722401     4.739486 
 9490000   0.92756974 8.5622651e-05   0.48517892  0.020612181            0   0.46456674    1.3739627    1.8591416    6.2430213 
 9495000   0.95481085 0.00015533495   0.44225008  0.013844123            0   0.42840596    1.4143136    1.8565637    9.8097132 
 9500000   0.93055452 6.6044787e-05   0.44207468  0.030296456            0   0.41177822    1.3783839    1.8204586    5.2019517 
 9505000   0.93049899 -1.8169678e-06   0.44030662  0.013186526            0   0.42712009    1.3783016    1.8186083    1.7255795 
 9510000   0.93137727 -1.5708313e-05   0.43329636 0.0081132129            0   0.42518314    1.3796026    1.8128989    1.0086333 
 9515000   0.94841369 -3.0097666e-06   0.41899577 0.0064499895            0   0.41254578    1.4048378    1.8238335    1.6697335 
 9520000   0.95140206 2.8719646e-05    0.4449473 0.0057843713            0   0.43916293    1.4092643    1.8542116    3.3246575 
 9525000   0.93488318 -1.1805402e-05   0.47849732   0.01232617            0   0.46617115    1.3847957     1.863293    1.2588564 
 9530000    1.0437746 -3.2671673e-05   0.37123422  0.038789699            0   0.33244452    1.5460912    1.9173254   0.24453576 
 9535000    0.9744107 -2.3911519e-05   0.46532925  0.050812325            0   0.41451693    1.4433459    1.9086751   0.68440533 
 9540000   0.96078986 -0.00010203493   0.43665795  0.018925023            0   0.41773293      1.42317    1.8598279   -3.3643606 
 9545000   0.96065439 -8.5083645e-05   0.40880433  0.032176773            0   0.37662756    1.4229693    1.8317737    -2.524509 
 9550000   0.95505127 -9.5377399e-06   0.45078215  0.029397692            0   0.42138446    1.4146697    1.8654519    1.3771196 
 9555000   0.96880391 3.8007141e-05   0.43226377 0.0091071685            0    0.4231566    1.4350408    1.8673046    3.8132702 
 9560000   0.92960928 -1.1061859e-05   0.48897473  0.005907965            0   0.48306677    1.3769837    1.8659585    1.2995913 
 9565000   0.94729717 -6.2174644e-05   0.47152538  0.010053045            0   0.46147233    1.4031839    1.8747093   -1.3086325 
 9570000   0.98257486 -2.8867748e-05    0.4288983  0.013965099            0    0.4149332     1.455439    1.8843373   0.40630862 
 9575000   0.92358213 -9.9151704e-07   0.51332163  0.022966426            0    0.4903552     1.368056    1.8813777     1.830612 
 9580000   0.95735171 6.7279224e-05   0.43911832  0.037553328            0   0.40156499    1.4180772    1.8571955    5.3018918 
 9585000   0.91762811 -8.4853469e-06   0.47441384  0.023157533            0   0.45125631    1.3592366    1.8336505    1.3992007 
 9590000    0.9315938 -0.00012228634   0.47881758  0.010913733            0   0.46790384    1.3799233    1.8587409   -4.4023196 
 9595000   0.91510726 -4.3137031e-05   0.54681327  0.052971176            0    0.4938421    1.3555026    1.9023159  -0.30630008 
 9600000     1.028001 2.4461567e-05    0.3816322  0.079754615            0   0.30187758    1.5227265    1.9043587     3.156791 
 9605000   0.95121139 3.9657841e-05    0.4716242  0.031838414            0   0.43978579    1.4089819    1.8806061    3.9110875 
 9610000   0.95866179 -2.3954777e-05   0.45724401    0.0135283            0   0.44371571    1.4200178    1.8772618   0.65077723 
 9615000   0.93741368 -1.9784961e-05   0.51523199 0.0096390825            0   0.50559291     1.388544     1.903776   0.89078601 
 9620000    1.0261672 7.0182652e-05   0.39378251 0.0086236977            0   0.38515881    1.5200101    1.9137926    5.5071444 
 9625000    1.0031564 8.8652251e-05    0.4063115  0.010535947            0   0.39577556    1.4859255     1.892237    6.4312322 
 9630000   0.95864524 4.8547311e-05   0.46891662   0.01049992            0    0.4584167    1.4199933    1.8889099    4.3745322 
 9635000   0.96854123 2.302944e-05   0.46215702  0.014259074            0   0.44789794    1.4346517    1.8968087     3.075916 
 9640000   0.97685466 6.9903597e-05   0.46086222  0.031382305            0   0.42947992     1.446966    1.9078282    5.4868924 
 9645000    0.9285017 -6.0992595e-05   0.54544407  0.053599186            0   0.49184488    1.3753431    1.9207872   -1.2020337 
 9650000   0.97176108 -8.1389398e-05   0.47724799  0.046029333            0   0.43121865    1.4394211    1.9166691   -2.2504681 
 9655000   0.98743082 -8.0851346e-05   0.43027429 0.0081043857            0   0.42216991    1.4626319    1.8929062   -2.2466827 
 9660000   0.90682071 -0.0001159443    0.5412899  0.018463006            0    0.5228269    1.3432282    1.8845181   -4.0518298 
 9665000   0.97387415 -8.2457762e-05   0.41880989   0.01176714            0   0.40704275    1.4425511     1.861361   -2.3604764 
 9670000   0.94734769 -4.1142649e-05   0.47955733  0.026562793            0   0.45299453    1.4032588    1.8828161  -0.22368753 
 9675000    0.9760173 -2.1331587e-06   0.47100042  0.065524569            0   0.40547585    1.4457256     1.916726    1.8075083 
 9680000   0.93712407 -1.7455321e-05   0.51676603  0.024272961            0   0.49249307     1.388115    1.9048811    1.0111686 
 9685000   0.96762889 -4.913659e-05   0.47040182 0.0085444563            0   0.46185737    1.4333003    1.9037021   -0.6120913 
 9690000   0.99501281 7.8782285e-06   0.43864891  0.015741577            0   0.42290734    1.4738627    1.9125116    2.3158769 
 9695000   0.97552997 6.7899537e-05   0.44807862  0.019981551            0   0.42809707    1.4450038    1.8930824    5.3695387 
 9700000   0.98218926 0.00010158835   0.44099557  0.021649495            0   0.41934607    1.4548678    1.8958634    7.0971867 
 9705000   0.94263077 4.6526253e-05   0.52044118  0.030490787            0   0.48995039    1.3962718     1.916713    4.2988572 
 9710000    1.0414864 -2.3520314e-05   0.42505215 0.0071952941            0   0.41785685    1.5427017    1.9677539   0.76351383 
 9715000   0.93271365 2.2884273e-05   0.58338067 0.0098631881            0   0.57351748    1.3815821    1.9649628    3.1366376 
 9720000    1.0095939 4.7929737e-05   0.46768745  0.038831359            0   0.42885609    1.4954609    1.9631484    4.4171509 
 9725000    1.0289307 -3.301959e-05   0.45338118  0.021111229            0   0.43226995    1.5241036    1.9774848   0.28688179 
 9730000    1.0106108 4.7352643e-05   0.46396308 0.00068145309            0   0.46328163    1.4969673    1.9609303    4.3853856 
 9735000   0.99280233 0.00013143133   0.47801443 0.0030771781            0   0.47493725    1.4705885    1.9486029    8.6778871 
 9740000    1.0153861 -6.4169927e-05   0.45605109 0.0086097029            0   0.44744138    1.5040407    1.9600918   -1.3254085 
 9745000    1.0382506 -6.7995863e-05    0.4042921  0.021934404            0    0.3823577    1.5379086    1.9422007   -1.5391874 
 9750000   0.96297578 5.2387759e-05   0.49717388  0.017971962            0   0.47920192    1.4264079    1.9235818     4.605835 
 9755000   0.95098856 -3.1798902e-05   0.54323622  0.018195243            0   0.52504097    1.4086518     1.951888   0.32378424 
 9760000   0.97627122 -1.176048e-06   0.49566432  0.043824965            0   0.45183935    1.4461017    1.9417661    1.8815524 
 9765000   0.99284401 -1.7755745e-05   0.46603018  0.005187916            0   0.46084226    1.4706502    1.9366804    1.0275862 
 9770000   0.97324255 4.8401914e-05   0.49515398 0.0080712564            0   0.48708273    1.4416155    1.9367695    4.4149475 
 9775000    1.0034869 0.00014515282   0.45020462  0.021018055            0   0.42918656    1.4864149    1.9366195    9.3684442 
 9780000   0.96435433 -3.267694e-05   0.50975194  0.019395806            0   0.49035614    1.4284499    1.9382018   0.26514249 
 9785000   0.89913924 -0.00010093102   0.59007465  0.017918308            0   0.57215634      1.33185    1.9219246   -3.2457437 
 9790000   0.98890004 9.8425107e-06   0.46371843  0.026761367            0   0.43695706    1.4648082    1.9285266    2.4324632 
 9795000    1.0423403 1.0763785e-05   0.43170422  0.014626945            0   0.41707728    1.5439665    1.9756708    2.5267765 
 9800000    1.0184806 5.0393751e-05   0.47678932 0.0044723555            0   0.47231696    1.5086243    1.9854136    4.5655737 
 9805000    1.0521029 7.1161246e-05   0.45803818  0.033637407            0   0.42440077    1.5584275    2.0164657    5.6599214 
 9810000   0.99222423 -0.00010131072   0.53739969  0.032099109            0   0.50530058    1.4697321    2.0071318    -3.179977 
 9815000    1.0145022 -4.2992182e-05   0.51543197  0.021510029            0   0.49392194    1.5027314    2.0181634  -0.18303636 
 9820000   0.97271649 5.7276708e-05   0.50593077  0.005397688            0   0.50053308    1.4408363    1.9467671    4.8793345 
 9825000   0.99536234 -1.6170527e-05   0.46046849 0.0025647256            0   0.45790376    1.4743805     1.934849     1.106918 
 9830000   0.98874212 -6.1854332e-05   0.49797168  0.021076858            0   0.47689483    1.4645743    1.9625459   -1.2043959 
 9835000   0.90457004 -0.00011433193    0.6058308  0.028275255            0   0.57755555    1.3398944    1.9457252   -3.9080698 
 9840000    1.0076557 -0.0001179692   0.47055254  0.010626636            0    0.4599259    1.4925901    1.9631426   -4.0768807 
 9845000    1.0245895 6.6068916e-06   0.46150299 0.0021494302            0   0.45935356    1.5176732    1.9791761     2.317449 
 9850000   0.95440214 3.9526375e-05    0.5591767  0.021561014            0   0.53761568    1.4137082    1.9728849    3.9966352 
 9855000   0.91182508 0.00012314863   0.62145933  0.040427134            0    0.5810322    1.3506409    1.9721002    8.2773103 
 9860000    1.0082333 7.5889724e-05   0.44743835 0.0069798498            0    0.4404585    1.4934455    1.9408839    5.8264378 
 9865000    1.0184067 -6.5703706e-05   0.47940592  0.029838186            0   0.44956773     1.508515    1.9879209   -1.3761088 
 9870000   0.98836254 -7.9238766e-05    0.4897654   0.01427046            0   0.47549494     1.464012    1.9537774   -2.1032474 
 9875000   0.99737453 -3.3473066e-05   0.45491627  0.018999296            0   0.43591697     1.477361    1.9322773   0.21845631 
 9880000    1.0184705 0.00010668251   0.43044007  0.055397332            0   0.37504274    1.5086094    1.9390494     7.401194 
 9885000   0.87883513 5.9559774e-05   0.61290922  0.039522568            0   0.57338666    1.3017745    1.9146838    4.9641442 
 9890000    0.8925039 -2.5055789e-06   0.60662182  0.035381703            0   0.57124012    1.3220214    1.9286432    1.8003576 
 9895000    1.0368187 1.4249393e-05    0.4106388  0.046861124            0   0.36377768    1.5357876    1.9464264    2.6759954 
 9900000    1.0128421 7.7501474e-05   0.42122901  0.011607306            0   0.40962171    1.5002724    1.9215014    5.8895769 
 9905000    1.0003522 -1.2762337e-05   0.43156987  0.014737672            0    0.4168322    1.4817717    1.9133416    1.2599099 
 9910000   0.93274731 -0.00010224285     0.515172  0.035477116            0   0.47969488     1.381632     1.896804   -3.3380298 
 9915000   0.94616274 -2.0080923e-05   0.47198683  0.030151631            0    0.4418352    1.4015036    1.8734904   0.84534714 
 9920000   0.98022899 5.476533e-05   0.44130462   0.01022502            0    0.4310796    1.4519642    1.8932688    4.6972537 
 9925000    0.9657216 4.6993105e-05   0.42813046  0.016925415            0   0.41120504    1.4304751    1.8586056    4.2646525 
 9930000   0.97357331 6.5709352e-05   0.43157812  0.027999628            0   0.40357849    1.4421055    1.8736836    5.2380024 
 9935000   0.92814568 0.00014114736   0.50046719  0.037249319            0   0.46321787    1.3748158     1.875283    9.1020278 
 9940000   0.91596293 8.7932199e-05    0.5080016  0.064660852            0   0.44334075    1.3567701    1.8647717    6.3669003 
 9945000   0.88660902 -3.729825e-05   0.54017961  0.071973558            0   0.46820605    1.3132896    1.8534692 -0.056201152 
 9950000   0.96130672 1.1434605e-05     0.438477  0.019190748            0   0.41928625    1.4239356    1.8624126    2.4478643 
 9955000   0.95371763 5.0782098e-05   0.45978816   0.05467236            0   0.40511581    1.4126942    1.8724824    4.4725258 
 9960000   0.92784098 -4.529057e-05   0.49229124  0.015950828            0   0.47634041    1.3743645    1.8666557  -0.45222147 
 9965000   0.94395877 -9.1563122e-05   0.46836901 0.0065178341            0   0.46185117    1.3982389    1.8666079   -2.8214239 
 9970000   0.96567056 9.6647408e-06   0.43292092  0.026833179            0   0.40608774    1.4303995    1.8633204    2.3581552 
 9975000    1.0087567 2.8329945e-05   0.39092692  0.047526251            0   0.34340066    1.4942209    1.8851478     3.335641 
 9980000   0.95577253 -1.0940279e-05   0.44899372  0.025687528            0   0.42330619    1.4157381    1.8647318    1.3045895 
 9985000   0.91500074 5.7392735e-05   0.51678239  0.042035557            0   0.47474684    1.3553449    1.8721272    4.8106353 
 9990000   0.92591685 3.9431395e-05   0.48529165 0.0089978901            0   0.47629376    1.3715143     1.856806    3.8756934 
 9995000    1.0407542 2.7269698e-07   0.35105837  0.018028179            0   0.33303019    1.5416171    1.8926755    1.9066376 
10000000   0.91630302 -7.4529651e-05   0.53531361  0.012240907            0   0.52307271    1.3572738    1.8925875   -1.9233307 
10005000   0.98579392 1.2656477e-05   0.45426726 0.00074184463            0   0.45352541    1.4602072    1.9144745    2.5624861 
10010000    1.0255876 0.00012405666    0.3939002 6.3131551e-05            0   0.39383707    1.5191517    1.9130519    8.2647531 
10015000    1.0530409 4.5767032e-05    0.3578853 0.0021287102            0   0.35575659    1.5598168    1.9177021    4.2609741 
10020000   0.96507224 -3.9550933e-05   0.49278271  0.010059923            0   0.48272279    1.4295133     1.922296   -0.1027118 
10025000   0.94140466 -6.4815433e-05    0.5332328  0.012644641            0   0.52058816    1.3944557    1.9276885   -1.3908617 
10030000   0.97462497 2.8750164e-05   0.47056385 0.0064510027            0   0.46411284    1.4436632    1.9142271    3.3862355 
10035000   0.94493635 0.00013478206    0.5178559  0.015628047            0   0.50222785     1.399687    1.9175429    8.8183844 
10040000   0.96988831 2.0913309e-05   0.50280552  0.016267151            0   0.48653836    1.4366471    1.9394526     3.010214 
10045000   0.96444397 -4.4530414e-05   0.49482423 0.0012856912            0   0.49353854    1.4285826    1.9234069  -0.35655035 
10050000    1.0264516 -6.6797181e-05   0.43376328 0.0058895834            0   0.42787369    1.5204315    1.9541948   -1.4658209 
10055000    1.0075883 3.6584292e-05   0.45893535  0.023840968            0   0.43509438    1.4924901    1.9514255    3.8245412 
10060000   0.99945117 1.9550983e-05   0.48544878   0.01907198            0    0.4663768    1.4804371    1.9658858    2.9668962 
10065000   0.98314945 -2.3202044e-05   0.46317745  0.012461061            0   0.45071639    1.4562901    1.9194676   0.73152293 
10070000   0.99158343 2.5078485e-05   0.45683975  0.054227411            0   0.40261233    1.4687829    1.9256227    3.2096411 
10075000   0.96484454 -4.8809448e-05   0.51894527  0.028368178            0   0.49057709     1.429176    1.9481212  -0.55092248 
10080000    1.0320324 -5.2344096e-05    0.4193665  0.036565708            0   0.38280079     1.528698    1.9480645  -0.73195318 
10085000   0.96989503 3.0941309e-05   0.52446443  0.053247061            0   0.47121737     1.436657    1.9611214    3.5453165 
10090000   0.93425938 -4.7057478e-05   0.54555356  0.032232773            0   0.51332078    1.3838717    1.9294253  -0.47991763 
10095000   0.97900277  0.000128264   0.50729596  0.022087591            0   0.48520836    1.4501478    1.9574438    8.5245608 
10100000    1.0235572 0.00011168695   0.39593824 0.0094778685            0   0.38646037    1.5161442    1.9120824    7.6304541 
10105000   0.93353115 -6.1150072e-06   0.53200711 0.0096685468            0   0.52233856     1.382793    1.9148001    1.6017118 
10110000   0.98183058 -9.8281534e-05   0.46947147   0.02272675            0   0.44674472    1.4543366     1.923808   -3.1082065 
10115000   0.92542392 -5.0347752e-05   0.53168548  0.013589437            0   0.51809604    1.3707842    1.9024697  -0.67533522 
10120000    1.0033084 -3.7663382e-05   0.44419126 0.0041110194            0   0.44008024    1.4861505    1.9303418 0.0019766285 
10125000    1.0378304 -3.2060007e-05   0.38631867  0.010175481            0   0.37614319    1.5372863    1.9236049   0.28213257 
10130000    1.0209627 4.093426e-05   0.40651264  0.018551911            0   0.38796073    1.5123011    1.9188137    4.0146478 
10135000   0.98027819 -2.9823998e-05   0.44351125  0.042234801            0   0.40127645    1.4520371    1.8955483   0.36855961 
10140000    0.9137858 7.7996761e-05   0.51359276  0.097924976            0   0.41566779    1.3535452     1.867138    5.8605722 
10145000   0.94911716 2.9054886e-05   0.46255641  0.046980408            0     0.415576    1.4058798    1.8684362    3.3560464 
10150000    0.9605111 -2.1562507e-05   0.48297361  0.026733637            0   0.45623997    1.4227571    1.9057307   0.80173032 
10155000   0.96816838 -4.987742e-05   0.46948904  0.041932855            0   0.42755618    1.4340994    1.9035884  -0.65013544 
10160000   0.97613151 -0.00020261542   0.47729496  0.011613843            0   0.46568111    1.4458948    1.9231898   -8.4507198 
10165000    1.0303366 -9.5486245e-05    0.4194236  0.014574771            0   0.40484882    1.5261861    1.9456097    -2.943286 
10170000    1.0206895 5.152378e-05   0.43116847  0.019603496            0   0.41156497    1.5118963    1.9430647    4.5810823 
10175000    1.0155302 3.6335971e-05   0.43799249  0.010733674            0   0.42725882    1.5042542    1.9422467    3.8026484 
10180000    1.0327938 -5.0604462e-05   0.39468845 0.0010809446            0    0.3936075    1.5298258    1.9245142  -0.66643419 
10185000   0.97612132 -9.691249e-05   0.48515582 0.0033709543            0   0.48178486    1.4458797    1.9310355    -3.030884 
10190000    1.0170539 7.8602406e-06   0.43519911 0.0084016032            0    0.4267975    1.5065111    1.9417102    2.3441545 
10195000    1.0085791 6.4571962e-05   0.44629157  0.016560135            0   0.42973143    1.4939578    1.9402494    5.2463338 
10200000    1.0149566 -1.9665975e-05   0.42689075    0.0146188            0   0.41227195    1.5034044    1.9302951   0.92339724 
10205000    1.0599324 -0.00024572896   0.36011777 0.0042576266            0   0.35586014    1.5700248    1.9301426    -10.65118 
10210000   0.97553791 -8.4801511e-05   0.48160129  0.025474656            0   0.45612663    1.4450155    1.9266168   -2.4152205 
10215000   0.95210082 0.00012581069   0.54261267  0.042163973            0    0.5004487    1.4102993     1.952912    8.3944195 
10220000    1.0293213 8.2093595e-06   0.45986017  0.021002051            0   0.43885812    1.5246821    1.9845423    2.4048615 
10225000    1.0394605 -4.4738006e-05   0.45883921  0.011588077            0   0.44725114    1.5397008      1.99854  -0.29204587 
10230000    1.1086811 1.9190144e-05   0.38003797   0.03464848            0   0.34538949    1.6422339    2.0222718    3.0048072 
10235000   0.99098888 -5.5646287e-06   0.52486646  0.025388348            0   0.49947811    1.4679023    1.9927687    1.7078598 
10240000    1.0260727 -7.6033946e-06   0.49684349  0.011840692            0    0.4850028    1.5198702    2.0167137    1.6274199 
10245000    1.0393539 -6.0282925e-05   0.47246573  0.025040326            0    0.4474254    1.5395429    2.0120087   -1.0744771 
10250000    1.0355757 -6.1670744e-05   0.45499087  0.027527859            0   0.42746301    1.5339464    1.9889373   -1.1686048 
10255000   0.99421314 4.2560614e-05   0.50947231  0.021362863            0   0.48810944    1.4726782    1.9821505     4.161254 
10260000    1.0387973 8.0243991e-05    0.4596616 0.0067571345            0   0.45290447    1.5387185    1.9983801    6.1068724 
10265000     1.005455 8.5016373e-05   0.48954088  0.037235877            0     0.452305    1.4893302    1.9788711    6.3317094 
10270000    1.0479608 7.4621399e-05   0.42106257  0.036950679            0   0.38411189    1.5522919    1.9733545    5.7939701 
10275000   0.99423773 -1.0959749e-07   0.51102894  0.037172657            0   0.47385628    1.4727146    1.9837436    1.9781322 
10280000    1.0335216 -0.00015644445   0.44834354  0.035054209            0   0.41328933    1.5309038    1.9792473   -6.0307085 
10285000    1.0316323 -0.00013945398   0.40706061 0.0062247271            0   0.40083588    1.5281054     1.935166   -5.2048777 
10290000   0.97004464 2.0046319e-05   0.50704552  0.014793542            0   0.49225197    1.4368786    1.9439241    2.9702957 
10295000     0.979858 5.4918654e-05   0.51280435  0.034382558            0   0.47842179    1.4514147     1.964219    4.7760541 
10300000    0.9729228 9.3716303e-06   0.52956049  0.022010219            0   0.50755027    1.4411419    1.9707024    2.4505299 
10305000    1.0017916 -2.9753328e-05   0.48376142   0.02861947            0   0.45514195    1.4839038    1.9676652    0.4442948 
10310000   0.99140393 -7.2960086e-05    0.4825435 0.0098456607            0   0.47269783    1.4685171    1.9510606   -1.7844959 
10315000    0.9528326 4.5975479e-05   0.54059081 0.0069594978            0   0.53363131    1.4113833    1.9519741    4.3059186 
10320000    1.0360255 5.061764e-05   0.37363655 0.0071757708            0   0.36646078    1.5346127    1.9082493    4.4998724 
10325000   0.96633419 -4.5334955e-05    0.4801201  0.018964774            0   0.46115533    1.4313825    1.9115026  -0.40964707 
10330000   0.97087785 3.1460055e-05   0.47475975  0.047298343            0   0.42746141    1.4381128    1.9128726    3.5236274 
10335000   0.95969071 3.1026326e-05   0.49851399  0.023120431            0   0.47539356    1.4215419    1.9200559    3.5086038 
10340000   0.97383186 -6.0260362e-05   0.48848084  0.024726487            0   0.46375435    1.4424884    1.9309693   -1.1543613 
10345000    1.0359916 -2.8368324e-05    0.3709733  0.037982352            0   0.33299095    1.5345626    1.9055359   0.45307771 
10350000   0.95698086 -2.4449376e-05   0.45730871  0.028143493            0   0.42916522    1.4175279    1.8748366   0.62302856 
10355000   0.96739853 5.1020022e-05   0.45816743  0.062953334            0    0.3952141    1.4329591    1.8911265    4.5033517 
10360000   0.99053081 0.00016349469   0.42572344  0.046067694            0   0.37965574    1.4672238    1.8929472    10.263875 
10365000   0.91811435 9.5519008e-05   0.51230379  0.033852641            0   0.47845115    1.3599569    1.8722607    6.7628339 
10370000    0.9808991 5.4560055e-05   0.41761402  0.041610054            0   0.37600396    1.4529568    1.8705708    4.6640456 
10375000   0.96727171 4.0937987e-05   0.43285723  0.010683266            0   0.42217397    1.4327712    1.8656284    3.9616534 
10380000   0.93654682 -9.2082209e-05   0.47442087 0.0015792667            0   0.47284161      1.38726    1.8616808   -2.8529282 
10385000   0.94440304 -1.1013273e-05   0.46957389 0.0081716341            0   0.46140226     1.398897    1.8684709    1.3045913 
10390000   0.96033961 0.00010428167   0.48018383  0.015744638            0   0.46443919     1.422503    1.9026869    7.2419082 
10395000   0.99795918 2.5093479e-05   0.44579134  0.023669301            0   0.42212203     1.478227    1.9240184    3.2088045 
10400000   0.96037095 -4.6644388e-05    0.5241787    0.0233116            0    0.5008671    1.4225495    1.9467282  -0.44146448 
10405000   0.96600907 -0.00010076539   0.48779821  0.017051769            0   0.47074644    1.4309009    1.9186991   -3.2404886 
10410000   0.93133505 -0.00010475225    0.5086816  0.023335742            0   0.48534586      1.37954    1.8882216   -3.4750937 
10415000   0.90863091 -2.8546183e-05   0.53424452  0.035050338            0   0.49919418    1.3459095     1.880154   0.41858945 
10420000   0.99302372 -3.272196e-05   0.43063261  0.019886972            0   0.41074564    1.4709164     1.901549   0.22618464 
10425000   0.91352214 -8.5659892e-05   0.54406003 0.0072491893            0   0.53681084    1.3531547    1.8972147   -2.4885717 
10430000     0.917133 1.6796965e-06   0.52923449 0.0024538834            0   0.52678061    1.3585033    1.8877378    1.9737382 
10435000    1.0008606 -0.00010732772   0.37596174 0.0017190732            0   0.37424267    1.4825248    1.8584865   -3.6366925 
10440000   0.99967142 -0.00012420028   0.35636662 0.0061870383            0   0.35017958    1.4807633    1.8371299   -4.5219243 
10445000   0.91203886 -6.1034349e-06   0.47452135  0.013907423            0   0.46061393    1.3509576    1.8254789     1.512983 
10450000   0.88434155 0.00011343579   0.57754598  0.073137607            0   0.50440837    1.3099309    1.8874769    7.6953896 
10455000   0.89290414 7.0739578e-05   0.53210557  0.048657285            0   0.48344829    1.3226143    1.8547198    5.4765862 
10460000    0.9313834 -1.3434279e-05   0.47746662  0.028313953            0   0.44915266    1.3796117    1.8570783    1.1692432 
10465000    0.9006402 8.8870462e-05   0.54529661  0.056434154            0   0.48886245    1.3340733    1.8793699    6.4295375 
10470000   0.94639776 -5.4435503e-05   0.49531775  0.041331962            0   0.45398579    1.4018517    1.8971694  -0.88992832 
10475000   0.95768449 -4.6430529e-05   0.50613249  0.040226698            0   0.46590579    1.4185701    1.9247026  -0.45254044 
10480000     0.964696 1.1036001e-05   0.46948223  0.011697003            0   0.45778523    1.4289559    1.8984382    2.4634814 
10485000   0.95002494 -2.4472147e-05   0.50297294 0.0032341854            0   0.49973876    1.4072244    1.9101974   0.65722344 
10490000   0.95642712 -1.5754557e-05   0.48169205  0.021307013            0   0.46038504    1.4167077    1.8983997    1.0917664 
10495000   0.96707918 -2.2646104e-05   0.46591929  0.019805461            0   0.44611383     1.432486    1.8984053   0.73892483 
10500000    1.0454428 7.9060966e-05    0.3868698  0.011187816            0   0.37568199    1.5485622     1.935432    5.9833534 
10505000   0.96007398 7.9708765e-05   0.52776486  0.013825956            0   0.51393891    1.4221096    1.9498744    6.0309632 
10510000    1.0007757 -1.5785371e-05   0.51392153  0.038153093            0   0.47576844     1.482399    1.9963205    1.1881096 
10515000    1.0697721 2.7290558e-05   0.46714011  0.013275395            0   0.45386471    1.5845999      2.05174    3.4490166 
10520000   0.99644023 5.7392078e-05   0.56400917  0.011929624            0   0.55207955    1.4759771    2.0399863    4.9784607 
10525000    1.0700379 2.444608e-05   0.45876666  0.013407464            0    0.4453592    1.5849937    2.0437603    3.2953997 
10530000    1.1079078 9.1986979e-06   0.44367183   0.01336505            0   0.43030678    1.6410885    2.0847603    2.5557336 
10535000   0.97725403 -7.1569495e-05   0.60597534 0.0043678774            0   0.60160746    1.4475575    2.0535329   -1.6108253 
10540000    1.0143012 -1.5750002e-05   0.50965442 0.0098011928            0   0.49985322    1.5024337    2.0120881     1.205688 
10545000    1.0461858 -2.2216104e-05   0.44947749  0.025589056            0   0.42388844    1.5496627    1.9991402   0.86167566 
10550000    1.0266802 3.341791e-05   0.48123564  0.037045889            0   0.44418976      1.52077    2.0020056    3.7130026 
10555000   0.99471699 -0.0001326508   0.54880277  0.024394037            0   0.52440873    1.4734245    2.0222273   -4.7694936 
10560000   0.97644411 1.0090406e-05   0.57656317 0.0045022221            0   0.57206094    1.4463578     2.022921    2.5395498 
10565000    1.0427416 -7.296794e-05   0.46447846 0.0030519823            0   0.46142648    1.5445611    2.0090395    -1.726919 
10570000    1.0261178 9.1308738e-06   0.47754635 0.0086030438            0    0.4689433     1.519937    1.9974833     2.464984 
10575000   0.95003211 1.6418283e-05    0.5573987  0.034009941            0   0.52338876    1.4072351    1.9646338    2.8052499 
10580000    0.9617012 0.00012585596   0.55087378   0.03510037            0   0.51577341    1.4245199    1.9753937    8.4192188 
10585000   0.95302884 0.00013225497    0.5399741  0.023037088            0   0.51693701     1.411674    1.9516481    8.7231025 
10590000    1.0287311 6.4519418e-06   0.43425056  0.021867073            0   0.41238349     1.523808    1.9580585     2.288398 
10595000   0.95505238 6.6567215e-05   0.50810478  0.043119653            0   0.46498513    1.4146713    1.9227761    5.3310175 
10600000   0.90005606 -4.8620552e-05   0.58485758  0.041728621            0   0.54312895     1.333208    1.9180656  -0.57130664 
10605000    0.9566535 2.7781275e-05    0.4832869  0.031634382            0   0.45165252     1.417043    1.9003299    3.3227312 
10610000   0.94543118 -4.6181905e-05   0.51996795   0.03778196            0   0.48218599    1.4004199    1.9203879  -0.44412568 
10615000    1.0187129 -2.1036929e-05   0.40229206   0.02651155            0   0.37578051    1.5089685    1.9112605   0.83416976 
10620000   0.94229199 -2.3868331e-05   0.49252648  0.038888227            0   0.45363825      1.39577    1.8882965   0.66623794 
10625000   0.90651205 -4.9218796e-05   0.54275146  0.037425021            0   0.50532644     1.342771    1.8855224  -0.63447991 
10630000   0.87726252 0.00011363554   0.57438907  0.011585027            0   0.56280405    1.2994451    1.8738342    7.6919737 
10635000    1.0017317 -5.31731e-06   0.40711649 0.0091571516            0   0.39795934    1.4838151    1.8909316    1.6186853 
10640000   0.90823849 -2.8574556e-05   0.52322668   0.01119794            0   0.51202874    1.3453283    1.8685549   0.40553768 
10645000   0.96359402 -2.7497476e-05   0.44959473   0.02059126            0   0.42900347    1.4273236    1.8769184   0.46904758 
10650000   0.88157924 -0.00012970833   0.54874463  0.030266817            0   0.51847781    1.3058392    1.8545839   -4.7864825 
10655000   0.93878976 -8.3946499e-05   0.45321954  0.017780459            0   0.43543908    1.3905823    1.8438019   -2.4542589 
10660000    0.9196648 -0.0001758679   0.46955284 0.0047767385            0   0.46477611    1.3622535    1.8318063   -7.1726302 
10665000   0.84960193 -0.00016013754    0.5547039  0.017077168            0   0.53762673    1.2584729    1.8131768   -6.3858655 
10670000   0.92569409 1.3123239e-05   0.45725413  0.011259775            0   0.44599436    1.3711844    1.8284385    2.5003484 
10675000    0.8826767 -4.2353671e-06   0.51065341 0.0096569337            0   0.50099648    1.3074649    1.8181183    1.6012675 
10680000   0.96094061 -6.9908068e-05    0.3973958 0.0071561942            0   0.39023961    1.4233933    1.8207891    -1.758504 
10685000   0.94142959 1.9939727e-05   0.45899994  0.019846121            0   0.43915381    1.3944926    1.8534925    2.8744065 
10690000   0.94764187 -3.9309581e-06   0.45669928  0.012104734            0   0.44459455    1.4036945    1.8603938    1.6591288 
10695000   0.95492485 -8.3461449e-05   0.47818483  0.013308229            0    0.4648766    1.4144824    1.8926673   -2.3805589 
10700000   0.91571745 -4.2824238e-05   0.54994393  0.081283444            0   0.46866049    1.3564065    1.9063504  -0.28625057 
10705000   0.97244175 -4.4881432e-05    0.5047882  0.028814523            0   0.47597368    1.4404293    1.9452175  -0.35271181 
10710000   0.99760704 -2.8957964e-05   0.50988002 0.0039141996            0   0.50596582    1.4777054    1.9875855   0.50493768 
10715000   0.96934054 0.00015968702   0.54648421 0.0028424503            0   0.54364176    1.4358357    1.9823199    10.158295 
10720000     1.005223 9.9488107e-05   0.51215009 0.0055125584            0   0.50663753    1.4889865    2.0011366    7.0949277 
10725000   0.97396779 -4.7160184e-05   0.57218393  0.032113037            0   0.54007089    1.4426898    2.0148737   -0.3997277 
10730000   0.94988612 -5.7521296e-05   0.59862268 0.0058114204            0   0.59281126    1.4070188    2.0056415  -0.93944884 
10735000     0.983549 1.366282e-05   0.52904457 0.0083239035            0   0.52072066     1.456882    1.9859265    2.6854629 
10740000    1.0022264 -5.497628e-05    0.4979356  0.010266368            0   0.48766923    1.4845478    1.9824834  -0.83230209 
10745000   0.88525795 -0.00013698762   0.65924869   0.01896948            0   0.64027921    1.3112883     1.970537   -5.0432291 
10750000    1.0006516 -0.00020149929   0.49510047  0.010755876            0   0.48434459    1.4822152    1.9773157   -8.3394482 
10755000    1.0386502 7.0067841e-05   0.47749371 0.0038417823            0   0.47365193    1.5385006    2.0159943    5.6034678 
10760000   0.99465468 6.0910371e-05   0.54654064 0.0031333321            0   0.54340731    1.4733322    2.0198729    5.1384839 
10765000     1.076705 1.7038162e-05   0.42433402 0.00096099231            0   0.42337302    1.5948692    2.0192033    2.8915571 
10770000   0.97597541 1.9564198e-05   0.58779162            0            0   0.58779162    1.4456636    2.0334552    3.0351422 
10775000     1.091469 -1.693069e-05   0.44166986 0.0013694388            0   0.44030042    1.6167385    2.0584083     1.191557 
10780000    1.0577488 -1.0711853e-05   0.51798446  0.011342894            0   0.50664156    1.5667905    2.0847749    1.5363281 
10785000   0.97468766 2.7574846e-05   0.64055969  0.019932916            0   0.62062677    1.4437561    2.0843158    3.4961479 
10790000    1.0609876 5.3735721e-05   0.50359434 0.0095596221            0   0.49403471    1.5715878    2.0751822    4.8264511 
10795000    1.0998381 -3.937275e-05   0.41705927  0.045771257            0   0.37128801    1.6291351    2.0461944  0.030309578 
10800000    1.0633069 -5.0439747e-05   0.46346087  0.022291605            0   0.44116927    1.5750234    2.0384843  -0.54403078 
10805000   0.99430745 2.5064533e-05   0.57284013  0.013160803            0   0.55967933    1.4728179     2.045658    3.3289621 
10810000    1.0703052 -5.4004416e-05   0.45058877  0.019632226            0   0.43095654    1.5853895    2.0359783  -0.72904784 
10815000    1.0470036 -3.5518562e-05   0.50979197  0.025728698            0   0.48406327    1.5508741     2.060666   0.24211565 
10820000    1.0403709 0.00013660682   0.51823296  0.013478316            0   0.50475465    1.5410493    2.0592823    9.0535514 
10825000    1.0308603 0.00021663685   0.55224801 0.0052388008            0   0.54700921    1.5269618    2.0792098    13.171016 
10830000   0.99457572 7.8294854e-05   0.61510511  0.052489456            0   0.56261565    1.4732153    2.0883204    6.0970169 
10835000    1.1037085 -5.6846866e-05   0.45728536  0.023076405            0   0.43420896    1.6348682    2.0921535  -0.81840599 
10840000    1.0578436 6.6178123e-05   0.51571871  0.024132312            0    0.4915864    1.5669308    2.0826495    5.4709694 
10845000    1.0908813 4.1824807e-05   0.42404429  0.030852715            0   0.39319157    1.6158679    2.0399122    4.1813423 
10850000   0.93445198 -0.0001443747   0.61043645   0.06262983            0   0.54780662     1.384157    1.9945934   -5.3973914 
10855000    1.0241866 3.7050745e-05   0.48947117  0.033187686            0   0.45628348    1.5170764    2.0065475    3.9035457 
10860000    1.0060026 0.0001505182   0.52171941  0.023148734            0   0.49857068    1.4901414    2.0118608    9.7183928 
10865000   0.98345913 -1.5898291e-05   0.56031246  0.036873818            0   0.52343865    1.4567488    2.0170613    1.2030688 
10870000    1.0314276 0.00013035013   0.49612395  0.052641624            0   0.44348232    1.5278021    2.0239261    8.6978528 
10875000      1.00471 0.0001106139    0.5506902  0.014245982            0   0.53644422    1.4882266    2.0389168    7.7023484 
10880000    1.0724851 -5.660373e-05    0.4620185 0.0039243414            0   0.45809416    1.5886185     2.050637  -0.84747394 
10885000    1.0862777 -9.0036007e-06   0.42314096 0.0037363866            0   0.41940457    1.6090489    2.0321899    1.5712055 
10890000    1.0559049 3.2314606e-05   0.42736399  0.010672676            0   0.41669132    1.5640591    1.9914231    3.6459309 
10895000   0.99046739 -3.4391407e-05   0.53677157  0.032138651            0   0.50463292    1.4671298    2.0039014   0.24306136 
10900000   0.99150123 -4.4240753e-05   0.52794765  0.049661122            0   0.47828653    1.4686612    1.9966089  -0.26851772 
10905000   0.89956743 -1.8251669e-05   0.66405794  0.017510401            0   0.64654754    1.3324843    1.9965422    1.0620567 
10910000    1.0510697 4.6152681e-06    0.4598778  0.041796447            0   0.41808135     1.556897    2.0167748    2.2530765 
10915000    1.0387823 -2.5714649e-05   0.47690491  0.026693962            0   0.45021095    1.5386963    2.0156012   0.69901119 
10920000   0.94668042 -7.4653424e-05   0.60886834  0.067679956            0   0.54118838    1.4022704    2.0111387   -1.8111166 
10925000    1.0425153 0.00010224665   0.49144957  0.035982168            0    0.4554674    1.5442257    2.0356753     7.270704 
10930000    1.0377449 9.7904884e-05   0.52469054  0.051586956            0   0.47310359    1.5371596    2.0618502    7.0745802 
10935000    1.0081801 3.5477693e-05   0.53686553  0.029717845            0   0.50714769    1.4933668    2.0302323    3.8466902 
10940000    1.0601403 6.4436037e-06   0.43818399  0.025427666            0   0.41275632    1.5703328    2.0085167    2.3384293 
10945000    1.0500414 -0.00013524466   0.48186923  0.013273329            0    0.4685959    1.5553738     2.037243   -4.8872834 
10950000    1.1004939 -9.3139301e-05   0.44125089    0.0336538            0   0.40759709    1.6301065    2.0713574   -2.6973748 
10955000    1.0392955 0.00010699664   0.54327784   0.04728749            0   0.49599035    1.5394564    2.0827342    7.5609624 
10960000    1.1084922 0.00015464604   0.43821051  0.018801551            0   0.41940896    1.6419541    2.0801646     9.998042 
10965000    1.0893093 5.820488e-06   0.46186037  0.025508808            0   0.43635156    1.6135394    2.0753998    2.3734087 
10970000    1.0161548 -8.0539787e-05   0.60199338  0.017504262            0   0.58448912    1.5051792    2.1071726   -2.0164645 
10975000    1.0640362 -4.3606754e-05   0.49430822  0.021320416            0    0.4729878    1.5761036    2.0704118  -0.16225394 
10980000    1.1211717 4.2576603e-05   0.44405168 0.0050877099            0   0.43896397    1.6607356    2.1047873    4.2847093 
10985000    1.0239157 0.00013591164   0.55701713 0.0069939915            0   0.55002314    1.5166751    2.0736922    9.0323682 
10990000    1.0487476 9.9160559e-05   0.47654137 0.0081546207            0   0.46838675    1.5534574    2.0299988    7.1070194 
10995000    1.0815948 3.3188647e-05   0.42642679  0.010392287            0   0.41603451    1.6021122     2.028539    3.7277978 
11000000    1.0403865 -2.3663667e-05   0.47372985   0.03953627            0   0.43419358    1.5410725    2.0148024   0.80322265 
11005000    1.0368706 -3.3571102e-05   0.51415213  0.044658998            0   0.46949313    1.5358646    2.0500168   0.33117634 
11010000    1.0289555 2.4968331e-05     0.544067  0.017291078            0   0.52677592    1.5241404    2.0682074    3.3465859 
11015000    1.0259899 -1.3865896e-05   0.54020714  0.018806657            0   0.52140048    1.5197475    2.0599546    1.3500208 
11020000    1.0559216 0.00012314096   0.46827439  0.038787933            0   0.42948646    1.5640839    2.0323583    8.3371757 
11025000    1.0490625 -5.3597548e-05   0.51494421  0.053861148            0   0.46108306    1.5539238     2.068868  -0.67532645 
11030000     1.020896 -5.2097659e-05   0.53606087  0.018989507            0   0.51707137    1.5122022    2.0482631  -0.61913711 
11035000    1.1515237 2.1755733e-05   0.34939301  0.011439818            0   0.33795319    1.7056945    2.0550876    3.1689811 
11040000    1.0844087 6.1916274e-05   0.40939572  0.011169136            0   0.39822659    1.6062804    2.0156761    5.1857893 
11045000   0.99128167 -5.1773584e-05    0.5197167 0.0059807847            0   0.51373592     1.468336    1.9880527  -0.66275482 
11050000    1.0050079 -9.5875505e-05   0.50526953  0.049792605            0   0.45547692     1.488668    1.9939375   -2.9148883 
11055000    1.0316194 0.00013190733   0.47807329  0.022763362            0   0.45530993    1.5280862    2.0061595    8.7598149 
11060000    1.0629088 -9.0694866e-06   0.46513713  0.025932952            0   0.43920417    1.5744336    2.0395707     1.575213 
11065000    1.0254726 -8.8453707e-05   0.54642093  0.047070849            0   0.49935008    1.5189813    2.0654022   -2.4634276 
11070000    1.0763684 0.00015164251   0.50768253  0.039295068            0   0.46838746    1.5943707    2.1020533    9.8661497 
11075000    1.0751497 0.0001094742   0.50769271 0.0082909903            0   0.49940172    1.5925656    2.1002583    7.7053374 
11080000     1.115747 7.6856193e-05   0.42659517 0.0018127269            0   0.42478245    1.6527003    2.0792955    6.0143325 
11085000    1.1021569 6.1492601e-05   0.44797709 0.0048499725            0   0.44312711    1.6325699     2.080547    5.2289681 
11090000    1.0111479 -5.9509004e-05   0.58370802 0.0099604908            0   0.57374753    1.4977628    2.0814709  -0.96539017 
11095000    1.0165913 7.360869e-05   0.56800162  0.052782061            0   0.51521956    1.5058259    2.0738275    5.8425925 
11100000    1.1159033 4.7064846e-05   0.40485787 0.0090927262            0   0.39576514    1.6529318    2.0577897    4.4675098 
11105000    1.0616941 -2.6973147e-05     0.514853  0.040182016            0   0.47467098    1.5726343    2.0874873   0.70646222 
11110000    1.0043916 5.6238445e-05   0.59813151  0.010449808            0    0.5876817    1.4877551    2.0858866     4.965295 
11115000    1.0300831 -3.7625627e-05   0.58638407  0.016576019            0   0.56980805    1.5258106    2.1121946   0.18576251 
11120000    1.0847061 -2.1909663e-05   0.53292019  0.045921103            0   0.48699909     1.606721    2.1396411    1.0178664 
11125000     1.094256 7.8020915e-05   0.52618243  0.021789134            0    0.5043933    1.6208666    2.1470491    6.1417199 
11130000    1.1161315 -4.5308015e-05   0.52565484  0.018467965            0   0.50718688    1.6532698    2.1789247  -0.14084567 
11135000    1.0573021 -8.6896019e-05   0.58781576  0.012332772            0   0.57548299    1.5661287    2.1539445   -2.2951317 
11140000    1.0815937 -1.5506037e-05   0.53851874  0.011686829            0   0.52683191    1.6021106    2.1406294    1.3467203 
11145000     1.042205 -6.1627305e-05   0.58872867   0.02187118            0   0.56685749    1.5437661    2.1324948   -1.0228232 
11150000    1.0907756 -4.5654468e-05   0.50602015  0.013717858            0    0.4923023    1.6157114    2.1217315  -0.21577724 
11155000    1.0322016 4.8185436e-05    0.5880709 0.0056415838            0   0.58242932    1.5289485    2.1170195    4.5841138 
11160000    1.0768958 0.00012539203   0.50854142 0.0097412433            0   0.49880018    1.5951519    2.1036933    8.5237655 
11165000    1.0891296 5.9224543e-05   0.50835969  0.030947678            0   0.47741201    1.6132732    2.1216329    5.1539295 
11170000    1.1035967 -5.0831744e-05   0.47909202  0.009931344            0   0.46916068    1.6347027    2.1137947   -0.4887906 
11175000    1.1157091 5.3317256e-05   0.46067615 0.0094348318            0   0.45124132    1.6526441    2.1133203    4.8431638 
11180000   0.98456416 0.00011031225    0.6482817 0.0096590188            0   0.63862268    1.4583857    2.1066674    7.7546545 
11185000    1.0397952 3.5083639e-05   0.58688745  0.023639201            0   0.56324825    1.5401966     2.127084    3.9233664 
11190000    1.0256675 5.0277452e-05   0.63102721  0.052859334            0   0.57816788    1.5192699    2.1502971    4.7245027 
11195000    1.1076003 -2.298235e-05   0.52598599  0.024189497            0   0.50179649     1.640633     2.166619   0.98992268 
11200000    1.1337296 -2.3236543e-05   0.45061526 0.0052819247            0   0.44533333     1.679337    2.1299523   0.94024128 
11205000    1.1729438 6.2459007e-05   0.43493789  0.030011052            0   0.40492684     1.737423    2.1723609    5.3702621 
11210000    1.1071253 6.4957154e-05   0.54999791  0.057135408            0    0.4928625    1.6399293    2.1899272    5.5157335 
11215000    1.0971008 8.9893591e-06   0.57797721  0.021771757            0   0.55620545    1.6250806    2.2030578     2.663313 
11220000    1.0606135 5.7599714e-05   0.66401434 0.0076815741            0   0.65633277    1.5710337     2.235048    5.1841534 
11225000    1.1647641 0.0001212997   0.53481609  0.032772746            0   0.50204335    1.7253068    2.2601229    8.4706675 
11230000    1.2002486 3.0395758e-05   0.49619758  0.016689489            0   0.47950809    1.7778682    2.2740658    3.8303286 
11235000    1.1721074 -2.8595057e-05   0.53731396   0.02817159            0   0.50914237    1.7361841     2.273498   0.80943109 
11240000    1.0992667 -7.0940452e-05   0.63567437  0.040741832            0   0.59493254    1.6282889    2.2639632   -1.3681879 
11245000    1.0995138 -9.8724537e-05   0.62154153  0.013996598            0   0.60754493    1.6286549    2.2501964   -2.8044999 
11250000    1.1562268 -1.3134285e-05   0.52673066  0.022671132            0   0.50405953     1.712661    2.2393916    1.5669162 
11255000    1.0839666 -5.2934195e-05   0.59761864  0.044738554            0   0.55288008    1.6056255    2.2032441   -0.5069867 
11260000    1.0472663 -1.1542776e-05    0.6537008  0.026764251            0   0.62693655    1.5512632     2.204964    1.6139739 
11265000    1.0883134 0.00012963638    0.5709815  0.034340362            0   0.53664114    1.6120642    2.1830457    8.8204286 
11270000    1.1893213 7.3622379e-05    0.4340294   0.03149344            0   0.40253596    1.7616822    2.1957116    5.9651775 
11275000    1.1181751 -3.8757097e-05   0.52383297  0.062731786            0   0.46110118    1.6562968    2.1801298   0.19576639 
11280000    1.0064184 -5.8283235e-05   0.69406702  0.075148688            0   0.61891833    1.4907572    2.1848242  -0.79927738 
11285000     1.095305 3.2189397e-05   0.59013862  0.039375098            0   0.55076352    1.6224205    2.2125591    3.8606563 
11290000   0.99858437 5.4044237e-05   0.71834811  0.061547756            0   0.65680036    1.4791531    2.1975012    4.9645661 
11295000    1.1112489 8.0775691e-05   0.52654977  0.060667161            0   0.46588261    1.6460374    2.1725871    6.3083025 
11300000    1.1145359 7.8773613e-06   0.53235697  0.035507108            0   0.49684986    1.6509063    2.1832633    2.5865842 
11305000    1.0983788 -0.00015949818   0.54854661  0.036691984            0   0.51185463    1.6269736    2.1755202   -5.9907864 
11310000    1.0630625 -4.5879171e-05   0.58634791 0.0037916126            0   0.58255629    1.5746614    2.1610093  -0.18800425 
11315000    1.1539899 8.4771363e-05   0.43638152 0.0070229913            0   0.42935853    1.7093475     2.145729    6.4860228 
11320000    1.0906628 1.1049957e-05   0.55066363  0.020751172            0   0.52991246    1.6155443    2.1662079    2.7319657 
11325000    1.1893098 2.6462728e-05   0.43217482 0.0095653486            0   0.42260947    1.7616651    2.1938399    3.5487316 
11330000     1.030704 -2.8786011e-05   0.64887097  0.012563433            0   0.63630753    1.5267303    2.1756013   0.70175752 
11335000    1.0419235 -6.5231041e-05   0.60490312 0.0087057302            0   0.59619739    1.5433492    2.1482523    -1.191577 
11340000    1.0137746 1.6347025e-05   0.64401719  0.011740028            0   0.63227716    1.5016536    2.1456708    2.9826385 
11345000    1.0310014 9.7335914e-06   0.60066993 0.0095723105            0   0.59109762    1.5271709    2.1278408    2.6262007 
11350000    1.0606969 3.2125563e-05    0.5586933 0.0061518024            0    0.5525415    1.5711573    2.1298506    3.7746794 
11355000     1.042675 2.3827278e-05   0.62026259 0.0039960536            0   0.61626653    1.5444623    2.1647249    3.3846815 
11360000    1.0670707 -4.8208727e-06   0.59570697 0.0047986043            0   0.59090837    1.5805984    2.1763054    1.9294767 
11365000    1.1253509 -1.4445021e-05   0.50868853 0.0099333789            0   0.49875515     1.666926    2.1756146    1.4360295 
11370000    1.0266774 -6.3721988e-05   0.70416924  0.016050261            0   0.68811898     1.520766    2.2249352   -1.0376306 
11375000    1.1271023 5.4477079e-05   0.54940572  0.011770285            0   0.53763543    1.6695203     2.218926    5.0081524 
11380000    1.1874807 8.457231e-05   0.44231972  0.017860967            0   0.42445876    1.7589557    2.2012755    6.5313777 
11385000    1.1215995 -6.3630673e-05    0.5326914  0.015687349            0   0.51700405    1.6613692    2.1940606   -1.0638299 
11390000    1.1465639 -7.5222713e-05   0.48846977 0.0049992666            0    0.4834705    1.6983477    2.1868175   -1.6645854 
11395000    1.0842683 -1.2596498e-05   0.52476424 1.7101115e-05            0   0.52474714    1.6060724    2.1308367     1.485896 
11400000   0.99895071 3.2161602e-05   0.62084475 0.00040668437            0   0.62043807    1.4796957    2.1005405    3.7472145 
11405000    1.0554341 -3.5393795e-06   0.51090426 0.00076688799            0   0.51013737    1.5633618     2.074266    1.8930498 
11410000    1.0245673 -5.1598037e-05   0.54914745 0.00054435466            0    0.5486031    1.5176403    2.0667877  -0.57503176 
11415000    1.0348783 -2.5686617e-05   0.52293324  0.001903783            0   0.52102946    1.5329135    2.0558467   0.74069196 
11420000    1.0371219 -2.4623698e-05   0.51348768 0.0024752811            0    0.5110124    1.5362369    2.0497245    0.7889912 
11425000    1.0844352 -0.00010954108   0.45160962 0.0050160227            0   0.44659359    1.6063196    2.0579292   -3.5505742 
11430000    1.0357246 -6.4942766e-05   0.50418588 0.0081121113            0   0.49607377     1.534167    2.0383529   -1.2867167 
11435000     1.029705 3.2461725e-05   0.52447193  0.014116721            0   0.51035521    1.5252505    2.0497224    3.7117627 
11440000    1.0583948 4.6593789e-05   0.49156735  0.014104802            0   0.47746255    1.5677473    2.0593147    4.4449167 
11445000   0.99838084 5.9027894e-06   0.56505477 0.0096103731            0    0.5554444    1.4788516    2.0439064    2.3461292 
11450000   0.99559654 -2.2937457e-05   0.57910553  0.014630937            0   0.56447459    1.4747274    2.0538329   0.87943512 
11455000    1.0656895 8.1833959e-05   0.46070309 0.0044863021            0   0.45621679    1.5785526    2.0392557    6.2291544 
11460000    1.0329518 2.3872336e-05   0.50679672  0.010760072            0   0.49603665    1.5300599    2.0368566    3.2591202 
11465000   0.93405919 1.0388499e-05   0.62971748  0.018324881            0    0.6113926    1.3835752    2.0132927    2.5451838 
11470000    1.0666259 -2.8173558e-05   0.45581441 0.0052345831            0   0.45057983    1.5799397    2.0357541    0.5932679 
11475000   0.97130545 -9.5312364e-05   0.60683477  0.010093792            0   0.59674098    1.4387462     2.045581   -2.8344121 
11480000   0.99293929 2.5507129e-05   0.60323822  0.026459122            0    0.5767791    1.4707913    2.0740295    3.3799945 
11485000    1.0930937 7.6967354e-05   0.47302101  0.039307367            0   0.43371364    1.6191451    2.0921661    6.0328946 
11490000     1.016032 -1.5816496e-05   0.60353569  0.032517971            0   0.57101772    1.5049974    2.1085331    1.2987286 
11495000    0.9457256 -7.8010565e-06   0.67925535  0.016740868            0   0.66251448     1.400856    2.0801114    1.6806973 
11500000    1.0704198 1.3243259e-05   0.52546297  0.012641445            0   0.51282152    1.5855594    2.1110224    2.7890772 
11505000    1.1250847 -1.0074201e-05   0.45682778  0.006947799            0   0.44987998    1.6665316    2.1233594    1.6075603 
11510000    1.0909092 2.106734e-05   0.49657109 0.0096543212            0   0.48691677    1.6159092    2.1124803    3.1911281 
11515000    1.0323613 0.0001029721   0.58968582  0.030689805            0   0.55899601    1.5291852     2.118871    7.3910424 
11520000    1.0027654 3.6413629e-05   0.64392029  0.035477394            0    0.6084429    1.4853463    2.1292666    3.9936444 
11525000    1.0032088 -6.0583503e-05   0.65305706  0.029837247            0   0.62321981    1.4860031    2.1390601  -0.96281524 
11530000    1.0708286 8.0567725e-06   0.51693011  0.031710543            0   0.48521957    1.5861648     2.103095    2.5156017 
11535000   0.97875953 -8.5959338e-05    0.6383687  0.012279629            0   0.62608907    1.4497875    2.0881563   -2.3129619 
11540000    1.0506729 -8.6860122e-05   0.52994798  0.005822596            0   0.52412539    1.5563093    2.0862573    -2.360981 
11545000    1.0891778 2.2712851e-05    0.4807895  0.017584591            0   0.46320491    1.6133447    2.0941342    3.2570322 
11550000    1.0308104 3.3233769e-05   0.60385711  0.021429534            0   0.58242758    1.5268878    2.1307449    3.8323139 
11555000   0.96322718 4.7011371e-05   0.68143785  0.056666951            0    0.6247709    1.4267803    2.1082181    4.5152003 
11560000    1.0802067 7.0194402e-05   0.53703912    0.0282237            0   0.50881542    1.6000562    2.1370953    5.7310487 
11565000    1.1311849  1.14225e-05   0.45091571  0.018268998            0   0.43264671    1.6755676    2.1264833    2.7113153 
11570000   0.97585806 -4.0127311e-05   0.69190723    0.0173909            0   0.67451633    1.4454898     2.137397  0.082878687 
11575000    1.0667747 -8.049532e-05   0.52876667 0.0026841735            0   0.52608249      1.58016    2.1089267   -2.0124337 
11580000     1.060408 -4.4709436e-06   0.55608076   0.05144127            0   0.50463949    1.5707294    2.1268102    1.8978979 
11585000    1.0609904 7.7592962e-05   0.55892476  0.069696961            0    0.4892278     1.571592    2.1305168    6.1032764 
11590000    1.0539365 7.4180833e-05   0.57806346  0.028443746            0   0.54961971    1.5611435    2.1392069    5.9372656 
11595000    1.0608457 3.6047465e-05   0.57320855  0.013715064            0   0.55949348    1.5713777    2.1445863    3.9902165 
11600000    1.1455155 -1.2682707e-05   0.46620064 0.0013412642            0   0.46485937    1.6967949    2.1629955    1.5136409 
11605000    1.0709598 -3.4484253e-05   0.55521124 0.0059122608            0   0.54929898    1.5863592    2.1415704   0.37597666 
11610000     1.089486 -2.352284e-05   0.53242445 0.0052158161            0   0.52720863    1.6138011    2.1462255   0.94185615 
11615000    1.0835928 5.8766102e-05    0.5827923   0.01364919            0   0.56914311    1.6050718    2.1878641    5.1966885 
11620000    1.0732762 3.9177272e-05   0.59478988  0.043432558            0   0.55135732    1.5897904    2.1845803    4.1904566 
11625000    1.0023101 5.8594183e-05   0.65142078  0.068705095            0   0.58271568    1.4846719    2.1360926    5.1361148 
11630000      1.04453 0.00010351274   0.60234053  0.060998723            0   0.54134181      1.54721    2.1495505     7.449403 
11635000    1.1697435 2.3598747e-05   0.44203858  0.012864036            0   0.42917455    1.7326826    2.1747212     3.382977 
11640000    1.1301703 5.8712118e-05   0.52682099 0.0037426216            0   0.52307837    1.6740647    2.2008857    5.2069462 
11645000    1.0859751 0.00016829759   0.55399277  0.025126527            0   0.52886624    1.6086007    2.1625934     10.77943 
11650000   0.96638038 8.7500038e-05   0.70732008   0.11514608            0     0.592174    1.4314509     2.138771     6.618773 
11655000    1.1056073 5.080192e-05   0.48911101  0.009547189            0   0.47956382    1.6376808    2.1267918    4.7278501 
11660000    1.1315886 0.00015154118   0.46987883 0.0063766158            0   0.46350221    1.6761656    2.1460444    9.9049528 
11665000    1.0480005 1.3582604e-05   0.57554016 0.0082259138            0   0.56731425    1.5523507    2.1278909    2.8233202 
11670000    1.0808817 3.9083889e-05   0.51636206  0.024269389            0   0.49209267     1.601056     2.117418    4.1185131 
11675000    1.0996515 0.00012063373   0.47219705  0.017264941            0   0.45493211    1.6288588    2.1010559    8.2775031 
11680000    1.1272793 6.0102339e-05   0.44206701  0.019476543            0   0.42259046    1.6697824    2.1118495    5.1890892 
11685000    1.0636218 -0.00013798091   0.53732503  0.033292368            0   0.50403266    1.5754898    2.1128148   -4.9518078 
11690000    1.1674418 -1.2060048e-05   0.40874391 0.0072643847            0   0.40147953    1.7292732    2.1380171    1.5205427 
11695000    1.0930763 0.00014390769   0.49751124 0.00073693491            0    0.4967743    1.6191192    2.1166304    9.4847042 
11700000    1.0539275 -6.0626849e-05   0.56068551            0            0   0.56068551    1.5611301    2.1218156  -0.98227902 
11705000    1.1265799 -8.0067606e-05   0.51762452            0            0   0.51762452    1.6687466    2.1863711   -1.9130903 
11710000      1.17925 5.0751535e-05   0.45518393 0.0014500852            0   0.45373385     1.746764     2.201948    4.8004265 
11715000    1.1652006 4.969012e-05   0.46563578  0.026286591            0   0.43934919    1.7259533    2.1915891    4.7357232 
11720000    1.1266003 -1.7714231e-05   0.50492192  0.079018127            0   0.42590379    1.6687767    2.1736986      1.26673 
11725000    1.1624893 2.2976767e-05   0.43676081  0.052937247            0   0.38382356    1.7219373    2.1586981    3.3351086 
11730000    1.0550043 -1.7083336e-05   0.59819332  0.041686412            0   0.55650691    1.5627251    2.1609184    1.2862516 
11735000    1.1842049 -4.6665832e-05   0.43927259  0.020582367            0   0.41869022    1.7541035    2.1933761  -0.19591452 
11740000    1.1902529 -2.3136888e-05   0.43903141 0.0051258817            0   0.43390553    1.7630621    2.2020935    1.0174849 
11745000    1.1101325 -6.4902632e-05   0.55589091 0.00048221302            0    0.5554087    1.6443838    2.2002747     -1.12274 
11750000    1.1677619 5.338546e-05    0.4825111 0.0077783104            0   0.47473279    1.7297473    2.2122584     4.945594 
11755000    1.1005746 7.6814394e-05   0.58699572  0.013999965            0   0.57299575    1.6302261    2.2172218    6.1501188 
11760000    1.1474775 1.9189481e-05   0.50874004  0.025628131            0   0.48311191    1.6997011    2.2084411    3.1909425 
11765000    1.1745473 0.00012682544   0.46563135  0.034859113            0   0.43077223    1.7397982    2.2054295    8.6988919 
11770000     1.106554 -6.8637618e-05   0.54377454  0.028679287            0   0.51509525    1.6390831    2.1828576   -1.3313884 
11775000    1.0767451 -0.00015244653   0.57333522  0.013303581            0   0.56003164    1.5949287    2.1682639   -5.6369982 
11780000     1.074082 0.00011933228   0.55192841  0.057017738            0   0.49491067    1.5909839    2.1429123    8.2527252 
11785000    1.0737622 0.00013065561   0.57262807  0.030944556            0   0.54168351    1.5905102    2.1631383    8.8527056 
11790000    1.1339276 5.475909e-05   0.49190261  0.025751302            0   0.46615131    1.6796303    2.1715329    4.9751983 
11795000    1.0782752 -7.8039328e-05   0.52972564 0.0098032334            0    0.5199224    1.5971951    2.1269208   -1.8686928 
11800000    1.0568238 -6.4499613e-05   0.54126863  0.018156031            0   0.52311259    1.5654203    2.1066889   -1.1956912 
11805000    1.1073651 -4.7776629e-05   0.51711286  0.025013086            0   0.49209978    1.6402846    2.1573974  -0.28876594 
11810000    1.1384743 -2.7836253e-05   0.47239954 0.0044285096            0   0.46797103     1.686365    2.1587646   0.73354839 
11815000    1.1575048 -1.5385071e-05   0.45928518 0.0099495178            0   0.44933566     1.714554    2.1738391    1.3861235 
11820000    1.0700848 7.1022035e-06   0.59486032  0.018428774            0   0.57643154    1.5850631    2.1799234    2.5435562 
11825000    1.1099276 2.505472e-05   0.52540905   0.01473452            0   0.51067453    1.6440802    2.1694893     3.452291 
11830000      1.12343 -6.8660415e-05   0.49765581  0.050332712            0    0.4473231    1.6640807    2.1617365   -1.3536768 
11835000    1.0492746 3.3055128e-05   0.60496826  0.034754896            0   0.57021336     1.554238    2.1592063    3.8516289 
11840000    1.1025771 1.341974e-05   0.52824675  0.015315451            0    0.5129313    1.6331923     2.161439    2.8485297 
11845000    1.1193517 -0.00019522425   0.51943851 0.0062349704            0   0.51320354    1.6580398    2.1774783   -7.8180035 
11850000    1.0448031 -0.0001217235   0.62776229  0.006830172            0   0.62093212    1.5476146    2.1753769   -4.0568663 
11855000    1.0660508 -1.8733025e-05   0.57790343 0.0060669789            0   0.57183645    1.5790877    2.1569911    1.1978603 
11860000    1.0248323 -0.00015198814   0.66521587  0.039953949            0   0.62526192    1.5180328    2.1832487    -5.598544 
11865000    1.0643069 -8.2012134e-05   0.62962522  0.096365298            0   0.53325992    1.5765046    2.2061298   -1.9928914 
11870000    1.1366951 0.00010268547   0.51577745  0.075398128            0   0.44037932    1.6837296     2.199507    7.4570033 
11875000    1.1379084 8.3706911e-06   0.49865628    0.0352002            0   0.46345608    1.6855268    2.1841831    2.6127625 
11880000    1.0532523 -0.00011622094   0.59802323  0.030193435            0    0.5678298      1.56013    2.1581532   -3.7923587 
11885000    1.0908931 -0.00016220711    0.5371951  0.010928229            0   0.52626687    1.6158854    2.1530805   -6.1519236 
11890000    1.0870929 -0.00011825755   0.52011615  0.029892174            0   0.49022398    1.6102564    2.1303725   -3.9244142 
11895000     1.111913 0.00013710365   0.49170987  0.050801452            0   0.44090842    1.6470212     2.138731    9.1584381 
11900000    1.0623712 0.00022240769   0.54872811 0.0016346538            0   0.54709346    1.5736373    2.1223654    13.509639 
11905000    1.0717119 6.2547272e-05   0.51087511 1.9229949e-05            0   0.51085588    1.5874732    2.0983483    5.3007686 
11910000    1.1581123 -4.2756055e-05   0.40186237 0.0073545295            0   0.39450784    1.7154539    2.1173162 -0.071793786 
11915000    1.0693081 -5.9358856e-05   0.54596914  0.025038665            0   0.52093048    1.5839126    2.1298818  -0.90929168 
11920000    1.0846148 -4.313634e-05   0.47503602  0.010537493            0   0.46449853    1.6065857    2.0816217  -0.12695889 
11925000    1.0815228 -3.5343804e-05    0.4836467  0.013547917            0   0.47009879    1.6020056    2.0856523   0.27604956 
11930000    1.0213217 8.1391446e-05   0.55353478  0.052014997            0   0.50151978    1.5128328    2.0663676    6.2336096 
11935000    1.0095649 3.1596661e-05   0.55905202  0.058855538            0   0.50019648     1.495418      2.05447    3.6722191 
11940000    1.0011385 -6.5265059e-05   0.58165117  0.054421725            0   0.52722944    1.4829364    2.0645875   -1.2769835 
11945000   0.99317379 -6.7859717e-05   0.61443699  0.071147721            0   0.54328927    1.4711387    2.0855757   -1.3888419 
11950000    1.0740013 -3.5162732e-05   0.50544935  0.011290379            0   0.49415897    1.5908644    2.0963138   0.29598193 
11955000    1.0878106 6.763784e-05   0.48542912  0.017515275            0   0.46791384    1.6113194    2.0967485     5.559806 
11960000   0.92980077 -6.0238669e-06    0.7375279  0.050378844            0   0.68714906    1.3772674    2.1147953    1.8063733 
11965000    1.0590821 -4.1387709e-05   0.54870046  0.015579872            0   0.53312059    1.5687654    2.1174658 -0.0015848885 
11970000    1.1236509 -2.044757e-05   0.45136128   0.01328392            0   0.43807736    1.6644079    2.1157692    1.0688536 
11975000   0.99473299 -8.6546515e-05   0.63184588  0.034690962            0   0.59715491    1.4734482    2.1052941   -2.3258875 
11980000    1.0464825 -0.00013935428   0.55244829  0.022205803            0   0.53024249    1.5501023    2.1025505   -5.0323887 
11985000    1.0832937 -9.4772968e-05   0.48953812  0.027754054            0   0.46178406    1.6046288    2.0941669   -2.7582091 
11990000    1.0066367 8.5574744e-05   0.58619056    0.0341124            0   0.55207816    1.4910806    2.0772712    6.4586981 
11995000    1.0009555 0.0001067036   0.60391308  0.050371051            0   0.55354202    1.4826653    2.0865784    7.5498028 
12000000    1.0194465 -0.0001325813   0.56706292  0.019200114            0    0.5478628    1.5100551     2.077118   -4.7110444 
12005000    1.0988874 -0.00017573299   0.47077573 0.0091390743            0   0.46163666     1.627727    2.0985027   -6.8990263 
12010000    1.0783314 9.0202565e-05   0.50001055   0.03667975            0    0.4633308    1.5972783    2.0972889    6.7156602 
12015000    1.0643703 0.00019451695   0.52008977  0.035105736            0   0.48498403    1.5765985    2.0966883    12.055956 
12020000    1.0037886 5.1370276e-05   0.59247725  0.083460138            0   0.50901711    1.4868619    2.0793391    4.7094972 
12025000    0.9774673 -7.9303018e-05   0.62856276    0.0504498            0   0.57811296    1.4478734    2.0764362   -1.9838783 
12030000    1.0600596 -3.098339e-05   0.49687707  0.071974445            0   0.42490262    1.5702133    2.0670904   0.48074076 
12035000    1.0239797 1.9226496e-05   0.58512513  0.061475684            0   0.52364945    1.5167699     2.101895    3.0862916 
12040000    1.1043985 4.1717234e-05   0.50642967   0.01511663            0   0.49131304    1.6358903      2.14232    4.2782424 
12045000    1.0352609 8.321794e-05   0.63086278 0.0062018452            0   0.62466094    1.5334801    2.1643429    6.4251014 
12050000    1.0606709 0.0001072019   0.59323846   0.03437484            0   0.55886362    1.5711188    2.1643573    7.6530947 
12055000    1.1261386 4.147906e-05    0.4800343  0.028102259            0   0.45193204    1.6680928    2.1481271     4.271855 
12060000    1.1667754 -8.6678543e-05   0.46339991  0.017736631            0   0.44566328    1.7282861     2.191686   -2.2462554 
12065000    1.1360129 -0.00012224151   0.53416276  0.024659973            0   0.50950279    1.6827191    2.2168818   -4.0418836 
12070000    1.1169742 6.216513e-05   0.59011508 0.0071404806            0    0.5829746     1.654518    2.2446331    5.4274877 
12075000    1.1927435 0.00011954533   0.48215635  0.017431216            0   0.46472513    1.7667513    2.2489076    8.3696287 
12080000    1.1434033 -3.1876142e-05   0.55718302  0.035888399            0   0.52129462    1.6936661    2.2508491   0.61879066 
12085000    1.1522377 -0.00015828451   0.54400267  0.054105586            0   0.48989709    1.7067521    2.2507548   -5.8534122 
12090000    1.1553648 -6.6967513e-05   0.53631663  0.037905009            0   0.49841162     1.711384    2.2477007    -1.181036 
12095000    1.1795525 0.00012552035    0.4922964  0.012734478            0   0.47956192    1.7472121    2.2395085    8.6661504 
12100000     1.160795 5.1378281e-05   0.54107596  0.010762754            0   0.53031321    1.7194276    2.2605036    4.8910715 
12105000    1.2010116 -4.8291974e-05   0.47406578  0.021564836            0   0.45250094    1.7789984    2.2530642  -0.21948494 
12110000    1.0888185 -7.6438649e-05   0.59677116  0.027987629            0   0.56878353    1.6128124    2.2095836   -1.7040752 
12115000    1.1257406 1.9667112e-05   0.51511465  0.050731135            0   0.46438352    1.6675033    2.1826179    3.1895741 
12120000     1.161513 5.0663009e-05   0.45232627  0.042145728            0   0.41018054    1.7204911    2.1728174    4.7667634 
12125000    1.1027873 -4.8793079e-05   0.54111144  0.051922056            0   0.48918939    1.6335037    2.1746151  -0.32359056 
12130000   0.98344117 3.9826235e-05   0.75190355  0.030449645            0    0.7214539    1.4567222    2.2086258     4.247729 
12135000     1.113082 1.4583286e-06   0.56970326 0.0049147339            0   0.56478853    1.6487528     2.218456    2.2931224 
12140000    1.1248729 -1.0769616e-05   0.51796193 0.0033732749            0   0.51458866    1.6662179    2.1841799    1.6327755 
12145000    1.1430037 -3.3863256e-05   0.48673993  0.015248813            0   0.47149111    1.6930743    2.1798142   0.44601547 
12150000    1.1616462 -4.0970778e-05   0.46003976 0.0067559577            0    0.4532838    1.7206884    2.1807281    0.0830243 
12155000    1.1193603 7.7856254e-05    0.5385743 0.0027612523            0   0.53581304    1.6580524    2.1966267    6.1828669 
12160000    1.0814293 6.8829787e-05   0.62578265  0.015847625            0   0.60993503    1.6018671    2.2276498    5.7517349 
12165000    1.1136032 5.6277513e-05   0.59882658  0.031233045            0   0.56759353    1.6495248    2.2483514      5.12976 
12170000    1.2034399 -4.248021e-06   0.47799357  0.021702547            0   0.45629103    1.7825954     2.260589    2.0430903 
12175000    1.1603559 -7.1065658e-05   0.53761885 0.0082047706            0   0.52941408    1.7187772    2.2563961   -1.3821656 
12180000    1.1646007 2.8528863e-05   0.51244482  0.009462422            0    0.5029824    1.7250647    2.2375095    3.6981873 
12185000    1.1586985 2.933029e-05   0.53166677 0.0093414117            0   0.52232536    1.7163222     2.247989    3.7496998 
12190000    1.1840396 6.2643137e-05   0.49221062  0.013053844            0   0.47915678    1.7538587    2.2460693    5.4533979 
12195000    1.0745697 0.0001114924    0.6407395  0.014898709            0   0.62584079    1.5917064    2.2324459    7.9408566 
12200000    1.1242099 1.2917147e-05   0.56904333  0.011610742            0   0.55743258    1.6652359    2.2342793    2.8956372 
12205000    1.1866833 -3.0002167e-05    0.4631598  0.012430212            0   0.45072958    1.7577746    2.2209344   0.68482344 
12210000    1.0809931 6.8520971e-05   0.58955789    0.0169127            0   0.57264519     1.601221    2.1907789    5.6990526 
12215000    1.1236882 9.854375e-05   0.48438054  0.013202253            0   0.47117829    1.6644632    2.1488438    7.1942838 
12220000    1.1012796 1.3063705e-05   0.53297041  0.012988965            0   0.51998145    1.6312705    2.1642409    2.8331026 
12225000    1.0325482 5.4043328e-05   0.61379407  0.020696122            0   0.59309795     1.529462     2.143256    4.9102744 
12230000    1.0506753 3.8897853e-05   0.58232186  0.022183639            0   0.56013823    1.5563128    2.1386346    4.1302047 
12235000    1.1609913 5.439261e-06     0.402713 0.0010379564            0   0.40167504    1.7197184    2.1224314    2.4009215 
12240000    1.0908867 4.5320768e-05   0.52336172 0.0039651332            0   0.51939659    1.6158759    2.1392376    4.4596609 
12245000    1.0388795 -1.9573116e-05   0.59944958 0.0062061121            0   0.59324346    1.5388402    2.1382898    1.1361463 
12250000    1.0463125 -6.8325609e-05   0.62808975  0.016365355            0   0.61172439    1.5498504    2.1779401    -1.320331 
12255000    1.1611512 -9.5790253e-06   0.45893373  0.035950263            0   0.42298346    1.7199552     2.178889    1.6884429 
12260000    1.0908202 6.3467295e-05   0.56152275  0.020241645            0   0.54128111    1.6157774    2.1773002    5.4268257 
12265000     1.085554 6.7625884e-05   0.56361688  0.044033888            0   0.51958299    1.6079768    2.1715937    5.6340389 
12270000    1.0891888 -1.1706596e-05   0.60553949  0.072949478            0   0.53259001    1.6133608    2.2189003    1.6195226 
12275000    1.0348211 5.7119755e-05   0.66382917  0.026294134            0   0.63753504    1.5328288    2.1966579    5.1211894 
12280000    1.0705511 0.00011723638   0.58389837  0.056502652            0   0.52739571    1.5857538    2.1696522     8.172155 
12285000    1.0918013 -6.3005151e-05   0.55423565  0.018077044            0   0.53615861    1.6172307    2.1714664   -1.0543974 
12290000    1.0544147 -0.00013247649   0.57922847  0.008216502            0   0.57101197    1.5618517    2.1410802   -4.6417162 
12295000    1.0970103 -2.0174262e-05   0.51752831  0.015721767            0   0.50180654    1.6249466    2.1424749    1.1095527 
12300000    1.1117552 4.3202456e-05    0.5011505  0.011111175            0   0.49003932    1.6467873    2.1479378    4.3599036 
12305000    1.0516312 5.037218e-05   0.58241655 0.0058214253            0   0.57659512    1.5577287    2.1401452    4.7192009 
12310000    1.0408093 7.7852205e-05   0.57861561  0.031568392            0   0.54704722    1.5416987    2.1203143    6.1063472 
12315000    1.1092347 4.9720808e-05   0.48146327  0.075221148            0   0.40624212    1.6430539    2.1245172    4.6702225 
12320000    1.0764012 -8.8612166e-06    0.5485886  0.029128332            0   0.51946027    1.5944193    2.1430079    1.6893136 
12325000    1.1215399 1.5279107e-05   0.49114738  0.016491473            0   0.47465591    1.6612809    2.1524283    2.9347186 
12330000     1.041674 7.8789138e-05   0.57925124 0.0083632798            0   0.57088796    1.5429797    2.1222309    6.1562348 
12335000    1.0778421 9.8777228e-05   0.53272419 0.0016261667            0   0.53109803    1.5965537    2.1292778    7.1866719 
12340000    1.0688462 2.729339e-05    0.5644018  0.015495664            0   0.54890613    1.5832285    2.1476303    3.5450519 
12345000    1.0498677 -6.4053591e-05   0.61685932  0.024334643            0   0.59252468    1.5551165    2.1719758   -1.1075681 
12350000    1.1121484 2.9460952e-05   0.52540555  0.024612504            0   0.50079305    1.6473698    2.1727753    3.6811761 
12355000    1.0635023 0.00012078167    0.5782584  0.043939084            0   0.53431931    1.5753128    2.1535712     8.337593 
12360000    1.1049577 8.9368346e-05   0.49545707  0.014226905            0   0.48123016    1.6367186    2.1321757     6.707835 
12365000    1.0355608 4.508507e-05   0.55589853 0.0094675299            0     0.546431    1.5339245     2.089823    4.3981786 
12370000   0.99768071 7.2827157e-05   0.61614963  0.023964031            0    0.5921856    1.4778146    2.0939642    5.8227146 
12375000   0.95202833 0.00020858998   0.67618125  0.056137394            0   0.62004385     1.410192    2.0863732     12.76618 
12380000    1.0160437 7.5867528e-05   0.57393832  0.064880774            0   0.50905755    1.5050147     2.078953    5.9633705 
12385000    1.0955992 -0.00010278522   0.48137571  0.014313777            0   0.46706193    1.6228563     2.104232   -3.1583711 
12390000    1.0583521 2.7182513e-05   0.52503605 0.0051650965            0   0.51987095    1.5676841    2.0927202    3.4844648 
12395000    1.0291295 3.4796514e-05   0.59877825 0.00087807406            0   0.59790018    1.5243981    2.1231764    3.9047579 
12400000   0.98783946 9.2083397e-05   0.69030736 0.0026216901            0   0.68768567    1.4632372    2.1535446    6.8682145 
12405000    1.1556673 0.00015358106   0.46370789  0.014438126            0   0.44926977    1.7118321      2.17554    10.038891 
12410000    1.0926574 -8.406352e-07   0.55430359   0.01514841            0   0.53915518    1.6184988    2.1728023    2.1297618 
12415000    1.0304895 -0.00010687716   0.68159235  0.019507138            0   0.66208521    1.5264125    2.2080049   -3.2641057 
12420000    1.1029649 -1.7605702e-05   0.57472476  0.059894424            0   0.51483034    1.6337668    2.2084915    1.3070796 
12425000     1.127462 9.0932262e-05   0.54339566  0.009903366            0    0.5334923    1.6700531    2.2134488    6.8691806 
12430000    1.1531248 3.9434408e-05   0.47885317 0.0070696455            0   0.47178353    1.7080662    2.1869194     4.205961 
12435000    1.0768146 -1.0633481e-05   0.57940923  0.033529848            0   0.54587939    1.5950316    2.1744408    1.6300066 
12440000    1.0748398 -4.4830039e-05   0.56031339   0.03266873            0   0.52764466    1.5921065    2.1524199  -0.14287813 
12445000    1.0313796 -9.5544456e-05   0.59735874  0.017070619            0   0.58028812     1.527731    2.1250897   -2.7667864 
12450000    1.0854176 2.1177703e-05   0.50405376  0.024649411            0   0.47940435    1.6077748    2.1118285    3.1961269 
12455000    1.0521882 0.00011527732   0.55588686  0.027709392            0   0.52817747    1.5585538    2.1144407    8.0166396 
12460000     1.080962 2.2536908e-05   0.52986774 0.0087293277            0   0.52113841    1.6011749    2.1310427    3.2849323 
12465000    1.0397559 8.837904e-05   0.53102574  0.016451303            0   0.51457443    1.5401384    2.0711641     6.596171 
12470000   0.99726618 5.190077e-05   0.57907528  0.010933401            0   0.56814188    1.4772005    2.0562758    4.7135952 
12475000   0.92492474 -0.00010368942   0.67875046 0.00093686507            0    0.6778136    1.3700448    2.0487952   -3.2601029 
12480000    1.0630871 -7.411825e-05   0.49122843 0.0060135737            0   0.48521486    1.5746978    2.0659262   -1.7289282 
12485000    1.0547955 1.4515008e-05   0.51468399  0.033141921            0   0.48154207    1.5624159    2.0770999    2.8202683 
12490000    1.0346605 3.4084861e-06   0.51344686 0.0039551167            0   0.50949174    1.5325909    2.0460377    2.2205522 
12495000    1.0915559 -2.5858849e-05     0.444145 0.0017428033            0    0.4424022    1.6168672    2.0610122   0.73703913 
12500000    1.0141313 -1.8843746e-05   0.53493369 0.0035322322            0   0.53140146     1.502182    2.0371157    1.0723159 
12505000   0.99121575 -5.96038e-05   0.54915533 0.0031629337            0   0.54599239    1.4682383    2.0173937   -1.0343209 
12510000   0.99478128 -3.3909283e-05   0.53480244 0.0055193289            0   0.52928311    1.4735198    2.0083222   0.27216694 
12515000    1.0146093 -3.9351409e-05   0.51679617  0.011344741            0   0.50545143    1.5028901    2.0196863 0.0048941429 
12520000    1.0217207 -7.2704978e-05   0.50664167  0.013534676            0   0.49310699    1.5134238    2.0200655   -1.7024294 
12525000    1.0226739 2.9204209e-06   0.51069734  0.028936351            0   0.48176099    1.5148357     2.025533    2.1750586 
12530000   0.99775963 4.3432226e-05   0.53997266  0.022567098            0   0.51740556    1.4779314    2.0179041    4.2416341 
12535000    1.0712572 -6.8177167e-05   0.44067777 0.0043547628            0   0.43632301    1.5867998    2.0274775   -1.4631934 
12540000    1.0999622 2.8027347e-06   0.42677841 0.0086139759            0   0.41816444     1.629319    2.0560974    2.1995974 
12545000   0.97354422 6.2561923e-05   0.63197733   0.01490417            0   0.61707316    1.4420624    2.0740397    5.2772102 
12550000    1.0350414 4.1918228e-05    0.5700446  0.039117157            0   0.53092744     1.533155    2.1031996    4.2494129 
12555000    0.9801334 8.2469406e-05    0.6567402  0.054255174            0   0.60248502    1.4518226    2.1085628    6.3309964 
12560000    1.1058899 3.1719045e-05   0.45368303  0.038904159            0   0.41477887    1.6380994    2.0917825    3.7157976 
12565000    1.0799066 2.6721572e-06   0.47817107   0.04591787            0    0.4322532    1.5996117    2.0777828    2.2145972 
12570000     1.067606 8.2392479e-07   0.50019737  0.020154131            0   0.48004324    1.5813914    2.0815887    2.1237737 
12575000    1.0857224 -9.6793714e-05   0.48413356 0.0039149002            0   0.48021866    1.6082263    2.0923598   -2.8634783 
12580000    1.0792852 2.3722212e-05   0.50165069 0.0097704952            0   0.49188019    1.5986913     2.100342    3.3149192 
12585000    1.0177141 1.3143071e-05   0.57072271  0.020035441            0   0.55068727     1.507489    2.0782117    2.7511369 
12590000    0.9804601 -0.00016378511   0.61864254  0.051181851            0   0.56746069    1.4523065    2.0709491   -6.3148486 
12595000    0.9821051 -0.00012737053   0.60886689  0.052326065            0   0.55654082    1.4547432    2.0636101   -4.4577611 
12600000    1.0312898 1.0952403e-05   0.53256858  0.028625948            0   0.50394263     1.527598    2.0601666    2.6209296 
12605000    1.0673499 2.9233748e-06     0.478324  0.041920055            0   0.43640395     1.581012     2.059336    2.2090128 
12610000    1.0351091 -8.0615243e-06   0.51433971 0.0043654472            0   0.50997426    1.5332554    2.0475951     1.634845 
12615000    1.0913988 0.00015519379   0.43291476  0.008764815            0   0.42414995    1.6166344    2.0495492    9.9954711 
12620000    1.0686079 2.9940015e-05   0.48670543  0.017792579            0   0.46891285    1.5828755    2.0695809    3.6025097 
12625000    1.0998714 -5.0646001e-05   0.42906248 0.0091646607            0   0.41989782    1.6291845     2.058247  -0.53482827 
12630000    1.0535487 0.00010362026   0.47174675   0.01504036            0   0.45670639    1.5605691    2.0323158     7.337673 
12635000    1.0518582 4.8548961e-05   0.47718671  0.017987376            0   0.45919934     1.558065    2.0352517    4.5209585 
12640000    1.0435452 2.8776876e-05   0.48873523   0.04991355            0   0.43882167    1.5457514    2.0344866    3.5078627 
12645000   0.98002702 -1.4253977e-05   0.58412612  0.063394016            0   0.52073211     1.451665    2.0357911    1.3059875 
12650000     1.012703 -0.00012165065   0.51661618  0.010667491            0   0.50594869    1.5000663    2.0166825   -4.2118307 
12655000    1.1074234 9.2646484e-06   0.32981653 0.0019833488            0   0.32783318    1.6403709    1.9701875    2.4445375 
12660000    0.9995017 7.9123095e-05   0.51033521  0.013319071            0   0.49701614    1.4805119    1.9908471    6.0419496 
12665000   0.99581372 -5.979996e-05   0.48365046  0.032859433            0   0.45079103    1.4750491    1.9586995   -1.1030584 
12670000    1.0041138 -0.00015792153    0.4758012 0.0089584678            0   0.46684273    1.4873435    1.9631447   -6.1224378 
12675000    1.0019005 0.0001001946    0.4644458  0.033139895            0    0.4313059    1.4840651    1.9485109    7.0784743 
12680000   0.98106784 -4.5942369e-06   0.50992837  0.027798798            0   0.48212957    1.4532067    1.9631351    1.7279102 
12685000   0.96518671 0.00010124121   0.54578633 0.0024558738            0   0.54333045    1.4296828    1.9754691     7.159019 
12690000   0.92723392 -7.4299327e-05   0.59494194  0.061846388            0   0.53309555    1.3734652    1.9684072   -1.8357183 
12695000    0.9946182 7.0728848e-05   0.51741418  0.020279648            0   0.49713453    1.4732782    1.9906924    5.6120094 
12700000    1.0578539 -0.00012723152    0.4224267 0.0020291653            0   0.42039754     1.566946    1.9893727   -4.5248812 
12705000   0.95457659 -0.00012387641   0.57098771 0.0028163882            0   0.56817132    1.4139666    1.9849543    -4.357518 
12710000   0.96610625 -0.00012473907   0.59220631   0.01387407            0   0.57833224    1.4310449    2.0232512   -4.3633893 
12715000    1.0752816 -8.0321153e-05   0.43156968 0.0084641192            0   0.42310556    1.5927609    2.0243306   -2.0881125 
12720000    1.0105534 3.6724611e-05   0.53429235 0.0038703474            0     0.530422    1.4968822    2.0311745    3.9114746 
12725000   0.97781488 -3.9600371e-05   0.57746053  0.012450479            0   0.56501005    1.4483883    2.0258488 -0.0016901877 
12730000    1.0291998 0.00011119728   0.52853212  0.043823706            0   0.48470841    1.5245023    2.0530344    7.7463351 
12735000    1.0319593 7.3970268e-05   0.53438043  0.055501351            0   0.47887908    1.5285898    2.0629702    5.8502479 
12740000   0.97748086 -3.3117944e-05   0.58588979  0.083377143            0   0.50251264    1.4478935    2.0337833   0.33814457 
12745000    1.0230879 -5.4096283e-06   0.51527486  0.020432488            0   0.49484237    1.5154489    2.0307238    1.7537508 
12750000    1.0335058 -1.756076e-05   0.49230213 0.0031087437            0   0.48919339    1.5308804    2.0231825    1.1240716 
12755000   0.93722316 0.00011622918   0.59211201 0.0075548057            0   0.58455721    1.3882618    1.9803738     7.931308 
12760000     1.063977 4.1233347e-05   0.42485557  0.037619915            0   0.38723565     1.576016    2.0008715    4.1120189 
12765000     1.024925 -2.3188321e-05   0.49462295  0.093069207            0   0.40155374    1.5181702    2.0127932    0.8255511 
12770000    1.0628697 1.8033544e-05   0.44199914   0.01931223            0   0.42268691    1.5743758    2.0163749    2.9396923 
12775000    1.0476226 5.0670124e-05    0.4954874  0.010452549            0   0.48503485    1.5517909    2.0472783    4.6415886 
12780000    1.0844396 8.0868125e-05   0.42791169  0.016477519            0   0.41143417    1.6063261    2.0342378    6.1746858 
12785000    1.0767228 -1.7050714e-05    0.4561384  0.016005548            0   0.44013285    1.5948956     2.051034    1.1780375 
12790000    1.0392425 -8.109556e-05   0.50492475  0.036882239            0   0.46804251    1.5393779    2.0443026     -2.10779 
12795000    1.1030994 -6.5308395e-05   0.42746937  0.044962195            0   0.38250718     1.633966    2.0614353   -1.2823545 
12800000    1.0671955 -4.535715e-05   0.48347446  0.015659549            0   0.46781491    1.5807833    2.0642578  -0.25802835 
12805000    1.0678671 -4.5863169e-05   0.48426567 0.0034342255            0   0.48083144    1.5817782    2.0660438  -0.28215044 
12810000     1.063191 -6.9775491e-06   0.48887775  0.027663795            0   0.46121395    1.5748517    2.0637294    1.7064789 
12815000    1.0794794 -8.506482e-05   0.46890933 0.0099315844            0   0.45897774    1.5989789    2.0678883   -2.2874305 
12820000    1.0787547 1.8103607e-05   0.47439393  0.004332473            0   0.47006146    1.5979054    2.0722993     2.999204 
12825000    1.0907697 3.5957595e-05   0.44796999  0.012288704            0   0.43568129    1.6157027    2.0636727    3.9047015 
12830000    1.1237156 -2.0697234e-05   0.40629474  0.029965721            0   0.37632902    1.6645037    2.0707984       1.0111 
12835000    1.0388186 3.383707e-05   0.54264274  0.038712449            0   0.50393029      1.53875    2.0813927    3.8138507 
12840000   0.97890258 6.2935421e-05   0.60570796  0.061325261            0    0.5443827    1.4499995    2.0557074     5.278001 
12845000    1.0026185 -8.5204819e-05   0.54845703   0.10339882            0    0.4450582    1.4851286    2.0335856   -2.3289011 
12850000    1.0694002 -0.00013127224     0.448906  0.049069624            0   0.39983637     1.584049     2.032955   -4.6881834 
12855000    1.0005968 -1.8948446e-05   0.56390273  0.026047352            0   0.53785537    1.4821341    2.0460368    1.0758764 
12860000    1.0228497 -4.7624456e-05   0.55678239  0.019799901            0   0.53698249    1.5150961    2.0718785   -0.3664937 
12865000    1.0554052 -6.364409e-05   0.48668494  0.019040689            0   0.46764425     1.563319    2.0500039   -1.2085735 
12870000    1.0137034 7.4588458e-06    0.5584923  0.041672678            0   0.51681962    1.5015482    2.0600405    2.4419334 
12875000    1.0645024 3.9257775e-05   0.45750404  0.021647196            0   0.43585685    1.5767942    2.0342982    4.0442963 
12880000    1.0291308 -6.1909318e-05   0.49795681  0.048239884            0   0.44971692       1.5244    2.0223568   -1.1474003 
12885000   0.99490574 -7.5115088e-05   0.53866323  0.016605175            0   0.52205806    1.4737041    2.0123674   -1.8335252 
12890000    1.0233354 -4.2292929e-05   0.50731457 0.00062126343            0   0.50669331    1.5158155    2.0231301  -0.14226784 
12895000    1.0646521 -6.2612716e-05   0.40768193 0.00028693679            0   0.40739499     1.577016    1.9846979   -1.2210732 
12900000    1.0192912 -4.2349981e-05   0.47076083 0.0029836595            0   0.46777717    1.5098251    1.9805859  -0.18773307 
12905000    1.0071761 -2.1194915e-05   0.45676396  0.028710241            0   0.42805372    1.4918796    1.9486435   0.86346386 
12910000   0.89091993 0.00013418401   0.63095317  0.082785488            0   0.54816768    1.3196752    1.9506283    8.8208495 
12915000   0.98713074 8.6203276e-05   0.49188705  0.029520505            0   0.46236655    1.4621874    1.9540745    6.3676822 
12920000    1.0370745 -4.9574912e-05    0.4318852 0.0044453474            0   0.42743986    1.5361666    1.9680518  -0.57018372 
12925000   0.96788692 -5.827861e-05    0.5425131  0.034026612            0   0.50848649    1.4336825    1.9761956   -1.0076692 
12930000   0.97082311 -4.785007e-05   0.56192633  0.088045304            0   0.47388103    1.4380317    1.9999581  -0.44996553 
12935000    1.0406128 4.1544399e-05   0.42337338  0.028009199            0   0.39536418    1.5414077    1.9647811    4.0918543 
12940000    1.0479363 -0.00011855171   0.45344255  0.018828105            0   0.43461444    1.5522557    2.0056983   -4.0641493 
12945000    1.0527997 -0.00010897865   0.47789926 9.5719232e-05            0   0.47780354    1.5594595    2.0373588   -3.5423479 
12950000    1.0024736 -0.00010504694   0.52362368 0.0061934855            0   0.51743019     1.484914    2.0085377   -3.3698656 
12955000     1.064711 -8.2168439e-05    0.4269728  0.018092841            0   0.40887996    1.5771032     2.004076   -2.2029481 
12960000    1.0103519 -5.9368331e-05   0.48799894  0.024872631            0   0.46312631    1.4965837    1.9845826   -1.0550759 
12965000    1.0430013 3.4510077e-05   0.45884413  0.020903114            0   0.43794102    1.5449457    2.0037898    3.7707058 
12970000     1.037448 5.3690522e-05   0.47072521 0.0092103453            0   0.46151486    1.5367199    2.0074451    4.7563999 
12975000    0.9902944 -7.1305625e-05   0.53449096 0.0063942036            0   0.52809676    1.4668736    2.0013645   -1.6494835 
12980000    1.0228835 5.2411229e-05   0.48048247  0.024489377            0   0.45599309    1.5151462    1.9956287    4.6790836 
12985000    1.0013106 9.992648e-05   0.52074187  0.015976645            0   0.50476523    1.4831913    2.0039332     7.120169 
12990000    1.0476418 -6.7676497e-05   0.42987919 0.0057059054            0   0.42417328    1.5518194    1.9816986    -1.483338 
12995000   0.98789172 -9.0029927e-05    0.5421993  0.021449262            0   0.52075004    1.4633146    2.0055139   -2.6040184 
13000000    1.0167063 1.8187401e-05   0.49271951   0.03537081            0    0.4573487    1.5059963    1.9987158    2.9299107 
13005000    1.0414251 6.6908054e-05   0.46451579  0.013956576            0   0.45055922     1.542611    2.0071268    5.4328191 
13010000     1.014692 3.3507009e-05   0.45915423 0.0076816933            0   0.45147254    1.5030125    1.9621667    3.6777255 
13015000   0.95644099 -7.1228495e-05   0.55000012  0.037253295            0   0.51274682    1.4167282    1.9667283   -1.6801706 
13020000   0.95281337 6.3177892e-05    0.5581024  0.029939325            0   0.52816307    1.4113548    1.9694572    5.2041652 
13025000    1.0273629 0.00012745933   0.41627915   0.02965716            0   0.38662199    1.5217812    1.9380604    8.4639783 
13030000   0.93591937 -6.1506013e-06   0.55696692  0.025868508            0   0.53109841    1.3863306    1.9432975    1.6283867 
13035000   0.97956167 0.00012998001   0.50046532  0.014876476            0   0.48558884    1.4509757     1.951441    8.6064178 
13040000    1.0078274 8.4371023e-05   0.44338086  0.016002251            0   0.42737861    1.4928444    1.9362253    6.2560217 
13045000    1.0241835 -1.834771e-05   0.43959111  0.047892683            0   0.39169842    1.5170718     1.956663    1.0172602 
13050000    0.9828259 1.6013111e-06   0.46883847   0.04976702            0   0.41907145    1.4558109    1.9246493    2.0066365 
13055000   0.96637411 -6.1019086e-06   0.49895327  0.015328644            0   0.48362462    1.4314416    1.9303949    1.6179772 
13060000    1.0225212 3.8357951e-05    0.4301529 0.0043023335            0   0.42585056    1.5146096    1.9447625    3.9086896 
13065000    1.0014585 1.8675732e-05   0.47787922 0.0020204657            0   0.47585876    1.4834104    1.9612896    2.9174871 
13070000    1.0724798 0.00010496973   0.36297967 0.00051520156            0   0.36246447    1.5886108    1.9515905    7.3260406 
13075000    1.0370576 1.662161e-05    0.4233117 0.00073309579            0    0.4225786    1.5361415    1.9594532    2.8104796 
13080000    1.0224957 -3.7629637e-05   0.44878267 0.0033449593            0   0.44543772    1.5145718    1.9633544  0.036717051 
13085000   0.91236737 2.7348858e-05   0.60472923  0.085339572            0   0.51938966    1.3514442    1.9561734    3.3564349 
13090000    1.0264399 2.0862251e-05   0.42966346  0.017629045            0   0.41203442    1.5204141    1.9500776    3.0182249 
13095000    1.0291038 8.1481801e-06   0.40708645 0.0085828997            0   0.39850355      1.52436    1.9314465    2.3486333 
13100000   0.98425284 -4.1861052e-05   0.48808853 0.0086381247            0    0.4794504    1.4579245    1.9460131  -0.19727281 
13105000   0.96800419 -4.9215759e-05   0.49129323 0.0090423334            0    0.4822509    1.4338562    1.9251494  -0.59469746 
13110000    1.0121919 6.7758731e-05   0.42710314  0.016076255            0   0.41102688    1.4993092    1.9264123    5.3956594 
13115000   0.97079933 0.00017097449   0.50337432    0.0460513            0   0.45732302    1.4379965    1.9413708    10.695265 
13120000   0.95195808 0.00012641419   0.55085771  0.065772656            0   0.48508506    1.4100879    1.9609456    8.4333522 
13125000    1.0347692 3.8453015e-05   0.41395562  0.025839872            0   0.38811575    1.5327519    1.9467076     3.915502 
13130000    0.9076083 -3.7043302e-05    0.5803534  0.011903539            0   0.56844986    1.3443948    1.9247482  0.028131131 
13135000   0.92181379 -0.00014766884   0.54650437  0.010166098            0   0.53633827    1.3654367     1.911941   -5.6487034 
13140000    1.0013331 -8.084782e-05   0.47466338 0.0063593339            0   0.46830405    1.4832247     1.957888   -2.1815204 
13145000    0.9689731 3.4002084e-05   0.53769432  0.019383656            0   0.51831066    1.4352914    1.9729857    3.7138925 
13150000   0.97689219 2.942414e-05    0.5406759   0.01434253            0   0.52633337    1.4470216    1.9876975    3.4942134 
13155000   0.96825893 2.4151908e-05    0.5511473  0.014988279            0   0.53615902    1.4342335    1.9853808    3.2219585 
13160000    1.0453332 -3.4355027e-05   0.43448255  0.018508652            0    0.4159739    1.5483998    1.9828824   0.22390503 
13165000   0.95530613 -0.00012489082   0.58386799  0.022080516            0   0.56178747    1.4150472    1.9989152   -4.3954947 
13170000    1.0256065 -2.2007325e-05   0.47572184 0.0066041204            0   0.46911772    1.5191796    1.9949014   0.86812637 
13175000    1.1049799 9.981585e-05   0.37931298            0            0   0.37931298    1.6367515    2.0160645     7.126636 
13180000   0.96204243 2.3453794e-05   0.57891125 0.0022951336            0   0.57661611    1.4250254    2.0039366    3.2047709 
13185000   0.99685714 7.7809994e-05   0.51802676   0.00797908            0   0.51004768    1.4765946    1.9946214    5.9784931 
13190000    1.0269751 3.5248513e-05   0.46575077 0.0094524644            0    0.4562983    1.5212069    1.9869576    3.7916815 
13195000    1.0142202 1.0512207e-05    0.4833448  0.017761212            0   0.46558359    1.5023137    1.9856585    2.5238835 
13200000    1.0748094 8.1551192e-05   0.41508597 0.0052328498            0   0.40985312    1.5920614    2.0071474    6.1825684 
13205000    1.0209334 2.8242276e-05   0.50113806  0.017783503            0   0.48335455    1.5122576    2.0133957    3.4594002 
13210000    1.0043949 -2.9379936e-05   0.53325036   0.02185761            0   0.51139275      1.48776    2.0210104   0.51675766 
13215000     1.065432 -7.6622476e-05   0.43829086  0.018831391            0   0.41945947    1.5781712    2.0164621   -1.9066087 
13220000    1.0685644 -3.9204514e-05   0.45347298  0.024848036            0   0.42862495     1.582811    2.0362839  0.029012826 
13225000    1.0019169 -3.324277e-05   0.52781935  0.029127206            0   0.49869214    1.4840893    2.0119087   0.30987886 
13230000     1.067819 -8.3817789e-05   0.44349054   0.03097223            0   0.41251831    1.5817069    2.0251975   -2.2662733 
13235000    1.0703531 3.7730482e-05   0.44766279  0.023215058            0   0.42444774    1.5854606    2.0331234     3.964924 
13240000    1.0439233 3.9710326e-05    0.4791497  0.041699543            0   0.43745016    1.5463114    2.0254611    4.0586298 
13245000    1.0377548 -0.00013995583   0.47949524  0.011808913            0   0.46768633    1.5371744    2.0166696   -5.1490691 
13250000    1.0241378 -3.4392063e-05   0.47093227  0.042840559            0   0.42809172    1.5170041    1.9879364   0.22706277 
13255000    1.0375404 -2.4693293e-05   0.40057334  0.021137385            0   0.37943595    1.5368567      1.93743   0.67313341 
13260000    1.0147127 -3.4742619e-05   0.46862554   0.01431208            0   0.45431346    1.5030432    1.9716688   0.19284667 
13265000    1.0200588 8.6590257e-05   0.43592995  0.013205184            0   0.42272476     1.510962     1.946892    6.3803131 
13270000   0.97641496 7.1184426e-05   0.52075014  0.016347728            0   0.50440241    1.4463147    1.9670648    5.6117074 
13275000    1.0196686 -5.3851237e-05   0.46410091 0.0015739099            0     0.462527    1.5103841     1.974485  -0.78269832 
13280000    1.0401959 -0.00012268854   0.42690282 0.0010105796            0   0.42589225    1.5407901    1.9676929   -4.3139605 
13285000   0.98452009 -0.00012580096   0.46438748 0.00074438761            0    0.4636431    1.4583204    1.9227079   -4.5183013 
13290000   0.96280691 -4.8506996e-05   0.48756963  0.010788714            0   0.47678091    1.4261577    1.9137274  -0.56983082 
13295000   0.94215855 6.6007992e-05   0.52417668  0.072752411            0   0.45142427    1.3955724     1.919749    5.2993582 
13300000   0.99855684 5.3742906e-05   0.44420494  0.064093759            0   0.38011118    1.4791123    1.9233173     4.674954 
13305000    0.9801041 0.00010676507   0.47357271  0.038724666            0   0.43484805    1.4517792    1.9253519    7.3917236 
13310000   0.94106956 1.3487909e-05   0.51522888  0.011055608            0   0.50417327    1.3939593    1.9091882    2.5997691 
13315000   0.99108241 -1.8957633e-05    0.4318356  0.012391131            0   0.41944447    1.4680408    1.8998764   0.92924558 
13320000   0.97176158 -3.4415417e-05   0.45088687 0.0064572268            0   0.44442965    1.4394218    1.8903087   0.12823938 
13325000    0.9586589 -5.8991627e-05   0.50426189  0.032308244            0   0.47195364    1.4200135    1.9242754   -1.0960959 
13330000    1.0204169 5.7861192e-05   0.43672881  0.045374164            0   0.39135464    1.5114925    1.9482213    4.9107144 
13335000    1.0227161 7.2420535e-05   0.46773907  0.018548574            0    0.4491905    1.5148983    1.9826373    5.6905687 
13340000    1.0605497 3.8643652e-05   0.41598484 0.00095999787            0   0.41502484    1.5709393    1.9869241    3.9654791 
13345000     1.023269 -2.633971e-05    0.4680187  0.013517184            0   0.45450152    1.5157172    1.9837359   0.63514277 
13350000   0.99446091 -5.8290158e-05   0.53085012  0.041225555            0   0.48962456    1.4730452    2.0038953  -0.98056077 
13355000    1.0166244 -3.4241787e-05    0.4722917 0.0090825613            0   0.46320914    1.5058749    1.9781666   0.22498713 
13360000    1.0278765 -1.834181e-05   0.45338299 0.0010956929            0    0.4522873     1.522542     1.975925    1.0368243 
13365000    1.0712658 5.8892509e-05   0.40545415  0.013573747            0   0.39188041    1.5868124    1.9922666     5.007563 
13370000    1.0336067 -1.6757267e-07   0.48552267  0.034876324            0   0.45064635      1.53103    2.0165527    2.0079729 
13375000   0.96765062 -2.7808004e-05   0.55454121   0.01199403            0   0.54254718    1.4333325    1.9878737   0.56410391 
13380000   0.96012294 3.3463634e-06   0.54869264 0.0064803821            0   0.54221226    1.4221821    1.9708747    2.1422085 
13385000    1.0174657 9.786868e-06   0.47299189  0.078586427            0   0.39440547    1.5071211     1.980113    2.4812007 
13390000   0.99470555 -7.9311268e-06   0.51080121  0.038097721            0   0.47270349    1.4734076    1.9842088    1.5781351 
13395000   0.94244002 -6.1862044e-06   0.61137146 0.0082467596            0    0.6031247    1.3959893    2.0073607    1.6906271 
13400000    1.0136909 4.3865081e-05   0.49785928  0.027251945            0   0.47060734    1.5015296    1.9993889    4.2452811 
13405000    1.0658379 0.00011152846   0.42940557  0.041102071            0    0.3883035    1.5787724     2.008178    7.7184351 
13410000   0.95425175 2.2643162e-05   0.59962286  0.031253026            0   0.56836983    1.4134854    2.0131083    3.1724382 
13415000    1.0175999 -1.3515997e-05   0.49837099 0.0048405764            0   0.49353042    1.5073199    2.0056909    1.3136719 
13420000    1.0339232 -2.902354e-05   0.46945956 0.0015408345            0   0.46791873    1.5314987    2.0009583   0.51495302 
13425000    1.0082932 -5.659138e-05   0.52272014 0.00031233496            0   0.52240781    1.4935343    2.0162544  -0.88122424 
13430000    1.0303815 -3.3587408e-05   0.49243752 0.0020134876            0   0.49042403    1.5262526    2.0186901   0.29901482 
13435000   0.93309894 -5.1051305e-05    0.6057015  0.041033941            0   0.56466756    1.3821528    1.9878543   -0.6259725 
13440000     1.012599 -5.5689079e-05   0.48235169  0.032981513            0   0.44937017    1.4999123     1.982264  -0.86901685 
13445000   0.98132081 2.1685516e-05   0.54416466  0.015629903            0   0.52853476    1.4535814    1.9977461    3.1080445 
13450000   0.97133572 -4.8827023e-05   0.55792446 0.0072764442            0   0.55064801     1.438791    1.9967155  -0.50322807 
13455000    1.0467747 -7.2700607e-05    0.4557826 0.0047600822            0   0.45102251     1.550535    2.0063175   -1.7159535 
13460000    1.0622131 -2.8300917e-05   0.42525253  0.015308153            0   0.40994438    1.5734032    1.9986557   0.54964875 
13465000    1.0159398 -4.2366365e-05   0.49188368  0.013803781            0    0.4780799    1.5048608    1.9967445  -0.17241345 
13470000     1.016871 -4.9176137e-05   0.50603929 0.0094704285            0   0.49656887    1.5062401    2.0122794  -0.50553884 
13475000    1.0226793 7.806634e-05    0.5116919  0.012261958            0   0.49942994    1.5148437    2.0265356    6.0235322 
13480000    1.0649827 0.00010922244   0.45798086  0.027603737            0   0.43037712    1.5775056    2.0354865    7.6276752 
13485000    1.0233922 -9.5503021e-05   0.51442053  0.034798107            0   0.47962242    1.5158997    2.0303202   -2.8594345 
13490000   0.99371532 -0.00011170986   0.54821102  0.053667089            0   0.49454393    1.4719408    2.0201518   -3.6993927 
13495000   0.98171964 -3.2745849e-05   0.56168415  0.063839656            0   0.49784449    1.4541722    2.0158564    0.3392689 
13500000    1.0139304 -9.5613373e-05   0.51565348 0.0043819803            0    0.5112715    1.5018844    2.0175379   -2.8778668 
13505000   0.99422401 3.3346167e-06   0.54209651 0.0082432366            0   0.53385328    1.4726943    2.0147908    2.1855232 
13510000   0.99278632 7.4402056e-05   0.53079406  0.021218041            0   0.50957602    1.4705647    2.0013588     5.810744 
13515000    1.0263897 0.00013582063   0.48209959  0.034343803            0   0.44775579    1.5203397    2.0024393    8.9564557 
13520000    1.0018477 3.1079116e-05   0.52763927  0.010874498            0   0.51676477    1.4839868    2.0116261    3.6028768 
13525000   0.98785553 -1.0686467e-05   0.51984632  0.021385836            0   0.49846048     1.463261    1.9831073    1.4359602 
13530000     0.965525 -3.0586943e-05   0.52301385   0.02492694            0   0.49808691    1.4301839    1.9531978    0.3871463 
13535000   0.87004014 -7.2810541e-05    0.6594931  0.058659842            0   0.60083326     1.288747    1.9482401   -1.7796597 
13540000   0.92661143 -2.7998329e-05   0.53955937  0.020933476            0    0.5186259    1.3725432    1.9121025   0.47858808 
13545000   0.97315159 8.893738e-05   0.44601995 0.0049204979            0   0.44109946    1.4414808    1.8875007    6.4410946 
13550000    0.9681451 -1.7189199e-05   0.45196719  0.011859422            0   0.44010776    1.4340649    1.8860321    1.0059451 
13555000    0.9072284 -0.00010261632    0.5120536  0.011318229            0   0.50073537    1.3438321    1.8558857   -3.3980698 
13560000   0.97120024 -2.4355728e-05   0.43041252  0.010584697            0   0.41982782    1.4385903    1.8690029   0.62198962 
13565000   0.91798225 -2.4701066e-05   0.51184157  0.018281766            0    0.4935598    1.3597612    1.8716028   0.60690822 
13570000   0.88916983 -5.2113352e-05   0.56360576  0.020906052            0   0.54269971    1.3170828    1.8806886  -0.78751507 
13575000   0.98143265 -7.0014129e-05   0.43050312  0.022925827            0    0.4075773    1.4537471    1.8842502   -1.7004732 
13580000   0.96953728 -1.8397552e-05   0.45008423   0.01535685            0   0.43472738    1.4361271    1.8862113   0.94425668 
13585000   0.95919615 -8.965097e-06   0.46403455  0.022745529            0   0.44128902    1.4208093    1.8848439    1.4258309 
13590000   0.93764454 -1.9473966e-05   0.50923075  0.019642191            0   0.48958856     1.388886    1.8981167   0.90104964 
13595000   0.91083611 2.2342391e-05    0.5341213 0.0078531152            0   0.52626818     1.349176    1.8832973    3.0272277 
13600000   0.98774523 5.5688875e-05   0.42990427 0.0096568433            0   0.42024742    1.4630976    1.8930019    4.7442723 
13605000   0.96998289 -7.0276204e-05   0.46509326  0.014011879            0   0.45108138    1.4367872    1.9018804   -1.6962613 
13610000    0.9272514 -0.00010040739   0.49906796 0.0095437748            0   0.48952419    1.3734911    1.8725591   -3.2682995 
13615000   0.93316607 -1.8466457e-05   0.49259862 0.0014540051            0   0.49114462    1.3822522    1.8748509   0.92936825 
13620000     1.009972 3.9467836e-05   0.37886612            0            0   0.37886612    1.4960211    1.8748872    3.8956404 
13625000   0.98888328 4.7168305e-05   0.42127377 0.00028923245            0   0.42098454    1.4647834    1.8860571    4.3010743 
13630000   0.98300512 8.3775996e-05   0.40658781 0.0046257445            0   0.40196206    1.4560763    1.8626641    6.1519951 
13635000   0.93396907 9.4720473e-05   0.50882716  0.015411999            0   0.49341516    1.3834417    1.8922688    6.7419571 
13640000   0.95085595 -1.1003651e-05   0.46656085  0.012470983            0   0.45408986    1.4084554    1.8750162    1.3116293 
13645000   0.97847328 0.00015074778   0.42724359  0.019746169            0   0.40749742    1.4493635    1.8766071    9.5948934 
13650000   0.90338148 0.00010477567   0.52734179  0.032522112            0   0.49481968    1.3381338    1.8654756    7.2299897 
13655000   0.98716492 2.1373052e-05   0.41179476  0.016647391            0   0.39514737     1.462238    1.8740328     2.968333 
13660000   0.97569955 4.4008816e-05   0.42651782 0.0020250578            0   0.42449277     1.445255    1.8717728    4.1250242 
13665000   0.97682157 -3.3499622e-06   0.44635658 0.0066057993            0   0.43975078     1.446917    1.8932735    1.7217555 
13670000    0.8953157 -7.0846747e-05     0.546991  0.033073717            0   0.51391728    1.3261864    1.8731774   -1.7541761 
13675000   0.95467614 -4.8300033e-05   0.48585364    0.0439221            0   0.44193154     1.414114    1.8999677    -0.572994 
13680000   0.99301482 1.9051708e-05   0.42650608  0.011831681            0    0.4146744    1.4709032    1.8974093    2.8728568 
13685000    0.9690329 6.0307341e-05   0.46543627  0.025805077            0    0.4396312      1.43538    1.9008162    4.9885521 
13690000   0.97189894 6.9197966e-05   0.45879876  0.017845873            0   0.44095288    1.4396253    1.8984241    5.4413599 
13695000   0.98509798 7.7668101e-06   0.48113161  0.016053675            0   0.46507794    1.4591764     1.940308    2.3379687 
13700000   0.99168006 1.0515481e-05   0.42875369  0.082391039            0   0.34636265    1.4689261    1.8976798    2.4360724 
13705000   0.98144685 6.762959e-05   0.41811311  0.048886215            0    0.3692269    1.4537681    1.8718813    5.3345163 
13710000   0.97261351 1.8383868e-06    0.4014572  0.018073448            0   0.38338376    1.4406838     1.842141    1.9362664 
13715000   0.94669151 -9.6214801e-05   0.46162353  0.012434459            0   0.44918908    1.4022868    1.8639103   -3.0622875 
13720000   0.88530466 -0.00011451951   0.56518003  0.050884746            0   0.51429529    1.3113575    1.8765376   -3.9868614 
13725000    0.8878535 -0.00010681763   0.55304357  0.059170958            0   0.49387261     1.315133    1.8681766   -3.6008863 
13730000   0.99979678 -0.0001059823   0.38642745 0.0026640912            0   0.38376336     1.480949    1.8673764   -3.5589172 
13735000    1.0035603 -3.0583533e-06   0.39883118 0.0087461192            0   0.39008506    1.4865237    1.8853549    1.7287672 
13740000   0.97414829 -1.735455e-05   0.43892222   0.04733925            0   0.39158297    1.4429572    1.8818794   0.99332644 
13745000   0.93547728 -2.6405636e-05   0.52087115  0.047002661            0   0.47386849    1.3856757    1.9065469   0.55457833 
13750000    0.9965959 -7.8898935e-06   0.42096851    0.0192052            0   0.40176331    1.4762077    1.8971762    1.4932136 
13755000    0.9183488 5.2428681e-05   0.50829812 0.0087395948            0   0.49955852    1.3603042    1.8686023    4.5529507 
13760000    1.0090076 7.9804584e-05   0.36607445 0.0025854965            0   0.36348895    1.4945925    1.8606669    5.9466616 
13765000   0.95029352 2.6206364e-05   0.47116373  0.013193837            0   0.45796989    1.4076223     1.878786    3.2205518 
13770000   0.96345256 2.7949946e-05   0.45357496  0.040020988            0   0.41355397    1.4271141    1.8806891    3.3117263 
13775000   0.98503011 -2.2064415e-05   0.43882949  0.032625565            0   0.40620393    1.4590759    1.8979053   0.76820728 
13780000   0.97255806 -1.3653668e-05   0.48025624 0.00053035658            0   0.47972588    1.4406016    1.9208579    1.2217901 
13785000   0.96891391 1.8777961e-05   0.46994565            0            0   0.46994565    1.4352037    1.9051494     2.866581 
13790000    1.0119074 -3.2630105e-05   0.39310931            0            0   0.39310931    1.4988879    1.8919972   0.22133585 
13795000    1.0107512 3.0434124e-05   0.43236491 0.0082079308            0   0.42415698    1.4971752    1.9295401    3.4877672 
13800000    1.0326214 1.2101398e-05   0.45191508   0.01775151            0   0.43416357    1.5295704    1.9814855     2.601077 
13805000   0.98204801 -7.5095953e-05   0.51571496  0.019303303            0   0.49641166    1.4546586    1.9703736   -1.8745392 
13810000    1.0272935 -9.0693074e-06    0.4364172  0.032541953            0   0.40387525    1.5216786    1.9580958    1.4937472 
13815000   0.97237079 0.0001400425   0.48884163  0.030717254            0   0.45812438    1.4403242    1.9291659    9.0993418 
13820000    1.0015595 0.00010323243   0.47715171 0.0069474343            0   0.47020428    1.4835601    1.9607118    7.2462122 
13825000    1.0196922 3.7330168e-05   0.44265249  0.010765251            0   0.43188724     1.510419    1.9530715    3.8643761 
13830000    1.0411661 0.00010567275   0.42490855  0.015647415            0   0.40926113    1.5422274    1.9671359    7.3775808 
13835000    1.0200923 2.9179042e-05   0.42825173  0.044315932            0    0.3839358    1.5110118    1.9392635    3.4332304 
13840000   0.93804096 -5.3385492e-05   0.52343102  0.037186603            0   0.48624441    1.3894732    1.9129042  -0.82043301 
13845000    1.0029367 3.355955e-05   0.43370238  0.017463355            0   0.41623903       1.4856    1.9193024    3.6375513 
13850000   0.91224386 3.1961538e-05   0.54249839  0.013481818            0   0.52901658    1.3512612    1.8937596    3.5301904 
13855000   0.99879311 2.2118712e-06    0.4390282  0.020520311            0   0.41850789    1.4794623    1.9184905    2.0317383 
13860000    1.0134265 6.2125862e-05   0.42359367 0.0024445526            0   0.42114912     1.501138    1.9247317    5.1055758 
13865000   0.99943936 3.0237248e-05   0.46874835 0.0035687529            0    0.4651796    1.4804196    1.9491679     3.497315 
13870000   0.98647293 2.3249982e-05   0.46758674 0.0038126338            0    0.4637741     1.461213    1.9287998    3.1191989 
13875000    1.1047169 9.4463179e-06   0.32356658  0.021815858            0   0.30175072     1.636362    1.9599285      2.44358 
13880000   0.98051858 -2.6173998e-05    0.5119921  0.022400782            0   0.48959132    1.4523931    1.9643852   0.62427657 
13885000    1.0050805 -3.2945185e-05   0.48436493  0.023873475            0   0.46049145    1.4887755    1.9731404   0.28634693 
13890000    0.9927202 -9.2185411e-05   0.50824355  0.056769327            0   0.45147422    1.4704668    1.9787104   -2.7411827 
13895000   0.95530331 -1.3934728e-05   0.56471341  0.034617976            0   0.53009544     1.415043    1.9797564    1.2662984 
13900000    1.0240233 2.7130334e-05    0.4681776  0.023202059            0   0.44497554    1.5168345    1.9850121    3.3740852 
13905000   0.99578239 5.083628e-05   0.49263566  0.038163954            0    0.4544717    1.4750027    1.9676383    4.5704558 
13910000   0.96576672 3.5746503e-05   0.50891123  0.058940006            0   0.44997122     1.430542    1.9394532    3.7696741 
13915000   0.96818549 -1.425357e-05    0.4934628  0.062563606            0    0.4308992    1.4341248    1.9275876    1.1978048 
13920000   0.99117353 -6.0760806e-05   0.48806585  0.056519106            0   0.43154675    1.4681758    1.9562416   -1.1547116 
13925000   0.98255438 0.00011628433   0.50327743  0.067112432            0     0.436165    1.4554087    1.9586861    7.9124436 
13930000   0.95158063 7.0970818e-05    0.5358347  0.054871488            0   0.48096322    1.4095288    1.9453635    5.5790694 
13935000   0.99201809 1.1203465e-05     0.480751  0.033498151            0   0.44725285    1.4694268    1.9501778    2.5237952 
13940000    1.0333272 3.6677644e-05   0.41768069  0.018198701            0   0.39948199    1.5306159    1.9482966     3.826192 
13945000     1.043251 -7.131066e-05   0.35990605 0.0064021579            0   0.35350389    1.5453156    1.9052216   -1.7458842 
13950000    1.0064346 -5.1787026e-05   0.40699395 0.0054811208            0   0.40151283    1.4907812    1.8977751  -0.75372063 
13955000   0.97650449 1.1170952e-05   0.45098735  0.033297565            0   0.41768979    1.4464473    1.8974346    2.4693873 
13960000   0.95395561 -2.5463708e-05   0.48588814  0.052600961            0   0.43328717    1.4130468    1.8989349   0.59519304 
13965000    1.0079616 -4.8877678e-06   0.41336287  0.026588284            0   0.38677458    1.4930431     1.906406    1.6561523 
13970000   0.96392811 0.00010454244   0.48284295  0.080949884            0   0.40189306    1.4278185    1.9106615    7.2632344 
13975000   0.88934291 0.00010573008    0.5914563  0.086343452            0   0.50511285    1.3173392    1.9087955    7.3221754 
13980000   0.96706561 -8.9749646e-05   0.50216917  0.026522963            0   0.47564621    1.4324659    1.9346351   -2.6605468 
13985000   0.91193596 -2.3433483e-05   0.56350186  0.032340809            0   0.53116106    1.3508051     1.914307   0.71451268 
13990000   0.94866007 0.00013190263   0.50196608  0.031788617            0   0.47017747    1.4052027    1.9071688    8.6605834 
13995000   0.95284278 4.9295677e-05   0.49017996  0.055174014            0   0.43500595    1.4113984    1.9015783     4.425517 
14000000    0.9436495 -4.1445052e-05   0.48993713  0.016406266            0   0.47353086    1.3977808    1.8877179  -0.23426871 
14005000   0.96524832 -6.3601121e-05   0.43859392  0.016831368            0   0.42176255    1.4297741     1.868368   -1.3880094 
14010000   0.96062874 4.2088327e-05   0.45385373   0.02035222            0   0.43350151    1.4229313     1.876785    4.0317074 
14015000   0.98573453 3.8404538e-05   0.41781968 0.0095104957            0   0.40830919    1.4601193     1.877939    3.8442513 
14020000   0.92482523 -4.7135195e-05   0.49772334 0.0031894844            0   0.49453385    1.3698974    1.8676207  -0.54570126 
14025000   0.93462691 3.1603079e-05   0.50899612  0.012358102            0   0.49663802    1.3844161    1.8934122    3.5114898 
14030000   0.95199497 4.9382682e-05   0.48852494  0.028600223            0   0.45992472    1.4101425    1.8986675    4.4270608 
14035000    1.0036973 4.0350433e-05   0.40685943  0.022264285            0   0.38459515    1.4867266    1.8935861    3.9595283 
14040000   0.89853165 -2.7784829e-05   0.54006301  0.029032219            0   0.51103079      1.33095     1.871013   0.44842979 
14045000   0.94949734 -3.1001261e-05   0.48288501  0.040890965            0   0.44199405    1.4064429    1.8893279   0.30206339 
14050000    1.0302931 -0.00013233921   0.38266655 0.0053973223            0   0.37726923    1.5261216    1.9087882   -4.8669792 
14055000    1.0399411 -1.9742081e-05   0.38395892 0.0042954717            0   0.37966345    1.5404127    1.9243716   0.91357705 
14060000   0.91475252 0.00012347755   0.54889083  0.017530144            0   0.53136069    1.3549772     1.903868    8.2259186 
14065000    0.9358441 -3.2149108e-05   0.52239905  0.055821616            0   0.46657743    1.3862191    1.9086181    0.2625838 
14070000   0.95101606 -3.3757975e-05   0.44363492  0.018624287            0   0.42501063    1.4086925    1.8523275   0.12391912 
14075000   0.87959366 3.3195471e-05   0.53753959 0.0095916616            0   0.52794793    1.3028981    1.8404377    3.5400458 
14080000   0.90709869 -3.3594167e-05   0.46250428  0.027349629            0   0.43515465    1.3436399    1.8061442  0.086122853 
14085000   0.90874239 4.0458836e-05   0.45412303  0.053828973            0   0.40029406    1.3460747    1.8001977    3.8716901 
14090000   0.89676816 8.3169876e-05   0.49680955  0.017659479            0   0.47915007    1.3283378    1.8251474     6.083445 
14095000   0.93761256 -3.4816592e-05   0.42334045  0.012165294            0   0.41117516    1.3888386    1.8121791  0.029569568 
14100000    0.8732551 2.0283147e-05   0.49683445  0.019713716            0   0.47712074    1.2935091    1.7903436    2.8288407 
14105000   0.96031455 7.5626538e-05   0.39205974  0.032407106            0   0.35965264    1.4224659    1.8145257    5.6866044 
14110000   0.89808622 4.9281398e-06   0.48602848  0.015289454            0   0.47073903    1.3302902    1.8163187    2.0686394 
14115000   0.91086553 1.2044977e-05   0.46846273 0.0093777779            0   0.45908496    1.3492196    1.8176823    2.4343851 
14120000    0.9184791 6.6215476e-05   0.47645715 0.0065267004            0   0.46993045    1.3604972    1.8369543    5.2271867 
14125000    0.9316805 -2.2738124e-06   0.43567418 0.0060987665            0   0.42957541    1.3800517    1.8157259    1.6993067 
14130000    0.9102149 -5.1752867e-05   0.47894522 0.00066202973            0   0.47828319    1.3482558     1.827201  -0.82254578 
14135000   0.90505468 7.6190318e-05    0.4735464            0            0    0.4735464    1.3406122    1.8141586    5.7151029 
14140000    0.8414754 3.136118e-05   0.57343287            0            0   0.57343287    1.2464354    1.8198683    3.4255607 
14145000   0.90210187 -2.6528832e-05   0.45317295 8.6677254e-05            0   0.45308627    1.3362384    1.7894113   0.43113514 
14150000   0.86835914 4.8892763e-05   0.46984278 0.0025109484            0   0.46733183     1.286257    1.7560998    4.2594092 
14155000   0.84334589 8.8245744e-05   0.50660388  0.013307197            0   0.49329669    1.2492061      1.75581    6.2739921 
14160000   0.84934027 -2.9209615e-05   0.47452294  0.043099116            0   0.43142383    1.2580853    1.7326082   0.23707594 
14165000   0.81896301 -5.5282517e-05   0.53045449  0.054984647            0   0.47546984     1.213089    1.7435434   -1.0869214 
14170000   0.86205809 4.5892082e-05   0.48621314  0.018745789            0   0.46746735    1.2769236    1.7631367    4.1128113 
14175000   0.91580615 -4.7387316e-05   0.41543395  0.020654048            0    0.3947799    1.3565379    1.7719718  -0.65425878 
14180000    0.9123802 -0.00018254285   0.42729389  0.016343961            0   0.41094993    1.3514632    1.7787571   -7.5674369 
14185000   0.89462871 -5.9144473e-05    0.4286657 0.0037786189            0   0.42488708    1.3251688    1.7538345   -1.2743625 
14190000   0.87936612 6.2023885e-06   0.43631171 0.0053883324            0   0.43092337    1.3025611    1.7388728    2.0564351 
14195000   0.81456559 1.1293817e-05   0.53026127   0.01401759            0   0.51624368    1.2065753    1.7368365      2.31508 
14200000    0.8735717 -4.8825275e-05   0.44950503   0.01401555            0   0.43548948    1.2939781    1.7434831  -0.75637096 
14205000   0.88221095 -1.4242353e-05   0.42553848  0.017576818            0   0.40796166     1.306775    1.7323135     1.003105 
14210000    0.8983887 7.5702555e-05   0.40197735  0.013296582            0   0.38868076    1.3307383    1.7327156    5.6086864 
14215000   0.83305475 1.5824314e-06   0.47576863  0.019197982            0   0.45657064    1.2339624     1.709731    1.7907515 
14220000   0.85846579 -7.3882885e-05   0.43241327  0.012375865            0    0.4200374    1.2716024    1.7040157    -2.078788 
14225000   0.90577065 -4.3749068e-05   0.38032541 0.0011081207            0   0.37921729    1.3416728    1.7219982  -0.51795407 
14230000   0.84204958 6.4706349e-05   0.46933054  0.005204121            0   0.46412642    1.2472859    1.7166165    5.0295816 
14235000   0.82933053 0.00010450577   0.47903225  0.019209366            0   0.45982289    1.2284458    1.7074781    7.0581735 
14240000   0.91906966 -7.1061216e-06   0.32323349 0.0061933511            0   0.31704014    1.3613719    1.6846054     1.320772 
14245000   0.87469341 -0.00010963023   0.37529142 0.0050690931            0   0.37022233    1.2956396     1.670931   -3.9421365 
14250000   0.79987134 -6.5257899e-05   0.47026022  0.011130077            0   0.45913015    1.1848094    1.6550697   -1.6861348 
14255000   0.85475631 -7.575708e-06   0.43189407 0.0061079397            0   0.42578613    1.2661078    1.6980018    1.3101256 
14260000   0.84709109 -2.4857885e-05   0.43529226 0.0041522119            0   0.43114005    1.2547537    1.6900459   0.41732222 
14265000   0.89341494 4.3891291e-05   0.38065427  0.011012385            0   0.36964189    1.3233709    1.7040252    3.9512593 
14270000   0.86765423 -4.9210684e-05   0.42104501 0.0091231297            0   0.41192188    1.2852128    1.7062578  -0.81332919 
14275000    0.8913763 -1.7446507e-07   0.37844991 0.0052558898            0   0.37319402    1.3203511    1.6988011    1.6898684 
14280000    0.8917827 -9.9351083e-06   0.38318768 0.0028190994            0   0.38036858    1.3209531    1.7041408    1.1954633 
14285000   0.85789807 -9.1871954e-05   0.42905587 0.0043109452            0   0.42474492    1.2707615    1.6998174   -3.0040266 
14290000   0.84905015 2.7894444e-05   0.43684037 0.0078827414            0   0.42895762    1.2576555    1.6944959    3.1226914 
14295000   0.82704137 4.5430176e-06   0.45955838  0.013485124            0   0.44607325     1.225055    1.6846134    1.9172159 
14300000   0.85905933 -0.00010106479   0.39801234 0.0083015884            0   0.38971075    1.2724816     1.670494   -3.5040234 
14305000   0.82021104 -1.9974648e-05   0.44195826 0.0055759158            0   0.43638234    1.2149376    1.6568959   0.63419388 
14310000   0.82680771 -3.3813775e-05   0.44312221  0.014277069            0   0.42884514    1.2247089    1.6678311 -0.063434137 
14315000   0.82189706  -4.5501e-05   0.49050157  0.018157869            0    0.4723437     1.217435    1.7079366  -0.62171459 
14320000   0.82780833 9.2821955e-05   0.45441364 0.0065163812            0   0.44789725    1.2261911    1.6806047    6.4330888 
14325000   0.88358638 0.00011719607   0.36554251 0.0042119767            0   0.36133054    1.3088123    1.6743548    7.6747937 
14330000   0.82583344 0.00017039371   0.48236879 0.0051487993            0   0.47721999    1.2232658    1.7056346    10.429793 
14335000   0.83895127 -3.6501574e-05   0.46651674  0.014250217            0   0.45226652    1.2426966    1.7092133  -0.15966726 
14340000   0.86852489 5.7565648e-05   0.44706481  0.022354281            0   0.42471053    1.2865025    1.7335673    4.6809285 
14345000   0.87685353 -3.3288324e-05   0.43528491  0.001492442            0   0.43379247    1.2988393    1.7341242   0.02976199 
14350000   0.87541933 -6.1695761e-05   0.45411066 0.0013623398            0   0.45274832    1.2967149    1.7508255   -1.4079974 
14355000   0.92313163 9.0478028e-05   0.39292045  0.013019149            0    0.3799013    1.3673887    1.7603092    6.3927842 
14360000    0.8799055 6.1557768e-05   0.44427459  0.028599786            0   0.41567481      1.30336    1.7476346    4.8993924 
14365000   0.88278663 -5.415797e-05   0.42450105  0.029079325            0   0.39542173    1.3076277    1.7321287   -1.0407593 
14370000    0.8852136 -7.126697e-05   0.40330112  0.012601911            0   0.39069921    1.3112226    1.7145238   -1.9343451 
14375000   0.89420596 3.2522149e-05   0.39756087 0.0047163922            0   0.39284448    1.3245426    1.7221035    3.3872375 
14380000   0.89542017 -4.5172935e-05   0.36802881  0.002261288            0   0.36576752    1.3263411    1.6943699  -0.61848434 
14385000   0.87505671 -0.00010695355   0.40404412 0.0042633263            0    0.3997808    1.2961778    1.7002219   -3.7758001 
14390000   0.92405367 1.0526337e-05    0.3572451  0.012681334            0   0.34456377    1.3687545    1.7259996     2.264948 
14395000   0.89994177 3.7922893e-05   0.38120095 0.0069284197            0   0.37427253    1.3330387    1.7142397    3.6558918 
14400000   0.84643215 -3.9292334e-05   0.50478877  0.004670507            0   0.50011827    1.2537776    1.7585664  -0.25320109 
14405000   0.89186153 0.00011213808    0.4385005    0.0114194            0    0.4270811    1.3210699    1.7595704    7.5010399 
14410000   0.89800488 8.0679861e-05   0.42644825  0.015812609            0   0.41063564    1.3301697     1.756618    5.8874269 
14415000   0.83221842 -8.0165899e-05   0.51839837  0.045914425            0   0.47248394    1.2327235    1.7511219   -2.3533721 
14420000   0.82153435 1.0419413e-05   0.53666887 0.0073161356            0   0.52935273    1.2168978    1.7535666    2.2870405 
14425000   0.92108137 6.0957711e-05   0.38869926  0.012323182            0   0.37637608    1.3643518     1.753051    4.8740858 
14430000   0.89306729 4.0786825e-05   0.44200444  0.043927292            0   0.39807715    1.3228559    1.7648604    3.8531458 
14435000   0.89818916 1.1057747e-05     0.424702  0.014329841            0   0.41037216    1.3304427    1.7551447    2.3213014 
14440000   0.80834509 -0.00020122766   0.54983502  0.014635971            0   0.53519905    1.1973612    1.7471962     -8.55566 
14445000   0.80597433 -4.6649189e-05   0.55121733  0.064551308            0   0.48666602    1.1938495    1.7450668   -0.6433717 
14450000   0.89712706 6.644062e-05   0.45342774  0.013716789            0   0.43971095    1.3288695    1.7822972    5.1840569 
14455000   0.94901313 -2.6085379e-05   0.38542117  0.008078653            0   0.37734252    1.4057257    1.7911469   0.45557546 
14460000   0.83939082 -2.7458341e-05   0.53472675  0.018183154            0    0.5165436    1.2433477    1.7780744   0.37220733 
14465000   0.81979454 -2.6117034e-05   0.53579141  0.016602989            0   0.51918842    1.2143207    1.7501121   0.41291992 
14470000   0.92145603 0.00010782284   0.39784504   0.01543775            0   0.38240729    1.3649067    1.7627518    7.2832811 
14475000   0.94232516 0.00011243141    0.3835925  0.034443038            0   0.34914946    1.3958191    1.7794116    7.5358998 
14480000   0.86886414 3.4351361e-05   0.46927732  0.036858816            0   0.43241851     1.287005    1.7562823     3.515072 
14485000    0.9212859 3.1879461e-05    0.3571818  0.007613486            0   0.34956831    1.3646547    1.7218365     3.354065 
14490000   0.90506265 5.5937661e-05   0.38138473 0.0030903601            0   0.37829437     1.340624    1.7220088     4.586017 
14495000   0.87430749 7.2503446e-05   0.46324376 0.0017590328            0   0.46148473     1.295068    1.7583117    5.4704881 
14500000   0.92992181 -5.0781148e-05   0.36766837 0.0015445044            0   0.36612386    1.3774467     1.745115  -0.85487971 
14505000   0.89524848 5.8282206e-05   0.37990554 0.00063861792            0   0.37926693    1.3260868    1.7059924    4.6900413 
14510000   0.86776093 -6.1801288e-05   0.41694829 0.00045009503            0    0.4164982    1.2853709    1.7023192   -1.4619068 
14515000   0.88103797 -3.7243481e-05   0.43009019 0.0030158531            0   0.42707434    1.3050375    1.7351277  -0.17173857 
14520000    0.8305343 -7.4440685e-05   0.46486896 0.0049783215            0   0.45989064    1.2302289    1.6950979   -2.1162652 
14525000   0.88770132 3.5838456e-05   0.36454247 0.0044869216            0   0.36005555    1.3149076    1.6794501     3.514379 
14530000   0.85280011 1.2193728e-05   0.43554378 0.0032522603            0   0.43229152    1.2632102    1.6987539    2.3230728 
14535000   0.88272676 3.3062713e-05   0.39254811 0.0081843698            0   0.38436374     1.307539    1.7000871     3.392898 
14540000   0.93281348 0.00010158383   0.33270866  0.010415261            0    0.3222934      1.38173    1.7144386    6.9155307 
14545000   0.86301787 3.1909986e-05   0.42541996  0.014547591            0   0.41087237    1.2783452    1.7037652    3.3375565 
14550000   0.82068834 1.0258588e-05   0.50491796  0.023738763            0   0.48117919    1.2156446    1.7205626    2.2458023 
14555000    0.8522036 -9.890606e-05   0.46233874  0.036910445            0    0.4254283    1.2623266    1.7246653   -3.3393249 
14560000   0.93831046 -3.7939313e-05   0.34204262  0.028339148            0   0.31370347    1.3898724     1.731915  -0.21057782 
14565000   0.86952695 4.3387341e-05   0.42887939  0.014382557            0   0.41449684    1.2879868    1.7168662    3.9382981 
14570000   0.86793561 -3.0699031e-05   0.43297478 0.0096345992            0   0.42334018    1.2856296    1.7186044   0.14681402 
14575000   0.86272726 -1.6046984e-05   0.42873232  0.012717334            0   0.41601499    1.2779147    1.7066471   0.88504147 
14580000   0.89281517 -4.1796923e-05   0.37064677  0.024889859            0   0.34575691    1.3224825    1.6931292  -0.44687322 
14585000   0.84613601 -2.7172149e-05   0.40580252  0.034784195            0   0.37101832     1.253339    1.6591415   0.26792748 
14590000   0.77787598 0.00010689767   0.50086187  0.021844405            0   0.47901746    1.1522288    1.6530907    7.1262516 
14595000   0.86529923 1.4524062e-05    0.3741805  0.006877584            0   0.36730291    1.2817245     1.655905     2.399537 
14600000   0.84269509 -0.00012282076   0.39469907 0.0015275314            0   0.39317154    1.2482421    1.6429412   -4.6454817 
14605000   0.77867614 -4.4462431e-06   0.47638404  0.010224839            0   0.46615921     1.153414    1.6297981    1.4021504 
14610000   0.85607436 6.5682894e-05   0.37954113  0.041066489            0   0.33847464    1.2680601    1.6476013    5.0105655 
14615000   0.88792357 7.5095103e-05   0.32756102  0.022409667            0   0.30515135    1.3152368    1.6427978    5.4876671 
14620000   0.79241127 8.409106e-05   0.47081633  0.021979055            0   0.44883728    1.1737592    1.6445755    5.9500378 
14625000   0.78267999 -7.3349675e-05   0.45801438  0.068296798            0   0.38971758    1.1593447    1.6173591   -2.1381443 
14630000   0.88393197 4.7596855e-06   0.30819903 0.0092080887            0   0.29899095    1.3093242    1.6175233    1.8612192 
14635000    0.8355319 1.8300361e-05   0.36672971 0.0036665616            0   0.36306315    1.2376316    1.6043613    2.5413398 
14640000   0.82728337 -0.00010749283   0.36416289 0.0012643643            0   0.36289853    1.2254135    1.5895764   -3.9140565 
14645000   0.84576794 -1.1925183e-05   0.36434507 0.0038051907            0   0.36053988    1.2527938    1.6171388    1.0065695 
14650000   0.92208081 6.5173495e-05   0.27650431 0.0042801489            0   0.27222416    1.3658322    1.6423365    4.9792194 
14655000   0.85288934 -4.0292849e-05   0.38900561 0.0019377547            0   0.38706786    1.2633423    1.6523479  -0.41064593 
14660000   0.80859413 2.5895916e-06   0.44978984 0.0040421221            0   0.44574772    1.1977301    1.6475199     1.780107 
14665000   0.88667742 1.4772608e-05   0.36219611   0.04285122            0   0.31934489    1.3133909     1.675587    2.4319445 
14670000    0.8280031 -2.1008294e-05   0.41267628  0.034281648            0   0.37839463    1.2264796    1.6391559   0.56353121 
14675000   0.85218322 -3.3902417e-05   0.37743454  0.014592624            0   0.36284191    1.2622964    1.6397309 -0.096072793 
14680000   0.87097345 6.6179966e-05   0.38025259  0.010949452            0   0.36930314    1.2901294     1.670382    5.0587963 
14685000   0.86214197 0.0001179968   0.38679539  0.050836746            0   0.33595864    1.2770478    1.6638432    7.7052795 
14690000   0.85044871 -7.210823e-05   0.42177434  0.014641445            0    0.4071329    1.2597272    1.6815015   -2.0104399 
14695000   0.90202108 2.1320521e-05   0.34735091  0.018545059            0   0.32880585    1.3361187    1.6834696    2.7750803 
14700000    0.8484428 0.00011664555   0.40559907  0.011332948            0   0.39426612    1.2567559     1.662355    7.6346072 
14705000   0.89893536 -6.1902358e-06    0.3532491  0.021108808            0   0.33214029     1.331548    1.6847971     1.367857 
14710000   0.90881933 4.3443287e-05   0.34884979 0.0022981065            0   0.34655168    1.3461886    1.6950384    3.9193347 
14715000    0.8887756 3.8368705e-05   0.37347365   0.00584379            0   0.36762986    1.3164989    1.6899725    3.6544502 
14720000   0.90735867 -3.2983982e-05   0.34855315  0.007640502            0   0.34091265     1.344025    1.6925782 0.0037983034 
14725000   0.86030222 -8.9831039e-05   0.42046526 0.0032330784            0   0.41723218    1.2743227    1.6947879   -2.9045613 
14730000   0.87746036 -7.4419023e-05   0.39772778 0.0016564192            0   0.39607136    1.2997382    1.6974659    -2.112788 
14735000   0.86074768 2.189374e-05    0.4099062 0.0070529257            0   0.40285328    1.2749825    1.6848887    2.8058482 
14740000   0.91927328 -6.0820142e-05   0.35345352  0.010638051            0   0.34281547    1.3616735    1.7151271   -1.3988642 
14745000   0.89383932 -1.9610389e-05   0.39003965 0.0051154905            0   0.38492416    1.3239995    1.7140391   0.70998722 
14750000   0.86697283 -1.9482534e-05   0.39908241  0.013383198            0   0.38569921    1.2842035    1.6832859   0.68578019 
14755000   0.84959677 -7.6532505e-05   0.42307053  0.026146522            0   0.39692401    1.2584652    1.6815357   -2.2369285 
14760000   0.87522206 -1.7834099e-05   0.37470359  0.022686965            0   0.35201662    1.2964227    1.6711263   0.75802042 
14765000   0.78342451 8.4489294e-05   0.51445372   0.02359735            0   0.49085637    1.1604476    1.6749013    6.0007531 
14770000   0.82171424 -5.0309098e-05   0.44580224  0.020972992            0   0.42482925    1.2171642    1.6629665  -0.91285934 
14775000   0.87539836 -0.00011163546   0.35632642   0.01265955            0   0.34366687    1.2966838    1.6530102   -4.0627251 
14780000   0.82278869 1.0405682e-05   0.45406825  0.037674755            0   0.41639349    1.2187557     1.672824    2.2055949 
14785000   0.84559464 -7.4614006e-05   0.43616243  0.037922228            0    0.3982402    1.2525371    1.6886995   -2.1315376 
14790000   0.88755827 2.9900321e-05   0.38898473    0.0247588            0   0.36422593    1.3146957    1.7036804    3.2345768 
14795000   0.85228684 0.00018992834   0.41971946  0.044823405            0   0.37489606    1.2624499    1.6821693    11.406501 
14800000   0.86533681 3.7446248e-05   0.40746237  0.025166564            0    0.3822958    1.2817802    1.6892425    3.6064904 
14805000   0.82425448 -7.774625e-05   0.48531537  0.020391235            0   0.46492414     1.220927    1.7062423   -2.2743657 
14810000   0.88203904 2.7734796e-05   0.39184124  0.011221962            0   0.38061928    1.3065203    1.6983616    3.1183831 
14815000   0.86249507 6.7431314e-05     0.421184  0.015384843            0   0.40579916    1.2775708    1.6987548    5.1512381 
14820000   0.85495812 1.999653e-05   0.44629242  0.069763709            0   0.37652871    1.2664067    1.7126991    2.7365215 
14825000   0.88866269 1.473247e-05   0.39572671  0.024555139            0   0.37117157    1.3163316    1.7120583    2.4663608 
14830000   0.86588745 1.907544e-05   0.43729073  0.032733714            0   0.40455701    1.2825958    1.7198865    2.6965491 
14835000   0.86016845 8.8405021e-06   0.44025796  0.028443969            0     0.411814    1.2741245    1.7143825    2.1670162 
14840000   0.91832005 4.2419317e-06   0.38060943   0.03344604            0   0.34716339    1.3602616     1.740871    1.9580579 
14845000   0.94154102 -1.4123133e-05   0.32762552  0.023037784            0   0.30458774    1.3946576    1.7222832   0.99917876 
14850000   0.86896136 -3.3427037e-05   0.42764194 0.0065567173            0   0.42108522     1.287149    1.7147909  0.003326641 
14855000   0.86549643 -1.9930022e-05   0.46355328  0.033252653            0   0.43030063    1.2820166    1.7455699   0.72515276 
14860000   0.85028603 -6.6093896e-05   0.44090541  0.052475359            0   0.38843005    1.2594862    1.7003916   -1.6836159 
14865000   0.88878699 -8.8219884e-05   0.38481857 0.0079997856            0   0.37681878    1.3165157    1.7013343   -2.8155237 
14870000   0.90298469 8.8698658e-05   0.37510907 0.0097962175            0   0.36531285    1.3375461    1.7126551    6.2540264 
14875000   0.87206168 2.6685266e-05   0.42279574  0.031526404            0   0.39126933    1.2917414    1.7145371    3.0808227 
14880000   0.85541311 8.5978412e-05   0.42643765  0.030209191            0   0.39622846    1.2670807    1.6935183     6.095613 
14885000   0.88936201 9.6286011e-05   0.38213722  0.011896063            0   0.37024116    1.3173675    1.6995047    6.6293485 
14890000   0.87225627 -4.5789462e-05   0.40874304  0.011050588            0   0.39769246    1.2920296    1.7007727   -0.6436478 
14895000   0.89175569 -4.3785467e-06   0.40608873  0.022160223            0    0.3839285    1.3209131    1.7270018    1.5028202 
14900000   0.89856229 -3.8034625e-05   0.38728314  0.012975243            0    0.3743079    1.3309954    1.7182785  -0.22909429 
14905000   0.84567868 8.2436451e-06   0.47636232  0.027450113            0    0.4489122    1.2526615    1.7290239    2.1510985 
14910000   0.88403717 1.389214e-05   0.42227513  0.042336884            0   0.37993824    1.3094801    1.7317552    2.4430328 
14915000   0.85293482 -7.5764409e-05   0.45893345  0.023573112            0   0.43536034    1.2634097    1.7223432   -2.1567946 
14920000    0.8543981 -4.3650902e-05   0.46785746  0.045757223            0   0.42210024    1.2655772    1.7334346  -0.50149155 
14925000   0.80215822 -7.9992831e-05      0.51438   0.10729696            0   0.40708304    1.1881969    1.7025769   -2.3930561 
14930000   0.92257787 -0.00011537737    0.3621052  0.038996437            0   0.32310877    1.3665685    1.7286737   -4.1786475 
14935000   0.89406711 1.8721609e-07   0.41591966 0.0046913788            0   0.41122828    1.3243369    1.7402566     1.749842 
14940000   0.93343816 -1.9010487e-05   0.35305794 0.0032611944            0   0.34979675    1.3826553    1.7357132   0.76237629 
14945000   0.94523325 -1.1570987e-05   0.36650316 0.0077340744            0   0.35876908    1.4001268    1.7666299    1.1741954 
14950000   0.79326438 8.6117096e-05   0.57123165  0.023222656            0     0.548009    1.1750229    1.7462545    6.1554498 
14955000   0.88624509 -9.1451667e-06   0.45819269  0.041881499            0    0.4163112    1.3127505    1.7709432    1.3027107 
14960000   0.92460995 1.2625662e-05   0.38069837  0.057848619            0   0.32284975    1.3695785    1.7502769    2.3967108 
14965000    0.8123305 0.00010083604   0.53514842  0.022230028            0   0.51291839    1.2032646     1.738413    6.9012181 
14970000   0.88015505 -8.8977991e-05   0.41532978 0.0061704936            0   0.40915929    1.3037297    1.7190595   -2.8366137 
14975000   0.88819259 -5.2252825e-05   0.36585449 0.0098996626            0   0.35595483    1.3156353    1.6814898   -0.9938549 
14980000   0.87330928 8.3695259e-05   0.40569019  0.015866528            0   0.38982366    1.2935894    1.6992796    5.9844768 
14985000   0.84705415 -3.1888344e-05   0.43753455  0.019303882            0   0.41823067     1.254699    1.6922335  0.059550275 
14990000   0.84507298 5.8226889e-05   0.46539113  0.014215356            0   0.45117577    1.2517643    1.7171555    4.6983722 
14995000   0.80186055 0.00017603016   0.52879301  0.014828737            0   0.51396428    1.1877559     1.716549    10.729293 
15000000   0.80105042 0.0001401865   0.55930592    0.0630287            0   0.49627722    1.1865559    1.7458618    8.9234109 
15005000    0.8895242 1.2454794e-05   0.43213061  0.022470146            0   0.40966046    1.3176077    1.7497383    2.3874238 
15010000   0.82927068 -2.2316788e-05   0.51888013 0.0020919462            0   0.51678819    1.2283572    1.7472373    0.6046178 
15015000   0.88914495 1.1190206e-05   0.44443582 1.6712776e-05            0   0.44441911     1.317046    1.7614818    2.3344203 
15020000   0.85423595 9.1554277e-05   0.49333076 0.00099645489            0   0.49233431     1.265337    1.7586678    6.4462468 
15025000   0.88017105 7.5987413e-05   0.44809679 0.0088983869            0   0.43919841    1.3037534    1.7518502    5.6424057 
15030000   0.89354172 -3.271872e-05   0.43585737  0.009206933            0   0.42665044    1.3235587     1.759416  0.084217565 
15035000   0.89050257 -0.00013294344   0.46441543  0.018737343            0   0.44567809    1.3190569    1.7834724   -5.0232319 
15040000     0.883702 -4.1376742e-05    0.4955655  0.034317495            0   0.46124801    1.3089836    1.8045491   -0.3139401 
15045000   0.91914714 5.1007256e-05    0.4075024 0.0046289889            0   0.40287341    1.3614867    1.7689891    4.3805606 
15050000   0.90909683 -3.0852686e-05   0.42370572 0.00097330357            0   0.42273242    1.3465997    1.7703054   0.19064789 
15055000   0.93429318 -9.1535503e-05   0.40475791 0.0066772698            0   0.39808064    1.3839218    1.7886797   -2.8979381 
15060000   0.90702585 -3.2781185e-05    0.3975709  0.013025962            0   0.38454493     1.343532    1.7411029  0.062706285 
15065000   0.85442326 2.0102311e-05   0.45766666  0.007561069            0   0.45010559    1.2656145    1.7232811    2.7525194 
15070000     0.879636 -6.4032598e-05   0.42016826 0.0063257471            0   0.41384251    1.3029608    1.7231291   -1.5553399 
15075000   0.90482839 -2.9229958e-05   0.40470274  0.011854569            0   0.39284817     1.340277    1.7449798   0.24840592 
15080000   0.86572666 -8.4982944e-05   0.46347325  0.024334344            0    0.4391389    1.2823576    1.7458309   -2.6052959 
15085000    0.9014934 -2.6682005e-05   0.41918907 0.0050864929            0   0.41410258    1.3353371    1.7545262   0.38840753 
15090000   0.90986592 6.8923166e-05   0.38196985  0.002267499            0   0.37970235    1.3477389    1.7297087    5.2585748 
15095000   0.84743076 3.7793768e-06   0.48625489 0.00062777578            0   0.48562712    1.2552568    1.7415117    1.9350158 
15100000   0.88029692 -4.8712877e-05   0.42746693 0.0049005169            0   0.42256642    1.3039398    1.7314067  -0.76269256 
15105000   0.83301894 -0.00016367267   0.50908783  0.011855109            0   0.49723272    1.2339093    1.7429971   -6.6370438 
15110000   0.85139035 -4.4777292e-05   0.49738031  0.010157511            0    0.4872228     1.261122    1.7585023  -0.53409507 
15115000   0.86493557 -0.0001300748   0.46117151 0.0051643718            0   0.45600714    1.2811858    1.7423573   -4.9174722 
15120000   0.84177076 -3.7574444e-05   0.49333679 0.0013462282            0   0.49199056    1.2468729    1.7402097  -0.18360179 
15125000   0.89737449 4.3193954e-05   0.40818526 0.0013677159            0   0.40681754     1.329236    1.7374212    3.9489516 
15130000   0.86478619 -2.8848158e-05   0.45237824 0.0029528326            0   0.44942541    1.2809645    1.7333428   0.25631707 
15135000   0.85286453 3.9089986e-05     0.453545  0.011944149            0   0.44160085    1.2633056    1.7168506    3.7182579 
15140000    0.8862067 8.0981838e-05   0.40799759 0.0081049847            0    0.3998926    1.3126937    1.7206913    5.8669614 
15145000   0.92380377 -9.4460486e-06   0.36005663 0.0061963728            0   0.35386026    1.3683843     1.728441    1.2448033 
15150000   0.86461243 -3.6714397e-05   0.45962614 0.0090342558            0   0.45059188    1.2807072    1.7403333  -0.13944383 
15155000   0.89236904 3.6746336e-05   0.42575915 0.0062357267            0   0.41952343    1.3218216    1.7475808    3.6289932 
15160000    0.8697871 7.1614153e-05   0.43270369  0.029201386            0    0.4035023    1.2883721    1.7210758    5.3877205 
15165000   0.88547914 2.6954073e-05   0.41794429  0.018128208            0   0.39981608     1.311616    1.7295603    3.1096088 
15170000   0.93013236 -1.2157865e-05   0.37886847  0.014671896            0   0.36419657    1.3777586     1.756627    1.1341443 
15175000   0.83525982 -0.00010068692    0.5248696  0.020434009            0   0.50443559    1.2372286    1.7620982   -3.3930721 
15180000    0.8897299 2.7068976e-05   0.48065516  0.014507919            0   0.46614724    1.3179124    1.7985676    3.1844992 
15185000   0.94324694 7.5131458e-05   0.40538437 0.0021971477            0   0.40318722    1.3971845    1.8025689    5.6492995 
15190000   0.92110017 -5.4818916e-06   0.41942502 0.0042579584            0   0.41516706    1.3643796    1.7838046    1.5031318 
15195000   0.90338265 5.8150486e-05    0.4463642  0.034578734            0   0.41178546    1.3381355    1.7844997    4.7618046 
15200000   0.92177429 8.736991e-05   0.43147613  0.023038063            0   0.40843807    1.3653782    1.7968543    6.2701937 
15205000   0.94911433 -6.5825596e-05   0.41578852  0.027834544            0   0.38795397    1.4058756    1.8216641   -1.5486064 
15210000   0.93906998 -5.121387e-05   0.43728208  0.023213828            0   0.41406825    1.3909974    1.8282795  -0.79387063 
15215000   0.94004274 -9.66441e-06   0.45838664  0.013595451            0   0.44479118    1.3924383    1.8508249    1.3560072 
15220000   0.94629959 -0.00014782544   0.46080224  0.028510881            0   0.43229136    1.4017063    1.8625085    -5.706154 
15225000   0.89787599 -0.00010392438   0.48089089  0.032979765            0   0.44791113    1.3299788    1.8108697   -3.5100584 
15230000   0.87052483 5.2698405e-05   0.50255327  0.002780234            0   0.49977304    1.2894649    1.7920182    4.4901765 
15235000   0.88140545 -4.7388714e-05    0.4596687 0.0025917058            0   0.45707699    1.3055818    1.7652505  -0.66105162 
15240000   0.90445845 -8.5724297e-05    0.4212853  0.010959332            0   0.41032597    1.3397291    1.7610144   -2.6280696 
15245000   0.87002267 -0.00012992094   0.48442341  0.012880553            0   0.47154286    1.2887211    1.7731445   -4.8788075 
15250000   0.87102541 -9.7640915e-05   0.47590602 0.0098070244            0     0.466099    1.2902064    1.7661124   -3.2331024 
15255000   0.85121034 -0.00017765968   0.48219902 0.0072803442            0   0.47491868    1.2608553    1.7430543   -7.3531213 
15260000   0.92391896 3.0237542e-05   0.36728873  0.012763713            0   0.35452502     1.368555    1.7358437    3.2840058 
15265000     0.880657 5.809288e-05   0.42743168  0.010593692            0   0.41683799    1.3044732    1.7319049    4.7062603 
15270000   0.90025764 -2.8779346e-05   0.40549814 0.0057159723            0   0.39978216    1.3335066    1.7390048   0.26550225 
15275000   0.84437153 -5.9097439e-05   0.50523062  0.014267438            0   0.49096318    1.2507253     1.755956   -1.2698329 
15280000   0.87750918 -0.00012121347   0.44526338  0.021303183            0   0.42396019    1.2998105    1.7450738   -4.4610561 
15285000   0.87917815 9.9698528e-06   0.46233444  0.024152165            0   0.43818228    1.3022826    1.7646171    2.2750735 
15290000   0.93121758 -3.3315851e-05   0.41740256 0.0066239923            0   0.41077857     1.379366    1.7967686  0.090997037 
15295000   0.91523204 -5.2026472e-05   0.44994799 0.0048196568            0   0.44512834    1.3556875    1.8056355  -0.85811991 
15300000   0.90921847 2.2828694e-05   0.46409572 0.0081261287            0   0.45596959    1.3467799    1.8108756    2.9797047 
15305000   0.89520264 -4.3995649e-05   0.54040661  0.024315778            0   0.51609083    1.3260189    1.8664255  -0.38615169 
15310000   0.94655855 -4.2100306e-05   0.49494214  0.044649672            0   0.45029247    1.4020898     1.897032  -0.25850367 
15315000   0.92186643 -0.00011468935   0.55760608    0.0358315            0   0.52177458    1.3655147    1.9231207   -3.9489739 
15320000   0.96180835 -7.307866e-05   0.50738283  0.011630921            0   0.49575191    1.4246786    1.9320614    -1.809566 
15325000   0.92186219 -1.6287384e-05   0.57318137   0.02749899            0   0.54568238    1.3655084    1.9386897    1.1047757 
15330000    1.0135414 -3.7209954e-05   0.47242486  0.020177096            0   0.45224777    1.5013082     1.973733  0.068583384 
15335000   0.95495652 -3.7163379e-06   0.57954303   0.03284053            0    0.5467025    1.4145293    1.9940724    1.8037959 
15340000   0.96897244 6.8438144e-06   0.57298227  0.033376937            0   0.53960533    1.4352904    2.0082727     2.358676 
15345000    1.0460846 3.7029744e-05   0.44956964 0.0084792101            0   0.44109043    1.5495128    1.9990825    3.8950053 
15350000   0.96403325 -6.6659519e-05   0.57511074 0.0074960937            0   0.56761465    1.4279742     2.003085   -1.4098824 
15355000     1.073145 -6.7705959e-05    0.4022169   0.01163569            0   0.39058121     1.589596    1.9918129   -1.4747322 
15360000   0.98136193 8.3551998e-06   0.53478823  0.019293057            0   0.51549517    1.4536424    1.9884306    2.4162168 
15365000   0.95350528 -7.4414284e-05   0.58109302   0.04808524            0   0.53300778    1.4123797    1.9934727   -1.8165386 
15370000   0.97261308 -7.2740531e-05   0.56199383  0.026500049            0   0.53549378    1.4406831     2.002677   -1.7216382 
15375000    0.9442557 8.1300201e-06   0.60731989  0.017884038            0   0.58943585    1.3986788    2.0059987    2.4222557 
15380000    1.0014716 -9.0074028e-06   0.51406906  0.054161181            0   0.45990788    1.4834297    1.9974988    1.5363198 
15385000    1.0105038 -0.00012274766   0.51021636  0.028016062            0    0.4822003    1.4968088    2.0070251   -4.2776549 
15390000    1.0612552 -8.421642e-05    0.4242645  0.010204442            0   0.41406006    1.5719842    1.9962487    -2.315632 
15395000    1.0074711 8.1066733e-05   0.53137345  0.018833155            0    0.5125403    1.4923166      2.02369    6.1743067 
15400000    1.0456111 0.00012004903   0.51928552  0.021514306            0   0.49777122    1.5488114     2.068097    8.2146075 
15405000    0.9476639 6.2985017e-05   0.66287058  0.030439002            0   0.63243157    1.4037272    2.0665977    5.2914306 
15410000    1.1156617 4.0033107e-05   0.41187374  0.034146393            0   0.37772734    1.6525738    2.0644476    4.1141427 
15415000    1.0662795 0.00010717158    0.4734902  0.025161772            0   0.44832843    1.5794264    2.0529166    7.5401015 
15420000    1.0405596 -1.0211358e-05   0.49780541 0.0096976948            0   0.48810772    1.5413289    2.0391343    1.5163128 
15425000    1.0001106 -0.00011090254   0.52303538 0.0057877255            0   0.51724765    1.4814138    2.0044492   -3.6737609 
15430000   0.97522533 4.3893775e-06   0.55020529  0.015148368            0   0.53505693    1.4445525    1.9947578    2.2194939 
15435000    1.0139058 5.2754187e-05   0.51928524  0.014471674            0   0.50481357    1.5018479    2.0211331    4.7221475 
15440000    1.0096551 -8.5507977e-05   0.52539405  0.012668921            0   0.51272512    1.4955516    2.0209457   -2.3570627 
15445000    1.0406473 -9.5079001e-05   0.48565589 0.0049584911            0   0.48069739    1.5414588    2.0271147   -2.8409301 
15450000    1.0682244 7.8648108e-05   0.44123657 0.0044467563            0   0.43678981    1.5823075     2.023544    6.0503272 
15455000    1.0447273 4.1022965e-05   0.47578929  0.014852297            0   0.46093699    1.5475024    2.0232917    4.1236675 
15460000    1.0111073 -2.7009803e-05   0.50145686   0.01304319            0   0.48841367    1.4977026    1.9991595   0.61625758 
15465000    1.0257707 -7.51593e-06   0.48276788   0.02811566            0   0.45465222    1.5194229    2.0021908    1.6173752 
15470000    1.0149633 -5.9699183e-05     0.500041  0.025665731            0   0.47437527    1.5034143    2.0034553   -1.0531428 
15475000   0.97610515 -4.6902154e-05   0.54208293  0.038776177            0   0.50330675    1.4458558    1.9879387   -0.4134516 
15480000   0.96822313 -1.1758767e-05   0.54256104  0.054986521            0   0.48757452    1.4341805    1.9767415    1.3746927 
15485000   0.94280849 7.3397874e-06   0.59539836  0.022675485            0   0.57272287    1.3965351    1.9919334    2.3677306 
15490000    1.0498427 -4.6942274e-05   0.45786018  0.019382508            0   0.43847767    1.5550795    2.0129396  -0.39050479 
15495000    1.0065855 5.4345742e-05   0.51187465 0.0059396882            0   0.50593497    1.4910048    2.0028794    4.7853814 
15500000    1.0102362 5.6136609e-05   0.49221106 0.0074272131            0   0.48478384    1.4964124    1.9886235    4.8628178 
15505000    1.0968033 -3.5026657e-05    0.3832948 0.0072354987            0    0.3760593    1.6246399    2.0079347   0.21456983 
15510000     1.019776 -0.00019427425    0.4876085   0.01163216            0   0.47597634    1.5105433    1.9981518     -7.94869 
15515000    1.0525113 -0.00011908189   0.45292792 0.0069372525            0   0.44599066    1.5590323    2.0119603   -4.0850325 
15520000    1.0243833 5.2223741e-05   0.49497167  0.008060627            0   0.48691104    1.5173678    2.0123395     4.686195 
15525000    1.0440659 -7.7045644e-06   0.44522839  0.014742772            0   0.43048562    1.5465226     1.991751    1.5972773 
15530000   0.97220398 -2.9120648e-05   0.53445615 0.0071033517            0    0.5273528    1.4400771    1.9745333   0.48355612 
15535000    1.0385604 -7.6224519e-06   0.48478878 0.0052954459            0   0.47949333    1.5383677    2.0231564    1.6328869 
15540000     1.020465 -1.2225744e-05   0.49787515   0.00344352            0   0.49443163    1.5115638     2.009439    1.3834809 
15545000    1.0039768 3.2164712e-05   0.51674853  0.020800954            0   0.49594758    1.4871407    2.0038892    3.6507224 
15550000    0.9511034 0.00011163472   0.57217446   0.02146617            0   0.55070829    1.4088219    1.9809964    7.6966943 
15555000     1.051556 9.2749442e-05   0.42069564  0.039391465            0   0.38130417    1.5576174     1.978313    6.7270844 
15560000   0.99269198 -4.2484373e-05    0.5055203  0.017282264            0   0.48823804     1.470425    1.9759453  -0.19925461 
15565000    1.0087673 3.2910461e-05   0.46109675  0.013368922            0   0.44772782    1.4942365    1.9553333    3.6403489 
15570000   0.97246571 6.3449032e-05   0.51185855  0.042333678            0   0.46952487    1.4404648    1.9523234    5.2009138 
15575000   0.93874564 -2.2371784e-05   0.53409665  0.039659876            0   0.49443677     1.390517    1.9246136   0.77917827 
15580000   0.90530108 -2.5630547e-05   0.59203344  0.020107555            0   0.57192588    1.3409772    1.9330107   0.62072665 
15585000   0.95241383 -5.3357207e-05   0.53395429  0.024093578            0   0.50986071     1.410763    1.9447173  -0.78717171 
15590000    1.0116728 -4.4863766e-05   0.45258939  0.009364406            0   0.44322498    1.4985403    1.9511297  -0.34589512 
15595000   0.95281223 3.8450691e-05   0.53702152 0.0041703237            0    0.5328512    1.4113531    1.9483746      3.91705 
15600000   0.97756698 2.0486979e-05   0.49946342  0.023449671            0   0.47601375    1.4480211    1.9474845    2.9964178 
15605000   0.93268393 -8.2482267e-05   0.59167936  0.031247318            0   0.56043204    1.3815381    1.9732174   -2.2498747 
15610000   0.96929909 -6.6597566e-05    0.5330544  0.038538426            0   0.49451598    1.4357743    1.9688287   -1.4409667 
15615000   0.91696306 5.6378301e-05   0.60869744  0.024905639            0    0.5837918    1.3582515     1.966949     4.853518 
15620000   0.89780222 5.5571418e-05   0.62311666 0.0044942112            0   0.61862244    1.3298695    1.9529862    4.7982428 
15625000   0.98039058 6.0693615e-05   0.48292027 0.0073255716            0    0.4755947    1.4522035    1.9351238    5.0426369 
15630000    1.0107837 8.1477688e-05   0.42479907  0.012326626            0   0.41247244    1.4972233    1.9220224      6.09368 
15635000   0.94190226 1.3223715e-05   0.54022349  0.028025797            0    0.5121977    1.3951927    1.9354162    2.6124704 
15640000   0.95282371 -0.00012904313   0.49728657   0.01850677            0    0.4787798    1.4113701    1.9086567   -4.6983516 
15645000   0.97990854 -0.00013746042   0.48465337  0.024616647            0   0.46003672    1.4514895    1.9361429   -5.1018308 
15650000   0.94721124 4.8410003e-05    0.5106622  0.032572942            0   0.47808926    1.4030566    1.9137188     4.392311 
15655000    0.9061588 0.00012351354   0.57565408  0.041893104            0   0.53376097    1.3422477    1.9179018    8.2417949 
15660000   0.94392553 9.4093305e-05   0.52586379  0.044707315            0   0.48115648    1.3981897    1.9240535    6.7416307 
15665000   0.87075017 8.6146779e-05   0.62455325  0.027770483            0   0.59678276    1.2897987    1.9143519     6.325067 
15670000   0.94642516 3.4728242e-05   0.49699374  0.032914784            0   0.46407896    1.4018923     1.898886     3.676972 
15675000   0.88601022 -3.5404401e-07   0.60354234  0.019622529            0   0.58391981    1.3124026     1.915945    1.8978179 
15680000   0.97230352 5.5083999e-05   0.50031088  0.019666837            0   0.48064405    1.4402246    1.9405355    4.7608362 
15685000   0.96616054 0.00011303571   0.49885289  0.008932901            0   0.48991999    1.4311253    1.9299782    7.7174068 
15690000   0.95858985 7.4074013e-05   0.47315421 0.0045301421            0   0.46862406    1.4199112    1.8930654    5.6856549 
15695000    0.9198959 3.4414885e-05   0.55150616 0.0060654606            0    0.5454407    1.3625958     1.914102    3.6761441 
15700000   0.98425686 7.8966034e-05   0.42376537  0.014019981            0   0.40974539    1.4579305    1.8816958    5.9247568 
15705000   0.96312537 3.839681e-05   0.47170552  0.017959538            0   0.45374598    1.4266295     1.898335    3.8642516 
15710000   0.95523124 1.9789757e-05    0.4425514 0.0027309726            0   0.43982043    1.4149363    1.8574877    2.8707232 
15715000   0.92954194 2.120515e-05   0.51396708 0.00021423841            0   0.51375284     1.376884    1.8908511    2.9765548 
15720000   0.92516778 3.9829017e-05   0.56263863 0.0029866932            0   0.55965194    1.3704048    1.9330434    3.9722891 
15725000   0.94882287 1.1555379e-06   0.55489498 0.0079208382            0   0.54697414    1.4054439    1.9603389    2.0195024 
15730000   0.95901542 -1.6571666e-05   0.54393617  0.014086702            0   0.52984947    1.4205416    1.9644778    1.1160085 
15735000   0.96378462 3.5021585e-05   0.52755173 0.0093542147            0   0.51819752     1.427606    1.9551577    3.7482629 
15740000   0.94981621 4.6794926e-05   0.56449198  0.012049234            0   0.55244274    1.4069153    1.9714072    4.3673075 
15745000   0.93374902 0.00010219814    0.5904054  0.019450009            0   0.57095539    1.3831157    1.9735211     7.206066 
15750000    1.0686856 0.00010293306    0.3793548 0.0092863742            0   0.37006843    1.5829905    1.9623453    7.2325181 
15755000    1.0065126  1.12335e-05   0.51307721  0.025949754            0   0.48712745    1.4908968     2.003974    2.5791292 
15760000   0.96557913 -5.0197789e-05   0.56638736  0.020115466            0    0.5462719    1.4302641    1.9966514  -0.57347535 
15765000   0.99138175 -8.7670093e-05    0.5462336 0.0034627099            0   0.54277089    1.4684842    2.0147178    -2.473991 
15770000   0.98579288 -5.2009333e-05   0.53912235            0            0   0.53912235    1.4602057    1.9993281  -0.66354977 
15775000    1.0046989 4.2962489e-05    0.5109019 0.0025958386            0   0.50830606    1.4882102    1.9991121    4.1987915 
15780000    0.9767493 1.7515995e-07   0.52503385   0.01739773            0   0.50763612    1.4468099    1.9718438    1.9808119 
15785000   0.92580121 -4.0647935e-05   0.62777543  0.024421991            0   0.60335344     1.371343    1.9991185 -0.082055783 
15790000   0.97874444 -9.2186595e-05   0.56767217  0.018334762            0   0.54933741    1.4497652    2.0174374   -2.7025163 
15795000   0.98541034 -0.00018198995   0.55803152  0.010013411            0   0.54801811    1.4596391    2.0176706   -7.3002147 
15800000    1.0354794 -0.00015379525    0.4815689   0.01483991            0   0.46672899    1.5338039    2.0153728    -5.858944 
15805000   0.99956198 -8.5981842e-05   0.54088129  0.050203862            0   0.49067743    1.4806012    2.0214825   -2.3807879 
15810000   0.96305012 2.4694653e-05   0.64618116   0.10038926            0    0.5457919     1.426518    2.0726991    3.3370654 
15815000   0.94799544 0.00014389456   0.66990622  0.049449271            0   0.62045695    1.4042182    2.0741245    9.4415261 
15820000    1.0569339 1.5513523e-05   0.49146591  0.016301725            0   0.47516419    1.5655833    2.0570492    2.8513416 
15825000   0.97705774 -7.7957399e-05   0.61867555  0.018011761            0   0.60066379    1.4472668    2.0659423   -1.9254765 
15830000    1.0305516 3.3298769e-05    0.5569889 0.0092360943            0   0.54775281    1.5265045    2.0834934    3.7883904 
15835000    1.1085245 0.00014138068   0.46021052 0.0097233311            0   0.45048719    1.6420019    2.1022124    9.3409032 
15840000     1.042505 -3.0114794e-05   0.55322155  0.020402494            0   0.53281906    1.5442105     2.097432   0.55555456 
15845000    1.0371487 -7.3070012e-05   0.57057625  0.042960727            0   0.52761553    1.5362765    2.1068528   -1.6343318 
15850000   0.99941577 7.4850421e-05     0.597229  0.026105101            0    0.5711239    1.4803846    2.0776136    5.9099552 
15855000    1.0178646 5.7960221e-05   0.56187828  0.082109203            0   0.47976907    1.5077119    2.0695902    5.0371535 
15860000    1.0912706 -5.8184727e-05   0.47037136   0.01426639            0   0.45610497    1.6164446    2.0868159  -0.89224212 
15865000     1.035984 -2.5682878e-05   0.53545485  0.013165296            0   0.52228955    1.5345514    2.0700062   0.75504286 
15870000    1.0791691  6.25546e-05   0.48943009  0.029599109            0   0.45983098    1.5985193    2.0879494    5.2907449 
15875000    1.0003278 6.7881637e-05   0.64260098  0.024741139            0   0.61785984    1.4817356    2.1243366    5.5998764 
15880000    1.0405668 -3.1338592e-06   0.55953854  0.023102258            0   0.53643628    1.5413395     2.100878    1.9404244 
15885000   0.97066804 -0.00010270517   0.63171803  0.011423652            0   0.62029438     1.437802    2.0695201   -3.1889846 
15890000    1.1259534 -1.2484967e-05   0.40023647 0.0057374034            0   0.39449907    1.6678185     2.068055    1.4288246 
15895000    1.0504306 4.600192e-05   0.52362124 0.0033175728            0   0.52030366    1.5559503    2.0795715    4.4348698 
15900000    1.0032674 -2.0165515e-05    0.5667587 0.0023571499            0   0.56440155    1.4860898    2.0528485    1.0203742 
15905000    1.0211265 -5.0895506e-05   0.59272195  0.030535213            0   0.56218674    1.5125436    2.1052655   -0.5005844 
15910000    1.0373152 -6.4284911e-05   0.54721862  0.029652753            0   0.51756587    1.5365231    2.0837417   -1.2076457 
15915000    1.0685082 9.6265874e-06   0.50485706 0.0078700332            0   0.49698703    1.5827278    2.0875849    2.5804661 
15920000    1.0256474 0.00010798204   0.57282511 0.0032210494            0   0.56960406    1.5192403    2.0920654    7.6207457 
15925000    1.0467208 2.0213703e-05   0.56572319  0.014107769            0   0.55161542    1.5504552    2.1161783    3.1511199 
15930000    1.0108017 -5.2018389e-05   0.66422046  0.011707664            0   0.65251279      1.49725    2.1614704  -0.50187108 
15935000    1.1525121 5.8324321e-05   0.46802687  0.014049457            0   0.45397741    1.7071585    2.1751854    5.1613907 
15940000     1.071346 4.2793838e-05   0.57067182  0.032569948            0   0.53810187    1.5869312     2.157603    4.3486475 
15945000    1.0448113  3.73468e-05   0.62808977  0.042838058            0   0.58525172    1.5476267    2.1757165    4.0878726 
15950000     1.125571 0.0001581775   0.53330791  0.013361033            0   0.51994687    1.6672521      2.20056    10.299248 
15955000    1.1541939 -2.0927781e-05   0.51970328  0.031336032            0   0.48836725    1.7096498    2.2293531    1.1578507 
15960000       1.0585 -0.00019558084   0.59969486  0.018165147            0   0.58152972    1.5679032     2.167598   -7.8461408 
15965000    1.0745465 -0.00010505832   0.54748707  0.015467396            0   0.53201967     1.591672    2.1391591   -3.2398267 
15970000    1.0468647 -8.6354598e-05   0.62480946  0.024860298            0   0.59994917    1.5506684    2.1754778   -2.2458776 
15975000    1.1474708 -0.00012871701   0.47505857 0.0071819074            0   0.46787666    1.6996911    2.1747496   -4.4155611 
15980000    1.1401171 -0.00011648215   0.49806003  0.015951017            0   0.48210902    1.6887984    2.1868584   -3.7770276 
15985000    1.1079393 -5.8161013e-05    0.5236957  0.024849799            0    0.4988459    1.6411351    2.1648308  -0.81301303 
15990000    1.0652918 -8.0733627e-05   0.61889229  0.021378239            0   0.59751405    1.5779635    2.1968558   -1.9367059 
15995000    1.0911711 1.5754018e-05   0.59975748  0.031928488            0   0.56782899    1.6162972    2.2160547    3.0226604 
16000000    1.1972149 2.2046267e-05   0.42762199   0.01637406            0   0.41124793    1.7733746    2.2009966    3.3297655 
16005000    1.0566688 -0.00011108136   0.64474777 0.0052792054            0   0.63946857    1.5651906    2.2099384   -3.4774272 
16010000    0.9976372 -3.6284633e-05   0.68386808  0.040163937            0   0.64370414    1.4777501    2.1616182   0.30384497 
16015000    1.0649584 -0.00013518508   0.59345919  0.034058314            0   0.55940087    1.5774696    2.1709288   -4.7505475 
16020000    1.0453733 -0.00010528881   0.62815806  0.047110427            0   0.58104763    1.5484592    2.1766173     -3.21417 
16025000    1.1145488 2.4334114e-05   0.52053715  0.022491005            0   0.49804614    1.6509255    2.1714626    3.4173693 
16030000    1.0858069 -3.9904481e-05   0.56566631   0.01471243            0   0.55095388    1.6083515    2.1740179   0.13090841 
16035000    1.1149348 3.128154e-05   0.55845667  0.017548731            0   0.54090794    1.6514972    2.2099539    3.8115687 
16040000   0.99406373 0.00019413327   0.71337564   0.06696067            0   0.64641497    1.4724569    2.1858325    12.125456 
16045000    1.1393768 0.00012460826   0.50388914  0.034587818            0   0.46930133    1.6877019     2.191591     8.571534 
16050000    1.0980768 7.2339594e-06   0.56307005  0.015401649            0   0.54766841    1.6265263    2.1895964    2.5599751 
16055000    1.0470472 0.00010799452    0.6096101  0.011776511            0   0.59783359    1.5509387    2.1605488    7.6898683 
16060000    1.0272669 0.00011798584   0.61098124  0.014982628            0   0.59599861    1.5216391    2.1326204    8.1734953 
16065000     1.095354 -7.3311767e-06   0.48935934  0.014767571            0   0.47459177    1.6224931    2.1118524    1.7364962 
16070000   0.98288238 -9.2453235e-05   0.61975774 0.0079304296            0   0.61182731    1.4558945    2.0756523   -2.6579533 
16075000    1.0463319 -1.2944222e-05   0.49949289 0.0011590278            0   0.49833386    1.5498791     2.049372    1.3866279 
16080000    1.0138649 -4.306147e-05   0.51165158 0.00023661667            0   0.51141496    1.5017874     2.013439  -0.19130827 
16085000   0.98012216 -0.0002006986   0.54040145  0.003315469            0   0.53708598    1.4518059    1.9922074   -8.2835609 
16090000   0.95523138 -0.00010192411   0.56613793  0.033481231            0    0.5326567    1.4149365    1.9810744   -3.2374402 
16095000   0.99645918 -3.1959868e-05   0.49842357 0.0051153972            0   0.49330818    1.4760052    1.9744287    0.3380835 
16100000   0.98493753 6.2200346e-06   0.50021753 0.0029086377            0   0.49730889    1.4589387    1.9591562     2.277622 
16105000   0.93096071 7.2642415e-05   0.54383649 0.0047848102            0   0.53905168    1.3789855     1.922822    5.6421137 
16110000    1.0166357 6.1984938e-05    0.4598416 0.0030193586            0   0.45682224    1.5058917    1.9657333    5.1393621 
16115000   0.96360001 3.2839618e-05   0.54024471  0.017601955            0   0.52264276    1.4273325    1.9675772    3.6489657 
16120000   0.95274607 8.0563596e-05   0.54371423   0.04389085            0   0.49982338    1.4112551    1.9549694    6.0798255 
16125000   0.95436859 0.00016745812   0.55001037  0.055032381            0   0.49497799    1.4136585    1.9636688    10.537525 
16130000    1.0034478 0.00011445049   0.45722394  0.029974743            0    0.4272492     1.486357     1.943581    7.8034463 
16135000   0.95097744 8.2319722e-06    0.5369785  0.018563264            0   0.51841524    1.4086353    1.9456138    2.3670908 
16140000   0.97193593 9.3619172e-06   0.51062488  0.019206279            0    0.4914186    1.4396801     1.950305    2.4296351 
16145000   0.97311882 6.1612272e-05   0.50781794  0.049551596            0   0.45826634    1.4414323    1.9492502    5.1037985 
16150000   0.94899552 2.5974661e-05   0.56284612  0.071248827            0   0.49159729    1.4056996    1.9685457    3.2984484 
16155000   0.94965097 -8.413052e-05   0.56442538  0.020424883            0   0.54400049    1.4066705    1.9710959   -2.3363868 
16160000   0.97680395 -6.041796e-05   0.50908733  0.010916717            0   0.49817061    1.4468909    1.9559782   -1.1374214 
16165000    1.0109822 -8.9841548e-05   0.46773336  0.010120221            0   0.45761314    1.4975174    1.9652508   -2.6346364 
16170000    1.0183571 -7.6035249e-05   0.45657239  0.011083039            0   0.44548935    1.5084414    1.9650138   -1.9279909 
16175000   0.98457732 3.6108248e-05   0.53273876  0.052328223            0   0.48041054    1.4584052    1.9911439    3.8398862 
16180000    1.0027794 7.5372456e-05   0.50429911  0.021165651            0   0.48313346     1.485367    1.9896662    5.8487359 
16185000   0.97418587 7.5451196e-06   0.52956116  0.025299404            0   0.50426175    1.4430128     1.972574    2.3588841 
16190000   0.96373517 -0.0001043283   0.56416634  0.016540053            0   0.54762629    1.4275327    1.9916991   -3.3499099 
16195000    1.0080729 -0.00011703362   0.48237062  0.015866634            0   0.46650399     1.493208    1.9755786   -4.0165427 
16200000   0.99850955 -3.3486953e-05    0.4852915 0.0025358221            0   0.48275567    1.4790423    1.9643338   0.24980176 
16205000    1.0087046 4.7668165e-06   0.46427837 0.0057629775            0   0.45851539    1.4941437    1.9584221    2.2024831 
16210000    1.0138127 6.484004e-05   0.46563914  0.018075977            0   0.44756316    1.5017101    1.9673492    5.2871593 
16215000   0.98099693 9.4757354e-05   0.48845676  0.027778222            0   0.46067854    1.4531017    1.9415585     6.793135 
16220000   0.95885796 0.00015050784   0.52735163  0.016372567            0   0.51097906    1.4203084      1.94766    9.6536612 
16225000    1.0213803 0.00014611944   0.42546523  0.015645195            0   0.40982004    1.5129195    1.9383848    9.4197001 
16230000   0.92202478 6.4171052e-06    0.5545871  0.029239745            0   0.52534735    1.3657492    1.9203363    2.2488921 
16235000   0.93756917 -7.2030432e-05   0.51555522  0.040856763            0   0.47469846    1.3887743    1.9043296   -1.7836286 
16240000   0.93529925 8.4460985e-06   0.52602789  0.054530325            0   0.47149756     1.385412    1.9114399    2.3438802 
16245000   0.94458348 0.00010267096   0.52983143  0.040676062            0   0.48915537    1.3991643    1.9289957    7.1857491 
16250000   0.93083567 6.3088433e-05   0.56097682  0.042845568            0   0.51813125    1.3788003    1.9397772    5.1699049 
16255000    0.9612773 -9.9141478e-06   0.51079721  0.038103802            0   0.47269341     1.423892    1.9346892    1.4270848 
16260000   0.96088579 -9.2903906e-05   0.50702416 0.0052963997            0   0.50172776    1.4233121    1.9303362   -2.8263437 
16265000    1.0442772 -6.6016309e-05   0.38280084 0.00042069792            0   0.38238014    1.5468356    1.9296365   -1.4503986 
16270000   0.95421793 5.6604583e-05   0.52588944 0.00030944497            0      0.52558    1.4134353    1.9393248    4.8374794 
16275000   0.99842476 4.386873e-05   0.43336337  0.013696277            0    0.4196671    1.4789167      1.91228     4.158359 
16280000   0.95488354 -1.4375994e-05   0.49918937  0.024447157            0   0.47474221    1.4144212    1.9136106    1.1775597 
16285000    1.0066432 5.6999806e-05   0.42115736 0.0077399366            0   0.41341742    1.4910903    1.9122477    4.8306377 
16290000      1.02503 6.5418935e-05   0.41700976 0.0047276796            0   0.41228208    1.5183257    1.9353354    5.2847849 
16295000   0.99261683 1.5602749e-05   0.49029628  0.018830734            0   0.47146554    1.4703137    1.9606099    2.7594707 
16300000   0.98316019 9.4398129e-05   0.51153966  0.019029106            0   0.49251055     1.456306    1.9678457    6.8010299 
16305000    1.0244942 6.6147306e-05   0.44921142   0.02157304            0   0.42763838     1.517532    1.9667435    5.3534855 
16310000   0.99481254 -3.6975903e-05   0.51444561  0.020152755            0   0.49429285    1.4735661    1.9880117   0.09484546 
16315000    1.0083532 -2.8714125e-05   0.47610999  0.009361552            0   0.46674844    1.4936231    1.9697331    0.4995699 
16320000   0.96344905 9.6446979e-06   0.56093241  0.015234097            0   0.54569831    1.4271089    1.9880413    2.4818498 
16325000    1.0486339 9.3664131e-05   0.45843961  0.038345733            0   0.42009388    1.5532889    2.0117285     6.807332 
16330000    1.0503096 0.00013998997   0.47489475  0.021626018            0   0.45326874     1.555771    2.0306658    9.1981523 
16335000     1.025059 -1.2305544e-05   0.51121994  0.012508205            0   0.49871173    1.5183687    2.0295886    1.3995448 
16340000    1.0432014 -7.7154117e-05   0.47736038  0.020471369            0   0.45688902    1.5452421    2.0226025   -1.9276883 
16345000    1.0164845 -3.6810715e-05    0.5030514  0.012985248            0   0.49006615    1.5056676     2.008719   0.12401045 
16350000   0.97605234 -4.1877515e-05   0.54665038  0.025214277            0   0.52143611    1.4457775    1.9924279  -0.15170084 
16355000   0.99080249 -0.00010083976    0.5268772  0.026292504            0    0.5005847    1.4676262    1.9945034   -3.1684925 
16360000      1.03027 -1.07813e-05   0.46010883  0.025580492            0   0.43452834    1.5260874    1.9861963    1.4341937 
16365000   0.94365557 9.1032614e-05   0.57087171  0.011699926            0   0.55917178    1.3977898    1.9686615    6.6295313 
16370000    1.0510674 -2.1984573e-05   0.43250857   0.04012898            0   0.39237959    1.5568936    1.9894021   0.86379202 
16375000   0.98182128 -0.00010681772   0.54611726  0.012175188            0   0.53394207    1.4543228      2.00044   -3.4686272 
16380000   0.99127389 -8.7405737e-05   0.54084658 0.0019638073            0   0.53888277    1.4683244     2.009171   -2.4660027 
16385000   0.97160362 -5.3005565e-05   0.56837308  0.003216126            0   0.56515696    1.4391879    2.0075609  -0.70632398 
16390000   0.92059785 0.00017755158   0.64835141  0.019792658            0   0.62855875    1.3636356     2.011987    11.102628 
16395000   0.97131863 0.00011225186   0.58833905  0.021108354            0    0.5672307    1.4387657    2.0271048    7.7743999 
16400000    1.0365007 3.5591292e-05   0.55623514  0.010512474            0   0.54572267    1.5353166    2.0915517    3.9138259 
16405000    1.0594176 -5.5891493e-05    0.5018546 0.0080232194            0   0.49383138    1.5692624     2.071117  -0.79052748 
16410000   0.99847298 -0.00012762515   0.60008851  0.016907023            0   0.58318149    1.4789881    2.0790766   -4.4553311 
16415000     1.062168 0.00015184269   0.49333384  0.029377217            0   0.46395662    1.5733363    2.0666702     9.841016 
16420000    1.0031895 7.0349887e-05   0.58461568  0.032875244            0   0.55174044    1.4859745    2.0705901    5.6725044 
16425000    1.0038178 -8.7158728e-05   0.59044547  0.021275511            0   0.56916996    1.4869052    2.0773506   -2.3851762 
16430000    1.0172532 3.411582e-05   0.57804745 0.0072565142            0   0.57079094    1.5068062    2.0848537    3.8315837 
16435000   0.98921996 0.00017676173    0.6513493  0.015634079            0   0.63571522    1.4652821    2.1166314    11.166832 
16440000   0.98154672 0.00013338081   0.66892168  0.081024762            0   0.58789692    1.4539161    2.1228378    8.9519352 
16445000    1.0558673 -5.6469485e-06   0.58672798  0.088931789            0   0.49779619    1.5640035    2.1507315    1.8616077 
16450000    1.1235132 -0.00011593019   0.46798651  0.034717403            0    0.4332691    1.6642039    2.1321904   -3.8034354 
16455000    1.1148342 -8.3177892e-05   0.47970241  0.038196673            0   0.44150574    1.6513482    2.1310506   -2.1276575 
16460000    1.0081963 -2.0678304e-05   0.63944784  0.018794667            0   0.62065317    1.4933908    2.1328386    1.0741095 
16465000   0.99740219 1.3649986e-06   0.63584825 0.0095967074            0   0.62625155     1.477402    2.1132502    2.1831382 
16470000    1.0964271 2.662728e-05   0.46617616   0.00852899            0   0.45764717    1.6240827    2.0902589    3.4535756 
16475000    1.0162872 -3.259347e-06   0.58617471  0.018018426            0   0.56815628    1.5053754    2.0915501    1.9246715 
16480000    1.0423835 9.2086647e-05   0.58238637 0.0099114856            0   0.57247488    1.5440305    2.1264169    6.8412532 
16485000    1.0400896 5.1114087e-05   0.57249714  0.022931088            0   0.54956605    1.5406327    2.1131298    4.7301711 
16490000   0.97677781 -1.9605384e-05   0.66256408  0.028869556            0   0.63369453    1.4468521    2.1094162    1.1056206 
16495000    1.0739102 -1.6976834e-05   0.54566982 0.0089524268            0   0.53671739    1.5907295    2.1363994    1.2671854 
16500000   0.98819096 -0.00018734949   0.66006621  0.015458412            0   0.64460779    1.4637579    2.1238241   -7.4684697 
16505000    1.0277367 -0.00011613197   0.58240127  0.016150098            0   0.56625117     1.522335    2.1047362   -3.8412204 
16510000    1.0329451 -2.1274598e-05   0.55937189  0.004111372            0   0.55526052      1.53005    2.0894218    1.0001625 
16515000   0.99400806 -5.2652777e-06   0.61489428  0.025558521            0   0.58933576    1.4723744    2.0872687    1.8176865 
16520000    1.0036998 0.00012000859   0.59364812  0.050614681            0   0.54303344    1.4867304    2.0803785    8.2248181 
16525000    1.0497247 4.0897437e-05   0.51133932  0.022163533            0   0.48917579    1.5549047     2.066244    4.1601928 
16530000   0.98141646 -5.3212237e-05   0.59904694  0.013975636            0    0.5850713    1.4537231    2.0527701  -0.67169646 
16535000    1.0052877 -5.7252022e-05   0.57564867  0.011146862            0    0.5645018    1.4890824     2.064731  -0.86657249 
16540000    1.0000426 -5.9082627e-05   0.59600957  0.016106089            0   0.57990348    1.4813131    2.0773226  -0.94770786 
16545000   0.95965357 1.5262391e-05   0.64147762  0.020048303            0   0.62142932    1.4214868    2.0629645    2.8443989 
16550000    1.0350284 -2.271399e-06   0.53439186  0.016005274            0   0.51838659    1.5331358    2.0675276     1.951232 
16555000   0.92543433 -5.3733031e-05   0.67660424  0.022898553            0   0.65370569    1.3707996    2.0474038  -0.70372733 
16560000    1.0407818 -1.2244197e-05   0.49862162  0.037511863            0   0.46110976     1.541658    2.0402796    1.4133767 
16565000   0.98925491 5.2887699e-05   0.55802681  0.022571321            0   0.53545549    1.4653338    2.0233606    4.7312108 
16570000    1.0901765 -1.5758867e-05   0.41828959 0.0058302712            0   0.41245932    1.6148239    2.0331135    1.2262595 
16575000    1.0217572 5.5445899e-05   0.49683993  0.034416616            0   0.46242331    1.5134778    2.0103177    4.8491478 
16580000    1.0156225 8.9900789e-06   0.53738157  0.024390027            0   0.51299155    1.5043909    2.0417724    2.5020645 
16585000    1.0190713 7.6002031e-05   0.53389586 0.0068319022            0   0.52706396    1.5094993    2.0433952    5.9346992 
16590000    1.0134847 7.8732882e-05    0.5138727 0.0047228085            0    0.5091499    1.5012242    2.0150969    6.0462204 
16595000    1.0616489 -7.2057433e-05    0.4555269 0.0017928796            0   0.45373402    1.5725675    2.0280944   -1.6612462 
16600000    1.0098611 -6.3768482e-05   0.50969891  0.018115608            0    0.4915833    1.4958567    2.0055556   -1.2593907 
16605000   0.96432621 3.5802985e-05   0.57858566  0.043627287            0   0.53495838    1.4284082    2.0069939    3.8401067 
16610000   0.91926639 6.0425264e-05   0.64020032    0.0312604            0   0.60893992    1.3616633    2.0018637    5.0956372 
16615000    1.0208682 -3.0811969e-05   0.51370357  0.023421428            0   0.49028214     1.512161    2.0258646   0.44829175 
16620000    0.9573497 1.4867368e-05   0.63771881  0.037024645            0   0.60069417    1.4180742    2.0557931    2.8170023 
16625000   0.97579388 -2.4456319e-05   0.64860555  0.040619486            0   0.60798607    1.4453947    2.0940002   0.84183669 
16630000   0.95001334 -0.00013995099   0.66364831  0.049515148            0   0.61413316    1.4072073    2.0708556   -5.0946351 
16635000   0.94520528 -7.4649375e-05   0.66992686  0.029826221            0   0.64010064    1.4000853    2.0700122   -1.7520358 
16640000    1.0148385 -0.00012686703   0.54553165 0.0045865336            0   0.54094512    1.5032295    2.0487612   -4.4468309 
16645000   0.98984023 -0.0002301685   0.56215519  0.020323774            0   0.54183141    1.4662008     2.028356    -9.756271 
16650000    0.9727645 -7.5967877e-05   0.58951217   0.02129965            0   0.56821252    1.4409074    2.0304196   -1.8591357 
16655000   0.94611774 0.00014115504   0.65702307 0.0068215907            0   0.65020148    1.4014369      2.05846    9.2855982 
16660000    1.0804018 9.0883671e-05   0.47952953 0.0039174905            0   0.47561204    1.6003451    2.0798746    6.7331186 
16665000    1.1617472 -1.1160107e-05   0.40222025 0.0065630361            0   0.39565721    1.7208381    2.1230583    1.5516609 
16670000    1.0396788 -1.9166031e-05   0.57947355  0.013587792            0   0.56588576    1.5400242    2.1194978     1.138197 
16675000    1.0791522 3.7988443e-05   0.55680096  0.029588516            0   0.52721245    1.5984942    2.1552951    4.1003034 
16680000    1.0675462 3.1717097e-05   0.54902513  0.030278617            0   0.51874651    1.5813028     2.130328    3.7542433 
16685000    1.0383236 -6.5550096e-05   0.59740816  0.032017792            0   0.56539036    1.5380168     2.135425   -1.2207399 
16690000    1.0096227 -8.4749919e-05   0.64057392  0.019246918            0   0.62132701    1.4955036    2.1360776   -2.2031183 
16695000    1.1107215 -5.3690294e-05   0.51573182 0.0059253559            0   0.50980647    1.6452563    2.1609881  -0.58795496 
16700000    1.0825542 -4.443994e-06   0.59464925  0.033495634            0   0.56115362    1.6035335    2.1981827    1.9706502 
16705000    1.0695376 0.00010850997   0.60667324  0.020680478            0   0.58599276    1.5842525    2.1909258    7.7466364 
16710000    1.1159063 7.2935667e-05   0.51051307  0.018838914            0   0.49167415    1.6529362    2.1634492    5.8977554 
16715000   0.97986203 -7.8044236e-05   0.66537829  0.074699484            0   0.59067881    1.4514206    2.1167989    -1.879066 
16720000    1.1295866 -6.6619251e-05   0.44789013  0.023364784            0   0.42452534    1.6732002    2.1210904   -1.2898153 
16725000     1.095939 -1.1896695e-05   0.52506218 0.0073760963            0   0.51768609    1.6233597    2.1484219    1.5393111 
16730000    1.1176386 -2.8503805e-05   0.54895219  0.011384614            0   0.53756758    1.6555022    2.2044544   0.74505958 
16735000     1.083411 9.9396143e-05   0.59028152  0.011913063            0   0.57836845    1.6048026    2.1950841    7.2841667 
16740000    1.1850481 7.4070204e-05   0.43383601  0.016258707            0   0.41757731    1.7553524    2.1891885    5.9815829 
16745000    1.1080757 -2.0116851e-05    0.5675876  0.012440287            0   0.55514732    1.6413371    2.2089247     1.178942 
16750000     1.054581 1.9321241e-05    0.6174299  0.019303728            0   0.59812618    1.5620981     2.179528    3.1687756 
16755000    1.0862481 3.501894e-05   0.58808522  0.038551642            0   0.54953358     1.609005    2.1970902    3.9900599 
16760000    1.1066795 5.3319693e-05   0.54466908  0.051099843            0   0.49356923    1.6392689     2.183938    4.9139063 
16765000    1.2030952 -7.0361109e-06   0.41810392 0.0067692044            0   0.41133471    1.7820848    2.2001887    1.8399398 
16770000    1.1207338 6.9728387e-05   0.53526957  0.028298829            0   0.50697074    1.6600869    2.1953565    5.7654499 
16775000    1.1157526 9.8053583e-05   0.54907195  0.035177453            0    0.5138945    1.6527085    2.2017804    7.2221239 
16780000     1.119994 1.7600196e-05   0.53168024  0.021786987            0   0.50989325    1.6589912    2.1906714    3.0918015 
16785000    1.1012578 1.8079953e-05   0.55812404  0.036381773            0   0.52174227    1.6312382    2.1893622    3.1150558 
16790000    1.0183756 -3.0775744e-05   0.68307074  0.054491189            0   0.62857955    1.5084689    2.1915397   0.61582155 
16795000    1.0372086 -5.6531132e-05   0.62999892  0.072749757            0   0.55724917    1.5363653    2.1663642  -0.72802974 
16800000    1.1702051 0.00015964831   0.45171612  0.016730901            0   0.43498522    1.7333664    2.1850825    10.359076 
16805000    1.1060976 0.00027183591   0.53403389   0.03137975            0   0.50265414    1.6384071     2.172441     16.09044 
16810000    1.0892221 0.00013844605   0.58109241   0.01536104            0   0.56573137    1.6134103    2.1945027    9.2829406 
16815000    1.1300749 6.738084e-05   0.49916259  0.009377863            0   0.48978473    1.6739235     2.173086    5.6229851 
16820000    1.1365575 -2.6290639e-05   0.46100233   0.02726527            0   0.43373706    1.6835259    2.1445282   0.79844746 
16825000     1.013317 -6.8188356e-05    0.6310135  0.069494736            0   0.56151876    1.5009758    2.1319893   -1.3592545 
16830000    1.0768001 -3.0371668e-05   0.48564127  0.049083635            0   0.43655763    1.5950102    2.0806515   0.52562208 
16835000    1.0634556 5.9750901e-06   0.52969282  0.050727696            0   0.47896512    1.5752436    2.1049364     2.410861 
16840000    1.1436012 7.3662325e-05   0.42231733  0.014226051            0   0.40809128    1.6939593    2.1162766    5.8877876 
16845000     1.122267 4.0933857e-05   0.49948092  0.012783003            0   0.48669792    1.6623581     2.161839    4.2576524 
16850000    1.0756252 -5.652155e-05   0.56499043  0.030465872            0   0.53452456    1.5932698    2.1582602  -0.73564314 
16855000    1.1458987 1.0483231e-05     0.457993  0.011863227            0   0.44612977    1.6973625    2.1553555    2.6920969 
16860000    1.0286335 -1.7496065e-05   0.60195943  0.047680257            0   0.55427917    1.5236634    2.1256228    1.2298243 
16865000   0.98917261 -4.6501767e-06   0.64866203  0.040844277            0   0.60781775    1.4652119     2.113874    1.8757849 
16870000     1.114488 1.3121553e-05   0.41877485   0.02103959            0   0.39773526    1.6508354    2.0696102    2.7414337 
16875000    1.0101514 -7.942818e-05   0.52914448 0.0059557573            0   0.52318872    1.4962868    2.0254312   -2.0412916 
16880000    1.0183156 1.7290271e-05   0.49860871 0.0033625446            0   0.49524616      1.50838    2.0069888    2.8922506 
16885000    1.0208688 6.9883599e-05   0.48075291  0.011509737            0   0.46924317    1.5121619    1.9929148     5.570955 
16890000    1.0379597 4.7983229e-05   0.44781963  0.016341656            0   0.43147797    1.5374777    1.9852974    4.4420387 
16895000   0.98746085 -0.00011296766   0.53686513  0.026226805            0   0.51063832    1.4626764    1.9995415   -3.7844028 
16900000   0.98307667 2.7267424e-05   0.53972624 0.0097697956            0   0.52995645    1.4561823    1.9959086    3.3920006 
16905000    1.0232187 0.00015389333   0.44982004  0.026346056            0   0.42347399    1.5156427    1.9654628    9.8448014 
16910000    1.0101185 -4.9861138e-05   0.49090766  0.022580402            0   0.46832726     1.496238    1.9871457  -0.56574463 
16915000    0.9777098 -9.2355263e-05   0.51016487 0.0033491462            0   0.50681572    1.4482326    1.9583975    -2.770192 
16920000   0.92614863 -0.0001778894   0.57626668  0.014968177            0   0.56129851    1.3718577    1.9481243   -7.1598128 
16925000   0.94389681 5.6518815e-05   0.54485564  0.031349587            0   0.51350606    1.3981472    1.9430028    4.8367661 
16930000   0.91611525 0.00012388405   0.55420587  0.024763268            0    0.5294426    1.3569957    1.9112016    8.2540652 
16935000    1.0219931 -8.0752127e-05   0.42772882  0.022074931            0   0.40565389    1.5138272     1.941556   -2.1929529 
16940000   0.96968058 -6.5149657e-05   0.49782255  0.014883517            0   0.48293904    1.4363394    1.9341619   -1.4015006 
16945000     1.002797 0.0001129057   0.43611359   0.01434179            0    0.4217718    1.4853931    1.9215067    7.7022783 
16950000   0.96177146 1.0433573e-06   0.51053942  0.019623407            0   0.49091601     1.424624    1.9351634    1.9885833 
16955000   0.91041537 -0.00010808714     0.549014  0.066016049            0   0.48299795    1.3485528    1.8975668   -3.6364947 
16960000   0.90861849 -8.831185e-05   0.54183632  0.020598756            0   0.52123756    1.3458911    1.8877275   -2.6338393 
16965000   0.96756882 1.0135471e-05   0.44997868  0.032299633            0   0.41767905    1.4332113      1.88319    2.4021261 
16970000   0.93055768 5.3384691e-05   0.51243384  0.038116889            0   0.47431695    1.3783886    1.8908224    4.6241186 
16975000   0.94639274 2.177747e-05   0.47506406  0.007547584            0   0.46751648    1.4018443    1.8769083    2.9919148 
16980000   0.97027554 -0.00011840514   0.44108809  0.014534936            0   0.42655315    1.4372206    1.8783087   -4.1840342 
16985000    1.0145745 -2.7192046e-05   0.37536377  0.021416563            0   0.35394721    1.5028384    1.8782022   0.48596948 
16990000   0.95536563 0.00016691529    0.4629301  0.029753064            0   0.43317704    1.4151353    1.8780654    10.424128 
16995000   0.87322139 7.9709387e-05   0.58735484  0.042793605            0   0.54456124    1.2934592     1.880814    5.9619346 
17000000   0.94230311 0.0001135153   0.45605385  0.010157195            0   0.44589665    1.3957865    1.8518403    7.6638238 
17005000    0.9919166 9.3751941e-05   0.38358144  0.015739934            0    0.3678415    1.4692765    1.8528579    6.6529573 
17010000   0.93544944 6.9136719e-06   0.46039072  0.017457135            0   0.44293359    1.3856345    1.8460252    2.2000052 
17015000   0.88412121 6.2234163e-06   0.54128828  0.002505746            0   0.53878253    1.3096045    1.8508928    2.1695317 
17020000   0.95838403 -3.7218936e-05    0.4358548 0.00029779937            0     0.435557    1.4196064    1.8554611 -0.050148356 
17025000   0.88993163 -0.00012123936   0.52311222 0.0025686146            0    0.5205436    1.3182112    1.8413234   -4.3661319 
17030000    0.8977516 -1.0118073e-05   0.50673866  0.013702967            0    0.4930357    1.3297946    1.8365332    1.3184879 
17035000   0.93361176 9.2242246e-06   0.44300137  0.033624304            0   0.40937707    1.3829124    1.8259138    2.2981941 
17040000    0.9091984 -6.956306e-05   0.46104255  0.044346911            0   0.41669564    1.3467501    1.8077927    -1.753836 
17045000   0.90317172 -7.5675929e-05   0.46791844  0.072884069            0   0.39503437    1.3378231    1.8057415    -2.068866 
17050000   0.85667095 -3.2611612e-05   0.54048123   0.04352566            0   0.49695557    1.2689438    1.8094251   0.13971056 
17055000   0.91953184 5.1200238e-05   0.44876093  0.014478289            0   0.43428264    1.3620565    1.8108175    4.4322696 
17060000   0.93251875 -8.9050543e-06   0.45085576 0.0052211394            0   0.44563462    1.3812934    1.8321492    1.3762104 
17065000   0.90950343 -2.102299e-05   0.50739714 0.0082510171            0   0.49914612     1.347202    1.8545991   0.77822201 
17070000   0.92464406 8.0848619e-05   0.48591107  0.044757491            0   0.44115358     1.369629    1.8555401    5.9949894 
17075000   0.90967054 0.00012549655   0.47443444  0.014269846            0    0.4601646    1.3474495    1.8218839    8.2473073 
17080000    0.8934246 1.530563e-05   0.51300359  0.004572528            0   0.50843106    1.3233852    1.8363888     2.620037 
17085000   0.98961136 -1.5947276e-05   0.38297834 0.0025916237            0   0.38038672    1.4658618    1.8488402    1.0323396 
17090000   0.95825221 5.477245e-05   0.45184064  0.010198115            0   0.44164253    1.4194111    1.8712517    4.6756012 
17095000   0.97441122 -5.1322561e-06   0.44915129 0.0039720714            0   0.44517922    1.4433466    1.8924979    1.6297264 
17100000   0.97558653 -8.8387728e-05   0.47356232 0.0011584113            0   0.47240391    1.4450876    1.9186499   -2.6068018 
17105000    1.0053981 -4.3264877e-05   0.46746174 0.0010987996            0   0.46636294    1.4892459    1.9567077  -0.25845404 
17110000   0.96930862 6.0072326e-05   0.51075912 0.00034516621            0   0.51041396    1.4357884    1.9465475    5.0222506 
17115000   0.97902647 6.6635235e-05   0.47083044 0.00033977097            0   0.47049067     1.450183    1.9210134    5.3327374 
17120000    1.0117644 8.0281541e-06   0.43661631  0.003024186            0   0.43359212     1.498676    1.9352923    2.3463338 
17125000   0.96950248 -6.4358944e-06   0.50808439 0.0061337756            0   0.50195061    1.4360755    1.9441599    1.6146421 
17130000    1.0158118 -3.0530426e-05   0.42147711 0.0058320197            0   0.41564509    1.5046712    1.9261483   0.36299046 
17135000   0.97334359 -7.2731421e-05   0.45724435 0.0018216682            0   0.45542268    1.4417652    1.8990095   -1.8248392 
17140000    1.0063879 2.9880559e-05   0.41704256 0.0008695422            0   0.41617302    1.4907121    1.9077546    3.4376393 
17145000   0.98729133 5.5494505e-05   0.48556767 0.0021210613            0   0.48344661    1.4624253     1.947993    4.7893116 
17150000   0.97123231 -0.00010525315   0.50311096  0.010947316            0   0.49216364    1.4386379    1.9417488   -3.4472122 
17155000   0.98965445 -4.5772524e-05   0.49397958  0.021719117            0   0.47226046    1.4659257    1.9599052  -0.38364797 
17160000   0.99863273 8.2956134e-06   0.48266924  0.018949765            0   0.46371948    1.4792247     1.961894    2.3866294 
17165000   0.97081208 -5.1503337e-05   0.51688262  0.025184829            0   0.49169779    1.4380154     1.954898  -0.68207285 
17170000   0.94592432 4.3132833e-05   0.53957323  0.029567884            0   0.51000534    1.4011504    1.9407236    4.1491247 
17175000   0.93465902 8.8937123e-05   0.53667185  0.023999121            0   0.51267273    1.3844637    1.9211355    6.4747162 
17180000   0.99750013 0.00014139041   0.46830717  0.010063959            0   0.45824322    1.4775471    1.9458542    9.1850434 
17185000   0.97272523 0.00019712337   0.54431475  0.017221203            0   0.52709355    1.4408493     1.985164    12.077881 
17190000   0.99487696 -5.799417e-06     0.511932  0.016057251            0   0.49587475    1.4736615    1.9855935    1.6886633 
17195000     1.003381 -0.00010906688   0.51216168  0.012081086            0   0.50008059    1.4862582    1.9984198   -3.5858044 
17200000    1.0139594 -1.1414965e-05   0.50115701  0.015026717            0   0.48613029    1.5019274    2.0030844    1.4186382 
17205000    1.0480251 -3.3847504e-05   0.45847389 0.0022849293            0   0.45618896    1.5523872    2.0108611   0.27786891 
17210000     1.052559 -4.1069892e-05   0.47005893  0.020039197            0   0.45001973    1.5591031     2.029162  -0.07361646 
17215000   0.98451685 2.9077033e-05   0.56528282  0.075200973            0   0.49008185    1.4583156    2.0235984    3.5123425 
17220000    1.0621131 -7.0542062e-06   0.48971083  0.022911966            0   0.46679887    1.5732551    2.0629659    1.7017905 
17225000     1.050372 -0.00011903367   0.52814924 0.0091295933            0   0.51901964    1.5558636    2.0840128   -4.0105108 
17230000    1.1277693 -0.0001524861   0.43276156  0.011787764            0    0.4209738    1.6705082    2.1032698   -5.7040187 
17235000    1.0452797 -0.00012894639   0.57048969 0.0054771721            0   0.56501252    1.5483206    2.1188103   -4.4832447 
17240000    1.1083111 -9.4976665e-05    0.4994755 0.0079351583            0   0.49154034    1.6416858    2.1411613   -2.7216439 
17245000     1.147944 -4.28791e-05   0.44295733  0.017308908            0   0.42564843     1.700392    2.1433494 -0.052060566 
17250000    1.1192746 1.2244021e-05   0.47724004  0.021789091            0   0.45545095    1.6579255    2.1351655    2.7620594 
17255000   0.97395325 9.5718644e-05   0.72365666  0.089853254            0    0.6338034    1.4426683    2.1663249    7.0671195 
17260000    1.0422684 -5.1825122e-06   0.63715002  0.041671503            0   0.59547852      1.54386    2.1810101    1.9156654 
17265000    1.1268251 -6.4426218e-05   0.51957043  0.084762268            0   0.43480816    1.6691097    2.1886801   -1.1099423 
17270000    1.0969062 -1.599643e-05    0.5769701  0.032510482            0   0.54445962    1.6247923    2.2017624    1.3827452 
17275000    1.0678987 3.4396329e-05    0.6270343 0.0025878971            0   0.62444641     1.581825    2.2088593    3.9699513 
17280000    1.1255758 7.1373356e-05   0.56709527  0.010318847            0   0.55677642    1.6672591    2.2343544    5.8886702 
17285000    1.1581581 -1.8253383e-05   0.51772223  0.019355854            0   0.49836637    1.7155217     2.233244    1.2986707 
17290000     1.157617 -7.7782854e-05   0.51773575  0.004551061            0   0.51318469    1.7147202    2.2324559   -1.7500262 
17295000    1.1702915 2.8986671e-05   0.49551341  0.015582636            0   0.47993077    1.7334943    2.2290077    3.7131253 
17300000    1.1742168 7.2941546e-05   0.51833046  0.023232222            0   0.49509824    1.7393086    2.2576391    5.9922462 
17305000     1.100937 -9.8052813e-05   0.61474783 0.0060962734            0   0.60865156    1.6307629    2.2455107   -2.7747933 
17310000    1.1794493 -0.0001175046   0.49892722 0.00039533839            0   0.49853188    1.7470592    2.2459865   -3.7702493 
17315000    1.1615822 -1.5015462e-06   0.51116983  0.017520523            0   0.49364931    1.7205937    2.2317635    2.1548843 
17320000    1.1903658 3.0102014e-05   0.46781885  0.020061977            0   0.44775687    1.7632294    2.2310483    3.7722714 
17325000     1.141901 0.00011456066   0.53238191   0.02917608            0   0.50320583    1.6914408    2.2238227    8.0893287 
17330000    1.0946953 0.00011574161   0.62315175  0.015787566            0   0.60736418    1.6215175    2.2446692    8.1706397 
17335000    1.1787903 7.2615418e-07   0.49916124 0.0057106013            0   0.49345064    1.7460832    2.2452444    2.2824235 
17340000    1.2024974 -8.4874215e-05   0.46789853   0.02112404            0   0.44677449    1.7811992    2.2490978   -2.0964621 
17345000    1.0766958 -0.00012709951   0.65394933  0.067513064            0   0.58643627    1.5948556     2.248805     -4.25869 
17350000    1.1938007 5.3807741e-05   0.46073132  0.016281509            0   0.44444981    1.7683172    2.2290486    4.9840049 
17355000    1.1113293 8.6331385e-05   0.56239076   0.01191187            0   0.55047889    1.6461565    2.2085473    6.6287142 
17360000    1.1049806 -0.00011305949   0.58710754   0.05212436            0   0.53498318    1.6367525      2.22386   -3.5647858 
17365000    1.1105929 -2.3243676e-06   0.57885992  0.040416532            0   0.53844339    1.6450658    2.2239257    2.1049181 
17370000    1.2098553 -5.8616266e-05   0.46633277   0.01961121            0   0.44672156    1.7920982     2.258431  -0.74272183 
17375000     1.122909 -2.9477081e-05   0.57431078  0.052996918            0   0.52131386     1.663309    2.2376198   0.72839319 
17380000    1.1692817 -4.1305721e-05   0.49257178  0.051541806            0   0.44102998    1.7319986    2.2245703   0.10971741 
17385000    1.1539897 4.371438e-05   0.52007882  0.030393698            0   0.48968512    1.7093473    2.2294261    4.4676024 
17390000    1.1359531 0.00012324133   0.54930696 0.00093580915            0   0.54837115    1.6826306    2.2319375    8.5418937 
17395000    1.0567633 6.0850184e-05   0.64850801 0.0078982543            0   0.64060975    1.5653307    2.2138387    5.3293681 
17400000    1.1253986 2.1473832e-05   0.56778421  0.012282689            0   0.55550152    1.6669967    2.2347809    3.3342411 
17405000    1.1727712 -5.5068446e-05    0.4985235 0.0064831874            0   0.49204032    1.7371673    2.2356908  -0.58381368 
17410000    1.0974269 -0.00012732575   0.58392998  0.017777672            0   0.56615231    1.6255636    2.2094936    -4.309585 
17415000    1.1761564 -6.1937945e-05    0.4581201  0.035603563            0   0.42251654    1.7421816    2.2003017   -0.9709211 
17420000    1.0561353 -2.8258334e-05   0.60263001  0.078934094            0   0.52369592    1.5644004    2.1670305   0.72020374 
17425000    1.0817092 -5.4711807e-05   0.53920671  0.002886377            0   0.53632033    1.6022817    2.1414884  -0.65975609 
17430000    1.1068052 -5.2070123e-05   0.50701565 0.0059507474            0    0.5010649    1.6394553    2.1464709  -0.51951941 
17435000    1.0425575 -2.5489776e-05   0.59874936  0.028295621            0   0.57045374    1.5442884    2.1430377    0.8379612 
17440000    1.0850399 -3.4402088e-05   0.54861557  0.011573988            0   0.53704158    1.6072154     2.155831   0.39444405 
17445000    1.0644252 -2.156272e-05   0.56062822  0.028858961            0   0.53176926    1.5766798     2.137308    1.0332968 
17450000    1.1358775 2.9272874e-05   0.46973899 0.0062608766            0   0.46347811    1.6825186    2.1522576    3.6510288 
17455000     1.060016 -2.5351151e-05   0.55480303            0            0   0.55480303    1.5701486    2.1249517   0.82697275 
17460000    1.0840946 -8.4970605e-05   0.50873722 0.00058048237            0   0.50815674    1.6058151    2.1145523   -2.2359427 
17465000    1.1167425 -2.6724497e-05   0.43556756 0.0063311186            0   0.42923644    1.6541748    2.0897424   0.72144815 
17470000     1.060745 -2.2712781e-05    0.4943378  0.020857664            0   0.47348013    1.5712286    2.0655664   0.90267199 
17475000    1.0248102 -1.5253019e-05    0.5956786  0.046934913            0   0.54874368    1.5180002    2.1136788    1.3327242 
17480000     1.031058 0.00010996217   0.59076316   0.01547672            0   0.57528644    1.5272546    2.1180178    7.7480809 
17485000    1.1249227 -1.8200137e-05   0.45751081  0.005880378            0   0.45163043    1.6662918    2.1238026    1.1919556 
17490000    1.0820413 -0.00015863604   0.50673784 0.0049943248            0   0.50174351    1.6027737    2.1095115   -6.0126538 
17495000    1.0435543 9.4130615e-05   0.57548498  0.010267775            0    0.5652172    1.5457649    2.1212499    6.9407373 
17500000    1.1210206 0.00011388432   0.45024126  0.039385129            0   0.41085613    1.6605118     2.110753    7.9416302 
17505000     1.083989 0.00010500987   0.48107419  0.034036137            0   0.44703806    1.6056587    2.0867329    7.4632381 
17510000    1.0760447 1.7334318e-05   0.50930378  0.027645592            0   0.48165818    1.5938912     2.103195    2.9907121 
17515000    1.0459391 -0.00017390298   0.54503957  0.026090802            0   0.51894877    1.5492972    2.0943368   -6.8094957 
17520000    1.0277317 -7.681756e-05   0.57874804  0.069346027            0   0.50940201    1.5223276    2.1010756   -1.8319835 
17525000    1.0543552 -8.2980407e-05   0.52658982  0.026471861            0   0.50011796    1.5617636    2.0883535   -2.1602434 
17530000    1.0296726 -4.420095e-05   0.56032399 0.0048781609            0   0.55544583    1.5252025    2.0855265  -0.17756216 
17535000    1.0656761 5.6500131e-05   0.51480155  0.011556005            0   0.50324555    1.5785327    2.0933342     4.986141 
17540000     1.030216 -3.3398854e-05   0.59657975  0.012926992            0   0.58365276    1.5260074    2.1225871   0.41256583 
17545000    1.1308635 -6.4960589e-05   0.46522976  0.021011183            0   0.44421857    1.6750915    2.1403212   -1.1856609 
17550000    1.0038451 2.6688354e-05    0.6263481  0.055486571            0   0.57086153    1.4869455    2.1132936    3.4797373 
17555000     1.055471 -2.4163882e-05    0.5389292  0.033191697            0    0.5057375    1.5634165    2.1023457   0.86515492 
17560000    1.0438594 -8.7927813e-06    0.5772427 0.0046246043            0   0.57261809    1.5462168    2.1234595    1.6732691 
17565000    1.1009036 0.00010387923   0.49613119  0.017655314            0   0.47847588    1.6307134    2.1268446    7.4454611 
17570000    1.0159381 0.00017904567   0.62143914  0.074676494            0   0.54676265    1.5048584    2.1262975    11.293436 
17575000    1.0059679 7.3864021e-05   0.65495703  0.060606682            0   0.59435035      1.49009     2.145047    5.9268849 
17580000    1.0571356 -0.00012829924   0.55086288 0.0066575803            0    0.5442053    1.5658821    2.1167449   -4.4521763 
17585000    1.0860682 -6.3984321e-05   0.52452186  0.010045192            0   0.51447667    1.6087385    2.1332604   -1.1427369 
17590000    1.0962727 0.00012560487     0.512897  0.034382097            0    0.4785149    1.6238539    2.1367509    8.5677202 
17595000    1.0724775 0.00015137892   0.57614571  0.042447548            0   0.53369816    1.5886073     2.164753    9.9153537 
17600000    1.1030617 1.2240239e-05   0.52975482  0.036562631            0   0.49319219    1.6339101    2.1636649    2.7903652 
17605000    1.0608911 -2.2939299e-05   0.56210607   0.02501935            0   0.53708672    1.5714449     2.133551   0.95905888 
17610000    1.0689624 9.4454416e-07   0.57652997  0.018404646            0   0.55812533    1.5834006    2.1599306    2.2082913 
17615000    1.1185361 1.9203836e-05   0.49530828  0.010767064            0   0.48454122    1.6568316    2.1521399    3.1353763 
17620000    1.0822489 1.0313117e-05   0.55840384 0.0056623249            0   0.55274151    1.6030812    2.1614851    2.6895167 
17625000    1.0904842 -7.6440893e-05   0.54878563 0.0055753882            0   0.54321024    1.6152797    2.1640654   -1.7497084 
17630000    1.1273411 5.8345479e-05   0.50396475 0.0018162328            0   0.50214852     1.669874    2.1738387    5.1611272 
17635000    1.0835298 0.00010869502   0.53429869 0.0016064673            0   0.53269222    1.6049785    2.1392772     7.704462 
17640000    1.0044044 2.0863384e-06   0.64084723  0.035367144            0   0.60548009    1.4877741    2.1286213    2.2354418 
17645000     1.042783 -1.4137241e-05   0.62241192   0.04099324            0   0.58141868    1.5446223    2.1670342    1.4432075 
17650000    1.1333873 8.3564872e-06   0.48631077  0.022586533            0   0.46372424      1.67883    2.1651408    2.5929929 
17655000    1.0633139 4.7006713e-06   0.57208145   0.01673647            0   0.55534498    1.5750338    2.1471152    2.3877896 
17660000    1.0051517 -2.2702169e-05   0.64915268   0.01028259            0   0.63887009     1.488881    2.1380336   0.97568258 
17665000    1.0321835 1.1241381e-05   0.62469195   0.01058119            0   0.61411076    1.5289218    2.1536138    2.7291725 
17670000    1.0369246 7.1272952e-05   0.59634923  0.012493519            0   0.58385571    1.5359446    2.1322938     5.781469 
17675000    1.0576215 7.9298019e-05   0.58915994  0.037395054            0   0.55176488    1.5666018    2.1557617    6.2158203 
17680000    1.0785717 7.6830782e-06   0.54066394  0.022216363            0   0.51844758    1.5976343    2.1382982    2.5316718 
17685000    1.1712065 1.4604295e-06   0.38957345 0.0023686176            0   0.38720483    1.7348497    2.1244231    2.1991971 
17690000    1.1301619 6.6425732e-05   0.46036514 0.0064780679            0   0.45388707    1.6740523    2.1344174    5.5354149 
17695000    1.1214327 -3.4822315e-05   0.47804888  0.005008355            0   0.47304052    1.6611222    2.1391711   0.35626852 
17700000    1.0851009 -9.8774517e-05   0.51613054  0.029374226            0   0.48675631    1.6073058    2.1234363    -2.933819 
17705000    1.0922326 2.9530354e-05   0.48379177  0.011787264            0   0.47200451    1.6178695    2.1016613    3.6136154 
17710000    1.0532309 4.8111854e-05   0.51778941 0.0052848821            0   0.51250453    1.5600983    2.0778877    4.5412147 
17715000     1.093548 -4.1847375e-05   0.49097124  0.021563451            0   0.46940779     1.619818    2.1107892 -0.031796332 
17720000    1.0278014 -6.9368948e-05   0.61033612 0.0039681177            0     0.606368    1.5224309     2.132767   -1.4189231 
17725000     1.081731 -0.00014095883   0.52548285 0.00010112642            0   0.52538173    1.6023141    2.1277969   -5.0892952 
17730000    1.0836187 -0.00013494774   0.52521009 0.0016148328            0   0.52359526    1.6051102    2.1303203   -4.7790042 
17735000     1.127577 -1.9765167e-05   0.46359788  0.029862737            0   0.43373515    1.6702235    2.1338213    1.1218448 
17740000    1.1538559 -7.4181386e-05   0.43673734  0.044506819            0   0.39223052     1.709149    2.1458863   -1.6522007 
17745000     1.035376 1.9212066e-05   0.61715135   0.02025736            0   0.59689399    1.5336507    2.1508021    3.1344598 
17750000    1.0649575 5.0131165e-05   0.58360287  0.014401571            0    0.5692013    1.5774682    2.1610711    4.7277868 
17755000    1.1640331 1.4461591e-05     0.439069 0.0037314434            0   0.43533755    1.7242241    2.1632931    2.9037265 
17760000     1.174551 2.4771549e-06   0.41629913  0.015541816            0   0.40075732    1.7398036    2.1561027    2.2829331 
17765000    1.0414282 3.7858802e-05   0.62836459  0.055766327            0   0.57259826    1.5426155    2.1709801    4.1093507 
17770000    1.1396265 2.6912525e-05   0.49695408  0.072260925            0   0.42469316    1.6880718    2.1850258    3.5629471 
17775000    1.0128137 2.402556e-05   0.64792227  0.012662031            0   0.63526024    1.5002303    2.1481526    3.3782612 
17780000    1.1043243 -8.2801939e-06   0.50169085 0.00058382578            0   0.50110702    1.6357804    2.1374713    1.7135254 
17785000    1.1527042 1.6558429e-05   0.42243182 0.0078130888            0   0.41461873    1.7074431    2.1298749    2.9776664 
17790000    1.0033752 -5.8422667e-05   0.65535524  0.047907531            0   0.60744771    1.4862496    2.1416048  -0.84963577 
17795000    1.0670672 -0.00010522903   0.59964417  0.061108714            0   0.53853546    1.5805933    2.1802375   -3.2074888 
17800000    1.1506825 3.3821544e-05   0.49607808  0.050944172            0   0.44513391    1.7044484    2.2005265    3.9321895 
17805000    1.1422985 4.1073665e-05   0.51861522  0.010082515            0   0.50853271    1.6920297    2.2106449    4.3136165 
17810000    1.1179871 0.00011269859   0.57319355  0.014077744            0   0.55911581    1.6560184    2.2292119    7.9993798 
17815000    1.0696257 -3.3544352e-05   0.61978764  0.023237744            0    0.5965499     1.584383    2.2041707   0.48669987 
17820000    1.0605939 9.8455235e-06   0.62499421  0.018893183            0   0.60610102    1.5710047    2.1959989    2.7000897 
17825000    1.1358197 -3.3193852e-05   0.48863021 0.0017991069            0    0.4868311    1.6824329    2.1710631   0.47153786 
17830000    1.1015302 -0.00010797191   0.49712261 8.401715e-05            0    0.4970386    1.6316416    2.1287642   -3.3993974 
17835000    1.0356958 -0.00012977193   0.58489946            0            0   0.58489946    1.5341244    2.1190238   -4.5252988 
17840000    1.1279451 5.2423939e-05   0.43551019 0.00026170767            0   0.43524848    1.6707687    2.1062789    4.7903846 
17845000    1.0301237 3.1315513e-05    0.6023102 0.0041934276            0   0.59811678    1.5258707    2.1281809    3.7315352 
17850000    1.0349646 -6.189964e-05   0.60171994  0.015726214            0   0.58599373    1.5330414    2.1347613   -1.0345003 
17855000    1.0669957 6.4519424e-05   0.54287315  0.025460343            0   0.51741281    1.5804874    2.1233605     5.426755 
17860000    1.0677381 2.687006e-05   0.51667504  0.020228818            0   0.49644622     1.581587     2.098262    3.4740091 
17865000     1.090863 4.3312008e-05   0.51624487 0.0066349625            0   0.50960991    1.6158409    2.1320857    4.3496605 
17870000    1.0984683 -3.3491282e-07   0.49072801 0.0047980926            0   0.48592992    1.6271062    2.1178342    2.1006866 
17875000    1.0066968 -0.00012109513    0.6214551  0.019062951            0   0.60239215    1.4911697    2.1126248   -4.0874461 
17880000   0.99483687 -8.7386588e-05   0.66684141  0.026809787            0   0.64003162    1.4736021    2.1404435   -2.3337498 
17885000    1.0296072 -0.0001078472   0.62579475  0.021672617            0   0.60412213    1.5251057    2.1509004   -3.3708763 
17890000    1.1021306 0.00013130495   0.54883401  0.012851542            0   0.53598246    1.6325309    2.1813649    8.9041784 
17895000    1.0861609 7.8389388e-05   0.59637183  0.011378883            0   0.58499295    1.6088758    2.2052476    6.2187843 
17900000    1.0294666 -5.4357355e-05   0.65155619 0.0044569904            0    0.6470992    1.5248974    2.1764536  -0.60664301 
17905000    1.1209186 -8.1187783e-07   0.54843294 0.0027739472            0   0.54565899    1.6603607    2.2087936    2.1672255 
17910000    1.0892651 1.6093662e-05   0.57543523  0.011761026            0    0.5636742    1.6134739    2.1889091    3.0129046 
17915000    0.9973568 -3.1326993e-06   0.69380876  0.030640863            0   0.66316789    1.4773348    2.1711435    2.0107493 
17920000    1.1167087 -3.6070385e-05   0.50693252  0.013668463            0   0.49326406    1.6541248    2.1610573   0.31425357 
17925000    1.1778609 -3.1507716e-05   0.42471518 0.0023352205            0   0.42237996    1.7447064    2.1694216   0.55622652 
17930000    1.0335621 0.00010483677   0.65541911 0.0027015288            0   0.65271758    1.5309638    2.1863829    7.5540258 
17935000    1.0187853 0.0001065729   0.65640831  0.011929414            0    0.6444789    1.5090757     2.165484    7.6220164 
17940000    1.0740356 -0.00011451688   0.59109917  0.021912783            0   0.56918638    1.5909152    2.1820143   -3.6812498 
17945000    1.1283747 -5.1311152e-05   0.52501508 0.0081792608            0   0.51683582     1.671405    2.1964201  -0.43071091 
17950000    1.0898039 -3.2890593e-05   0.58552221 0.0027899629            0   0.58273225     1.614272    2.1997942   0.51579582 
17955000     1.066562 4.7606504e-05   0.61521793 0.0098170248            0   0.60540091    1.5798449    2.1950629    4.6325159 
17960000    1.1114928 0.00020433494   0.57554067  0.026053652            0   0.54948702    1.6463987    2.2219394    12.683888 
17965000    1.1684332 -5.9665909e-05   0.51837828  0.027458624            0   0.49091965    1.7307417      2.24912  -0.80577459 
17970000     1.171851 -9.9539358e-05   0.53095096  0.026349169            0   0.50460179    1.7358042    2.2667552   -2.8296599 
17975000    1.1147055 0.00021455431   0.63861948  0.032259951            0   0.60635952    1.6511575     2.289777    13.274957 
17980000    1.1057149 0.00012993059    0.6445064  0.043563081            0   0.60094332    1.6378403    2.2823467    8.9347927 
17985000    1.0471901 -0.00010662363   0.75149984  0.041700211            0   0.70979963    1.5511504    2.3026502   -3.1564797 
17990000    1.1873365 -0.0001291475   0.56379416 0.0067090419            0   0.55708512    1.7587422    2.3225364   -4.2898156 
17995000    1.1774572 2.5608676e-05   0.60484135  0.072400172            0   0.53244118    1.7441085    2.3489499    3.6601141 
18000000    1.1449166 0.00010280374   0.64466018  0.014759457            0   0.62990072    1.6959077    2.3405679    7.6041194 
18005000    1.1635052 -0.00010076923    0.6577844  0.017314727            0   0.64046967    1.7234421    2.3812265    -2.778158 
18010000    1.1783297 -0.00023304491   0.61615526  0.041438875            0   0.57471638    1.7454009    2.3615561   -9.5703434 
18015000    1.1790638 -6.9028186e-05   0.57917247  0.047811739            0   0.53136073    1.7464883    2.3256608   -1.2085824 
18020000    1.0593187 1.1688114e-05    0.7535582  0.020282032            0   0.73327617    1.5691159    2.3226741    2.9211055 
18025000     1.164344 4.132842e-05   0.61775935  0.027420464            0   0.59033889    1.7246845    2.3424438    4.4584589 
18030000     1.189816 0.00014502513   0.60288017  0.026773617            0   0.57610655     1.762415    2.3652951    9.7905817 
18035000    1.1789178 8.5539984e-05   0.61576565  0.074174089            0   0.54159156     1.746272    2.3620376    6.7416848 
18040000    1.1523563 3.9846785e-05   0.66207407  0.056765211            0   0.60530886    1.7069278    2.3690018    4.4091572 
18045000    1.1382721 -5.7023345e-05   0.65287293  0.018762155            0   0.63411077    1.6860656    2.3389385  -0.58065676 
18050000    1.1677853 6.6257076e-05   0.61088496 0.0061551382            0   0.60472982     1.729782    2.3406669    5.7330292 
18055000    1.1439598 -8.5818468e-05   0.62726116  0.008564965            0    0.6186962    1.6944905    2.3217516   -2.0721539 
18060000    1.1972666 -4.1004631e-05    0.5594088 0.0060037295            0   0.55340507    1.7734511    2.3328599   0.23342276 
18065000    1.1459016 0.00014591414   0.65770264 0.0076175359            0    0.6500851    1.6973667    2.3550693    9.8258731 
18070000    1.2223129 8.7518239e-05   0.54694075 0.0015506175            0   0.54539013     1.810551    2.3574917    6.8384256 
18075000    1.1964663 -2.9305321e-05   0.61584347 0.0027427311            0   0.61310074    1.7722658    2.3881092   0.88767681 
18080000    1.1508068 -8.4693468e-05   0.68188139  0.030499634            0   0.65138176    1.7046325    2.3865139   -1.9497916 
18085000    1.2271009 1.0428981e-05   0.57640504  0.030195718            0   0.54620932    1.8176432    2.3940482     2.928012 
18090000    1.1718001 -8.2805492e-05   0.66447598  0.022558578            0    0.6419174    1.7357288    2.4002048   -1.8394364 
18095000    1.2396466 -2.5552994e-05   0.55161996  0.018396403            0   0.53322356    1.8362266    2.3878465    1.0795332 
18100000    1.1030321  9.57306e-05   0.72215966  0.024704462            0    0.6974552    1.6338663     2.356026    7.2574327 
18105000    1.1379555 6.193572e-05    0.6713186  0.027947625            0   0.64337098    1.6855966    2.3569152    5.5280241 
18110000     1.163514 -8.5318427e-06   0.62513357  0.013667845            0   0.61146572    1.7234551    2.3485887    1.9117583 
18115000    1.1782616 -0.00010404179   0.60548169 0.0025279356            0   0.60295375       1.7453    2.3507817   -2.9761579 
18120000    1.1549204 -0.00016233615   0.63235621 0.00058068347            0   0.63177553    1.7107258     2.343082   -5.9685286 
18125000    1.0950981 4.8937001e-05   0.69099975 0.0022557799            0   0.68874397     1.622114    2.3131138    4.8186882 
18130000    1.1553432 0.00015434559   0.57326037 0.0091557235            0   0.56410465    1.7113521    2.2846125    10.187107 
18135000    1.0564786 3.0620522e-05   0.74528611  0.027585862            0   0.71770025    1.5649089     2.310195    3.8779657 
18140000    1.1855695  7.63581e-05   0.54037154   0.02180604            0    0.5185655    1.7561249    2.2964964    6.2060311 
18145000    1.1518769 6.3395774e-05   0.56972072 0.0069165911            0   0.56280413    1.7062177    2.2759384     5.521802 
18150000    1.1684008 -3.1872638e-05    0.5673779  0.016856843            0   0.55052105    1.7306937    2.2980716   0.66619254 
18155000    1.0238993 -5.1229162e-05   0.77711471  0.018208132            0   0.75890658    1.5166508    2.2937655  -0.32916758 
18160000    1.1180239 2.0270727e-05   0.61960999  0.045775473            0   0.57383452    1.6560729    2.2756829    3.3135441 
18165000     1.148081 0.00011321292   0.59570268  0.034063623            0   0.56163906    1.7005949    2.2962976    8.0927989 
18170000    1.1158522 -4.1074132e-05    0.6125285  0.026181024            0   0.58634747    1.6528561    2.2653846   0.16238899 
18175000    1.0715276 -7.96913e-05   0.68237719  0.021789371            0   0.66058782    1.5872002    2.2695774   -1.8106171 
18180000    1.0894951 6.1416015e-05   0.65899052  0.032158273            0   0.62683225    1.6138147    2.2728052    5.4173051 
18185000    1.2052137 -7.564518e-05   0.48338293 3.5682091e-05            0   0.48334725    1.7852228    2.2686057   -1.6044275 
18190000    1.1148324 -3.49516e-05   0.59977063 0.0025021851            0   0.59726844    1.6513454    2.2511161   0.46159413 
18195000    1.1159947 -2.6911162e-05   0.58143891 0.0081440935            0   0.57329482    1.6530671     2.234506   0.85665451 
18200000    1.0543428 -0.0001095732    0.6799087  0.012951305            0   0.66695739    1.5617452    2.2416539   -3.3684941 
18205000    1.1156809 5.2168147e-05   0.62305532  0.030432231            0   0.59262309    1.6526023    2.2756577    4.9466668 
18210000    1.0933329 2.7272273e-05   0.62475482   0.04669933            0   0.57805549    1.6194993    2.2442541    3.6405945 
18215000    1.0410017 -8.0069348e-05   0.69038276  0.025964649            0   0.66441811    1.5419837    2.2323665   -1.8671842 
18220000    1.1012011 -1.2764254e-05   0.58513351  0.028494223            0   0.55663929    1.6311541    2.2162876    1.5627578 
18225000    1.0291061 2.1790879e-05   0.64939377   0.02737509            0   0.62201868    1.5243634    2.1737571    3.2894502 
18230000    1.0837275 -2.739195e-05    0.5721181  0.017586195            0    0.5545319    1.6052714    2.1773895   0.77492162 
18235000    1.1394415 -8.960552e-05   0.51860238  0.028514194            0   0.49008818    1.6877977       2.2064   -2.3814026 
18240000   0.98345227 -9.8373752e-05   0.74375613  0.048896901            0   0.69485923    1.4567387    2.2004948   -2.8362413 
18245000    1.0979995 -4.4195545e-05   0.58451515  0.041445387            0   0.54306976    1.6264117    2.2109269 -0.051885023 
18250000    1.1180056 1.5377139e-05   0.53962383  0.033155839            0   0.50646799    1.6560458    2.1956696    2.9829791 
18255000    1.0768753 0.0001216428   0.60565538  0.045848774            0   0.55980661    1.5951215    2.2007769    8.4288883 
18260000    1.0218067 8.3044445e-05    0.6816796  0.015314045            0   0.66636556    1.5135512    2.1952308    6.4471064 
18265000     1.021448 -2.6768538e-05   0.68759296  0.014865284            0   0.67272768    1.5130198    2.2006128   0.83006362 
18270000    1.2007787 -2.2309532e-06    0.4510055 0.0070606468            0   0.44394485    1.7786535     2.229659    2.1154342 
18275000          1.1 -5.5481096e-05   0.60840722 0.0054530852            0   0.60295414     1.629375    2.2377823  -0.60284986 
18280000    1.1192961 -2.8745439e-05   0.56442501  0.043274908            0    0.5211501    1.6579574    2.2223824   0.75061593 
18285000    1.0943415 3.9818746e-05   0.60880835  0.062944509            0   0.54586384    1.6209933    2.2298016    4.2685214 
18290000   0.97584759 2.1427808e-07   0.71909215  0.021591521            0   0.69750063    1.4454742    2.1645664    2.1755374 
18295000    1.0573991 7.5372293e-05   0.61674845   0.01538622            0   0.60136223    1.5662724    2.1830209    6.0420823 
18300000   0.97470851 -1.2007986e-06   0.73669174  0.025766441            0    0.7109253     1.443787    2.1804787    2.1189978 
18305000    1.0840832 -4.5096939e-05    0.5699938  0.021462731            0   0.54853107    1.6057982     2.175792  -0.13317125 
18310000     1.068609 9.7526616e-06   0.58219318  0.013466283            0   0.56872689     1.582877    2.1650702    2.6644065 
18315000   0.99372827 0.00016510837   0.66732369 0.0045133834            0   0.66281031      1.47196    2.1392837    10.592832 
18320000    1.0141723 -1.8028302e-05   0.63766611  0.010966175            0   0.62669994    1.5022427    2.1399089    1.2168598 
18325000    1.1086763 -6.0574182e-05    0.4870025 0.0058946477            0   0.48110785    1.6422267    2.1292292  -0.97216893 
18330000    1.0766845 -6.0261534e-05   0.53815744 0.0025253959            0   0.53563204    1.5948389    2.1329963  -0.95239422 
18335000   0.97864642 -0.00011108454   0.67428473 0.0034631902            0   0.67082154      1.44962    2.1239047   -3.5636235 
18340000    1.1089938 -7.8145384e-05   0.47992329 0.0022044484            0   0.47771884    1.6426971    2.1226204   -1.8784232 
18345000    1.0276734 6.4246868e-06   0.58163584  0.015647224            0   0.56598862    1.5222412    2.1038771     2.432821 
18350000   0.99635709 -1.0051217e-05   0.60478021   0.03519992            0   0.56958029    1.4758539    2.0806341    1.5660119 
18355000    1.0516327 1.1466241e-05   0.51549156  0.011943414            0   0.50354814    1.5577309    2.0732225     2.660294 
18360000   0.93608593 2.8066495e-05    0.6716071  0.001408265            0   0.67019883    1.3865773    2.0581844    3.4951889 
18365000   0.98319518 -5.9949217e-06   0.61158228  0.006550911            0   0.60503137    1.4563579    2.0679401    1.7610001 
18370000    1.0634432 3.2557985e-05   0.47286231  0.006859678            0   0.46600263    1.5752253    2.0480876    3.7150564 
18375000   0.97162623 9.6931711e-06   0.59278044 0.0082115011            0   0.58456894    1.4392214    2.0320018    2.5282922 
18380000   0.90828313 -0.00012713271   0.68525823  0.019063323            0   0.66619491    1.3453944    2.0306526    -4.478542 
18385000   0.95538269 -0.00011721097   0.60451419  0.023634677            0   0.58087951    1.4151606    2.0196748   -3.9815271 
18390000   0.93630932 -0.00011010987   0.65279565  0.030818504            0   0.62197714    1.3869082    2.0397038   -3.5979214 
18395000    1.0175766 -7.5296402e-05   0.50404767  0.030345471            0    0.4737022    1.5072854    2.0113331   -1.8438427 
18400000   0.93112234 0.00013671258   0.62937205  0.013207128            0   0.61616493     1.379225     2.008597     9.008281 
18405000   0.91517157 0.00012860332    0.6444516  0.018257113            0   0.62619448    1.3555979    2.0000495    8.5845394 
18410000   0.98147036 5.2655323e-05   0.54882421  0.033866309            0    0.5149579     1.453803    2.0026272    4.6985797 
18415000   0.91058881 0.0001125729   0.63816697  0.010335474            0    0.6278315    1.3488097    1.9869767     7.750709 
18420000   0.84273481 -1.5421917e-05   0.75537001  0.041076945            0   0.71429307    1.2483009    2.0036709    1.2140688 
18425000   0.94381013 1.7637439e-05   0.61198482  0.024834836            0   0.58714999    1.3980188    2.0100036    2.9130405 
18430000   0.94628752 3.7302379e-05   0.60058764 0.0097454415            0    0.5908422    1.4016884     2.002276    3.9121578 
18435000   0.90244118 5.7686308e-06    0.6483786  0.016248652            0   0.63212995     1.336741    1.9851196    2.2804735 
18440000   0.96687274 3.2636609e-05   0.58848874 0.0069882131            0   0.58150052    1.4321802     2.020669    3.6916634 
18445000   0.94122961 -5.9696591e-05   0.63613384 0.0025538625            0   0.63357998    1.3941964    2.0303302   -1.0261353 
18450000   0.95649336 -1.3154586e-05   0.61608156 6.5558072e-06            0     0.616075    1.4168058    2.0328874    1.3593725 
18455000   0.96062674 -7.9290947e-05   0.57575119  0.015479702            0   0.56027149    1.4229284    1.9986795   -2.0610169 
18460000   0.94167707 -8.2009472e-05    0.6264608  0.059983575            0   0.56647723    1.3948592      2.02132    -2.177565 
18465000    1.0075955 7.7078586e-05   0.53673123   0.04057962            0   0.49615161    1.4925009    2.0292321    5.9756557 
18470000   0.95891292 7.522343e-05   0.61180161   0.01364989            0   0.59815172    1.4203898    2.0321914     5.883631 
18475000   0.99005453 9.5925337e-05   0.57026948 0.0029945852            0   0.56727489    1.4665183    2.0367877     6.948165 
18480000    1.0194051 -4.7061458e-05   0.51920007  0.022889764            0   0.49631031    1.5099937    2.0291938  -0.38035284 
18485000   0.92199288 -9.3330061e-05   0.65038238  0.031427337            0   0.61895505     1.365702    2.0160843   -2.7624148 
18490000   0.95851646 -8.6722689e-05   0.61059286  0.001946101            0   0.60864676    1.4198025    2.0303954   -2.4098063 
18495000    1.0199537 -3.2123181e-05   0.51554603 8.1103825e-05            0   0.51546493    1.5108065    2.0263525   0.38164564 
18500000   0.88451166 3.0868105e-06   0.74109343 0.0055820131            0   0.73551142    1.3101829    2.0512763     2.209321 
18505000    1.0324978 -3.3717727e-05   0.53449824  0.030214572            0   0.50428367    1.5293874    2.0638857   0.33753802 
18510000   0.97379888 9.6928816e-05   0.64397409   0.01661737            0   0.62735672    1.4424396    2.0864137    7.0491691 
18515000    1.0311363 6.9647553e-05   0.59526691  0.025143551            0   0.57012336    1.5273707    2.1226376    5.6885923 
18520000     0.984325 -9.1257542e-05   0.69141383  0.080286504            0   0.61112732    1.4580314    2.1494452   -2.5229409 
18525000    1.0108447 -8.6050567e-05   0.65021987  0.016010859            0   0.63420901    1.4973136    2.1475335   -2.2582555 
18530000    1.0252565 8.165582e-05   0.60272455 0.0023517556            0    0.6003728    1.5186612    2.1213858    6.3021638 
18535000    1.0299482 -3.5383611e-05   0.63569644  0.015702276            0   0.61999416    1.5256108    2.1613072   0.34966638 
18540000   0.97876584 4.4010728e-06   0.68676437  0.020835073            0   0.66592929    1.4497969    2.1365613    2.3618962 
18545000    1.0045079 -1.4596268e-05   0.66647082  0.031795159            0   0.63467566    1.4879274    2.1543982    1.4070693 
18550000    1.1451246 -4.9776916e-05    0.4892837  0.031643156            0   0.45764055    1.6962159    2.1854996  -0.36307853 
18555000    1.0446636 3.9539957e-05   0.60608657 0.0076896892            0   0.59839688    1.5474079    2.1534945    4.1779403 
18560000    1.0256828 7.4062327e-05   0.66108416 0.0079296157            0   0.65315455    1.5192927    2.1803768     5.972368 
18565000    1.0637823 2.9313744e-05   0.62348948  0.016130186            0    0.6073593    1.5757275     2.199217    3.7000807 
18570000    1.0912751 -7.2749453e-05   0.55325495   0.02938104            0   0.52387391    1.6164512    2.1697061   -1.5550659 
18575000   0.99892759 0.00012205716   0.67865909  0.025496117            0   0.65316297    1.4796615    2.1583206     8.407647 
18580000    1.0421385 0.00012075018   0.62564487  0.020705326            0   0.60493954    1.5436677    2.1693125    8.3517219 
18585000     1.017695 -8.501232e-05   0.66634549  0.012916005            0   0.65342949    1.5074608    2.1738063   -2.1788246 
18590000    1.0919178 -0.00011352431   0.53970177 0.0071100072            0   0.53259176    1.6174033    2.1571051   -3.6553394 
18595000    1.0687086 6.2309027e-05    0.5770145   0.02829194            0   0.54872256    1.5830246    2.1600391    5.3502613 
18600000   0.98795558 1.2742705e-05   0.70662804   0.05752697            0   0.64910107    1.4634092    2.1700373    2.8224637 
18605000    1.0604308 1.914953e-05   0.63695599  0.013294125            0   0.62366187    1.5707631    2.2077191    3.1881751 
18610000     1.077707 0.00012050362   0.61734485 0.0065113477            0    0.6108335    1.5963534    2.2136983    8.3834838 
18615000    1.0270976 -0.00011596532   0.69118021 0.00042813894            0   0.69075207    1.5213884    2.2125686    -3.724856 
18620000    1.0652609 -6.0466157e-05   0.65653095 0.00075625178            0   0.65577469    1.5779177    2.2344487  -0.86141857 
18625000      1.02779 3.687485e-05   0.71845547 0.0028238433            0   0.71563162    1.5224139    2.2408693    4.1288617 
18630000    1.1026895 0.00014436505   0.63796407 0.0074792726            0    0.6304848    1.6333589    2.2713229    9.6628135 
18635000    1.1727268 -7.7712597e-05   0.54709814 0.0087342993            0   0.53836384    1.7371016    2.2841997   -1.6946852 
18640000    1.0780622 -9.7372647e-05   0.71042069  0.030812942            0   0.67960775    1.5968797    2.3073004   -2.6781792 
18645000    1.1063695 -5.8127953e-05   0.67191177  0.039482827            0   0.63242894    1.6388099    2.3107216  -0.66542954 
18650000     1.208645 8.5603068e-05   0.56078729  0.019782257            0   0.54100503    1.7903055    2.3510928    6.7339698 
18655000    1.1554863 2.6105334e-05   0.63013443 0.0092119489            0   0.62092248    1.7115641    2.3416985    3.6782916 
18660000    1.0949629 -2.2547831e-05   0.71705506  0.018407167            0   0.69864789    1.6219137    2.3389688    1.1845198 
18665000    1.1237104 -9.7408754e-05   0.68799468  0.028337761            0   0.65965692     1.664496    2.3524907   -2.6348375 
18670000    1.1522094 0.00014502112    0.6328995  0.011283525            0   0.62161597    1.7067102    2.3396097    9.7646909 
18675000    1.0559333 -1.6055142e-05   0.74793343  0.013774627            0    0.7341588    1.5641011    2.3120346    1.4900113 
18680000    1.0625677 -2.3695793e-05   0.70132518  0.080562572            0    0.6207626    1.5739285    2.2752536     1.062029 
18685000    1.1160243 -1.7785971e-05   0.59747988  0.019759101            0   0.57772077     1.653111    2.2505909    1.3399492 
18690000    1.0734809 3.1055851e-05   0.65467175 0.0057099932            0   0.64896176    1.5900936    2.2447654     3.834825 
18695000    1.0375008 1.036954e-05   0.69960517  0.026203404            0   0.67340177     1.536798    2.2364032    2.7673236 
18700000    1.0080778 0.00013318983   0.73495909  0.041653683            0   0.69330541    1.4932153    2.2281744    9.0474939 
18705000    1.0431295 -5.5621494e-05   0.68140023  0.041447663            0   0.63995257    1.5451355    2.2265358  -0.62128472 
18710000     1.049625 8.0887834e-05   0.66597745  0.018220403            0   0.64775705     1.554757    2.2207344    6.3621915 
18715000    1.0725593 -5.0159919e-05    0.6486239 0.0098137262            0   0.63881018    1.5887285    2.2373524  -0.33083541 
18720000    1.0285659 7.3040786e-05   0.68993362  0.027750511            0   0.66218311    1.5235632    2.2134968    5.9531851 
18725000    1.0412716 -2.1369995e-05   0.66255376  0.019701743            0   0.64285202    1.5423836    2.2049373    1.1107936 
18730000    1.0468952 1.1381456e-05   0.69124143 0.0035005243            0   0.68774091    1.5507135     2.241955    2.8246855 
18735000    1.0369196 -0.00010637752   0.69406117  0.027611816            0   0.66644935    1.5359371    2.2299983   -3.2165307 
18740000    1.0801303 -9.5571379e-05   0.63186501  0.043511455            0   0.58835356    1.5999431    2.2318081   -2.6614465 
18745000    1.0281235 6.6574041e-05   0.73298108  0.053897741            0   0.67908334     1.522908     2.255889    5.6644799 
18750000    1.0568636 9.8943541e-05    0.6695587  0.044134296            0    0.6254244    1.5654792    2.2350379    7.3009472 
18755000    1.0641222 0.0001452026   0.66871355  0.035005958            0   0.63370759     1.576231    2.2449445    9.6793175 
18760000   0.97418275 -2.4824516e-06   0.85348915  0.043153788            0   0.81033537    1.4430082    2.2964973    2.1693958 
18765000    1.1091702 6.3416628e-05   0.63137675  0.070995693            0   0.56038106    1.6429584    2.2743352    5.5212666 
18770000    1.1174861 -7.1331778e-05    0.6155529  0.027828024            0   0.58772488    1.6552764    2.2708293   -1.3813578 
18775000    1.0664753 -5.0597853e-05   0.65938026 0.0014970135            0   0.65788324    1.5797165    2.2390967  -0.35151336 
18780000     1.020262 9.6287253e-05   0.74305182 0.0076674257            0   0.73538439     1.511263    2.2543148    7.1842222 
18785000    1.1061779 -3.3825326e-05   0.61493079  0.012991345            0   0.60193945     1.638526    2.2534568   0.52160009 
18790000     1.070109 -6.08118e-05    0.6455099  0.030322938            0   0.61518696     1.585099    2.2306089  -0.88295528 
18795000    1.0824632 3.312187e-05   0.61960039  0.013245192            0    0.6063552    1.6033986     2.222999    3.9188388 
18800000    1.0497252 -2.6794966e-06   0.65289622  0.064048239            0   0.58884798    1.5549054    2.2078016    2.0706114 
18805000    1.1044226 0.00014335997    0.6259526  0.051219126            0   0.57473348     1.635926    2.2618786    9.6019092 
18810000     1.094405 6.2315406e-05   0.60631795  0.031228331            0   0.57508962    1.6210874    2.2274053    5.4179541 
18815000   0.97796171 -0.00013254281   0.76900692  0.021651173            0   0.74735575    1.4486058    2.2176127   -4.5685794 
18820000    1.0488127 -4.5770176e-05   0.64193173  0.031076227            0   0.61085551    1.5535538    2.1954855  -0.14794746 
18825000    1.0272496 -0.00015881328   0.65243263   0.01809463            0     0.634338    1.5216134     2.174046   -5.9571937 
18830000    1.0333436 8.8757179e-06   0.65951934  0.009910823            0   0.64960852    1.5306401    2.1901595    2.6445962 
18835000    1.0096128 3.3491026e-07   0.66742249  0.015705638            0   0.65171685     1.495489    2.1629115    2.1800589 
18840000   0.99543968 0.0002114259   0.69243596  0.026608146            0   0.66582782     1.474495     2.166931    12.991937 
18845000   0.95622423 0.00025006635   0.76848118  0.013634708            0   0.75484647    1.4164071    2.1848883    14.988285 
18850000    1.0428851 8.8649956e-05   0.65144022  0.012276819            0    0.6391634    1.5447735    2.1962137    6.7350914 
18855000    1.0131114 3.0201851e-05   0.73328357  0.040151918            0   0.69313165    1.5006713    2.2339548    3.7802896 
18860000    1.1867994 -2.1065982e-05   0.45996422   0.02963806            0   0.43032616    1.7579466    2.2179108    1.1393325 
18865000   0.99841012 -4.1779174e-05   0.71183689   0.01563961            0   0.69619728     1.478895    2.1907319  0.051638152 
18870000   0.99620923 5.066427e-05   0.69206852 0.0062767963            0   0.68579173    1.4756349    2.1677034    4.7617141 
18875000    1.0561966 -9.1028463e-05   0.60437845  0.015664264            0   0.58871418    1.5644911    2.1688696   -2.4917877 
18880000    1.0617186 -4.5591278e-05   0.58343341  0.014746739            0   0.56868667    1.5726707    2.1561041  -0.17816929 
18885000   0.98366477 -3.504859e-07   0.67628462  0.010135936            0   0.66614868    1.4570534    2.1333381    2.1153932 
18890000    1.0944026 -5.9760298e-05   0.51749768 0.0061044854            0    0.5113932    1.6210839    2.1385816   -0.9211457 
18895000   0.97438256 -0.00012168839   0.68399275 0.0027114832            0   0.68128127    1.4433042    2.1272969   -4.1031489 
18900000    1.0194541 -4.6615873e-05   0.62083991 0.0016467541            0   0.61919316    1.5100664    2.1309063   -0.2558264 
18905000   0.97226697 0.00013300787   0.70776011  0.025776709            0   0.68198341    1.4401704    2.1479306    8.9579334 
18910000   0.99908919 -2.7470793e-05   0.67071428  0.022458574            0   0.64825571    1.4799009    2.1506152   0.74411053 
18915000    1.0448067 0.00011844127   0.59943133  0.039796529            0    0.5596348    1.5476199    2.1470513    8.2112445 
18920000    1.0541953 0.00015823995   0.55954268 0.0063010807            0    0.5532416    1.5615268    2.1210695    10.222955 
18925000    1.0462327 7.0973377e-06   0.57323749 9.2504362e-05            0   0.57314499    1.5497321    2.1229696    2.4863533 
18930000    1.0106242 4.9125566e-05    0.6158576 0.00024954911            0   0.61560805    1.4969871    2.1128447    4.6280737 
18935000    1.0436111 3.1317671e-05   0.58106763  0.003373342            0   0.57769429    1.5458489    2.1269165    3.7303813 
18940000    1.0518786 6.8387316e-05   0.54139752  0.017791175            0   0.52360635    1.5580952    2.0994928    5.6009233 
18945000    1.0166817 -9.4365481e-06   0.59449752  0.043770115            0    0.5507274    1.5059597    2.1004573     1.617306 
18950000   0.99871568 6.4996663e-06   0.61586994  0.073347318            0   0.54252262    1.4793476    2.0952175    2.4280004 
18955000    1.0250631 -2.2387459e-05   0.55379875  0.028562491            0   0.52523626    1.5183748    2.0721735   0.92593563 
18960000   0.95442957 -8.7715467e-05   0.68108476  0.013347539            0   0.66773723    1.4137488    2.0948336   -2.3961984 
18965000    1.0811843 -2.0721317e-05   0.51561702  0.048410029            0   0.46720699    1.6015042    2.1171213    1.0561898 
18970000     1.014773 1.2263501e-05   0.59256443  0.023208783            0   0.56935564    1.5031325    2.0956969    2.7235882 
18975000    1.0490659 5.0072032e-05   0.53681742  0.010753207            0   0.52606422    1.5539289    2.0907463    4.6544344 
18980000    1.0782222 2.2303518e-05   0.51442815   0.02246171            0   0.49196644    1.5971167    2.1115448     3.253485 
18985000    1.0753112 0.00019718467   0.50472115 0.0087440118            0   0.49597714    1.5928047    2.0975259    12.193381 
18990000    1.0670827 0.00013756966    0.5201408  0.036636069            0   0.48350473    1.5806162     2.100757    9.1443236 
18995000    1.0754878 0.00016309085   0.50991454  0.013918872            0   0.49599567    1.5930663    2.1029808    10.453232 
19000000    1.0514638 7.8353909e-05   0.57940235  0.013528436            0   0.56587392    1.5574807    2.1368831    6.1486032 
19005000    1.0621313 -0.00017458312   0.55474877  0.010774519            0   0.54397425     1.573282    2.1280308   -6.8106249 
19010000    1.0766576 -7.8525694e-05   0.52736476  0.021752408            0   0.50561235    1.5947991    2.1221639   -1.8983517 
19015000   0.98703316 -0.00011229399   0.65135632  0.034566783            0   0.61678954    1.4620429    2.1133992   -3.6360531 
19020000    1.1378407 2.6811586e-06   0.45649529 0.0074271441            0   0.44906814    1.6854265    2.1419218    2.2791971 
19025000     1.064243 0.00018172631   0.56496191  0.021164571            0   0.54379734      1.57641    2.1413719    11.445759 
19030000    1.0591534 -1.1326259e-05   0.53585424  0.056475881            0   0.47937836     1.568871    2.1047253    1.5248208 
19035000    1.0059969 -7.147681e-05   0.58988126  0.026931922            0   0.56294934     1.490133    2.0800142   -1.5795984 
19040000   0.97665743 3.8725145e-05   0.60122115  0.013522183            0   0.58769897    1.4466738     2.047895    4.0306224 
19045000    0.9776944 -1.8994431e-05   0.59282045  0.020366039            0   0.57245441    1.4482098    2.0410303    1.0685154 
19050000    1.0619099 0.00013668653    0.4983439  0.039808509            0   0.45853539     1.572954    2.0712979    9.0696482 
19055000    1.0212208 0.00017039219   0.58014017  0.071927702            0   0.50821247    1.5126833    2.0928235    10.816903 
19060000   0.99707984 1.1489553e-05    0.6271618  0.020535479            0   0.60662632    1.4769245    2.1040863    2.6923514 
19065000   0.98281873 1.5998724e-05   0.66628328  0.020070222            0   0.64621306    1.4558002    2.1220835    2.9412182 
19070000   0.94575977 2.478149e-05   0.68986684  0.046559641            0    0.6433072    1.4009067    2.0907735    3.3595858 
19075000   0.99490053 6.7832906e-05   0.62639743   0.10104119            0   0.52535624    1.4736964    2.1000938    5.5731386 
19080000    1.0526156 -1.4363646e-05   0.52022207 0.0098657048            0   0.51035637    1.5591868    2.0794089    1.3439902 
19085000   0.98582779 -7.6564195e-05   0.59517545  0.011478208            0   0.58369724    1.4602574    2.0554329   -1.8646539 
19090000   0.97836139 -7.1679793e-05   0.57727173  0.041105631            0    0.5361661    1.4491978    2.0264695   -1.6435358 
19095000    0.9415074 -9.0989377e-05   0.61905264   0.02933656            0   0.58971608    1.3946078    2.0136605   -2.6449956 
19100000   0.90655393 4.6624964e-05   0.67542358  0.021518635            0   0.65390495     1.342833    2.0182566    4.4054548 
19105000    1.0164189 2.3056689e-05    0.5120347  0.034023318            0   0.47801138    1.5055705    2.0176052    3.1981077 
19110000    1.0390024 -4.4565258e-05   0.49070487  0.018429226            0   0.47227564    1.5390222    2.0297271   -0.2520141 
19115000    0.9737725 -2.562047e-05   0.59645185  0.065329664            0   0.53112219    1.4424005    2.0388524   0.72708431 
19120000    1.0297454 -6.0851023e-05   0.48138103   0.03835003            0     0.443031    1.5253104    2.0066914    -1.108881 
19125000   0.94812821 -8.0856139e-05   0.63069568  0.016972507            0   0.61372318    1.4044149    2.0351106   -2.1047237 
19130000   0.97621188 -1.5960045e-06   0.61015491  0.019188064            0   0.59096684    1.4460138    2.0561687    1.9744533 
19135000   0.96175464 1.3092518e-05   0.64246803  0.022070635            0   0.62039739    1.4245991    2.0670671     2.737404 
19140000   0.99742612 -4.1865194e-05   0.59640665   0.06577933            0   0.53062732    1.4774374    2.0738441 -0.069653818 
19145000    1.0183616 -5.7244149e-05   0.63443401  0.095742972            0   0.53869104    1.5084481    2.1428821  -0.78801833 
19150000    1.0843718 4.828431e-05   0.53776517  0.027848722            0   0.50991645    1.6062257    2.1439909    4.6161476 
19155000    1.1351515 2.9624586e-05   0.46982306 0.0052932212            0   0.46452984    1.6814432    2.1512663    3.6680451 
19160000    1.0991973 -2.0089505e-05   0.52622398  0.033109194            0   0.49311478    1.6281861    2.1544101    1.1258274 
19165000    1.0927804 5.5994033e-05   0.53286354  0.016560777            0   0.51630276     1.618681    2.1515446    5.0184391 
19170000    1.0237055 0.00010610261   0.63934111  0.038758949            0   0.60058216    1.5163637    2.1557049    7.5881585 
19175000    1.0418348 7.3559071e-05   0.60413151  0.070171802            0   0.53395971    1.5432178    2.1473493    5.9135737 
19180000    1.0899127 -2.281396e-05   0.53009965  0.020880868            0   0.50921878    1.6144332    2.1445329    0.9764581 
19185000    1.1018771 -2.985334e-05   0.56945641  0.020682015            0    0.5487744    1.6321555    2.2016119   0.67312094 
19190000     1.106877 8.7205696e-05   0.53490355  0.015610991            0   0.51929256    1.6395615    2.1744651    6.6393967 
19195000    1.0747979 5.0307389e-05   0.55436697  0.021396196            0   0.53297077    1.5920444    2.1464113    4.7221496 
19200000    1.1162994 -2.7413163e-05   0.50640952  0.045925467            0   0.46048406    1.6535185     2.159928   0.75637407 
19205000    1.0552994 -4.4710876e-05   0.59784599  0.062508033            0   0.53533796    1.5631623    2.1610083   -0.1281886 
19210000     1.064177 -5.3260046e-05   0.59229053  0.018727025            0    0.5735635    1.5763122    2.1686028  -0.55831158 
19215000    1.1120148 -2.4962298e-05   0.52000254 0.0045125481            0   0.51548999    1.6471719    2.1671745    0.8891048 
19220000    1.1720947 -3.2859726e-05    0.4509932  0.018937096            0   0.43205611    1.7361653    2.1871585   0.50474058 
19225000    1.1778331 2.7135046e-05   0.45020444  0.029717672            0   0.42048677    1.7446653    2.1948697    3.5841841 
19230000    1.1082896 -4.0022888e-05   0.56933754 0.0043058163            0   0.56503172     1.641654    2.2109916   0.16181971 
19235000     1.071574 -6.094028e-05   0.61353333 0.0030472474            0   0.61048608    1.5872689    2.2008023  -0.91934006 
19240000    1.1741538 9.484064e-05   0.47797307 0.0023326256            0   0.47564044    1.7392153    2.2171884    7.0730291 
19245000    1.1380766 3.7277103e-06   0.51763724 0.0013558874            0   0.51628136     1.685776    2.2034132     2.394272 
19250000    1.1389205 -8.7377094e-05    0.5175606 0.00056908297            0   0.51699152     1.687026    2.2045866   -2.2691206 
19255000    1.1940825 -8.1493115e-05   0.45435185 0.0068292429            0   0.44752261    1.7687348    2.2230866   -1.9493609 
19260000    1.1291938 -9.9217052e-06   0.53148901  0.022263936            0   0.50922507    1.6726184    2.2041074    1.6961161 
19265000    1.1386893 1.3190855e-06   0.52250729  0.020795939            0   0.50171135    1.6866835    2.2091908    2.2767279 
19270000     1.086229 -7.3041886e-05   0.56090477  0.010757283            0   0.55014748    1.6089768    2.1698815    -1.569863 
19275000    1.1176026 1.6895401e-05   0.52326803  0.021346235            0   0.50192179    1.6554489    2.1787169    3.0437615 
19280000     1.111212 -3.5057698e-05   0.53501025  0.033200243            0      0.50181    1.6459828    2.1809931   0.38603895 
19285000    1.1052774 6.5770266e-05   0.56699086  0.011132856            0     0.555858    1.6371922     2.204183    5.5716206 
19290000     1.067266 2.4872193e-05   0.60865176  0.012572333            0   0.59607943    1.5808877    2.1895395    3.4629958 
19295000    1.0873279 3.0268466e-06   0.61697357  0.029119837            0   0.58785373    1.6106045    2.2275781    2.3825526 
19300000    1.1123415 -5.0686276e-05   0.56001234   0.03762538            0   0.52238696    1.6476558    2.2076681  -0.38746917 
19305000    1.1337452 -8.9523884e-05   0.50989343  0.026906443            0   0.48298698    1.6793601    2.1892535   -2.3943693 
19310000    1.0873739 7.5349669e-05   0.54534795 0.0078462778            0   0.53750167    1.6106726    2.1560206    6.0139236 
19315000    1.0696216 0.00012579126   0.55777752  0.010564348            0   0.54721317     1.584377    2.1421545     8.582667 
19320000    1.0961876 4.691387e-05   0.55008305 0.0025188576            0   0.54756419    1.6237279     2.173811    4.5758011 
19325000      1.14076 8.8181065e-06   0.49046924 0.0025021808            0   0.48796706    1.6897507      2.18022     2.631707 
19330000    1.1304965 -8.3842874e-05   0.52623612 0.0020664829            0   0.52416963     1.674548    2.2007841    -2.091971 
19335000    1.1946509 -9.411331e-05   0.44589348  0.016180843            0   0.42971264    1.7695766    2.2154701   -2.6031314 
19340000     1.098699 2.6868536e-05   0.56226888  0.019360353            0   0.54290853    1.6274479    2.1897168    3.5653859 
19345000    1.1124277  8.88227e-05   0.53957728  0.033751887            0   0.50582539    1.6477835    2.1873608     6.735083 
19350000    1.1338549 1.6646185e-05   0.51958628  0.025226101            0   0.49436018    1.6795225    2.1991088    3.0513935 
19355000     1.121451 -4.0279994e-05   0.51861413  0.018029193            0   0.50058493    1.6611493    2.1797634   0.11742774 
19360000    1.0515624 1.4462753e-05   0.63896409  0.051921808            0   0.58704228    1.5576268    2.1965909    2.9370839 
19365000     1.087007 2.901481e-05   0.59530072  0.096291641            0   0.49900908    1.6101291    2.2054298     3.690988 
19370000    1.1922784 -4.0496112e-05   0.42897677  0.025870953            0   0.40310582    1.7660624    2.1950392   0.12163828 
19375000    1.0899682 -4.5746754e-05   0.56914505  0.011894771            0   0.55725027    1.6145154    2.1836604  -0.15857339 
19380000    1.0925078 -3.4985035e-05   0.55769084  0.019418491            0   0.53827235    1.6182772     2.175968   0.38473427 
19385000    1.1175345 -1.2971908e-05   0.50963213  0.081931037            0    0.4277011     1.655348    2.1649801    1.5008184 
19390000    1.0232704 2.7200834e-05   0.64742299  0.078047877            0   0.56937511    1.5157192    2.1631422    3.5558249 
19395000    1.0882893 -6.636569e-06   0.54968112  0.035928442            0   0.51375268    1.6120286    2.1617097    1.8219174 
19400000     1.090302 -4.8917507e-05   0.56544316  0.021233158            0      0.54421    1.6150098    2.1804529  -0.32412343 
19405000    1.1724101 1.3790403e-05   0.43695448 0.0096782748            0    0.4272762    1.7366325     2.173587    2.8796556 
19410000    1.0992828 3.3490961e-05   0.53811539 0.0075841838            0   0.53053121    1.6283126     2.166428    3.8811652 
19415000     1.135004 -2.0178651e-05   0.49202649 0.0063431195            0   0.48568337    1.6812247    2.1732512    1.1401043 
19420000     1.174691 -3.6062861e-05    0.4295842  0.013659842            0   0.41592436     1.740011    2.1695952   0.32317673 
19425000     1.112839 -2.5703532e-05   0.52291838  0.012034871            0   0.51088351    1.6483927    2.1713111   0.85529028 
19430000    1.1546717 -6.5643566e-05   0.44027256  0.043774173            0   0.39649838    1.7103574      2.15063   -1.2103206 
19435000    1.0108746 -0.00015558261   0.62330532  0.050145269            0   0.57316005     1.497358    2.1206633    -5.845166 
19440000    1.0540104 -0.00019711107   0.56459042  0.012347566            0   0.55224285    1.5612529    2.1258433   -7.9662437 
19445000    1.1324198 3.4592327e-05   0.44946511  0.016954899            0   0.43251021    1.6773968    2.1268619     3.897989 
19450000    1.1229386 9.0888354e-05   0.44367571  0.022605926            0   0.42106979    1.6633528    2.1070286    6.7605123 
19455000    1.0879339 -6.7331623e-05   0.51091293  0.042191786            0   0.46872114    1.6115021     2.122415   -1.3249641 
19460000    1.0150326 -0.00010669544   0.63157985  0.093247082            0   0.53833277    1.5035171    2.1350969   -3.3277094 
19465000    1.1410223 -3.8034388e-05   0.47316007   0.06002737            0    0.4131327    1.6901393    2.1632993   0.21593867 
19470000    1.1156397 6.3114383e-05   0.53590875  0.026331968            0   0.50957678    1.6525414    2.1884501    5.4199065 
19475000    1.1503786 -3.5326856e-05   0.49773451  0.008128884            0   0.48960562    1.7039983    2.2017328   0.39299782 
19480000     1.128567 -0.00014058275   0.52043252  0.017877506            0   0.50255501    1.6716898    2.1921223   -5.0057147 
19485000    1.1516322 -6.3973322e-05   0.47002191  0.012807009            0    0.4572149    1.7058552    2.1758771    -1.099557 
19490000    1.1100328 -2.6300797e-05   0.54871942 0.0027270068            0   0.54599242    1.6442362    2.1929556   0.84635476 
19495000    1.1541287 -2.4542717e-05   0.48738211 0.0065512965            0   0.48083081    1.7095531    2.1969352    0.9403481 
19500000    1.1367868 -9.7122853e-05   0.52642443  0.024828297            0   0.50159614    1.6838655    2.2102899   -2.7624001 
19505000    1.1285835 6.603568e-05   0.52999553  0.016908348            0   0.51308718    1.6717143    2.2017099    5.5827367 
19510000    1.1859781 0.0001066888   0.45300305  0.017629017            0   0.43537403    1.7567301    2.2097331    7.6721994 
19515000    1.1706756 5.2508365e-05   0.48197394  0.022825682            0   0.45914826    1.7340632    2.2160371    4.9044654 
19520000    1.2068176 -5.4255113e-05   0.45570936  0.031398477            0   0.42431088    1.7875985    2.2433079  -0.53455393 
19525000    1.2250633 -3.0007546e-05   0.44168524  0.027379532            0    0.4143057    1.8146249    2.2563102   0.71992382 
19530000    1.1686891 4.5124473e-05   0.52944796  0.019543457            0    0.5099045    1.7311208    2.2605687    4.5709417 
19535000    1.1396667 -0.00015296287   0.56644989 0.0042023464            0   0.56224754    1.6881313    2.2545812   -5.5771178 
19540000    1.1580333 -4.7471253e-05   0.52486399            0            0   0.52486399    1.7153369    2.2402008  -0.19032728 
19545000    1.1929907 -1.4145945e-05   0.44081509 8.2337505e-05            0   0.44073276    1.7671174    2.2079325    1.4836601 
19550000    1.1577911 -6.0833669e-05   0.49529545 0.0077277469            0    0.4875677    1.7149781    2.2102735  -0.90441034 
19555000    1.1568678 -8.71973e-05   0.51064501   0.04797005            0   0.46267496    1.7136104    2.2242554   -2.2402463 
19560000    1.1985155 -8.5496046e-05   0.45164602  0.021001183            0   0.43064484     1.775301     2.226947   -2.1504505 
19565000    1.1956473 3.3065005e-05   0.47385557  0.036896164            0    0.4369594    1.7710525    2.2449081    3.9378364 
19570000    1.1593619 0.00010738001   0.52179218  0.043760882            0   0.47803129    1.7173049    2.2390971    7.7369538 
19575000    1.1209524 2.8394105e-05   0.61673514    0.1025146            0   0.51422053    1.6604108    2.2771459    3.7309241 
19580000    1.2050189 4.0204422e-05   0.47482506  0.049703078            0   0.42512199    1.7849342    2.2597592    4.3182257 
19585000    1.2231533 8.3096672e-05   0.45163492 0.0068526656            0   0.44478225    1.8117958    2.2634308    6.5179804 
19590000    1.1106233 -4.6082932e-05   0.61045014   0.02935239            0   0.58109775    1.6451107    2.2555609  -0.10388527 
19595000    1.2098222 -8.8098361e-06   0.46505762  0.018702116            0    0.4463555    1.7920491    2.2571068    1.8060432 
19600000    1.1727597 0.00014551408   0.49607659 0.0074511102            0   0.48862548    1.7371503    2.2332269    9.6835476 
19605000    1.1127598 1.8835926e-05    0.5572854  0.026643763            0   0.53064164    1.6482754    2.2055608    3.1699603 
19610000    1.1415007 4.8533966e-05   0.51307786  0.024364379            0   0.48871348    1.6908479    2.2039257    4.6888648 
19615000    1.1883947 9.3510867e-05   0.43599053  0.017266018            0   0.41872451    1.7603096    2.1963001    6.9840565 
19620000     1.150002 1.2370019e-05   0.48350147  0.033173645            0   0.45032783    1.7034405     2.186942    2.8202869 
19625000    1.1657085 0.00010162061   0.48245116   0.02638768            0   0.45606348    1.7267058    2.2091569    7.4121323 
19630000    1.1180775 3.0681946e-05   0.55039067  0.033175074            0   0.51721559    1.6561524     2.206543    3.7774586 
19635000    1.1181703 -5.2425758e-05   0.54811384 0.0055436074            0   0.54257023    1.6562898    2.2044036  -0.47979519 
19640000    1.1980892 3.4352938e-05   0.44373808  0.013748348            0   0.42998973    1.7746697    2.2184078    3.9772782 
19645000    1.1661555 8.6687861e-05   0.47053761  0.066727632            0   0.40380997    1.7273679    2.1979055     6.636324 
19650000    1.1791983 2.0663959e-05   0.42129078  0.013600291            0   0.40769049    1.7466875    2.1679783     3.225973 
19655000     1.170793 7.1096016e-06   0.40887212 0.0098276232            0    0.3990445    1.7342372    2.1431093    2.5071209 
19660000    1.1038274 3.7512092e-05   0.53318544  0.036310506            0   0.49687493    1.6350443    2.1682298    4.0888489 
19665000    1.1501707 1.5131307e-05   0.43532137  0.084031024            0   0.35129035    1.7036903    2.1390117    2.9137346 
19670000    1.1099779 4.0207558e-05   0.50288821  0.036457288            0   0.46643092    1.6441548     2.147043    4.2056699 
19675000    1.1401434 -8.1804811e-06   0.43849577  0.018511747            0   0.41998403    1.6888374    2.1273332    1.7084926 
19680000    1.0506663 -7.9110744e-05    0.5770596  0.061911561            0   0.51514804    1.5562995    2.1333591    -1.917111 
19685000    1.0854208 -5.0490838e-05   0.51764432   0.07074486            0   0.44689946    1.6077795    2.1254238  -0.45970709 
19690000    1.0909432 -4.9635354e-05    0.5081401  0.020218251            0   0.48792185    1.6159597    2.1240998  -0.41723038 
19695000    1.1222686 -9.1320986e-05   0.50214273 0.0085673624            0   0.49357536    1.6623604    2.1645031   -2.5111314 
19700000    1.0429056 -5.1176501e-05   0.58534171  0.027128693            0   0.55821302    1.5448039    2.1301456  -0.49009121 
19705000    1.0876976 4.0682578e-05   0.52351979  0.047205438            0   0.47631435    1.6111521    2.1346719    4.2176199 
19710000    1.0614646 5.8663712e-05   0.56110424  0.031541236            0   0.52956301    1.5722944    2.1333987    5.1369808 
19715000     1.050205 9.9550692e-05   0.55463388  0.022709437            0   0.53192445    1.5556161      2.11025    7.2072455 
19720000    1.0961361 6.9106411e-05   0.46660702   0.03921664            0   0.42739038    1.6236516    2.0902586    5.6285068 
19725000    1.0640483 -7.4373555e-05   0.53995259  0.053260415            0   0.48669217    1.5761215    2.1160741   -1.6918519 
19730000    1.0498981 -0.00012555418   0.53811677  0.058298512            0   0.47981826    1.5551615    2.0932783    -4.335096 
19735000    1.1384344 -0.00010743302   0.42973136  0.007316904            0   0.42241446     1.686306    2.1160374   -3.3845333 
19740000    1.0668719 6.8297222e-05   0.54453489 0.0080508358            0   0.53648406     1.580304    2.1248389    5.6216566 
19745000    1.0495613 0.0001327816   0.56024532  0.037841004            0   0.52240432    1.5546627     2.114908    8.9133261 
19750000    1.1482675 -4.2777904e-05   0.43089118  0.049754454            0   0.38113672    1.7008713    2.1317624 -0.058466265 
19755000    1.0695087 -7.3165378e-05   0.50555568  0.033168031            0   0.47238765    1.5842098    2.0897655   -1.6563019 
19760000     1.080244 0.00012850345   0.48340543  0.013843885            0   0.46956154    1.6001114    2.0835168    8.6628937 
19765000    1.0578503 0.00017772134   0.49753748  0.062211113            0   0.43532636    1.5669408    2.0644783    11.163811 
19770000     1.021819 -4.5126516e-05   0.52608279  0.043429973            0   0.48265282    1.5135694    2.0396522  -0.27082539 
19775000    1.0486494 -8.402582e-05   0.48381896  0.017161841            0   0.46665712    1.5533119    2.0371308   -2.2649912 
19780000     1.098346 4.2030132e-07   0.37461897 0.0094421048            0   0.36517687    1.6269251     2.001544    2.0230635 
19785000    1.0551045 2.8216767e-05   0.41457597   0.01066214            0   0.40391383    1.5628736    1.9774496     3.422148 
19790000   0.98468171 -3.965255e-05   0.50707252  0.023217659            0   0.48385486    1.4585598    1.9656323 -0.064578276 
19795000       1.0293 -4.7440236e-05   0.45679737  0.028417608            0   0.42837977    1.5246506    1.9814479  -0.44749214 
19800000    0.9911926 1.1559108e-05   0.50298345  0.056299149            0    0.4466843     1.468204    1.9711875    2.5630138 
19805000   0.96495017 -1.7193594e-06   0.53708968  0.053048135            0   0.48404155    1.4293324    1.9664221    1.8783909 
19810000     1.019354 -4.9629127e-05   0.47265595   0.01154769            0   0.46110826    1.5099181     1.982574  -0.55843727 
19815000     1.064093 -3.5266531e-05   0.40796087  0.010535757            0   0.39742512    1.5761877    1.9841486   0.17850222 
19820000   0.99987579 -2.5288122e-05   0.50919237  0.010558388            0   0.49863399     1.481066    1.9902584   0.69550652 
19825000    1.0450452 -2.303742e-05   0.42010877  0.010575366            0    0.4095334    1.5479733     1.968082   0.78856613 
19830000   0.95311146 1.1321944e-05   0.52312535  0.057733104            0   0.46539224    1.4117964    1.9349217    2.5146052 
19835000   0.96170958 6.0801762e-05   0.52095563  0.060322656            0   0.46063298    1.4245323     1.945488    5.0585382 
19840000   0.98618231 2.4158184e-05   0.47694985  0.018732198            0   0.45821765    1.4607825    1.9377324    3.1746314 
19845000   0.97214424 3.4596346e-05   0.47602956  0.041010922            0   0.43501864    1.4399887    1.9160182    3.6873511 
19850000    1.0185719 9.4936223e-05    0.4418939  0.041715436            0   0.40017846    1.5087596    1.9506535    6.8113882 
19855000   0.99324547 2.1885472e-05   0.48537384  0.059951678            0   0.42542216    1.4712449    1.9566187    3.0771549 
19860000    1.0112822 -2.0171374e-05   0.45167666  0.029099225            0   0.42257743    1.4979618    1.9496385   0.91686413 
19865000     0.992364 -2.8284178e-05   0.49189628 0.0085561756            0    0.4833401    1.4699392    1.9618355   0.51368553 
19870000    1.0602294 -1.2251848e-05   0.41340711 0.0070565172            0   0.40635059    1.5704648     1.983872    1.3565773 
19875000     1.088002 -1.438894e-05   0.36136433 0.0044877491            0   0.35687658     1.611603    1.9729673    1.2362536 
19880000   0.97819751 -5.412979e-05   0.50433109  0.041504131            0   0.46282696    1.4489551    1.9532861  -0.81815911 
19885000   0.99481511 8.2688562e-05   0.46609303  0.046594457            0   0.41949857    1.4735699    1.9396629    6.1733173 
19890000   0.94469071 8.0980562e-05   0.50413433  0.085825006            0   0.41830932    1.3993231    1.9034574    6.0496622 
19895000    1.0074148 -1.3433562e-06   0.43593889  0.070089344            0   0.36584955    1.4922332    1.9281721    1.8593923 
19900000   0.99830228 1.7968071e-05   0.43447207  0.022430511            0   0.41204156    1.4787353    1.9132073    2.8331726 
19905000   0.97112365 -0.00012522204   0.47494393  0.023251077            0   0.45169285    1.4384769    1.9134208   -4.4979476 
19910000    0.9799842 -9.9034358e-05   0.46452163 0.0069879848            0   0.45753365    1.4516016    1.9161232   -3.1544359 
19915000   0.95164754 -3.7210202e-05   0.48326976  0.002895399            0   0.48037436    1.4096279    1.8928977 -0.012264653 
19920000     1.036546 -4.350555e-05   0.37894071 0.00062627211            0   0.37831444    1.5353838    1.9143245  -0.31315969 
19925000   0.97412685 -1.4373181e-05    0.4789885 0.0017950259            0   0.47719347    1.4429254    1.9219139     1.186007 
19930000    1.0702847 0.00012196765   0.34539478 0.0045151149            0   0.34087967    1.5853592     1.930754    8.1754977 
19935000   0.93809979 1.0328991e-05   0.51848452 0.0051306555            0   0.51335386    1.3895603    1.9080448    2.4368892 
19940000   0.93182718 -6.7670509e-05   0.51731426 0.0078075013            0   0.50950676     1.380269    1.8975833   -1.5671468 
19945000    1.0177538 -4.5289284e-05   0.40039165 0.0010851145            0   0.39930654    1.5075478    1.9079394  -0.41087191 
19950000     1.003295 -4.9063537e-05   0.42928071 0.0015106482            0   0.42777007    1.4861307    1.9154114  -0.59664169 
19955000    1.0272885 -1.6360817e-05   0.37370423 0.0084735085            0   0.36523072    1.5216711    1.8953753    1.0577015 
19960000   0.97450261 5.6089322e-05   0.45724136  0.032742506            0   0.42449886     1.443482    1.9007233    4.7724966 
19965000    1.0012812 6.455061e-05   0.39813984  0.036083635            0   0.36205621    1.4831477    1.8812876    5.1862788 
19970000    1.0181711 -9.6932008e-05   0.37997567  0.027126835            0   0.35284884    1.5081659    1.8881416   -3.0747772 
19975000    1.0003011 -5.7827706e-05   0.39028704  0.062491861            0   0.32779518     1.481696     1.871983   -1.0887955 
19980000   0.92161299 5.6670517e-05   0.48352747  0.032568858            0   0.45095861    1.3651392    1.8486667    4.7501972 
19985000    1.0110264 7.4101134e-05   0.36284402  0.043198065            0   0.31964596    1.4975828    1.8604268    5.6544049 
19990000   0.93913611 -3.9536374e-05    0.4734845  0.026931379            0   0.44655312    1.3910954    1.8645799  -0.15968249 
19995000   0.92984361 4.7766556e-05   0.47542415   0.05415227            0   0.42127188    1.3773308     1.852755    4.2984027 
20000000   0.97967026 5.2608985e-05   0.40953851  0.029048156            0   0.38049036    1.4511366    1.8606751    4.5542551 
Loop time of 189.428 on 1 procs for 20000000 steps with 80 atoms

Performance: 91222.219 tau/day, 105581.272 timesteps/s
99.2% CPU use with 1 MPI tasks x no OpenMP threads

MPI task timing breakdown:
Section |  min time  |  avg time  |  max time  |%varavg| %total
---------------------------------------------------------------
Pair    | 9.4201     | 9.4201     | 9.4201     |   0.0 |  4.97
Bond    | 24.279     | 24.279     | 24.279     |   0.0 | 12.82
Neigh   | 20.404     | 20.404     | 20.404     |   0.0 | 10.77
Comm    | 51.113     | 51.113     | 51.113     |   0.0 | 26.98
Output  | 0.49251    | 0.49251    | 0.49251    |   0.0 |  0.26
Modify  | 76.773     | 76.773     | 76.773     |   0.0 | 40.53
Other   |            | 6.945      |            |       |  3.67

Nlocal:        80.0000 ave          80 max          80 min
Histogram: 1 0 0 0 0 0 0 0 0 0
Nghost:        0.00000 ave           0 max           0 min
Histogram: 1 0 0 0 0 0 0 0 0 0
Neighs:        29.0000 ave          29 max          29 min
Histogram: 1 0 0 0 0 0 0 0 0 0

Total # of neighbors = 29
Ave neighs/atom = 0.3625
Ave special neighs/atom = 5.8500000
Neighbor list builds = 3906
Dangerous builds = 0
write_restart restart.equil
System init for write_restart ...
WARNING: Communication cutoff 1.4200000000000002 is shorter than a bond length based estimate of 1.8. This may lead to errors. (../comm.cpp:667)
#--------------End of Input file ------------------
Total wall time: 0:03:09
