LAMMPS (29 Oct 2020)
###################### polyelectrolyte complexation ######################
clear

#Initialization
#------------------------------------
units				lj
dimension			3
atom_style			full
boundary			p p p

#Atom Definition
#-------------------------------------
read_data			data.complexation
Reading data file ...
  orthogonal box = (-120.00000 -120.00000 -120.00000) to (120.00000 120.00000 120.00000)
  1 by 1 by 1 MPI processor grid
  reading atoms ...
  200 atoms
  scanning bonds ...
  1 = max bonds/atom
  reading bonds ...
  199 bonds
Finding 1-2 1-3 1-4 neighbors ...
  special bond factors lj:    0.0      0.0      0.0     
  special bond factors coul:  0.0      0.0      0.0     
     2 = max # of 1-2 neighbors
     2 = max # of 1-3 neighbors
     4 = max # of 1-4 neighbors
     6 = max # of special neighbors
  special bonds CPU = 0.000 seconds
  read_data CPU = 0.003 seconds

#Force definition
#----------------------------------------------
#Bond definition
bond_style			harmonic
bond_coeff			1 5000 1
#Pair definition
special_bonds	lj 0 1 1
Finding 1-2 1-3 1-4 neighbors ...
  special bond factors lj:    0.0      1.0      1.0     
  special bond factors coul:  0.0      0.0      0.0     
     2 = max # of 1-2 neighbors
     2 = max # of 1-3 neighbors
     4 = max # of 1-4 neighbors
     6 = max # of special neighbors
  special bonds CPU = 0.000 seconds
pair_style		 lj/cut 1.12
pair_modify 		 shift yes
pair_coeff	1 1 1 1 1.12

#Timestep etc
#--------------------------------------------
timestep		1e-05
run_style		verlet
velocity		all	create	1	14

#Fix
#---------------------------------------
group polymers type 1
200 atoms in group polymers
fix 1 all nve
fix 2 all langevin 1	1	10	14
fix 3 polymers recenter INIT INIT INIT units box

#Dump
#------------------------------------------------
compute  1 all gyration
variable  myRg2 equal c_1
variable  i equal step
fix  mythermofile all print 5000 "$i ${myRg2}" file radius_of_gyration.dat screen no

thermo_style		 custom step temp press pe evdwl ecoul ebond ke etotal enthalpy
thermo 	5000
dump	3 all custom 5000 dump.lammpstrj id mol type xu yu zu
run		20000000
Neighbor list info ...
  update every 1 steps, delay 10 steps, check yes
  max neighbors/atom: 2000, page size: 100000
  master list distance cutoff = 1.42
  ghost atom cutoff = 1.42
  binsize = 0.71, bins = 339 339 339
  1 neighbor lists, perpetual/occasional/extra = 1 0 0
  (1) pair lj/cut, perpetual
      attributes: half, newton on
      pair build: half/bin/newton
      stencil: half/bin/3d/newton
      bin: standard
WARNING: Communication cutoff 1.4200000000000002 is shorter than a bond length based estimate of 1.8. This may lead to errors. (../comm.cpp:667)
Per MPI rank memory allocation (min/avg/max) = 165.7 | 165.7 | 165.7 Mbytes
Step Temp Press PotEng E_vdwl E_coul E_bond KinEng TotEng Enthalpy 
       0            1 1.4395255e-05            0            0            0            0       1.4925       1.4925       2.4875 
    5000   0.78339844 -0.00021004957   0.33159462            0            0   0.33159462    1.1692222    1.5008168    -13.01781 
   10000     0.433319 -0.00050864919   0.84666959            0            0   0.84666959    0.6467286    1.4933982   -33.664434 
   15000   0.66534644 -0.00030876519    0.5170769            0            0    0.5170769   0.99302956    1.5101065   -19.831743 
   20000   0.69849168 -0.00022513009   0.46625493            0            0   0.46625493    1.0424988    1.5087538   -14.052238 
   25000   0.50964327 -0.00045684312   0.72915964            0            0   0.72915964   0.76064258    1.4898022   -30.087194 
   30000   0.63206062 -0.00036140414   0.55519722            0            0   0.55519722   0.94335048    1.4985477   -23.481706 
   35000   0.77615006 -0.00015588059   0.35319937            0            0   0.35319937     1.158404    1.5116033   -9.2628628 
   40000   0.67963589 -0.00029880748   0.52451906            0            0   0.52451906    1.0143566    1.5388756   -19.114697 
   45000   0.64243749 -0.00037991969   0.59326011            0            0   0.59326011   0.95883795    1.5520981   -24.707951 
   50000   0.78195776 -0.00025176754   0.38943749            0            0   0.38943749     1.167072    1.5565094   -15.845663 
   55000   0.68024801 -0.0002234573    0.5501177            0            0    0.5501177    1.0152702    1.5653878   -13.879981 
   60000   0.69042218 -0.0002595806   0.54103426            0            0   0.54103426    1.0304551    1.5714894   -16.370722 
   65000   0.76066796 -0.00027166145   0.43784007            0            0   0.43784007    1.1352969     1.573137   -17.204102 
   70000    0.7213001 -0.00028917199   0.51655856            0            0   0.51655856    1.0765404     1.593099   -18.394469 
   75000    0.7240368 -0.00023271958   0.49877357            0            0   0.49877357    1.0806249    1.5793985   -14.506179 
   80000   0.75331211 -0.00016770455   0.45211046            0            0   0.45211046    1.1243183    1.5764288   -10.015309 
   85000   0.74076117 -0.00022843785   0.46857983            0            0   0.46857983     1.105586    1.5741659   -14.215458 
   90000   0.69704568 -0.00025530867   0.51981981            0            0   0.51981981    1.0403407    1.5601605   -16.086775 
   95000   0.80344951 -0.00011645509   0.37463122            0            0   0.37463122    1.1991484    1.5737796   -6.4755961 
  100000   0.81743616 -9.2621242e-05   0.33295277            0            0   0.33295277    1.2200235    1.5529762    -4.849004 
  105000   0.70699893 -0.00021904953    0.4953336            0            0    0.4953336    1.0551959    1.5505295   -13.590174 
  110000   0.77495256 -0.00019108157     0.411436            0            0     0.411436    1.1566167    1.5680527   -11.639505 
  115000   0.83733345 -7.0515895e-05   0.32899834            0            0   0.32899834    1.2497202    1.5787185   -3.2953402 
  120000   0.84657517 -8.9208128e-05   0.32956747            0            0   0.32956747    1.2635134    1.5930809   -4.5729849 
  125000   0.80700181 -0.00019461544   0.39883838            0            0   0.39883838    1.2044502    1.6032886   -11.848531 
  130000    0.8484412 -9.6409661e-05    0.3295589            0            0    0.3295589    1.2662985    1.5958574   -5.0679784 
  135000   0.90376739 -3.4014889e-05   0.26898479            0            0   0.26898479    1.3488728    1.6178576  -0.73325148 
  140000   0.84584082 -0.00011240416   0.36204691            0            0   0.36204691    1.2624174    1.6244643   -6.1449114 
  145000   0.86736892 -0.00010812123    0.3160411            0            0    0.3160411    1.2945481    1.6105892   -5.8627504 
  150000   0.84983916 -5.9102584e-05     0.351608            0            0     0.351608     1.268385     1.619993   -2.4651776 
  155000   0.84731823 -3.5347478e-05   0.34568116            0            0   0.34568116    1.2646225    1.6103036  -0.83291408 
  160000   0.87989479 -8.1800741e-05   0.30477826            0            0   0.30477826     1.313243    1.6180212    -4.036046 
  165000   0.84608834 -7.6953844e-05    0.3596069            0            0    0.3596069    1.2627868    1.6223937   -3.6966559 
  170000   0.88598445 -4.2291573e-05   0.31451585            0            0   0.31451585    1.3223318    1.6368476   -1.2863459 
  175000   0.90919535 -4.2200486e-05   0.29020604            0            0   0.29020604    1.3569741    1.6471801   -1.2697175 
  180000   0.86561992 -5.8059199e-05   0.34114523            0            0   0.34114523    1.2919377     1.633083   -2.3799689 
  185000   0.88764458 -3.0791169e-05   0.31175094 3.7551036e-05            0   0.31171339    1.3248095    1.6365605  -0.49172513 
  190000   0.89803141 -6.2184965e-05   0.27541587 0.00078009878            0   0.27463577    1.3403119    1.6157278    -2.682497 
  195000   0.85038639 -7.6651411e-05   0.32957785 0.00072894305            0   0.32884891    1.2692017    1.5987795    -3.699366 
  200000   0.87338094 -7.1679079e-06   0.29565981 0.00042724922            0   0.29523256     1.303521    1.5991809    1.1037351 
  205000    0.8473352 -4.9890825e-05   0.33450749 3.0511516e-05            0   0.33447697    1.2646478    1.5991553   -1.8492986 
  210000    0.8500668 -4.9730381e-05   0.33827259            0            0   0.33827259    1.2687247    1.6069973   -1.8303666 
  215000   0.86543355 -1.168005e-05   0.29458178            0            0   0.29458178    1.2916596    1.5862413   0.77891627 
  220000   0.85696685 -4.3030381e-06   0.31988608            0            0   0.31988608     1.279023    1.5989091    1.3014831 
  225000   0.88551618 -2.2691298e-05   0.28906464            0            0   0.28906464    1.3216329    1.6106975  0.042275029 
  230000   0.86306858 -7.9491655e-05   0.32329991            0            0   0.32329991    1.2881299    1.6114298   -3.8830334 
  235000   0.88238072 1.9564926e-05   0.31613138            0            0   0.31613138    1.3169532    1.6330846    2.9854123 
  240000   0.87501535 -2.075669e-05    0.3238557            0            0    0.3238557    1.3059604    1.6298161   0.19511371 
  245000   0.85360192 -5.650873e-05   0.35200261            0            0   0.35200261    1.2740009    1.6260035   -2.2798799 
  250000   0.87025169 -1.5864391e-05   0.32620694            0            0   0.32620694    1.2988507    1.6250576   0.52851088 
  255000   0.87459983 8.8671827e-06   0.32513358            0            0   0.32513358    1.3053402    1.6304738    2.2433735 
  260000   0.84794478 -3.8467332e-05   0.35684973            0            0   0.35684973    1.2655576    1.6224073   -1.0364546 
  265000   0.87907477 -2.8838099e-05   0.31381634            0            0   0.31381634    1.3120191    1.6258354  -0.36745395 
  270000   0.87943795 4.2733902e-06   0.32369071            0            0   0.32369071    1.3125611    1.6362519    1.9316286 
  275000   0.86674606 -1.2838956e-05   0.35929849            0            0   0.35929849    1.2936185     1.652917   0.76548837 
  280000   0.88003923 -2.8141187e-05   0.31230637            0            0   0.31230637    1.3134585    1.6257649  -0.31935393 
  285000   0.86689797 9.8806609e-06   0.34482808            0            0   0.34482808    1.2938452    1.6386733    2.3216246 
  290000   0.84200962 -5.6354385e-05   0.38055165            0            0   0.38055165    1.2566994     1.637251   -2.2579641 
  295000   0.90400431 -1.7729604e-05   0.29784861            0            0   0.29784861    1.3492264    1.6470751   0.42160481 
  300000   0.86944444 3.226954e-06   0.36061746            0            0   0.36061746    1.2976458    1.6582633    1.8813103 
  305000   0.85963605 -4.6450001e-06   0.38243677            0            0   0.38243677    1.2830068    1.6654436    1.3443812 
  310000    0.8551272 -4.0723255e-05   0.37140565            0            0   0.37140565    1.2762773     1.647683   -1.1671084 
  315000   0.90096507 1.3301812e-06   0.30450105 0.00026508549            0   0.30423596    1.3446904    1.6491914    1.7411335 
  320000   0.86400247 4.0973299e-06   0.36890858 0.0021292146            0   0.36677936    1.2895237    1.6584323    1.9416397 
  325000   0.84531528 -4.6476636e-05   0.38699093 0.0023329819            0   0.38465794     1.261633     1.648624   -1.5638411 
  330000   0.87912649 -2.5581079e-05   0.33274484 0.00074824937            0   0.33199659    1.3120963    1.6448411  -0.12332306 
  335000   0.86652156 6.8978243e-05   0.36074524 2.8730103e-07            0   0.36074495    1.2932834    1.6540287    6.4218048 
  340000   0.87904522 -5.7528967e-05   0.35565639            0            0   0.35565639     1.311975    1.6676314   -2.3087708 
  345000   0.89120388 -6.1682648e-05    0.3225012            0            0    0.3225012    1.3301218     1.652623   -2.6108816 
  350000   0.84652645 8.8045993e-05   0.38220676            0            0   0.38220676    1.2634407    1.6456475    7.7313865 
  355000    0.8656951 -3.8825357e-05   0.33633285            0            0   0.33633285    1.2920499    1.6283828   -1.0552259 
  360000   0.88372253 -8.449752e-05   0.30213378            0            0   0.30213378    1.3189559    1.6210897   -4.2193789 
  365000    0.8571195 6.2847662e-05   0.32889494            0            0   0.32889494    1.2792509    1.6081458    5.9521762 
  370000   0.83612813 -5.6556114e-05   0.35119062            0            0   0.35119062    1.2479212    1.5991119   -2.3100467 
  375000   0.86853928 -6.5141427e-06   0.30811738            0            0   0.30811738    1.2962949    1.6044122    1.1541547 
  380000   0.85144322  2.50316e-05   0.31951663            0            0   0.31951663     1.270779    1.5902956    3.3204798 
  385000   0.85610274 -4.1077537e-05   0.31745257            0            0   0.31745257    1.2777333    1.5951859   -1.2440934 
  390000   0.83123894 9.5487563e-06   0.35755874            0            0   0.35755874    1.2406241    1.5981829    2.2581929 
  395000   0.85865114 1.2773511e-06   0.31001313            0            0   0.31001313    1.2815368      1.59155    1.6798405 
  400000   0.83750092 -2.0535042e-05   0.34760805            0            0   0.34760805    1.2499701    1.5975782   0.17819607 
  405000   0.82095812 1.6762518e-06   0.36955277            0            0   0.36955277      1.22528    1.5948328    1.7106953 
  410000   0.80995358 3.9675417e-05   0.38558016            0            0   0.38558016    1.2088557    1.5944359    4.3368007 
  415000   0.84938774 -3.5469649e-05   0.33475525            0            0   0.33475525    1.2677112    1.6024664   -0.8491957 
  420000   0.88732675 -1.9537793e-05   0.28699588            0            0   0.28699588    1.3243352    1.6113311   0.26087882 
  425000   0.85090413 2.5748803e-05   0.34072263            0            0   0.34072263    1.2699744    1.6106971    3.3904543 
  430000   0.83987069 -1.4518299e-05   0.38083098            0            0   0.38083098     1.253507     1.634338   0.63083314 
  435000   0.85502208 2.0185019e-05   0.36030712            0            0   0.36030712    1.2761205    1.6364276    3.0316161 
  440000   0.82900816 -6.9287578e-05   0.40420671            0            0   0.40420671    1.2372947    1.6415014    -3.147656 
  445000   0.86501582 4.4139652e-05   0.34305407            0            0   0.34305407    1.2910361    1.6340902     4.685023 
  450000   0.85777206 -4.8852693e-05   0.35736347            0            0   0.35736347    1.2802248    1.6375883   -1.7391099 
  455000   0.85864966 5.5353012e-06   0.36897309            0            0   0.36897309    1.2815346    1.6505077    2.0331077 
  460000   0.85326718 -5.8368208e-05    0.3677671            0            0    0.3677671    1.2735013    1.6412684   -2.3931421 
  465000   0.86128517 2.7598418e-05   0.35018607            0            0   0.35018607    1.2854681    1.6356542    3.5432568 
  470000   0.84107931 -3.3555318e-05   0.37382606            0            0   0.37382606    1.2553109    1.6291369  -0.69020666 
  475000   0.87527051 -1.0038379e-05   0.33829935            0            0   0.33829935    1.3063412    1.6446406   0.95078782 
  480000   0.87365842 -2.4957862e-06   0.35475327            0            0   0.35475327    1.3039352    1.6586885    1.4861797 
  485000   0.87216326 -3.4447561e-05   0.36217664            0            0   0.36217664    1.3017037    1.6638803  -0.71713513 
  490000   0.87453351 -2.0938368e-05   0.37494274            0            0   0.37494274    1.3052413     1.680184   0.23292403 
  495000   0.91031261 4.0851175e-05   0.32054937            0            0   0.32054937    1.3586416    1.6791909    4.5028241 
  500000   0.86450225 -8.6284929e-05   0.38598277            0            0   0.38598277    1.2902696    1.6762524   -4.2877619 
  505000   0.86888816 2.2549959e-05   0.37643184            0            0   0.37643184    1.2968156    1.6732474    3.2319006 
  510000   0.87766297 2.560983e-05   0.37532422            0            0   0.37532422     1.309912    1.6852362    3.4553877 
  515000   0.87646546 -6.3388619e-05   0.36417875            0            0   0.36417875    1.3081247    1.6723035   -2.7091179 
  520000   0.92967541 1.8046341e-05   0.30484599            0            0   0.30484599    1.3875405    1.6923865    2.9397497 
  525000   0.89355792 -2.9303341e-05   0.34365893            0            0   0.34365893    1.3336352    1.6772941  -0.34815277 
  530000    0.8598318 -5.626674e-06    0.3808846            0            0    0.3808846     1.283299    1.6641836    1.2752679 
  535000   0.87084456 -2.6890007e-05    0.3761541            0            0    0.3761541    1.2997355    1.6758896  -0.18274767 
  540000   0.90556707 8.2824061e-06   0.33037315            0            0   0.33037315    1.3515588     1.681932    2.2544119 
  545000   0.89452881 -1.0792096e-05   0.35512192            0            0   0.35512192    1.3350843    1.6902062   0.94425651 
  550000   0.86281966 -3.2707105e-05   0.39771485            0            0   0.39771485    1.2877583    1.6854732  -0.57524193 
  555000   0.87544033 1.8259674e-05   0.38050472            0            0   0.38050472    1.3065947    1.6870994    2.9492081 
  560000   0.88572547 -3.3155492e-05   0.38795016            0            0   0.38795016    1.3219453    1.7098954  -0.58181218 
  565000   0.88834678 -1.0756543e-05   0.38218524            0            0   0.38218524    1.3258576    1.7080428   0.96455052 
  570000   0.86991842 3.0916449e-06   0.42129527            0            0   0.42129527    1.2983532    1.7196485     1.933343 
  575000   0.89042843  2.64956e-06   0.39489965            0            0   0.39489965    1.3289644    1.7238641    1.9070017 
  580000   0.89189861 -1.7215425e-05   0.38712823            0            0   0.38712823    1.3311587    1.7182869   0.52835673 
  585000   0.88722226 2.276347e-05   0.39248523            0            0   0.39248523    1.3241792    1.7166645    3.2900755 
  590000   0.84968047 -5.8410035e-05   0.46969495            0            0   0.46969495    1.2681481    1.7378431   -2.2994585 
  595000     0.911203 3.429719e-05   0.37603015            0            0   0.37603015    1.3599705    1.7360006    4.1066224 
  600000    0.9170819 -4.6348627e-05   0.35255722            0            0   0.35255722    1.3687447    1.7213019   -1.4823152 
  605000   0.90185669 -3.7577514e-06   0.40245497            0            0   0.40245497    1.3460211    1.7484761    1.4887403 
  610000   0.92924626 -2.4212929e-05   0.34906599            0            0   0.34906599       1.3869     1.735966  0.062368397 
  615000   0.96746255 2.427144e-06   0.33095879            0            0   0.33095879    1.4439379    1.7748967    1.9426608 
  620000    0.9419932 -2.1063769e-05   0.36320131            0            0   0.36320131    1.4059249    1.7691262   0.31319846 
  625000   0.92868259 -4.4667906e-06   0.37727808            0            0   0.37727808    1.3860588    1.7633368    1.4545923 
  630000    0.9543329 2.3579384e-06   0.34711808            0            0   0.34711808    1.4243418    1.7714599    1.9344406 
  635000   0.93474012 -5.2544132e-05   0.37169082            0            0   0.37169082    1.3950996    1.7667904     -1.86506 
  640000    0.9412592  4.09288e-05   0.34924129            0            0   0.34924129    1.4048294    1.7540706    4.5830693 
  645000   0.91509254 -6.2425475e-05   0.38964074            0            0   0.38964074    1.3657756    1.7554164   -2.5594325 
  650000   0.90694508 -3.7186007e-06   0.36981617            0            0   0.36981617    1.3536155    1.7234317     1.466402 
  655000   0.92058564 8.8480027e-06   0.36965404            0            0   0.36965404    1.3739741    1.7436281     2.355202 
  660000   0.94652401 -4.1430033e-05    0.3448864            0            0    0.3448864    1.4126871    1.7575735   -1.1060704 
  665000   0.92474364 2.9123572e-05   0.37622645            0            0   0.37622645    1.3801799    1.7564063    3.7694276 
  670000   0.93672168 -5.1634176e-05   0.35165908            0            0   0.35165908    1.3980571    1.7497162    -1.819238 
  675000   0.92342204 1.6178263e-05   0.38169162            0            0   0.38169162    1.3782074     1.759899    2.8781405 
  680000     0.867823 8.2524207e-06   0.45617477            0            0   0.45617477    1.2952258    1.7514006    2.3218079 
  685000   0.92438703 -5.0598188e-05   0.37741838            0            0   0.37741838    1.3796476     1.757066   -1.7402807 
  690000   0.92861802 1.6371231e-05   0.35034297            0            0   0.35034297    1.3859624    1.7363054    2.8678848 
  695000   0.88066586 -2.0335619e-05   0.41150564            0            0   0.41150564    1.3143938    1.7258994   0.32030144 
  700000    0.9169401 2.1054319e-06   0.37858421            0            0   0.37858421    1.3685331    1.7471173    1.8926448 
  705000   0.90750816 3.9730279e-06   0.40381788            0            0   0.40381788    1.3544559    1.7582738    2.0328895 
  710000    0.8982746 -1.7499079e-06   0.41306829            0            0   0.41306829    1.3406748    1.7537431    1.6327895 
  715000   0.90096122 -1.9446416e-06     0.409542            0            0     0.409542    1.3446846    1.7542266     1.619813 
  720000   0.92774315 -3.1455963e-05   0.38237532            0            0   0.38237532    1.3846566     1.767032  -0.40720418 
  725000   0.93209872 5.6778068e-06   0.38076684            0            0   0.38076684    1.3911573    1.7719242    2.1643742 
  730000   0.95352431 6.356127e-06   0.36235584            0            0   0.36235584     1.423135    1.7854909    2.2248264 
  735000   0.95586289 -3.8640819e-05   0.37304879            0            0   0.37304879    1.4266254    1.7996742  -0.87117928 
  740000   0.92017403 3.033529e-05   0.42611286            0            0   0.42611286    1.3733597    1.7994726    3.8962478 
  745000   0.94080152 -1.1686359e-05   0.39577022            0            0   0.39577022    1.4041463    1.7999165   0.99215536 
  750000   0.97266052 -2.4665542e-05   0.35972065            0            0   0.35972065    1.4516958    1.8114165   0.10653418 
  755000   0.94549351 -9.5234078e-06   0.40768294            0            0   0.40768294    1.4111491     1.818832    1.1605741 
  760000   0.96857447 2.843776e-05   0.38401811            0            0   0.38401811    1.4455974    1.8296155    3.7952335 
  765000   0.95909415 -8.2943036e-05    0.4051366            0            0    0.4051366     1.431448    1.8365846    -3.896438 
  770000   0.94252357 5.4138877e-05    0.4094105            0            0    0.4094105    1.4067164    1.8161269    5.5582061 
  775000   0.95545737 -5.9299506e-05   0.40015579            0            0   0.40015579    1.4260201    1.8261759   -2.2726059 
  780000   0.98621117 -1.8119715e-05   0.36657144            0            0   0.36657144    1.4719202    1.8384916   0.58605689 
  785000   0.95413786 -1.1490968e-05   0.42721708            0            0   0.42721708    1.4240508    1.8512678    1.0570121 
  790000   0.92367865 -4.1061854e-05   0.46973949            0            0   0.46973949    1.3785904    1.8483299  -0.98986551 
  795000    0.9847033 4.5552682e-06   0.39097196            0            0   0.39097196    1.4696697    1.8606416    2.1755018 
  800000    1.0348289 -4.0887066e-05   0.34189656            0            0   0.34189656    1.5444821    1.8863787  -0.93973533 
  805000    1.0222781 -3.4898632e-05   0.37796195            0            0   0.37796195    1.5257501    1.9037121  -0.50848142 
  810000    1.0137545 6.3565391e-05   0.38706574            0            0   0.38706574    1.5130286    1.9000943    6.2937342 
  815000   0.96066731 -0.00013040147   0.45866587 0.00014048278            0   0.45852539     1.433796    1.8924618   -7.1208879 
  820000   0.97344279 7.6408434e-05   0.44916072  0.000555999            0   0.44860472    1.4528634    1.9020241     7.183375 
  825000    1.0188892 -7.6320533e-05   0.39032465 0.00051235999            0   0.38981229    1.5206921    1.9110167   -3.3642585 
  830000    1.0438437 2.509272e-05   0.35611361 4.1831853e-06            0   0.35610942    1.5579367    1.9140503    3.6484591 
  835000    0.9890292 -2.572459e-05   0.42926812            0            0   0.42926812    1.4761261    1.9053942   0.12731054 
  840000   0.98155957 -2.1356603e-05   0.42725645            0            0   0.42725645    1.4649777    1.8922341   0.41606568 
  845000    1.0101562 9.7938427e-06   0.39973704            0            0   0.39973704    1.5076581    1.9073952    2.5843456 
  850000   0.99087932 2.1755185e-05    0.4226098            0            0    0.4226098    1.4788874    1.9014972    3.4052156 
  855000    1.0018128 -3.6661064e-05   0.41563886            0            0   0.41563886    1.4952057    1.9108445  -0.62316823 
  860000   0.99775991 3.5952392e-05   0.41355826            0            0   0.41355826    1.4891567    1.9027149    4.3877442 
  865000   0.97646631 -6.2535646e-05   0.42914601            0            0   0.42914601     1.457376     1.886522   -2.4359418 
  870000   0.94324222 9.3117645e-06   0.47449429            0            0   0.47449429     1.407789    1.8822833    2.5259125 
  875000   0.96421151 -3.2689056e-05   0.43157424 0.00099654217            0    0.4305777    1.4390857    1.8706599  -0.38880761 
  880000     1.003481 3.087444e-05   0.37916419 0.0052204877            0    0.3739437    1.4976954    1.8768596    4.0109009 
  885000    1.0176531 -3.2243946e-05   0.36253944 0.0034729781            0   0.35906646    1.5188472    1.8813867   -0.3473149 
  890000    1.0180435 1.4963912e-05   0.37555504 0.0015005617            0   0.37405448      1.51943     1.894985    2.9292906 
  895000    0.9796019 -2.4742541e-05   0.42781741 2.3329474e-06            0   0.42781508    1.4620558    1.8898733   0.17966879 
  900000   0.99318784 -8.0498153e-06   0.39018879            0            0   0.39018879    1.4823328    1.8725216    1.3161184 
  905000     0.991534 2.9043373e-05   0.39369412            0            0   0.39369412    1.4798645    1.8735586    3.8810365 
  910000   0.99348056 -3.8954936e-05   0.40175238            0            0   0.40175238    1.4827697    1.8845221  -0.80804304 
  915000   0.99076803 2.1945435e-05   0.40315085            0            0   0.40315085    1.4787213    1.8818721    3.3987406 
  920000   0.96756452 -3.2905603e-05   0.45431988            0            0   0.45431988      1.44409    1.8984099  -0.37602536 
  925000   0.97886483 8.2507604e-06   0.43611959            0            0   0.43611959    1.4609558    1.8970753    2.4673679 
  930000    1.0215327 -3.2184109e-05   0.38591917 4.0238679e-05            0   0.38587893    1.5246375    1.9105567  -0.31400896 
  935000   0.98660517 -2.9577998e-06   0.44857319 0.00086499597            0    0.4477082    1.4725082    1.9210814    1.7166383 
  940000   0.98334501 -2.2860761e-05   0.42312022  0.001748224            0   0.42137199    1.4676424    1.8907626   0.31062684 
  945000    1.0245802 4.6226883e-06    0.3697933 0.00059869096            0   0.36919461    1.5291859    1.8989792    2.2184994 
  950000    1.0038292 -8.7905606e-06    0.3908014 0.00034341743            0   0.39045798    1.4982151    1.8890165     1.281413 
  955000    1.0128907 -1.5346447e-05   0.38737584 0.00056674431            0    0.3868091    1.5117394    1.8991152   0.83836878 
  960000   0.98759123 -3.0741063e-05   0.42195627 0.0012418901            0   0.42071438    1.4739799    1.8959362  -0.22888606 
  965000   0.99399183 -1.1015974e-05   0.42056499 0.0080566032            0   0.41250838    1.4835328    1.9040978    1.1426737 
  970000    1.0220125 -1.7768387e-05   0.38239625 0.0039206357            0   0.37847562    1.5253537      1.90775   0.67959908 
  975000    1.0139472 1.5134469e-05   0.37784144 0.0022616964            0   0.37557974    1.5133162    1.8911577    2.9372521 
  980000   0.95575728 1.5740961e-05   0.45092336 0.0036451548            0    0.4472782    1.4264677    1.8773911    2.9654063 
  985000   0.97826043 -3.4364729e-05   0.42429985 0.0010354855            0   0.42326436    1.4600537    1.8843535   -0.4909365 
  990000    1.0010813 1.0009425e-05   0.39811327 0.00029403518            0   0.39781924    1.4941139    1.8922272    2.5840786 
  995000   0.93556398 -2.8873328e-05   0.47979226 0.0012735259            0   0.47851873    1.3963292    1.8761215  -0.11960296 
 1000000   0.93330138 1.9240257e-05   0.48538193 0.0055958032            0   0.47978613    1.3929523    1.8783342    3.2082208 
 1005000   0.97994823 -8.0833153e-05   0.40362478 0.0092462206            0   0.39437856    1.4625727    1.8661975     -3.72099 
 1010000   0.98206521 5.7557501e-05   0.40973387 0.0045194382            0   0.40521443    1.4657323    1.8754662    5.8538406 
 1015000   0.97917115 -1.4683575e-05   0.41478369 0.00046206372            0   0.41432163    1.4614129    1.8761966   0.86126791 
 1020000   0.98140561 1.6981617e-05   0.42056277 0.0048919103            0   0.41567086    1.4647479    1.8853106      3.05908 
 1025000   0.97860924 -5.2695961e-05   0.41307846 0.0065120489            0   0.40656641    1.4605743    1.8736527   -1.7686921 
 1030000    0.9760572 1.2352224e-05   0.43250458   0.00173408            0    0.4307705    1.4567654      1.88927    2.7430557 
 1035000    1.0065665 1.9579463e-05   0.38006343 0.00087091197            0   0.37919252    1.5023005    1.8823639    3.2356964 
 1040000   0.99492603 -4.2526788e-05   0.40430823 0.0002625609            0   0.40404567    1.4849271    1.8892353   -1.0502162 
 1045000   0.96477704 2.0639171e-05   0.45088047 8.6141973e-05            0   0.45079432    1.4399297    1.8908102    3.3173897 
 1050000   0.98514567 -2.3799359e-05   0.43968596 0.00038777011            0   0.43929819    1.4703299    1.9100159   0.26500418 
 1055000    1.0003576 -8.1942199e-05   0.41942764 0.0017856703            0   0.41764197    1.4930338    1.9124614   -3.7513834 
 1060000   0.99585464 2.8244289e-05   0.42908801  0.001624187            0   0.42746382     1.486313    1.9154011    3.8676463 
 1065000     1.015289 -2.8912447e-05   0.42218734 0.0051944691            0   0.41699287    1.5153188    1.9375062 -0.060922144 
 1070000   0.96772768 0.00011549848   0.47630876 0.0093829412            0   0.46692582    1.4443336    1.9206423     9.903897 
 1075000   0.95023764 -7.4673222e-05   0.50536448 0.0036087002            0   0.50175578    1.4182297    1.9235942   -3.2378189 
 1080000    1.0099722 7.6233928e-05   0.38449391 0.0031389884            0   0.38135492    1.5073835    1.8918774    7.1611665 
 1085000   0.94800016 -8.5501365e-05   0.47772668 0.0055358915            0   0.47219079    1.4148902    1.8926169   -4.0172375 
 1090000   0.96343795 6.7670013e-05   0.45954085 0.0023430551            0    0.4571978    1.4379311     1.897472    6.5748233 
 1095000    1.0072147 -7.3175836e-05   0.40229802 0.0021891803            0   0.40010884    1.5032679    1.9055659   -3.1523479 
 1100000   0.99387118 5.5228843e-05   0.41535091 0.0061581646            0   0.40919274    1.4833527    1.8987036    5.7161213 
 1105000    1.0102502 -4.7167128e-05   0.38841039 0.0032026746            0   0.38520772    1.5077984    1.8962088   -1.3639831 
 1110000   0.97093166 -2.127835e-05   0.45765472 0.00089188835            0   0.45676283    1.4491155    1.9067702   0.43601064 
 1115000   0.94975523 2.6321807e-05   0.47125644 0.0022968792            0   0.46895956    1.4175097    1.8887661    3.7081295 
 1120000   0.96860055 -4.4067127e-05   0.44357684 0.0027889007            0   0.44078794    1.4456363    1.8892132   -1.1567066 
 1125000   0.98184719 1.8832829e-05   0.44398258 0.00067758278            0   0.44330499    1.4654069    1.9093895    3.2111147 
 1130000   0.97582091 1.4477727e-05   0.46987414 0.00036777942            0   0.46950636    1.4564127    1.9262868    2.9269873 
 1135000   0.97877093 8.0480475e-06   0.46473424 0.00059356034            0   0.46414068    1.4608156    1.9255499    2.4818309 
 1140000    1.0134316 8.0167976e-06   0.41414026 0.00023351892            0   0.41390674    1.5125467    1.9266869     2.480808 
 1145000     1.045582 -2.5351994e-05   0.37332509 0.00016838139            0   0.37315671    1.5605311    1.9338562   0.18152638 
 1150000    1.0660637 1.9571051e-06   0.34098714 0.0018055681            0   0.33918157    1.5911001    1.9320873    2.0673624 
 1155000     1.003528 -1.2544047e-06   0.41867079 0.0020494871            0    0.4166213    1.4977655    1.9164363    1.8297319 
 1160000    1.0255801 -5.7236927e-05    0.3869949 0.0014598833            0   0.38553502    1.5306783    1.9176732   -2.0385432 
 1165000    1.0170983 2.3402875e-05   0.40045299 3.8147051e-05            0   0.40041485    1.5180192    1.9184722    3.5360789 
 1170000   0.96277286 -1.1074922e-05   0.47727301            0            0   0.47727301    1.4369385    1.9142115    1.1487129 
 1175000   0.95383503 -1.7563679e-06   0.48240505            0            0   0.48240505    1.4235988    1.9060038    1.7846037 
 1180000   0.97560996 -3.3160335e-05   0.43084504 2.826774e-06            0   0.43084221    1.4560979    1.8869429  -0.40509944 
 1185000   0.99722702 -2.2474575e-05   0.38212169 0.00048333387            0   0.38163836    1.4883613     1.870483   0.31704041 
 1190000   0.95943354 -1.0938926e-05   0.42145941 0.0028118952            0   0.41864751    1.4319546     1.853414    1.0973154 
 1195000    0.9449803 -6.6250135e-06   0.42760529 0.0038005123            0   0.42380478    1.4103831    1.8379884    1.3800675 
 1200000   0.95845461 -3.6875863e-06   0.41976162 0.0038205536            0   0.41594107    1.4304935    1.8502551    1.5953692 
 1205000   0.95877281 -4.0767463e-05   0.41375356 0.00073237596            0   0.41302118    1.4309684     1.844722  -0.97312509 
 1210000   0.95534806 -5.1180698e-06   0.42861161 0.00028047198            0   0.42833113     1.425857    1.8544686    1.5007076 
 1215000   0.92658209 -3.4545813e-05   0.50483623 0.0014212043            0   0.50341502    1.3829238      1.88776   -0.5000466 
 1220000   0.95707415 3.9038235e-05   0.46067578 0.0041751013            0   0.45650068    1.4284332    1.8891089    4.5874317 
 1225000   0.97215063 -4.7506459e-05    0.4478023 0.0013621441            0   0.44644016    1.4509348    1.8987371   -1.3849094 
 1230000   0.99559094 4.0420684e-06   0.42190556 5.3386417e-05            0   0.42185217    1.4859195     1.907825    2.1872128 
 1235000   0.99852096 -6.60926e-05   0.40094878 0.00086804705            0   0.40008073    1.4902925    1.8912413   -2.6770792 
 1240000   0.96317164 6.8895292e-05   0.42797341 0.0081300216            0   0.41984339    1.4375337    1.8655071    6.6275497 
 1245000   0.96343847 -3.05161e-05   0.42149388 0.0065019531            0   0.41499193    1.4379319    1.8594258  -0.24984702 
 1250000    1.0080402 -1.6278112e-05   0.37108915 0.0011923121            0   0.36989684       1.5045    1.8755892   0.75044608 
 1255000   0.97470124 -1.7587133e-05   0.41185659 0.0053762586            0   0.40648033    1.4547416    1.8665982   0.65097556 
 1260000   0.93921929 -3.7362103e-05   0.46281263 0.0080230525            0   0.45478957    1.4017848    1.8645974  -0.71787118 
 1265000   0.97102792 -3.2562354e-06   0.41825393 0.0040648811            0   0.41418905    1.4492592    1.8675131    1.6424421 
 1270000   0.98586757 -8.1467888e-06    0.4198997 0.0040272857            0   0.41587241    1.4714073     1.891307     1.328201 
 1275000   0.96582123 5.826907e-07   0.46606859 0.0031298635            0   0.46293873    1.4414882    1.9075568    1.9478324 
 1280000   0.98942091 -1.1957836e-05   0.43772454 0.0062801087            0   0.43144443    1.4767107    1.9144352    1.0879096 
 1285000   0.95860425 -4.4862944e-05   0.47113668 0.0037228664            0   0.46741382    1.4307168    1.9018535   -1.1990732 
 1290000   0.98859237 -4.082442e-06   0.44577767 0.00024988404            0   0.44552779    1.4754741    1.9212518    1.6390734 
 1295000   0.99908022 7.9073281e-06   0.44101796 0.00054671596            0   0.44047125    1.4911272    1.9321452    2.4786997 
 1300000    1.0104138 -1.5624446e-05   0.42945544  0.001349347            0   0.42810609    1.5080426    1.9374981   0.85753639 
 1305000    1.0534731 -3.0843876e-05   0.36949415  0.001768142            0   0.36772601    1.5723086    1.9418027  -0.19012599 
 1310000    1.0482683 3.6423495e-06   0.39559648 0.00086904594            0   0.39472744    1.5645404    1.9601369    2.2118961 
 1315000    1.0136583 -6.4598006e-05   0.44457309 5.8319837e-05            0   0.44451477     1.512885    1.9574581   -2.5075561 
 1320000    1.0574526 4.0593529e-05   0.38698806 0.0019949145            0   0.38499314     1.578248     1.965236    4.7710608 
 1325000    1.0370673 -2.9759488e-05   0.41719762 0.0047438819            0   0.41245374     1.547823    1.9650206 -0.091955241 
 1330000    1.0360123 -1.4176073e-05   0.41688873   0.00385485            0   0.41303388    1.5462484    1.9631372   0.98328696 
 1335000    1.0667972 1.7850226e-06   0.38059581 0.0013480317            0   0.37924777    1.5921948    1.9727906    2.0961714 
 1340000    1.0138928 1.5213907e-05   0.47413205 0.0015339201            0   0.47259813     1.513235    1.9873671    3.0389523 
 1345000    1.0698969 -6.4067421e-05    0.3842276 0.0030695827            0   0.38115802    1.5968211    1.9810488   -2.4472914 
 1350000    1.0321212 5.9753428e-05   0.43730464 0.0036663372            0    0.4336383    1.5404408    1.9777455    6.1079024 
 1355000    1.0246112 -5.2585219e-05   0.42896724  0.001757463            0   0.42720978    1.5292322    1.9581994   -1.6764909 
 1360000    1.0433498 1.8855046e-05   0.39438133 0.0015637731            0   0.39281756    1.5571995    1.9515809    3.2548417 
 1365000    1.0245407 3.9529693e-05   0.41991153 0.0013019322            0    0.4186096     1.529127    1.9490385    4.6813309 
 1370000    1.0438451 -3.9298815e-05   0.38304287 0.00072913213            0   0.38231374    1.5579389    1.9409817  -0.77535237 
 1375000    1.0085896 2.9982375e-05   0.43265283 0.00054172965            0    0.4321111      1.50532    1.9379728    4.0103546 
 1380000   0.99374942 -5.1401311e-05    0.4530701 0.00052330723            0   0.45254679     1.483171    1.9362411   -1.6166175 
 1385000   0.99828246 4.9087146e-05   0.46725813 0.00037117755            0   0.46688696    1.4899366    1.9571947    5.3500982 
 1390000    1.0106701 -5.3776843e-05   0.44526714 9.9998447e-05            0   0.44516714    1.5084251    1.9536922   -1.7633632 
 1395000    0.9799594 6.1631097e-05   0.47864912 0.0033604017            0   0.47528872    1.4625894    1.9412385      6.20118 
 1400000    1.0003763 -3.9904276e-05   0.45748144  0.014409194            0   0.44307224    1.4930616     1.950543   -0.8076405 
 1405000   0.96865211 -7.7945315e-06   0.48309898  0.010287304            0   0.47281167    1.4457133    1.9288123    1.3900542 
 1410000   0.99965346 -1.3252456e-05   0.42412564 0.00095226586            0   0.42317337    1.4919828    1.9161084    1.0000987 
 1415000   0.97025615 9.5278315e-05   0.47416185 0.0010592533            0    0.4731026    1.4481073    1.9222692    8.5079063 
 1420000   0.95669679 -5.9476768e-05   0.50309027 0.0071794538            0   0.49591081      1.42787    1.9309602    -2.180074 
 1425000   0.98514629 3.2614366e-05   0.43641284 0.0049343764            0   0.43147847    1.4703308    1.9067437    4.1610486 
 1430000   0.99075437 -4.8639308e-05   0.43342999 0.0053167729            0   0.42811321    1.4787009    1.9121309   -1.4498181 
 1435000    1.0145147 3.8313675e-05   0.40899501 0.0090933668            0   0.39990164    1.5141631    1.9231582    4.5713994 
 1440000   0.99562399 -2.4584978e-05   0.45049288 0.0033895273            0   0.44710335    1.4859688    1.9364617   0.23714799 
 1445000    1.0385113 -1.1022581e-06   0.39824276 0.00060783323            0   0.39763492    1.5499782    1.9482209    1.8720328 
 1450000    1.0253562 -3.8776418e-05   0.42605581 0.0011918265            0   0.42486399    1.5303441    1.9563999  -0.72382611 
 1455000    1.0213568 -2.1549638e-06   0.44329736 0.0038864842            0   0.43941088     1.524375    1.9676724    1.8187213 
 1460000   0.99629497 9.2047605e-06   0.48427895 0.0033643338            0   0.48091462    1.4869702    1.9712492    2.6074822 
 1465000    1.0184963 -8.4445333e-05   0.44984575  0.009668843            0    0.4401769    1.5201057    1.9699514     -3.86691 
 1470000    1.0488495 1.5051077e-06     0.417968 0.0069360692            0   0.41103193    1.5654079    1.9833759    2.0874089 
 1475000    1.0219909 -9.4311115e-06   0.46138137 0.0018834095            0   0.45949796    1.5253214    1.9867027    1.3348243 
 1480000    1.0251422 2.0156083e-05   0.46363131 0.0029261875            0   0.46070512    1.5300247    1.9936561    3.3868445 
 1485000    1.0022328 -3.1471122e-05   0.48889226 0.0064675038            0   0.48242475    1.4958324    1.9847247  -0.19055926 
 1490000    1.0067441 5.9057642e-05   0.48616785 0.0026725497            0    0.4834953    1.5025655    1.9887334    6.0707976 
 1495000    1.0439725 -6.8247563e-05   0.42761995 0.0027651293            0   0.42485482    1.5581289    1.9857489   -2.7315226 
 1500000    1.0607092 6.0361322e-05    0.4069478 0.0052078436            0   0.40173996    1.5831084    1.9900562    6.1622308 
 1505000    1.0088827 -8.5376893e-05   0.48567588 0.0078529153            0   0.47782297    1.5057574    1.9914332   -3.9098176 
 1510000    1.0739087 -2.0706315e-05   0.37492306 0.0017871074            0   0.37313595    1.6028087    1.9777318   0.54651125 
 1515000    1.0223878 -3.6876758e-05   0.44393244 0.00084493523            0    0.4430875    1.5259138    1.9698463   -0.5790752 
 1520000    1.0577695 4.0685759e-05   0.38554446 0.0012843005            0   0.38426016     1.578721    1.9642655    4.7764652 
 1525000    1.0278799 1.0212139e-05     0.450774 0.0043793318            0   0.44639467    1.5341108    1.9848848    2.6907478 
 1530000   0.99241018 1.512586e-05   0.48584308 0.0039102321            0   0.48193284    1.4811722    1.9670153    3.0125147 
 1535000    1.0471601 2.6337512e-05   0.43928681  0.004473218            0   0.43481359    1.5628865    2.0021733    3.8226221 
 1540000     1.026559 -5.4415778e-05   0.47645884 0.0082729118            0   0.46818593    1.5321393    2.0085981   -1.7526204 
 1545000    1.0364058 5.7681531e-05   0.44760506 0.0057913769            0   0.44181369    1.5468357    1.9944408    5.9813882 
 1550000    1.0384892 -4.0034725e-06    0.4578801 0.0030061623            0   0.45487394    1.5499452    2.0078253    1.7311052 
 1555000    1.0778168 3.2389441e-05   0.39807237 0.0029147416            0   0.39515763    1.6086416     2.006714    4.2454721 
 1560000    1.0561133 -4.7972344e-05   0.40169472 0.0066697321            0   0.39502498    1.5762491    1.9779438   -1.3379046 
 1565000    1.0355489 1.147584e-05   0.43057777 0.0082106914            0   0.42236708    1.5455567    1.9761345    2.7693446 
 1570000    1.0159547 -4.5754493e-05   0.46417288 0.0019846933            0   0.46218818    1.5163124    1.9804853   -1.1820653 
 1575000    1.0273886 1.6507834e-05     0.449654 0.0033462248            0   0.44630778    1.5333775    1.9830315     3.124053 
 1580000   0.99171585 -9.2750103e-06   0.50716849 0.0077025783            0   0.49946591    1.4801359    1.9873044    1.3462157 
 1585000    1.0104867 1.7012085e-05   0.48824231 0.0079000759            0   0.48034224    1.5081514    1.9963937    3.1722691 
 1590000    1.0145905 -3.9764965e-05   0.49083254 0.0038703968            0   0.48696214    1.5142763    2.0051088  -0.74344554 
 1595000    1.0354061 4.8196188e-06   0.45499067 0.0030850082            0   0.45190566    1.5453437    2.0003343    2.3334664 
 1600000    1.0551252 -1.4661878e-05   0.41195707 0.0020822054            0   0.40987486    1.5747744    1.9867315   0.97330248 
 1605000    1.0633479 -3.382675e-05   0.41252559 0.0024938574            0   0.41003174    1.5870467    1.9995723  -0.33853266 
 1610000    1.0520247 -2.2747689e-05   0.42352679 0.0026951025            0   0.42083169    1.5701468    1.9936736   0.42135336 
 1615000    1.0616109 -2.8972399e-05   0.41825986  0.014097425            0   0.40416243    1.5844543    2.0027142 0.00014191726 
 1620000    1.0462823 2.4651402e-05    0.4562512 0.0088866123            0   0.44736458    1.5615763    2.0178275    3.7217325 
 1625000    1.0222638 1.6054098e-05   0.49697039 0.0025028942            0   0.49446749    1.5257287    2.0226991    3.1323584 
 1630000    1.0588228 3.7867838e-05   0.43010708 0.0011059128            0   0.42900117     1.580293    2.0104001     4.627825 
 1635000    1.0458627 8.4221144e-06   0.45118013 0.00028520274            0   0.45089493      1.56095    2.0121301    2.5942667 
 1640000    1.0163073 7.3819097e-06   0.47227402 4.8728567e-05            0   0.47222529    1.5168387    1.9891127    2.4993503 
 1645000    1.0453467 3.3620044e-05   0.44599931 0.0019565752            0   0.44404274      1.56018    2.0061793    4.3299967 
 1650000    1.0530323 -1.1576085e-05   0.41692239 0.0043427067            0   0.41257968    1.5716507    1.9885731    1.1884341 
 1655000    1.0294679 -4.794139e-05   0.46407239  0.002610866            0   0.46146152    1.5364809    2.0005532   -1.3131556 
 1660000    1.0269078 -3.2898013e-05   0.45168854  0.008492599            0   0.44319595    1.5326599    1.9843484  -0.28956225 
 1665000    1.0276626 -1.0980717e-05   0.46003975 0.0036401278            0   0.45639962    1.5337865    1.9938262     1.234839 
 1670000    1.0388452 -1.1886595e-05   0.43316627 0.0080723983            0   0.42509387    1.5504765    1.9836428    1.1620413 
 1675000   0.99887304 -4.584519e-05   0.47386579 0.0055832282            0   0.46828256     1.490818    1.9646838   -1.2041357 
 1680000    1.0130571 2.6187597e-05   0.46493766  0.010223652            0   0.45471401    1.5119877    1.9769254    3.7870121 
 1685000   0.95223042 -3.4296755e-05   0.54197007 0.0051779834            0   0.53679209    1.4212039     1.963174  -0.40741776 
 1690000    0.9663318 4.3042852e-05   0.50262725 0.00066747345            0   0.50195978    1.4422502    1.9448775    4.9199994 
 1695000   0.96283493 -8.7570343e-06   0.51757358 0.0017135848            0   0.51585999    1.4370311    1.9546047    1.3493185 
 1700000   0.99418254 2.0506829e-05   0.48100751 0.0029742931            0   0.47803321    1.4838174    1.9648249     3.382257 
 1705000    1.0076143 1.6998264e-05   0.46356047 0.0042546157            0   0.45930585    1.5038643    1.9674248    3.1423447 
 1710000   0.99140117 1.9663292e-06   0.47005509 0.0088780245            0   0.46117706    1.4796662    1.9497213     2.085634 
 1715000   0.95339675 4.5398886e-05   0.54055597  0.014482072            0    0.5260739    1.4229447    1.9635006    5.1014717 
 1720000    1.0101922 -5.799737e-05   0.46907011 0.0029787079            0    0.4660914    1.5077118    1.9767819   -2.0319963 
 1725000    1.0091718 7.9514889e-06   0.46921562 0.00075592041            0    0.4684597    1.5061889    1.9754045    2.5250115 
 1730000    1.0179443 -6.9769571e-06   0.45518925 0.00069464559            0    0.4544946    1.5192819    1.9744711    1.4922238 
 1735000     1.020582 1.1365364e-05   0.44576733 0.0016154063            0   0.44415192    1.5232186    1.9689859    2.7545599 
 1740000   0.98376115 -4.3664231e-05   0.50714365  0.003535563            0   0.50360809    1.4682635    1.9754072   -1.0426645 
 1745000     1.006679 5.1475525e-05   0.47890101 0.0080237644            0   0.47087725    1.5024685    1.9813695    5.5393578 
 1750000   0.98762101 2.1771852e-06   0.51665847  0.011113019            0   0.50554545    1.4740244    1.9906828    2.1411699 
 1755000   0.96777783 6.7672391e-05   0.53963582  0.004094147            0   0.53554167    1.4444084    1.9840442    6.6615599 
 1760000    1.0121929 -8.216781e-05   0.46596024 0.0013392283            0   0.46462101     1.510698    1.9766582   -3.7027808 
 1765000    1.0172732 2.0521584e-05   0.45324628 0.00063890156            0   0.45260738    1.5182802    1.9715265    3.3899784 
 1770000   0.99797907 -2.2315572e-05   0.48120276 0.0079802575            0    0.4732225    1.4894838    1.9706865   0.42823421 
 1775000    0.9948264 7.1325953e-05   0.48688202  0.010187626            0   0.47669439    1.4847784    1.9716604    6.9017103 
 1780000   0.98451962 -3.6451971e-05   0.51092153 0.0087036928            0   0.50221784    1.4693955    1.9803171  -0.53924319 
 1785000    1.0058027 4.9051637e-05   0.46455414  0.007330582            0   0.45722356    1.5011605    1.9657147    5.3561638 
 1790000   0.98752439 1.1274643e-05   0.50064029  0.002945466            0   0.49769483    1.4738802    1.9745204    2.7538238 
 1795000    1.0249823 -2.3339539e-05   0.46729329 0.00015017532            0   0.46714311    1.5297862    1.9970794   0.38385049 
 1800000   0.99968346 1.4330582e-05   0.49597888            0            0   0.49597888    1.4920276    1.9880064    2.9785363 
 1805000    1.0012617 3.3205033e-06   0.48828522 4.9204756e-05            0   0.48823601    1.4943831    1.9826683    2.2121815 
 1810000    1.0354187 -2.3500547e-05   0.43126973 0.00096513857            0    0.4303046    1.5453625    1.9766322    0.3522744 
 1815000    1.0149391 8.0762361e-06   0.44521886 0.0048360196            0   0.44038284    1.5147966    1.9600155    2.5182449 
 1820000    1.0173039 -1.3182105e-05   0.43572537  0.010003198            0   0.42572217    1.5183261    1.9540515    1.0429044 
 1825000   0.95030057 -1.750641e-05   0.52058337  0.018011606            0   0.50257176    1.4183236     1.938907   0.72886389 
 1830000   0.97105403 2.3375599e-05   0.48450435    0.0108676            0   0.47363675    1.4492981    1.9338025    3.5495239 
 1835000   0.95621605 -2.2835544e-07   0.49483848  0.010684174            0   0.48415431    1.4271525    1.9219909     1.906207 
 1840000   0.96709202 4.2786392e-05   0.46626235 0.0075057824            0   0.45875657    1.4433848    1.9096472    4.8670426 
 1845000   0.96030844 -6.5906792e-05   0.48453729 0.0038628281            0   0.48067446    1.4332604    1.9177976   -2.6376798 
 1850000    1.0006538 2.8171125e-05   0.42201732 0.0075435937            0   0.41447373    1.4934757    1.9154931    3.8626812 
 1855000   0.97427148 4.7201246e-05   0.44605914 0.0031315481            0   0.44292759    1.4541002    1.9001593    5.1627095 
 1860000   0.97594656 -1.6097994e-05   0.45676075 0.0061644434            0   0.45059631    1.4566002     1.913361   0.80066768 
 1865000   0.99546859 -5.2454437e-05   0.42937763 0.0068044738            0   0.42257316    1.4857369    1.9151145   -1.7105362 
 1870000   0.92810632 -2.559287e-05   0.50750821 0.0052646663            0   0.50224355    1.3851987    1.8927069   0.12372773 
 1875000    0.9461689 4.6787431e-05   0.48504861 0.0039593524            0   0.48108925    1.4121571    1.8972057    5.1311529 
 1880000   0.92879763 -2.8718249e-05   0.49886525 0.0031046293            0   0.49576062    1.3862305    1.8850957 -0.099909628 
 1885000   0.93392805 -3.1710974e-05   0.47897346 0.0015113115            0   0.47746215    1.3938876    1.8728611  -0.31900148 
 1890000   0.92942265 -5.3482502e-05   0.49030166 0.0046920917            0   0.48560957    1.3871633     1.877465   -1.8192456 
 1895000   0.91410493 2.2412136e-06   0.52861823 0.0064252856            0   0.52219294    1.3643016    1.8929198    2.0478325 
 1900000    0.9506987 -2.1001445e-05    0.4763426  0.013369743            0   0.46297286    1.4189178    1.8952604   0.44364057 
 1905000   0.90182823 2.0190358e-06   0.54641523 0.0080898284            0    0.5383254    1.3459786    1.8923939    2.0319496 
 1910000   0.95184007 -8.1271611e-06   0.46529722 0.00085139288            0   0.46444583    1.4206213    1.8859185    1.3241692 
 1915000    0.9616015 -3.4628811e-05   0.45367994 0.00025353429            0    0.4534264    1.4351902    1.8888702  -0.50467321 
 1920000   0.96827115 -2.3130885e-05   0.43764927 0.0023363082            0   0.43531296    1.4451447     1.882794   0.28398719 
 1925000   0.94275088 -4.3627226e-05   0.46217027  0.006562629            0   0.45560764    1.4070557     1.869226   -1.1462879 
 1930000   0.92369074 3.9401279e-05   0.46314751 0.0077567207            0   0.45539079    1.3786084    1.8417559    4.5651723 
 1935000   0.94569556 4.6280575e-05   0.42947567 0.0027355141            0   0.42674016    1.4114506    1.8409263    5.0398396 
 1940000   0.97714612 -7.5901568e-06   0.38619759 0.0023520888            0    0.3838455    1.4583906    1.8445882    1.3199565 
 1945000   0.91859896 -2.8978287e-05   0.46977105 0.0030034175            0   0.46676764    1.3710089      1.84078  -0.16219922 
 1950000    0.9383095 -1.0135742e-05   0.45208629 0.0050726626            0   0.44701363    1.4004269    1.8525132    1.1519308 
 1955000   0.87516396 -6.1891319e-05     0.557934  0.010143525            0   0.54779047    1.3061822    1.8641162   -2.4138117 
 1960000   0.92808528 1.9204501e-05   0.47417564  0.011263939            0   0.46291171    1.3851673    1.8593429     3.186758 
 1965000   0.96092978 -3.3943615e-06   0.45960179   0.01068068            0   0.44892111    1.4341877    1.8937895    1.6591712 
 1970000   0.93060551 -3.8461517e-05   0.49733113 0.0027135087            0   0.49461762    1.3889287    1.8862599  -0.77220016 
 1975000    0.9852007 4.9805581e-05   0.42177018  0.001495531            0   0.42027465     1.470412    1.8921822     5.334744 
 1980000   0.90181583 -2.5140302e-05   0.55589941 0.0034487799            0   0.55245063    1.3459601    1.9018595   0.16416186 
 1985000   0.96117212 -7.3796403e-05   0.47974212 0.0034941906            0   0.47624793    1.4345494    1.9142915   -3.1865159 
 1990000     0.996856 -2.3192794e-05   0.42480503 0.0014647735            0   0.42334026    1.4878076    1.9126126    0.3095267 
 1995000   0.90969427 -1.946033e-05   0.55967004 0.0052034177            0   0.55446662    1.3577187    1.9173887    0.5722907 
 2000000   0.95858794 2.3398201e-05   0.49372961  0.012411418            0    0.4813182    1.4306925    1.9244221    3.5417058 
 2005000   0.94874111 -3.9265269e-05   0.52283769 0.0095426554            0   0.51329504    1.4159961    1.9388338  -0.77518162 
 2010000   0.92393534 -1.1109565e-06   0.54894803 0.0063803547            0   0.54256768    1.3789735    1.9279215    1.8511322 
 2015000   0.96737853 -6.9057035e-07   0.48105794 0.0075729517            0   0.47348499    1.4438125    1.9248704    1.8771382 
 2020000   0.96124277 -3.37093e-05   0.51544324 0.0029362396            0   0.51250701    1.4346548    1.9500981  -0.37988876 
 2025000   0.90484453 1.9060802e-05    0.5956068 0.0070603357            0   0.58854646    1.3504805    1.9460873    3.2635699 
 2030000   0.96628605 1.5105381e-05   0.52688379  0.014062343            0   0.51282145    1.4421819    1.9690657    3.0131497 
 2035000   0.99124319 5.7219729e-05    0.4811612  0.012433164            0   0.46872803    1.4794305    1.9605917    5.9156193 
 2040000   0.96366227 -5.4556121e-05   0.52215171 0.0043913096            0    0.5177604    1.4382659    1.9604177   -1.8105014 
 2045000   0.98835964 2.6168773e-05     0.479799 0.0026657597            0   0.47713324    1.4751268    1.9549258    3.7637113 
 2050000   0.99429651 -3.60292e-05   0.46877829 0.0041394552            0   0.46463883    1.4839875    1.9527658  -0.53757245 
 2055000   0.94061901 -5.1962337e-05   0.52907284  0.016928719            0   0.51214412    1.4038739    1.9329467     -1.65869 
 2060000   0.95498057 3.2765687e-05   0.51400341 0.0086819111            0    0.5053215    1.4253085    1.9393119    4.2040762 
 2065000    0.9897424 -5.9532929e-06   0.46223712 0.0041495737            0   0.45808754    1.4771905    1.9394277     1.527936 
 2070000   0.98802789 -1.2143165e-05   0.47011678  0.016691704            0   0.45342508    1.4746316    1.9447484    1.1054128 
 2075000    1.0209875 -1.1999948e-05   0.39989823 0.0086929653            0   0.39120527    1.5238239    1.9237221    1.0942857 
 2080000   0.97030725 4.051047e-05   0.48491188 0.0015244627            0   0.48338741    1.4481836    1.9330955    4.7331792 
 2085000   0.94944261 9.6811508e-05   0.53373428 8.4167945e-05            0   0.53365011    1.4170431    1.9507774    8.6423888 
 2090000   0.99924541 -6.6537592e-06   0.46875372  0.003875115            0   0.46487861    1.4913738    1.9601275    1.5002197 
 2095000   0.93994695 -9.3573657e-06   0.55824892 0.0091178367            0   0.54913108    1.4028708    1.9611197    1.3143386 
 2100000   0.99364602 -5.0932021e-05   0.48766708  0.012118024            0   0.47554906    1.4830167    1.9706838   -1.5497375 
 2105000   0.96716216 5.6286564e-05   0.52924937  0.015720844            0   0.51352853    1.4434895    1.9727389    5.8632662 
 2110000   0.98544161 -2.7356725e-05   0.51436458  0.025076857            0   0.48928773    1.4707716    1.9851362  0.094239358 
 2115000   0.97029309 2.9948569e-05   0.52826568 0.0092716185            0   0.51899406    1.4481624    1.9764281    4.0464732 
 2120000   0.99123556 5.5517428e-05   0.51353989 0.0047582011            0   0.50878168    1.4794191     1.992959    5.8303236 
 2125000    0.9611317 -3.6858099e-05   0.57306089    0.0099405            0   0.56312039    1.4344891      2.00755  -0.54008185 
 2130000    1.0004427 -1.4299676e-06   0.51409084 0.0099682073            0   0.50412263    1.4931607    2.0072515    1.9084122 
 2135000    1.0190072 6.0938783e-05    0.4922281  0.012411936            0   0.47981616    1.5208682    2.0130963     6.225185 
 2140000    1.0218048 6.698038e-07   0.48369376    0.0105877            0   0.47310606    1.5250436    2.0087374    2.0550342 
 2145000    1.0315735 1.262622e-05   0.45552548 0.0067887682            0   0.44873671    1.5396235    1.9951489    2.8678732 
 2150000    1.0147033 2.7003763e-05   0.50666279  0.010679506            0   0.49598329    1.5144446    2.0211074    3.8876075 
 2155000    1.0412514 3.7158228e-05     0.467525 0.0092038733            0   0.45832112    1.5540677    2.0215927    4.5899694 
 2160000    1.0018299 -4.409854e-05   0.52721606 0.0078352304            0   0.51938083    1.4952311    2.0224472   -1.0256439 
 2165000    1.0708629 -1.2116592e-05   0.43256262 0.0072291465            0   0.42533347    1.5982628    2.0308255    1.1933267 
 2170000    1.0499631 3.7080367e-05   0.47541224 0.0046318872            0   0.47078035    1.5670699    2.0424822    4.6054772 
 2175000   0.96146023 2.9308387e-05   0.59158378 0.0020585397            0   0.58952524    1.4349794    2.0265632    4.0523589 
 2180000    1.0256065 5.4093975e-05   0.50499687  0.004886182            0   0.50011069    1.5307178    2.0357146    5.7746902 
 2185000   0.98668802 2.4974105e-05   0.55900552 0.0094058025            0   0.54959972    1.4726319    2.0316374    3.7578475 
 2190000    1.0286553 4.7315297e-05   0.49915226 0.0050095389            0   0.49414273    1.5352681    2.0344204    5.3048537 
 2195000    1.0314341 3.6626443e-05   0.47842785 0.0022265065            0   0.47620135    1.5394154    2.0178432     4.549463 
 2200000     1.045349 -4.8545839e-05   0.46719685 0.0070185593            0   0.46017829    1.5601834    2.0273803   -1.3281081 
 2205000    1.0230634 -2.9517407e-05   0.49660104  0.008748207            0   0.48785283    1.5269222    2.0235232 -0.016719946 
 2210000   0.97907181 -4.4278058e-05   0.55151014  0.012122292            0   0.53938785    1.4612647    2.0127748   -1.0477245 
 2215000    1.0134316 3.5099541e-05   0.49243986  0.020564305            0   0.47187555    1.5125467    2.0049865    4.4310668 
 2220000    1.0549628 5.2087702e-06   0.44701231   0.01777296            0   0.42923934     1.574532    2.0215443    2.3815745 
 2225000   0.94610735 -7.0101867e-05   0.60992469  0.032162537            0   0.57776215    1.4120652    2.0219899   -2.8234512 
 2230000    1.0698175 5.372182e-05   0.44040892  0.014758671            0   0.42565024    1.5967026    2.0371115    5.7503637 
 2235000   0.99212493 -6.9699073e-05   0.54045738 0.0065964059            0   0.53386098    1.4807465    2.0212038   -2.7963961 
 2240000    1.0336387 8.8672547e-06   0.48351254 0.0055670083            0   0.47794553    1.5427058    2.0262183     2.639123 
 2245000    1.0163362 7.5894529e-06    0.5050335 0.0059537199            0   0.49907978    1.5168818    2.0219153    2.5464983 
 2250000    1.0177196 -1.82452e-05   0.49615169 0.0036577034            0   0.49249398    1.5189465    2.0150982   0.75398995 
 2255000    1.0525405 5.1938859e-05   0.45423962 0.00096741942            0    0.4532722    1.5709167    2.0251564    5.6151703 
 2260000   0.96840628 -3.2554368e-05   0.57296617 0.0067136487            0   0.56625252    1.4453464    2.0183125   -0.2318454 
 2265000   0.98341288 -3.6650068e-05   0.54383913  0.013728164            0   0.53011096    1.4677437    2.0115828  -0.52166988 
 2270000    1.0115053 1.4889489e-05   0.50516701   0.01265211            0    0.4925149    1.5096716    2.0148386    3.0440001 
 2275000    1.0274401 -1.3129217e-05   0.47913301 0.0044549254            0   0.47467808    1.5334543    2.0125873    1.1050959 
 2280000   0.99392559 2.0561421e-05   0.53175825 0.0026363875            0   0.52912187    1.4834339    2.0151922    3.4363976 
 2285000   0.97447271 7.7159372e-07   0.55058506 0.0028867801            0   0.54769828    1.4544005    2.0049856    2.0583181 
 2290000    1.0161175 3.0869786e-05   0.48496206 0.0067379966            0   0.47822406    1.5165553    2.0015174     4.135237 
 2295000   0.97633901 1.7830184e-05   0.53405796  0.011911031            0   0.52214693     1.457186    1.9912439    3.2236663 
 2300000   0.96212593 2.0279536e-05   0.55597502 0.0087832237            0    0.5471918    1.4359729     1.991948    3.3936695 
 2305000   0.95743516 3.0192561e-05   0.55668866  0.022536504            0   0.53415216     1.428972    1.9856606    4.0725705 
 2310000    1.0108629 5.6971733e-05    0.4736841 0.0092942121            0   0.46438989    1.5087128    1.9823969    5.9202831 
 2315000   0.97063524 -3.1981807e-05   0.53316391 0.0082281923            0   0.52493571    1.4486731     1.981837  -0.22874549 
 2320000    1.0440554  3.48113e-05   0.44872577  0.006880987            0   0.44184478    1.5582527    2.0069785    4.4131356 
 2325000   0.95678816 3.2560562e-05   0.56820915 0.0036461226            0   0.56456303    1.4280063    1.9962155    4.2468015 
 2330000   0.97231089 -5.3698368e-05   0.53883333 0.0031075167            0   0.53572581     1.451174    1.9900073   -1.7216238 
 2335000   0.98147272 -3.2199276e-05   0.50799935  0.012700327            0   0.49529903     1.464848    1.9728474  -0.25276653 
 2340000    1.0249998 5.3638328e-05   0.44495573  0.011938722            0     0.433017    1.5298122    1.9747679    5.6822492 
 2345000    0.9973213 2.6996706e-05   0.48476373   0.01010175            0   0.47466198     1.488502    1.9732658    3.8392781 
 2350000   0.97186649 -4.6982673e-05   0.52040117  0.021803406            0   0.49859777    1.4505107    1.9709119   -1.2765304 
 2355000    1.0111194 -5.7380443e-05   0.48118347  0.011099829            0   0.47008364    1.5090957    1.9902792    -1.975857 
 2360000    1.0032686 -8.7571942e-05   0.48929056 0.0011713723            0   0.48811919    1.4973784     1.986669   -4.0663037 
 2365000     1.032369 2.7844615e-05   0.46815986 0.00011380766            0   0.46804606    1.5408108    2.0089707    3.9335904 
 2370000   0.99601828 6.7920145e-05   0.50776558 0.00033274978            0   0.50743283    1.4865573    1.9943229    6.6889633 
 2375000    1.0008067 2.1605527e-05   0.50554259 0.0014262654            0   0.50411633     1.493704    1.9992466    3.4926206 
 2380000     1.020328 1.4243182e-06   0.47534056  0.011290439            0   0.46405013    1.5228396    1.9981801     2.096629 
 2385000    1.0202992 -4.6393297e-05   0.46646164 0.0097768852            0   0.45668476    1.5227965    1.9892582   -1.2174465 
 2390000   0.97266604 -3.5390457e-05   0.50812777 0.0072056235            0   0.50092214    1.4517041    1.9598318  -0.48635656 
 2395000    1.0194159 -5.1204367e-05   0.44195644 0.0011522819            0   0.44080416    1.5214783    1.9634347   -1.5758111 
 2400000   0.94294203 3.273548e-05    0.5400614 0.0038668868            0   0.53619451     1.407341    1.9474024    4.2100787 
 2405000   0.98025269 -5.2133266e-06   0.48154617  0.004944083            0   0.47660208    1.4630271    1.9445733    1.5842282 
 2410000   0.94055029 -4.5910176e-05    0.5481018 0.0020960342            0   0.54600576    1.4037713    1.9518731   -1.2214383 
 2415000   0.99823529 1.6431963e-05   0.46384773 0.0012742732            0   0.46257346    1.4898662    1.9537139    3.0894912 
 2420000    1.0148189 3.3435689e-05   0.44756709 0.00099859643            0    0.4465685    1.5146172    1.9621843    4.2732591 
 2425000    1.0034334 -3.0609597e-05   0.47445353 0.00041312148            0   0.47404041    1.4976244    1.9720779   -0.1436574 
 2430000   0.97667475 8.3967177e-06   0.48110999 2.4103713e-05            0   0.48108589    1.4576871    1.9387971    2.5191782 
 2435000   0.92048383 1.7950806e-05   0.57028984 0.00057537626            0   0.56971446    1.3738221     1.944112    3.1848717 
 2440000   0.98741707 8.5860925e-06   0.46591929 0.0055168464            0   0.46040245      1.47372    1.9396393      2.53311 
 2445000   0.95000621 1.5709681e-05   0.50902802 0.0047735501            0   0.50425447    1.4178843    1.9269123    3.0127655 
 2450000   0.93526052 6.2381015e-06    0.5371709 0.0020310439            0   0.53513986    1.3958763    1.9330472    2.3642248 
 2455000   0.94415216 9.7264924e-06   0.54499653 0.0022731827            0   0.54272335    1.4091471    1.9541436    2.6264388 
 2460000   0.98091688 -1.8119883e-05   0.49827367  0.017535163            0   0.48073851    1.4640184    1.9622921   0.70984583 
 2465000   0.96456127 -5.2553452e-05   0.51314603  0.028236447            0   0.48490958    1.4396077    1.9527537   -1.6797409 
 2470000    0.9301543 -1.448702e-05   0.55293523  0.012596164            0   0.54033906    1.3882553    1.9411905   0.93984769 
 2475000     0.993919 6.4307617e-05   0.46061086  0.010793248            0   0.44981761    1.4834241     1.944035    6.3889775 
 2480000   0.94717701 -8.1034087e-06   0.53760168  0.017396277            0    0.5202054    1.4136617    1.9512634    1.3911558 
 2485000   0.93141711 -1.9232444e-05    0.5494078   0.01451885            0   0.53488895      1.39014    1.9395478   0.61020127 
 2490000   0.92218407 1.0624128e-05   0.55650147  0.019085838            0   0.53741563    1.3763597    1.9328612    2.6672009 
 2495000   0.95237063 -1.3686067e-05   0.52873191 0.0096147891            0   0.51911712    1.4214132    1.9501451    1.0041642 
 2500000   0.94556957 2.6160913e-06   0.53607362  0.007182455            0   0.52889117    1.4112626    1.9473362    2.1281604 
 2505000    0.9448217 -3.8399412e-05   0.51214378  0.009114172            0   0.50302961    1.4101464    1.9222902  -0.73187718 
 2510000   0.92098912 -5.3175701e-05   0.56454165 0.0019277534            0    0.5626139    1.3745763    1.9391179   -1.7363865 
 2515000   0.96697958 -5.061867e-05   0.49482726 0.0087765471            0   0.48605071     1.443217    1.9380443   -1.5607182 
 2520000   0.96364696 -6.755263e-06   0.50432604  0.011704491            0   0.49262155    1.4382431    1.9425691    1.4756454 
 2525000   0.93014156 2.8400106e-05   0.57521844  0.010918053            0   0.56430039    1.3882363    1.9634547      3.92647 
 2530000   0.96358468 -4.87677e-05   0.52686089 0.0056566894            0    0.5212042    1.4381501     1.965011   -1.4058124 
 2535000   0.94997797 8.4222084e-06   0.52442249 0.0046396696            0   0.51978282    1.4178421    1.9422646    2.5244077 
 2540000   0.90007952 3.8945062e-05   0.58449162  0.011371109            0   0.57312051    1.3433687    1.9278603     4.619743 
 2545000   0.97259446 -5.1619438e-05   0.50082809 0.0088077092            0   0.49202038    1.4515972    1.9524253   -1.6155102 
 2550000   0.98975232 5.7612733e-05   0.48290582 0.0032173276            0    0.4796885    1.4772053    1.9601112    5.9423033 
 2555000   0.96999636 2.5875767e-05   0.50479712  0.016155985            0   0.48864113    1.4477196    1.9525167    3.7410497 
 2560000   0.94931946 -5.5929577e-05   0.54324993  0.011337462            0   0.53191246    1.4168593    1.9601092   -1.9057431 
 2565000   0.93624857 -1.3899011e-05   0.54143789 0.0047592216            0   0.53667867     1.397351    1.9387889   0.97808925 
 2570000   0.92931813 8.4899987e-06    0.5537212 0.0061603315            0   0.54756086    1.3870073    1.9407285    2.5275572 
 2575000   0.92303035 2.1697027e-05    0.5418045 0.0027155178            0   0.53908898    1.3776228    1.9194273    3.4191258 
 2580000   0.94358393 -7.9794267e-06   0.50453842 0.0044635993            0   0.50007482     1.408299    1.9128374    1.3612995 
 2585000   0.95049795 8.8039441e-05   0.50585172 0.0044161594            0   0.50143556    1.4186182    1.9244699    8.0097561 
 2590000   0.94528426 4.5020665e-05   0.52167466 0.0087453221            0   0.51292934    1.4108368    1.9325114    5.0443398 
 2595000   0.95304911 -3.0296242e-05    0.5206032 0.0099915182            0   0.51061169    1.4224258     1.943029  -0.15104722 
 2600000   0.93603735 3.9088952e-05   0.52948067 0.0024701182            0   0.52701056    1.3970357    1.9265164    4.6283447 
 2605000    0.9368217 5.4554315e-06   0.54585823 0.0037073191            0   0.54215091    1.3982064    1.9440646     2.321144 
 2610000   0.96516861 3.8729896e-05   0.53437316 0.0097619535            0   0.52461121    1.4405141    1.9748873    4.6518977 
 2615000   0.94056296 -2.7009439e-05     0.565777 0.0073621883            0   0.55841481    1.4037902    1.9695672   0.10267482 
 2620000   0.90222694 -5.9069429e-05   0.62249288 0.0060159947            0   0.61647688    1.3465737    1.9690666   -2.1138123 
 2625000   0.96923089  4.99556e-06   0.52575161 0.0060185923            0   0.51973302    1.4465771    1.9723287    2.3176218 
 2630000   0.99173241 -2.2114606e-05   0.48683135 0.0027058252            0   0.48412553    1.4801606     1.966992   0.43843043 
 2635000   0.96382975 -2.012248e-05   0.52712857 0.0083412006            0   0.51878737    1.4385159    1.9656445   0.57477867 
 2640000    1.0141668 -7.3526752e-06   0.44875922 0.0061290861            0   0.44263013    1.5136439    1.9624031    1.4541862 
 2645000   0.99381702 -7.1597926e-06   0.49174044  0.011944916            0   0.47979552    1.4832719    1.9750123    1.4801275 
 2650000    1.0053168 -2.8195221e-05   0.49114639  0.029077501            0   0.46206889    1.5004353    1.9915817  0.042728005 
 2655000   0.95902822 -2.9598654e-06   0.54633603 0.0094977743            0   0.53683825    1.4313496    1.9776856    1.7730998 
 2660000   0.99031736 -3.799747e-05   0.50282641 0.0052975835            0   0.49752883    1.4780487    1.9808751  -0.64551005 
 2665000   0.98444557 9.8406042e-06   0.51402914  0.017634513            0   0.49639462     1.469285    1.9833141    2.6634967 
 2670000   0.96980727 1.5607659e-06   0.53861065  0.020058704            0   0.51855195    1.4474374     1.986048    2.0939281 
 2675000   0.94673945 -3.0021015e-05   0.57526332  0.014487861            0   0.56077546    1.4130086     1.988272  -0.08678062 
 2680000   0.98350518 -3.0947437e-05   0.51728846   0.01142927            0   0.50585919    1.4678815    1.9851699  -0.15391691 
 2685000   0.99880876 -2.6124099e-05   0.49593253 0.0086675129            0   0.48726502    1.4907221    1.9866546   0.18095688 
 2690000   0.98175857 -5.6882423e-05   0.53491405 0.0072198772            0   0.52769418    1.4652747    2.0001887   -1.9315244 
 2695000   0.93227993 4.5529792e-05   0.62752371 0.0040184967            0   0.62350521    1.3914278    2.0189515    5.1659707 
 2700000   0.99009157 2.0725177e-05   0.50717009 0.0054633951            0    0.5017067    1.4777117    1.9848818     3.417406 
 2705000   0.99348043 -2.4299399e-05   0.50537932  0.013983339            0   0.49139598    1.4827695    1.9881489   0.30857439 
 2710000    0.9473722 -9.2946059e-07   0.54888426  0.018614103            0   0.53027016     1.413953    1.9628373     1.898593 
 2715000   0.95082061 -8.4403082e-06    0.5503249  0.010678557            0   0.53964634    1.4190998    1.9694247    1.3860306 
 2720000   0.94464794 -1.2502846e-05   0.57654978 0.0047420048            0   0.57180777    1.4098871    1.9864368    1.1222401 
 2725000    1.0174777 -7.2470639e-06   0.46926247 0.0077683567            0   0.46149412    1.5185855    1.9878479    1.4869309 
 2730000   0.99164043 3.0981029e-05   0.52217915  0.011481292            0   0.51069786    1.4800233    2.0022025    4.1436112 
 2735000   0.97263614 4.7573715e-05   0.52323715 0.0034836799            0   0.51975347    1.4516594    1.9748966    5.2631918 
 2740000    1.0035891 -5.7756181e-05   0.48741917 0.0015480757            0    0.4858711    1.4978568     1.985276   -2.0068313 
 2745000   0.97601923 -7.2108603e-05   0.54059081 0.0066267888            0   0.53396402    1.4567087    1.9972995   -2.9868472 
 2750000   0.98161849 -2.6680013e-05   0.54376005  0.026166371            0   0.51759368    1.4650656    2.0088256   0.16470316 
 2755000    1.0059002 -6.3750776e-05   0.51082186   0.01796374            0   0.49285812    1.5013061    2.0121279   -2.3943257 
 2760000   0.96633803 -6.3049176e-05   0.55241842 0.0094834822            0   0.54293494    1.4422595    1.9946779   -2.3632811 
 2765000   0.96986409 2.6638718e-05   0.53415693 0.0042128971            0   0.52994403    1.4475222    1.9816791    3.8229473 
 2770000   0.98290083 8.3582355e-05   0.51664025 0.0055494116            0   0.51109084    1.4669795    1.9836197    7.7608321 
 2775000   0.96016621 -3.0512964e-05   0.56421687  0.012587863            0     0.551629    1.4330481    1.9972649  -0.11179114 
 2780000    0.9735461 -3.1621315e-05    0.5565897 0.0087543296            0   0.54783537    1.4530176    2.0096073  -0.17605801 
 2785000    1.0001224 1.2991913e-05   0.53231528  0.012793097            0   0.51952219    1.4926827     2.024998     2.922999 
 2790000   0.94341107 -3.4897255e-05   0.60679048 0.0098326064            0   0.59695787     1.408041    2.0148315   -0.3972668 
 2795000    1.0014424 1.8546817e-05   0.52007704  0.010229759            0   0.50984728    1.4946527    2.0147298    3.2966857 
 2800000   0.98682152 5.4217641e-06   0.55893545  0.013312679            0   0.54562277    1.4728311    2.0317666    2.4065189 
 2805000   0.99670358 2.7975297e-05    0.5532644  0.022768158            0   0.53049625    1.4875801    2.0408445     3.974497 
 2810000    1.0225668 -1.6479766e-05   0.52510501  0.012186396            0   0.51291861    1.5261809    2.0512859   0.91220449 
 2815000    1.0437943 -2.0423109e-05   0.51302446  0.013335758            0    0.4996887     1.557863    2.0708874   0.65924215 
 2820000   0.98047673 3.3852489e-05   0.61036384  0.013816002            0   0.59654784    1.4633615    2.0737254    4.4136094 
 2825000    1.0599356 -5.987086e-05   0.49903913  0.017497581            0   0.48154155    1.5819539    2.0809931   -2.0572808 
 2830000    1.0334279 2.4740016e-05     0.527011  0.008695824            0   0.51831517    1.5423911    2.0694021     3.779432 
 2835000    1.0372375 3.9234021e-05   0.53757825  0.014493849            0    0.5230844     1.548077    2.0856552    4.7975108 
 2840000    1.0463603 7.2893296e-05   0.51391085  0.013329041            0   0.50058181    1.5616927    2.0756036    7.1139882 
 2845000    0.9920587 -3.6956864e-06   0.60611352  0.011466472            0   0.59464705    1.4806476    2.0867611    1.8313153 
 2850000      1.05103 1.0882463e-05   0.51092036  0.013291151            0   0.49762921    1.5686623    2.0795827    2.8317785 
 2855000    1.0035323 2.603158e-05   0.57329866 0.0064923961            0   0.56680627    1.4977719    2.0710706    3.8703734 
 2860000    1.0470996 1.1029286e-05   0.50752534 0.0046848915            0   0.50284045    1.5627962    2.0703215    2.8326658 
 2865000   0.98505963 4.2160947e-06   0.59173167  0.004446993            0   0.58728468    1.4702015    2.0619332    2.3533496 
 2870000    1.0401821 2.4026518e-05   0.49771967 0.0065746053            0   0.49114506    1.5524718    2.0501914    3.7109044 
 2875000    1.0284499 2.4519006e-05   0.52701514 0.0091291013            0   0.51788604    1.5349615    2.0619766    3.7567303 
 2880000   0.96006841 -1.7681817e-06   0.63625811 0.0069591271            0   0.62929898    1.4329021    2.0691602    1.9469435 
 2885000    1.0223225 -4.3246937e-06   0.53854492 0.0049684808            0   0.53357644    1.5258164    2.0643613    1.7654385 
 2890000    1.0431928 -2.5112754e-05   0.49999361 0.0027235484            0   0.49727006    1.5569653    2.0569589   0.32116539 
 2895000     1.042947 1.3116274e-05   0.48587928 0.0040803845            0    0.4817989    1.5565983    2.0424776    2.9490744 
 2900000    1.0301241 8.6163524e-05   0.52613373 0.0064641929            0   0.51966954    1.5374603     2.063594    8.0192168 
 2905000   0.97395881 -2.2009115e-05    0.6138475 0.0074190576            0   0.60642844    1.4536335     2.067481   0.54621103 
 2910000   0.99620322 -1.7859484e-05   0.60040759 0.0070070545            0   0.59340054    1.4868333    2.0872409   0.85279338 
 2915000    1.0759435 -3.7573313e-05   0.49666975 0.0059963693            0   0.49067338    1.6058456    2.1025154  -0.49455203 
 2920000    1.0468669 2.9254371e-05   0.55049145 0.0094560716            0   0.54103538    1.5624488    2.1129403    4.1350024 
 2925000     1.014845 -1.7103756e-05   0.58785187  0.013857962            0   0.57399391    1.5146561     2.102508   0.92029635 
 2930000    1.0847126 -2.1992177e-05   0.49755024 0.0063769526            0   0.49117328    1.6189336    2.1164838   0.59638453 
 2935000     1.004649 6.1313444e-05   0.62079808 0.0060280424            0   0.61477004    1.4994387    2.1202368     6.358222 
 2940000    1.0030253 2.5030432e-05   0.61686833 0.0065809088            0   0.61028742    1.4970153    2.1138836    3.8439871 
 2945000    1.0554817 -3.1130931e-05   0.53239774 0.0090027674            0   0.52339497    1.5753065    2.1077042 -0.044065723 
 2950000    1.0760662 6.3723768e-06   0.50697017 0.0095186101            0   0.49745156    1.6060287    2.1129989    2.5534576 
 2955000    1.1030436 4.0355745e-05   0.49196456 0.0032490892            0   0.48871547    1.6462926    2.1382572    4.9276463 
 2960000    1.0290301 -4.2705425e-05   0.59173047 0.0066964068            0   0.58503406    1.5358275    2.1275579  -0.82424107 
 2965000    1.0609727 5.7829334e-05   0.55625844  0.019183582            0   0.53707486    1.5835018    2.1397602    6.1369238 
 2970000    1.0425198 -3.6246296e-05   0.57198606  0.013753458            0    0.5582326    1.5559609    2.1279469  -0.37739701 
 2975000    1.0134502 -7.5795369e-06   0.60277407  0.010953076            0   0.59182099    1.5125744    2.1153484    1.5914509 
 2980000    1.0511328 -2.7199097e-05   0.53337363   0.00510951            0   0.52826412    1.5688157    2.1021894   0.22218779 
 2985000    1.0786925 -2.8101658e-05   0.49704137 0.0076399044            0   0.48940146    1.6099486      2.10699   0.16460337 
 2990000     1.021517 -2.3766262e-05   0.57563684  0.013782593            0   0.56185425    1.5246141     2.100251   0.45752694 
 2995000    1.0265783 -1.9633164e-05   0.57621026  0.012708306            0   0.56350196    1.5321682    2.1083784   0.75133413 
 3000000    1.0691125 5.7745534e-06    0.5019379 0.0097358163            0   0.49220209    1.5956504    2.0975883    2.4967254 
 3005000    1.0515478 -4.0476743e-06   0.51158692 0.0089714269            0   0.50261549    1.5694351     2.081022    1.8012467 
 3010000   0.98682106 6.7741441e-07   0.60360349   0.00441543            0   0.59918806    1.4728304    2.0764339    2.1232568 
 3015000    1.0386873 3.7318506e-05    0.5274005 0.0046198869            0   0.52278061    1.5502408    2.0776413    4.6570964 
 3020000    1.0239827 3.5973283e-05   0.55429404  0.017009326            0   0.53728471    1.5282942    2.0825882    4.5690615 
 3025000    1.0202905 -4.2012012e-05   0.57297783  0.020993651            0   0.55198418    1.5227835    2.0957613  -0.80810894 
 3030000    1.0756156 7.6967504e-06   0.48797449 0.0066277095            0   0.48134678    1.6053563    2.0933308    2.6253302 
 3035000    1.0783839 -4.2559854e-06   0.50465639 0.0091981757            0   0.49545821     1.609488    2.1141444    1.8199706 
 3040000    1.0627865 -6.5295565e-06   0.53092298  0.011011673            0   0.51991131    1.5862088    2.1171318    1.6658089 
 3045000    1.0043423 -3.9228086e-05   0.63833909 0.0083495921            0   0.62998949    1.4989809      2.13732  -0.57412528 
 3050000    1.0809591 -1.2533736e-05   0.53704447 0.0079995247            0   0.52904495    1.6133314    2.1503759     1.284044 
 3055000    1.0358465 -2.5282782e-05   0.58151132  0.016070943            0   0.56544038    1.5460009    2.1275123   0.37996637 
 3060000    1.0249589 -4.6838162e-05   0.58507409  0.010840784            0    0.5742333    1.5297512    2.1148253   -1.1226285 
 3065000     1.054211 -1.9496976e-05   0.54164147 0.0047588947            0   0.53688257    1.5734099    2.1150513   0.76742037 
 3070000    1.0494373 -3.7610328e-06   0.55998906 0.0085449426            0   0.55144412    1.5662851    2.1262742    1.8663116 
 3075000    1.0627314 2.3737606e-06   0.54554867   0.02407948            0   0.52146919    1.5861266    2.1316752    2.2957496 
 3080000    1.0387115 -2.2999966e-05   0.56304356  0.026646986            0   0.53639657     1.550277    2.1133205   0.52356287 
 3085000    1.0641827 -2.4102058e-06   0.52817983  0.013231743            0   0.51494809    1.5882927    2.1164725    1.9498791 
 3090000    1.0875842 -1.9088431e-06   0.47464281  0.007445612            0    0.4671972    1.6232194    2.0978622     1.965923 
 3095000    1.0196561 -3.9647507e-05   0.56025422  0.013002682            0   0.54725154    1.5218368     2.082091  -0.65834468 
 3100000    1.0154599 1.9369301e-05   0.56188896  0.021723733            0   0.54016522    1.5155738    2.0774628    3.4162689 
 3105000    1.0569639 2.4884596e-05   0.49953755 0.0058333907            0   0.49370416    1.5775186    2.0770561    3.7970794 
 3110000    1.0606041 4.8078643e-05   0.49095149 0.0020153989            0   0.48893609    1.5829516    2.0739031    5.3970989 
 3115000    1.0065227 -4.5106056e-05    0.5833918  0.015741347            0   0.56765045    1.5022351    2.0856269   -1.0321037 
 3120000    1.0434678 1.5968121e-05   0.53668722  0.026717674            0   0.50996955    1.5573757     2.094063    3.1977795 
 3125000    1.0530164 1.3566292e-05   0.51872545  0.017275972            0   0.50144948    1.5716269    2.0903524    3.0280545 
 3130000    1.0349254 -6.674418e-06   0.55877154  0.011861052            0   0.54691049    1.5446262    2.1033978     1.642062 
 3135000    1.0361698 3.1224032e-05   0.56139411  0.011102795            0   0.55029132    1.5464834    2.1078775    4.2660826 
 3140000    1.0543677 1.0158789e-05   0.54143954  0.015637944            0   0.52580159    1.5736437    2.1150833    2.8172588 
 3145000    1.0949978 4.8732376e-06   0.46633384  0.014198286            0   0.45213555    1.6342843    2.1006181    2.4374563 
 3150000    1.0690402 9.1380084e-07   0.53145397 0.0098270888            0   0.52162688    1.5955424    2.1269964    2.1901583 
 3155000    1.0614308 6.388581e-05   0.54816268 0.0053751684            0   0.54278751    1.5841855    2.1323482    6.5481354 
 3160000     1.103122 9.0628826e-06   0.51463776  0.022685443            0   0.49195231    1.6464096    2.1610474    2.7874738 
 3165000    1.0071908 -4.0851724e-05   0.64722613   0.01904097            0   0.62818516    1.5032322    2.1504584  -0.67321281 
 3170000    1.0396418 5.2934597e-05   0.58946412 0.0078988067            0   0.58156532    1.5516654    2.1411295    5.7999689 
 3175000    1.0389906 2.0590938e-05   0.60812283  0.010614602            0   0.59750823    1.5506935    2.1588164     3.582062 
 3180000    1.0703697 -3.396528e-05   0.56474204  0.010971636            0   0.55377041    1.5975268    2.1622689  -0.18541125 
 3185000     1.086434 1.7765855e-05   0.51960845   0.01196573            0   0.50764272    1.6215027    2.1411112    3.3690871 
 3190000    1.0906235 6.4759703e-05    0.5186254 0.0020054279            0   0.51661998    1.6277555    2.1463809    6.6225716 
 3195000    1.1115502 2.0920136e-05   0.47820933 0.0020268568            0   0.47618247    1.6589887     2.137198    3.5831978 
 3200000    1.0732856 1.2783168e-05   0.52455178 0.0065520996            0   0.51799968    1.6018788    2.1264305    3.0100031 
 3205000    1.0736357 -4.0354093e-05   0.53983555 0.0065582651            0   0.53327728    1.6024013    2.1422368  -0.64703803 
 3210000    1.0239849 6.2195796e-05    0.6184174  0.021850944            0   0.59656645    1.5282975    2.1467149    6.4456883 
 3215000    1.0792631 -5.1550688e-06   0.52892969 0.0076876391            0   0.52124205    1.6108002    2.1397299    1.7834115 
 3220000   0.99625708 -5.0627265e-06   0.65601811 0.0061231822            0   0.64989493    1.4869137    2.1429318    1.7929961 
 3225000    1.0224366 -1.1392923e-05   0.61450669  0.022993558            0   0.59151313    1.5259866    2.1404932    1.3530144 
 3230000     1.097942 -3.6223431e-05   0.51113308  0.015305498            0   0.49582758    1.6386784    2.1498115  -0.35395199 
 3235000    1.0385401 -2.4381983e-05   0.57442999  0.015296721            0   0.55913326     1.550021     2.124451   0.43916834 
 3240000    1.0748781 -3.4448158e-05   0.54628258  0.010622536            0   0.53566004    1.6042556    2.1505381  -0.23051857 
 3245000    1.0741708 6.7928424e-06   0.55526255 0.0063555987            0   0.54890695    1.6031999    2.1584625    2.6279837 
 3250000    1.0715687 -8.4185586e-05   0.57396204  0.015610439            0    0.5583516    1.5993164    2.1732784   -3.6456293 
 3255000    1.0730786 5.3028662e-05   0.56015437  0.027744162            0   0.53241021    1.6015698    2.1617242    5.8270653 
 3260000    1.0857087 -4.2994956e-05   0.55204823  0.017902966            0   0.53414527    1.6204203    2.1724685  -0.79934282 
 3265000     1.070044 3.0900773e-05   0.56357897  0.021892679            0   0.54168629    1.5970407    2.1606196     4.296481 
 3270000    1.0340023 1.9844719e-05   0.61413421  0.028532788            0   0.58560142    1.5432484    2.1573826    3.5290496 
 3275000    1.0214649 7.5645996e-06   0.60431105  0.015843804            0   0.58846724    1.5245364    2.1288475    2.6517126 
 3280000    1.0464748 -7.7420912e-06   0.57198232  0.017911271            0   0.55407105    1.5618636    2.1338459    1.5987126 
 3285000    1.0724452 -2.7712531e-05   0.53725816  0.012304693            0   0.52495347    1.6006244    2.1378826   0.22239248 
 3290000     1.110957 -6.0002994e-05   0.46646725  0.012652163            0   0.45381508    1.6581033    2.1245705   -2.0228364 
 3295000    1.0315604 3.883909e-05   0.57793388 0.0092930225            0   0.56864086    1.5396039    2.1175377    4.8020957 
 3300000    1.0497673 -2.0653711e-05   0.54122627  0.013141862            0   0.52808441    1.5667777     2.108004   0.68041953 
 3305000    1.0299859 4.8876478e-05   0.57840622 0.0095178695            0   0.56888835    1.5372539    2.1156602    5.4940023 
 3310000    1.0413933 -1.3277398e-05   0.57662178 0.0019303935            0   0.57469138    1.5542796    2.1309013    1.2131676 
 3315000    1.0700963 -2.4118949e-05   0.52570613 0.0097483278            0    0.5159578    1.5971187    2.1228248   0.45572308 
 3320000    1.0808706 -7.0230195e-06   0.53325148 0.0050697923            0   0.52818169    1.6131994    2.1464509    1.6610197 
 3325000    1.0960883 1.1685622e-05   0.51856064 0.0013056924            0   0.51725495    1.6359117    2.1544724    2.9621825 
 3330000    1.1147312 2.7868601e-06   0.49185669  0.001893899            0   0.48996279    1.6637363     2.155593    2.3482208 
 3335000    1.0680564 -2.4833596e-06   0.56572413 0.0050233439            0   0.56070079    1.5940742    2.1597983    1.9881485 
 3340000    1.0500008 2.1810038e-05   0.56621309  0.023104944            0   0.54310815    1.5671262    2.1333393    3.6408491 
 3345000    1.0534032 -2.3680074e-05   0.56100638  0.028579839            0   0.53242654    1.5722043    2.1332106   0.49644391 
 3350000    1.0864524 -1.8412926e-05   0.51103531  0.017054364            0   0.49398095    1.6215303    2.1325656   0.85986415 
 3355000    1.0086065 -1.2930454e-05   0.63797882  0.034725059            0   0.60325377    1.5053452     2.143324     1.249571 
 3360000    1.0255593 -3.0032987e-05   0.61731685  0.034341928            0   0.58297493    1.5306472    2.1479641  0.072084037 
 3365000    1.0859707 -3.5219469e-05   0.52421777  0.011474074            0   0.51274369    1.6208112     2.145029   -0.2893407 
 3370000    1.0789216 -4.456068e-05   0.53750441 0.0022311945            0   0.53527321    1.6102905    2.1477949  -0.93223936 
 3375000    1.1128527 -6.2575236e-05   0.49587961 0.0021393194            0   0.49374029    1.6609327    2.1568123    -2.168388 
 3380000    1.0967808 -1.3178049e-05   0.53416261 0.0012637998            0   0.53289881    1.6369454     2.171108    1.2602413 
 3385000    1.0872893 1.4811706e-05   0.54776836 0.00062058048            0   0.54714778    1.6227792    2.1705476    3.1943327 
 3390000    1.1301064 6.6216169e-05    0.4712046 0.0023822511            0   0.46882235    1.6866838    2.1578884    6.7347501 
 3395000    1.0479233 6.7702325e-06   0.60529298 0.0051156454            0   0.60017734    1.5640255    2.1693184    2.6372769 
 3400000     1.071215 7.3504508e-06   0.57619191 0.0064906801            0   0.56970123    1.5987883    2.1749802    2.6830434 
 3405000     1.125636 5.4528873e-05   0.50675568  0.010063775            0    0.4966919    1.6800117    2.1867674    5.9558031 
 3410000    1.1027165 -6.394753e-06   0.53080826 0.0087412725            0   0.52206698    1.6458044    2.1766127    1.7346074 
 3415000    1.0539504 -1.8399979e-05   0.60820776  0.009421201            0   0.59878656     1.573021    2.1812288   0.90942223 
 3420000    1.0632059 -2.0588654e-05   0.59096247  0.019182744            0   0.57177973    1.5868348    2.1777973   0.75470955 
 3425000    1.0598416 5.8973997e-05   0.59364622  0.022446665            0   0.57119956    1.5818136    2.1754599    6.2517425 
 3430000    1.0596205 3.2223408e-05   0.59935224  0.018864487            0   0.58048775    1.5814835    2.1808358    4.4081177 
 3435000    1.0860102 3.394703e-05    0.5814755  0.022472062            0   0.55900344    1.6208702    2.2023457    4.5487645 
 3440000    1.0750131 9.1967697e-07   0.57524208  0.013475902            0   0.56176618     1.604457    2.1796991    2.2432671 
 3445000    1.1043538 -2.1192385e-05   0.54166888 0.0098515232            0   0.53181735    1.6482481     2.189917   0.72509931 
 3450000    1.1128147 -3.3940239e-05   0.52945176  0.015154328            0   0.51429744     1.660876    2.1903277  -0.15562162 
 3455000    1.0779511 2.5798225e-05    0.5601975 0.0050838152            0   0.55511369     1.608842    2.1690395    3.9522129 
 3460000    1.0921991 -4.8177279e-05   0.54341475 0.0040301895            0   0.53938456    1.6301072     2.173522   -1.1564915 
 3465000     1.020279 -7.3136132e-05   0.63981473 0.0086652867            0   0.63114944    1.5227664    2.1625812   -2.8925883 
 3470000    1.0425452 -5.1101078e-05   0.60044609  0.022137798            0   0.57830829    1.5559987    2.1564448   -1.3756617 
 3475000    1.0740299 -9.3454535e-06   0.54312321  0.024551915            0    0.5185713    1.6029896    2.1461128    1.5001551 
 3480000    1.0986515 3.6507724e-05   0.52102326   0.04800257            0   0.47302069    1.6397374    2.1607607    4.6841746 
 3485000    1.0325644 7.6991726e-05     0.616288  0.014126439            0   0.60216156    1.5411023    2.1573903    7.4790584 
 3490000    1.0381747 -6.2028939e-06   0.59084174  0.029884928            0   0.56095681    1.5494757    2.1403175    1.7115735 
 3495000    1.0450075 -1.9796709e-05   0.58010502 0.0068769281            0   0.57322809    1.5596737    2.1397787   0.77143016 
 3500000    1.0652926 1.999862e-05    0.5452822  0.008514198            0   0.53676801    1.5899492    2.1352314     3.517536 
 3505000    1.0646246 2.1303178e-05   0.53904096  0.012380932            0   0.52666003    1.5889522    2.1279932    3.6004689 
 3510000     1.073095 -3.8287023e-05   0.52929394  0.015034036            0   0.51425991    1.6015943    2.1308883  -0.51551075 
 3515000    1.0689714 8.7242539e-06   0.54693414  0.013088333            0   0.53384581    1.5954398    2.1423739    2.7453943 
 3520000    1.0478554 -5.3194241e-05   0.56907263  0.015207334            0    0.5538653    1.5639241    2.1329967   -1.5437892 
 3525000    1.0400324 -4.0986594e-06    0.5705052 0.0058173717            0   0.56468782    1.5522484    2.1227536    1.8394543 
 3530000    1.0151905 -1.5950245e-05   0.60236727  0.005521381            0   0.59684589    1.5151718     2.117539    1.0150581 
 3535000    1.0678087 1.1501388e-05   0.52333428 0.0099034443            0   0.51343083    1.5937044    2.1170387    2.9120146 
 3540000    1.0807136 -5.4511778e-06   0.50048097  0.010440887            0   0.49004009     1.612965     2.113446    1.7366606 
 3545000   0.98994398 2.5212013e-05   0.63735578  0.013697987            0    0.6236578    1.4774914    2.1148472    3.8575015 
 3550000    1.0681709 -4.2236249e-05   0.51569501  0.018451124            0   0.49724389    1.5942451    2.1099401  -0.80942945 
 3555000    1.0055513 -7.3000336e-05   0.61351371  0.018327281            0   0.59518643    1.5007854    2.1142991   -2.9314842 
 3560000    1.0300552 -3.6208609e-06   0.54634913   0.01943301            0   0.52691612    1.5373574    2.0837065    1.8334326 
 3565000    1.0513563 3.8908029e-06   0.51768871  0.013777865            0   0.50391084    1.5691493     2.086838    2.3557703 
 3570000    1.0399315 1.9640593e-05   0.53374635 0.0099904991            0   0.52375585    1.5520978    2.0858442    3.4434019 
 3575000    1.0039259 5.588472e-06   0.60781306  0.035287403            0   0.57252566    1.4983593    2.1061724    2.4924476 
 3580000    1.0738946 8.3320831e-06   0.50430424  0.023007807            0   0.48129643    1.6027877    2.1070919    2.6830055 
 3585000    1.0319881 -4.0204674e-05   0.57969439   0.01316865            0   0.56652574    1.5402423    2.1199367  -0.65901039 
 3590000    1.0760128 8.7121635e-06   0.52192617  0.011145181            0   0.51078099     1.605949    2.1278752    2.7300599 
 3595000    1.0308318 -4.5805776e-05   0.60903486 0.0099918813            0   0.59904298    1.5385164    2.1475513   -1.0185439 
 3600000    1.0893829 -1.9019129e-05   0.52228182   0.01156872            0    0.5107131     1.625904    2.1481859   0.83358369 
 3605000    1.0579534 5.9959127e-06   0.55616589  0.026021295            0   0.53014459    1.5789954    2.1351613    2.5495988 
 3610000   0.99718025 -6.3363213e-05   0.61490888  0.031857767            0   0.58305111    1.4882915    2.1032004   -2.2764649 
 3615000     1.036221 -3.1728742e-05   0.56316813  0.026985774            0   0.53618235    1.5465598     2.109728 -0.083362643 
 3620000    1.0384243 6.4372214e-07    0.5648622  0.017961848            0   0.54690035    1.5498483    2.1147105    2.1592045 
 3625000    1.0075548 5.2170857e-05   0.60644205  0.033927705            0   0.57251434    1.5037755    2.1102175    5.7162671 
 3630000     1.033955 1.6735225e-07   0.56765793   0.02379383            0    0.5438641    1.5431778    2.1108358    2.1224032 
 3635000    1.0842812 -1.005871e-05   0.50179877  0.034123135            0   0.46767564    1.6182896    2.1200884    1.4248304 
 3640000    1.0455382 -2.8502293e-05   0.56958424  0.013762342            0    0.5558219    1.5604657      2.13005   0.15997147 
 3645000    1.0607807 -5.1365728e-05   0.55316943  0.011993456            0   0.54117597    1.5832152    2.1363846   -1.4140145 
 3650000    1.0597429 -4.0564165e-05   0.53395993 0.0082644288            0   0.52569551    1.5816663    2.1156262  -0.68816892 
 3655000     1.020321 -2.340809e-05   0.60644368 0.0088237667            0   0.59761992     1.522829    2.1292727   0.51130552 
 3660000     1.061474 1.6836741e-05   0.54193511  0.014726643            0   0.52720847    1.5842499    2.1261851    3.2899406 
 3665000    1.0616729 3.3775863e-05   0.54369073  0.027161792            0   0.51652894    1.5845468    2.1282375    4.4628252 
 3670000    1.0572494 5.0345558e-05   0.56490664 0.0094751868            0   0.55543145    1.5779447    2.1428513    5.6227363 
 3675000    1.0584602 -2.1161372e-06   0.55894755  0.012428845            0   0.54651871    1.5797519    2.1386994     1.992432 
 3680000    1.0077234 -2.6957132e-05    0.6286636   0.01200501            0   0.61665859    1.5040272    2.1326908   0.26941383 
 3685000    1.0417489 -8.1128239e-05   0.58240401 0.0019307834            0   0.58047323    1.5548102    2.1372142   -3.4703697 
 3690000    1.0542418 2.0300104e-05   0.55620593 0.0023122044            0   0.55389372    1.5734559    2.1296619    3.5328051 
 3695000    1.1030993 6.3838142e-05   0.48196192 0.0074391044            0   0.47452282    1.6463758    2.1283377      6.54083 
 3700000    1.0542097 8.1818626e-05   0.53247189  0.010246354            0   0.52222554    1.5734081    2.1058799    7.7611834 
 3705000    1.0708683  5.81932e-05   0.50265009  0.033222199            0   0.46942789     1.598271    2.1009211     6.123235 
 3710000    1.0310422 -3.9467602e-06   0.54469434  0.014815945            0    0.5298784    1.5388305    2.0835248    1.8107248 
 3715000       1.0361 -1.576066e-05   0.51551996  0.013866881            0   0.50165308    1.5463793    2.0618993   0.97252244 
 3720000    1.0566595 1.2545003e-05   0.48334465  0.016608308            0   0.46673635    1.5770643     2.060409    2.9275196 
 3725000    1.0171913 2.5973425e-05   0.52830036  0.011476301            0   0.51682406     1.518158    2.0464583    3.8417415 
 3730000    1.0052096 -1.4749989e-05   0.54190284  0.011502249            0   0.53040059    1.5002753    2.0421781    1.0226589 
 3735000   0.95792712 -1.7955766e-05   0.59188914  0.020248576            0   0.57164056    1.4297062    2.0215954   0.78049284 
 3740000   0.98132276 -3.9735646e-05   0.55930976  0.020198691            0   0.53911107    1.4646242     2.023934  -0.72259385 
 3745000    1.0191173 -2.960343e-05   0.49345088  0.016492411            0   0.47695846    1.5210326    2.0144834  -0.03170562 
 3750000   0.98101885 -1.4768477e-05   0.54561786  0.010363401            0   0.53525446    1.4641706    2.0097885    0.9889914 
 3755000   0.97529745 -4.8296744e-06   0.55074488  0.014775064            0   0.53596982    1.4556314    2.0063763    1.6725492 
 3760000    1.0280319 1.9476602e-05   0.49610761  0.020053735            0   0.47605388    1.5343376    2.0304453     3.376668 
 3765000    1.0402616 1.9032602e-05   0.46235871  0.029304462            0   0.43305425    1.5525905    2.0149492    3.3304827 
 3770000    1.0173952 -1.1798443e-05   0.48845803  0.020489334            0   0.46796869    1.5184623    2.0069204     1.191412 
 3775000     1.026576 -7.9278089e-05   0.47815545  0.010567301            0   0.46758815    1.5321646    2.0103201   -3.4693814 
 3780000   0.97986977 3.2781194e-06   0.54120089  0.011467917            0   0.52973298    1.4624556    2.0036565    2.2302401 
 3785000    1.0031953 3.6156226e-05   0.50570817   0.01217374            0   0.49353443     1.497269    2.0029772    4.5020956 
 3790000    1.0215806 2.2446348e-07   0.48450737 0.0086129214            0   0.47589445     1.524709    2.0092164    2.0247313 
 3795000   0.98235497 1.5506049e-08   0.54056027  0.014524568            0    0.5260357    1.4661648    2.0067251    2.0077968 
 3800000   0.99716384 -2.0096837e-05   0.53394657  0.032564371            0    0.5013822     1.488267    2.0222136    0.6331202 
 3805000    1.0123461 -3.2496949e-05   0.52068262  0.038769572            0   0.48191305    1.5109266    2.0316092  -0.21457987 
 3810000    1.0161411 -1.4810798e-05   0.52022144  0.018938066            0   0.50128337    1.5165906     2.036812    1.0130896 
 3815000   0.99270576 -2.8520551e-05   0.54725644  0.017062817            0   0.53019362    1.4816133    2.0288698  0.057529315 
 3820000   0.94849047 -3.5973096e-06    0.6139836  0.021469867            0   0.59251373     1.415622    2.0296056    1.7809596 
 3825000     1.042194 6.3201078e-06    0.4727811   0.02070089            0   0.45208021    1.5554746    2.0282557    2.4651016 
 3830000    1.0082484 -5.4278059e-06   0.51425875  0.011547701            0   0.50271105    1.5048108    2.0190696    1.6438996 
 3835000    1.0188058 -3.9880878e-06   0.50699699    0.0167781            0   0.49021889    1.5205676    2.0275646     1.751908 
 3840000    1.0247962 1.2109787e-05   0.49767638  0.010837953            0   0.48683843    1.5295083    2.0271847    2.8642131 
 3845000    1.0472279 2.5973996e-05   0.46164048 0.0089240437            0   0.45271643    1.5629876    2.0246281    3.8199507 
 3850000    1.0587238 6.4249116e-05   0.45673586  0.016599867            0     0.440136    1.5801453    2.0368812      6.47778 
 3855000    1.0011753 4.5227646e-05   0.53478917  0.013356489            0   0.52143268    1.4942541    2.0290433    5.1551782 
 3860000    1.0092983 8.4087277e-05   0.53251858  0.010752052            0   0.52176653    1.5063777    2.0388963    7.8510088 
 3865000    1.0488403 5.1208066e-05   0.46199447  0.016415935            0   0.44557853    1.5653942    2.0273886    5.5668902 
 3870000    1.1061965 -7.2433565e-05   0.38822254 0.0084155567            0   0.37980698    1.6509983    2.0392208   -2.9673872 
 3875000    1.0138564 -6.6338949e-05    0.5349412 0.0070981973            0     0.527843    1.5131806    2.0481218   -2.5372263 
 3880000    1.0404487 -2.2293559e-05   0.50425929  0.012678336            0   0.49158095    1.5528696    2.0571289   0.51619811 
 3885000    1.0173361 6.3551682e-06   0.53324872  0.015811385            0   0.51743734    1.5183742    2.0516229    2.4908921 
 3890000    1.0346179 1.776857e-05   0.50576277  0.022845064            0   0.48291771    1.5441672      2.04993    3.2780936 
 3895000    1.0462091 -5.378165e-06   0.48386324  0.014122696            0   0.46974054    1.5614671    2.0453304    1.6735916 
 3900000    1.0422068 -1.6283293e-05    0.4812574 0.0044184435            0   0.47683895    1.5554937    2.0367511   0.91124985 
 3905000    1.0454609 -1.54954e-05   0.49178465 0.0070958709            0   0.48468878    1.5603504    2.0521351   0.98109301 
 3910000    1.0281662 -9.8062021e-06   0.50408576 0.0089749518            0   0.49511081     1.534538    2.0386238    1.3608191 
 3915000   0.98299605 -1.9883674e-05    0.5758678  0.014294359            0   0.56157344    1.4671216    2.0429894   0.66862983 
 3920000    1.0996792 -2.943581e-05   0.41398171  0.011773423            0   0.40220828    1.6412712    2.0552529  0.020649743 
 3925000     1.036145 2.4604078e-05   0.50839361 0.0088864044            0   0.49950721    1.5464464      2.05484    3.7554739 
 3930000   0.98411086 3.8488061e-05   0.57974205   0.02398158            0   0.55576047    1.4687855    2.0485275    4.7088223 
 3935000    1.0684063 -6.9131756e-06   0.47253554  0.019725634            0   0.45280991    1.5945964    2.0671319    1.5892932 
 3940000    1.0443891 -1.6721545e-05   0.51036947  0.009727919            0   0.50064155    1.5587507    2.0691202   0.91332696 
 3945000    1.0510283 -3.3025381e-05   0.51855898  0.015026325            0   0.50353265    1.5686598    2.0872188  -0.19549553 
 3950000    1.0540925  9.24933e-06   0.52075121  0.013341655            0   0.50740955    1.5732331    2.0939843     2.733298 
 3955000    1.0506563 -2.7751987e-05   0.51262644  0.011635046            0   0.50099139    1.5681045    2.0807309   0.16251358 
 3960000    1.0084889 -1.290608e-05   0.55970976  0.015075631            0   0.54463413    1.5051697    2.0648795    1.1728112 
 3965000    1.0416542 5.7736522e-05    0.5050329  0.017525899            0     0.487507    1.5546689    2.0597019    6.0504502 
 3970000    1.0528791 -2.1955199e-05   0.47874416 0.0096186354            0   0.46912552    1.5714221    2.0501662   0.53262286 
 3975000   0.98146729 -3.1971859e-05   0.56953924  0.002803305            0   0.56673593    1.4648399    2.0343792  -0.17551573 
 3980000   0.99502325 -3.5264558e-05   0.52927059  0.019856826            0   0.50941377    1.4850722    2.0143428  -0.42314348 
 3985000     1.007973 2.2004342e-06   0.49357613  0.022105798            0   0.47147033    1.5043997    1.9979758    2.1500698 
 3990000   0.95148983 -1.4138827e-05   0.58297947   0.01376853            0   0.56921094    1.4200986     2.003078    1.0258023 
 3995000   0.95127405 -2.6896355e-06   0.57966047  0.024465011            0   0.55519546    1.4197765     1.999437    1.8135294 
 4000000   0.98245989 4.8295378e-05   0.52324526  0.038189646            0   0.48505561    1.4663214    1.9895666    5.3277432 
 4005000    1.0181274 -7.4564781e-05   0.45435995  0.020726856            0    0.4336331    1.5195551     1.973915   -3.1800026 
 4010000    0.9623396 -2.2813367e-05   0.54130089 0.0040314039            0   0.53726949    1.4362918    1.9775927   0.40073279 
 4015000   0.99579098 3.9704913e-06   0.48251911 0.0023729979            0   0.48014611     1.486218    1.9687372    2.2431775 
 4020000   0.99194373 2.5366723e-06   0.47993044 0.0076600277            0   0.47227042     1.480476    1.9604065    2.1357412 
 4025000   0.98346815 -9.387377e-06   0.48237993  0.020481194            0   0.46189874    1.4678262    1.9502061    1.3013506 
 4030000   0.97648385 -4.0914597e-05   0.47224399  0.023406513            0   0.44883748    1.4574021    1.9296461  -0.89837084 
 4035000   0.94377106 -2.5626894e-05   0.50569526  0.023103152            0    0.4825921    1.4085783    1.9142736   0.14294263 
 4040000   0.94064433 4.0118421e-05   0.50938401  0.031890431            0   0.47749358    1.4039117    1.9132957    4.6862809 
 4045000   0.95063457 1.0286618e-05   0.48277324  0.015639245            0   0.46713399    1.4188221    1.9015953    2.6126064 
 4050000   0.87834414 -3.4641716e-06   0.58429772 0.0058055069            0   0.57849221    1.3109286    1.8952264    1.6557828 
 4055000   0.93051224 1.6091379e-05   0.51074102  0.016427884            0   0.49431313    1.3887895    1.8995305    3.0117667 
 4060000   0.98026877 5.2661895e-05   0.42422087  0.016909744            0   0.40731113    1.4630511     1.887272    5.5272622 
 4065000   0.93109306 8.6965209e-06    0.5090176 0.0056405974            0     0.503377    1.3896564     1.898674    2.4997775 
 4070000   0.90004457 -4.5251093e-05   0.51845407 0.0086080055            0   0.50984607    1.3433165    1.8617706   -1.2659849 
 4075000   0.92994795 3.6140468e-05   0.47494163 0.0055169526            0   0.46942467    1.3879473    1.8628889    4.3609181 
 4080000   0.88450624 -3.202601e-06   0.54268643  0.022248045            0   0.52043838    1.3201256     1.862812    1.6414482 
 4085000   0.92773238 -3.8945204e-05   0.46682277   0.01914367            0   0.44767911    1.3846406    1.8514634  -0.84042917 
 4090000   0.88427111 -3.5195852e-05   0.53279334  0.010211581            0   0.52258176    1.3197746     1.852568  -0.58016935 
 4095000   0.89957812 -3.5621248e-06   0.50451044  0.014667385            0   0.48984305    1.3426203    1.8471308    1.6009167 
 4100000   0.91960624 -1.2108697e-05   0.49062397  0.020772957            0   0.46985101    1.3725123    1.8631363    1.0261831 
 4105000   0.88358504 -4.7069063e-05   0.52977641  0.018737123            0   0.51103929    1.3187507    1.8485271   -1.4048866 
 4110000     0.886276 1.0330439e-05   0.53650231 0.0068033923            0   0.52969892    1.3227669    1.8592692    2.5733092 
 4115000   0.87629673 -2.1935803e-05    0.5359637  0.007336234            0   0.52862747    1.3078729    1.8438366    0.3276339 
 4120000   0.89076315 3.4996886e-05   0.51349381  0.011046405            0    0.5024474     1.329464    1.8429578    4.2619425 
 4125000   0.91182612 3.2892639e-05   0.48526403 0.0068913383            0   0.47837269    1.3609005    1.8461645    4.1197037 
 4130000    0.9284465 -3.877243e-05   0.47411052 0.0052801238            0   0.46883039    1.3857064    1.8598169  -0.82013346 
 4135000   0.93840783 7.9150773e-06   0.47661304 0.0070395799            0   0.46957346    1.4005737    1.8771867    2.4242769 
 4140000   0.91906446 -4.7195327e-05   0.49973958  0.010509695            0   0.48922988    1.3717037    1.8714433   -1.3906977 
 4145000    0.8865741 -2.1386668e-05   0.53450274 0.0080102048            0   0.52649253    1.3232118    1.8577146   0.37946811 
 4150000   0.87623132 2.0776712e-05   0.52679762 0.0058667839            0   0.52093084    1.3077752    1.8345729    3.2706592 
 4155000   0.89452523 -2.8842239e-05   0.49607627 0.0039937882            0   0.49208248    1.3350789    1.8311552  -0.16242035 
 4160000   0.88012385 4.6641684e-05   0.54214939 0.0074135517            0   0.53473584    1.3135848    1.8557342    5.0796074 
 4165000   0.91138555 3.583642e-05   0.49105436  0.010312562            0    0.4807418    1.3602429    1.8512973    4.3283106 
 4170000   0.90172369 2.5218185e-05   0.52587835 0.0084192012            0   0.51745915    1.3458226     1.871701    3.6147819 
 4175000    0.9912337 -1.2741012e-05   0.40693481  0.011254251            0   0.39568055    1.4794163    1.8863511    1.0056923 
 4180000   0.93629311 -1.228428e-05   0.47326568  0.013672749            0   0.45959293    1.3974175    1.8706831    1.0215937 
 4185000   0.92336555 -1.0747289e-05   0.49922007  0.023271827            0   0.47594824    1.3781231    1.8773432    1.1344905 
 4190000   0.95157618 -8.0115363e-06   0.47507738  0.025710958            0   0.44936643    1.4202274    1.8953048    1.3415474 
 4195000   0.91745228 1.362677e-05   0.54167257   0.01356106            0   0.52811151    1.3692975    1.9109701    2.8528525 
 4200000   0.91546142 7.3363211e-06    0.5491805 0.0077831786            0   0.54139732    1.3663262    1.9155067    2.4225932 
 4205000   0.97048042 -2.4773594e-06   0.48104322  0.010965807            0   0.47007742     1.448442    1.9294853    1.7582502 
 4210000   0.97062517 -6.5599447e-07   0.46595844 0.0026107217            0   0.46334772    1.4486581    1.9146165    1.8692742 
 4215000   0.96709393 -2.4047621e-05   0.45617782 0.0014826581            0   0.45469516    1.4433877    1.8995655   0.23739397 
 4220000   0.96659046 1.3649726e-05   0.44878347 0.0039325751            0    0.4448509    1.4426363    1.8914197    2.8348888 
 4225000   0.95806287 5.121733e-06    0.4482134  0.015399008            0   0.43281439    1.4299088    1.8781222    2.2321364 
 4230000   0.93275067 -1.6806596e-05   0.49388042  0.015076844            0   0.47880358    1.3921304    1.8860108   0.72433891 
 4235000   0.90582945 2.4279763e-05   0.53201094  0.018187963            0   0.51382297    1.3519505    1.8839614    3.5621786 
 4240000   0.96158821 -2.8476917e-05   0.44475066  0.012837337            0   0.43191333    1.4351704    1.8799211 -0.088403401 
 4245000   0.96227997 -5.2663381e-06    0.4586776 0.0040152727            0   0.45466233    1.4362029    1.8948805    1.5308712 
 4250000   0.99979837 9.1794834e-06   0.40830891  0.006732858            0   0.40157605    1.4921991     1.900508    2.5349939 
 4255000   0.94166448 1.8248112e-05   0.50794186 0.0051198968            0   0.50282197    1.4054342    1.9133761    3.1746856 
 4260000   0.93058865 -3.047624e-05   0.50269382 0.0062893211            0   0.49640449    1.3889036    1.8915974  -0.21492035 
 4265000   0.89672167 -5.3250689e-05   0.54373776  0.019924039            0   0.52381372    1.3383571    1.8820948   -1.7985928 
 4270000   0.95387591 1.3382673e-05   0.45956044   0.01701407            0   0.44254637    1.4236598    1.8832202    2.8082306 
 4275000   0.94928984 -1.8263212e-05    0.4607565 0.0090822346            0   0.45167427    1.4168151    1.8775716   0.61521839 
 4280000   0.92945759 -3.5826478e-05   0.47773066  0.020076581            0   0.45765408    1.3872155    1.8649461  -0.61138001 
 4285000   0.93432439 4.5005625e-05   0.46994335  0.017032485            0   0.45291087    1.3944792    1.8644225    4.9752113 
 4290000   0.92975986 3.2536235e-05   0.48104689 0.0082371712            0   0.47280972    1.3876666    1.8687135     4.117618 
 4295000   0.91140078 -7.20337e-05   0.51764634 0.0098768893            0   0.50776945    1.3602657     1.877912   -3.1010574 
 4300000   0.91047868 -1.5710153e-05    0.5114779 0.0050424895            0   0.50643541    1.3588894    1.8703673   0.78448151 
 4305000   0.94405617 -3.962726e-05   0.48339765  0.013656634            0   0.46974102    1.4090038    1.8924015  -0.84663472 
 4310000   0.94022722 3.7730105e-05   0.50395229  0.024324664            0   0.47962763    1.4032891    1.9072414    4.5151463 
 4315000   0.90634178 4.8292471e-05   0.54645922  0.010060469            0   0.53639875    1.3527151    1.8991743    5.2371499 
 4320000   0.92917527 -6.0775779e-05   0.49946565 0.00058277651            0   0.49888287    1.3867941    1.8862597   -2.3145621 
 4325000   0.92947826 -4.8404558e-05    0.4992507  0.010673032            0   0.48857767    1.3872463     1.886497   -1.4592261 
 4330000   0.92225509 5.4618828e-05   0.51726581  0.018365391            0   0.49890042    1.3764657    1.8937315    5.6689849 
 4335000   0.92987101 5.4933711e-05   0.50239734  0.021368152            0   0.48102919    1.3878325    1.8902298     5.687248 
 4340000   0.91774042 -4.3657117e-06   0.51863793    0.0133359            0   0.50530203    1.3697276    1.8883655    1.5866075 
 4345000    0.9833888 -5.8000842e-05   0.43199274 0.0084537992            0   0.42353894    1.4677078    1.8997005   -2.1093177 
 4350000   0.98100586 3.5675346e-06   0.44790713  0.015654689            0   0.43225244    1.4641513    1.9120584    2.1586464 
 4355000   0.95044485 1.0502707e-05   0.50280653  0.012929253            0   0.48987728    1.4185389    1.9213455    2.6472926 
 4360000    0.9630658 -6.1456148e-06   0.47960509 0.0031642486            0   0.47644085    1.4373757    1.9169808    1.4921959 
 4365000   0.94672832 -6.4582705e-05   0.51849945  0.010449015            0   0.50805043     1.412992    1.9314915   -2.5324651 
 4370000    0.9573469 1.094642e-05   0.48968186  0.015105759            0    0.4745761    1.4288402    1.9185221    2.6751386 
 4375000   0.90946614 6.0074281e-05   0.54311552  0.012429142            0   0.53068638    1.3573782    1.9004937    6.0528281 
 4380000     0.952154 3.2440417e-05   0.48290288  0.014902424            0   0.46800046    1.4210898    1.9039927    4.1462744 
 4385000   0.97337767 2.3894632e-05   0.44513319 0.0051051103            0   0.44002808    1.4527662    1.8978994    3.5494964 
 4390000   0.91990299 3.8147609e-05   0.52911947 0.0058422505            0   0.52327722    1.3729552    1.9020747    4.5388374 
 4395000   0.89348584 -3.1312652e-05   0.54727031  0.016209567            0   0.53106074    1.3335276    1.8807979  -0.28353259 
 4400000   0.95170933 -5.5335525e-05   0.47476334  0.013228996            0   0.46153434    1.4204262    1.8951895    -1.929602 
 4405000   0.94344244 8.0656514e-05   0.49385243  0.015712014            0   0.47814042    1.4080878    1.9019403    7.4769185 
 4410000   0.98509454 -6.142145e-05   0.42668839 0.0035548566            0   0.42313353    1.4702536     1.896942   -2.3485087 
 4415000   0.94720933 1.0037181e-05   0.46859827 0.0078946134            0   0.46070366    1.4137099    1.8823082    2.5760782 
 4420000    0.9277427 1.4242922e-05   0.52919254  0.015520558            0   0.51367198     1.384656    1.9138485    2.8983193 
 4425000   0.94248983 1.5523089e-05   0.50670106 0.0084986129            0   0.49820244    1.4066661    1.9133671     2.986323 
 4430000   0.94308225 -4.7065703e-05   0.49886273 0.0064117319            0     0.492451    1.4075503     1.906413   -1.3467684 
 4435000   0.93266862 1.335285e-05   0.51704837 0.0060660137            0   0.51098236    1.3920079    1.9090563    2.8320053 
 4440000   0.94359326 -1.9379907e-05   0.47623237  0.005262287            0   0.47097009    1.4083129    1.8845453   0.54500616 
 4445000   0.93496452 -2.5311985e-06   0.48981756  0.022019524            0   0.46779804    1.3954345    1.8852521    1.7102957 
 4450000   0.89731914 -2.5049169e-05    0.5284802  0.011669098            0   0.51681111    1.3392488     1.867729   0.13633047 
 4455000   0.91572617 5.1580634e-05   0.51600905  0.018694569            0   0.49731448    1.3667213    1.8827304    5.4479838 
 4460000   0.96071058 6.6475411e-06   0.43007685  0.024513228            0   0.40556362    1.4338605    1.8639374    2.3234154 
 4465000   0.93202329 7.7128196e-06   0.48205833   0.01743745            0   0.46462088    1.3910448    1.8731031    2.4062132 
 4470000   0.89815675 5.8180226e-05    0.5293413  0.013699238            0   0.51564207     1.340499    1.8698403    5.8912575 
 4475000   0.96892904 -1.6940655e-05   0.41663527  0.011224799            0   0.40541047    1.4461266    1.8627619   0.69182379 
 4480000   0.93313602 -6.3512622e-05   0.47311613  0.004552251            0   0.46856388    1.3927055    1.8658216   -2.5241708 
 4485000   0.92653638 4.381176e-06   0.47181159 0.0037169788            0   0.46809462    1.3828555    1.8546671     2.157494 
 4490000   0.91843456 3.1587696e-05   0.47687876 0.0024614007            0   0.47441736    1.3707636    1.8476423    4.0309839 
 4495000   0.88983237 -7.6017449e-05   0.52151837  0.003156718            0   0.51836166    1.3280748    1.8495932   -3.4047329 
 4500000   0.91880005 1.5172256e-05   0.47636007 0.0075327404            0   0.46882733    1.3713091    1.8476691    2.8963755 
 4505000   0.90460329 -3.2155796e-05    0.4958331  0.021482134            0   0.47435096    1.3501204    1.8459535  -0.37665509 
 4510000   0.90131677 -1.6232037e-05   0.50955542  0.020616608            0   0.48893881    1.3452153    1.8547707   0.73281231 
 4515000   0.91435335 1.5312731e-05   0.51163502  0.017190795            0   0.49444422    1.3646724    1.8763074    2.9347234 
 4520000   0.92211055 -4.2803435e-05   0.49627841 0.0079718466            0   0.48830656      1.37625    1.8725284    -1.086045 
 4525000   0.93399495 -3.6085547e-05   0.48176862 0.0037479249            0    0.4780207    1.3939875    1.8757561  -0.61847692 
 4530000   0.98646399 -1.9192485e-05   0.41970794 0.0068280311            0   0.41287991    1.4722975    1.8920055   0.56542091 
 4535000   0.96480383 -1.3397167e-05   0.44378369   0.01383757            0   0.42994612    1.4399697    1.8837534   0.95774123 
 4540000   0.90728084 -1.4691709e-05   0.53679054  0.011429801            0   0.52536074    1.3541167    1.8909072    0.8754163 
 4545000   0.95425994 -2.1893441e-05   0.46294104  0.007336883            0   0.45560416     1.424233     1.887174   0.37389934 
 4550000   0.95283695 -1.6731061e-05   0.47735858   0.01219749            0   0.46516109    1.4221091    1.8994677   0.74301679 
 4555000   0.93303759 -2.4563379e-05   0.54430674  0.015096607            0   0.52921014    1.3925586    1.9368653   0.23904459 
 4560000   0.91517848 -2.0310479e-05   0.56465757  0.013981106            0   0.55067646    1.3659039    1.9305614   0.52670117 
 4565000    0.9836658 2.4193567e-05   0.46212825  0.016474979            0   0.44565327    1.4681212    1.9302495    3.6025088 
 4570000   0.95219893 1.3649664e-05   0.49763097  0.011221692            0   0.48640928    1.4211569    1.9187879    2.8622527 
 4575000   0.92498713 -3.9942349e-05   0.55346615  0.013652174            0   0.53981398    1.3805433    1.9340094  -0.82680572 
 4580000   0.96694644 -7.2931272e-05   0.48273625 0.0099169012            0   0.47281935    1.4431676    1.9259038   -3.1151057 
 4585000   0.94330654 -2.9119862e-05   0.49309875  0.019234427            0   0.47386433     1.407885    1.9009838   -0.1117811 
 4590000   0.90746323 3.8928194e-05   0.53664602  0.014173433            0   0.52247259    1.3543889    1.8910349    4.5817517 
 4595000   0.91748394 2.692004e-05    0.5260645  0.014944349            0   0.51112015    1.3693448    1.8954093    3.7561224 
 4600000   0.93725993 -6.5142006e-05     0.507804  0.025197007            0   0.48260699    1.3988604    1.9066644    -2.595951 
 4605000   0.98121263 -6.0307946e-05    0.4394299  0.014664965            0   0.42476494    1.4644599    1.9038898   -2.2645955 
 4610000   0.95650698 1.6516418e-06   0.47879271 0.0049991103            0    0.4737936    1.4275867    1.9063794    2.0205409 
 4615000   0.96270947 -2.7607266e-05   0.48958935  0.011669229            0   0.47792013    1.4368439    1.9264332  0.018219032 
 4620000   0.93793417 -2.332266e-05    0.5173194  0.022743518            0   0.49457588    1.3998668    1.9171862   0.30512392 
 4625000   0.96875374 -1.1229178e-05   0.47584117  0.017859942            0   0.45798123     1.445865    1.9217061    1.1455454 
 4630000   0.93809749 -6.9615193e-05   0.51393747  0.017103979            0   0.49683349    1.4001105     1.914048   -2.8977542 
 4635000   0.93339342 -9.3191539e-06   0.51586826  0.027343973            0   0.48852429    1.3930897    1.9089579     1.264818 
 4640000   0.93986993 4.414822e-05   0.49281395 0.0067623305            0   0.48605162    1.4027559    1.8955698    4.9470948 
 4645000   0.93269921 7.0620128e-05   0.50699339 0.0023397457            0   0.50465365    1.3920536     1.899047    6.7803102 
 4650000   0.95586615 1.2364714e-05   0.47442498  0.012881307            0   0.46154367    1.4266302    1.9010552    2.7557042 
 4655000   0.95374897 -2.6332689e-05   0.49399731  0.023972481            0   0.47002483    1.4234703    1.9174677  0.097352188 
 4660000    0.9348439 2.4518798e-05   0.53279327 0.0065982509            0   0.52619502    1.3952545    1.9280478    3.6227871 
 4665000    0.9910618 -5.0089472e-06   0.46176702  0.011518399            0   0.45024862    1.4791597    1.9409268    1.5947083 
 4670000   0.98942719 -5.1177679e-05   0.47319173  0.016901978            0   0.45628976    1.4767201    1.9499118   -1.5874894 
 4675000   0.98361389 -1.3667991e-05   0.49713441  0.023470117            0   0.47366429    1.4680437    1.9651781    1.0204466 
 4680000   0.96808709 5.0026095e-06   0.51282485  0.037037361            0   0.47578749      1.44487    1.9576948    2.3034752 
 4685000   0.95907115 -2.475403e-05   0.53823245  0.024169095            0   0.51406335    1.4314137    1.9696461   0.25864761 
 4690000    1.0262021 -2.4191036e-06   0.44984423  0.014907808            0   0.43493642    1.5316067    1.9814509    1.8142425 
 4695000    1.0204184 1.9250963e-05   0.44971336  0.017385148            0   0.43232821    1.5229744    1.9726878    3.3033144 
 4700000   0.96943588 -3.4108164e-05   0.52558437  0.015110764            0   0.51047361    1.4468831    1.9724674  -0.38508887 
 4705000   0.96103165 -1.6483867e-05   0.55221782   0.02283733            0   0.52938049    1.4343397    1.9865576   0.84719265 
 4710000    1.0192154 1.809386e-05   0.46419884  0.006931401            0   0.45726743     1.521179    1.9853778    3.2360254 
 4715000   0.98961301 -3.1596445e-05   0.48395587 0.0071692345            0   0.47678664    1.4769974    1.9609533  -0.22299301 
 4720000   0.96399079 4.2769332e-05   0.52095728  0.013677658            0   0.50727963    1.4387563    1.9597135    4.9159298 
 4725000   0.99080715 2.3173688e-05   0.48032653   0.00852202            0   0.47180451    1.4787797    1.9591062    3.5608715 
 4730000    0.9740609 5.0547733e-05   0.51555887  0.027001961            0   0.48855691    1.4537859    1.9693448    5.4632041 
 4735000   0.98259888 6.2308216e-05   0.49113141  0.010910569            0   0.48022085    1.4665288    1.9576602    6.2644042 
 4740000   0.96906572 5.0580531e-05    0.5219847 0.0097934757            0   0.51219123    1.4463306    1.9683153    5.4644416 
 4745000   0.95781374 9.2744308e-05   0.53653519   0.01739532            0   0.51913987     1.429537    1.9660722    8.3765588 
 4750000    1.0016877 2.1760448e-05   0.47229567  0.018394974            0   0.45390069    1.4950189    1.9673145    3.4713967 
 4755000   0.98668227 8.679685e-06   0.49435859  0.020927391            0    0.4734312    1.4726233    1.9669819    2.5669217 
 4760000   0.96467528 -6.6822692e-06   0.53265134  0.036734839            0   0.49591651    1.4397779    1.9724292    1.5105508 
 4765000    0.9558588 2.8024035e-05   0.54955366   0.03515633            0   0.51439733    1.4266193    1.9761729    3.9131942 
 4770000    1.0026487 1.6576603e-05    0.4836326  0.019369338            0   0.46426326    1.4964531    1.9800857    3.1258605 
 4775000    1.0006054 1.0068172e-05   0.49002142  0.010904962            0   0.47911646    1.4934036     1.983425    2.6793371 
 4780000    0.9984382 1.1031001e-05   0.51104704  0.030217579            0   0.48082946     1.490169    2.0012161    2.7636789 
 4785000   0.96879383 -2.6596163e-05   0.54567615  0.019825512            0   0.52585064    1.4459248    1.9916009   0.15327415 
 4790000   0.95149388 -6.5470907e-05   0.55581065  0.020083945            0   0.53572671    1.4201046    1.9759153   -2.5494338 
 4795000   0.95426501 -3.7575544e-05     0.544125  0.044109179            0   0.50001582    1.4242405    1.9683655  -0.62885606 
 4800000   0.97759125 -7.2789983e-05   0.51429167  0.027888153            0   0.48640351    1.4590549    1.9733466    -3.057897 
 4805000   0.97079924 -1.8663418e-05   0.52255896  0.024185108            0   0.49837386    1.4489179    1.9714768   0.68146139 
 4810000   0.97525612 -1.3965669e-05   0.52236533  0.032137741            0   0.49022759    1.4555698    1.9779351     1.012628 
 4815000   0.96907434 -4.8318698e-05   0.54565348  0.026047347            0   0.51960613    1.4463435    1.9919969   -1.3477915 
 4820000   0.99885723 -2.6030355e-05   0.50538539  0.017149252            0   0.48823614    1.4907944    1.9961798   0.19696167 
 4825000   0.99837994 6.0676076e-05    0.5199394 0.0062800885            0   0.51365931    1.4900821    2.0100215    6.2039519 
 4830000    1.0068124 -6.028989e-06   0.52867015  0.010960363            0   0.51770979    1.5026675    2.0313376    1.6146139 
 4835000    1.0204225 -2.5464198e-05   0.49725291  0.011998458            0   0.48525446    1.5229805    2.0202334   0.26014807 
 4840000    1.0376069 -3.7904711e-05   0.47384933 0.0076622348            0   0.46618709    1.5486283    2.0224776  -0.59749602 
 4845000    1.0124083 -8.0017346e-06   0.50857887 0.0042606538            0   0.50431821    1.5110194    2.0195983    1.4665184 
 4850000   0.99878908 1.9167948e-05   0.52142507 0.0029407533            0   0.51848432    1.4906927    2.0121178    3.3370064 
 4855000    1.0226717 -7.1726968e-07   0.50466533 0.0071068928            0   0.49755844    1.5263375    2.0310028    1.9814252 
 4860000    1.0087549 4.4132478e-06   0.54139753  0.014479252            0   0.52691828    1.5055667    2.0469642    2.3520079 
 4865000    1.0156966 -4.1209473e-05   0.54348688  0.030710349            0   0.51277653    1.5159272     2.059414  -0.78898474 
 4870000    1.0483371 -6.2170915e-06   0.49675966  0.019004241            0   0.47775542    1.5646432    2.0614028    1.6316774 
 4875000    1.0612426 5.6239334e-05   0.49367207  0.008378729            0   0.48529334    1.5839046    2.0775767    5.9648395 
 4880000   0.98435818 4.2706384e-05   0.59496655 0.0055533816            0   0.58941316    1.4691546    2.0641211    5.0159864 
 4885000    1.0600481 -2.8579184e-05   0.47660117  0.015298986            0   0.46130219    1.5821218     2.058723  0.083329787 
 4890000    1.0642934 -1.5803375e-05   0.46277667 0.0071365823            0   0.45564008    1.5884578    2.0512345   0.95890521 
 4895000    1.0238527 -1.7633808e-05   0.50756664 0.00056540344            0   0.50700124    1.5281002    2.0356669   0.81681807 
 4900000   0.98031617 -4.8788068e-05   0.56868877 0.0019629746            0    0.5667258    1.4631219    2.0318107   -1.3404206 
 4905000    1.0503465 -4.9386911e-05    0.4500462  0.009244901            0   0.44080129    1.5676421    2.0176883    -1.395935 
 4910000    1.0334327 2.4324903e-06   0.44702011 0.0073929245            0   0.43962719    1.5423983    1.9894184    2.1575522 
 4915000   0.99597484 6.3189871e-06   0.49939333 0.0045076757            0   0.49488566    1.4864925    1.9858858    2.4226542 
 4920000    1.0023566 -5.1693025e-06   0.50713756 0.0061782125            0   0.50095934    1.4960172    2.0031548    1.6458526 
 4925000    1.0042541 -3.3504319e-05   0.50307873  0.013908725            0      0.48917    1.4988492     2.001928  -0.31389056 
 4930000    1.0258671 4.9241858e-05   0.48218928 0.0099078201            0   0.47228146    1.5311066    2.0132959    5.4168932 
 4935000   0.98399903 -8.0426141e-06   0.53143059 0.0071130319            0   0.52431756    1.4686186    2.0000491    1.4441437 
 4940000   0.95322012 -6.335803e-05   0.57082226 0.0040074806            0   0.56681478     1.422681    1.9935033   -2.3858038 
 4945000    1.0267062 -5.966195e-05   0.44889095 0.0015162414            0    0.4473747     1.532359    1.9812499   -2.1425841 
 4950000   0.99963264 -2.7691871e-05   0.48310092 0.0065978119            0   0.47650311    1.4919517    1.9750526  0.060990537 
 4955000   0.98056445 1.7611926e-05   0.53185882  0.015728836            0   0.51612999    1.4634924    1.9953513    3.2126876 
 4960000   0.99858299 1.0146842e-05   0.50255983  0.014590559            0   0.48796927    1.4903851    1.9929449    2.6942947 
 4965000    1.0045401 -2.6131651e-05   0.49724851  0.012786957            0   0.48446155    1.4992762    1.9965247   0.19030493 
 4970000    1.0219235 -1.8495781e-06   0.47669045 0.0032040613            0   0.47348639    1.5252208    2.0019112    1.8740684 
 4975000    1.0382397 -5.8136458e-05   0.46761956  0.010204881            0   0.45741468    1.5495728    2.0171923   -2.0011996 
 4980000    1.0003015 -5.918843e-05   0.49714351  0.011302233            0   0.48584128      1.49295    1.9900935   -2.1010108 
 4985000   0.99237432 1.6772245e-05   0.50028077   0.01137434            0   0.48890643    1.4811187    1.9813994     3.140697 
 4990000   0.97686595 5.7642573e-05   0.50663999   0.01006572            0   0.49657427    1.4579724    1.9646124    5.9488671 
 4995000    1.0054915 8.9020554e-06   0.46840419  0.015789299            0   0.45261489     1.500696    1.9691002    2.5844103 
 5000000   0.98434134 -2.8606098e-05   0.51021677  0.012470947            0   0.49774582    1.4691295    1.9793462 0.0020927492 
 5005000   0.99836861 -4.0169421e-05   0.50024185  0.024239889            0   0.47600196    1.4900651     1.990307   -0.7862034 
 5010000   0.95747043 -3.6153648e-05   0.56743133  0.046908237            0    0.5205231    1.4290246     1.996456  -0.50248418 
 5015000    0.9854861 -1.6296004e-05   0.55068441  0.028175997            0   0.52250841     1.470838    2.0215224    0.8951426 
 5020000    1.0189153 7.2527419e-06   0.49932912  0.011719691            0   0.48760943    1.5207311    2.0200602    2.5213698 
 5025000    1.0636579 2.5468579e-05   0.44398164 0.0050229906            0   0.43895865    1.5875094     2.031491    3.7918792 
 5030000   0.99689794 -2.669369e-05   0.53912343 0.0071368127            0   0.53198662    1.4878702    2.0269936   0.18192579 
 5035000    1.0204759 8.3262435e-05   0.50583577 0.0061262267            0   0.49970955    1.5230603     2.028896    7.7839956 
 5040000     1.071416 6.9178561e-05   0.44329747 0.0054882888            0   0.43780918    1.5990883    2.0423858    6.8240079 
 5045000     1.028059 2.4476102e-05   0.50755708 0.0047041445            0   0.50285294    1.5343781    2.0419352    3.7337233 
 5050000    1.0269202 1.074807e-06   0.50825253  0.011650998            0   0.49660153    1.5326783    2.0409309    2.1152215 
 5055000    1.0492913 -5.8150141e-05   0.49088579  0.022005885            0    0.4688799    1.5660672     2.056953   -1.9623847 
 5060000    1.0421722 1.105037e-05   0.51395899  0.014098085            0   0.49986091     1.555442     2.069401    2.8332026 
 5065000    1.0464452 -3.0831984e-05    0.5115765   0.01865585            0   0.49292065    1.5618195     2.073396 -0.057710767 
 5070000    1.0189425 -4.1401976e-05   0.54657099   0.01913337            0   0.52743762    1.5207716    2.0673426  -0.79436195 
 5075000     1.061111 5.1823697e-05   0.48306119  0.015335818            0   0.46772537    1.5837082    2.0667694    5.6488233 
 5080000    1.0166439 6.4604304e-06   0.56353869  0.020398909            0   0.54313978     1.517341    2.0808796    2.5274246 
 5085000    1.0290081 -4.7487841e-05   0.52664768  0.016355757            0   0.51029192    1.5357946    2.0624423   -1.2199173 
 5090000    1.0185304 -4.8303056e-05   0.52499847 0.0054662532            0   0.51953222    1.5201566    2.0451551   -1.2935521 
 5095000    1.0580359 2.2997415e-05   0.47467689  0.020627948            0   0.45404895    1.5791186    2.0537955    3.6433768 
 5100000    1.0219518 -5.898678e-06   0.51733536   0.02866323            0   0.48867213    1.5252631    2.0425984    1.6348818 
 5105000    1.0287838 2.1959932e-05   0.50010064  0.010950487            0   0.48915015    1.5354598    2.0355605     3.553431 
 5110000   0.99322448 2.1660409e-05   0.54273519  0.018912311            0   0.52382288    1.4823875    2.0251227    3.5222902 
 5115000   0.96969105 8.4354909e-06    0.5491271    0.0218703            0    0.5272568    1.4472639     1.996391    2.5794521 
 5120000    1.0186916 1.7322538e-05   0.47434907  0.014009547            0   0.46033952    1.5203972    1.9947462    3.1920801 
 5125000    1.0164112 -1.6806166e-05   0.46212773 0.0076080615            0   0.45451967    1.5169937    1.9791214    0.8174792 
 5130000     1.013286 -1.8117131e-05   0.47681258 0.0065708206            0   0.47024176    1.5123294     1.989142   0.73688584 
 5135000    1.0274442 3.7761949e-07   0.46415545 0.0074045842            0   0.45675086    1.5334604    1.9976159     2.023717 
 5140000    1.0120788 3.8559427e-05   0.48835035 0.0093676988            0   0.47898265    1.5105276     1.998878    4.6641056 
 5145000    1.0010882 1.8836989e-05   0.48349451 0.0084178019            0   0.47507671    1.4941242    1.9776187    3.2796314 
 5150000   0.95721109 -2.6189433e-05   0.52947671  0.012008942            0   0.51746776    1.4286375    1.9581143   0.14790064 
 5155000     0.976924 -2.6409476e-05   0.48970688  0.028911049            0   0.46079583    1.4580591    1.9477659   0.12234295 
 5160000   0.99855277 -2.2095808e-06   0.46204263  0.023560878            0   0.43848176      1.49034    1.9523826    1.7996564 
 5165000   0.96745741 -2.854541e-05   0.52631216  0.011811982            0   0.51450018    1.4439302    1.9702423 -0.0028163901 
 5170000      1.01654 -1.25415e-05   0.44467155 0.0044591627            0   0.44021238     1.517186    1.9618575    1.0949891 
 5175000   0.97640307 -4.9250904e-05    0.4974176  0.011861028            0   0.48555658    1.4572816    1.9546992   -1.4495233 
 5180000    1.0050871 1.3388593e-05   0.46530244  0.013280588            0   0.45202185    1.5000925    1.9653949    2.8908144 
 5185000   0.94918075 4.8832053e-05   0.55112368  0.019989835            0   0.53113384    1.4166523    1.9677759    5.3430474 
 5190000   0.96543961 -5.8283731e-05   0.52714267  0.031451453            0   0.49569122    1.4409186    1.9680613   -2.0605102 
 5195000   0.97332244 -1.3585037e-05    0.5075809  0.020164414            0   0.48741648    1.4526837    1.9602646    1.0212669 
 5200000   0.97390475 -3.8599975e-05   0.48944035  0.021380293            0   0.46806005    1.4535528    1.9429932  -0.72503711 
 5205000   0.93573607 -3.7507933e-05   0.53028025  0.025188013            0   0.50509224    1.3965861    1.9268663  -0.66568202 
 5210000   0.98622264 5.4329713e-05   0.44826996  0.012648058            0    0.4356219    1.4719373    1.9202073     5.675477 
 5215000   0.93175933 -1.8829931e-05    0.5390593 0.0053508687            0   0.53370843    1.3906508    1.9297101    0.6281853 
 5220000   0.96823023 -2.6248836e-06   0.48197015 0.0092028144            0   0.47276733    1.4450836    1.9270538    1.7456218 
 5225000   0.95251866 4.491525e-05   0.50866572  0.012627705            0   0.49603802    1.4216341    1.9302998    5.0348419 
 5230000   0.95444136 4.1162025e-05   0.52434562  0.003871938            0   0.52047369    1.4245037    1.9488494    4.7939685 
 5235000   0.96282288 3.6194471e-05   0.50199466 0.0031205792            0   0.49887408    1.4370132    1.9390078    4.4407697 
 5240000   0.98001896  3.05929e-05   0.46396073 0.0026112998            0   0.46134943    1.4626783     1.926639    4.0412203 
 5245000   0.95348547 2.5426041e-05   0.50217234  0.011271986            0   0.49090036    1.4230771    1.9252494    3.6826973 
 5250000   0.96927673 1.5855556e-06    0.4930191  0.007061112            0   0.48595799    1.4466455    1.9396646    2.0492582 
 5255000   0.98833447 -7.1637556e-05   0.46975373 0.0028653822            0   0.46688835    1.4750892    1.9448429    -3.006745 
 5260000   0.98493662 -8.0600449e-05   0.46787939 0.0078971674            0   0.45998222    1.4700179    1.9378973   -3.6332058 
 5265000    0.9356574 8.5619887e-06   0.54828226  0.016461544            0   0.53182071    1.3964687    1.9447509    2.5365556 
 5270000   0.99122783 2.4408562e-05   0.49757046  0.021089818            0   0.47648064    1.4794075     1.976978    3.6640978 
 5275000    1.0035599 9.951907e-06   0.48973453  0.015545587            0   0.47418895    1.4978132    1.9875477    2.6754235 
 5280000   0.97831977 2.8688988e-05    0.5060537 0.0032757806            0   0.50277792    1.4601423    1.9661959    3.9491788 
 5285000   0.91704302 5.8397685e-05   0.62002304 0.0057683202            0   0.61425472    1.3686867    1.9887097    6.0251578 
 5290000   0.97190903 -2.498585e-05   0.54467595  0.011928261            0   0.53274769    1.4505742    1.9952502   0.26822826 
 5295000   0.97931783 -5.3773403e-05   0.53095959  0.015849734            0   0.51510986    1.4616319    1.9925914   -1.7242261 
 5300000   0.94737036 -3.603602e-05   0.56738932  0.023795374            0   0.54359394    1.4139503    1.9813396  -0.50947011 
 5305000   0.96003947 -1.1596646e-05   0.55171869 0.0055300358            0   0.54618866    1.4328589    1.9845776    1.1830174 
 5310000   0.99056706 -3.6843473e-05   0.48357772 0.0059585521            0   0.47761917    1.4784213    1.9619991  -0.58462178 
 5315000     0.933022 -9.0307099e-05    0.5618364 0.0096973918            0   0.55213901    1.3925353    1.9543717   -4.2876549 
 5320000   0.92375355 8.5577938e-06   0.57027827 0.0076476343            0   0.56263063    1.3787022    1.9489804    2.5404952 
 5325000   0.94664523 3.3513768e-05   0.52712849 0.0070287624            0   0.52009973     1.412868    1.9399965    4.2564681 
 5330000   0.92390286 4.4044777e-05   0.54226879  0.010089051            0   0.53217974     1.378925    1.9211938    4.9655688 
 5335000   0.96127501 -4.54667e-05   0.49773889 0.0086424152            0   0.48909647     1.434703    1.9324418   -1.2102165 
 5340000   0.93480243 7.2430189e-05   0.52059675 0.0095626468            0    0.5110341    1.3951926    1.9157894    6.9221641 
 5345000   0.94033304 2.5403011e-05   0.50691346 0.0042337244            0   0.50267974    1.4034471    1.9103605    3.6662167 
 5350000   0.94942876 -1.0351994e-05   0.48161872 0.0028868703            0   0.47873185    1.4170224    1.8986411    1.1831113 
 5355000   0.91291911 -2.8067883e-05   0.55940573   0.01223007            0   0.54717566    1.3625318    1.9219375  -0.01811459 
 5360000   0.93567181 -3.8562247e-05   0.52044068  0.017151738            0   0.50328894    1.3964902    1.9169308  -0.74849168 
 5365000   0.94654951 -4.5219092e-05   0.50138622 0.0091107508            0   0.49227547    1.4127251    1.9141114   -1.2114323 
 5370000   0.97314518 8.8049582e-06   0.47711259 0.0021399757            0   0.47497261    1.4524192    1.9295318    2.5381305 
 5375000   0.95913606 -1.1241694e-05   0.49624348 0.0094796721            0   0.48676381    1.4315106     1.927754    1.1507281 
 5380000   0.93456615 -4.6531846e-06   0.52409239  0.021187551            0   0.50290483      1.39484    1.9189324    1.5973042 
 5385000   0.95678146 -1.6381986e-05   0.49490885 0.0091763112            0   0.48573254    1.4279963    1.9229052   0.79058234 
 5390000   0.91091097 -4.7330674e-05   0.57099892  0.015588016            0    0.5554109    1.3595346    1.9305335   -1.3409627 
 5395000   0.94217036 -1.743155e-05   0.52844241 0.0038789485            0   0.52456346    1.4061893    1.9346317   0.72976295 
 5400000    0.9569262 -2.1878525e-06   0.50490867 0.0054500588            0   0.49945861    1.4282124     1.933121    1.7818967 
 5405000   0.97212039 1.3788298e-05   0.48687243 0.0073867147            0   0.47948572    1.4508897    1.9377621    2.8908093 
 5410000   0.95403076 -3.1380868e-05   0.51148744 0.0074289751            0   0.50405846    1.4238909    1.9353783  -0.23366722 
 5415000   0.96677949 1.9261184e-05   0.50980772  0.012421211            0   0.49738651    1.4429184    1.9527261    3.2840592 
 5420000   0.89475756 -4.4336199e-07   0.61147542 0.0086041184            0    0.6028713    1.3354257    1.9469011    1.9162559 
 5425000   0.97905321 -2.0642851e-05   0.49242193 0.0066877075            0   0.48573422    1.4612369    1.9536588   0.52682498 
 5430000   0.96210441 -4.6239607e-06   0.51518664 0.0056991429            0    0.5094875    1.4359408    1.9511275    1.6315193 
 5435000   0.89813848 -1.1441221e-05   0.61200834 0.0065302094            0   0.60547813    1.3404717      1.95248    1.1616628 
 5440000   0.99014212 -8.4168648e-06   0.47402558  0.014056345            0   0.45996923    1.4777871    1.9518127     1.370039 
 5445000   0.92721178 -2.9176295e-05   0.56460704 0.0085577494            0   0.55604929    1.3838636    1.9484706 -0.068194897 
 5450000   0.94019648 -1.7423321e-05     0.548464  0.012654511            0   0.53580949    1.4032432    1.9517073   0.74740732 
 5455000   0.97374445 -3.7737586e-05   0.49174196 0.0046626028            0   0.48707936    1.4533136    1.9450556  -0.66336642 
 5460000   0.97848251 3.4600885e-05   0.48475809  0.012836323            0   0.47192177    1.4603852    1.9451432    4.3367564 
 5465000    0.9770822 9.6156943e-07   0.51272027  0.013891915            0   0.49882835    1.4582952    1.9710155    2.0374791 
 5470000   0.99017158 3.5503762e-05   0.50627921  0.012295267            0   0.49398394    1.4778311    1.9841103    4.4381303 
 5475000   0.99511513 -2.9073593e-05    0.5089788  0.018207362            0   0.49077144    1.4852093    1.9941881 -0.015378615 
 5480000   0.97895468 1.7827741e-05   0.53444941  0.010195105            0    0.5242543    1.4610899    1.9955393    3.2277927 
 5485000   0.98685987 4.3662549e-05   0.51468592 0.0048234228            0    0.5098625    1.4728884    1.9875743    5.0055296 
 5490000   0.98826753 -5.1550965e-05   0.49362942 0.0041809904            0   0.48944843    1.4749893    1.9686187    -1.594584 
 5495000    1.0108209 -2.6136528e-05    0.4591654 0.0091163478            0   0.45004905    1.5086502    1.9678156   0.16125878 
 5500000    1.0094024 2.5539958e-05   0.45548561 0.0096033654            0   0.44588225     1.506533    1.9620187    3.7273406 
 5505000   0.94136093 -1.8239833e-05   0.55184235 0.0051204907            0   0.54672186    1.4049812    1.9568235   0.69608626 
 5510000   0.99430229 5.4084971e-05   0.45417452  0.011612371            0   0.44256215    1.4839962    1.9381707    5.6765239 
 5515000   0.98080534 7.8833863e-05   0.47225973  0.017573433            0    0.4546863     1.463852    1.9361117    7.3851083 
 5520000   0.93774078 -1.3385905e-05   0.53885635  0.024991445            0    0.5138649    1.3995781    1.9384345    1.0132007 
 5525000   0.94776672 -3.0080808e-05   0.51719936  0.013579681            0   0.50361968    1.4145418    1.9317412  -0.14744424 
 5530000    0.9924785 -1.2800568e-05   0.44208819 0.0068974792            0   0.43519071    1.4812742    1.9233623    1.0385871 
 5535000   0.98461843 3.7147961e-05    0.4607349 0.0032661085            0   0.45746879     1.469543    1.9302779     4.497945 
 5540000   0.95068066 -1.606923e-05   0.50531686 0.0020890544            0   0.50322781    1.4188909    1.9242077   0.81350254 
 5545000    0.9528854 6.9687375e-06   0.51847188  0.004681478            0    0.5137904    1.4221815    1.9406533    2.4223325 
 5550000   0.96186011 -1.4775163e-05    0.5123985  0.014855832            0   0.49754267    1.4355762    1.9479747   0.92671544 
 5555000   0.97836066 1.0708603e-05   0.49899445  0.010260151            0    0.4887343    1.4602033    1.9591977    2.6993764 
 5560000   0.97081029 -3.6656967e-05    0.4920757  0.019157309            0   0.47291839    1.4489344    1.9410101  -0.59271951 
 5565000   0.97196446 2.1540281e-05   0.48880024  0.030903115            0   0.45789712     1.450657    1.9394572    3.4283214 
 5570000   0.94469301 3.9105717e-05   0.50611879  0.009212744            0   0.49690605    1.4099543    1.9160731    4.6190603 
 5575000   0.94659944 4.1062957e-05   0.51243144 0.0078956126            0   0.50453583    1.4127997    1.9252311    4.7635027 
 5580000   0.93729936 -3.5346307e-06   0.51596477  0.020167241            0   0.49579753    1.3989193    1.9148841    1.6705704 
 5585000    0.9025878 -8.1299003e-05   0.54536453  0.025256314            0   0.52010822    1.3471123    1.8924768   -3.7269103 
 5590000   0.94098868 1.1495421e-05   0.48736607   0.01378759            0   0.47357848    1.4044256    1.8917917    2.6863551 
 5595000   0.94965298 5.8389367e-05   0.47089336 0.0035772539            0    0.4673161    1.4173571    1.8882504    5.9241235 
 5600000   0.96369357 -2.7592766e-06   0.43768712 0.0059895322            0   0.43169759    1.4383127    1.8759998    1.6852786 
 5605000    0.9396961 -1.638034e-05    0.4596059  0.010634403            0    0.4489715    1.4024964    1.8621023   0.72989326 
 5610000   0.89617262 -1.7179895e-05   0.53075995 0.0047510679            0   0.52600888    1.3375376    1.8682976   0.68082321 
 5615000    0.9393045 2.4661088e-05   0.46912559 0.0074547016            0   0.46167089     1.401912    1.8710376     3.575612 
 5620000   0.94870746 1.1695343e-05   0.44631114 0.0097100425            0    0.4366011    1.4159459     1.862257    2.6706391 
 5625000    0.9596443 -2.3217682e-05   0.44400976 0.0087517843            0   0.43525798    1.4322691    1.8762789   0.27147273 
 5630000   0.93415068 -9.1840908e-06     0.477065  0.009535703            0    0.4675293    1.3942199    1.8712849    1.2364805 
 5635000   0.91246335 -7.4160006e-06    0.5254678  0.018501174            0   0.50696662    1.3618515    1.8873193    1.3747254 
 5640000    1.0192255 5.588787e-05   0.36494313   0.01354317            0   0.35139996     1.521194    1.8861372    5.7491067 
 5645000   0.94686298 7.3703317e-06   0.48043529 0.0085272341            0   0.47190805     1.413193    1.8936283    2.4030656 
 5650000    0.9065438 -5.8910022e-05   0.53433143 0.0098239408            0   0.52450749    1.3530166    1.8873481   -2.1845127 
 5655000    0.9302918 -5.6093704e-05   0.48060837 0.0091770655            0   0.47143131    1.3884605    1.8690689   -2.0081279 
 5660000   0.95897737 3.2009607e-05   0.44672746  0.013824456            0     0.432903    1.4312737    1.8780012    4.0905052 
 5665000     0.936433 4.8881076e-05   0.45224753   0.01364941            0   0.43859812    1.3976262    1.8498738    5.2285338 
 5670000    0.9229526 -3.4400717e-05   0.46625759  0.010188679            0   0.45606891    1.3775068    1.8437643  -0.53401322 
 5675000   0.89446538 -1.1566117e-05   0.48986826  0.007038304            0   0.48282995    1.3349896    1.8248578    1.0254079 
 5680000   0.92937941 5.4282474e-05   0.46174464 0.0021525666            0   0.45959208    1.3870988    1.8488434     5.600848 
 5685000   0.91020448 6.0958552e-05   0.50023783 0.0027173932            0   0.49752043    1.3584802     1.858718    6.0721731 
 5690000   0.91338494 -8.6596978e-07   0.48098141 0.0089862177            0   0.47199519     1.363227    1.8442084    1.7843526 
 5695000   0.92615495 -3.1306478e-05   0.46448844  0.012037461            0   0.45245098    1.3822863    1.8467747  -0.31712906 
 5700000   0.93542972 -6.2489594e-06   0.46201841 0.0067440726            0   0.45527434    1.3961289    1.8581473    1.4262192 
 5705000   0.90244166 2.4015336e-05   0.49414382 0.0077954856            0   0.48634833    1.3468942     1.841038     3.500978 
 5710000   0.89859491 3.3266971e-05   0.49437702  0.011025942            0   0.48335108    1.3411529    1.8355299     4.134943 
 5715000   0.90973411 -2.0793831e-05   0.47572678  0.026165449            0   0.44956133    1.3577782    1.8335049   0.39623534 
 5720000   0.90654591 -1.1910108e-05   0.48137336  0.016042672            0   0.46533069    1.3530198    1.8343931    1.0111665 
 5725000   0.89442593 -2.4090193e-05   0.50163325   0.01539485            0    0.4862384    1.3349307     1.836564   0.17144978 
 5730000   0.95802968 3.7966483e-05   0.41901833  0.013591464            0   0.40542687    1.4298593    1.8488776    4.4731209 
 5735000   0.89055351 2.1293301e-05   0.51407852  0.011782801            0   0.50229572    1.3291511    1.8432296    3.3150226 
 5740000   0.91427679 4.6362683e-05   0.49231799  0.019806514            0   0.47251147    1.3645581    1.8568761    5.0614647 
 5745000   0.92291423 7.3901447e-06   0.50560385  0.032998815            0   0.47260503    1.3774495    1.8830533    2.3938601 
 5750000   0.97558649 1.569488e-05   0.42658261  0.024286551            0   0.40229606    1.4560628    1.8826454    2.9674756 
 5755000   0.94631067 4.0094568e-07   0.48189086  0.011705945            0   0.47018492    1.4123687    1.8942595    1.9219729 
 5760000   0.97257791 3.2154601e-05   0.44911454  0.010854209            0   0.43826033    1.4515725    1.9006871    4.1232131 
 5765000   0.97330712 -4.2453197e-05   0.46637541  0.010049334            0   0.45632607    1.4526609    1.9190363   -1.0153287 
 5770000   0.92103032 -6.6844716e-06   0.55356367  0.018210742            0   0.53535293    1.3746378    1.9282014    1.4661708 
 5775000   0.99108756 4.6651677e-05   0.45164896  0.033183034            0   0.41846592    1.4791982    1.9308471     5.155411 
 5780000   0.92250023 -3.9375664e-05   0.52987413  0.038450876            0   0.49142326    1.3768316    1.9067057   -0.8149402 
 5785000   0.96309376 -1.0845033e-07   0.47323307  0.019800332            0   0.45343273    1.4374174    1.9106505    1.9031544 
 5790000   0.96592233 6.8443456e-05    0.4671492  0.023702164            0   0.44344703    1.4416391    1.9087883       6.6396 
 5795000   0.91818295 1.5534442e-05   0.54469356  0.015909953            0   0.52878361    1.3703881    1.9150816    2.9888223 
 5800000   0.99251039 2.3413997e-05   0.44521689  0.018210207            0   0.42700668    1.4813218    1.9265386    3.5449142 
 5805000   0.92539498 -1.9289638e-05   0.55332445  0.032351811            0   0.52097264     1.381152    1.9344765   0.60117671 
 5810000   0.96357439 1.4245846e-05   0.48270273  0.024901796            0   0.45780094    1.4381348    1.9208375    2.9055104 
 5815000   0.93977209 3.9711022e-05   0.54093071  0.024039894            0   0.51689082    1.4026098    1.9435406    4.6883664 
 5820000   0.97762953 7.720185e-06   0.49045575 0.0075218138            0   0.48293394    1.4591121    1.9495678     2.483187 
 5825000   0.99502476 3.2802406e-05   0.47745658 0.0051760131            0   0.47228056    1.4850745     1.962531    4.2298333 
 5830000    1.0012332 -3.9336374e-05   0.47198254  0.014087787            0   0.45789476    1.4943406    1.9663231  -0.75260706 
 5835000   0.94133767 -1.3281335e-05   0.55076714  0.044601863            0   0.50616527    1.4049465    1.9557136    1.0377078 
 5840000   0.99946374 -1.7813299e-05    0.4535204 0.0051629373            0   0.44835746    1.4916996      1.94522   0.71396481 
 5845000    1.0264542 -1.4802295e-05   0.42120956 0.0014680647            0    0.4197415    1.5319829    1.9531924   0.93005777 
 5850000    1.0146063 -9.6609985e-06   0.41827306 0.00097664496            0   0.41729642       1.5143     1.932573    1.2648048 
 5855000   0.90331017 -3.0090535e-05   0.58178714 0.0099572985            0   0.57182984    1.3481904    1.9299776  -0.14988023 
 5860000   0.97680559 1.7978422e-05     0.449944  0.031378798            0   0.41856521    1.4578823    1.9078264    3.1504949 
 5865000   0.99920862 2.5672633e-05   0.42500807 0.0090980351            0   0.41591004    1.4913189    1.9163269    3.6908193 
 5870000   0.99812461 -3.9877868e-05   0.44044038  0.009594489            0   0.43084589     1.489701    1.9301414   -0.8262169 
 5875000   0.94982413 7.5234136e-07   0.50603015  0.015411145            0     0.490619    1.4176125    1.9236427    1.9756445 
 5880000   0.94809946 2.3545684e-05    0.5030418  0.013654128            0   0.48938768    1.4150384    1.9180802    3.5455579 
 5885000   0.98906781 -5.9708244e-06   0.45076207  0.017334901            0   0.43342717    1.4761837    1.9269458    1.5142424 
 5890000    1.0059244 -4.1860153e-05   0.44430419  0.022129057            0   0.42217514    1.5013422    1.9456464  -0.94772737 
 5895000   0.93245883 2.5970126e-06   0.54457929  0.019624598            0   0.52495469    1.3916948    1.9362741    2.1157796 
 5900000   0.94514967 -3.0858346e-05   0.51758525  0.025264199            0   0.49232105    1.4106359    1.9282211  -0.20470776 
 5905000   0.93056905 -5.6294954e-06   0.55153696   0.02678197            0   0.52475499    1.3888743    1.9404113    1.5513006 
 5910000   0.98905803 -2.0842512e-05   0.47232352  0.014790406            0   0.45753311    1.4761691    1.9484926   0.50785819 
 5915000   0.99051662 -1.7846849e-05    0.4415482  0.004839047            0   0.43670916    1.4783461    1.9198943   0.68632003 
 5920000   0.97795624 -5.6929328e-05   0.47323461 0.0073027782            0   0.46593183    1.4595997    1.9328343   -2.0021209 
 5925000   0.95820326 -4.5159598e-05   0.49720881  0.017950318            0   0.47925849    1.4301184    1.9273272   -1.1941042 
 5930000   0.94487913 -2.2618795e-05   0.51138346  0.004471197            0   0.50691226    1.4102321    1.9216156   0.35820442 
 5935000   0.92334479 -3.5122968e-06   0.55626936 0.0067069414            0   0.54956242    1.3780921    1.9343615    1.6915915 
 5940000   0.93083645 -2.5946693e-05   0.51836978  0.013740182            0    0.5046296    1.3892734    1.9076432   0.11420774 
 5945000   0.93142043 5.1267289e-05   0.51936519 0.0073255346            0   0.51203966     1.390145    1.9095102    5.4531052 
 5950000   0.96664206 1.4478088e-07   0.45479866 0.0096673178            0   0.44513134    1.4427133    1.8975119    1.9075192 
 5955000   0.93055309 -1.2995778e-05   0.50147246   0.01422985            0   0.48724261    1.3888505    1.8903229    0.9920548 
 5960000   0.93107913 -5.7058188e-06   0.48363404 0.0098449245            0   0.47378911    1.3896356    1.8732696    1.4788834 
 5965000   0.95448711 -2.5625153e-05   0.44167623 0.0056354414            0   0.43604079     1.424572    1.8662482  0.095037683 
 5970000   0.95313834 2.3930553e-07   0.44062493  0.016982497            0   0.42364243     1.422559    1.8631839    1.8797247 
 5975000   0.91255714 3.4277413e-05   0.50278203   0.03335137            0   0.46943066    1.3619915    1.8647736    4.2340284 
 5980000   0.90337827 1.134044e-05   0.50318123  0.017802988            0   0.48537825    1.3482921    1.8514733    2.6353245 
 5985000   0.94268835 7.4599666e-07   0.45103663  0.011856403            0   0.43918022    1.4069624     1.857999    1.9095623 
 5990000   0.93260836 -5.5007511e-05   0.47847013  0.016836907            0   0.46163322     1.391918    1.8703881    -1.931731 
 5995000   0.92316552 -3.3753492e-05   0.49179822  0.015346121            0    0.4764521    1.3778245    1.8696228  -0.46341862 
 6000000   0.92334649 -6.6846996e-05   0.50549111  0.015865368            0   0.48962574    1.3780946    1.8835857   -2.7368786 
 6005000   0.96315129 -5.0707958e-05   0.44848246  0.028401819            0   0.42008064    1.4375033    1.8859858   -1.6189483 
 6010000    0.9557922 4.2202155e-05   0.45190626  0.018110988            0   0.43379527    1.4265199    1.8784261    4.7954391 
 6015000    0.9490342 4.574029e-06   0.46576776  0.019336755            0   0.44643101    1.4164335    1.8822013    2.1983582 
 6020000   0.94532162 -7.5579801e-06   0.46158972  0.018971594            0   0.44261813    1.4108925    1.8724822    1.3500747 
 6025000   0.92764834  1.01964e-05   0.47736228  0.016851863            0   0.46051042    1.3845151    1.8618774    2.5666526 
 6030000   0.94209939 -1.5794275e-05   0.47455735 0.0077797675            0   0.46677759    1.4060833    1.8806407    0.7889404 
 6035000   0.92609553 -1.3045952e-05   0.48697143 0.0087010072            0   0.47827042    1.3821976     1.869169   0.96743283 
 6040000   0.95702015 1.2136845e-05   0.44569239  0.012512621            0   0.43317977    1.4283526     1.874045    2.7129437 
 6045000   0.92717396 -1.7333243e-05   0.50692013  0.017268063            0   0.48965207    1.3838071    1.8907273   0.69265354 
 6050000   0.93424019 -1.0969387e-05   0.46457606   0.01843376            0    0.4461423    1.3943535    1.8589295    1.1007255 
 6055000   0.88724426 4.7777563e-05    0.5295124 0.0091011309            0   0.52041126    1.3242121    1.8537244    5.1561096 
 6060000   0.94988153 -3.5283848e-05   0.43700186 0.0046027828            0   0.43239908    1.4176982       1.8547  -0.58411955 
 6065000   0.93764946 -6.4304585e-05   0.46006525 0.0090577719            0   0.45100747    1.3994418    1.8595071   -2.5852258 
 6070000   0.89523342 2.6531291e-05   0.50620605  0.026530373            0   0.47967567    1.3361359    1.8423419    3.6761848 
 6075000   0.88915215 -1.6492487e-05   0.52164932  0.032729867            0   0.48891945    1.3270596    1.8487089   0.70874817 
 6080000   0.92624953 6.5387903e-07   0.44534601  0.019249547            0   0.42609646    1.3824274    1.8277734    1.8729696 
 6085000   0.92575561 -1.0462595e-05   0.45448253  0.010625038            0   0.44385749    1.3816902    1.8361728    1.1129982 
 6090000   0.91791271 -7.1741932e-05   0.47289245 0.0077957813            0   0.46509667    1.3699847    1.8428772   -3.1159252 
 6095000   0.92492662 4.2274174e-05   0.46470054  0.020370588            0   0.44432995     1.380453    1.8451535    4.7671444 
 6100000   0.89934325 7.6156199e-05   0.49456961  0.027732661            0   0.46683695    1.3422698    1.8368394    7.1007559 
 6105000   0.90661412 -2.3161761e-05   0.47936624 0.0064870262            0   0.47287921    1.3531216    1.8324878   0.23154689 
 6110000    0.9258093 -4.464457e-05   0.43585438  0.013095466            0   0.42275892    1.3817704    1.8176248   -1.2682079 
 6115000   0.91489747 4.0666624e-06   0.46136587  0.011750224            0   0.44961565    1.3654845    1.8268503     2.107938 
 6120000   0.90763034 -3.5637181e-05   0.45890668 0.0077446289            0   0.45116206    1.3546383     1.813545  -0.64969696 
 6125000   0.87465697 4.1563785e-06   0.48628906  0.008354539            0   0.47793452    1.3054255    1.7917146    2.0790035 
 6130000   0.88230625 -4.8720751e-05   0.49083698 0.0097727139            0   0.48106426    1.3168421    1.8076791   -1.5598992 
 6135000   0.91817383 8.2776782e-06   0.45434326 0.0090442416            0   0.44529902    1.3703744    1.8247177    2.3968708 
 6140000   0.91349479 4.7522677e-05   0.48002446  0.010286017            0   0.46973844     1.363391    1.8434154    5.1281829 
 6145000   0.91631467 1.4155175e-05   0.48935965  0.016837506            0   0.47252215    1.3675996    1.8569593     2.835365 
 6150000   0.93268458 -1.7351974e-06   0.48059072  0.014006336            0   0.46658438    1.3920317    1.8726225    1.7526856 
 6155000   0.93173888 -3.296052e-05   0.46268451  0.015137825            0   0.44754668    1.3906203    1.8533048  -0.42492634 
 6160000    0.9051397 -5.5966924e-05   0.48717083 0.0078481822            0   0.47932265     1.350921    1.8380918   -2.0303419 
 6165000   0.91841891 -3.6488678e-05   0.47365349  0.015003618            0   0.45864987    1.3707402    1.8443937  -0.67770371 
 6170000   0.95393649 2.3132771e-06   0.43197886 0.0073735933            0   0.42460527    1.4237502    1.8557291    2.0156228 
 6175000    0.8876995 4.3889904e-05   0.50783768 0.0090674518            0   0.49877023    1.3248915    1.8327292    4.8663994 
 6180000   0.92554417 2.8763952e-06   0.44256594  0.015172052            0   0.42739389    1.3813747    1.8239406     2.022757 
 6185000   0.90299595 -0.00011213661   0.47362408  0.020183823            0   0.45344026    1.3477215    1.8213455   -5.9295368 
 6190000   0.90734168 -5.56181e-05   0.44226659  0.016607917            0   0.42565868    1.3542075     1.796474    -2.047849 
 6195000   0.89105174 -1.3126206e-06   0.47284449  0.018538279            0   0.45430621    1.3298947    1.8027392    1.7120109 
 6200000   0.87266268 9.7653703e-07   0.51436877  0.034991109            0   0.47937766    1.3024491    1.8168178    1.8843161 
 6205000   0.88928326 -1.0897424e-05   0.49973298  0.041962953            0   0.45777003    1.3272553    1.8269882    1.0737583 
 6210000   0.90435026 2.126164e-05   0.48502937  0.012544052            0   0.47248532    1.3497428    1.8347721    3.3043767 
 6215000   0.87992597 4.5709783e-05   0.52309199 0.0080214617            0   0.51507053    1.3132895    1.8363815    4.9958417 
 6220000   0.95316739 2.4397577e-06   0.40057258 0.0036700174            0   0.39690256    1.4226023    1.8231749     1.991811 
 6225000   0.92740357 -3.4986716e-05   0.43712932  0.013504464            0   0.42362485    1.3841498    1.8212791  -0.59700268 
 6230000   0.90368695 -2.753288e-05   0.46394075  0.023720166            0   0.44022059    1.3487528    1.8126935 -0.090379112 
 6235000   0.93648198 2.5220209e-05   0.43967807  0.020044713            0   0.41963336    1.3976994    1.8373774    3.5805983 
 6240000   0.92398218 2.0065189e-07   0.44980229 0.0089823415            0   0.44081995    1.3790434    1.8288457    1.8427148 
 6245000   0.90279776 8.3804137e-06   0.48960274  0.022899814            0   0.46670293    1.3474257    1.8370284    2.4162826 
 6250000   0.90800522 4.7211246e-05   0.47537563  0.016404864            0   0.45897076    1.3551978    1.8305734    5.0938147 
 6255000   0.94133559 -1.9120083e-05   0.42953358  0.020851611            0   0.40868197    1.4049434    1.8344769   0.51289684 
 6260000    0.9232167 -4.2355147e-05   0.44212634  0.011449951            0   0.43067638    1.3779009    1.8200273   -1.1075605 
 6265000   0.90974921 -8.5179398e-06   0.47069818    0.0217732            0   0.44892498    1.3578007    1.8284989    1.2397389 
 6270000   0.90872719 4.401163e-05   0.47675483  0.023667025            0   0.45308781    1.3562753    1.8330302     4.875114 
 6275000   0.92712991 6.5694225e-06   0.44967816  0.019490778            0   0.43018738    1.3837414    1.8334196     2.287498 
 6280000   0.87809474 4.1724558e-05   0.51426731  0.023050238            0   0.49121707    1.3105564    1.8248237    4.7088251 
 6285000   0.89214657 2.7163647e-05   0.48440058  0.024083369            0   0.46031722    1.3315288    1.8159293    3.6934806 
 6290000   0.94322376 4.2337839e-06   0.40872795  0.020985043            0   0.38774291    1.4077615    1.8164894    2.1091286 
 6295000   0.91957419 -2.0154897e-05   0.46666633 0.0093259477            0   0.45734038    1.3724645    1.8391308    0.4460243 
 6300000   0.89390176 -3.0673043e-05   0.51011854  0.036755232            0    0.4733633    1.3341484    1.8442669  -0.27585385 
 6305000   0.93054066 3.302129e-05   0.46892008  0.030598777            0    0.4383213    1.3888319     1.857752    4.1401836 
 6310000   0.95161387 -1.6777527e-05   0.41009772  0.011775489            0   0.39832223    1.4202837    1.8303814   0.67071872 
 6315000   0.90048277 -2.755815e-05   0.48491073  0.015479517            0   0.46943121    1.3439705    1.8288813 -0.075938072 
 6320000   0.91079874 -5.7950227e-05   0.46136709   0.01425426            0   0.44711283    1.3593671    1.8207342   -2.1847854 
 6325000   0.91048522 -3.7979304e-05   0.46597042  0.016046263            0   0.44992416    1.3588992    1.8248696  -0.80025987 
 6330000   0.90371929 3.1739066e-05   0.49055864  0.028966495            0   0.46159215     1.348801    1.8393597    4.0331639 
 6335000   0.89062606 -8.5459081e-06   0.50399925  0.033048758            0   0.47095049    1.3292594    1.8332586    1.2425655 
 6340000   0.90207997 7.5118057e-05   0.50191702  0.034870537            0   0.46704648    1.3463543    1.8482714    7.0404315 
 6345000    0.9480019 5.0400281e-05   0.42915461  0.012195815            0    0.4169588    1.4148928    1.8440474    5.3277149 
 6350000   0.89136501 2.9866027e-05   0.52209599 0.0097121222            0   0.51238387    1.3303623    1.8524583     3.916798 
 6355000   0.88185588 -1.5282968e-05   0.53458483  0.024442827            0     0.510142    1.3161699    1.8507547   0.79439595 
 6360000   0.90914424 -6.3361213e-06   0.50656659  0.019558571            0   0.48700802    1.3568978    1.8634644    1.4255117 
 6365000   0.98512394 -4.2759824e-05   0.37799772  0.013298782            0   0.36469894    1.4702975    1.8482952   -1.1072638 
 6370000   0.91450989 -3.2039566e-05   0.47864317 0.0096932713            0    0.4689499     1.364906    1.8435492  -0.37102559 
 6375000    0.8897203 -3.5869167e-05   0.51698916 0.0061282387            0   0.51086092    1.3279075    1.8448967  -0.63438012 
 6380000    0.9626383 -2.5696166e-05   0.40514378  0.004416811            0   0.40072697    1.4367377    1.8418814  0.065762439 
 6385000   0.92237639 2.8275664e-05   0.48448637 0.0090274465            0   0.47545893    1.3766468    1.8611331    3.8155471 
 6390000   0.88235294 6.387094e-05   0.52598767   0.02595761            0   0.50003006    1.3169118    1.8428994    6.2576588 
 6395000   0.91366859 3.263248e-05   0.49131316   0.03172266            0    0.4595905    1.3636504    1.8549635    4.1105206 
 6400000   0.92689616 9.1047102e-05   0.47531424  0.028563349            0   0.44675089    1.3833925    1.8587068    8.1518824 
 6405000   0.93075506 -3.1226446e-06   0.47182051  0.031374124            0   0.44044638    1.3891519    1.8609724    1.6451352 
 6410000   0.92588995 -4.3999354e-05   0.47216457  0.025832091            0   0.44633248    1.3818908    1.8540553     -1.18718 
 6415000   0.93480311 -6.1769784e-05   0.44299727  0.035603329            0   0.40739394    1.3951936    1.8381909   -2.4313366 
 6420000   0.93096905 -5.0094598e-05   0.45392592  0.022924373            0   0.43100155    1.3894713    1.8433972   -1.6191414 
 6425000   0.92135949 -1.1154183e-05   0.47412261  0.014484987            0   0.45963762     1.375129    1.8492516    1.0782745 
 6430000   0.90035967 1.5117023e-05   0.50993267  0.014324193            0   0.49560848    1.3437868    1.8537195    2.8986081 
 6435000    0.9412278 9.3083852e-06   0.45248261  0.022064773            0   0.43041783    1.4047825    1.8572651    2.5006607 
 6440000   0.92035776 -5.3360163e-05   0.46222962  0.030817149            0   0.43141247     1.373634    1.8358636   -1.8523909 
 6445000   0.94185035 1.236973e-05   0.44870738  0.023906294            0   0.42480108    1.4057116     1.854419    2.7094148 
 6450000   0.92143519 4.8540141e-05   0.48601257  0.024788286            0   0.46122429     1.375242    1.8612546    5.2163492 
 6455000   0.92661608 -1.7070852e-07   0.49611243  0.029505925            0   0.46660651    1.3829745    1.8790869    1.8672876 
 6460000     1.023855 3.2023564e-05   0.36706719  0.015487935            0   0.35157926    1.5281035    1.8951707    4.1086395 
 6465000   0.97773568 6.9731797e-05   0.41728354  0.015329236            0   0.40195431    1.4592705     1.876554    6.6964158 
 6470000   0.94478598 1.1813803e-05    0.4631517  0.019628881            0   0.44352282    1.4100931    1.8732448    2.6898148 
 6475000   0.93056219 -3.8216264e-05   0.47780626  0.011261931            0   0.46654433    1.3888641    1.8666703  -0.77483784 
 6480000   0.95576977 -5.5399175e-05   0.43651978 0.0080870185            0   0.42843276    1.4264864    1.8630062   -1.9661848 
 6485000   0.92481298 -1.3444333e-05   0.48023223  0.014981062            0   0.46525117    1.3802834    1.8605156   0.93124331 
 6490000    0.9274994 -5.3507865e-05   0.49219341  0.016942785            0   0.47525063    1.3842929    1.8764863   -1.8219774 
 6495000   0.96498093 -9.9798282e-06   0.45791009 0.0090279552            0   0.44888213     1.440234    1.8981441    1.2083384 
 6500000   0.96088131 6.1604204e-06   0.47049289  0.021825349            0   0.44866754    1.4341153    1.9046082    2.3304165 
 6505000   0.93621783 -2.700403e-05   0.49698134  0.016273884            0   0.48070745    1.3973051    1.8942864  0.027767921 
 6510000     1.009539 3.0692635e-05   0.39958289  0.010526557            0   0.38905633    1.5067369    1.9063198    4.0277947 
 6515000   0.96592778 -4.4454906e-05   0.47205822  0.013633165            0   0.45842506    1.4416472    1.9137054   -1.1590177 
 6520000   0.98070191 -1.2736091e-05   0.43541778  0.011103493            0   0.42431429    1.4636976    1.8991154    1.0187968 
 6525000   0.93868825 1.709046e-05   0.48796623  0.028418576            0   0.45954766    1.4009922    1.8889584     3.070251 
 6530000   0.93962481 -2.2259822e-05   0.46327753  0.011490726            0    0.4517868      1.40239    1.8656676   0.32706864 
 6535000   0.98350987 1.4741446e-05   0.39580079 0.0015499355            0   0.39425086    1.4678885    1.8636893    2.8826181 
 6540000   0.93866756 3.6173203e-05   0.46133399 0.0029650976            0   0.45836889    1.4009613    1.8622953    4.3625871 
 6545000   0.97417461 -2.9207993e-05   0.38550148  0.014042842            0   0.37145864    1.4539556    1.8394571  -0.17939941 
 6550000   0.90802356 7.1509971e-06   0.47991953  0.015801054            0   0.46411847    1.3552252    1.8351447    2.3294216 
 6555000   0.94456249 5.1598685e-05   0.43027038  0.026307676            0    0.4039627    1.4097595    1.8400299     5.406531 
 6560000   0.94215821 -1.4239916e-05   0.44218258  0.015553978            0    0.4266286    1.4061711    1.8483537   0.86409069 
 6565000   0.93714069 -1.5905473e-05   0.43720829  0.010309097            0    0.4268992    1.3986825    1.8358908    0.7365045 
 6570000   0.95179021 6.1529728e-05   0.42102637 0.0099601907            0   0.41106618    1.4205469    1.8415733    6.0945081 
 6575000   0.94112491 4.0209207e-05   0.44564224  0.020791402            0   0.42485084    1.4046289    1.8502712    4.6295316 
 6580000     0.947445 3.7424719e-05    0.4316272  0.025691329            0   0.40593587    1.4140617    1.8456889    4.4324854 
 6585000   0.96630409 -5.0163831e-05   0.41051683  0.015644879            0   0.39487195    1.4422089    1.8527257   -1.6145983 
 6590000   0.90229368 -2.9275458e-05   0.51273385  0.022015048            0    0.4907188    1.3466733    1.8594072  -0.16411251 
 6595000   0.95487508 -4.389286e-07   0.43571214  0.014338625            0   0.42137351    1.4251511    1.8608632    1.8305245 
 6600000    0.9557876 -2.097978e-05   0.42164023  0.015878795            0   0.40576144     1.426513    1.8481532    0.3980308 
 6605000   0.92318977 -3.1324638e-05   0.47274842  0.015733166            0   0.45701526    1.3778607    1.8506092  -0.31454984 
 6610000   0.94170691 2.7795512e-05   0.43682621   0.03143852            0   0.40538769    1.4054976    1.8423238    3.7635496 
 6615000   0.92522634 3.449347e-06   0.44730788  0.025153118            0   0.42215477    1.3809003    1.8282082    2.0666271 
 6620000   0.92041409 -2.4418246e-05   0.45426916  0.012595209            0   0.44167396     1.373718    1.8279872   0.14019802 
 6625000   0.92073407 1.585873e-05   0.46029757  0.012056501            0   0.44824107    1.3741956    1.8344932    2.9306486 
 6630000   0.92488189 -1.5015431e-05   0.44823734 0.0089811231            0   0.43925621    1.3803862    1.8286236   0.79075699 
 6635000   0.93808211 1.8182785e-05   0.41016565 0.0033455875            0   0.40682006    1.4000875    1.8102532    3.0670473 
 6640000   0.92264579 -9.0486927e-08   0.41902154  0.010330875            0   0.40869067    1.3770488    1.7960704    1.7898159 
 6645000   0.90206748 -3.1648731e-07    0.4476295  0.014203201            0    0.4334263    1.3463357    1.7939652    1.7720896 
 6650000   0.93928932 -2.9151684e-05   0.40381955  0.010806894            0   0.39301266    1.4018893    1.8057089  -0.20925553 
 6655000   0.90123834 -7.8994356e-06   0.45963222 0.0070113107            0   0.45262091    1.3450982    1.8047304    1.2587215 
 6660000   0.91010405 4.2314716e-05   0.44670699  0.030197839            0   0.41650915    1.3583303    1.8050373    4.7298304 
 6665000   0.85465354 -5.7987972e-06   0.50667672   0.02415931            0   0.48251741    1.2755704    1.7822471    1.3814343 
 6670000   0.88617622 -3.2163233e-05   0.47205165  0.016635833            0   0.45541582     1.322618    1.7946697  -0.42845298 
 6675000   0.89649386 4.6401841e-06   0.46243832  0.013492393            0   0.44894593    1.3380171    1.8004554    2.1211849 
 6680000   0.90647996 -5.5708878e-06   0.44124349  0.022185462            0   0.41905803    1.3529213    1.7941648    1.4091051 
 6685000   0.90936058 5.1690838e-06       0.4416  0.027420386            0   0.41417961    1.3572207    1.7988207    2.1561077 
 6690000   0.92682486 -3.2626533e-05   0.40720827   0.01398314            0   0.39322513    1.3832861    1.7904944   -0.4646516 
 6695000   0.86678702 -3.0608197e-05    0.4633837 0.0074380573            0   0.45594565    1.2936796    1.7570633  -0.35857524 
 6700000   0.84989232 -5.530963e-05   0.46263892  0.025327619            0    0.4373113    1.2684643    1.7311032   -2.0918984 
 6705000   0.84395204 -7.4042486e-05   0.47913752  0.024687744            0   0.45444977    1.2595984    1.7387359   -3.3790807 
 6710000   0.86332069 2.2477982e-05   0.46155728 0.0073958979            0   0.45416138    1.2885061    1.7500634    3.3037415 
 6715000   0.86087964 -3.8315644e-05   0.47059835  0.011025214            0   0.45957313    1.2848629    1.7554612  -0.89291612 
 6720000   0.86311123 2.5222665e-05   0.46974392  0.013404641            0   0.45633928    1.2881935    1.7579374     3.501328 
 6725000   0.89234406 1.8542404e-05   0.45105362 0.0097546701            0   0.44129895    1.3318235    1.7828771    3.0645281 
 6730000   0.89697149 3.3940784e-06   0.43037523 0.0090625023            0   0.42131273    1.3387299    1.7691052    2.0037039 
 6735000   0.88740519 -5.1346902e-05   0.43668453   0.01720153            0     0.419483    1.3244523    1.7611368   -1.7879611 
 6740000   0.87148468 -1.0790416e-05   0.44998564  0.011635336            0    0.4383503    1.3006909    1.7506765     1.004843 
 6745000   0.85643363 3.4505767e-05   0.48961051 0.0033357696            0   0.48627474    1.2782272    1.7678377    4.1528763 
 6750000   0.87286569 -9.5886234e-06   0.45566613  0.012777551            0   0.44288858     1.302752    1.7584182    1.0956525 
 6755000   0.89382032 -1.683066e-05   0.43585847  0.027340149            0   0.40851832    1.3340268    1.7698853   0.60655007 
 6760000   0.86230324 -1.4873545e-05    0.4619662 0.0086307401            0   0.45333546    1.2869876    1.7489538   0.72089435 
 6765000   0.87490668 -2.3065667e-05   0.44626117   0.01123226            0   0.43502891    1.3057982    1.7520594   0.15776051 
 6770000   0.88381585 3.5086857e-05   0.41745951  0.019148427            0   0.39831108    1.3190952    1.7365547    4.1617582 
 6775000   0.86233132 -5.9033463e-05   0.45210362  0.018988558            0   0.43311506    1.2870295    1.7391331   -2.3412598 
 6780000   0.83017241 -5.7502123e-05   0.49405254  0.017848155            0   0.47620438    1.2390323    1.7330849   -2.2414619 
 6785000   0.88865908 -1.8764631e-05   0.39296088 0.0060559149            0   0.38690496    1.3263237    1.7192845   0.42227322 
 6790000   0.87118097 1.7521725e-05   0.43836869 0.0060901359            0   0.43227855    1.3002376    1.7386063    2.9497079 
 6795000   0.86444408 2.9888558e-05   0.44997194  0.023395593            0   0.42657635    1.2901828    1.7401547    3.8060518 
 6800000   0.84701673 6.4683013e-06   0.47293918  0.022863427            0   0.45007575    1.2641725    1.7371116    2.1842006 
 6805000   0.86572492  4.74836e-05   0.44800043   0.01174797            0   0.43625246    1.2920944    1.7400949    5.0221613 
 6810000   0.92526767 1.9239122e-05   0.35850003  0.010418367            0   0.34808167     1.380962     1.739462    3.0692702 
 6815000   0.85736263 -1.477252e-05   0.46488277  0.010965817            0   0.45391695    1.2796137    1.7444965   0.72341994 
 6820000   0.87213317 -5.279625e-06   0.42305395  0.014309138            0   0.40874481    1.3016588    1.7247127     1.359785 
 6825000   0.86449628 -2.3507417e-05   0.43036167   0.01520667            0     0.415155    1.2902607    1.7206224  0.095789664 
 6830000    0.8517551 -2.7416303e-05   0.44246912  0.010297716            0    0.4321714    1.2712445    1.7137136  -0.18130128 
 6835000   0.85143782 -2.0350857e-05   0.45476869  0.011158739            0   0.44360995     1.270771    1.7255396   0.31888842 
 6840000   0.82792659 1.1534453e-06   0.48146646  0.009093475            0   0.47237298    1.2356804    1.7171469     1.796873 
 6845000   0.88310907 -9.3853863e-06    0.4005765  0.019913046            0   0.38066346    1.3180403    1.7186168    1.0698989 
 6850000   0.83243759 2.6162354e-05   0.46788185  0.033007524            0   0.43487433    1.2424131     1.710295    3.5186368 
 6855000   0.85563434 -2.0285599e-05   0.43363598  0.011668463            0   0.42196752    1.2770342    1.7106702   0.30852962 
 6860000   0.84130518 -3.3024211e-05   0.47818846 0.0058786651            0    0.4723098     1.255648    1.7338364  -0.54879703 
 6865000     0.847147 -1.6407232e-05   0.47019112  0.011883488            0   0.45830763    1.2643669     1.734558   0.60049016 
 6870000   0.87374099 2.2644215e-06   0.43504759  0.024032854            0   0.41101474    1.3040584     1.739106    1.8956228 
 6875000   0.85460056 -1.4494106e-05   0.45544336  0.013314494            0   0.44212886    1.2754913    1.7309347   0.72910206 
 6880000   0.84952574 1.5653529e-05    0.4532405  0.025257569            0   0.42798293    1.2679172    1.7211577    2.8031296 
 6885000   0.90970486 1.5998528e-05   0.36504027 0.0074109922            0   0.35762928    1.3577345    1.7227748     2.828593 
 6890000   0.87968327 1.4275811e-05    0.4337763  0.011325671            0   0.42245063    1.3129273    1.7467036    2.7334476 
 6895000   0.87883886 3.7442975e-05   0.43726512  0.022830739            0   0.41443438     1.311667    1.7489321    4.3369905 
 6900000   0.86497228 3.1564547e-05    0.4689418  0.011918019            0   0.45702378    1.2909711    1.7599129    3.9416544 
 6905000   0.86447075 1.5683413e-05   0.47763079  0.022608285            0   0.45502251    1.2902226    1.7678534    2.8518909 
 6910000   0.81832438 -3.9256453e-05    0.5290047  0.031002549            0   0.49800215    1.2213491    1.7503538   -0.9630522 
 6915000   0.88284832 -1.6192617e-05   0.43432099  0.015149929            0   0.41917107    1.3176511    1.7519721   0.63273842 
 6920000    0.8715421 3.4400157e-05   0.44563079  0.012565945            0   0.43306484    1.3007766    1.7464074    4.1241462 
 6925000   0.87423125 1.2138435e-06   0.44836301 0.0091610827            0   0.43920193    1.3047901    1.7531531     1.837054 
 6930000   0.92157239 4.0974766e-05   0.38589323 0.0057643045            0   0.38012892    1.3754468      1.76134    4.5935158 
 6935000   0.85722434 -2.4718178e-05   0.49761779  0.017610932            0   0.48000686    1.2794073    1.7770251  0.068504629 
 6940000   0.93455867 -2.194424e-05   0.40067024  0.012374292            0   0.38829595    1.3948288    1.7954991   0.27871322 
 6945000   0.86918235 -1.6220207e-05   0.49314154  0.006194004            0   0.48694753    1.2972547    1.7903962   0.66925547 
 6950000   0.92584841 -4.8288202e-06   0.41053161 0.0039630648            0   0.40656855    1.3818288    1.7923604    1.4585923 
 6955000   0.90747196 -1.6777301e-05   0.41284255 0.0088689553            0   0.40397359    1.3544019    1.7672444   0.60759737 
 6960000   0.87697859 -1.7130572e-05   0.46923394  0.023176591            0   0.44605735    1.3088905    1.7781245   0.59405936 
 6965000   0.88403068 4.0648851e-05   0.46919724  0.027433335            0    0.4417639    1.3194158     1.788613    4.5982616 
 6970000   0.87571889 1.3348657e-05   0.46650875  0.027291089            0   0.43921766    1.3070104    1.7735192    2.6961783 
 6975000   0.86610927 3.7390139e-05    0.4827558  0.042969837            0   0.43978596    1.2926681    1.7754239    4.3598303 
 6980000   0.88120975 8.8424633e-06   0.44738281  0.013483737            0   0.43389907    1.3152056    1.7625884    2.3737794 
 6985000   0.87175878 -3.8324363e-05   0.45325583  0.026391532            0    0.4268643       1.3011    1.7543558  -0.89462415 
 6990000   0.87017807 -2.4369627e-06    0.4627493  0.037824951            0   0.42492435    1.2987408    1.7614901    1.5930472 
 6995000    0.8558281 -1.5227313e-05   0.48078779  0.019955813            0   0.46083198    1.2773234    1.7581112   0.70559934 
 7000000   0.89274605 3.6443822e-06   0.42600502 0.0069801969            0   0.41902482    1.3324235    1.7584285    2.0103282 
 7005000   0.86098387 4.1643222e-06   0.45002512  0.015276786            0   0.43474833    1.2850184    1.7350435    2.0228815 
 7010000   0.86220471 -6.2831421e-06   0.43905293  0.010790225            0    0.4282627    1.2868405    1.7258935    1.2916027 
 7015000   0.88831924 2.3441638e-05   0.41380158   0.01300953            0   0.40079205    1.3258165     1.739618     3.359904 
 7020000   0.83254232 -9.2298506e-07   0.48629195  0.030513802            0   0.45577815    1.2425694    1.7288614    1.6650646 
 7025000    0.8491571 2.5324903e-05   0.46644359  0.028064913            0   0.43837868     1.267367    1.7338106    3.4842678 
 7030000   0.86740765 4.6971524e-05   0.41751806  0.011014811            0   0.40650325    1.2946059     1.712124    4.9587957 
 7035000   0.83249362 2.7469265e-05   0.46237036  0.005830025            0   0.45654034    1.2424967    1.7048671    3.6035427 
 7040000   0.86218858 -7.4606794e-06    0.3945233  0.009602103            0   0.38492119    1.2868165    1.6813398    1.1656576 
 7045000   0.83882056 -1.5849795e-05   0.43882747  0.017219472            0     0.421608    1.2519397    1.6907672   0.59522931 
 7050000   0.83664961 -4.3301121e-05   0.43420373 0.0073617891            0   0.42684194    1.2486995    1.6829033   -1.3100702 
 7055000   0.86992572 2.2127136e-05   0.39706342 0.0031924099            0   0.39387101    1.2983641    1.6954276    3.2248552 
 7060000   0.88088531 -3.8094439e-06   0.39312909 0.0014604222            0   0.39166866    1.3147213    1.7078504    1.4445417 
 7065000   0.85382383 -1.475568e-05    0.4263339  0.002173873            0   0.42416002    1.2743321     1.700666   0.68075334 
 7070000   0.86026694 1.1692298e-05   0.42879233 0.0030364029            0   0.42575593    1.2839484    1.7127407    2.5209124 
 7075000   0.88470546 1.3405098e-05   0.38905939 0.0043059338            0   0.38475345    1.3204229    1.7094823    2.6360427 
 7080000     0.861084 4.0258442e-05   0.42082746  0.010384659            0    0.4104428    1.2851679    1.7059953    4.4886589 
 7085000   0.83883698 1.2784559e-05   0.44594956  0.012692369            0   0.43325719    1.2519642    1.6979138    2.5815825 
 7090000   0.85954062 1.6901909e-05   0.41941532 0.0067742453            0   0.41264108    1.2828644    1.7022797    2.8705397 
 7095000   0.85361234 -2.6370748e-05   0.44717455  0.011448218            0   0.43572633    1.2740164     1.721191  -0.10155515 
 7100000   0.82532511 -3.1535042e-05   0.46896967  0.013781243            0   0.45518842    1.2317977    1.7007674  -0.47893468 
 7105000   0.84210922 4.6655536e-05   0.43484902  0.012784566            0   0.42206446     1.256848     1.691697    4.9165277 
 7110000   0.84444719 -3.6847984e-05   0.44874579  0.011515139            0   0.43723065    1.2603374    1.7090832  -0.83784942 
 7115000   0.80226549 -2.0513492e-05   0.51450965  0.020089316            0   0.49442033    1.1973812    1.7118909   0.29399835 
 7120000   0.88966896 3.0489212e-05   0.39717634  0.013800451            0   0.38337589    1.3278309    1.7250073    3.8324216 
 7125000   0.88148409 3.7559285e-05   0.39647635 0.0060154921            0   0.39046086     1.315615    1.7120914    4.3081891 
 7130000   0.86236906 1.6454694e-05   0.41522305  0.017926814            0   0.39729624    1.2870858    1.7023089    2.8396573 
 7135000   0.83395667 2.6004352e-05   0.46239898  0.013538686            0   0.44886029    1.2446803    1.7070793    3.5045001 
 7140000   0.87951141 4.5944945e-05    0.3961649  0.012375599            0   0.38378931    1.3126708    1.7088357    4.8845503 
 7145000   0.81609335 3.5137846e-06   0.48872764  0.014090998            0   0.47463664    1.2180193     1.706747    1.9496198 
 7150000   0.88272303 8.1922805e-06   0.38660451  0.010628559            0   0.37597595    1.3174641    1.7040686    2.2703191 
 7155000   0.86813026 8.7761513e-05   0.40971267  0.013290773            0    0.3964219    1.2956844    1.7053971    7.7714729 
 7160000   0.85533663 6.8469501e-05   0.44879708  0.016776777            0    0.4320203    1.2765899     1.725387    6.4579989 
 7165000   0.89356805 -8.8929471e-07    0.3886187  0.018374618            0   0.37024408    1.3336503     1.722269     1.660801 
 7170000    0.8674213 -1.1036534e-05   0.42306174  0.011895828            0   0.41116591    1.2946263     1.717688   0.95484283 
 7175000   0.87353134 3.0296878e-05   0.41849953  0.016430479            0   0.40206905    1.3037455    1.7222451    3.8163653 
 7180000   0.87384139 5.3982792e-05   0.41241695  0.025475331            0   0.38694162    1.3042083    1.7166252    5.4479158 
 7185000   0.85005764 6.8482307e-06   0.43333961  0.020162489            0   0.41317713     1.268711    1.7020506    2.1754004 
 7190000   0.87704403 -2.5311315e-05   0.39912721  0.022828418            0   0.37629879    1.3089882    1.7081154  -0.04140265 
 7195000   0.85575173 -4.1247155e-05   0.45387309  0.015994807            0   0.43787828    1.2772095    1.7310825   -1.1199208 
 7200000   0.91097189 2.4963554e-05   0.38741777  0.016112093            0   0.37130568    1.3596255    1.7470433    3.4725242 
 7205000   0.89517959 7.6896103e-05   0.40267877   0.02273055            0   0.37994822    1.3360555    1.7387343    7.0537929 
 7210000   0.88160072 -2.1664278e-05   0.41676845  0.012769558            0   0.40399889    1.3157891    1.7325575   0.23512261 
 7215000   0.85837755 3.2651553e-06    0.4780072  0.010268848            0   0.46773835    1.2811285    1.7591357    1.9848232 
 7220000   0.90451614 4.8208875e-05   0.39990897  0.010796536            0   0.38911244    1.3499903    1.7498993    5.0820968 
 7225000   0.89593938 -3.9685514e-05   0.42178872 0.0076053002            0   0.41418342    1.3371895    1.7589783   -0.9840845 
 7230000   0.83731645 -4.3318674e-05   0.52230659  0.028483297            0    0.4938233    1.2496948    1.7720014   -1.2221853 
 7235000   0.87151001 -8.6775032e-06   0.44800219  0.032947412            0   0.41505478    1.3007287    1.7487309    1.1489419 
 7240000    0.9296919 1.7524349e-05   0.36993561 0.0072752359            0   0.36266037    1.3875652    1.7575008    2.9687838 
 7245000   0.87377065 2.6547829e-05   0.44555421  0.015392187            0   0.43016202    1.3041027    1.7496569    3.5846429 
 7250000   0.89515645 -1.3249406e-05   0.43150388   0.01097746            0   0.42052642     1.336021    1.7675249   0.85172594 
 7255000   0.85906672 -3.673085e-05   0.48487169 0.0071961126            0   0.47767558    1.2821571    1.7670288  -0.77180756 
 7260000   0.86170075 -3.2379566e-05   0.50492711    0.0205583            0   0.48436881    1.2860884    1.7910155  -0.44706013 
 7265000    0.8636901 5.5958767e-06   0.50041626  0.030431593            0   0.46998467    1.2890575    1.7894737    2.1762607 
 7270000   0.90091255 4.1293429e-05   0.44739344  0.016438688            0   0.43095475     1.344612    1.7920054    4.6462072 
 7275000   0.93249461 3.3454314e-05   0.41986982 0.0065636329            0   0.41330619    1.3917482     1.811618    4.1239802 
 7280000   0.90975922 -6.2789438e-06   0.44597076 0.0038420263            0   0.44212873    1.3578156    1.8037864    1.3697858 
 7285000   0.93653747 6.0013924e-06   0.41696268 0.0048797836            0    0.4120829    1.3977822    1.8147449    2.2295611 
 7290000   0.89325923 3.1225802e-05   0.46769984  0.013651763            0   0.45404807    1.3331894    1.8008892    3.9592166 
 7295000   0.91474003 -2.3598798e-05   0.43915386  0.010514275            0   0.42863959    1.3652495    1.8044034   0.17325446 
 7300000    0.9057701 -4.0766862e-05   0.46644017  0.011953039            0   0.45448713    1.3518619     1.818302  -0.99950345 
 7305000   0.91104316 8.3483175e-06   0.46014459  0.016286918            0   0.44385767    1.3597319    1.8198765    2.3969122 
 7310000   0.94106905 1.8352223e-05   0.42509125  0.016496497            0   0.40859475    1.4045456    1.8296368    3.0981425 
 7315000   0.89354097 -4.3306811e-05   0.48843162  0.017612007            0   0.47081961    1.3336099    1.8220415   -1.1713252 
 7320000   0.93954494 -5.0781008e-06    0.4213982  0.018760166            0   0.40263804    1.4022708     1.823669    1.4726707 
 7325000   0.93120402 1.343251e-05   0.43471947  0.017659234            0   0.41706024     1.389822    1.8245415    2.7529966 
 7330000   0.91862739 1.8858419e-05   0.46310377   0.01489733            0   0.44820644    1.3710514    1.8341551     3.137649 
 7335000   0.89530945 1.7339009e-05    0.4970052  0.010892693            0   0.48611251    1.3362494    1.8332546    3.0317269 
 7340000   0.89186899 -3.8751575e-06   0.52176614  0.017696192            0   0.50406995    1.3311145    1.8528806    1.5850297 
 7345000   0.91892487 -5.5766079e-05   0.48550227  0.016833804            0   0.46866847    1.3714954    1.8569976   -1.9975538 
 7350000   0.90344386 -2.0872793e-05   0.48716027  0.024256586            0   0.46290368      1.34839    1.8355502   0.39282275 
 7355000   0.90830061 2.268355e-05   0.48852724  0.018062919            0   0.47046432    1.3556387    1.8441659    3.4120529 
 7360000   0.89969025 2.0293068e-05   0.49465259  0.011116676            0   0.48353591    1.3427877    1.8374403    3.2400972 
 7365000   0.92949107 2.8259207e-05   0.45948364 0.0085544965            0   0.45092914    1.3872654    1.8467491    3.8000254 
 7370000   0.90408726 1.0851701e-05   0.49898142  0.006761848            0   0.49221957    1.3493502    1.8483317    2.5984013 
 7375000   0.91267058 1.189248e-05   0.48543936 0.0034437114            0   0.48199565    1.3621608    1.8476002    2.6696084 
 7380000   0.92772347 -1.8044508e-05   0.46367325 0.0033606485            0    0.4603126    1.3846273    1.8483005   0.60106412 
 7385000    0.9080803 -4.1198695e-05   0.47336189 0.0049759516            0   0.46838594    1.3553099    1.8286717    -1.018982 
 7390000    0.9205942 3.2685438e-05   0.44713707 0.0069525546            0   0.44018451    1.3739868    1.8211239    4.0803414 
 7395000   0.89977216 4.6689192e-05   0.48840412 0.0051066169            0    0.4832975      1.34291    1.8313141     5.058471 
 7400000    0.8847694 -6.3310708e-06   0.51365658  0.019047366            0   0.49460922    1.3205183    1.8341749    1.3965713 
 7405000   0.92147369 -1.9042434e-05   0.46750843  0.020574897            0   0.44693354    1.3752995    1.8428079   0.52659489 
 7410000   0.97438738 2.6440168e-05   0.39098314  0.013822023            0   0.37716111    1.4542732    1.8452563    3.6728007 
 7415000   0.91355887 1.1276954e-05   0.49615241  0.016571229            0   0.47958118    1.3634866     1.859639    2.6391021 
 7420000   0.87494716 -4.2734236e-06   0.54841992  0.029449394            0   0.51897053    1.3058586    1.8542786    1.5588995 
 7425000   0.88714417 1.7349071e-05    0.5344067  0.040554045            0   0.49385266    1.3240627    1.8584694    3.0576371 
 7430000   0.95951735 -1.7401892e-05   0.42260601  0.012526333            0   0.41007967    1.4320796    1.8546857   0.65186687 
 7435000   0.92791659 -3.2249685e-05   0.45052144 0.0035842761            0   0.44693716    1.3849155    1.8354369  -0.39366127 
 7440000   0.89616326 1.2502758e-05   0.51609935 0.0059101224            0   0.51018923    1.3375237     1.853623    2.7178137 
 7445000   0.92871764 8.9551114e-06   0.45828604  0.010309339            0    0.4479767    1.3861111    1.8443971    2.4633744 
 7450000   0.90442519 -3.7751737e-05   0.48084787  0.010999268            0    0.4698486    1.3498546    1.8307025  -0.77869757 
 7455000    0.8874272 2.9295929e-05   0.49083519  0.014680769            0   0.47615442    1.3244851    1.8153203    3.8402549 
 7460000   0.92967082 4.9925748e-06   0.43285379  0.019160149            0   0.41369364    1.3875337    1.8203875    2.1654743 
 7465000   0.91279218 -2.6667583e-05    0.4441475   0.01212877            0   0.43201873    1.3623423    1.8064898 -0.036773533 
 7470000     0.918316 -2.7019325e-06   0.43800255 0.0057900619            0   0.43221249    1.3705866    1.8085892    1.6218316 
 7475000   0.91171695 -1.0872849e-05   0.46324385  0.013387669            0   0.44985618    1.3607375    1.8239814    1.0724501 
 7480000   0.87020589 1.8575964e-05   0.51024996  0.010485324            0   0.49976463    1.2987823    1.8090322    3.0930029 
 7485000    0.9332359 3.4068094e-05   0.43295089  0.012767894            0     0.420183    1.3928546    1.8258055    4.1805921 
 7490000   0.90653562 2.5681657e-05   0.47043057  0.020825016            0   0.44960556    1.3530044     1.823435    3.5985511 
 7495000   0.88752033 2.7464665e-05    0.4750573  0.020571096            0    0.4544862    1.3246241    1.7996814     3.698039 
 7500000    0.9119433 -2.6640264e-05   0.45374477 0.0074698546            0   0.44627491    1.3610754    1.8148201 -0.026554896 
 7505000   0.90840458 -4.1037746e-05   0.45522879  0.010283426            0   0.44494536    1.3557938    1.8110226   -1.0255064 
 7510000    0.8876399 -4.4549633e-05   0.48516657  0.011479852            0   0.47368672    1.3248026    1.8099691   -1.2693015 
 7515000   0.91170782 -2.6969471e-05   0.44372552 0.0036459516            0   0.44007956    1.3607239    1.8044494 -0.059680372 
 7520000    0.9111421 5.6062365e-06   0.43757656 0.0079245708            0   0.42965199    1.3598796    1.7974561    2.1849592 
 7525000   0.88563875 -5.2139979e-05   0.47211751  0.011248824            0   0.46086869    1.3218158    1.7939333    -1.809982 
 7530000   0.94449559 6.1935431e-06   0.41528922 0.0090776602            0   0.40621156    1.4096597    1.8249489    2.2530466 
 7535000   0.88177869 6.4518933e-05   0.51947455  0.016205405            0   0.50326914    1.3160547    1.8355292    6.2950779 
 7540000   0.92188639 1.7060351e-05   0.43459957 0.0074665093            0   0.42713306    1.3759154     1.810515    2.9897264 
 7545000   0.92401821 -3.9242243e-05   0.42253205  0.012316981            0   0.41021507    1.3790972    1.8016292  -0.91079464 
 7550000   0.90662405 2.0982774e-05   0.42335922  0.016457863            0   0.40690136    1.3531364    1.7764956    3.2268249 
 7555000   0.88752514 6.2874754e-06   0.43820383  0.021666399            0   0.41653743    1.3246313    1.7628351    2.1974254 
 7560000   0.88084177 -6.2240486e-05   0.47038967  0.026056704            0   0.44433296    1.3146563     1.785046   -2.5170164 
 7565000    0.8799713 -4.4663025e-05   0.47414346  0.010825343            0   0.46331812    1.3133572    1.7875006   -1.2996077 
 7570000   0.94038882 -8.4912494e-06   0.39764656  0.003406901            0   0.39423966    1.4035303    1.8011769    1.2142617 
 7575000   0.91825015 4.2367832e-06   0.42758915 0.0082613438            0   0.41932781    1.3704883    1.7980775     2.090924 
 7580000   0.91731603 2.5900692e-05   0.45125099 0.0099350616            0   0.44131593    1.3690942    1.8203452     3.610601 
 7585000   0.91574268 6.6017149e-06   0.46478682  0.016166744            0   0.44862008     1.366746    1.8315328    2.2878433 
 7590000   0.92252762 -4.9286717e-06   0.43963373   0.02043862            0   0.41919511    1.3768725    1.8165062    1.4758364 
 7595000   0.90670823 -2.0057215e-06   0.46497028  0.029764331            0   0.43520595     1.353262    1.8182323    1.6795968 
 7600000   0.89730761 -8.7460254e-06   0.48049532  0.013642865            0   0.46685245    1.3392316    1.8197269    1.2152017 
 7605000   0.91798865 8.0601503e-06   0.47135188  0.005054999            0   0.46629689    1.3700981    1.8414499    2.3985675 
 7610000   0.92974494 -2.4246705e-05   0.44797776  0.011079291            0   0.43689847    1.3876443    1.8356221   0.15968982 
 7615000   0.96360263 -2.1364446e-06   0.40036688  0.023219375            0    0.3771475    1.4381769    1.8385438    1.6908728 
 7620000   0.93509052 9.4637906e-06   0.45474382  0.020807705            0   0.43393612    1.3956226    1.8503664    2.5045036 
 7625000   0.92664412 -7.5681011e-05   0.45952321 0.0088851697            0   0.45063804    1.3830163    1.8425396   -3.3885319 
 7630000   0.92442166 -8.3058455e-05     0.446867 0.0048784144            0   0.44198859    1.3796993    1.8265663    -3.914434 
 7635000   0.93112013 -1.0815308e-05   0.43996652 0.0022379414            0   0.43772858    1.3896968    1.8296633    1.0821092 
 7640000   0.86598465 4.0018688e-05   0.49583163 0.0044532092            0   0.49137842    1.2924821    1.7883137    4.5544054 
 7645000   0.91314102 -2.7529657e-07   0.43472967 0.0093835541            0   0.42534612     1.362863    1.7975926    1.7785641 
 7650000   0.94552327 2.8936135e-05   0.36861671  0.001950513            0   0.36666619    1.4111935    1.7798102    3.7798758 
 7655000   0.90933634 2.2768269e-05   0.42213342 0.0022757173            0    0.4198577    1.3571845    1.7793179    3.3530607 
 7660000   0.88833016 -3.2661587e-05   0.44726744 0.0092179572            0   0.43804949    1.3258328    1.7731002  -0.48446866 
 7665000   0.88176518 -9.8883072e-05   0.47055819  0.014418201            0   0.45613999    1.3160345    1.7865927   -5.0482052 
 7670000   0.92449486 -1.7290794e-05   0.42625535  0.012249983            0   0.41400536    1.3798086    1.8060639   0.61092424 
 7675000   0.92893686 8.0857341e-05   0.44033271 0.0086601632            0   0.43167255    1.3864383     1.826771    7.4156304 
 7680000   0.95666498 5.1331779e-05   0.39473823   0.01013082            0   0.38460741    1.4278225    1.8225607    5.3706133 
 7685000   0.91227346 6.2817403e-06   0.45921254  0.038104589            0   0.42110795    1.3615681    1.8207807    2.2549746 
 7690000   0.91945102 -2.363428e-05   0.45751983 0.0093316798            0   0.44818815    1.3722807    1.8298005   0.19619903 
 7695000   0.90838781 -7.4068555e-06   0.47869427  0.022649563            0    0.4560447    1.3557688    1.8344631    1.3225012 
 7700000    0.9439895 -2.7037261e-05   0.44095718  0.020869166            0   0.42008801    1.4089043    1.8498615 -0.018953984 
 7705000   0.96519585 2.5751902e-06   0.42150406 0.0094406531            0   0.41206341    1.4405548    1.8620589     2.040056 
 7710000   0.94040272 5.4546291e-07    0.4542184  0.029102886            0   0.42511551    1.4035511    1.8577695    1.8954718 
 7715000   0.94906608 2.384128e-05   0.45958515  0.025891497            0   0.43369365    1.4164811    1.8760663    3.5239756 
 7720000   0.94696268 8.0113657e-06   0.47423607  0.020588962            0   0.45364711    1.4133418    1.8875779    2.4413235 
 7725000   0.95882068 1.5661821e-05   0.45360772  0.013409169            0   0.44019855    1.4310399    1.8846476    2.9671926 
 7730000   0.98385298 -1.5901192e-06   0.42571421  0.019978262            0   0.40573595    1.4684006    1.8941148    1.7842057 
 7735000   0.98109681 2.507993e-05   0.43884488  0.031294841            0   0.40755004     1.464287    1.9031319    3.6366566 
 7740000   0.94289409 2.6793366e-06   0.48391611  0.032428708            0    0.4514874    1.4072694    1.8911855    2.0763813 
 7745000   0.97577601 -3.6881373e-05   0.43551824  0.034323746            0    0.4011945    1.4563457    1.8918639  -0.65737656 
 7750000   0.92617402 -3.7460934e-05   0.48777419  0.024109397            0   0.46366479    1.3823147    1.8700889  -0.71921081 
 7755000   0.92814599 -2.729727e-06     0.487807  0.023282637            0   0.46452436    1.3852579    1.8730649    1.6843861 
 7760000    0.9274379  5.99164e-05   0.49479115  0.032951121            0   0.46184003    1.3842011    1.8789922    6.0204138 
 7765000   0.94810357 -4.0966217e-05   0.47576649  0.041160236            0   0.43460625    1.4150446    1.8908111  -0.94077389 
 7770000   0.95070008 -4.4429351e-05   0.48555423  0.020985907            0   0.46456832    1.4189199    1.9044741   -1.1664826 
 7775000   0.97076493 -7.4982154e-06   0.44927478  0.010362647            0   0.43891213    1.4488667    1.8981414    1.3798648 
 7780000   0.96605835 6.2010037e-05   0.46142711  0.022368959            0   0.43905815    1.4418421    1.9032692     6.189403 
 7785000   0.96165681 9.4264384e-05   0.46819767  0.039849421            0   0.42834825    1.4352728    1.9034705    8.4190247 
 7790000   0.93692485 2.6553992e-05   0.48932344  0.020756578            0   0.46856686    1.3983603    1.8876838    3.7230957 
 7795000    0.9593183 5.1403927e-05   0.46396584  0.037476026            0   0.42648981    1.4317826    1.8957484    5.4487878 
 7800000   0.92479995 6.2603616e-07   0.51913366  0.055055982            0   0.46407767    1.3802639    1.8993976    1.9426692 
 7805000   0.98070668 -5.920053e-05   0.44358086  0.011560703            0   0.43202016    1.4637047    1.9072856   -2.1846551 
 7810000   0.99111754 1.4487651e-07   0.41729652 0.0036526734            0   0.41364385    1.4792429    1.8965395    1.9065533 
 7815000    1.0252258 3.5178301e-06   0.36600665 0.0096563797            0   0.35635027    1.5301496    1.8961562    2.1393086 
 7820000   0.94030161 -1.906025e-05   0.49826649  0.014644262            0   0.48362223    1.4034001    1.9016666   0.58422215 
 7825000     0.981732 -1.8283689e-05   0.42783363 0.0089146534            0   0.41891898     1.465235    1.8930686   0.62930007 
 7830000   0.94371556 -2.7077383e-05    0.5067916  0.002062359            0   0.50472924    1.4084955    1.9152871  0.043698384 
 7835000   0.99322442 -3.0546087e-05   0.43874968 0.0024001966            0   0.43634949    1.4823875    1.9211371  -0.19020842 
 7840000    0.9572919 -1.1177534e-06    0.4784291 0.0055864162            0   0.47284268    1.4287582    1.9071873    1.8299281 
 7845000   0.96993676 -2.2411582e-06    0.4562195 0.0098491636            0   0.44637034    1.4476306    1.9038501    1.7489413 
 7850000   0.97858579 -4.2633703e-05   0.45254083  0.020343159            0   0.43219767    1.4605393    1.9130801   -1.0337614 
 7855000    0.9804567 -5.4732046e-05   0.46574408  0.018546877            0   0.44719721    1.4633316    1.9290757   -1.8540033 
 7860000    0.9807926 -2.8016499e-05   0.45899583 0.0092528642            0   0.44974297     1.463833    1.9228288 -0.013671611 
 7865000   0.96745027 5.815345e-05   0.49495633  0.003253694            0   0.49170264    1.4439195    1.9388759    5.9584424 
 7870000    0.9768147 6.0392706e-05   0.47493881  0.013660379            0   0.46127843    1.4578959    1.9328347    6.1071786 
 7875000   0.93589482 -2.9209101e-06   0.50984592  0.032224355            0   0.47762156     1.396823    1.9066689    1.7047756 
 7880000   0.99245553 9.5148916e-06   0.41698154  0.027292869            0   0.38968867    1.4812399    1.8982214    2.5558907 
 7885000   0.96439155 1.6018581e-05   0.45058895 0.0060550823            0   0.44453387    1.4393544    1.8899433    2.9971477 
 7890000   0.95026488 -3.7986502e-05   0.45740192 0.0079376379            0   0.44946428    1.4182703    1.8756723  -0.74995479 
 7895000   0.92847574 -5.0553695e-05   0.48377281  0.017444865            0   0.46632795      1.38575    1.8695229   -1.6247486 
 7900000   0.99000445 -1.0664806e-05   0.40157882  0.017767653            0   0.38381117    1.4775816    1.8791605    1.1420091 
 7905000   0.96782429 4.5273441e-05   0.43744953  0.041717077            0   0.39573245    1.4444778    1.8819273    5.0112275 
 7910000   0.93332597 5.8811639e-05   0.49308439  0.017385716            0   0.47569867     1.392989    1.8860734    5.9511339 
 7915000   0.99267402 -4.2761066e-05   0.41626119  0.015066661            0   0.40119453     1.481566    1.8978272   -1.0578177 
 7920000   0.93579665 -4.2624232e-05   0.48180032 0.0066584858            0   0.47514183    1.3966765    1.8784768   -1.0677101 
 7925000   0.96629219 -3.4082429e-05   0.41892548 0.0080989769            0    0.4108265    1.4421911    1.8611166  -0.49466094 
 7930000   0.91906953 -1.691757e-05   0.47232775  0.023371004            0   0.44895674    1.3717113     1.844039   0.67469658 
 7935000   0.90238553 -1.051455e-05   0.48188205 0.0094188647            0   0.47246319    1.3468104    1.8286925    1.1019268 
 7940000   0.95440504 2.1796014e-05   0.39643288  0.012277554            0   0.38415533    1.4244495    1.8208824    3.3274229 
 7945000   0.90822748 5.9976759e-05   0.46009337  0.032746049            0   0.42734732    1.3555295    1.8156229    5.9612164 
 7950000   0.90198971 -4.8665482e-06   0.47407606 0.0070855895            0   0.46699047    1.3462196    1.8202957    1.4839199 
 7955000   0.92538392 -1.3434585e-05   0.45167311  0.025113998            0   0.42655911    1.3811355    1.8328086   0.90421008 
 7960000   0.88919215 1.037416e-05   0.50833312  0.019414081            0   0.48891904    1.3271193    1.8354524    2.5525143 
 7965000    0.9283611 2.0735915e-05   0.43769562 0.0079504001            0   0.42974522    1.3855789    1.8232746     3.256541 
 7970000   0.92378688 -1.0488281e-07   0.45042932  0.015931123            0   0.43449819    1.3787519    1.8291812    1.8219317 
 7975000   0.93145837 -1.9626862e-05    0.4485766  0.024132981            0   0.42444362    1.3902016    1.8387782   0.48216953 
 7980000   0.93243917 -6.2114612e-05   0.46691353  0.013274096            0   0.45363943    1.3916655     1.858579    -2.434783 
 7985000   0.91746367 1.084464e-06   0.47482603  0.002095552            0   0.47273047    1.3693145    1.8441406    1.9190987 
 7990000   0.92708868 -1.3818152e-05   0.46271306  0.005479198            0   0.45723386    1.3836799    1.8463929   0.89128228 
 7995000   0.96837827 -1.0823266e-05   0.41012299  0.011731514            0   0.39839147    1.4453046    1.8554276    1.1073234 
 8000000   0.92808385 -3.6855691e-06   0.47510325 0.0081772175            0   0.46692604    1.3851651    1.8602684    1.6055219 
 8005000   0.98667701 4.8858049e-05   0.39931358  0.011189937            0   0.38812364    1.4726154     1.871929    5.2489974 
 8010000   0.92597519 3.5046691e-05   0.48302188  0.017136344            0   0.46588554     1.382018    1.8650399    4.2874672 
 8015000   0.96461084 5.4446809e-05   0.43390568  0.017609014            0   0.41629667    1.4396817    1.8735874    5.6369508 
 8020000   0.94643595 4.0249115e-05   0.45909133  0.010477178            0   0.44861415    1.4125557     1.871647    4.6536658 
 8025000   0.94338265 2.9483552e-05   0.46424246 0.0088409253            0   0.45540153    1.4079986    1.8722411    3.9101442 
 8030000   0.94430499 -8.9232048e-05   0.45759157 0.0016180945            0   0.45597347    1.4093752    1.8669668   -4.3007524 
 8035000   0.95810852 3.1068824e-05   0.43764073 0.0012511465            0   0.43638958     1.429977    1.8676177    4.0150948 
 8040000   0.98411831 -1.5730123e-06    0.3816006 0.0062128392            0   0.37538776    1.4687966    1.8503972    1.7416706 
 8045000   0.94917872 1.2697131e-06   0.43063807  0.021926299            0   0.40871177    1.4166492    1.8472873    1.9350499 
 8050000   0.92240022 3.0993534e-05   0.47001637  0.014339313            0   0.45567706    1.3766823    1.8466987    3.9889718 
 8055000    0.9323777 -1.5415584e-05   0.46157299  0.010795676            0   0.45077732    1.3915737    1.8531467   0.78762153 
 8060000   0.93360022 1.7372294e-05   0.46199826  0.017028655            0    0.4449696    1.3933983    1.8553966    3.0561695 
 8065000   0.95386677 -2.3740762e-05   0.44115277  0.010578096            0   0.43057467    1.4236462    1.8647989   0.22383747 
 8070000    0.9294831 -6.983942e-06   0.45753048  0.015112114            0   0.44241836    1.3872535     1.844784    1.3620539 
 8075000    0.9209217 -2.4093835e-05   0.45872084  0.033401246            0    0.4253196    1.3744756    1.8331965   0.16783062 
 8080000   0.99434523 3.9888133e-05   0.35839448 0.0069266198            0   0.35146786    1.4840603    1.8424547    4.5995225 
 8085000   0.91254634 -1.5723397e-05    0.4868461 0.0076211433            0   0.47922496    1.3619754    1.8488215   0.76202032 
 8090000   0.93256032 3.0409416e-05   0.44502306 0.0078490564            0     0.437174    1.3918463    1.8368693    3.9387682 
 8095000    0.9326379 4.6520258e-05   0.44483112  0.012702385            0   0.43212874    1.3919621    1.8367932    5.0522734 
 8100000   0.90416876 3.0958491e-05   0.48887037   0.01507038            0   0.47379999    1.3494719    1.8383422    3.9781931 
 8105000   0.90900404 -3.0681171e-06   0.49136781  0.016121838            0   0.47524597    1.3566885    1.8480563    1.6359881 
 8110000   0.90916121 3.2388681e-05   0.48504932  0.030578809            0   0.45447051    1.3569231    1.8419724    4.0806781 
 8115000   0.92837425 2.7327366e-05   0.46392669  0.030667869            0   0.43325882    1.3855986    1.8495253    3.7383928 
 8120000   0.95025656 -5.1215839e-05   0.43650929  0.025089542            0   0.41141975    1.4182579    1.8547672   -1.6852716 
 8125000    0.9289399 -1.8629128e-06   0.47040769  0.013131099            0   0.45727659    1.3864428    1.8568505    1.7280859 
 8130000   0.95091253 -2.3138506e-05   0.44136785  0.015797221            0   0.42557063     1.419237    1.8606048    0.2612713 
 8135000   0.89089162 -4.2013056e-06   0.50865111  0.036621886            0   0.47202922    1.3296557    1.8383069    1.5479126 
 8140000   0.92218425 -1.0238066e-05   0.44695545  0.014035558            0   0.43291989      1.37636    1.8233154    1.1156603 
 8145000   0.93610944 2.6392536e-05   0.42118069   0.01423983            0   0.40694086    1.3971433     1.818324    3.6425761 
 8150000   0.88943875 7.2016306e-06   0.49182483  0.027208393            0   0.46461644    1.3274873    1.8193122    2.3170889 
 8155000   0.88427587 -5.5181027e-05   0.49333888 0.0092646099            0   0.48407427    1.3197817    1.8131206    -2.000992 
 8160000   0.90659548 -2.6176963e-05   0.45661639  0.023248105            0   0.43336828    1.3530937    1.8097101 0.0003584596 
 8165000   0.91354147 -5.5158076e-05   0.45424407  0.015722283            0   0.43852179    1.3634606    1.8177047   -1.9948215 
 8170000   0.89448155 -3.7298318e-05   0.47969568  0.016978322            0   0.46271736    1.3350137    1.8147094  -0.76335032 
 8175000    0.8729351 -4.1879353e-05   0.51730989  0.032995734            0   0.48431416    1.3028556    1.8201655   -1.0745353 
 8180000   0.91504912 3.2016378e-06   0.44795583  0.011846053            0   0.43610977    1.3657108    1.8136666    2.0349638 
 8185000   0.93628555 2.3666801e-05   0.42565387  0.013445313            0   0.41220856    1.3974062    1.8230601    3.4589094 
 8190000   0.87424976 -1.0482399e-05   0.50713898 0.0091499962            0   0.49798898    1.3048178    1.8119567    1.0874133 
 8195000   0.88337115 -6.7387686e-05   0.47344758  0.018612142            0   0.45483544    1.3184314     1.791879   -2.8659578 
 8200000   0.88739517 -2.2767459e-05   0.44380103  0.011944506            0   0.43185653    1.3244373    1.7682383   0.19455155 
 8205000   0.83771584 1.9488621e-05   0.51753966  0.014261593            0   0.50327807    1.2502909    1.7678306     3.114884 
 8210000   0.89204423 -9.2137937e-07    0.4249176 0.0098293328            0   0.41508827     1.331376    1.7562936    1.6926079 
 8215000   0.91293995 -4.7522955e-05   0.40166978   0.01184005            0   0.38982973    1.3625629    1.7642327    -1.520554 
 8220000   0.89277335 -2.5460278e-05   0.43845501 0.0063369659            0   0.43211805    1.3324642    1.7709192  0.011104849 
 8225000   0.82670571 -2.0859862e-05   0.51438564 0.0092564933            0   0.50512915    1.2338583    1.7482439   0.30641026 
 8230000   0.87070204 1.8601797e-06   0.43812075  0.014157989            0   0.42396277    1.2995228    1.7376435    1.8662192 
 8235000   0.87265218 3.8617137e-05   0.43875208  0.019334902            0   0.41941718    1.3024334    1.7411855     4.410402 
 8240000   0.84180889 -2.8362598e-05   0.48713263  0.021005544            0   0.46612709    1.2563998    1.7435324  -0.21689036 
 8245000   0.85919745 3.594789e-05   0.45559886 0.0090226827            0   0.44657617    1.2823522    1.7379511    4.2226692 
 8250000   0.89597675 1.6889541e-05   0.40407514 0.0094790633            0   0.39459608    1.3372453    1.7413204    2.9087255 
 8255000   0.86587493 7.6236045e-06   0.45673098  0.020362275            0    0.4363687    1.2923183    1.7490493    2.2759928 
 8260000   0.84317379 2.0022509e-05   0.49007013   0.01150439            0   0.47856574    1.2584369     1.748507    3.1324629 
 8265000   0.91345856 -3.0075043e-05   0.40136904 0.0068426228            0   0.39452642    1.3633369    1.7647059  -0.31408105 
 8270000   0.86169213 -1.462792e-05   0.47442089  0.005810114            0   0.46861077    1.2860755    1.7604964   0.74941458 
 8275000   0.87342768 8.8310637e-06   0.46012891  0.013110095            0   0.44701881    1.3035908    1.7637197    2.3741228 
 8280000   0.84514161 -1.7631256e-05   0.49680433  0.023785789            0   0.47301854    1.2613738    1.7581782   0.53950574 
 8285000   0.91328835 1.7608275e-05   0.40883542  0.012089939            0   0.39674548    1.3630829    1.7719183    2.9890022 
 8290000   0.86632318 -6.2434753e-06   0.46447402  0.016649713            0   0.44782431    1.2929874    1.7574614    1.3259124 
 8295000   0.84523442 2.0301696e-05   0.50793456  0.016018106            0   0.49191645    1.2615124    1.7694469    3.1727001 
 8300000   0.88981616 2.2335462e-05   0.43929767  0.017577813            0   0.42171986    1.3280506    1.7673483    3.3111754 
 8305000   0.86244022 -4.4815445e-05   0.48614491  0.006583172            0   0.47956174     1.287192    1.7733369   -1.3243067 
 8310000   0.90546483 -6.3394074e-05    0.4239941 0.0065029682            0   0.41749113    1.3514063    1.7754004    -2.606398 
 8315000   0.87655262 1.7202981e-07   0.46712263 0.0068677698            0   0.46025486    1.3082548    1.7753774    1.7872681 
 8320000   0.86476641 2.6785443e-05   0.45926297  0.014541018            0   0.44472195    1.2906639    1.7499268    3.6013367 
 8325000   0.89290676 -3.3519473e-05   0.42403998   0.02022715            0   0.40381283    1.3326633    1.7567033  -0.56016264 
 8330000   0.87055719 3.1856518e-06   0.47387241 0.0056170736            0   0.46825534    1.2993066     1.773179    1.9933713 
 8335000   0.88365848 2.6919023e-05   0.46272512  0.013107108            0   0.44961801    1.3188603    1.7815854    3.6422283 
 8340000   0.86066192 -4.2552663e-05   0.49661384 0.0098119796            0   0.48680186    1.2845379    1.7811518   -1.1600883 
 8345000   0.89710109 -5.8508808e-05   0.44722737  0.016558443            0   0.43066893    1.3389234    1.7861507   -2.2579781 
 8350000    0.8915532 -1.281459e-05   0.47175598  0.010006034            0   0.46174994    1.3306432    1.8023991    0.9166547 
 8355000   0.90106821 1.6283603e-05   0.45883976 0.00023131236            0   0.45860845    1.3448443    1.8036841    2.9292067 
 8360000   0.89967657 2.4470136e-07   0.47225798 4.5043286e-06            0   0.47225348    1.3427673    1.8150253     1.831939 
 8365000   0.93293086 3.5208412e-05   0.43511125 0.0003284793            0   0.43478277    1.3923993    1.8275106     4.261116 
 8370000   0.92460206 -2.3919438e-05   0.45680199 0.00092148415            0    0.4558805    1.3799686    1.8367706   0.18345901 
 8375000    0.8932179 -2.6268667e-05   0.50521868 0.0042267228            0   0.50099195    1.3331277    1.8383464  0.022656128 
 8380000   0.91638552  9.46695e-06   0.46440419 0.0058107506            0   0.45859344    1.3677054    1.8321096    2.4864652 
 8385000   0.91286801 2.003855e-05   0.47715064 0.0031559782            0   0.47399466    1.3624555    1.8396061    3.2246707 
 8390000   0.92553682 -3.8334857e-05   0.45746471 0.0043100048            0    0.4531547    1.3813637    1.8388284  -0.81087689 
 8395000   0.89091301 -3.3146053e-05   0.50135078  0.015930126            0   0.48542065    1.3296877    1.8310384  -0.46001674 
 8400000   0.88286056 1.1726836e-05   0.49132448   0.02502028            0    0.4663042    1.3176694    1.8089939    2.6195528 
 8405000   0.89202487 -3.3583303e-05   0.45030381  0.008207646            0   0.44209617    1.3313471    1.7816509    -0.539627 
 8410000   0.85752004 3.1675549e-05    0.5005343  0.016150239            0   0.48438406    1.2798487     1.780383    3.9697969 
 8415000   0.84669159 1.0037272e-05   0.50732549  0.015582491            0   0.49174299    1.2636872    1.7710127    2.4647889 
 8420000   0.85849473 -4.8384921e-05   0.48119313 0.0073504215            0   0.47384271    1.2813034    1.7624965   -1.5818692 
 8425000   0.88020649 -2.0042791e-05   0.46377203 0.0051661391            0   0.45860589    1.3137082    1.7774802   0.39212249 
 8430000   0.89225816 -2.6765673e-05   0.43716084 0.0069885432            0    0.4301723    1.3316953    1.7688561   -0.0811872 
 8435000   0.86557751 4.0801541e-05   0.47386962 0.0091591898            0   0.46471043    1.2918744     1.765744    4.5859466 
 8440000   0.86516729 7.6537076e-06   0.47334802  0.005091612            0   0.46825641    1.2912622    1.7646102    2.2936345 
 8445000   0.89656457 1.8478888e-05   0.43666887 0.0078773093            0   0.42879156    1.3381226    1.7747915    3.0520522 
 8450000   0.88012304 4.105603e-05   0.47684417 0.0062580909            0   0.47058608    1.3135836    1.7904278    4.6282206 
 8455000   0.89007681 2.3375121e-05   0.46956878  0.017437793            0   0.45213099    1.3284396    1.7980084    3.4136968 
 8460000   0.88129148 1.1364598e-05   0.47748692  0.019400452            0   0.45808647    1.3153275    1.7928145    2.5783354 
 8465000   0.88407994 -5.0358266e-05   0.47857762  0.013949349            0   0.46462827    1.3194893    1.7980669   -1.6826964 
 8470000   0.90337026 -2.9607361e-05    0.4649571  0.019956671            0   0.44500043    1.3482801    1.8132372  -0.23322355 
 8475000   0.89578899 1.0018681e-05   0.44965255  0.011758892            0   0.43789366    1.3369651    1.7866176    2.4791088 
 8480000   0.89183125 1.3184234e-05   0.44035896 0.0038755024            0   0.43648346    1.3310581    1.7714171    2.6827114 
 8485000   0.88279378 4.3635967e-05   0.45796149 0.0065259617            0   0.45143553    1.3175697    1.7755312    4.7916493 
 8490000   0.88667154 -2.543708e-05   0.44119199 0.0058756329            0   0.43531635    1.3233573    1.7645493 0.0063382674 
 8495000   0.87046813 -3.448383e-05   0.46233007  0.011967194            0   0.45036288    1.2991737    1.7615038  -0.62201858 
 8500000   0.86251625 1.0423017e-05   0.49559882  0.026303639            0   0.46929519    1.2873055    1.7829043    2.5033432 
 8505000    0.8595507 5.2874078e-05   0.49877141  0.050596151            0   0.44817526    1.2828794    1.7816508    5.4363071 
 8510000   0.89458383 1.6531455e-05   0.45388654  0.034299975            0   0.41958657    1.3351664    1.7890529    2.9317071 
 8515000   0.84938254 1.0259047e-05   0.50700587  0.041453693            0   0.46555217    1.2677034    1.7747093    2.4838146 
 8520000   0.87544467 2.2010877e-05   0.46598152  0.032884162            0   0.43309735    1.3066012    1.7725827    3.2939745 
 8525000   0.89543392 -4.4666832e-05   0.43601605  0.023887858            0   0.41212819    1.3364351    1.7724512   -1.3149202 
 8530000   0.86444928 -4.1883992e-05     0.490036  0.025218433            0   0.46481756    1.2901905    1.7802265    -1.114795 
 8535000   0.94440128 -3.8700876e-05   0.37559697  0.014210877            0   0.36138609    1.4095189    1.7851159  -0.88988866 
 8540000   0.90126175 5.0557926e-06   0.44544873 0.0062947937            0   0.43915394    1.3451332    1.7905819    2.1400383 
 8545000    0.8941183 -3.1070524e-05   0.45611834 0.0041040672            0   0.45201428    1.3344716    1.7905899  -0.35700472 
 8550000   0.87954145 -1.2866745e-05   0.49622863  0.014530828            0    0.4816978    1.3127156    1.8089442    0.9195948 
 8555000   0.90164839 -4.9422588e-05    0.4583683  0.021400879            0   0.43696742    1.3457102    1.8040785   -1.6120107 
 8560000   0.93570463 -4.6341629e-05   0.42610408  0.015117179            0    0.4109869    1.3965392    1.8226432   -1.3804902 
 8565000   0.91439628 3.1778732e-05    0.4686591  0.010797368            0   0.45786173    1.3647365    1.8333956    4.0299415 
 8570000   0.91055414 2.4456472e-05   0.47658867 0.0047331967            0   0.47185547     1.359002    1.8355907    3.5260221 
 8575000   0.93466199 -2.8130641e-05   0.43480898 0.0045399303            0   0.43026905     1.394983     1.829792  -0.11459788 
 8580000   0.88931309 -2.5143224e-05   0.51737928 0.0092130889            0   0.50816619    1.3272998    1.8446791   0.10677943 
 8585000   0.94031119 2.5055204e-06   0.43485812   0.01427462            0    0.4205835    1.4034145    1.8382726    2.0114541 
 8590000   0.93604291 2.3648626e-05   0.43649838  0.026758385            0      0.40974     1.397044    1.8335424    3.4681354 
 8595000   0.90142748 4.714769e-05   0.47406261  0.026202623            0   0.44785999    1.3453805    1.8194431    5.0782915 
 8600000   0.87947127 4.3264778e-05   0.51816624  0.052111939            0    0.4660543    1.3126109    1.8307771    4.8212386 
 8605000   0.91828583 -9.2762428e-06   0.44867593  0.011881983            0   0.43679395    1.3705416    1.8192175    1.1780436 
 8610000   0.90536955 1.3212388e-05   0.48299599 0.0097784526            0   0.47321753    1.3512641      1.83426    2.7475003 
 8615000   0.92180894 1.1374584e-05   0.46126326  0.015743326            0   0.44551994    1.3757998    1.8370631    2.6232744 
 8620000   0.93528855 -2.0125677e-05   0.43608484  0.012801955            0   0.42328289    1.3959182     1.832003   0.44091624 
 8625000   0.89167718 -4.4872006e-05   0.50126232  0.021282353            0   0.47997996    1.3308282    1.8320905   -1.2694626 
 8630000   0.90592623 -5.337665e-05   0.48548152  0.007869025            0   0.47761249    1.3520949    1.8375764   -1.8518177 
 8635000    1.0093008 3.6932521e-05   0.35221827 0.0052773612            0   0.34694091    1.5063815    1.8585998    4.4113756 
 8640000   0.91269796 7.2361857e-06    0.4899453  0.013342774            0   0.47660253    1.3622017     1.852147    2.3523122 
 8645000   0.92988054 -2.6586577e-05   0.47184059  0.011976857            0   0.45986374    1.3878467    1.8596873  0.022023108 
 8650000   0.93742997 2.6506806e-05   0.46520081  0.014427613            0    0.4507732    1.3991142     1.864315    3.6964655 
 8655000   0.94883114 -3.0899759e-05   0.45354865  0.023944096            0   0.42960455    1.4161305    1.8696791  -0.26611223 
 8660000   0.96441728 -3.6571897e-05   0.43825324 0.0084097752            0   0.42984347    1.4393928     1.877646  -0.65020346 
 8665000   0.93751385 6.094031e-06    0.4772071  0.011234163            0   0.46597294    1.3992394    1.8764465    2.2976659 
 8670000    0.9681512 7.9995919e-05   0.43714854  0.011063569            0   0.42608497    1.4449657    1.8821142    7.4114321 
 8675000   0.94458945 1.9254476e-05   0.46039915  0.021072103            0   0.43932704    1.4097998    1.8701989    3.2010683 
 8680000   0.95288382 2.7304216e-05   0.46358549  0.037293375            0   0.42629212    1.4221791    1.8857646     3.773032 
 8685000   0.96781589 1.0106227e-05   0.44589892  0.010681398            0   0.43521752    1.4444652    1.8903641    2.5889066 
 8690000   0.93689699 -4.7648872e-05   0.51540512 0.0021193914            0   0.51328573    1.3983188    1.9137239   -1.3797662 
 8695000    1.0220308 -4.5473179e-06   0.38884997  0.011228337            0   0.37762163     1.525381     1.914231    1.5999204 
 8700000    1.0074469 -3.2420525e-05    0.4167747 0.0091024186            0   0.40767228    1.5036144    1.9203891  -0.32051757 
 8705000   0.94952312 9.3569195e-07   0.47869488  0.013276851            0   0.46541803    1.4171633    1.8958581    1.9605332 
 8710000   0.94974746 8.2678226e-07    0.4795922  0.028866654            0   0.45072555    1.4174981    1.8970903    1.9542375 
 8715000   0.94000413 -3.4745518e-05   0.48917487  0.016045309            0   0.47312956    1.4029562     1.892131  -0.50947915 
 8720000   0.92653663 5.3598659e-05   0.51488669  0.020100443            0   0.49478625    1.3828559    1.8977426    5.6024819 
 8725000   0.99796713 5.4881651e-05    0.3969535  0.012895715            0   0.38405779    1.4894659    1.8864194    5.6798391 
 8730000    0.9410339 2.3449422e-05    0.4922616  0.007212956            0   0.48504864    1.4044931    1.8967547    3.5175787 
 8735000   0.97399271 3.8504348e-05   0.44476346  0.020323034            0   0.42444043    1.4536841    1.8984476    4.5598681 
 8740000   0.97687847 -1.5603106e-05   0.45038004  0.016828248            0   0.43355179    1.4579911    1.9083712   0.82988451 
 8745000   0.92542481 -3.264138e-05   0.52317823  0.017866329            0    0.5053119    1.3811965    1.9043748   -0.3517974 
 8750000   0.90477935 -5.8650909e-05   0.54561897  0.021106944            0   0.52451202    1.3503832    1.8960021   -2.1579486 
 8755000   0.95994094 -6.1386144e-05   0.45727826  0.018831873            0   0.43844639    1.4327119    1.8899901   -2.3530202 
 8760000   0.93770561 3.5073783e-05   0.49720692   0.01907621            0   0.47813071    1.3995256    1.8967325    4.3210324 
 8765000   0.98633845 2.2259946e-05   0.42867206  0.011130873            0   0.41754118    1.4721101    1.9007822    3.4393896 
 8770000   0.94808107 4.7820088e-05   0.49615919  0.005318036            0   0.49084116     1.415011    1.9111702    5.2164947 
 8775000   0.96606119 4.1171924e-05   0.47413613  0.006718437            0   0.46741769    1.4418463    1.9159825    4.7617858 
 8780000    0.9720327 1.8821731e-05   0.45559461  0.016433262            0   0.43916135    1.4507588    1.9063534    3.2073114 
 8785000   0.96305755 3.4154684e-05   0.46237109   0.01265551            0   0.44971558    1.4373634    1.8997345    4.2605062 
 8790000   0.97266101 5.9046382e-05   0.45403753 0.0045809013            0   0.44945662    1.4516966    1.9057341      5.98702 
 8795000    0.9480765 -1.0232088e-06    0.5034883 0.0072604026            0    0.4962279    1.4150042    1.9184925    1.8477683 
 8800000    0.9271278 -3.9097275e-05   0.53173238  0.015943586            0   0.51578879    1.3837382    1.9154706  -0.78693306 
 8805000   0.93976566 -1.3478096e-05   0.50575117  0.010370568            0    0.4953806    1.4026002    1.9083514   0.97674541 
 8810000   0.96844464 -4.6201995e-05   0.46145308  0.013079642            0   0.44837344    1.4454036    1.9068567   -1.2866252 
 8815000   0.92546944 1.0355519e-06   0.52310481  0.019122606            0    0.5039822    1.3812631     1.904368    1.9759453 
 8820000   0.91768743 7.7678941e-06   0.51486585  0.011748671            0   0.50311717    1.3696485    1.8845143    2.4214312 
 8825000   0.96406971 -8.5389988e-06    0.4387905 0.0064516457            0   0.43233885     1.438874    1.8776645    1.2874489 
 8830000   0.92244087 -1.6675798e-05    0.4950995 0.0079355471            0   0.48716395     1.376743    1.8718425   0.71921135 
 8835000   0.94622358 1.5627097e-05   0.45610959 0.0037915824            0   0.45231801    1.4122387    1.8683483    2.9484932 
 8840000   0.96247845 1.8034733e-05   0.44211453  0.010501631            0    0.4316129    1.4364991    1.8786136    3.1251743 
 8845000   0.90719872 4.2278616e-05   0.51693304  0.030757836            0    0.4861752    1.3539941    1.8709271    4.7932251 
 8850000   0.93045948 3.4174424e-05   0.48372822  0.037115959            0   0.44661226    1.3887108     1.872439    4.2345751 
 8855000    0.9348905 -5.158162e-06   0.48178925  0.018604941            0   0.46318431    1.3953241    1.8771133    1.5205812 
 8860000   0.91947908 -6.908946e-05   0.51770386  0.020639504            0   0.49706435    1.3723225    1.8900264   -2.8854371 
 8865000   0.92720455 -2.7644621e-05   0.50560323  0.015203226            0       0.4904    1.3838528     1.889456 -0.021340179 
 8870000   0.97177568 1.1975704e-06    0.4385451  0.011632549            0   0.42691255    1.4503752    1.8889203    1.9716964 
 8875000   0.93039736 -1.2630205e-06   0.50059256 0.0067114165            0   0.49388115    1.3886181    1.8892106    1.8019106 
 8880000   0.93435398 3.5133428e-05   0.49589677 0.0065738696            0    0.4893229    1.3945233    1.8904201    4.3188426 
 8885000   0.94301529 3.2361828e-05   0.47797581 0.0068028274            0   0.47117298    1.4074503    1.8854261    4.1222757 
 8890000   0.96823946 1.5106286e-05   0.44358016 0.0082716179            0   0.43530854    1.4450974    1.8886775     2.932824 
 8895000   0.92844688 2.671251e-05   0.50630242  0.017617829            0   0.48868459     1.385707    1.8920094    3.7383781 
 8900000   0.95962787 4.6714212e-05   0.45550746  0.022242635            0   0.43326482    1.4322446    1.8877521    5.1166384 
 8905000   0.91379005 2.6493648e-06   0.52744694  0.012480917            0   0.51496602    1.3638316    1.8912786    2.0744027 
 8910000   0.94661986 -2.6984657e-05   0.48129711  0.010559134            0   0.47073797    1.4128301    1.8941272  0.028947768 
 8915000    0.9612163 -1.4962199e-05   0.46419354 0.0090873032            0   0.45510624    1.4346153    1.8988089   0.86462169 
 8920000    0.9192245 2.1855279e-05   0.53480518  0.019564138            0   0.51524105    1.3719426    1.9067478    3.4173846 
 8925000   0.96697276 -1.8216247e-05   0.47527894  0.030012132            0   0.44526681    1.4432068    1.9184858   0.65937878 
 8930000   0.96028906 2.9858113e-05   0.48368726  0.026187129            0   0.45750013    1.4332314    1.9169187    3.9807114 
 8935000   0.94960594 -2.7313706e-05   0.46640737   0.01127983            0   0.45512754    1.4172869    1.8836942 -0.0042291067 
 8940000   0.93536149 -3.517509e-05   0.48147734 0.0047238837            0   0.47675345     1.396027    1.8775044  -0.55379789 
 8945000   0.92684417 2.7343958e-05   0.50633005 0.0057654454            0    0.5005646    1.3833149     1.889645    3.7796594 
 8950000   0.95901108 2.5894064e-05   0.44281017  0.011400233            0   0.43140994     1.431324    1.8741342    3.6639319 
 8955000   0.91511524 2.6896342e-05   0.50991256  0.013534358            0    0.4963782    1.3658095    1.8757221    3.7347972 
 8960000   0.93227007 7.9189069e-06   0.49136529 0.0065144808            0   0.48485081    1.3914131    1.8827784    2.4301332 
 8965000   0.90073675 4.7927215e-05    0.5297961  0.017389218            0   0.51240688    1.3443496    1.8741457    5.1868748 
 8970000   0.94119891 8.456511e-06   0.47334356  0.024882704            0   0.44846086    1.4047394    1.8780829     2.462597 
 8975000   0.90076263 -6.7842813e-05   0.52457239  0.011403897            0   0.51316849    1.3443882    1.8689606   -2.8203346 
 8980000   0.95254172 4.4716887e-06    0.4621482 0.0037990641            0   0.45834914    1.4216685    1.8838167    2.1928998 
 8985000   0.93036809 9.5094782e-05   0.48446069  0.005905449            0   0.47855524    1.3885744    1.8730351    8.4459864 
 8990000     0.926656 5.5981762e-05    0.4696656   0.01764573            0   0.45201987    1.3830341    1.8526997     5.722159 
 8995000   0.90850396 1.6524975e-05   0.50299859  0.013813187            0    0.4891854    1.3559422    1.8589408     3.001147 
 9000000   0.94578826 4.3620827e-06   0.46521486  0.014707096            0   0.45050777     1.411589    1.8768038     2.178311 
 9005000   0.93874698 -1.1739055e-05   0.48814667 0.0091433661            0    0.4790033    1.4010799    1.8892265    1.0778231 
 9010000   0.92368567 -1.9272413e-05   0.51319012  0.012496793            0   0.50069333    1.3786009     1.891791   0.55968177 
 9015000    0.9362487 -6.2367537e-05   0.48960491 0.0084030632            0   0.48120185    1.3973512    1.8869561   -2.4238881 
 9020000   0.92588017 -4.9766997e-05   0.50025158 0.0095955655            0   0.49065601    1.3818762    1.8821277   -1.5577671 
 9025000   0.91473585 8.9671576e-07   0.51243572  0.013222631            0   0.49921309    1.3652433     1.877679      1.93966 
 9030000   0.89943194 5.3310906e-06   0.54036508   0.01525862            0   0.52510646    1.3424022    1.8827672    2.2512522 
 9035000   0.92567056 -4.1143332e-05   0.52614304  0.012129333            0    0.5140137    1.3815633    1.9077063  -0.93612078 
 9040000   0.96982361 -1.3305393e-06   0.47309821  0.012841703            0    0.4602565    1.4474617    1.9205599    1.8285931 
 9045000   0.95100821 1.551671e-05   0.50090322  0.020539748            0   0.48036347    1.4193797     1.920283     2.992798 
 9050000   0.92143634 -3.3618439e-05   0.53186036  0.022687842            0   0.50917252    1.3752437    1.9071041  -0.41660239 
 9055000   0.94386819 -5.5219137e-05   0.51923232  0.019213935            0   0.50001838    1.4087233    1.9279556   -1.8887912 
 9060000   0.95146166 -5.8114871e-06   0.51332633  0.010853213            0   0.50247312    1.4200565    1.9333829    1.5316929 
 9065000   0.95559446 -2.5539229e-05   0.50579314 0.0063490419            0    0.4994441    1.4262247    1.9320179   0.16674637 
 9070000   0.97377657 -1.0165568e-05    0.4845548  0.012324211            0   0.47223059    1.4533615    1.9379163    1.2352723 
 9075000   0.94976302 -2.9999934e-05   0.50770321 0.0083867488            0   0.49931647    1.4175213    1.9252245  -0.14837094 
 9080000   0.98256343 -9.4076998e-06   0.45866001 0.0037962539            0   0.45486376    1.4664759    1.9251359    1.2748757 
 9085000      0.96276 -8.319682e-06   0.48041636 0.0093889489            0   0.47102741    1.4369193    1.9173357    1.3422792 
 9090000   0.97284619 -1.6646424e-05   0.45882601   0.01138942            0   0.44743659    1.4519729    1.9107989   0.76019811 
 9095000   0.95313985 -6.4372946e-06   0.47336092  0.013185842            0   0.46017507    1.4225612    1.8959221    1.4509763 
 9100000   0.95163156 9.9734939e-06    0.4573682  0.018695682            0   0.43867252    1.4203101    1.8776783    2.5670462 
 9105000   0.88411729 3.2452424e-05     0.565716 0.0085871807            0   0.55712882    1.3195451    1.8852611    4.1283726 
 9110000     0.953999 6.2390367e-06   0.46537602  0.001333518            0    0.4640425    1.4238435    1.8892195    2.3204617 
 9115000   0.95371333 -2.7141434e-05   0.45607879  0.014767222            0   0.44131156    1.4234171    1.8794959 0.0034799784 
 9120000   0.92126951 -1.4843727e-05   0.49771107   0.02825285            0   0.46945822    1.3749947    1.8727058   0.84670738 
 9125000   0.88664195 -4.4216605e-05   0.54050235   0.01179126            0   0.52871109    1.3233131    1.8638155   -1.1924363 
 9130000   0.89923165 -4.7473714e-05   0.51099105  0.011195777            0   0.49979528    1.3421032    1.8530943   -1.4282889 
 9135000   0.90818444 -3.6550608e-05    0.4995015  0.012784049            0   0.48671745    1.3554653    1.8549668  -0.67141125 
 9140000    0.9322304 4.0631659e-06   0.46911268  0.021305793            0   0.44780688    1.3913539    1.8604666    2.1413126 
 9145000   0.94167751 -1.2642196e-05   0.45708929  0.037319421            0   0.41976987    1.4054537     1.862543   0.98871443 
 9150000   0.87241959 -8.1860463e-05   0.57791873  0.030348196            0   0.54757054    1.3020862     1.880005   -3.7781902 
 9155000   0.95330689 -1.7566603e-05   0.44992282  0.016472909            0   0.43344991    1.4228105    1.8727334   0.65852976 
 9160000   0.96294262 1.8150113e-05   0.42336884  0.011034348            0   0.41233449    1.4371919    1.8605607    3.1150965 
 9165000   0.93458037 1.9954955e-05   0.46239747  0.010025654            0   0.45237181    1.3948612    1.8572587    3.2365452 
 9170000   0.94502909 7.9185818e-06   0.45096166 0.0063678175            0   0.44459384    1.4104559    1.8614176    2.4087499 
 9175000   0.88672568 -3.2126842e-05   0.51033416  0.020957774            0   0.48937639    1.3234381    1.8337722   -0.3868351 
 9180000   0.95304308 -3.6146378e-05   0.43737646  0.033554505            0   0.40382196    1.4224168    1.8597933  -0.63864438 
 9185000   0.89167698 -3.2482238e-06   0.52961864  0.020935543            0    0.5086831    1.3308279    1.8604465    1.6359293 
 9190000   0.93076825 2.0695581e-05   0.47595338 0.0071947323            0   0.46875865    1.3891716     1.865125    3.2956036 
 9195000   0.91125791  1.72583e-05   0.49294758 0.0070976887            0   0.48584989    1.3600524        1.853    3.0458937 
 9200000   0.91618926 -6.5292203e-05   0.47827909  0.006069611            0   0.47220948    1.3674125    1.8456916   -2.6673055 
 9205000   0.92031255 -5.0414638e-05   0.47227292 0.0038965091            0   0.46837641    1.3735665    1.8458394   -1.6388204 
 9210000    0.9318589 1.1747999e-05   0.46094749  0.010289725            0   0.45065776    1.3907994    1.8517469    2.6637686 
 9215000   0.96462687 3.4750976e-05   0.43714748  0.015918927            0   0.42122855    1.4397056    1.8768531    4.2788405 
 9220000   0.90812049 2.4256275e-05   0.52864357  0.018110549            0   0.51053302    1.3553698    1.8840134    3.5606071 
 9225000   0.95610692 -5.1482219e-06   0.43766041  0.018998433            0   0.41866198    1.4269896      1.86465    1.5088049 
 9230000   0.92282315 -1.5025879e-05   0.49013786  0.014762963            0    0.4753749    1.3773135    1.8674514   0.82886269 
 9235000   0.92314603 -1.9659158e-05   0.50488428  0.016398157            0   0.48848612    1.3777954    1.8826797   0.52383873 
 9240000   0.94388051 -1.3056709e-05   0.46815557 0.0057252361            0   0.46243033    1.4087417    1.8768972   0.97441752 
 9245000   0.97270878 -9.21392e-06   0.41976666  0.013510992            0   0.40625567    1.4517679    1.8715345    1.2346684 
 9250000   0.94822978 -2.6626456e-05   0.46733627  0.022438306            0   0.44489797     1.415233    1.8825692  0.042148603 
 9255000   0.93536089 -3.7778789e-06   0.48702149  0.010394796            0   0.47662669    1.3960261    1.8830476    1.6219206 
 9260000   0.91785404 2.4000691e-05   0.50620871  0.018117728            0   0.48809098    1.3698972    1.8761059    3.5350336 
 9265000   0.97256909 4.799792e-05   0.43617284  0.019487228            0   0.41668562    1.4515594    1.8877322    5.2053485 
 9270000   0.94330053 -6.9190239e-06    0.4731562  0.015674914            0   0.45748129     1.407876    1.8810322    1.4027893 
 9275000   0.92909079 -2.2178557e-05   0.48781013  0.017935883            0   0.46987424     1.386668    1.8744781   0.34149629 
 9280000   0.95202564 5.8008394e-05   0.46071856    0.0187337            0   0.44198486    1.4208983    1.8816168     5.891157 
 9285000     0.974114 4.5993843e-06   0.42757027  0.013647971            0    0.4139223    1.4538651    1.8814354    2.1993449 
 9290000    0.9235959 -4.1828186e-06   0.50690138  0.010407649            0   0.49649373    1.3784669    1.8853683    1.5962518 
 9295000   0.96955366 3.285666e-05   0.44730504 0.0092746532            0   0.43803039    1.4470588    1.8943639    4.1654162 
 9300000   0.93037306 3.8094296e-05   0.50320409 0.0084564026            0   0.49474769    1.3885818    1.8917859    4.5248636 
 9305000   0.94317346 -2.0861548e-05   0.48120764  0.013876245            0    0.4673314    1.4076864     1.888894   0.44694384 
 9310000   0.94502942 -2.655902e-05   0.48605918  0.006202008            0   0.47985717    1.4104564    1.8965156  0.060756141 
 9315000   0.93360091 -5.5195899e-05   0.48498741  0.012802923            0   0.47218449    1.3933994    1.8783868   -1.9367538 
 9320000   0.98255103 -3.1206419e-05   0.42879802  0.012900109            0   0.41589791    1.4664574    1.8952554  -0.26173226 
 9325000   0.94017162 1.2560471e-05   0.50560045  0.028344482            0   0.47725597    1.4032061    1.9088066    2.7769863 
 9330000   0.95891884 2.9352256e-05   0.49619168  0.032982605            0   0.46320908    1.4311864    1.9273781     3.956206 
 9335000   0.97719739 6.4915002e-05   0.44850637  0.022437899            0   0.42606847    1.4584671    1.9069735    6.3938984 
 9340000   0.94085937 -1.7791218e-05   0.52007942 0.0099743438            0   0.51010507    1.4042326     1.924312   0.69458303 
 9345000   0.94649859 -2.9688544e-05   0.51766337  0.025220939            0   0.49244243    1.4126491    1.9303125  -0.12175962 
 9350000   0.95773531 1.4430562e-05   0.50619984  0.015325512            0   0.49087433      1.42942    1.9356198    2.9330602 
 9355000   0.93289042 1.6400243e-05      0.54923  0.019948772            0   0.52928123    1.3923389    1.9415689    3.0751537 
 9360000   0.95292849 3.7616015e-06   0.53029909  0.019117966            0   0.51118112    1.4222458    1.9525449    2.2125468 
 9365000   0.97933314 -3.741712e-05   0.50899822 0.0077602582            0   0.50123796    1.4616547    1.9706529   -0.6156184 
 9370000    1.0214598 -1.7842258e-05   0.44034596  0.012578362            0   0.42776759    1.5245287    1.9648747   0.73161782 
 9375000   0.96336237 1.5057858e-05   0.52353192  0.012527861            0   0.51100406    1.4378183    1.9613503    3.0021494 
 9380000   0.97480222 3.3522658e-06   0.49902426 0.0072250446            0   0.49179922    1.4548923    1.9539166    2.1856252 
 9385000    1.0078277  5.30396e-06   0.46755899     0.015076            0   0.45248299    1.5041828    1.9717418    2.3383515 
 9390000   0.96172215 1.7307259e-05   0.53129113  0.017761603            0   0.51352953    1.4353703    1.9666614    3.1629392 
 9395000    0.9730344 1.4304997e-05   0.53094199  0.025551956            0   0.50539003    1.4522538    1.9831958    2.9719572 
 9400000   0.98586314 1.6480987e-05   0.52238312  0.018258775            0   0.50412435    1.4714007    1.9937839    3.1329497 
 9405000   0.97125484 -2.1037703e-05   0.55291276  0.023091428            0   0.52982133    1.4495978    2.0025106   0.54838454 
 9410000    1.0410516 -4.2720867e-05   0.43405026  0.011189484            0   0.42286077    1.5537696    1.9878198  -0.96504648 
 9415000    0.9755615 -2.3109795e-05   0.54813803  0.013074779            0   0.53506325    1.4560255    2.0041636   0.40681455 
 9420000   0.97922779 3.6824387e-06   0.54921828  0.021224993            0   0.52799329    1.4614975    2.0107158    2.2652459 
 9425000   0.99497738 1.0192138e-05    0.5260696  0.019674313            0   0.50639529    1.4850037    2.0110733     2.715554 
 9430000    1.0196198 4.780259e-06   0.52021328  0.034801766            0   0.48541151    1.5217826    2.0419959    2.3724074 
 9435000    1.0162917 -2.2484125e-05    0.5286418  0.024395137            0   0.50424667    1.5168153    2.0454571    0.4913544 
 9440000    1.0041783 1.3590325e-05   0.55084682   0.01178996            0   0.53905686    1.4987361    2.0495829    2.9889462 
 9445000    1.0070478 1.6740284e-06   0.54690973  0.016959258            0   0.52995048    1.5030189    2.0499286    2.1656374 
 9450000   0.97432077 -8.7598883e-06   0.60240258  0.025643149            0   0.57675943    1.4541737    2.0565763    1.4510929 
 9455000    1.0491342 2.5109617e-05     0.494286  0.022585163            0   0.47170083    1.5658329    2.0601189    3.7956956 
 9460000    1.0670303 2.8096496e-05   0.45398853  0.020928551            0   0.43305998    1.5925427    2.0465312     3.988561 
 9465000   0.99590177 -2.5169732e-05   0.54849439  0.042966015            0   0.50552838    1.4863834    2.0348778    0.2951459 
 9470000   0.95334587 -1.2079301e-05   0.59511673  0.036241411            0   0.55887532    1.4228687    2.0179854    1.1830642 
 9475000    1.0000696 3.8866408e-05   0.49127777  0.028753053            0   0.46252472    1.4926039    1.9838817    4.6703278 
 9480000    1.0072435 7.0241633e-06   0.49486743  0.023535861            0   0.47133157     1.503311    1.9981784    2.4836886 
 9485000   0.98686847 -3.5106868e-05   0.53409438  0.014815517            0   0.51927886    1.4729012    2.0069956  -0.41959117 
 9490000    1.0536008 8.6284476e-06   0.44806348  0.020025451            0   0.42803803    1.5724992    2.0205627     2.616961 
 9495000    1.0351119 5.1596081e-05   0.48269353  0.033862624            0    0.4488309    1.5449045    2.0275981    5.5939192 
 9500000    1.0055583 -8.5500839e-06   0.53439869  0.031954909            0   0.50244378    1.5007958    2.0351945    1.4442127 
 9505000     0.992256 -3.8364473e-05   0.54663743  0.032123334            0   0.51451409    1.4809421    2.0275795  -0.62417286 
 9510000   0.97931433 -1.6184942e-05   0.55799652  0.030807332            0   0.52718919    1.4616266    2.0196232   0.90091996 
 9515000    1.0538841 3.8484484e-05    0.4547974  0.019131356            0   0.43566604     1.572922    2.0277194    4.6877669 
 9520000    1.0089719 3.757377e-05   0.51024298  0.010010573            0   0.50023241    1.5058905    2.0161335    4.6132325 
 9525000    1.0041231 1.5350466e-05   0.49338808   0.01253854            0   0.48084954    1.4986537    1.9920418    3.0530659 
 9530000    1.0141599 2.6376503e-05   0.48910689  0.025219924            0   0.46388696    1.5136336    2.0027405    3.8258844 
 9535000   0.98622368 -5.6940453e-05   0.51840388  0.029638018            0   0.48876586    1.4719388    1.9903427   -1.9453814 
 9540000    1.0039067 -4.2384168e-05   0.49097928  0.020835227            0   0.47014406    1.4983308      1.98931  -0.94028366 
 9545000    1.0503682 1.3727911e-05   0.40960395  0.010287388            0   0.39931657    1.5676745    1.9772785    2.9261516 
 9550000    1.0210728 -7.421682e-06   0.45493906  0.010306917            0   0.44463215    1.5239511    1.9788902    1.4659035 
 9555000   0.94060316 -3.4340065e-05   0.58379734  0.032461637            0   0.55133571    1.4038502    1.9876476  -0.38593775 
 9560000   0.99503736 5.9193802e-06   0.50936068  0.027970466            0   0.48139021    1.4850933    1.9944539    2.4036015 
 9565000   0.98688968 -1.2356238e-05   0.52629371  0.027176788            0   0.49911692    1.4729329    1.9992266    1.1451634 
 9570000    1.0213103 -7.0373167e-05   0.46853153  0.014250516            0   0.45428101    1.5243056    1.9928371   -2.8713562 
 9575000   0.94697174 -3.439063e-05   0.55606662  0.021244263            0   0.53482236    1.4133553    1.9694219  -0.40765838 
 9580000   0.99662379 -8.7698526e-06   0.46912873  0.018975431            0    0.4501533     1.487461    1.9565897    1.3504175 
 9585000     1.020183 1.1614387e-05   0.43049939  0.025770042            0   0.40472935    1.5226231    1.9531225    2.7559089 
 9590000   0.94796354  1.23478e-05   0.51759131  0.024065124            0   0.49352619    1.4148356    1.9324269    2.7859068 
 9595000   0.94438117 3.7601895e-06    0.5445534  0.017929683            0   0.52662371    1.4094889    1.9540423    2.2139466 
 9600000    0.9360725 1.0357221e-06   0.57420573  0.040385834            0    0.5338199    1.3970882    1.9712939    2.0428831 
 9605000   0.97409213 3.7806442e-06   0.52226866  0.047094317            0   0.47517434    1.4538325    1.9761012    2.2374193 
 9610000    1.0080106 9.3371759e-07   0.48927639  0.026205091            0    0.4630713    1.5044558    1.9937322    2.0582708 
 9615000   0.96575005 -2.9820256e-05   0.53724023  0.018254905            0   0.51898533     1.441382    1.9786222  -0.08255391 
 9620000   0.97847851 5.2341619e-06    0.5212032 0.0092691859            0   0.51193402    1.4603792    1.9815824    2.3433677 
 9625000    1.0011517 -3.5727829e-05   0.48078003 0.0025321507            0   0.47824788    1.4942189    1.9749989  -0.49450865 
 9630000    1.0417942 -3.5686889e-05   0.40837278 0.0019422033            0   0.40643057    1.5548778    1.9632505   -0.5034272 
 9635000    1.0129012 1.4198576e-06    0.4687542 0.0051539685            0   0.46360024     1.511755    1.9805092    2.0786498 
 9640000    1.0044554 -6.5887912e-06   0.48108598  0.011464175            0    0.4696218    1.4991496    1.9802356    1.5248184 
 9645000   0.99926815 6.1198661e-06   0.49886601  0.012445522            0   0.48642049    1.4914077    1.9902737    2.4132789 
 9650000    1.0073356 -2.0187408e-05   0.49043433 0.0021380136            0   0.48829632    1.5034484    1.9938828   0.59852914 
 9655000    1.0280667 -2.5698021e-05   0.45372911  0.027759901            0   0.42596921    1.5343895    1.9881186   0.21187141 
 9660000   0.94193465 -5.4086336e-05   0.59103803  0.051765263            0   0.53927277    1.4058375    1.9968755    -1.741572 
 9665000    1.0163049 -1.9759196e-05   0.48403011  0.018500157            0   0.46552996    1.5168351    2.0008652   0.63510957 
 9670000    1.0597578 2.4418879e-05   0.43969265  0.013127275            0   0.42656537    1.5816885    2.0213812    3.7092141 
 9675000   0.98562449 -7.3388124e-06   0.52242042  0.018580035            0   0.50384039    1.4710446     1.993465    1.4862063 
 9680000   0.98961718 -8.4120297e-07   0.50455418  0.024175491            0   0.48037868    1.4770036    1.9815578    1.9234139 
 9685000    1.0040204 -2.4081911e-05    0.4716947  0.033070957            0   0.43862374    1.4985004    1.9701951   0.30565342 
 9690000    1.0020051 5.3536214e-06    0.5021073  0.030853552            0   0.47125375    1.4954926    1.9975999    2.3676422 
 9695000   0.96047329 2.5479704e-05   0.55735616  0.019314406            0   0.53804175    1.4335064    1.9908625    3.7520197 
 9700000   0.99138135 -4.255553e-05   0.51522529  0.022761532            0   0.49246376    1.4796367    1.9948619  -0.94657626 
 9705000    1.0164153 -4.0148171e-05   0.46930505  0.021229379            0   0.44807567    1.5169999    1.9863049  -0.78873661 
 9710000   0.98040146 3.3674904e-05   0.51600878  0.018760414            0   0.49724837    1.4632492     1.979258    4.3068674 
 9715000   0.97665485 3.9507334e-05   0.48967273 0.0090374749            0   0.48063526    1.4576574    1.9473301     4.678077 
 9720000   0.93423676 -5.0951899e-06   0.53926195 0.0096364809            0   0.52962547    1.3943484    1.9336103    1.5814308 
 9725000     0.968615 -3.5214149e-05   0.47779413 0.0047949791            0   0.47299915    1.4456579     1.923452  -0.51054994 
 9730000    0.9669975 -4.7002777e-05   0.46216224 0.0025147375            0    0.4596475    1.4432438     1.905406   -1.3434259 
 9735000   0.90816878 5.9653299e-06   0.54443423 0.0093944926            0   0.53503974    1.3554419    1.8998761    2.3121997 
 9740000   0.94134242 2.3627808e-05   0.48500295  0.019481688            0   0.46552126    1.4049536    1.8899565    3.5231106 
 9745000   0.95402976 4.4293702e-06   0.47053503  0.019351288            0   0.45118374    1.4238894    1.8944244    2.2005825 
 9750000   0.90558229 -4.1246182e-06   0.54723689  0.019404714            0   0.52783218    1.3515816    1.8988185    1.6137249 
 9755000   0.93026644 -6.1528118e-05   0.52295134 0.0099290079            0   0.51302234    1.3884227     1.911374   -2.3414495 
 9760000   0.97982209 -3.1322453e-05   0.45889865  0.013430645            0   0.44546801    1.4623845    1.9212831  -0.24372483 
 9765000   0.99782037 6.522058e-05    0.4336658  0.014771795            0   0.41889401    1.4892469    1.9229127    6.4309592 
 9770000   0.98262995 5.4888163e-05   0.46191437  0.011473101            0   0.45044127    1.4665752    1.9284896    5.7223594 
 9775000   0.98478364 -4.1871218e-05   0.43767185 0.0096564274            0   0.42801542    1.4697896    1.9074614  -0.98667716 
 9780000   0.98695381 -8.4196366e-05   0.45162416  0.017595797            0   0.43402836    1.4730286    1.9246527   -3.8950001 
 9785000    1.0043796 -7.2433414e-05    0.4338559  0.027893308            0   0.40596259    1.4990365    1.9328924   -3.0737051 
 9790000    0.9496508 1.2046556e-05   0.48350305  0.030838904            0   0.45266414    1.4173538    1.9008569    2.7335148 
 9795000   0.98940982 5.2247318e-05   0.43558118  0.028037287            0   0.40754389    1.4766942    1.9122753      5.52361 
 9800000    1.0026058 1.4678731e-05   0.43923534  0.016087715            0   0.42314762    1.4963892    1.9356246    2.9502185 
 9805000   0.94464331 -1.9039345e-05   0.51603199   0.02486714            0   0.49116485    1.4098801    1.9259121   0.60991261 
 9810000   0.98677372 1.7567116e-05   0.46017558 0.0082550873            0   0.45192049    1.4727598    1.9329354    3.1471744 
 9815000   0.98239538 4.4217995e-05   0.48005433  0.015317024            0    0.4647373    1.4662251    1.9462794    5.0026272 
 9820000    0.9750957 8.661017e-06   0.47626342   0.02603617            0   0.45022725    1.4553303    1.9315938    2.5302433 
 9825000    1.0034948 2.8161801e-05   0.44704217   0.01357153            0   0.43347064     1.497716    1.9447582    3.8913019 
 9830000     1.005904 7.6553566e-05   0.45427729  0.003977222            0   0.45030007    1.5013116    1.9555889    7.2469714 
 9835000    1.0042517 -1.7138012e-05   0.47633075   0.01091754            0   0.46541321    1.4988457    1.9751765   0.79059706 
 9840000    0.9982187 -3.6603162e-05   0.47379797  0.034681329            0   0.43911664    1.4898414    1.9636394  -0.56637114 
 9845000   0.98713199 -3.3682704e-05   0.49060511  0.017015022            0   0.47359008    1.4732945    1.9638996  -0.36424891 
 9850000   0.98672148 -6.3370826e-05   0.49785453  0.010888072            0   0.48696646    1.4726818    1.9705363   -2.4096552 
 9855000    1.0115408 6.9767821e-05   0.48339286  0.023958132            0   0.45943473    1.5097247    1.9931175    6.8154693 
 9860000    1.0678429 4.7555458e-05   0.41058287  0.016944436            0   0.39363843    1.5937556    2.0043385    5.2913717 
 9865000    1.0366217 3.5900088e-05    0.4836057   0.01213038            0   0.47147532    1.5471579    2.0307636    4.5121777 
 9870000    1.0828684 -1.4247414e-05   0.42894205 0.0092266106            0   0.41971544     1.616181    2.0451231    1.0603418 
 9875000    1.0327767 -0.00011048828   0.51016357  0.012556008            0   0.49760757    1.5414192    2.0515828   -5.5853672 
 9880000    1.0880845 -8.6659847e-05    0.4321256  0.021475094            0   0.41065051    1.6239661    2.0560917   -3.9338369 
 9885000    1.0600978 1.7612257e-05   0.46240247  0.024103824            0   0.43829865     1.582196    2.0445985    3.2619577 
 9890000    1.0545752 3.7867844e-05   0.47760349  0.022625259            0   0.45497823    1.5739535     2.051557    4.6689824 
 9895000    1.0820663 5.8296071e-06   0.44501441  0.017863651            0   0.42715076    1.6149839    2.0599983    2.4629408 
 9900000    1.0815165 3.6764961e-05   0.45439909  0.034420437            0   0.41997865    1.6141634    2.0685624    4.6097566 
 9905000    1.0476138 3.9576889e-05   0.50264878  0.028295801            0   0.47435298    1.5635636    2.0662124     4.801767 
 9910000    1.0988497 -3.4574197e-05   0.46257802 0.0083851753            0   0.45419284    1.6400332    2.1026112  -0.28715731 
 9915000    1.1366327 -6.713718e-06   0.39813951 0.0038023718            0   0.39433714    1.6964243    2.0945638    1.6305116 
 9920000     1.072244 3.5280113e-05   0.49482987 0.0040351922            0   0.49079467    1.6003242    2.0951541    4.5337155 
 9925000    1.1075195 -1.3100198e-05   0.45534752  0.012507675            0   0.44283985    1.6529728    2.1083203    1.2028346 
 9930000    1.0686629 2.4042367e-05   0.51241831  0.015932864            0   0.49648545    1.5949794    2.1073977    3.7692061 
 9935000    1.1156752 2.6599258e-05   0.42880823  0.010624986            0   0.41818325    1.6651452    2.0939535    3.9324942 
 9940000     1.133069 -9.4772217e-06   0.40510523  0.010876619            0   0.39422861    1.6911055    2.0962107    1.4411452 
 9945000    1.0712024 -1.8359249e-05   0.49739725  0.014703101            0   0.48269415    1.5987696    2.0961668    0.8271755 
 9950000    1.1031929 -1.8939943e-05     0.456651  0.010858578            0   0.44579242    1.6465154    2.1031664    0.7940376 
 9955000    1.1284302 1.2016223e-05   0.41999381  0.012111304            0    0.4078825    1.6841821    2.1041759    2.9347372 
 9960000    1.0878541 2.8561835e-05   0.47705076 0.0087202768            0   0.46833048    1.6236223     2.100673    4.0748671 
 9965000    1.1114576 9.7494344e-06   0.45933282  0.019475594            0   0.43985723    1.6588504    2.1181833    2.7920642 
 9970000    1.0613577 -4.1445634e-05    0.5145352  0.043008602            0    0.4715266    1.5840764    2.0986116  -0.76611061 
 9975000     1.047286 -2.438421e-05   0.52139278  0.051466692            0   0.46992609    1.5630743    2.0844671   0.39903053 
 9980000    1.0506221 6.6366058e-06   0.53937731   0.02369342            0   0.51568389    1.5680535    2.1074308     2.566153 
 9985000    1.1117623 5.1921712e-06   0.44131619 0.0081144793            0   0.43320171    1.6593052    2.1006214    2.4595042 
 9990000    1.0983935 1.5342309e-05   0.43475994 0.0076475914            0   0.42711235    1.6393524    2.0741123    3.1345727 
 9995000    1.0869185 5.2531031e-05   0.44080862 0.0058578074            0   0.43495081    1.6222259    2.0630345    5.6939793 
10000000    1.0584251 5.9509798e-05   0.47805913  0.016411874            0   0.46164725    1.5796995    2.0577586    6.1710758 
10005000    1.0598592 1.9313328e-05   0.47318149 0.0099791456            0   0.46320234    1.5818398    2.0550213    3.3899585 
10010000     1.046289 5.4438246e-05   0.49090659  0.022478663            0   0.46842793    1.5615863    2.0524929    5.8152645 
10015000    1.0341817 -5.0043676e-05    0.5120609  0.030312298            0    0.4817486    1.5435162    2.0555771   -1.4034418 
10020000    1.0888667 -6.0287202e-05   0.43904722  0.013572521            0   0.42547469    1.6251335    2.0641808   -2.1028707 
10025000    1.0542868 1.770413e-05   0.48825818 0.0080974331            0   0.48016075     1.573523    2.0617812    3.2854907 
10030000    1.0664416 2.6699737e-05   0.47717197  0.010094349            0   0.46707762     1.591664     2.068836    3.9143218 
10035000    1.1018837 6.3242161e-05   0.44089298 0.0076768133            0   0.43321617    1.6445615    2.0854545    6.4567526 
10040000     1.089614 -2.2781774e-05   0.45428376   0.01497168            0   0.43931208    1.6262488    2.0805326   0.50585636 
10045000    1.0656577 -3.6002989e-05   0.50215855  0.035249978            0   0.46690857    1.5904942    2.0926527  -0.39587385 
10050000    1.0138146 3.3428372e-05   0.58923491  0.050279061            0   0.53895585    1.5131183    2.1023532    4.4129223 
10055000     1.087011 6.4078194e-05   0.46125261  0.040974479            0   0.42027813    1.6223639    2.0836165    6.5127013 
10060000    1.1000267 -2.2678505e-06   0.44553533   0.01368967            0   0.43184566    1.6417898    2.0873252    1.9305713 
10065000    1.0558734 -5.2526017e-05   0.53090248  0.015193951            0   0.51570853     1.575891    2.1067935   -1.5238048 
10070000    1.0690313 3.9484052e-05    0.5064597  0.018860917            0   0.48759878    1.5955293     2.101989    4.8311267 
10075000    1.0638037 -6.4431953e-05   0.52953943  0.016724269            0   0.51281516    1.5877271    2.1172665   -2.3362701 
10080000    1.1241086 -2.2403319e-05   0.44746264  0.012349815            0   0.43511283    1.6777321    2.1251948   0.57667736 
10085000    1.0994943 -2.8401315e-05   0.48097767  0.011589749            0   0.46938792    1.6409952    2.1219729   0.15887402 
10090000    1.0910627 -4.6407386e-05   0.48353329 0.0058673209            0   0.47766597     1.628411    2.1119443   -1.0957342 
10095000    1.0566408 2.2006688e-06   0.54332218 0.0047791903            0   0.53854299    1.5770365    2.1203586    2.2724689 
10100000    1.0943773 -1.155791e-07   0.48495266 0.0095779836            0   0.47537467    1.6333582    2.1183108     2.110322 
10105000    1.0789636 1.3217534e-05   0.51912682  0.012023138            0   0.50710368    1.6103532      2.12948    3.0430759 
10110000    1.0940475 6.6568757e-05   0.50277764  0.015625684            0   0.48715195     1.632866    2.1356436    6.7368761 
10115000    1.1487086 -4.8409937e-06   0.44189143  0.022054527            0    0.4198369    1.7144476     2.156339    1.8217295 
10120000    1.1107986 -1.5008119e-05   0.50685986  0.017144995            0   0.48971486    1.6578669    2.1647268    1.1273656 
10125000    1.1373846 -4.6040244e-06   0.47832434 0.0039002752            0   0.47442407    1.6975465    2.1758708    1.8576407 
10130000    1.0834601 -5.5112628e-05   0.57051915 0.0086043614            0   0.56191479    1.6170641    2.1875833   -1.6218015 
10135000    1.1231746 -2.0473666e-05   0.51611881  0.030219817            0   0.48589899    1.6763381    2.1924569   0.77731706 
10140000    1.1429546 1.637824e-05   0.48012306  0.016763604            0   0.46335946    1.7058598    2.1859828    3.3180468 
10145000    1.1364065 7.1478043e-06   0.47048501  0.015439641            0   0.45504537    1.6960867    2.1665717    2.6606279 
10150000    1.0406746 -2.1037684e-05   0.60618511 0.0092787521            0   0.59690636    1.5532069     2.159392   0.70526725 
10155000     1.110655 -4.080963e-05   0.49387661  0.016237116            0   0.47763949    1.6576526    2.1515292  -0.66923239 
10160000    1.1389411 -7.6341087e-07   0.44051607  0.025306913            0   0.41520916    1.6998695    2.1403856    2.0876187 
10165000    1.0464096 3.7239744e-05   0.57972752 0.0071214867            0   0.57260604    1.5617664    2.1414939     4.715505 
10170000    1.0581196 3.9781525e-05   0.55464818 0.0077402041            0   0.54690797    1.5792436    2.1338917    4.8835907 
10175000    1.0792473 5.7969438e-05    0.5144831   0.01937846            0   0.49510464    1.6107766    2.1252596    6.1321072 
10180000    1.0802303 -1.282629e-05   0.50244819  0.024150735            0   0.47829746    1.6122437    2.1146919    1.2281387 
10185000    1.0531033 -4.5855697e-05   0.54259423  0.019974166            0   0.52262006    1.5717567    2.1143509   -1.0551948 
10190000    1.0725783 8.712162e-06   0.51699913  0.017299941            0   0.49969919    1.6008231    2.1178222    2.7200069 
10195000    1.0342636 -6.6473277e-05   0.56424753  0.028809014            0   0.53543851    1.5436384    2.1078859    -2.486747 
10200000    1.0603847 -1.9444459e-05   0.53088048   0.02149007            0   0.50939041    1.5826242    2.1135047   0.76950369 
10205000    1.1060246 8.2827256e-05    0.4670651  0.014698917            0   0.45236618    1.6507417    2.1178068    7.8428267 
10210000    1.0871142 3.3239563e-05    0.4903208  0.020554828            0   0.46976597     1.622518    2.1128388    4.4103574 
10215000    1.0686266 3.2188717e-06   0.52464015  0.019244348            0    0.5053958    1.5949252    2.1195653    2.3420537 
10220000    1.1230148 1.8751296e-07   0.44729007   0.03024977            0    0.4170403    1.6760996    2.1233897    2.1363506 
10225000    1.0580313 1.7304584e-05   0.55785202  0.020281722            0    0.5375703    1.5791117    2.1369637    3.3330565 
10230000    1.1077366 -1.3718424e-05   0.49344434  0.025605136            0    0.4678392    1.6532969    2.1467413    1.1985238 
10235000    1.1271767 -1.6265467e-05   0.47943022  0.013915098            0   0.46551512    1.6823113    2.1617415    1.0374724 
10240000    1.0915326 -6.1716044e-06   0.53727334  0.020068581            0   0.51720476    1.6291123    2.1663857    1.7398044 
10245000    1.0851599 7.1924084e-06     0.544676  0.014980281            0   0.52969571    1.6196012    2.1642772    2.6614165 
10250000    1.1015848 -4.6745848e-06   0.49539118  0.017332331            0   0.47805885    1.6441153    2.1395065    1.8163992 
10255000    1.0994036 -5.5447749e-05   0.49653136  0.013583331            0   0.48294803    1.6408598    2.1373912   -1.6951572 
10260000    1.0664975 -1.4680839e-05   0.52777861 0.0098734015            0   0.51790521    1.5917476    2.1195262    1.1047866 
10265000    1.1080519 -1.8177301e-06   0.46213739  0.010327097            0    0.4518103    1.6537675    2.1159049    1.9902634 
10270000    1.0525632 5.3296062e-05   0.54822372  0.014458338            0   0.53376538    1.5709506    2.1191744    5.8029982 
10275000     1.057085 5.3549223e-05   0.53178688  0.016065599            0   0.51572128    1.5776993    2.1094862    5.8108085 
10280000    1.0678117 4.0475065e-05   0.52873331 0.0083490455            0   0.52038426     1.593709    2.1224423    4.9200788 
10285000    1.0818416 3.9749702e-05   0.49807292 0.0072294709            0   0.49084345    1.6146486    2.1127215    4.8602209 
10290000    1.1032002 -4.1792206e-05   0.46090604  0.017566669            0   0.44333937    1.6465262    2.1074323  -0.78124497 
10295000    1.0854204 1.4992823e-05   0.49716784  0.026671391            0   0.47049645      1.61999    2.1171578    3.1534618 
10300000    1.0453862 3.9925596e-05   0.53814038  0.013963803            0   0.52417658    1.5602389    2.0983793    4.8580365 
10305000    1.0691919 -5.38187e-05    0.5092883  0.027680443            0   0.48160786    1.5957688    2.1050572   -1.6148914 
10310000    1.0183515 -3.5929618e-05   0.57599955  0.032108488            0   0.54389106    1.5198897    2.0958892  -0.38756598 
10315000    1.0400449 9.9589992e-06   0.55029801  0.026653865            0   0.52364415    1.5522671    2.1025651    2.7909311 
10320000    1.0349137 3.6840711e-05   0.53828265 0.0088390499            0    0.5294436    1.5446087    2.0828914    4.6293213 
10325000    1.0311806 7.1443229e-06   0.52806222  0.012933391            0   0.51512883     1.539037    2.0670993    2.5609149 
10330000    1.0252752 -4.5254419e-05   0.52975093  0.033245444            0   0.49650549    1.5302233    2.0599742   -1.0680112 
10335000    1.0119424 3.7565284e-07   0.56759513  0.015961169            0   0.55163396     1.510324    2.0779191    2.1038843 
10340000    1.0287677 3.0971406e-05   0.53462622  0.010447117            0    0.5241791    1.5354358     2.070062    4.2108055 
10345000    1.0107921 -8.1385311e-06    0.5561796  0.014684544            0   0.54149506    1.5086072    2.0647868    1.5022515 
10350000     1.015687 -1.6818811e-06   0.55065912  0.014938909            0   0.53572021    1.5159128    2.0665719    1.9503203 
10355000    1.0811755 2.3982233e-05   0.45444955  0.026656469            0   0.42779308    1.6136545     2.068104    3.7257559 
10360000    1.0439589 1.2845026e-07   0.51930183  0.010084391            0   0.50921744    1.5581086    2.0774105     2.086289 
10365000    1.0545723 -3.8641769e-05   0.48881917   0.02528168            0   0.46353749    1.5739492    2.0627684   -0.6081507 
10370000   0.99418739 -3.2574839e-05   0.57179321  0.031776185            0   0.54001703    1.4838247    2.0556179  -0.19595495 
10375000    1.0338277 9.6083104e-06   0.50062387  0.020790222            0   0.47983365    1.5429879    2.0436117    2.7077381 
10380000    1.0509474 3.1332126e-05    0.4518926  0.010693302            0    0.4411993     1.568539    2.0204316    4.1861081 
10385000    1.0614856 3.0286036e-05   0.44723086  0.016415732            0   0.43081513    1.5842673    2.0314981    4.1248689 
10390000    0.9846191 -1.7813935e-05   0.55754561  0.010990413            0    0.5465552     1.469544    2.0270896   0.79579047 
10395000    1.0077756 -8.8069266e-07   0.52297038  0.016088311            0   0.50688207    1.5041051    2.0270755     1.966202 
10400000    1.0317121 1.6896147e-06   0.50899654  0.014266232            0    0.4947303    1.5398303    2.0488269     2.165613 
10405000     1.014502 -5.6719531e-05   0.52265486  0.021867084            0   0.50078778    1.5141442    2.0367991   -1.8836549 
10410000   0.98936219 -5.6983557e-05   0.54673944  0.029029796            0   0.51770964    1.4766231    2.0233625    -1.915341 
10415000    1.0218386 -2.081964e-05   0.52022099  0.017672778            0   0.50254821    1.5250941    2.0453151   0.60626156 
10420000    1.0322545 1.1087941e-06   0.49682961 0.0094686702            0   0.48736094    1.5406399    2.0374695    2.1141093 
10425000    1.0113364 -5.7557434e-06   0.52498013  0.024525105            0   0.50045503    1.5094196    2.0343997    1.6365627 
10430000    1.0276089 -1.5104787e-05   0.49499738  0.032978308            0   0.46201908    1.5337063    2.0287036   0.98466079 
10435000    1.0212561 -2.978323e-05    0.4982917  0.026771304            0    0.4715204    1.5242247    2.0225164 -0.036100398 
10440000       1.0614 5.4376954e-07   0.44798675 0.0090477216            0   0.43893903    1.5841396    2.0321263    2.0697117 
10445000    1.0721179 6.1910451e-05   0.42387777 0.0023180483            0   0.42155973     1.600136    2.0240138    6.3032642 
10450000    1.0564793 3.6654438e-05   0.45382531  0.016879929            0   0.43694539    1.5767954    2.0306207    4.5641754 
10455000    1.0281654 -1.7354532e-05   0.49505441  0.024760943            0   0.47029347    1.5345369    2.0295913   0.83004603 
10460000    1.0295486 7.8388691e-06   0.50213129  0.014324855            0   0.48780643    1.5366013    2.0387326    2.5805552 
10465000    1.0108284 3.6010047e-05   0.54533154 0.0078864657            0   0.53744507    1.5086613    2.0539929    4.5430073 
10470000    1.0437445 4.6429866e-06   0.48259339  0.013361176            0   0.46923221    1.5577887    2.0403821    2.3613053 
10475000    1.0206787 -3.0823465e-05   0.51523777  0.015776831            0   0.49946094    1.5233629    2.0386007 -0.091917145 
10480000    1.0131773 -3.7694445e-05   0.54653338   0.01157781            0   0.53495557    1.5121671    2.0587005  -0.54673956 
10485000     1.058859 -2.2395482e-05   0.48229549  0.012937646            0   0.46935785    1.5803471    2.0626426   0.51466687 
10490000    1.0413851 -2.67339e-05   0.49702358  0.024736631            0   0.47228695    1.5542673    2.0512909   0.20344373 
10495000    1.0153592 4.0326015e-05    0.5538016  0.027318003            0   0.52648359    1.5154236    2.0692252    4.8565594 
10500000    1.0776005 4.5369472e-05   0.46050264  0.010984997            0   0.44951765    1.6083187    2.0688213    5.2047592 
10505000    1.0606277 -1.7914711e-05   0.47953125 0.0070744641            0   0.47245678    1.5829869    2.0625181   0.82425328 
10510000    1.1005142 7.658091e-06   0.40817086  0.020952428            0   0.38721843    1.6425174    2.0506883    2.5800155 
10515000   0.98180131 1.386191e-06   0.56549477  0.022464641            0   0.54303013    1.4653385    2.0308332    2.1266468 
10520000    1.0290262 1.6177928e-05   0.49658732  0.030543212            0   0.46604411    1.5358217     2.032409    3.1506273 
10525000    1.0044633 8.6124873e-06   0.53455067  0.019732269            0   0.51481841    1.4991614    2.0337121    2.6290072 
10530000   0.94340607 6.511043e-06   0.61377671    0.0228064            0   0.59097031    1.4080336    2.0218103    2.4718535 
10535000   0.99001949 8.0429112e-05   0.54933535  0.036716363            0   0.51261898    1.4776041    2.0269394    7.5861997 
10540000    1.0051244 5.7524923e-05   0.51955773  0.034398403            0   0.48515932    1.5001481    2.0197058    5.9958285 
10545000    1.0096876 -3.6040664e-05   0.52883314  0.017630374            0   0.51120277    1.5069587    2.0357919  -0.45533879 
10550000   0.99745051 -2.7688569e-05   0.54992275  0.012477666            0   0.53744508    1.4886949    2.0386176   0.12478375 
10555000    1.0375896 3.0184467e-05   0.49892376  0.017093394            0   0.48183037    1.5486025    2.0475262    4.1338766 
10560000    1.0154352 6.7094209e-05   0.54468133 0.0094775759            0   0.53520375     1.515537    2.0602183      6.69777 
10565000    0.9918634 -1.4034041e-05   0.56518211 0.0075207134            0   0.55766139    1.4803561    2.0455382    1.0755053 
10570000    1.0031848 -5.1205238e-05   0.52927396  0.021327738            0   0.50794622    1.4972534    2.0265273   -1.5127788 
10575000    0.9863885 -4.2875812e-05   0.55225398  0.024673833            0   0.52758015    1.4721848    2.0244388   -0.9391373 
10580000    1.0500816 -3.5021779e-05   0.43131759  0.020853845            0   0.41046374    1.5672468    1.9985643  -0.42214099 
10585000   0.98037245 -5.3081235e-06   0.55183093  0.012756156            0   0.53907477    1.4632059    2.0150368    1.6481393 
10590000    0.9858571 2.2815857e-05   0.53365125 0.0089309707            0   0.52472028    1.4713917     2.005043     3.582075 
10595000   0.97252422 3.5137331e-05   0.54046022  0.022005429            0    0.5184548    1.4514924    1.9919526    4.4206449 
10600000    1.0060866 4.091767e-05   0.49906172  0.036899128            0    0.4621626    1.5015842     2.000646    4.8288753 
10605000    1.0063932 -9.2870241e-06   0.51128095  0.018536265            0   0.49274469    1.5020419    2.0133228    1.3714037 
10610000    1.0158857 -1.2833311e-05   0.49122063  0.015906382            0   0.47531425    1.5162095    2.0074301    1.1203917 
10615000    1.0088552 -4.2768829e-05   0.50888173 0.0054390952            0   0.50344264    1.5057163     2.014598  -0.94158338 
10620000    1.0452463 -4.926887e-05   0.48018511  0.012950808            0    0.4672343    1.5600301    2.0402152   -1.3652491 
10625000    1.0646294 3.5074448e-05   0.45810267  0.012930734            0   0.44517194    1.5889594     2.047062    4.4714079 
10630000    1.0168609 -1.3566709e-06   0.53607962  0.012812066            0   0.52326755    1.5176649    2.0537445    1.9599714 
10635000    1.0032284 -1.2053066e-05   0.53339555   0.03466419            0   0.49873136    1.4973184    2.0307139     1.197606 
10640000    1.0622796 3.9890075e-05   0.45098742  0.016905733            0   0.43408168    1.5854523    2.0364397    4.7936417 
10645000    1.0015601 -2.2882108e-05   0.54217523 0.0042793717            0   0.53789586    1.4948285    2.0370037   0.45539242 
10650000   0.94150471 -2.1873802e-05   0.61930954 0.0083861716            0   0.61092337    1.4051958    2.0245053    0.5125881 
10655000    1.0082659 9.7500932e-06   0.51751512  0.017616493            0   0.49989863    1.5048368     2.022352    2.6962784 
10660000   0.98837768 -2.810583e-05   0.54835517  0.026741068            0    0.5216141    1.4751537    2.0235089  0.080833887 
10665000    1.0112386 -3.2159169e-05    0.5366054  0.023707819            0   0.51289758    1.5092736     2.045879   -0.1769627 
10670000    1.0324616 -1.2475501e-05   0.48047174 0.0092724806            0   0.47119926    1.5409489    2.0214207    1.1591141 
10675000   0.93192797 7.1968893e-05   0.64071405  0.032347304            0   0.60836675    1.3909025    2.0316165    7.0061064 
10680000   0.92813793 2.5897528e-05   0.65762286  0.038797618            0   0.61882524    1.3852459    2.0428687    3.8329059 
10685000    0.9902964 8.2265578e-06   0.55257392 0.0078836924            0   0.54469023    1.4780174    2.0305913     2.599211 
10690000    1.0356037 5.480539e-06   0.49199853 0.0095012059            0   0.48249733    1.5456386    2.0376371     2.416452 
10695000    1.0037389 -9.3883861e-06   0.54264405  0.018319002            0   0.52432505    1.4980803    2.0407243    1.3917991 
10700000    1.0431432 -4.4257264e-05     0.511705  0.016522784            0   0.49518222    1.5568912    2.0685962  -0.99046589 
10705000    1.0234486 7.2710425e-06   0.54266793  0.023207181            0   0.51946075    1.5274971     2.070165    2.5727395 
10710000   0.97895932 -2.2309181e-05   0.59747697  0.023840035            0   0.57363694    1.4610968    2.0585738   0.51656317 
10715000     1.030172 -2.3913783e-05   0.52020761  0.015954273            0   0.50425334    1.5375317    2.0577393   0.40481857 
10720000    1.0330251 3.4881339e-05   0.51117252  0.020123809            0   0.49104872    1.5417899    2.0529624    4.4639606 
10725000    0.9929274 6.8295458e-05     0.560802  0.023013446            0   0.53778855    1.4819441    2.0427461    6.7633282 
10730000    1.0697817 8.4227255e-05   0.45319954  0.015856148            0   0.43734339    1.5966491    2.0498487    7.8716366 
10735000    1.0180721 -3.1784361e-05   0.51865018  0.013423115            0   0.50522706    1.5194726    2.0381228  -0.15881226 
10740000    1.0179253 -6.5062406e-05   0.51197482  0.028617442            0   0.48335738    1.5192535    2.0312283   -2.4658852 
10745000    1.0081964 -3.9246021e-06   0.53706161   0.02452538            0   0.51253623    1.5047331    2.0417947    1.7705262 
10750000    1.0288913 -4.9382341e-06   0.50288627  0.014826296            0   0.48805998    1.5356203    2.0385066    1.6971758 
10755000    1.0172535 8.4773303e-06   0.51914019   0.03599239            0    0.4831478    1.5182508     2.037391    2.6233441 
10760000       1.0333 -2.8270303e-05   0.50676725  0.024353794            0   0.48241345    1.5422003    2.0489675  0.094924185 
10765000   0.97376462 -1.3945032e-05   0.58784705  0.014302672            0   0.57354438    1.4533437    2.0411907    1.0773101 
10770000   0.95896128 8.3849107e-07   0.59657348  0.035898225            0   0.56067526    1.4312497    2.0278232    2.0857797 
10775000   0.99967547 -5.687112e-07   0.52492089  0.033149858            0   0.49177103    1.4920156    2.0169365    1.9776272 
10780000    1.0069472 -4.7226706e-05   0.50667768  0.023395366            0   0.48328232    1.5028687    2.0095464   -1.2547635 
10785000   0.97766282 -2.8693182e-05   0.54836526  0.027749354            0   0.52061591    1.4591618     2.007527  0.024254257 
10790000   0.99234913 -8.5370719e-06   0.53615599  0.017931437            0   0.51822455    1.4810811    2.0172371    1.4271547 
10795000   0.99591587 2.910157e-06   0.52772625  0.012714045            0    0.5150122    1.4864044    2.0141307    2.2152807 
10800000   0.98071041 1.941266e-05   0.55641131  0.014057717            0   0.54235359    1.4637103    2.0201216    3.3619247 
10805000    1.0062046 3.6121392e-05   0.51774226  0.014886604            0   0.50285565    1.5017603    2.0195026    4.5162132 
10810000    1.0579901 1.1510023e-05   0.45720292  0.029956122            0    0.4272468    1.5790503    2.0362532     2.831826 
10815000    1.0695894 1.8434393e-05   0.43706959  0.015832669            0   0.42123692    1.5963622    2.0334318     3.307617 
10820000   0.96342286 3.0568632e-05   0.57518667  0.037909218            0   0.53727745    1.4379086    2.0130953    4.1259991 
10825000    1.0153558 -2.3553273e-05    0.5196667  0.033064068            0   0.48660264    1.5154186    2.0350853   0.40708306 
10830000    1.0196534 -2.8965193e-05   0.51735038  0.028724863            0   0.48862552    1.5218328    2.0391831  0.037108972 
10835000    1.0395923 -3.2193502e-05   0.51756005  0.037302368            0   0.48025768    1.5515916    2.0691516  -0.15606322 
10840000    1.0056426 8.5952992e-06   0.57685082  0.036354563            0   0.54049626    1.5009216    2.0777724    2.6718795 
10845000    1.0314033 2.4799562e-05   0.52848107  0.021619748            0   0.50686133    1.5393695    2.0678506    3.7819963 
10850000    1.0580459 -1.1852461e-05   0.49618212  0.016115968            0   0.48006615    1.5791335    2.0753156    1.2560735 
10855000    1.0314313 2.1665513e-05   0.52613435  0.026013398            0   0.50012096    1.5394112    2.0655455    3.5630658 
10860000    1.0660153 3.4558985e-05   0.49035375  0.015726132            0   0.47462762    1.5910279    2.0813816    4.4700987 
10865000    1.0368619 1.1860546e-06   0.52989774  0.012243429            0   0.51765431    1.5475163    2.0774141    2.1593942 
10870000     1.024847 4.5598582e-06   0.57570892  0.015607994            0   0.56010093    1.5295842    2.1052931    2.4204705 
10875000   0.99950169 2.8713688e-06   0.60815708   0.02694476            0   0.58121232    1.4917563    2.0999134    2.2983824 
10880000    1.0067093 8.5344003e-06   0.59075253  0.043335301            0   0.54741723    1.5025136    2.0932661    2.6831639 
10885000    1.0235982 2.5060138e-05   0.54275229  0.017933148            0   0.52481914    1.5277204    2.0704726    3.8026294 
10890000    1.0533758 3.5999862e-05   0.48545833 0.0063060254            0   0.47915231    1.5721633    2.0576217    4.5459321 
10895000    1.0029431 -1.3310337e-05   0.56038742   0.01963552            0    0.5407519    1.4968926      2.05728    1.1372695 
10900000    1.0133685 2.2823209e-05   0.54643133  0.034661066            0   0.51177026    1.5124525    2.0588838     3.636424 
10905000    1.0443736 1.2074012e-05   0.52165274 0.0057762821            0   0.51587646    1.5587275    2.0803803     2.914936 
10910000     1.029706 -4.0473029e-05   0.52539167 0.0019432395            0   0.52344844    1.5368362    2.0622278  -0.73526795 
10915000    1.0210921 -9.045043e-06   0.53756913 0.0095466746            0   0.52802246    1.5239799     2.061549    1.4363557 
10920000    1.0123236 3.0102898e-05   0.53829328  0.011746846            0   0.52654644     1.510893    2.0491862    4.1298985 
10925000    1.0258524 5.8662814e-05   0.52388322 0.0083140759            0   0.51556914    1.5310847    2.0549679    6.1097416 
10930000    1.0438194 1.0461887e-05   0.49912011 0.0090958815            0   0.49002423    1.5579005    2.0570206    2.7801463 
10935000    1.0576647 -8.1973331e-05   0.47970028 0.0061559488            0   0.47354433    1.5785646    2.0582649   -3.6077317 
10940000    1.0038647 -8.3763462e-05   0.57257957  0.035829556            0   0.53675001    1.4982681    2.0708477   -3.7188828 
10945000   0.99941418 -2.3532377e-05    0.5767704  0.024090526            0   0.55267987    1.4916257    2.0683961   0.44183819 
10950000   0.99740927 3.1701278e-05   0.57284544  0.018260982            0   0.55458446    1.4886333    2.0614788    4.2526711 
10955000    1.0142593 6.2714987e-05   0.52077103  0.018853663            0   0.50191737     1.513782    2.0345531     6.369413 
10960000    1.0029921 5.0080913e-05   0.54800544 0.0082657327            0   0.53973971    1.4969656    2.0449711    5.5065638 
10965000    1.0379403 1.9222991e-05   0.49253662  0.011970688            0   0.48056593    1.5491259    2.0416625    3.3703556 
10970000    1.0145347 2.3902927e-05   0.51053716  0.037322789            0   0.47321437     1.514193    2.0247302    3.6769005 
10975000     1.024982 6.5688267e-06   0.48768914  0.024177493            0   0.46351165    1.5297857    2.0174748    2.4715121 
10980000      1.00012 -7.2354059e-06   0.53403818  0.034855211            0   0.49918297    1.4926791    2.0267173     1.526606 
10985000    1.0278189 -2.1246225e-05   0.49247649  0.031076424            0   0.46140007    1.5340197    2.0264962   0.55795716 
10990000   0.99944938 -3.151957e-05   0.53978226  0.033563863            0    0.5062184    1.4916782    2.0314605  -0.14717223 
10995000    1.0135758 -9.6169287e-06   0.51372358  0.045423344            0   0.46830023    1.5127619    2.0264855    1.3617634 
11000000    1.0070244 1.8720094e-05   0.52856444  0.035037367            0   0.49352707    1.5029839    2.0315484    3.3254812 
11005000     1.027374 -9.1291204e-07   0.51919536   0.01706639            0   0.50212897    1.5333557    2.0525511    1.9894506 
11010000    1.0197104 -1.0580715e-05   0.52878713  0.014789331            0    0.5139978    1.5219178    2.0507049    1.3193659 
11015000    1.0425105 1.9955739e-05   0.50656631   0.01588683            0   0.49067948    1.5559469    2.0625132    3.4418539 
11020000    1.0163372 -1.8426768e-05   0.54573653 0.0080891429            0   0.53764738    1.5168832    2.0626197   0.78896151 
11025000   0.99582369 -1.325798e-05   0.57710934 0.0091589079            0   0.56795043    1.4862669    2.0633762    1.1469846 
11030000    1.0448198 -2.4073117e-05   0.50570988 0.0060433451            0   0.49966653    1.5593936    2.0651035   0.40116967 
11035000    1.0729652 -2.8954617e-05    0.4718335 0.0090125171            0   0.46282098    1.6014005     2.073234   0.07189094 
11040000    1.0369558 6.0356506e-06   0.51671398  0.014887252            0   0.50182672    1.5476565    2.0643705    2.4815547 
11045000    1.0127023 -1.5726483e-05   0.56367515  0.021873624            0   0.54180152    1.5114582    2.0751334   0.98811888 
11050000    1.0963749 2.9579065e-05   0.47328876  0.029782303            0   0.44350646    1.6363395    2.1096282    4.1541332 
11055000    1.1065881 -1.4296852e-06   0.46177821  0.015803121            0   0.44597509    1.6515828     2.113361    2.0145411 
11060000    1.0936987 -8.0500134e-06    0.4733144 0.0096461095            0   0.46366829    1.6323454    2.1056598    1.5492428 
11065000    1.0521059 5.1998702e-05   0.52430707  0.020720881            0   0.50358618    1.5702681    2.0945752    5.6887255 
11070000     1.040607 2.3081311e-05   0.54023975  0.025063899            0   0.51517586     1.553106    2.0933458     3.688726 
11075000    1.0368209 1.2971043e-05   0.53045136  0.009088159            0    0.5213632    1.5474552    2.0779066    2.9744651 
11080000    1.0640992 1.5221626e-05   0.51506059  0.011193692            0    0.5038669    1.5881681    2.1032287    3.1553474 
11085000    1.0526277 4.5921241e-05   0.52505048  0.030928607            0   0.49412188    1.5710469    2.0960974    5.2701736 
11090000    1.0328655 -2.2620981e-05   0.55092669  0.022563489            0    0.5283632    1.5415517    2.0924784   0.52891616 
11095000    1.0434898 -4.4207628e-05   0.50918305  0.020557983            0   0.48862507    1.5574085    2.0665915  -0.98903972 
11100000    1.0483556 -3.347938e-05   0.50408254   0.02187491            0   0.48220763    1.5646707    2.0687532  -0.24534151 
11105000    1.0491149 3.2605941e-05    0.5102169  0.042882452            0   0.46733445     1.565804    2.0760209    4.3297435 
11110000    1.0203301 2.8653358e-05   0.55054299  0.022500028            0   0.52804296    1.5228427    2.0733857    4.0539058 
11115000   0.98643649 -8.4710961e-05   0.59895873  0.018040786            0   0.58091794    1.4722565    2.0712152   -3.7840064 
11120000     1.065621 -6.2134804e-05   0.49181723  0.014859016            0   0.47695821    1.5904393    2.0822566   -2.2125011 
11125000    1.1101805 -5.9153033e-05   0.43591518  0.021788346            0   0.41412684    1.6569445    2.0928596    -1.995798 
11130000      1.09841 -5.6654589e-05   0.43900559 0.0027272684            0   0.43627833     1.639377    2.0783826   -1.8375827 
11135000    1.0619578 -5.9617022e-06   0.49803103 0.0079578956            0   0.49007313     1.584972    2.0830031    1.6709302 
11140000    1.0596441 2.9361452e-06   0.51806934   0.02320295            0   0.49486639    1.5815188    2.0995881    2.3025345 
11145000    1.0355977 -1.6714244e-05    0.5793966  0.035381145            0   0.54401545    1.5456295    2.1250261   0.96973761 
11150000    1.0775599 -4.5213738e-05   0.49681031  0.031523266            0   0.46528705    1.6082581    2.1050684   -1.0201052 
11155000    1.0748149 -8.8399157e-06   0.49352908  0.021289176            0   0.47223991    1.6041613    2.0976904    1.4866754 
11160000    1.0712092 -2.8491494e-05   0.49002953  0.016184648            0   0.47384488    1.5987797    2.0888093   0.11947722 
11165000    1.0606082 -2.3201166e-05   0.50028685  0.019276136            0   0.48101072    1.5829577    2.0832446   0.47957996 
11170000    1.0396401 5.1980695e-06   0.53445187  0.020529552            0   0.51392232    1.5516628    2.0861147    2.4454052 
11175000    1.1128839 -1.7822873e-05   0.43929485  0.022815141            0   0.41647971    1.6609793    2.1002741   0.86835713 
11180000    1.0192119 -3.8401261e-05   0.57827572  0.011356027            0   0.56691969    1.5211738    2.0994495  -0.55484564 
11185000    1.0511953 -1.3366828e-06   0.53787023 0.0090161329            0    0.5288541     1.568909    2.1067792    2.0143877 
11190000    1.0607869 6.6202745e-06    0.5197205  0.019041155            0   0.50067934    1.5832244    2.1029449    2.5605383 
11195000    1.0772302 -2.0845096e-05   0.49363944  0.016408156            0   0.47723128    1.6077661    2.1014056   0.66059254 
11200000    1.0559369 -9.4303075e-06   0.48626024  0.018649142            0   0.46761109    1.5759859    2.0622461    1.4104233 
11205000    1.0074861 -8.3718683e-06   0.52945294  0.029451854            0   0.50000109     1.503673    2.0331259    1.4544624 
11210000    1.0251068 4.3636545e-05    0.4874512   0.03039516            0   0.45705604    1.5299718     2.017423     5.033581 
11215000    1.0322917 -6.0329484e-06   0.48000895  0.028014131            0   0.45199482    1.5406954    2.0207043    1.6037069 
11220000    1.0110796 -7.7112019e-05   0.50061189  0.029176324            0   0.47143557    1.5090364    2.0096483   -3.3203345 
11225000    1.0092057 -2.7788513e-05   0.50565278  0.010488219            0   0.49516456    1.5062395    2.0118923  0.091150301 
11230000    1.0505582 3.2673147e-06   0.44793487 0.0084463611            0   0.43948851     1.567958    2.0158929    2.2417297 
11235000    0.9965673 1.6914484e-05   0.50269504   0.03382961            0   0.46886543    1.4873767    1.9900717    3.1592009 
11240000    1.0381198 2.0415349e-05   0.43845253  0.022464573            0   0.41598795    1.5493938    1.9878463    3.3989552 
11245000    1.0256423 -3.9357417e-05   0.44496196  0.017327452            0    0.4276345    1.5307711     1.975733  -0.74465159 
11250000    1.0286927 -2.0086762e-05   0.45140031 0.0092467045            0   0.44215361    1.5353238    1.9867241   0.59832713 
11255000    1.0504107 3.4741584e-05   0.43232492 0.0096253452            0   0.42269957    1.5677379    2.0000629    4.4014011 
11260000    1.0138423 6.6438628e-05   0.48153283  0.022927425            0    0.4586054    1.5131596    1.9946924    6.5869304 
11265000    1.0007438 -3.1376695e-06   0.50296127  0.014006629            0   0.48895465    1.4936101    1.9965713    1.7796956 
11270000    1.0158364 2.103169e-06   0.47305087  0.019193985            0   0.45385689    1.5161359    1.9891867    2.1345578 
11275000    1.0276741 8.6444877e-06   0.45097881  0.032780564            0   0.41819825    1.5338035    1.9847824    2.5822894 
11280000   0.97911389 -1.2237496e-05   0.52660807  0.029756466            0   0.49685161    1.4613275    1.9879355    1.1420798 
11285000    1.0055437 -6.4077706e-05   0.49775532  0.023400961            0   0.47435436    1.5007739    1.9985293   -2.4305217 
11290000    1.0343555 -0.00011106403   0.42730038  0.017548208            0   0.40975217    1.5437756    1.9710759   -5.7056697 
11295000    1.0454142 2.3510146e-05   0.43849057  0.025659309            0   0.41283126    1.5602807    1.9987713    3.6237925 
11300000    1.0112277 4.1413933e-05   0.49198572  0.021650071            0   0.47033565    1.5092574    2.0012431    4.8637741 
11305000    1.0148587 1.6856615e-07   0.47896172  0.012040644            0   0.46692108    1.5146767    1.9936384    2.0052897 
11310000    1.0297294 7.0832389e-06   0.46266374  0.025247853            0   0.43741589    1.5368712    1.9995349    2.4891284 
11315000    1.0071587 2.0830004e-05    0.4821511  0.018190281            0   0.46396082    1.5031844    1.9853355    3.4251053 
11320000    1.0129767 2.3348331e-05   0.45379016   0.02596352            0   0.42782664    1.5118677    1.9656579    3.5794945 
11325000    0.9724613 -8.2657792e-06    0.4915634  0.017069598            0   0.47449381    1.4513985    1.9429619    1.3716312 
11330000   0.98735755 -2.193325e-05   0.47318143  0.020274258            0   0.45290717    1.4736311    1.9468126   0.43078634 
11335000   0.97958233 -4.5794138e-05   0.50138162  0.046266447            0   0.45511517    1.4620266    1.9634082   -1.2018826 
11340000   0.93835734 -1.3929065e-05   0.57707671  0.018952358            0   0.55812436    1.4004983     1.977575    1.0147981 
11345000   0.98677195 -7.1640759e-06   0.51229021  0.020546316            0   0.49174389    1.4727571    1.9850473    1.4898664 
11350000     1.028039 4.4141501e-06   0.44460118  0.021850366            0   0.42275082    1.5343481    1.9789493    2.2840554 
11355000    1.0254153 -3.5640957e-05   0.44837603  0.020523444            0   0.42785259    1.5304323    1.9788083  -0.48469466 
11360000   0.93609334 -1.9668599e-05   0.56512133  0.030755353            0   0.53436598    1.3971193    1.9622406   0.60274705 
11365000   0.98067397 9.3823339e-05   0.50352998  0.034354565            0   0.46917542    1.4636559    1.9671859    8.4522551 
11370000   0.97368348 4.6652624e-05   0.51046086  0.024924715            0   0.48553614    1.4532226    1.9636835    5.1883129 
11375000    0.9907217 -1.2365904e-05   0.45834995  0.022860399            0   0.43548955    1.4786521    1.9370021    1.0822708 
11380000   0.97970207 4.0719847e-05   0.46187269  0.013880279            0   0.44799241    1.4622053     1.924078    4.7386338 
11385000   0.93966864 4.1286733e-05   0.52514144 0.0045976864            0   0.52054375    1.4024554    1.9275969    4.7813359 
11390000   0.97172404 5.5374265e-05   0.47177665 0.0058326596            0   0.46594399    1.4502981    1.9220748     5.749544 
11395000   0.99680351 3.4437059e-05   0.43688315   0.01044064            0   0.42644251    1.4877292    1.9246124    4.3049019 
11400000   0.94919718 -6.8546009e-06   0.50033228  0.014539155            0   0.48579313    1.4166768    1.9170091    1.4432191 
11405000   0.94970324 -2.0483795e-06   0.49726222  0.023898915            0    0.4733633    1.4174321    1.9146943    1.7731103 
11410000   0.91433786 -2.6060712e-07   0.55016309  0.025731652            0   0.52443143    1.3646493    1.9148123    1.8967992 
11415000   0.98861235 -2.2013098e-05   0.45967157   0.01800016            0   0.44167141    1.4755039    1.9351755   0.41363015 
11420000    0.9938375 2.3810006e-05   0.45661831  0.015562633            0   0.44105567    1.4833025    1.9399208    3.5856684 
11425000   0.92630835 8.4923644e-05   0.58293653  0.014236826            0   0.56869971    1.3825152    1.9654518    7.8353741 
11430000   0.97092535 1.4182158e-05   0.50736383  0.023848393            0   0.48351543    1.4491061    1.9564699    2.9367407 
11435000   0.99343186 -1.559189e-05   0.50107829  0.017603822            0   0.48347446     1.482697    1.9837753    0.9060639 
11440000    1.0502183 -2.1562544e-05   0.43215724 0.0080272974            0   0.42412995    1.5674508     1.999608   0.50920496 
11445000    1.0277409 3.6345661e-05   0.45883232   0.04673297            0   0.41209935    1.5339034    1.9927357    4.5049478 
11450000   0.95601536 -1.2433038e-05   0.55852515   0.06160836            0   0.49691679    1.4268529    1.9853781    1.1260065 
11455000   0.99274019 -3.5029429e-05   0.49713955  0.019329067            0   0.47781048    1.4816647    1.9788043  -0.44242983 
11460000    1.0088721 4.5248738e-05   0.46912025  0.014313429            0   0.45480682    1.5057416    1.9748618    5.1024546 
11465000   0.93012245 -3.0458699e-05   0.58334116  0.017675563            0   0.56566559    1.3882078    1.9715489  -0.13375633 
11470000   0.99712294 -3.415887e-05   0.46712567  0.038081915            0   0.42904375     1.488206    1.9553317  -0.40572943 
11475000    1.0001629 2.2213793e-05   0.45542279  0.027956895            0    0.4274659    1.4927431    1.9481659    3.4835833 
11480000     0.965202 -1.8949693e-05   0.49035917 0.0095623587            0   0.48079681     1.440564    1.9309232   0.62112035 
11485000     1.004706 -7.1315095e-06   0.42598104  0.013095429            0   0.41288561    1.4995238    1.9255048    1.4325749 
11490000   0.99014737 -1.3193565e-05   0.43725536   0.02550492            0   0.41175044    1.4777949    1.9150503    1.0031111 
11495000    0.9621706 -3.942911e-05   0.46605342  0.033156938            0   0.43289648    1.4360396     1.902093  -0.82324704 
11500000    1.0060037 -4.7380446e-05   0.40811899  0.015741285            0   0.39237771    1.5014605    1.9095795    -1.365357 
11505000   0.93749268 4.0153172e-05   0.50897816 0.0080070805            0   0.50097108    1.3992078     1.908186    4.6835732 
11510000    0.9504076 3.1624793e-05   0.48434017  0.018355318            0   0.46598485    1.4184833    1.9028235    4.0887292 
11515000   0.96691621 -3.7031211e-06   0.46203174  0.025869191            0   0.43616255    1.4431224    1.9051542    1.6491945 
11520000   0.97143652 -3.9538367e-06   0.45815305  0.016852084            0   0.44130096     1.449869    1.9080221    1.6347329 
11525000   0.95145619 2.3761315e-05   0.47866206   0.02035594            0   0.45830612    1.4200484    1.8987104    3.5410925 
11530000   0.95759739 5.1606209e-06   0.47394432  0.024157083            0   0.44978724    1.4292141    1.9031584    2.2598605 
11535000   0.97020128 -2.4320993e-05   0.47227456  0.014137941            0   0.45813662    1.4480254       1.9203   0.23923294 
11540000   0.97749937 2.0138121e-05    0.4694876 0.0051204097            0   0.46436719    1.4589178    1.9284054    3.3203523 
11545000    1.0028522 2.3766517e-05   0.45179664  0.023298381            0   0.42849826    1.4967569    1.9485535    3.5912952 
11550000     1.011269 2.4799825e-05   0.45954182  0.020309726            0   0.43923209    1.5093189    1.9688608    3.6830246 
11555000    1.0197668 5.9812483e-06   0.43511293  0.028394629            0    0.4067183    1.5220019    1.9571148    2.3705387 
11560000   0.95063376 -1.4911019e-06   0.52981801  0.039739525            0   0.49007849    1.4188209    1.9486389    1.8455739 
11565000   0.99603412 3.7402023e-05    0.4728829  0.010041478            0   0.46284142    1.4865809    1.9594638    4.5446916 
11570000   0.97829926 -1.2962451e-05   0.49065819  0.023381012            0   0.46727718    1.4601116    1.9507698    1.0548052 
11575000    1.0090811 -2.7854225e-05   0.45025007  0.011189837            0   0.43906023    1.5060536    1.9563037  0.031019637 
11580000   0.99943627 -2.7001821e-05   0.46869263  0.013063955            0   0.45562867    1.4916586    1.9603513  0.093985368 
11585000   0.95265772 2.331723e-05   0.52416775  0.030091223            0   0.49407653    1.4218416    1.9460094    3.5576963 
11590000   0.97686795 8.2805029e-06   0.49347286  0.032925211            0   0.46054765    1.4579754    1.9514483    2.5237966 
11595000   0.97082195 -3.4269038e-05    0.5049338  0.036954937            0   0.46797887    1.4489518    1.9538856  -0.41479037 
11600000   0.96786819 -3.0396901e-05   0.49860135  0.047680587            0   0.45092076    1.4445433    1.9431446   -0.1578892 
11605000   0.95332356 -5.6159252e-05    0.5399285  0.048697481            0   0.49123101    1.4228354    1.9627639   -1.9189636 
11610000    1.0458015 -1.0401235e-05   0.39677376  0.009909323            0   0.38686443    1.5608588    1.9576325    1.2386991 
11615000   0.96766106 1.1330614e-05   0.52075235  0.011429293            0   0.50932305    1.4442341    1.9649865    2.7481585 
11620000    1.0472579 -3.6577171e-05   0.38623025  0.038392666            0   0.34783758    1.5630324    1.9492627   -0.5789514 
11625000   0.95661459 -3.0029388e-05   0.52251105  0.018536157            0   0.50397489    1.4277473    1.9502583  -0.12537298 
11630000   0.99177536 6.2252526e-06   0.46494015  0.015048682            0   0.44989147    1.4802247    1.9451649    2.3754543 
11635000    1.0084947 8.8995211e-06   0.45658552  0.019857915            0    0.4367276    1.5051784    1.9617639    2.5768988 
11640000   0.96526382 4.9081247e-06   0.51094913  0.024030261            0   0.48691887    1.4406563    1.9516054     2.290855 
11645000   0.99577764 1.9784229e-06    0.4804524  0.018659953            0   0.46179245    1.4861981    1.9666505    2.1033991 
11650000    1.0107485 -1.0459382e-05    0.4479767 0.0063716498            0   0.44160505    1.5085422    1.9565189    1.2335664 
11655000    1.0287837 -3.3966042e-05   0.40850631  0.012009979            0   0.39649633    1.5354597     1.943966  -0.40376682 
11660000   0.94477477 -2.3575476e-05   0.55075221   0.04518627            0   0.50556594    1.4100763    1.9608286   0.33129165 
11665000   0.97781984 -4.2337763e-06   0.49398464  0.030402158            0   0.46358248    1.4593961    1.9533808    1.6607421 
11670000   0.96771545 -2.1647692e-05   0.50824077  0.026726195            0   0.48151457    1.4443153    1.9525561   0.45626762 
11675000    1.0041038 3.7188221e-06   0.45235887  0.030892706            0   0.42146616    1.4986249    1.9509838    2.2080288 
11680000   0.96616772 1.7826294e-05   0.52049553  0.028388634            0   0.49210689    1.4420053    1.9625009    3.1946543 
11685000   0.97630809 2.3726083e-06   0.50067423   0.04120821            0   0.45946602    1.4571398     1.957814    2.1218087 
11690000    0.9909913 4.8984096e-05   0.48527968  0.036098833            0   0.44918085    1.4790545    1.9643342    5.3501149 
11695000    1.0000564 6.1468772e-06   0.46637772  0.027412154            0   0.43896556    1.4925842     1.958962    2.3838341 
11700000   0.99521454 2.0474712e-05   0.46287826  0.020317169            0   0.44256109    1.4853577     1.948236    3.3634481 
11705000   0.94779345 3.0417587e-05   0.52977539  0.032750865            0   0.49702452    1.4145817    1.9443571    4.0468207 
11710000   0.98158089 -9.0549689e-06   0.48451198  0.027259673            0   0.45725231    1.4650095    1.9495215     1.323642 
11715000   0.99870611 -1.9877368e-06   0.45315294  0.017024715            0   0.43612823    1.4905689    1.9437218    1.8063294 
11720000    0.9778892 -5.0593004e-05   0.49062701  0.015841181            0   0.47478582    1.4594996    1.9501266   -1.5468618 
11725000   0.95636047 -2.2114781e-05   0.50777315  0.019727893            0   0.48804526     1.427368    1.9351411   0.40656749 
11730000   0.98654402 -4.02633e-06   0.48193052  0.014567914            0    0.4673626     1.472417    1.9543475    1.6760475 
11735000   0.99375937 -3.4832447e-05   0.47976972  0.012313077            0   0.46745664    1.4831859    1.9629556  -0.44466314 
11740000   0.99957118 1.7216568e-05   0.49188852  0.026681422            0    0.4652071      1.49186    1.9837485    3.1737577 
11745000   0.98157005 4.7950186e-05    0.5282086  0.034479547            0   0.49372905    1.4649933    1.9932019    5.3075188 
11750000    0.9918595 1.9600135e-05   0.52072375  0.035725247            0    0.4849985    1.4803503    2.0010741    3.3558354 
11755000    1.0076512 -3.3006303e-05   0.49857087  0.038488242            0   0.46008263    1.5039194    2.0024903  -0.27890537 
11760000    1.0003007 -2.7568281e-05   0.52484916  0.025831938            0   0.49901722    1.4929487    2.0177979   0.11227832 
11765000   0.99963084 5.1614129e-06   0.50414638  0.016094257            0   0.48805213     1.491949    1.9960954    2.3528523 
11770000   0.98707783 2.6790675e-05   0.51864467  0.023502574            0    0.4951421    1.4732137    1.9918583    3.8436298 
11775000   0.98673417 -6.0708566e-05   0.49143855  0.035457492            0   0.45598105    1.4727008    1.9641393   -2.2320368 
11780000    1.0158429 1.5286191e-05   0.45220521  0.023340085            0   0.42886512    1.5161455    1.9683507    3.0249322 
11785000    1.0223794 2.4523378e-05   0.44022488  0.008282615            0   0.43194227    1.5259013    1.9661262    3.6611821 
11790000    0.9394487 -1.4609533e-05   0.56637255 0.0048899436            0    0.5614826    1.4021272    1.9684997    0.9586888 
11795000   0.99998905 6.3476317e-05   0.47074083   0.01312687            0   0.45761396    1.4924837    1.9632245    6.3507075 
11800000    1.0039781 1.1480283e-05   0.46799972  0.021081405            0   0.44691831    1.4984373    1.9664371    2.7599542 
11805000    1.0067181 -9.3019264e-06    0.4679627  0.022666935            0   0.44529577    1.5025268    1.9704895    1.3275403 
11810000   0.99393953 -3.9769335e-05   0.49796795  0.027391572            0   0.47057638    1.4834548    1.9814227  -0.76743376 
11815000    1.0069924 1.3902204e-05   0.47206622  0.025327105            0   0.44673911    1.5029361    1.9750024    2.9359227 
11820000   0.96482642 -2.6017923e-05   0.52445137  0.015830459            0   0.50862091    1.4400034    1.9644548   0.16609598 
11825000    1.0184356 -1.777833e-05   0.44791772  0.013420083            0   0.43449764    1.5200151    1.9679328   0.73909463 
11830000    1.0063572 1.5135641e-05   0.47292562  0.011742541            0   0.46118308    1.5019881    1.9749138    3.0210893 
11835000    1.0129371 -2.2337965e-06   0.46656256  0.032077429            0   0.43448513    1.5118086    1.9783712    1.8239712 
11840000    0.9953509 -3.0100871e-05   0.48723303  0.035536858            0   0.45169617    1.4855612    1.9727943  -0.10777794 
11845000     1.022075 -1.6387771e-05   0.46808783  0.019972956            0   0.44811487    1.5254469    1.9935348     0.860812 
11850000    1.0367493 1.898394e-05   0.45271061 0.0069681739            0   0.44574244    1.5473483    2.0000589    3.3122288 
11855000    1.0075341 -3.4369977e-05   0.51189181 0.0064446208            0   0.50544719    1.5037446    2.0156365  -0.36001638 
11860000    1.0398912 3.0415629e-05   0.45739735 0.0077397962            0   0.44965756    1.5520376     2.009435    4.1117632 
11865000    1.0372589 -2.1526619e-05    0.4604399 0.0099796913            0   0.45046021    1.5481089    2.0085488   0.52062889 
11870000   0.96134848 -2.2511731e-05   0.56314831  0.036330972            0   0.52681734    1.4348126    1.9979609   0.44195009 
11875000   0.98503397 4.4503752e-06   0.52094296  0.042048044            0   0.47889492    1.4701632    1.9911062    2.2987161 
11880000    1.0366125 -1.2890293e-05   0.46039047  0.019954767            0    0.4404357    1.5471442    2.0075346    1.1165576 
11885000   0.99658433 1.9792932e-05   0.50270273  0.040265513            0   0.46243722    1.4874021    1.9901048    3.3581923 
11890000    1.0302749 -2.7289713e-05    0.4631261  0.024918628            0   0.43820748    1.5376853    2.0008114   0.11454646 
11895000    1.0238499 -5.2247508e-05   0.47002024  0.029699118            0   0.44032112     1.528096    1.9981163   -1.6132315 
11900000    1.0099567 -2.211416e-05   0.47497545  0.027832359            0   0.44714309    1.5073604    1.9823359   0.45380517 
11905000    1.0276185 -3.0689271e-05   0.44415077  0.029461053            0   0.41468972    1.5337206    1.9778714  -0.14337106 
11910000   0.99670851 -1.9457783e-05   0.49167616  0.017168731            0   0.47450742    1.4875875    1.9792636   0.63434163 
11915000    1.0301472 1.3873688e-06   0.46061035  0.030133821            0   0.43047653    1.5374947     1.998105        2.094 
11920000    1.0131901 5.208956e-06   0.48995079  0.030109174            0   0.45984162    1.5121863    2.0021371    2.3621801 
11925000    1.0352806 -1.3590184e-05   0.45706716  0.021396225            0   0.43567094    1.5451563    2.0022235    1.0628699 
11930000    1.0277474 -6.0425445e-06   0.47532707  0.020378463            0   0.45494861     1.533913    2.0092401    1.5915794 
11935000    1.0014368 -4.9154283e-05   0.50180713  0.012795974            0   0.48901115    1.4946444    1.9964515   -1.4010925 
11940000    1.0066356 9.970943e-06   0.49740807  0.044263621            0   0.45314444    1.5024036    1.9998116    2.6890032 
11945000    1.0334857 -3.2013473e-05   0.44849639  0.030377751            0   0.41811863    1.5424774    1.9909738  -0.22179745 
11950000    1.0163948 2.0584924e-05    0.4790316  0.052298415            0   0.42673318    1.5169693    1.9960009    3.4188308 
11955000    1.0075307 5.3425263e-05   0.50482493  0.022135179            0   0.48268975    1.5037395    2.0085644    5.7013186 
11960000    1.0252134 1.8573063e-06   0.49297018  0.034570495            0   0.45839969    1.5301309    2.0231011    2.1514781 
11965000    1.0166646 -8.9273181e-06    0.4984047  0.051798226            0   0.44660648    1.5173719    2.0157766    1.3987204 
11970000   0.97569318 3.852892e-05    0.5670121  0.043945111            0   0.52306699    1.4562221    2.0232342    4.6863531 
11975000    1.0214011 -5.0296514e-05   0.50334947  0.013203279            0   0.49014619    1.5244411    2.0277906   -1.4487045 
11980000    1.0519724 1.6976097e-06   0.46222747 0.0073043681            0   0.45492311    1.5700688    2.0322963    2.1496351 
11985000    1.0176008 1.0097341e-05   0.48216385 0.0045171268            0   0.47764673    1.5187691     2.000933    2.6988612 
11990000    1.0668207 6.7807955e-05   0.41558314  0.018382792            0   0.39720035    1.5922299     2.007813    6.6946988 
11995000    1.0100766 2.9366681e-05   0.48192161   0.02724752            0   0.45467409    1.5075394     1.989461     4.019286 
12000000   0.97439742 -8.7190013e-06   0.55035655  0.025157642            0    0.5251989    1.4542881    2.0046447    1.4019873 
12005000   0.97611075 -1.7009029e-05   0.54999903  0.024629726            0    0.5253693    1.4568453    2.0068443   0.83118026 
12010000    1.0338415 1.926096e-05   0.47329151  0.021698244            0   0.45159326    1.5430084    2.0162999    3.3476175 
12015000    1.0234374 2.7337263e-05   0.47659178  0.016375195            0   0.46021659    1.5274804    2.0040721    3.8936238 
12020000   0.98106771 -8.1732712e-06   0.53839059  0.028535764            0   0.50985482    1.4642436    2.0026341    1.4376976 
12025000   0.98733527 4.3831912e-05   0.52199716  0.032513257            0    0.4894839    1.4735979    1.9955951    5.0252568 
12030000    1.0084769 -1.5577159e-05   0.50719932  0.038715415            0    0.4684839    1.5051518    2.0123511   0.93565793 
12035000   0.95333289 -1.3139078e-05   0.58092423  0.023950622            0   0.55697361    1.4228493    2.0037736    1.0956005 
12040000     1.044054 -4.9788796e-05   0.46128743 0.0095082622            0   0.45177917    1.5582506     2.019538   -1.4218636 
12045000    1.0240571 -2.4260797e-05   0.49935307  0.010367566            0    0.4889855    1.5284053    2.0277584   0.35085205 
12050000   0.99151091 -2.1447486e-05   0.53917505   0.01190928            0   0.52726577      1.47983    2.0190051   0.53655485 
12055000    1.0289056 3.2042397e-05    0.4859022 0.0085640705            0   0.47733813    1.5356416    2.0215438    4.2363143 
12060000   0.99729796 -2.2196169e-05   0.52690526 0.0097730337            0   0.51713222    1.4884672    2.0153725   0.48117326 
12065000    1.0566851 -4.2661356e-05   0.44560441  0.015305986            0   0.43029842    1.5771025    2.0227069  -0.92604605 
12070000    1.0376602 4.6038792e-05   0.48803521  0.023823227            0   0.46421199    1.5487079    2.0367431    5.2189444 
12075000   0.97251563 -2.5894768e-06   0.57346307  0.035267031            0   0.53819604    1.4514796    2.0249426     1.845958 
12080000    1.0073586 -6.7698204e-06   0.54082261  0.023913166            0   0.51690945    1.5034826    2.0443053    1.5763753 
12085000    1.0146141 -5.3377527e-05   0.55936691  0.043564274            0   0.51580264    1.5143115    2.0736785   -1.6157762 
12090000    1.0334652 3.1873905e-05   0.51883204  0.022071812            0   0.49676023    1.5424468    2.0612788    4.2644032 
12095000    1.0164643 -3.0577884e-05   0.55084482  0.011028982            0   0.53981584     1.517073    2.0679178 -0.045625531 
12100000    1.0372523 -4.5755353e-05   0.53424558 0.0074068275            0   0.52683875     1.548099    2.0823446   -1.0802654 
12105000    1.0110871 -1.5749647e-05   0.58000897  0.029409018            0   0.55059995    1.5090475    2.0890565    1.0004409 
12110000    1.0317721 7.0069544e-05   0.55225516  0.018324181            0   0.53393098    1.5399198     2.092175    6.9353819 
12115000    1.0703749 -5.0450527e-05    0.4732216 0.00040872454            0   0.47281288    1.5975345    2.0707561   -1.4163843 
12120000    1.0501944 -3.1480671e-05   0.49063729 0.0012045787            0   0.48943271    1.5674151    2.0580524  -0.11789158 
12125000    1.0204674 -7.9952617e-05   0.53577198 0.0021412216            0   0.53363076    1.5230476    2.0588195   -3.4675054 
12130000    1.0004877 6.0493581e-07   0.55044225 0.0041260305            0   0.54631622     1.493228    2.0436702    2.0854834 
12135000    1.0539958  1.19948e-06   0.46984997  0.018989601            0   0.45086036    1.5730888    2.0429388    2.1258468 
12140000    1.0735388 3.3582579e-05   0.44967033 0.0072348959            0   0.44243543    1.6022567     2.051927    4.3731549 
12145000    1.0290715 2.0080424e-05   0.50338483  0.010022917            0   0.49336191    1.5358892     2.039274    3.4272329 
12150000    1.0124715 -3.112313e-06   0.52185293  0.014240393            0   0.50761254    1.5111137    2.0329666    1.8178435 
12155000    1.0000512 -5.7167791e-05   0.53352807 0.0049679331            0   0.52856014    1.4925765    2.0261045   -1.9253332 
12160000   0.99333176 -3.8244554e-06   0.54372506 0.0030202533            0    0.5407048    1.4825476    2.0262727    1.7619263 
12165000    1.0037784 -1.3182342e-05   0.53278342 0.0020270212            0    0.5307564    1.4981393    2.0309227    1.1197592 
12170000    1.0553365 -5.8466433e-06   0.47533375  0.018932812            0   0.45640093    1.5750898    2.0504235    1.6463035 
12175000    1.0126824 3.2974836e-05   0.53941747  0.036846675            0   0.50257079    1.5114285    2.0508459    4.3300666 
12180000   0.95017247 -1.007866e-05   0.63611087  0.024029209            0   0.61208166    1.4181324    2.0542433    1.3576063 
12185000   0.99730709 4.9254051e-05   0.57392953  0.023041057            0   0.55088847    1.4884808    2.0624104    5.4668504 
12190000    1.0108355 6.7077707e-05   0.55382978  0.023700795            0   0.53012899    1.5086719    2.0625017    6.6989128 
12195000    1.0507423 7.1275855e-05   0.48380002  0.010732294            0   0.47306772    1.5682328    2.0520328    6.9786199 
12200000    1.0047379 5.3844687e-07   0.54239522 0.0090269895            0   0.53336823    1.4995713    2.0419665    2.0791839 
12205000   0.96779331  1.56036e-05   0.59479973  0.011465249            0   0.58333448    1.4444315    2.0392312    3.1177521 
12210000   0.97294467 -2.8196548e-05   0.58828297   0.01403785            0   0.57424512    1.4521199    2.0404029  0.091457487 
12215000    1.0137775 -9.8628328e-07   0.51555082  0.017243806            0   0.49830701    1.5130629    2.0286138    1.9604419 
12220000    1.0055925 2.2326318e-05    0.4993222  0.015330368            0   0.48399184    1.5008468     2.000169    3.5433641 
12225000   0.99003862 2.5039963e-05    0.5012527   0.01456189            0   0.48669081    1.4776326    1.9788853    3.7096476 
12230000   0.97191343 -2.8958665e-05   0.53609673 0.0061995135            0   0.52989722    1.4505808    1.9866775 -0.014945415 
12235000    1.0038772 -5.7571823e-05   0.48116971 0.0097792762            0   0.47139043    1.4982867    1.9794564    -1.999908 
12240000   0.93337356 -2.5532209e-05   0.56846784  0.015939471            0   0.55252837      1.39306    1.9615279   0.19674156 
12245000   0.99784817 1.0744748e-05   0.48146058 0.0097036707            0   0.47175691    1.4892884     1.970749    2.7134259 
12250000   0.98831235 -4.5079672e-05   0.49447565 0.0080629429            0   0.48641271    1.4750562    1.9695318   -1.1463751 
12255000   0.98688432 4.2583247e-05   0.48900025  0.017329402            0   0.47167085    1.4729249    1.9619251    4.9052791 
12260000    1.0131024 1.5472148e-05   0.43773539  0.029964903            0   0.40777049    1.5120554    1.9497908    3.0192257 
12265000   0.97262795 -6.9788363e-05   0.49437948  0.011762381            0    0.4826171    1.4516472    1.9460267   -2.8777449 
12270000   0.94585924 -2.3068411e-06   0.53935155 0.0050668161            0   0.53428474    1.4116949    1.9510465    1.7915976 
12275000   0.99028952 -3.9477543e-05   0.47754527 0.0077142866            0   0.46983098    1.4780071    1.9555524  -0.77313536 
12280000   0.96083968 -2.0584103e-05   0.52983845  0.011267934            0   0.51857051    1.4340532    1.9638917   0.54111845 
12285000    0.9820111 2.2507576e-05     0.494996  0.018793499            0    0.4762025    1.4656516    1.9606476    3.5163712 
12290000   0.99982053 4.4823031e-05   0.49455055  0.014220248            0    0.4803303    1.4922321    1.9867827    5.0849506 
12295000   0.97042904 6.6263466e-06     0.533151  0.016235914            0   0.51691509    1.4483653    1.9815163    2.4395294 
12300000   0.96104158 2.4172129e-05   0.54572194  0.019178224            0   0.52654372    1.4343546    1.9800765     3.650854 
12305000   0.99716056 -3.1282276e-05    0.4973526   0.02217093            0   0.47518167    1.4882621    1.9856147  -0.17661617 
12310000   0.99080728 4.0675429e-05    0.5092469  0.025310999            0    0.4839359    1.4787799    1.9880268    4.7995124 
12315000   0.96154142 3.4568885e-05    0.5384023  0.024975878            0   0.51342642    1.4351006    1.9735029    4.3629042 
12320000   0.99002058 -4.1413673e-05   0.51533026  0.018058155            0    0.4972721    1.4776057     1.992936  -0.86957713 
12325000    1.0044463 4.8763597e-05   0.49132591 0.0088203012            0   0.48250561    1.4991362    1.9904621    5.3610019 
12330000    1.0030672 -3.1296722e-07   0.48206599  0.018340481            0   0.46372551    1.4970777    1.9791437    1.9575114 
12335000   0.98772209 -6.8496533e-05   0.50993417  0.024046764            0    0.4858874    1.4741752    1.9841094   -2.7503709 
12340000   0.98145524 8.8847489e-06   0.50562106  0.018174388            0   0.48744667    1.4648219     1.970443    2.5845568 
12345000   0.99692468 3.7813149e-05   0.47857804 0.0042192659            0   0.47435877    1.4879101    1.9664881    4.5801329 
12350000   0.96970518 3.7960455e-05   0.49586689 0.0042310359            0   0.49163586     1.447285    1.9431519    4.5669785 
12355000     0.989436 -5.7125725e-05   0.49925212 0.0099436476            0   0.48930848    1.4767332    1.9759854   -1.9725448 
12360000   0.98138312 1.5540267e-05   0.51739741  0.016467636            0   0.50092977    1.4647143    1.9821117     3.056255 
12365000   0.96118666 9.8633275e-06    0.5549337  0.018448538            0   0.53648516    1.4345711    1.9895048     2.671258 
12370000     1.016733 -1.9372829e-05   0.46460452   0.03366767            0   0.43093685     1.517474    1.9820786   0.64302862 
12375000   0.97872807 8.8306325e-06   0.52351133  0.052756003            0   0.47075533    1.4607516     1.984263    2.5946363 
12380000    1.0122421 2.4352594e-05   0.48171048   0.02320177            0   0.45850871    1.5107713    1.9924818    3.6757331 
12385000    1.0161469 3.2685509e-05   0.48085767 0.0072581703            0    0.4735995    1.5165992    1.9974569    4.2566793 
12390000    1.0148096 -4.2291457e-05   0.48426208  0.014650203            0   0.46961188    1.5146034    1.9988655  -0.92432006 
12395000   0.99193413 -8.3814873e-05   0.54741537  0.020278083            0   0.52713729    1.4804617    2.0278771    -3.765407 
12400000    1.0378334 -1.1516024e-05   0.47200242  0.026934837            0   0.44506759    1.5489664    2.0209688    1.2249812 
12405000    1.0447834 7.4190513e-05   0.47278259  0.021178357            0   0.45160423    1.5593392    2.0321218      7.16017 
12410000   0.98900273 4.9838946e-06   0.56032273  0.007008839            0   0.55331389    1.4760866    2.0364093    2.3808961 
12415000    1.0405023 2.0522841e-05   0.49836473  0.011419605            0   0.48694512    1.5529497    2.0513144    3.4698532 
12420000    1.0424551 4.9726844e-05   0.48844414  0.019413748            0   0.46903039    1.5558642    2.0443084    5.4814279 
12425000    1.0317396 -3.1623921e-05    0.4929914  0.020357971            0   0.47263343    1.5398713    2.0328627  -0.15298274 
12430000    1.0034578 -4.9908705e-05   0.51109014  0.014173461            0   0.49691668    1.4976607    2.0087509   -1.4409388 
12435000    1.0216628 -3.014524e-05   0.47791567 0.0095209852            0   0.46839468    1.5248317    2.0027474 -0.080891553 
12440000   0.99966113 -3.8289075e-05    0.5012141 0.0086285034            0    0.4925856    1.4919942    1.9932083  -0.65333251 
12445000   0.92304012 1.1258904e-05   0.59333322  0.020116153            0   0.57321707    1.3776374    1.9709706     2.749186 
12450000    1.0207256 -4.5569662e-06   0.47645302   0.01550399            0   0.46094903    1.5234329     1.999886    1.6849085 
12455000   0.97114368 2.5879913e-05   0.54111875  0.032309156            0    0.5088096    1.4494319    1.9905507    3.7793703 
12460000    1.0093086 5.3264845e-05   0.48051092  0.031969409            0   0.44854152    1.5063931     1.986904    5.6685701 
12465000     1.005383 -2.0472433e-05   0.48861688  0.015860679            0   0.47275621    1.5005342     1.989151    0.5740965 
12470000    0.9760011 -4.8637849e-05    0.5286143  0.023771882            0   0.50484241    1.4566816    1.9852959   -1.3765522 
12475000    1.0434447 -3.4139576e-05   0.44162048   0.01459538            0    0.4270251    1.5573412    1.9989617  -0.36076582 
12480000    1.0138499 3.1211871e-05   0.48257071  0.018431046            0   0.46413967     1.513171    1.9957417    4.1531062 
12485000   0.97043523 7.2475154e-05    0.5472071  0.013533084            0   0.53367402    1.4483746    1.9955817    7.0050643 
12490000    1.0113182 1.7094424e-05    0.4880882  0.026701093            0   0.46138711    1.5093924    1.9974806    3.1790472 
12495000   0.99351061 2.916192e-05    0.5112439    0.0233327            0    0.4879112    1.4828146    1.9940585    4.0097304 
12500000   0.95081402 5.4826562e-05   0.57179408  0.029947367            0   0.54184671    1.4190899     1.990884     5.780496 
12505000   0.99293212 2.6247958e-05    0.5167977   0.02459609            0   0.49220161    1.4819512    1.9987489    3.8130077 
12510000    1.0116143 3.8459839e-06   0.49535181 0.0057485735            0   0.48960324    1.5098343    2.0051861    2.2710205 
12515000   0.99916121 2.0648155e-05   0.50374689 0.0066330648            0   0.49711383    1.4912481     1.994995    3.4221955 
12520000    1.0122244 3.3142681e-05   0.48147188  0.016912393            0   0.46455949    1.5107449    1.9922168    4.2830389 
12525000    1.0091025 -4.4904748e-05   0.50152927  0.017058253            0   0.48447102    1.5060854    2.0076147   -1.0962015 
12530000   0.98304303 -8.4738473e-06   0.55090801  0.020405478            0   0.53050253    1.4671917    2.0180997    1.4323874 
12535000    1.0266172 -1.3724922e-05   0.49052618  0.010844485            0    0.4796817    1.5322261    2.0227523    1.0740857 
12540000    1.0349073 -6.5820829e-05   0.48738308  0.017027401            0   0.47035568    1.5445991    2.0319822   -2.5175535 
12545000    1.0257617 4.9171409e-06   0.50657269    0.0380259            0   0.46854679    1.5309494    2.0375221    2.3773949 
12550000    1.0415369 -1.054122e-05   0.49627191  0.019921593            0   0.47635032    1.5544938    2.0507657    1.3221566 
12555000    1.0276207 3.3310012e-05   0.52265036  0.027655893            0   0.49499447    1.5337239    2.0563742    4.3587623 
12560000    1.0989107 3.6063372e-05   0.41030329  0.023594608            0   0.38670868    1.6401243    2.0504276    4.5431279 
12565000    1.0148804 6.3856632e-05    0.5426923  0.015347699            0    0.5273446     1.514709    2.0574013    6.4711717 
12570000   0.98474996 -3.1831514e-06    0.5694774  0.032536561            0   0.53694083    1.4697393    2.0392167    1.8191973 
12575000   0.98820576 -1.8038929e-05   0.56549875  0.020499252            0    0.5449995    1.4748971    2.0403958   0.79354509 
12580000     1.023881 4.1055887e-06   0.50343092  0.014612417            0    0.4888185    1.5281424    2.0315734    2.3153516 
12585000    1.0331621 3.4633792e-05   0.50595981  0.016493112            0   0.48946669    1.5419944    2.0479542     4.441842 
12590000   0.97546294 7.8097669e-06   0.59353953  0.031512299            0   0.56202723    1.4558784     2.049418    2.5892291 
12595000    1.0414817 -5.1749661e-05   0.48021318   0.01213611            0   0.46807707    1.5544114    2.0346246   -1.5423119 
12600000    1.0220454 -3.8597677e-05   0.51562092 0.0071153835            0   0.50850554    1.5254028    2.0410237  -0.62684775 
12605000     1.021906 -8.1371292e-06   0.48398279  0.041241164            0   0.44274163    1.5251947    2.0091775    1.4467391 
12610000    1.0300815 1.5921608e-05   0.45913821  0.025660849            0   0.43347736    1.5373967    1.9965349    3.0970364 
12615000    1.0307614 -1.9145912e-05   0.45916269  0.016756958            0   0.44240573    1.5384114    1.9975741   0.67420862 
12620000     1.000259 2.5117072e-06   0.49089054 0.0094130633            0   0.48147748    1.4928865     1.983777    2.1573862 
12625000   0.95106011 -2.1771675e-05   0.52732816  0.006281605            0   0.52104656    1.4194572    1.9467854   0.44192722 
12630000   0.96201813 3.3613525e-05   0.51110216 0.0092194515            0   0.50188271    1.4358121    1.9469142    4.2702811 
12635000   0.98714036 2.6474809e-05   0.45568279 0.0058224372            0   0.44986036     1.473307    1.9289898    3.7589286 
12640000   0.97696929 2.2742843e-05    0.4743248 0.0051622124            0   0.46916258    1.4581267    1.9324515    3.5044368 
12645000   0.95249172 1.6790846e-05   0.50923779 0.0049095662            0   0.50432823    1.4215939    1.9308317    3.0914149 
12650000   0.94295791 -8.5041337e-05   0.52253449  0.022844459            0   0.49969003    1.4073647    1.9298992    -3.948158 
12655000   0.95552565 -2.7585638e-05   0.51219658  0.023265365            0   0.48893122     1.426122    1.9383186  0.031599298 
12660000   0.96191583 1.8863692e-05   0.49242464  0.011704306            0   0.48072033    1.4356594     1.928084    3.2319424 
12665000   0.99381331 -2.6012316e-06   0.45558347 0.0084745056            0   0.44710896    1.4832664    1.9388498    1.7590527 
12670000   0.98636126 -1.7272535e-05   0.46191141 0.0080450263            0   0.45386638    1.4721442    1.9340556   0.74017799 
12675000    0.9977291 -2.6724273e-05   0.45722431 0.0079275149            0   0.44929679    1.4891107     1.946335  0.099153201 
12680000   0.96005744 5.5362856e-05    0.4976267  0.010196253            0   0.48743044    1.4328857    1.9305124     5.757193 
12685000    1.0030199 4.9023039e-05   0.43151039  0.019288396            0   0.41222199    1.4970072    1.9285176    5.3169901 
12690000   0.98407042 -3.419202e-06   0.46723644  0.015273516            0   0.45196292    1.4687251    1.9359615    1.6996263 
12695000   0.98154092  -1.1334e-07   0.46791061 0.0094869363            0   0.45842367    1.4649498    1.9328604    1.9250264 
12700000   0.95814157 -4.4387289e-05     0.500763  0.023474438            0   0.47728856    1.4300263    1.9307893   -1.1372601 
12705000   0.98386546 -4.5057356e-05    0.4671413   0.01468098            0   0.45246032    1.4684192    1.9355605   -1.1788039 
12710000   0.95656873 -7.8181477e-05   0.51193108  0.014759655            0   0.49717143    1.4276788    1.9396099   -3.4642937 
12715000   0.97273987 2.5279571e-06   0.49190377  0.019876842            0   0.47202693    1.4518142     1.943718    2.1184504 
12720000   0.97442095 2.8817589e-05   0.49252574  0.020939641            0    0.4715861    1.4543233     1.946849    3.9387208 
12725000    1.0159197 -6.0454068e-06   0.43464351  0.010557114            0    0.4240864    1.5162601    1.9509036    1.5330451 
12730000   0.96778084 -2.3461723e-05   0.51107102   0.01178992            0    0.4992811    1.4444129    1.9554839   0.33380962 
12735000   0.95056365 -2.2792379e-05   0.53722825  0.031186294            0   0.50604196    1.4187163    1.9559445   0.38053529 
12740000   0.99466293 -2.7649004e-05   0.48779747  0.018213584            0   0.46958389    1.4845344    1.9723319  0.061232737 
12745000    1.0414515 -3.7095725e-05   0.44409671 0.0061588775            0   0.43793784    1.5543663     1.998463  -0.56559347 
12750000    1.0258922 2.9971803e-06   0.44732941  0.014557287            0   0.43277213    1.5311442    1.9784736    2.1856387 
12755000   0.96623549 2.4002699e-05   0.52902068  0.023720616            0   0.50530007    1.4421065    1.9711272    3.6301937 
12760000   0.98872934 -2.1611148e-05   0.50370593 0.0047958403            0   0.49891009    1.4756785    1.9793845   0.48562191 
12765000     1.026775 -6.7760567e-05   0.46026635  0.014046924            0   0.44621943    1.5324618    1.9927281   -2.6908823 
12770000    1.0038911 -8.2661165e-06    0.4967008 0.0052887956            0     0.491412    1.4983074    1.9950082    1.4236542 
12775000    1.0116287 3.4276899e-05   0.48155469 0.0058902846            0   0.47566441    1.5098559    1.9914106    4.3606298 
12780000    1.0108741 -1.1869496e-05   0.50526357  0.007899389            0   0.49736418    1.5087295    2.0139931    1.1935736 
12785000    1.0057442 -8.6548331e-06    0.5176932  0.018534639            0   0.49915856    1.5010733    2.0187665    1.4205444 
12790000    1.0167519 2.5716012e-05   0.50043715  0.015867661            0   0.48456949    1.5175022    2.0179393    3.7954301 
12795000    1.0221537 -1.452698e-05   0.49062047   0.01347356            0   0.47714691    1.5255645    2.0161849    1.0120801 
12800000   0.99244564 -4.3672092e-05   0.51864016  0.012147778            0   0.50649238    1.4812251    1.9998653   -1.0187497 
12805000    1.0263876 6.1642032e-06   0.47818814  0.019738365            0   0.45844978    1.5318835    2.0100717    2.4361414 
12810000    1.0391813 3.6560948e-05   0.44199765  0.016885669            0   0.42511198    1.5509781    1.9929758    4.5200685 
12815000   0.98113192 -5.5534303e-05   0.54915215  0.015920879            0   0.53323127    1.4643394    2.0134915   -1.8250395 
12820000   0.96755841 -1.0866477e-05   0.55556177  0.016283838            0   0.53927793    1.4440809    1.9996427    1.2485518 
12825000   0.99739519 -4.0341267e-05   0.51591325  0.026101276            0   0.48981198    1.4886123    2.0045256  -0.78386279 
12830000     1.008803 -2.4695253e-05   0.48464006  0.031333954            0   0.45330611    1.5056385    1.9902786   0.28334269 
12835000    1.0274662 9.2397272e-06   0.46301724  0.017242001            0   0.44577524    1.5334933    1.9965106    2.6351605 
12840000    1.0034643 -6.4315595e-05   0.48509209  0.025043025            0   0.46004906    1.4976705    1.9827626   -2.4627313 
12845000    1.0174911 -2.2818756e-05   0.45441901  0.031805658            0   0.42261335    1.5186054    1.9730244   0.39579202 
12850000    1.0390912 3.7882006e-05   0.41084471  0.020492645            0   0.39035207    1.5508437    1.9616884    4.5800926 
12855000    1.0069436 1.4197755e-05    0.4612298  0.022113536            0   0.43911627    1.5028633    1.9640931    2.9454419 
12860000    1.0268523 -1.593565e-05   0.45686983  0.017757808            0   0.43911202     1.532577    1.9894469   0.88797474 
12865000    1.0166612 -9.3556295e-05   0.48161834  0.024094108            0   0.45752423    1.5173668    1.9989851    -4.467626 
12870000    1.0146011 -6.1446114e-05   0.51421192   0.03671758            0   0.47749434    1.5142922    2.0285041   -2.2186513 
12875000    1.0498775 -3.022116e-05   0.45499307  0.016950822            0   0.43804225    1.5669422    2.0219352 -0.066951363 
12880000    1.0440386 3.5067002e-05   0.47584689  0.016197646            0   0.45964924    1.5582277    2.0340745    4.4579057 
12885000   0.99504275 -2.4588757e-05   0.54588022  0.026062893            0   0.51981733    1.4851013    2.0309815   0.33140663 
12890000    1.0475832 -1.9585764e-05   0.46678546  0.017502613            0   0.44928285    1.5635179    2.0303034   0.67653534 
12895000    1.0311384 2.851976e-05   0.46922115 0.0052740962            0   0.46394706    1.5389741    2.0081953    3.9794811 
12900000    0.9927773 -8.9616453e-06   0.52488934 0.0058586903            0   0.51903065    1.4817201    2.0066095    1.3871805 
12905000    1.0452685 3.1852571e-05   0.47566384  0.011206418            0   0.46445742    1.5600632    2.0357271    4.2373768 
12910000    1.0204319 -4.5480328e-05   0.49427273  0.023062308            0   0.47121042    1.5229946    2.0172673    -1.126333 
12915000    1.0227992 -2.9005482e-05   0.49738107  0.022493787            0   0.47488728    1.5265278    2.0239089   0.01904995 
12920000    0.9907998 -3.028827e-05   0.54235539  0.013052707            0   0.52930269    1.4787687    2.0211241 -0.072401112 
12925000    1.0194098 9.528306e-06   0.52702289  0.014853475            0   0.51216941    1.5214691    2.0484919    2.7070885 
12930000    1.0287537 1.4775404e-05   0.51684885  0.021568677            0   0.49528017    1.5354149    2.0522637    3.0735396 
12935000    1.0342375 -2.9023241e-05   0.49961157  0.020632835            0   0.47897874    1.5435994     2.043211  0.037124622 
12940000     1.012308 2.9955983e-05   0.53669311  0.011290456            0   0.52540266    1.5108696    2.0475628    4.1181203 
12945000    1.0308286 1.8850978e-05   0.49991838  0.019210686            0   0.48070769    1.5385117    2.0384301    3.3414097 
12950000   0.96985962 -2.0689018e-05    0.5700023  0.032344663            0   0.53765764    1.4475155    2.0175178   0.58749285 
12955000    1.0331888 -5.4278618e-05   0.47514127   0.01574909            0   0.45939218    1.5420343    2.0171756   -1.7345624 
12960000   0.95487822 -1.521953e-05   0.58743477   0.02618556            0   0.56124921    1.4251557    2.0125905    0.9606166 
12965000      1.03139 4.2391366e-05   0.48861767 0.0090210104            0   0.47959666    1.5393495    2.0279672    4.9580584 
12970000    1.0248865 -7.0658959e-06   0.49516416  0.012934434            0   0.48222972    1.5296431    2.0248073    1.5364126 
12975000    1.0345086 3.4507828e-05   0.47469391   0.01752989            0   0.45716402    1.5440042    2.0186981    4.4038792 
12980000   0.99486576 4.8676268e-05   0.53321901 0.0093997299            0   0.52381928    1.4848372    2.0180562    5.3825598 
12985000     1.039239 -6.3930094e-05   0.46433581   0.01324504            0   0.45109077    1.5510641    2.0153999   -2.4034482 
12990000   0.98202848 8.5868536e-06   0.53273222  0.010168926            0   0.52256329    1.4656775    1.9984097     2.591933 
12995000    1.0043446 3.8484734e-05   0.49688921 0.0083569661            0   0.48853224    1.4989843    1.9958735    4.6559383 
13000000   0.98439053 -5.8273354e-06   0.53291981  0.011383963            0   0.52153585    1.4692029    2.0021227    1.5993372 
13005000    1.0188152 3.7693282e-05   0.46921395  0.042648833            0   0.42656511    1.5205817    1.9897957    4.5951553 
13010000   0.96248979 3.8903607e-05   0.56495076  0.010416045            0   0.55453472     1.436516    2.0014668    4.6904841 
13015000    1.0041544 4.1513018e-05    0.5002399  0.014276928            0   0.48596297    1.4987004    1.9989403    4.8683201 
13020000   0.98093305 -4.6698555e-05   0.54500192  0.017635575            0   0.52736635    1.4640426    2.0090445   -1.2187596 
13025000    1.0217913 -9.8319532e-05   0.48596603  0.023427316            0   0.46253871    1.5250236    2.0109896   -4.7848564 
13030000    1.0109618 1.8944255e-05   0.50338106  0.038463917            0   0.46491714    1.5088605    2.0122416    3.3216685 
13035000   0.99941838 6.9697378e-05   0.52623588   0.01572423            0   0.51051164    1.4916319    2.0178678    6.8353506 
13040000   0.96980909 1.3130399e-05   0.56518717 0.0079445084            0   0.55724266    1.4474401    2.0126272    2.9202004 
13045000    1.0093781 2.2671295e-05   0.50087101  0.020079624            0   0.48079139    1.5064969    2.0073679    3.5744078 
13050000    1.0221028 2.5238533e-07   0.46045613   0.01246911            0   0.44798702    1.5254884    1.9859445    2.0033894 
13055000     1.021955 -3.8767353e-06   0.46561201  0.037817043            0   0.42779496    1.5252678    1.9908798    1.7229199 
13060000    0.9532225 -5.1402093e-05   0.54147626  0.030876856            0    0.5105994    1.4226846    1.9641608   -1.5887518 
13065000    1.0010814 -4.1711782e-05   0.47819395  0.018590002            0   0.45960395     1.494114    1.9723079  -0.91081046 
13070000   0.97001257 -5.3050137e-05   0.52056302 0.0053503641            0   0.51521265    1.4477438    1.9683068   -1.6985187 
13075000    1.0057273 -1.3469962e-05   0.45652888 0.0077582439            0   0.44877063     1.501048    1.9575769    1.0265331 
13080000    0.9534263 -4.1658548e-05   0.54595785  0.030914369            0   0.51504349    1.4229888    1.9689466  -0.91049223 
13085000   0.98088604 3.088029e-05    0.4979468  0.017081502            0    0.4808653    1.4639724    1.9619192    4.0963649 
13090000   0.97581675 9.5121887e-05   0.50381377  0.012973876            0    0.4908399    1.4564065    1.9602203    8.5350451 
13095000    1.0211757 -5.9303643e-05   0.44311319  0.015942789            0    0.4271704    1.5241047    1.9672179   -2.1318499 
13100000   0.98769318 -9.8090725e-05    0.5089919  0.020559087            0   0.48843281    1.4741321     1.983124   -4.7969069 
13105000   0.99385627 4.2361291e-05   0.48640342  0.026608579            0   0.45979484    1.4833305    1.9697339    4.8977464 
13110000   0.99126963 6.0280903e-05   0.51023577  0.018075366            0    0.4921604    1.4794699    1.9897057    6.1563217 
13115000   0.99199366 4.7723427e-05   0.50243473  0.012487226            0    0.4899475    1.4805505    1.9829853    5.2816285 
13120000   0.95732203 4.7998922e-05   0.55390028   0.01475474            0   0.53914554    1.4288031    1.9827034    5.3003889 
13125000    1.0507705 -3.5264168e-06   0.44354648   0.01118081            0   0.43236567     1.568275    2.0118215    1.7680756 
13130000    1.0320494 -6.913994e-06    0.4917075 0.0040708131            0   0.48763669    1.5403338    2.0320413     1.554146 
13135000    1.0644363 1.3387058e-05   0.43836852  0.011736605            0   0.42663191    1.5886711    2.0270396    2.9523531 
13140000    1.0030195 1.8978665e-05   0.52823596  0.011713362            0    0.5165226    1.4970067    2.0252426     3.337048 
13145000    1.0417915 5.3736208e-05   0.48467647  0.046525564            0    0.4381509    1.5548738    2.0395502     5.753797 
13150000   0.98426648 4.4162823e-07   0.55427497  0.027154123            0   0.52712085    1.4690177    2.0232927     2.053818 
13155000   0.98884638 -6.57754e-05   0.54084245  0.020425923            0   0.52041653    1.4758532    2.0166957   -2.5296999 
13160000   0.97493937 -2.8199904e-05   0.54199197  0.013126113            0   0.52886586     1.455097     1.997089  0.047911592 
13165000    1.0176917 6.3854743e-05   0.50752261  0.019126634            0   0.48839597    1.5189049    2.0264275    6.4400673 
13170000    1.0112391 -6.7835571e-08   0.52351227 0.0089700832            0   0.51454219    1.5092743    2.0327866    2.0280978 
13175000     1.006881 -4.5217609e-05   0.53699761 0.0077326647            0   0.52926494    1.5027699    2.0397675   -1.0856737 
13180000    1.0444731 -3.9470356e-05   0.48723276  0.014165233            0   0.47306752    1.5588761    2.0461089  -0.68208217 
13185000    1.0486147 2.0354756e-05   0.49952553  0.020128788            0   0.47939674    1.5650575     2.064583    3.4715038 
13190000    1.0512568 -4.785985e-05   0.51475712  0.014935279            0   0.49982184    1.5690007    2.0837579   -1.2243149 
13195000    1.0694364 1.0914489e-05     0.483436  0.012067105            0    0.4713689    1.5961338    2.0795698    2.8339792 
13200000    1.0842634 -4.3025077e-05   0.47355979  0.011314337            0   0.46224545    1.6182632    2.0918229  -0.88207041 
13205000    1.0485816 -7.4072072e-05   0.52226918  0.012798966            0   0.50947022     1.565008    2.0872772   -3.0325845 
13210000    1.0085023 2.9964585e-05   0.55101888  0.020403452            0   0.53061543    1.5051896    2.0562085    4.1273606 
13215000    1.0128703 -2.1808148e-07   0.53009399 0.0093112373            0   0.52078275    1.5117089    2.0418029    2.0267291 
13220000    1.0626954 -1.5917441e-05   0.45598673 0.0086854727            0   0.44730126    1.5860728    2.0420596   0.94184604 
13225000    1.0228797 2.2913105e-05    0.5024869  0.013266651            0   0.48922025    1.5266479    2.0291348    3.6128886 
13230000    1.0695239 1.2335216e-05   0.42041789  0.016847365            0   0.40357053    1.5962645    2.0166824    2.8692925 
13235000    1.0038161 2.6472828e-05    0.5015371  0.029741849            0   0.47179525    1.4981955    1.9997326    3.8295345 
13240000   0.96848291 5.7699687e-05   0.54103473  0.042963024            0   0.49807171    1.4454607    1.9864955    5.9746979 
13245000   0.99397643 -2.9403411e-05   0.51822373  0.027611954            0   0.49061178    1.4835098    2.0017335 -0.030630196 
13250000    1.0319066 -4.9023079e-05   0.47893422  0.010783296            0   0.46815092    1.5401206    2.0190548   -1.3694204 
13255000    1.0610351 -1.3372403e-05    0.4341366  0.018755104            0    0.4153815    1.5835949    2.0177315    1.0934311 
13260000   0.96478035 -3.5033728e-05   0.55987303  0.021729981            0   0.53814305    1.4399347    1.9998077  -0.42172357 
13265000    1.0249118 -8.7731052e-06   0.45024291 0.0099289966            0   0.44031391    1.5296809    1.9799238    1.3735268 
13270000   0.96944626 -2.4589859e-05   0.55043652 0.0050501618            0   0.54538635    1.4468985    1.9973351     0.297684 
13275000     1.003445 7.4469303e-06   0.50061249  0.017201562            0   0.48341093    1.4976416    1.9982541     2.512986 
13280000     1.032127 -8.1742744e-05   0.46141678  0.016494538            0   0.44492224    1.5404495    2.0018663   -3.6481922 
13285000    1.0087063 -4.3959229e-05   0.50632638  0.011090668            0   0.49523571    1.5054942    2.0118206   -1.0266413 
13290000    1.0228066 3.6417482e-05   0.50240778  0.018417939            0   0.48398984    1.5265389    2.0289467     4.546123 
13295000   0.97810306 -2.0077708e-05   0.56107619  0.021043733            0   0.54003245    1.4598188     2.020895   0.63312384 
13300000    1.0073736 8.0770855e-06   0.51953446  0.022330965            0    0.4972035    1.5035051    2.0230396    2.5813277 
13305000   0.99557781 -1.2889535e-05   0.54928392  0.030883007            0   0.51840091    1.4858999    2.0351838    1.1442591 
13310000     1.040828 3.0276202e-08   0.47915659  0.034368995            0    0.4447876    1.5534358    2.0325924     2.034685 
13315000   0.99956191 -2.5735175e-06   0.53504757  0.011756847            0   0.52329072    1.4918462    2.0268937    1.8490122 
13320000    1.0177609 -8.0068628e-05   0.48170096 0.0084403524            0    0.4732606    1.5190081     2.000709   -3.5336346 
13325000    1.0202986 2.8731599e-05   0.47990688  0.015724954            0   0.46418193    1.5227956    2.0027025    3.9886307 
13330000   0.96446771 5.7797341e-05   0.55297898  0.030984386            0    0.5219946    1.4394681     1.992447    5.9873992 
13335000   0.98145832 1.577736e-05   0.54925658  0.041296632            0   0.50795995    1.4648265    2.0140831    3.1046142 
13340000   0.99255821 -1.0994304e-05   0.52643477   0.06392301            0   0.46251176    1.4813931    2.0078279    1.2479016 
13345000   0.95676356 1.316117e-06   0.60432007  0.028381205            0   0.57593886    1.4279696    2.0322897    2.1232597 
13350000    1.0580264 2.9520175e-05   0.45789598 0.0044184762            0    0.4534775    1.5791044    2.0370004    4.0774349 
13355000    1.0284578 -1.1438461e-05   0.49404707  0.013623859            0   0.48042321    1.5349733    2.0290204    1.2383939 
13360000   0.96608639 -3.7651244e-05   0.60334561  0.021036412            0    0.5823092    1.4418839    2.0452295  -0.55722447 
13365000    1.0435673 -6.6888444e-05   0.48427036  0.011741291            0   0.47252907    1.5575241    2.0417945   -2.5815347 
13370000    1.0142538 2.8592315e-05   0.52711687 0.0058965329            0   0.52122034    1.5137738    2.0408907    4.0171915 
13375000    1.0336872 -1.4835536e-05   0.49086356  0.010941184            0   0.47992238    1.5427782    2.0336418    1.0082095 
13380000    1.0237845 -5.0265073e-05   0.49372402 0.0092733073            0   0.48445071    1.5279983    2.0217224   -1.4525995 
13385000   0.99350984 -2.8593909e-05   0.53267792  0.010431731            0   0.52224619    1.4828134    2.0154914  0.039080344 
13390000   0.99007412 -5.7000176e-05   0.55252842  0.021364864            0   0.53116355    1.4776856     2.030214   -1.9096381 
13395000   0.98811045 1.8365389e-06   0.59635139  0.011904021            0   0.58444737    1.4747548    2.0711062    2.1980478 
13400000    1.0012696 5.7468577e-06   0.58229158  0.020106078            0    0.5621855    1.4943949    2.0766865    2.4739093 
13405000    1.0333015 3.6669377e-05   0.51683303  0.029984946            0   0.48684808    1.5422026    2.0590356    4.5936229 
13410000    1.0354961 9.9876544e-06   0.51605312  0.035844504            0   0.48020861    1.5454779     2.061531    2.7518777 
13415000   0.99706878 2.0895631e-05   0.57506699  0.029704715            0   0.54536227    1.4881252    2.0631921    3.5074982 
13420000    1.0527496 -2.0264083e-05   0.49107149  0.041429462            0   0.44964203    1.5712288    2.0623003   0.66164688 
13425000    1.0254683 -4.0752583e-05   0.53567042  0.047805847            0   0.48786457    1.5305115    2.0661819  -0.75063663 
13430000    1.0412007 -1.4894358e-05   0.52487294  0.019476895            0   0.50539605     1.553992    2.0788649    1.0493669 
13435000    1.0539459 4.2830329e-05   0.48874044  0.027111333            0    0.4616291    1.5730142    2.0617547     5.022187 
13440000    1.0435179 2.1434131e-05   0.48614174  0.022465189            0   0.46367655    1.5574504    2.0435922    3.5251193 
13445000   0.99414368 -2.8921032e-06   0.56324076  0.015727716            0   0.54751304    1.4837594    2.0470002     1.847098 
13450000   0.97087484 4.2058327e-05   0.61462624  0.046540899            0   0.56808534    1.4490307    2.0636569    4.9707285 
13455000    1.0303265 4.150161e-05   0.53883449   0.03525616            0   0.50357833    1.5377622    2.0765967     4.945188 
13460000    1.0076413 -4.4339547e-06   0.56437678  0.011734761            0   0.55264202    1.5039047    2.0682814    1.7618065 
13465000    0.9967153 -6.3921848e-05   0.57587262  0.028121392            0   0.54775123    1.4875976    2.0634702   -2.3548079 
13470000    1.0162014 -8.3251678e-06   0.54873038  0.031356461            0   0.51737391    1.5166806     2.065411    1.4899754 
13475000    1.0231673 2.0741966e-05   0.53056326  0.030201502            0   0.50036175    1.5270772    2.0576405    3.4913252 
13480000    1.0207953 9.4287949e-08   0.53066787  0.027530025            0   0.50313784    1.5235369    2.0542048     2.060722 
13485000    1.0407873 1.1491496e-06   0.52302226  0.023775462            0    0.4992468     1.553375    2.0763973    2.1558265 
13490000    1.0086005 3.6059402e-05   0.59330735  0.014366416            0   0.57894094    1.5053362    2.0986436    4.5910694 
13495000    1.0731811 2.3984108e-06     0.495747  0.017192838            0   0.47855416    1.6017228    2.0974698     2.263248 
13500000    1.0484886 -6.9829518e-06   0.52653012  0.025888753            0   0.50064137    1.5648693    2.0913994    1.6087377 
13505000    1.0289516 -2.3794904e-06   0.53381946  0.021585018            0   0.51223444    1.5357103    2.0695297    1.9050593 
13510000    1.0062438 -3.9505164e-05   0.57032427  0.025203365            0   0.54512091    1.5018189    2.0721431  -0.65845379 
13515000    1.0402176 -8.9326073e-06   0.53584777  0.028371303            0   0.50747647    1.5525248    2.0883726    1.4709508 
13520000    1.0209868 1.2967322e-05   0.56579348  0.020976634            0   0.54481685    1.5238228    2.0896163    2.9859176 
13525000     1.003267 3.0935032e-05   0.59219278  0.025511277            0    0.5666815     1.497376    2.0895688    4.2277982 
13530000    1.0209214 3.3846845e-05    0.5818679  0.040727042            0   0.54114086    1.5237252    2.1055931    4.4450871 
13535000   0.98553763 4.5554496e-05   0.63441463  0.060863608            0   0.57355102    1.4709149    2.1053295    5.2540563 
13540000     1.039827 5.6920697e-05   0.55726553  0.048656502            0   0.50860902    1.5519418    2.1092074    6.0435659 
13545000    1.0506682 1.910655e-05    0.5528732  0.018434481            0   0.53443872    1.5681222    2.1209954    3.4416401 
13550000     1.075333 -3.7666834e-05   0.52919678 0.0075146519            0   0.52168213    1.6049345    2.1341313  -0.46940024 
13555000    1.0579255 -2.496982e-06   0.53739241  0.021241098            0   0.51615131    1.5789539    2.1163463    1.9437549 
13560000    1.0309899 5.4518238e-05   0.55535815  0.015683336            0   0.53967481    1.5387525    2.0941106    5.8624112 
13565000    1.0565903 1.219183e-05   0.51120585  0.023175292            0   0.48803056    1.5769611    2.0881669    2.9308662 
13570000   0.98972131 -2.1846085e-05   0.59447694  0.039677453            0   0.55479949    1.4771591     2.071636   0.56163459 
13575000   0.96155655 -3.3600648e-05   0.62427097  0.014521408            0   0.60974956    1.4351231    2.0593941  -0.26308268 
13580000    1.0341746 -4.9434705e-05   0.51799191 0.0080319641            0   0.50995995    1.5435056    2.0614975   -1.3554293 
13585000   0.99726255 -1.1969112e-05   0.53921344  0.019519215            0   0.51969423    1.4884144    2.0276278    1.2003227 
13590000    1.0079214 -2.6134456e-05   0.50942119   0.02939529            0    0.4800259    1.5043227    2.0137439   0.20733037 
13595000    1.0185317 -3.7207659e-05    0.4962525  0.017128482            0   0.47912402    1.5201585     2.016411  -0.55538241 
13600000   0.98980091 1.3075849e-05   0.53029628   0.02082786            0   0.50946842    1.4772779    2.0075741    2.9113769 
13605000   0.93350186 4.8455009e-05   0.61146643  0.013126415            0   0.59834002    1.3932515     2.004718    5.3539282 
13610000   0.99551386 1.9513222e-05    0.5162781  0.011133033            0   0.50514507    1.4858044    2.0020825    3.3508365 
13615000   0.96216122 -3.0566516e-05   0.57236084  0.010944251            0   0.56141659    1.4360256    2.0083865  -0.10437114 
13620000   0.93181858 3.5151938e-05   0.62487011   0.02107053            0   0.60379958    1.3907392    2.0156093    4.4453113 
13625000   0.95444508 3.8189174e-06   0.59089466  0.025964294            0   0.56493037    1.4245093    2.0154039    2.2793675 
13630000    1.0007483 -1.8857362e-05   0.52690694  0.016696012            0   0.51021092    1.4936168    2.0205237   0.71710286 
13635000   0.93979074 -1.0770229e-05   0.60572058   0.03926541            0   0.56645517    1.4026377    2.0083583      1.26392 
13640000   0.95973491 3.8308144e-06   0.58416132  0.038835282            0   0.54532604    1.4324044    2.0165657    2.2813516 
13645000   0.97180306 1.2239292e-05   0.58199844  0.014542224            0   0.56745621    1.4504161    2.0324145    2.8783944 
13650000   0.96674823 -2.1467566e-05   0.58506116  0.019560986            0   0.56550017    1.4428717    2.0279329    0.5440947 
13655000   0.96905173 -2.5717052e-05   0.58845719  0.020322186            0     0.568135    1.4463097    2.0347669   0.25720425 
13660000    1.0146208 2.878418e-05   0.52412866  0.031887908            0   0.49224075    1.5143215    2.0384501    4.0280127 
13665000   0.98346211 4.8936723e-05    0.5479772  0.016305233            0   0.53167197    1.4678172    2.0157944    5.3983007 
13670000   0.97687176 1.7938245e-06   0.55054311 0.0057502135            0    0.5447929    1.4579811    2.0085242    2.1325134 
13675000    1.0094163 -4.2523455e-05   0.50211886 0.0098239816            0   0.49229487    1.5065539    2.0086727  -0.93054851 
13680000   0.93608969 -1.8960447e-05   0.60809308  0.031552706            0   0.57654038    1.3971139     2.005207   0.69466082 
13685000   0.95145232 3.6363752e-05   0.57942278   0.02699162            0   0.55243116    1.4200426    1.9994654    4.5129279 
13690000      0.99537 2.691047e-05   0.50684937  0.032975169            0    0.4738742    1.4855897    1.9924391    3.8524908 
13695000    0.9545541 4.3445706e-05   0.58096718  0.039730092            0   0.54123709     1.424672    2.0056392    5.0086063 
13700000    0.9230341 1.0759961e-05    0.5995011 0.0076758256            0   0.59182527    1.3776284    1.9771295     2.720858 
13705000   0.95832789 -3.252455e-05   0.56107091  0.013566469            0   0.54750444    1.4303044    1.9913753  -0.25672165 
13710000    0.9369809 3.1182499e-05   0.58099771  0.027082709            0     0.553915     1.398444    1.9794417     4.134776 
13715000   0.95764879 5.5140075e-06   0.57007436  0.011467166            0   0.55860719    1.4292908    1.9993652    2.3804934 
13720000    1.0192518 -3.0149935e-05   0.46744543  0.015524064            0   0.45192137    1.5212332    1.9886787 -0.095284831 
13725000   0.99449452 -1.3004935e-05   0.49735917  0.019989432            0   0.47736974    1.4842831    1.9816422    1.0827411 
13730000   0.96586075 -2.2629755e-05   0.54930724  0.017558529            0   0.53174871    1.4415472    1.9908544   0.42668575 
13735000   0.93284256 3.0839537e-08   0.58346452  0.019367539            0   0.56409698    1.3922675     1.975732    1.9778637 
13740000   0.96753171 -6.7379513e-06   0.53450163  0.030093878            0   0.50440776    1.4440411    1.9785427    1.5128155 
13745000   0.95894745 -1.4782255e-05   0.53606872   0.01315667            0   0.52291205    1.4312291    1.9672978   0.94554831 
13750000   0.93779526 -4.0707963e-05   0.55530783  0.015553577            0   0.53975425    1.3996594    1.9549673  -0.85876717 
13755000   0.96159903 -2.9395464e-05   0.50994234  0.015553469            0   0.49438887    1.4351866    1.9451289 -0.086685545 
13760000   0.92041915 -2.3690668e-05   0.56766042  0.017321591            0   0.55033883    1.3737256     1.941386   0.30388702 
13765000   0.95574657 -1.8723673e-06    0.5099553  0.030998833            0   0.47895646    1.4264518     1.936407     1.806989 
13770000   0.97298801 4.7965208e-05   0.48560574  0.023225201            0   0.46238054    1.4521846    1.9377903    5.2531455 
13775000   0.94700005 1.7675422e-05    0.5193729 0.0044506967            0   0.51492221    1.4133976    1.9327705    3.1544957 
13780000   0.97600234 -7.9728713e-05   0.48659021 0.0024501187            0   0.48414009    1.4566835    1.9432737   -3.5675749 
13785000   0.93749632 -6.8238624e-05   0.54642305 0.0080150055            0   0.53840805    1.3992133    1.9456363   -2.7710174 
13790000   0.97173466 -1.5971295e-05   0.49062289  0.017526063            0   0.47309683     1.450314    1.9409369   0.83700094 
13795000   0.94480741 3.1774029e-05   0.52798951  0.017583778            0   0.51040573    1.4101251    1.9381146    4.1343354 
13800000   0.96171804 -6.7366699e-06   0.51712062 0.0062249632            0   0.51089566    1.4353642    1.9524848    1.4868462 
13805000   0.96871569 -5.3779445e-05   0.50584598  0.013851189            0   0.49199479    1.4458082    1.9516541   -1.7655811 
13810000   0.95511021 -4.1615489e-05   0.52468495  0.015743626            0   0.50894132     1.425502    1.9501869  -0.92627566 
13815000   0.93652981 -1.2893949e-05   0.55805224  0.011082888            0   0.54696935    1.3977707     1.955823    1.0645932 
13820000   0.95730894 -5.396495e-05   0.52266848  0.013630872            0   0.50903761    1.4287836    1.9514521   -1.7786052 
13825000   0.96297615 -3.0591629e-05   0.54015103  0.026872218            0   0.51327881    1.4372419    1.9773929  -0.13710046 
13830000   0.96545317 6.1779764e-05   0.54748062 0.0093203964            0   0.53816023    1.4409388    1.9884195    6.2586368 
13835000   0.91441011 8.6841346e-05   0.61444157  0.025181642            0   0.58925993    1.3647571    1.9791987    7.9816725 
13840000   0.96027064 1.9609162e-05   0.55063645  0.038731858            0    0.5119046    1.4332039    1.9838404    3.3392256 
13845000   0.93315814 -3.4208314e-06   0.59201764  0.028106149            0   0.56391149    1.3927385    1.9847562    1.7483083 
13850000   0.96551882 1.3162415e-06   0.53452751  0.035856643            0   0.49867086    1.4410368    1.9755644     2.066543 
13855000   0.99718541 -4.009346e-06    0.4955595  0.011306155            0   0.48425334    1.4882992    1.9838587    1.7067327 
13860000   0.98971272 2.5581029e-05   0.50458981  0.018256039            0   0.48633377    1.4771462     1.981736    3.7498968 
13865000    1.0193127 -3.395145e-05   0.44365303 0.0052708176            0   0.43838221    1.5213242    1.9649772  -0.38174706 
13870000     1.010603 -7.2591427e-05   0.44391922   0.01232228            0   0.43159694    1.5083249    1.9522442   -3.0652753 
13875000   0.99459373 -8.0739047e-06   0.47991552   0.00679881            0   0.47311671    1.4844311    1.9643467    1.4062784 
13880000    1.0107141 9.0658338e-05   0.45772955 0.0035286919            0   0.45420086    1.5084909    1.9662204    8.2325247 
13885000   0.96996417 3.8584374e-05   0.52765145  0.016625852            0    0.5110256    1.4476715     1.975323    4.6422749 
13890000   0.99600997 -2.2932037e-06    0.5143864  0.019712637            0   0.49467376    1.4865449    2.0009313     1.842425 
13895000   0.98572991 4.7905336e-05   0.51976717  0.022946919            0   0.49682025    1.4712019    1.9909691    5.3021859 
13900000   0.98622318 -1.3818062e-05   0.52344852  0.018333119            0    0.5051154    1.4719381    1.9953866    1.0402822 
13905000   0.99317399 -1.5747179e-05   0.50473038  0.019362584            0    0.4853678    1.4823122    1.9870426   0.89859758 
13910000   0.99794227 2.6244372e-05   0.48168481  0.017233404            0   0.46445141    1.4894288    1.9711137    3.7851246 
13915000   0.97000211 9.6132783e-06   0.54449434   0.01894588            0   0.52554846    1.4477282    1.9922225    2.6566923 
13920000   0.98116122 8.3049981e-06   0.52014878  0.029089126            0   0.49105966    1.4643831    1.9845319    2.5585734 
13925000   0.98162364 7.6490116e-06   0.50478348    0.0177819            0   0.48700158    1.4650733    1.9698568    2.4985564 
13930000   0.97425958 1.3233068e-05   0.52703313  0.012468481            0   0.51456465    1.4540824    1.9811156    2.8957852 
13935000   0.98054262 3.7195739e-06   0.51104471  0.010099164            0   0.50094555    1.4634599    1.9745046    2.2316015 
13940000   0.95606873 -1.0916698e-05   0.55497938  0.028907496            0   0.52607188    1.4269326     1.981912    1.2273498 
13945000   0.96831969 -3.0639759e-05   0.53940946  0.013994169            0   0.52541529    1.4452171    1.9846266  -0.13319358 
13950000    1.0314017 -1.9571119e-06   0.45604357  0.014505059            0   0.44153851     1.539367    1.9954106     1.860135 
13955000    1.0498955 2.9192072e-05   0.46168592  0.017378033            0   0.44430788     1.566969    2.0286549    4.0464109 
13960000   0.99816084 -4.3294487e-05    0.5468362  0.017169709            0    0.5296665    1.4897551    2.0365913  -0.95592366 
13965000   0.99515305 -1.2245696e-05   0.55022104 0.0084543929            0   0.54176665    1.4852659     2.035487    1.1890644 
13970000    1.0471701 5.6031654e-05   0.48363032 0.0055399106            0   0.47809041    1.5629014    2.0465317    5.9194396 
13975000    1.0336093 -2.0143979e-05   0.49116865    0.0154044            0   0.47576425    1.5426619    2.0338306   0.64147872 
13980000   0.97245101 9.3049785e-06   0.57123791   0.02360362            0   0.54763429    1.4513831     2.022621    2.6657812 
13985000    1.0421771 3.2068841e-05   0.46105673   0.01633703            0    0.4447197    1.5554493     2.016506    4.2331043 
13990000   0.97646573 -2.8421409e-05   0.57122036  0.033954551            0   0.53726581    1.4573751    2.0285955  0.064107696 
13995000   0.98606738 -6.9204326e-05     0.558026  0.024762326            0   0.53326368    1.4717056    2.0297316   -2.7536715 
14000000   0.99483877 1.1593793e-05    0.5401388 0.0066629614            0   0.53347584    1.4847969    2.0249357    2.8262986 
14005000   0.98314493 4.1571533e-05   0.55378656  0.018524678            0   0.53526188    1.4673438    2.0211304    4.8945547 
14010000   0.99753164 3.1025656e-05   0.51172896  0.024181865            0    0.4875471     1.488816    2.0005449    4.1450383 
14015000   0.97327956 9.9122449e-06   0.56702928  0.017600166            0   0.54942912    1.4526197     2.019649    2.7047834 
14020000   0.97879562 -2.1578743e-05   0.56923004  0.026040483            0   0.54318955    1.4608525    2.0300825   0.53855979 
14025000    1.0330786 2.4843514e-05    0.4817188   0.01220644            0   0.46951236    1.5418699    2.0235887    3.7407723 
14030000   0.93781515 5.9730245e-05   0.62999234 0.0067200604            0   0.62327228    1.3996891    2.0296815     6.158236 
14035000    1.0733158 2.5859551e-05   0.44190324  0.018039611            0   0.42386363    1.6019238    2.0438271    3.8312392 
14040000    1.0659166 -8.4859501e-06   0.47137594  0.009734564            0   0.46164138    1.5908805    2.0622564    1.4757076 
14045000    1.0227331 -1.0147238e-05   0.53218202  0.008525564            0   0.52365646    1.5264291    2.0586111     1.357234 
14050000    0.9326406 -8.172534e-05   0.68567016  0.024803596            0   0.66086656    1.3919661    2.0776362   -3.5712193 
14055000    1.0563741 -5.1286681e-06   0.49660674  0.026711892            0   0.46989485    1.5766383    2.0732451    1.7187515 
14060000    1.0517398 3.3448641e-05   0.50894938  0.011743876            0    0.4972055    1.5697216     2.078671    4.3906411 
14065000    1.0098185 -8.2550269e-06   0.58355567  0.017942341            0   0.56561333    1.5071541    2.0907098    1.5201223 
14070000    1.0245443 8.400013e-06   0.56596168  0.024473733            0   0.54148794    1.5291324     2.095094    2.6757029 
14075000    1.0383234 -4.5180486e-06   0.53212414  0.020065866            0   0.51205828    1.5496976    2.0818218    1.7695343 
14080000    1.0237245 5.3749311e-05    0.5647052  0.025397841            0   0.53930736    1.5279088     2.092614    5.8077664 
14085000   0.99072072 1.674978e-05   0.58494493  0.015660108            0   0.56928482    1.4786507    2.0635956    3.2213404 
14090000    1.0300591 -8.2544107e-06    0.5259412  0.019426013            0   0.50651518    1.5373632    2.0633044    1.4927596 
14095000     1.018339 1.9019784e-05    0.5534472    0.0208207            0    0.5326265    1.5198709    2.0733181    3.3879656 
14100000   0.99071024 3.5030065e-05   0.59929985  0.017000018            0   0.58229984     1.478635    2.0779349     4.499213 
14105000     1.015573 1.746688e-05   0.56170763  0.005267883            0   0.55643975    1.5157426    2.0774503     3.284761 
14110000    1.0088024 -7.481348e-05   0.57802947  0.013004264            0    0.5650252    1.5056376    2.0836671   -3.0874406 
14115000    1.0432684 -5.4437323e-05   0.52359697  0.028603291            0   0.49499368    1.5570781    2.0806751   -1.6820327 
14120000    1.0069703 5.2537433e-06    0.5629129  0.035244727            0   0.52766817    1.5029032    2.0658161    2.4289548 
14125000    1.0100397 2.2639447e-05   0.56436654   0.01290683            0   0.55145971    1.5074843    2.0718508    3.6366894 
14130000    1.0184813 2.7795727e-06   0.56059964  0.020776197            0   0.53982345    1.5200833    2.0806829     2.272807 
14135000    1.0408572 3.0499429e-05   0.52359921  0.013238985            0   0.51036022    1.5534793    2.0770786    4.1851991 
14140000    1.0335169 3.7143474e-05   0.51260484  0.011411457            0   0.50119339    1.5425239    2.0551288    4.6224857 
14145000    1.0523315 1.7245382e-06   0.49668967 0.0092208093            0   0.48746886    1.5706048    2.0672944    2.1864945 
14150000    1.0404882 -5.9223882e-07   0.50724533  0.015074324            0     0.492171    1.5529287     2.060174    2.0192384 
14155000   0.99452402 2.5073678e-05    0.5824905  0.023065595            0   0.55942491    1.4843271    2.0668176    3.7999102 
14160000    1.0151313 6.4213805e-05   0.54263521  0.032011001            0   0.51062421    1.5150835    2.0577187    6.4961769 
14165000    1.0338072 6.8110513e-06   0.49298134  0.031955196            0   0.46102614    1.5429572    2.0359386    2.5067184 
14170000    1.0091707 -3.7359795e-05   0.53750083  0.012468149            0   0.52503268    1.5061873    2.0436882  -0.53862083 
14175000    1.0058224 -2.715711e-05   0.53835519   0.03323226            0   0.50512293      1.50119    2.0395452   0.16244575 
14180000     1.001583 -1.7526646e-05   0.55912306  0.041733997            0   0.51738906    1.4948626    2.0539856   0.84254384 
14185000    1.0641437 -8.0076292e-06   0.48953876 0.0098749062            0   0.47966386    1.5882344    2.0777732    1.5242858 
14190000    1.0389311 5.1437877e-05   0.52504851  0.012006084            0   0.51304243    1.5506046    2.0756531    5.6310392 
14195000    1.0200207 -2.3225995e-05   0.54847352   0.02559744            0   0.52287608    1.5223809    2.0708545   0.46547367 
14200000   0.99434631 -5.2823411e-05   0.57890602  0.065361549            0   0.51354448    1.4840619    2.0629679   -1.5881863 
14205000    1.0270593 2.7587723e-06   0.54974744  0.012072384            0   0.53767505     1.532886    2.0826334    2.2733197 
14210000    1.0224486 -1.8428541e-05   0.55568306  0.011793738            0   0.54388932    1.5260046    2.0816877   0.80790694 
14215000    1.0575686 1.5124721e-05   0.52927236  0.013585158            0   0.51568721    1.5784211    2.1076935    3.1531142 
14220000    1.0227158 1.4422001e-05   0.58001059  0.029833136            0   0.55017745    1.5264033    2.1064139    3.1032626 
14225000    1.0153743 5.2211378e-05   0.58938697  0.019246216            0   0.57014076    1.5154462    2.1048332    5.7136836 
14230000    1.0404535 3.0151004e-05    0.5514181 0.0065417227            0   0.54487638    1.5528768    2.1042949    4.1883323 
14235000    1.0643936 8.1064221e-06   0.52559514  0.016637816            0   0.50895732    1.5886074    2.1142025    2.6745184 
14240000    1.0727656 -1.7495772e-05   0.52153413  0.012445752            0   0.50908838    1.6011027    2.1226368   0.91332901 
14245000    1.0683721 -7.6592804e-05   0.51541067 0.0042555095            0   0.51115516    1.5945454     2.109956   -3.1841386 
14250000    1.0231623 -2.8301697e-05   0.58431612  0.015554524            0    0.5687616    1.5270697    2.1113858   0.15517249 
14255000    1.0689401 -2.2148578e-05   0.52604705  0.021687195            0   0.50435985    1.5953931    2.1214402   0.59053045 
14260000    1.0561396 -1.6361419e-05   0.54711736  0.039898235            0   0.50721912    1.5762883    2.1234056   0.99250437 
14265000    1.0750234 -1.8540452e-05    0.5136278  0.028263402            0    0.4853644    1.6044724    2.1181002   0.83658413 
14270000    1.0232426 -3.4866271e-05   0.55628743 0.0076803527            0   0.54860707    1.5271896    2.0834771  -0.32647962 
14275000    1.0860231 -2.6801177e-05   0.47842423 0.0069080947            0   0.47151614    1.6208895    2.0993137   0.24681634 
14280000    1.0356225 2.5192563e-06   0.56729594  0.016032945            0     0.551263    1.5456665    2.1129625    2.2870935 
14285000    1.0229704 2.0417752e-05   0.58270508   0.02835087            0   0.55435421    1.5267833    2.1094884    3.5207634 
14290000    1.0201005 6.4342535e-05   0.57825373  0.012661345            0   0.56559238       1.5225    2.1007538    6.5481098 
14295000    1.0578898 4.2440863e-05   0.51017921  0.017303768            0   0.49287544    1.5789005    2.0890797    5.0225922 
14300000    1.0436542 -6.4706872e-05   0.52848556  0.034583074            0   0.49390249    1.5576538    2.0861394   -2.3863996 
14305000    1.0330512 -7.4783627e-05   0.57814594  0.028237705            0   0.54990824     1.541829    2.1199749   -3.0490694 
14310000    1.0382783 1.1444745e-05   0.56586064  0.017428294            0   0.54843235    1.5496303     2.115491    2.9065517 
14315000    1.0132652 5.5836935e-05   0.60827413   0.01923251            0   0.58904162    1.5122983    2.1205724    5.9800213 
14320000    1.0394672 2.2059342e-05   0.57383406  0.019103134            0   0.55473093    1.5514049    2.1252389    3.6499807 
14325000    1.0843142 -5.1114461e-05   0.49483303  0.033037548            0   0.46179548    1.6183389    2.1131719   -1.4198596 
14330000    1.0375601 -4.5298505e-05   0.57222788  0.020604205            0   0.55162368    1.5485584    2.1207863   -1.0102464 
14335000    1.0486301 -1.6358455e-05   0.55676843  0.014453832            0    0.5423146    1.5650804    2.1218488   0.99115239 
14340000    1.0286988 -6.0999304e-06   0.57861016  0.037241519            0   0.54136865    1.5353329    2.1139431    1.6923159 
14345000    1.0402199 2.5048906e-05   0.53723021  0.013950269            0   0.52327994    1.5525282    2.0897584    3.8211387 
14350000    1.0641261 1.6737777e-06   0.51100034 0.0063137782            0   0.50468657    1.5882081    2.0992085       2.2149 
14355000    1.0481247 -4.5553973e-05   0.55271115  0.026350252            0    0.5263609     1.564326    2.1170372   -1.0316534 
14360000    1.0348032 -3.02232e-05   0.58080912  0.034587677            0   0.54622145    1.5444438    2.1252529   0.03622531 
14365000    1.0158001 1.9596202e-07   0.62015006  0.026096201            0   0.59405386    1.5160816    2.1362317    2.1497766 
14370000    1.0915151 -1.9190698e-05   0.54104413  0.026473022            0   0.51457111    1.6290863    2.1701304   0.84366939 
14375000    1.0590781 -2.2263436e-05   0.59380052  0.016129511            0   0.57767101     1.580674    2.1744745   0.63562583 
14380000    1.0948263 -1.7145749e-05   0.56549721  0.012239478            0   0.55325773    1.6340283    2.1995255    1.0144113 
14385000    1.1240175 -4.7887567e-06   0.53918545  0.016691538            0   0.52249391    1.6775962    2.2167816    1.8857827 
14390000    1.1325333 2.0115532e-05   0.53587969  0.031459571            0   0.50442012    1.6903059    2.2261856    3.6165711 
14395000     1.004906 -1.4935302e-05   0.73981203   0.03585665            0   0.70395538    1.4998223    2.2396343    1.2073062 
14400000    1.1344919 -1.0840928e-05   0.52461722  0.027289731            0   0.49732749    1.6932291    2.2178463    1.4685214 
14405000     1.065933 2.0991406e-05   0.62696947  0.023121904            0   0.60384756     1.590905    2.2178744    3.6688004 
14410000    1.0434054 2.316017e-05   0.65002064  0.020075117            0   0.62994553    1.5572826    2.2073032    3.8081342 
14415000    1.1144631 2.6304673e-05   0.55795347 0.0084995472            0   0.54945392    1.6633362    2.2212897    4.0394687 
14420000    1.1327665 -3.3724027e-05   0.54968319 0.0073685127            0   0.54231468     1.690654    2.2403372 -0.090667522 
14425000    1.1207622 -8.5761698e-05   0.58098338  0.026722312            0   0.55426106    1.6727376     2.253721   -3.6741276 
14430000    1.1362361 -9.335817e-06   0.54746624  0.024930226            0   0.52253601    1.6958323    2.2432986    1.5980069 
14435000    1.0299291 4.7063155e-05   0.69545502  0.012261633            0   0.68319339    1.5371692    2.2326242    5.4856295 
14440000    1.1057371 8.8171099e-06   0.58680326  0.011443773            0   0.57535948    1.6503126    2.2371159    2.8465545 
14445000     1.087794 -6.2003452e-05   0.59919489  0.026943923            0   0.57225097    1.6235326    2.2227275   -2.0629511 
14450000    1.0895206 -3.488821e-06   0.60572067   0.02535545            0   0.58036522    1.6261095    2.2318302    1.9906828 
14455000     1.097378 1.7449685e-05   0.61285615  0.023566231            0   0.58928992    1.6378366    2.2506928     3.456815 
14460000    1.1265283 3.9550759e-05   0.57527782  0.024933158            0   0.55034466    1.6813435    2.2566213    4.9903698 
14465000    1.0869784 3.0438303e-05   0.60993015  0.031833368            0   0.57809678    1.6223153    2.2322455     4.336141 
14470000      1.08723 4.8329498e-06   0.60620304  0.025840654            0   0.58036238    1.6226907    2.2288938    2.5629473 
14475000    1.0814998 -4.8985467e-05   0.62566707 0.0044956905            0   0.62117138    1.6141384    2.2398055     -1.14607 
14480000    1.0931441 -1.7556814e-05   0.60209958  0.018866121            0   0.58323346    1.6315176    2.2336172    1.0200903 
14485000    1.1134287 2.8737836e-05   0.59436545  0.019338267            0   0.57502719    1.6617923    2.2561578     4.242517 
14490000    1.1659025 1.2043083e-06   0.51966796  0.013239877            0   0.50642808    1.7401095    2.2597775    2.3430193 
14495000    1.1131996 8.6434394e-06   0.60268775  0.018252798            0   0.58443495    1.6614504    2.2641381    2.8615726 
14500000    1.0814591 8.3800624e-05   0.64813845  0.021522423            0   0.62661603    1.6140777    2.2622162    8.0545153 
14505000    1.1377046 0.00011067746   0.56919455  0.013008596            0   0.55618595    1.6980242    2.2672187    9.9172447 
14510000    1.1372561 -1.2195072e-05    0.5564335   0.02247246            0   0.53396104    1.6973548    2.2537883    1.4108649 
14515000    1.0746274 -7.3503229e-06   0.62081763  0.033665708            0   0.58715192    1.6038814     2.224699    1.7166447 
14520000    1.1322164 -5.8507379e-06   0.53917342  0.020501793            0   0.51867163     1.689833    2.2290064    1.8246034 
14525000    1.0628606 -2.7078936e-06    0.6284938  0.014829441            0   0.61366436    1.5863194    2.2148132    2.0276436 
14530000     1.117809 3.3393887e-05   0.54561196   0.04917216            0    0.4964398    1.6683299    2.2139419    4.5221273 
14535000    1.1130387 1.2062202e-06    0.5673915  0.031933674            0   0.53545782    1.6612103    2.2286018    2.3119757 
14540000    1.1402882 -1.7358955e-05   0.51666935  0.010153759            0   0.50651559    1.7018801    2.2185495    1.0186986 
14545000    1.0922664 -9.6330952e-06    0.5731535  0.015505098            0   0.55764841    1.6302076    2.2033611    1.5375215 
14550000    1.1416969 -3.3900311e-05   0.52342887  0.011814515            0   0.51161436    1.7039827    2.2274115  -0.11577798 
14555000    1.1675213 3.2256955e-05   0.48798302  0.018427856            0   0.46955516    1.7425255    2.2305085    4.4601092 
14560000    1.1171838 -3.6489713e-06   0.56787721  0.014738358            0   0.55313886    1.6673968     2.235274    1.9830571 
14565000    1.0909339 -4.9783308e-05   0.59057937  0.026787361            0   0.56379201    1.6282189    2.2187983    -1.222224 
14570000    1.1095234 2.920606e-05   0.53859121 0.0088940972            0   0.52969711    1.6559637    2.1945549    4.2132778 
14575000    1.0796102 4.450204e-05   0.57163379  0.024456851            0   0.54717694    1.6113182    2.1829519     5.258933 
14580000    1.0579868 -5.8295654e-06   0.60928045  0.024331723            0   0.58494873    1.5790453    2.1883257    1.7853862 
14585000    1.1318702 3.1125811e-05   0.50101589  0.023253354            0   0.47776254    1.6893163    2.1903322    4.3417483 
14590000    1.0410924 -5.6820689e-05   0.63171692  0.030859853            0   0.60085707    1.5538304    2.1855473   -1.7418987 
14595000    1.1280288 -5.2287954e-05   0.50444807  0.012377055            0   0.49207102     1.683583    2.1880311   -1.4261123 
14600000    1.0887618 -4.9308326e-05   0.55555926   0.01446762            0   0.54109164     1.624977    2.1805362   -1.2276552 
14605000     1.092944 1.4101294e-05   0.54450617  0.039660638            0   0.50484553    1.6312188     2.175725    3.1504065 
14610000    1.0718767 2.4122847e-05   0.59665551  0.029535225            0   0.56712028     1.599776    2.1964315    3.8638027 
14615000     1.088151 1.0488866e-05   0.58298404  0.012476657            0   0.57050739    1.6240654    2.2070495    2.9320399 
14620000     1.080597 5.1201954e-06   0.58463677  0.013506999            0   0.57112977     1.612791    2.1974278    2.5513357 
14625000    1.0572281 -1.2200226e-05   0.62561585  0.038805794            0   0.58681005     1.577913    2.2035288    1.3602492 
14630000    1.1003639 2.6424193e-05   0.57055371  0.035537202            0   0.53501651    1.6422931    2.2128469     4.039287 
14635000    1.0697998 -1.2547892e-05   0.60977527  0.024333185            0   0.58544208    1.5966762    2.2064515    1.3391412 
14640000    1.0988691 -4.6343564e-05   0.56944154  0.024017568            0   0.54542397    1.6400621    2.2095036  -0.99376356 
14645000    1.1784892 -4.7374651e-05   0.44313496  0.013730359            0    0.4294046    1.7588951    2.2020301   -1.0725058 
14650000     1.109199 8.1643566e-06   0.54945151  0.021207505            0     0.528244    1.6554795     2.204931    2.7692513 
14655000    1.0901131 6.7242782e-05   0.57733912  0.012672607            0   0.56466651    1.6269939     2.204333    6.8521541 
14660000    1.1322817 7.3616528e-06   0.52057244 0.0079170641            0   0.51265538    1.6899304    2.2105028    2.7193403 
14665000    1.0960818 -2.1364032e-05   0.57178023 0.0081336263            0    0.5636466    1.6359022    2.2076824    0.7310005 
14670000    1.0931332 -3.8037042e-05   0.57475919  0.010683566            0   0.56407563    1.6315014    2.2062606  -0.42285976 
14675000    1.0415309 -5.3259417e-05   0.63097095  0.015022977            0   0.61594798    1.5544848    2.1854558   -1.4958351 
14680000    1.0770723 -3.2587332e-05   0.58194971  0.016971662            0   0.56497805    1.6075305    2.1894802 -0.062956242 
14685000    1.0876253 -1.314713e-05   0.58252762  0.036787461            0   0.54574016    1.6232808    2.2058084    1.2970788 
14690000      1.10446 2.9186982e-05   0.56507463  0.039364213            0   0.52571042    1.6484066    2.2134812    4.2308854 
14695000    1.0797377 8.1855362e-06   0.58238263  0.030942411            0   0.55144021    1.6115086    2.1938912    2.7596755 
14700000    1.1054034 2.521079e-05   0.55224164  0.027542118            0   0.52469952    1.6498146    2.2020562     3.944626 
14705000    1.0870449 1.3410617e-05   0.57717353  0.037986399            0   0.53918713    1.6224145     2.199588    3.1265299 
14710000    1.0584682 1.7288825e-05   0.61765129  0.051295233            0   0.56635606    1.5797638    2.1974151    3.3924187 
14715000    1.1044595 1.0902702e-05   0.54864092  0.020316079            0   0.52832485    1.6484058    2.1970468    2.9506415 
14720000    1.0835298 -8.4944553e-06   0.59026998  0.011341447            0   0.57892853    1.6171682    2.2074382    1.6203014 
14725000    1.1102317 3.1523514e-05   0.56822769  0.024531543            0   0.54369615    1.6570209    2.2252486    4.4041538 
14730000    1.0785282 -7.6834224e-06   0.61690696  0.014304672            0   0.60260229    1.6097033    2.2266103    1.6955321 
14735000    1.1085551 5.9870364e-05   0.57528098 0.0071275283            0   0.56815345    1.6545185    2.2297995    6.3680391 
14740000    1.0965698 -1.607469e-05   0.61396067   0.03470876            0   0.57925191    1.6366305    2.2505911    1.1395085 
14745000    1.1103156 -1.6369173e-05   0.58440391  0.024492938            0   0.55991097    1.6571461      2.24155    1.1101127 
14750000    1.0724698 -3.7119339e-05   0.64486039   0.04621568            0   0.59864471    1.6006612    2.2455216  -0.32016719 
14755000    1.1146674 -4.6765924e-05     0.577472  0.023917647            0   0.55355435     1.663641     2.241113  -0.99134767 
14760000    1.1444473 1.6504812e-05   0.52205992 0.0068146826            0   0.51524523    1.7080876    2.2301475    3.3709601 
14765000    1.1234196 -1.5044351e-05   0.55899619 0.0060356768            0   0.55296051    1.6767037    2.2356999    1.1958344 
14770000    1.1327925 -5.9007344e-06   0.54422889  0.010860154            0   0.53336874    1.6906928    2.2349217    1.8270629 
14775000    1.1688437 3.0936343e-05   0.49954452  0.017311895            0   0.48223263    1.7444992    2.2440437    4.3823637 
14780000    1.1022564 -1.9070046e-06   0.59106274  0.030097722            0   0.56096502    1.6451178    2.2361805    2.1043683 
14785000     1.073663 1.3407213e-05   0.61751567  0.033733536            0   0.58378214    1.6024421    2.2199578    3.1466643 
14790000    1.1014772 3.6155943e-05   0.58354221  0.012092312            0    0.5714499    1.6439548     2.227497    4.7265958 
14795000    1.1164795 -6.0769062e-07   0.56655067 0.0037978517            0   0.56275282    1.6663456    2.2328963    2.1908927 
14800000    1.1132257 -1.6467455e-06   0.57427582 0.0080393573            0   0.56623647    1.6614894    2.2357652    2.1219422 
14805000    1.1150648 -3.2156267e-05   0.57826422  0.025805717            0   0.55245851    1.6642342    2.2424985  0.019857286 
14810000    1.0867638 3.4902672e-06   0.61464739 0.0084857368            0   0.60616165     1.621995    2.2366424    2.4778896 
14815000     1.145017 1.1215963e-05   0.50825501  0.026720092            0   0.48153492    1.7089379    2.2171929    2.9924403 
14820000    1.1076046 -2.3312542e-05   0.57828684  0.016259299            0   0.56202754    1.6530999    2.2313867   0.62002381 
14825000    1.1413316 -4.4545146e-05   0.54165184  0.019427601            0   0.52222424    1.7034374    2.2450892  -0.83387128 
14830000     1.147299 2.4194217e-05   0.54368336  0.032433551            0   0.51124981    1.7123437    2.2560271    3.9283314 
14835000    1.1386765 5.1308186e-05   0.55174167  0.028947618            0   0.52279405    1.6994747    2.2512164    5.7976382 
14840000    1.0706342 -5.0722791e-06   0.64186464  0.046285126            0   0.59557951    1.5979215    2.2397861    1.8891902 
14845000    1.0925772 2.7934732e-05   0.59696706  0.025757444            0   0.57120962    1.6306715    2.2276386    4.1584873 
14850000    1.0856851 3.0129112e-05   0.57900574  0.023739105            0   0.55526664    1.6203851    2.1993908     4.281915 
14855000    1.1243625 3.8844798e-06   0.52681942  0.017334883            0   0.50948454     1.678111    2.2049304    2.4734256 
14860000    1.1276398 1.2895525e-05   0.54747416  0.016700377            0   0.53077378    1.6830025    2.2304766    3.1218153 
14865000    1.0830549 6.9753051e-06   0.60257958  0.020755624            0   0.58182396    1.6164594     2.219039    2.7011721 
14870000    1.0878808 1.0972149e-05   0.57487562  0.029116228            0   0.54575939     1.623662    2.1985377    2.9569326 
14875000     1.105172 2.2757619e-05   0.55266939   0.01982928            0   0.53284011    1.6494692    2.2021386    3.7751452 
14880000    1.0509852 -2.6037412e-05   0.64146793  0.016738482            0   0.62472945    1.5685954    2.2100634   0.41035745 
14885000    1.0880238 3.5105962e-06     0.597462  0.010419164            0   0.58704284    1.6238756    2.2213376      2.46399 
14890000    1.1046908 -2.0571515e-05   0.56204802  0.020730828            0   0.54131719     1.648751     2.210799   0.78889587 
14895000    1.1066872 -3.6990647e-05   0.56457744  0.017484475            0   0.54709297    1.6517307    2.2163081  -0.34048535 
14900000    1.0587887 -3.7377894e-05   0.64067571   0.01418506            0   0.62649065    1.5802422    2.2209179  -0.36264217 
14905000    1.0964863 3.0960864e-05   0.59356647  0.015373791            0   0.57819268    1.6365058    2.2300723    4.3700872 
14910000    1.1265448 6.4184307e-05   0.56948308  0.011268808            0   0.55821427     1.681368    2.2508511    6.6872704 
14915000    1.1079107 -2.9948614e-05   0.58089401 0.0073537736            0   0.57354024    1.6535566    2.2344507   0.16440245 
14920000    1.1236448 -4.281353e-05   0.54801965  0.013367205            0   0.53465245    1.6770398    2.2250595  -0.73421169 
14925000    1.1259943 1.0671754e-05   0.54298284 0.0094911805            0   0.53349166    1.6805465    2.2235293     2.961161 
14930000    1.0769079 2.9515062e-06   0.60208202  0.010349746            0   0.59173227    1.6072851    2.2093671    2.4133752 
14935000    1.0957308 1.9972928e-06   0.57387553  0.020907865            0   0.55296766    1.6353782    2.2092537    2.3473066 
14940000    1.0733557 3.0600845e-05   0.59557851  0.029195946            0   0.56638256    1.6019835     2.197562    4.3126924 
14945000    1.0528379 3.8663607e-05   0.63702316  0.023918845            0   0.61310432    1.5713606    2.2083838    4.8808123 
14950000    1.1187766 2.5955849e-05   0.55461552  0.020925252            0   0.53369027    1.6697741    2.2243896    4.0184579 
14955000    1.1166949 1.1432317e-05   0.53799152  0.019250835            0   0.51874068    1.6666671    2.2046586    2.9948603 
14960000    1.0521342 3.3643197e-05   0.63665989  0.019915358            0   0.61674453    1.5703102    2.2069701    4.5323879 
14965000    1.0361624 -4.9185688e-05   0.66547861  0.052753395            0   0.61272522    1.5464723    2.2119509   -1.1877638 
14970000     1.075984 -6.7013172e-05   0.59037094  0.030014368            0   0.56035657    1.6059061    2.1962771   -2.4356734 
14975000    1.1029504 -1.4469719e-06   0.57643112  0.016520756            0   0.55991037    1.6461535    2.2225846    2.1225699 
14980000    1.0401904 2.0493446e-05   0.64886856  0.014201861            0    0.6346667    1.5524842    2.2013528    3.6178598 
14985000    1.0985265 2.6656187e-05    0.5647778  0.016273088            0   0.54850471    1.6395507    2.2043285    4.0468042 
14990000    1.1045562 -1.3091698e-05    0.5615568 0.0099921404            0   0.55156466    1.6485501    2.2101069    1.3052088 
14995000    1.0646914 -1.5590747e-07   0.62293842  0.024284187            0   0.59865423    1.5890519    2.2119903     2.201214 
15000000    1.0950114 -4.7069766e-06   0.60120541  0.011854631            0   0.58935078    1.6343046      2.23551    1.9101638 
15005000    1.1170782 -7.559805e-06   0.55538939 0.0041911975            0    0.5511982    1.6672392    2.2226286    1.7000948 
15010000    1.1338554 3.4955238e-05   0.52637737 0.0088253883            0   0.51755198    1.6922792    2.2186565    4.6347626 
15015000    1.1283437 4.3766757e-05   0.53017711  0.016726083            0   0.51345103     1.684053    2.2142301    5.2393883 
15020000    1.1289028 5.327594e-05   0.53489785  0.025423688            0   0.50947417    1.6848874    2.2197852    5.9022182 
15025000    1.0881497 2.5713604e-07   0.59127065  0.030100039            0   0.56117061    1.6240635    2.2153341    2.2331074 
15030000    1.0947755 -3.4750656e-05    0.5887865  0.052233371            0   0.53655313    1.6339525     2.222739  -0.17922632 
15035000    1.0886536 -8.8186437e-06   0.60587712  0.043934988            0   0.56194213    1.6248155    2.2306926    1.6211479 
15040000    1.1308547 -2.5027904e-05   0.56456415  0.037572079            0   0.52699207    1.6878006    2.2523647   0.52243599 
15045000    1.1049754 -2.3794746e-05   0.62390965  0.019039714            0   0.60486994    1.6491757    2.2730854   0.62839253 
15050000    1.1745176 1.2126898e-05   0.51084768  0.013787651            0   0.49706002    1.7529675    2.2638152    3.1020264 
15055000    1.1211602 -1.3678117e-05   0.57867823  0.028150085            0   0.55052815    1.6733316    2.2520098    1.3065783 
15060000    1.1094972 7.0439873e-06   0.61030495   0.03377743            0   0.57652752    1.6559246    2.2662295    2.7531099 
15065000     1.084421 -1.1206495e-05   0.65918966  0.016372584            0   0.64281708    1.6184984    2.2776881    1.5030952 
15070000    1.0944215 3.5822516e-05   0.64520875  0.023781917            0   0.62142684    1.6334241    2.2786329    4.7546852 
15075000    1.0534403 -9.3484069e-07   0.67986361  0.017180222            0   0.66268338    1.5722596    2.2521232     2.187507 
15080000    1.1492012 -3.2844899e-05    0.5299674  0.022322244            0   0.50764516    1.7151828    2.2451502 -0.025089231 
15085000    1.1323499 6.187687e-05    0.5313034  0.028019425            0   0.50328397    1.6900322    2.2213356    6.4982648 
15090000    1.1010886 1.8014688e-05   0.59433746 0.0082983908            0   0.58603907    1.6433747    2.2377121    3.4828874 
15095000    1.1141909 -2.9942563e-06   0.57682042  0.002867788            0   0.57395263    1.6629299    2.2397503    2.0327873 
15100000    1.1397816 2.4153943e-05   0.54104293 0.0075527195            0   0.53349021     1.701124    2.2421669    3.9116875 
15105000    1.1440376 2.4356396e-05   0.53840768  0.033598306            0   0.50480937    1.7074762    2.2458838    3.9293979 
15110000    1.0579527 4.4888956e-05   0.66451466   0.03313327            0   0.63138139    1.5789944     2.243509    5.3462337 
15115000    1.1632799 1.7533699e-05   0.50943062 0.0064361226            0    0.5029945    1.7361953    2.2456259    3.4575552 
15120000    1.1248177 -3.6887767e-05   0.56049452 0.0024388495            0   0.55805567    1.6787905     2.239285  -0.31039743 
15125000    1.1039659 -1.5868201e-05   0.57175249  0.013863497            0   0.55788899    1.6476691    2.2194216    1.1226115 
15130000    1.1167606 6.6772639e-05   0.54395108   0.03489443            0   0.50905665    1.6667652    2.2107163    6.8260411 
15135000    1.0718586 4.2391177e-05   0.61313237  0.020728869            0    0.5924035     1.599749    2.2128814    5.1429595 
15140000    1.1269917 -4.3105478e-05   0.53283767 0.0086120151            0   0.52422565    1.6820352    2.2148728  -0.76457783 
15145000    1.0998041 4.3194182e-05   0.57770073 0.0042778401            0   0.57342289    1.6414576    2.2191584    5.2047403 
15150000     1.185083 6.8954051e-05   0.43914009  0.020466338            0   0.41867375    1.7687363    2.2078764    6.9739804 
15155000    1.0719454 -1.6859082e-05   0.61053762  0.017623955            0   0.59291367    1.5998785    2.2104161    1.0451164 
15160000    1.1021407 5.0361224e-05   0.56164367  0.035824527            0   0.52581914    1.6449449    2.2065886    5.6875564 
15165000    1.1648252 2.4577869e-05   0.47650298  0.013199805            0   0.46330317    1.7385017    2.2150047    3.9138269 
15170000    1.0978452 -3.0763219e-05   0.58622334  0.013280264            0   0.57294307     1.638534    2.2247573  0.098403624 
15175000     1.153282 -4.3056761e-05   0.50775142  0.014681953            0   0.49306947    1.7212734    2.2290248  -0.74705855 
15180000    1.1202923 -2.9335697e-06   0.57816764   0.03313964            0     0.545028    1.6720362    2.2502039    2.0474355 
15185000    1.0698622 5.7134034e-05   0.65272757  0.010818848            0   0.64190872    1.5967694     2.249497    6.1986014 
15190000    1.1626748 4.908517e-05    0.5160472 0.0049810134            0   0.51106619    1.7352922    2.2513394    5.6441063 
15195000    1.1436241 1.8715978e-05   0.55280163 0.0040632157            0   0.54873841     1.706859    2.2596606     3.553309 
15200000    1.1274119 1.4242691e-05   0.58881445  0.037734379            0   0.55108007    1.6826622    2.2714767    3.2559315 
15205000    1.1749578 -9.8503424e-06   0.49283733  0.022692784            0   0.47014454    1.7536246    2.2464619    1.5656062 
15210000    1.0991955 -2.5742347e-05   0.59326433 0.0097583497            0   0.58350598    1.6405492    2.2338136   0.45450257 
15215000    1.1369724 4.8108217e-05   0.54899499  0.010566262            0   0.53842873    1.6969313    2.2459263    5.5711662 
15220000    1.1400288 7.6829306e-05   0.55344386  0.014355947            0   0.53908791     1.701493    2.2549368    7.5653785 
15225000    1.1818996 2.3490264e-05   0.49624838  0.017659574            0    0.4785888    1.7639852    2.2602335    3.8838806 
15230000    1.1563214 -2.5076087e-05    0.5383625  0.016259292            0   0.52210321    1.7258097    2.2641722   0.53091309 
15235000    1.1673548 6.0866887e-05     0.533136   0.01129495            0   0.52184105     1.742277     2.275413    6.4825323 
15240000    1.1437941 3.9319758e-05   0.55184217   0.01064866            0   0.54119351    1.7071126    2.2589548    4.9767365 
15245000    1.1276059 -5.1720212e-05   0.57088092  0.013880793            0   0.55700013    1.6829519    2.2538328   -1.3210683 
15250000    1.1489324 -1.7291556e-05   0.54608646   0.01781071            0   0.52827575    1.7147816    2.2608681    1.0656757 
15255000    1.0863992 -1.6073864e-05   0.61352786  0.025887732            0   0.58764013    1.6214508    2.2349787    1.1239532 
15260000    1.1070294 -4.0203425e-05   0.59400336  0.062059742            0   0.53194362    1.6522413    2.2462447  -0.53261601 
15265000    1.0976515 -2.7409609e-05   0.58818934  0.031308182            0   0.55688116    1.6382449    2.2264342   0.33188203 
15270000    1.1159667 7.8867028e-06   0.58195551 0.0076600716            0   0.57429544    1.6655803    2.2475358    2.7926647 
15275000    1.1598446 1.2775898e-05   0.51978114  0.010009731            0   0.50977141     1.731068    2.2508491    3.1339192 
15280000    1.1068685 -4.4234206e-05   0.57828473  0.017546206            0   0.56073852    1.6520012    2.2302859  -0.82718245 
15285000    1.1434685 -2.4911068e-06    0.4954276  0.008531961            0   0.48689564    1.7066267    2.2020543     2.029869 
15290000    1.1218795 2.7177537e-05   0.53326827 0.0048483448            0   0.52841992    1.6744052    2.2076734    4.0861848 
15295000    1.0787348 6.0566541e-06   0.59104503  0.010002322            0    0.5810427    1.6100117    2.2010567    2.6196926 
15300000    1.1457318 3.992462e-05   0.49641779  0.016633154            0   0.47978463    1.7100047    2.2064225    4.9660122 
15305000    1.1679975 3.4735311e-05    0.4680802  0.012962963            0   0.45511724    1.7432363    2.2113165    4.6122212 
15310000    1.1320431 -8.6659129e-06   0.51378218   0.01557499            0   0.49820719    1.6895744    2.2033565    1.6043686 
15315000    1.0818438 -6.5063354e-06   0.55835921 0.0087367238            0   0.54962248    1.6146518     2.173011    1.7232931 
15320000    1.0977534 7.1042379e-05   0.53834459   0.01251251            0   0.52583208    1.6383969    2.1767415    7.0871908 
15325000     1.149065 5.1207333e-05   0.47154394  0.018026605            0   0.45351733    1.7149794    2.1865234    5.7259742 
15330000    1.1540644 -3.7926351e-05   0.48231879  0.016150009            0   0.46616878    1.7224411    2.2047599  -0.41670948 
15335000    1.1373415 -9.3757744e-05   0.50663976 0.0089240867            0   0.49771567    1.6974821    2.2041219   -4.2764134 
15340000    1.1092631 -5.983629e-05   0.54393203  0.017276032            0     0.526656    1.6555751    2.1995072   -1.9363772 
15345000    1.0953999 2.1565811e-05   0.57783209  0.038437636            0   0.53939445    1.6348843    2.2127164    3.7033453 
15350000     1.089993 4.9156009e-05    0.5682833  0.029151577            0   0.53913172    1.6268146    2.1950978    5.5927612 
15355000    1.0991566 3.9960842e-06   0.55791281  0.010055301            0   0.54785751    1.6404912     2.198404    2.4746133 
15360000    1.1138326 1.0166446e-05   0.53532594 0.0041386298            0   0.53118731    1.6623951    2.1977211    2.9004258 
15365000    1.1047601 6.8433751e-05   0.53598099 0.0071706353            0   0.52881036    1.6488545    2.1848354    6.9149763 
15370000    1.1298117 -1.6881694e-05   0.48409256  0.012171907            0   0.47192065    1.6862439    2.1703365    1.0034737 
15375000    1.0868399 -6.3853741e-05   0.55168891   0.01295963            0   0.53872928    1.6221086    2.1737975   -2.2397731 
15380000    1.0649538 -8.4040313e-05   0.57380624  0.023778271            0   0.55002797    1.5894435    2.1632498   -3.6456166 
15385000    1.0811995 -6.1711568e-06    0.5453223  0.037184623            0   0.50813768    1.6136902    2.1590125    1.7324622 
15390000    1.1005732 3.3717342e-05   0.50584097  0.012082455            0   0.49375851    1.6426055    2.1484464    4.4789891 
15395000    1.0942036 -2.1749413e-05   0.52645551 0.0081725251            0   0.51828298    1.6330989    2.1595544   0.65623492 
15400000    1.0740608 4.1035386e-05   0.55067665 0.0090389186            0   0.54163773    1.6030358    2.1537124    4.9900783 
15405000    1.0523553 2.921699e-05   0.58116397  0.027482165            0   0.55368181    1.5706402    2.1518042    4.1712826 
15410000    1.0856924 -3.0486879e-05    0.5295798   0.01854504            0   0.51103476    1.6203958    2.1499756  0.042722536 
15415000     1.059519 -4.298917e-06   0.57302626   0.01416534            0   0.55886092    1.5813322    2.1543584    1.8572173 
15420000    1.0836903 -1.1235706e-05   0.53615542  0.012909595            0   0.52324583    1.6174078    2.1535632    1.3769512 
15425000    1.0855323 -4.8305392e-05   0.52339844 0.0090005875            0   0.51439785     1.620157    2.1435555   -1.1953132 
15430000    1.0649321 -4.1829616e-05   0.55983779  0.012742573            0   0.54709521    1.5894111    2.1492489  -0.74201418 
15435000    1.0748574 -6.4230718e-05   0.53870416  0.027060298            0   0.51164386    1.6042246    2.1429288   -2.2966985 
15440000    1.1158582 -5.952112e-05    0.4620562  0.015918383            0   0.44613781    1.6654183    2.1274745   -1.9866253 
15445000    1.0100412 -5.2027189e-06   0.61664597  0.035111935            0   0.58153404    1.5074864    2.1241324    1.7645205 
15450000    1.0533835 4.8893376e-05   0.56427631   0.03823627            0   0.52604004    1.5721749    2.1364512    5.5159614 
15455000    1.0296767 0.00010040704   0.58712595  0.066747297            0   0.52037866    1.5367924    2.1239184    9.0640531 
15460000    1.0528639 7.0064543e-05   0.55291835  0.040353756            0   0.51256459    1.5713993    2.1243177    6.9671789 
15465000    1.0744572 -3.2619431e-05   0.53448069  0.021770811            0   0.51270988    1.6036274    2.1381081  -0.11654702 
15470000    1.0832812 3.1811653e-07   0.52857246 0.0069949557            0    0.5215775    1.6167972    2.1453697    2.1673579 
15475000    1.0119106 2.2436438e-05   0.63186708  0.019916315            0   0.61195076    1.5102766    2.1421437    3.6929503 
15480000    1.1113604 -2.0628354e-05   0.50373001  0.014550144            0   0.48917987    1.6587054    2.1624354   0.73660355 
15485000     1.087981 -1.6335767e-05   0.53047791  0.021589122            0   0.50888878    1.6238116    2.1542895    1.0251613 
15490000    1.0733838 -1.2275595e-05     0.563067  0.024502372            0   0.53856463    1.6020253    2.1650923    1.3166032 
15495000    1.1131958 5.8362866e-05   0.51822599 0.0035074461            0   0.51471854    1.6614448    2.1796708    6.2137121 
15500000    1.0347763 5.922321e-05   0.64137392  0.007114901            0   0.63425901    1.5444037    2.1857776    6.2792859 
15505000    1.0636011 1.1706847e-05    0.6008042 0.0058693803            0   0.59493482    1.5874247    2.1882289    2.9974062 
15510000    1.1311863 3.3603418e-06    0.5112362 0.0019499707            0   0.50928623    1.6882956    2.1995318    2.4317986 
15515000    1.1305777 1.4026954e-05   0.51913181 0.0011700747            0   0.51796174    1.6873872     2.206519    3.1760621 
15520000    1.0860071 3.4425391e-06   0.58598932 0.0056134375            0   0.58037589    1.6208656    2.2068549    2.4448032 
15525000    1.0972927 3.3330955e-05   0.55050499  0.022575605            0   0.52792939    1.6377093    2.1882143    4.4920499 
15530000    1.0387837 1.4059701e-05   0.64260395  0.019758577            0   0.62284537    1.5503846    2.1929886    3.1647951 
15535000      1.06633 -2.0845602e-05   0.57721984  0.024398737            0    0.5528211    1.5914975    2.1687173   0.72786932 
15540000    1.1274601 4.6863251e-05   0.47533551  0.023680129            0   0.45165539    1.6827343    2.1580698    5.3972577 
15545000    1.0357566 7.8686322e-06   0.60620728  0.036435278            0     0.569772    1.5458667     2.152074    2.6959538 
15550000    1.0450476 -1.8427211e-05    0.5964187  0.017677699            0     0.578741    1.5597336    2.1561523   0.88246346 
15555000    1.0879307 6.9327188e-06   0.50510854  0.017713384            0   0.48739516    1.6237366    2.1288452    2.6080347 
15560000    1.0271135 2.162035e-05   0.60436286  0.040838437            0   0.56352442    1.5329669    2.1373297    3.6317283 
15565000    1.0302565 -2.425004e-05   0.59866127  0.014165131            0   0.58449613    1.5376578    2.1363191   0.46015634 
15570000    1.0654271 -2.8745332e-05    0.5400525 0.0042610123            0   0.53579149      1.59015    2.1302025   0.14332511 
15575000    1.0954692 4.6387279e-05   0.49590376   0.01198311            0   0.48392065    1.6349878    2.1308915    5.3371803 
15580000     1.074264 3.9823142e-05   0.51588813  0.032125991            0   0.48376214     1.603339    2.1192271    4.8718027 
15585000    1.0683708 3.414676e-05   0.52164081  0.024389204            0    0.4972516    1.5945434    2.1161842    4.4764083 
15590000    1.0702204 8.6276897e-05   0.53327992  0.013098457            0   0.52018146    1.5973039    2.1305839     8.094043 
15595000    1.0775565 4.0404783e-05   0.51876472 0.0078347103            0   0.51093001     1.608253    2.1270177    4.9197963 
15600000    1.0574861 -2.0752323e-05   0.55985584  0.011312104            0   0.54854373     1.578298    2.1381539    0.7037533 
15605000     1.074856 -4.3779994e-05   0.54681611  0.028711517            0   0.51810459    1.6042226    2.1510387  -0.87503444 
15610000    1.0886866 1.2350061e-05   0.54073134  0.036247801            0   0.50448354    1.6248647    2.1655961    3.0192323 
15615000     1.080055 1.2292008e-05   0.54177234  0.031014915            0   0.51075743     1.611982    2.1537544     3.003378 
15620000    1.0035025 -2.2935928e-05    0.6740722  0.020496696            0    0.6535755    1.4977275    2.1717997   0.58646839 
15625000    1.0584095 2.1500986e-05   0.58789321  0.015499226            0   0.57239398    1.5796762    2.1675694    3.6537175 
15630000    1.1473524 -1.4627875e-06   0.46025693  0.024145063            0   0.43611187    1.7124235    2.1726804    2.0715725 
15635000    1.0864417 -1.7713201e-05   0.57287938  0.039351162            0   0.53352822    1.6215142    2.1943936    0.9700571 
15640000    1.0253408 4.0229616e-05   0.66076993  0.026686326            0    0.6340836    1.5303211     2.191091     4.971762 
15645000    1.0821239 7.0990789e-05   0.57218831  0.036178577            0   0.53600973      1.61507    2.1872583    7.0941416 
15650000    1.1060337 5.0591189e-05   0.51681329  0.026107249            0   0.49070604    1.6507553    2.1675685    5.6644315 
15655000    1.0479385 -1.3092531e-05   0.58718914  0.019172962            0   0.56801618    1.5640482    2.1512373    1.2462816 
15660000    1.0883167 -6.8092736e-05   0.53772144   0.02233135            0   0.51539009    1.6243126    2.1620341   -2.5445358 
15665000    1.0541618 -6.9740654e-05   0.57365349  0.028566408            0   0.54508709    1.5733365      2.14699    -2.673484 
15670000     1.062633 -3.0486884e-05   0.56693133   0.01387301            0   0.55305832    1.5859798    2.1529111  0.045657674 
15675000    1.0702791 -2.6702347e-05   0.54185528 0.0074833206            0   0.53437196    1.5973916    2.1392469   0.29358062 
15680000    1.0693016 -2.8918181e-05   0.53505647  0.013142356            0   0.52191411    1.5959326    2.1309891   0.13216437 
15685000    1.0818861 1.6210228e-05   0.52700432   0.02242313            0   0.50458119     1.614715    2.1417193    3.2621703 
15690000    1.0594114 3.8914614e-05   0.58523261  0.029279133            0   0.55595347    1.5811715    2.1664041    4.8561823 
15695000    1.0618174 3.8831451e-05   0.57084618  0.014590613            0   0.55625557    1.5847625    2.1556087    4.8396385 
15700000    1.0225119 -4.6617216e-06   0.61249435  0.031090122            0   0.58140423     1.526099    2.1385934    1.8163752 
15705000     1.062942 -7.1761106e-06   0.54439511  0.021067055            0   0.52332806    1.5864409     2.130836    1.6348232 
15710000    1.0856353 2.5159614e-05   0.49729339  0.028270878            0   0.46902251    1.6203107    2.1176041    3.8566366 
15715000     1.035411 -9.5374877e-06   0.58101073  0.039630106            0   0.54138063    1.5453509    2.1263616    1.4671305 
15720000    1.0379962 -3.4484873e-05   0.58864364  0.054167204            0   0.53447644    1.5492094     2.137853  -0.24574137 
15725000     1.060656 -4.4570641e-06    0.5592678  0.023730419            0   0.53553738     1.583029    2.1422968    1.8342246 
15730000    1.0715055 -6.2447707e-05   0.56729766  0.042844829            0   0.52445283     1.599222    2.1665196   -2.1498659 
15735000    1.0740364 -2.1132923e-05   0.56215978  0.026985362            0   0.53517442    1.6029993    2.1651591   0.70445144 
15740000    1.0923595 1.5056732e-05    0.5441145  0.021146721            0   0.52296778    1.6303465     2.174461    3.2151824 
15745000    1.1261612  1.51432e-05   0.49337567  0.016832372            0   0.47654329    1.6807957    2.1741713    3.2208693 
15750000    1.0440141 -9.9681486e-06   0.61601442  0.030980062            0   0.58503436     1.558191    2.1742054     1.485207 
15755000    1.0707939 -1.3770097e-05   0.58072854  0.018561149            0   0.56216739    1.5981599    2.1788884    1.2270993 
15760000    1.1002853 -1.1431996e-05   0.54746491  0.014856034            0   0.53260888    1.6421758    2.1896407    1.3994611 
15765000    1.1135311 1.773667e-05    0.5264619  0.038219861            0   0.48824204    1.6619451     2.188407    3.4143657 
15770000    1.0888139 6.7913608e-05   0.56615732  0.044476537            0   0.52168079    1.6250547     2.191212    6.8854006 
15775000    1.0994151 2.7505625e-05   0.53959549  0.016837411            0   0.52275808    1.6408771    2.1804726    4.0816614 
15780000    1.0688551 4.3993764e-05   0.57947219  0.036344005            0   0.54312819    1.5952663    2.1747385    5.2155875 
15785000    1.1297149 3.6008209e-06     0.491049  0.032685126            0   0.45836387    1.6860994    2.1771484    2.4260372 
15790000    1.0807153 -7.3894593e-05   0.57646163  0.023424071            0   0.55303755    1.6129675    2.1894292   -2.9181651 
15795000    1.0635462 -1.7804872e-05   0.59632616  0.037704392            0   0.55862177    1.5873427    2.1836688   0.95299607 
15800000    1.0918468 1.887423e-05    0.5250484  0.013245994            0   0.51180241    1.6295814    2.1546298    3.4592166 
15805000    1.0631343 -8.6792131e-06   0.57474058   0.01543977            0   0.55930081     1.586728    2.1614686    1.5615614 
15810000    1.0064871 -4.3297403e-05   0.65084297  0.023226314            0   0.62761666     1.502182     2.153025  -0.83969148 
15815000    1.0604349 1.3247893e-05   0.56850401  0.020555252            0   0.54794876    1.5826991    2.1512031    3.0668975 
15820000    1.0706609 1.0733996e-05   0.54619709  0.025175799            0   0.52102129    1.5979614    2.1441585    2.8860923 
15825000    1.0751254 1.2851152e-05   0.54253012  0.012810299            0   0.52971982    1.6046247    2.1471549    3.0354265 
15830000    1.0826379 5.5014603e-05    0.5437635 0.0071555328            0   0.53660797     1.615837    2.1596005    5.9622099 
15835000    1.0828744 4.2987802e-05    0.5135628  0.014485351            0   0.49907745    1.6161901    2.1297529    5.1010698 
15840000    1.0269263 -1.0766415e-05   0.61139884  0.028891671            0   0.58250717    1.5326874    2.1440863    1.3999117 
15845000    1.0496033 1.8923478e-05   0.57523751  0.050776833            0   0.52446068     1.566533    2.1417705    3.4497613 
15850000    1.0628315 5.5312334e-05   0.54720951  0.040187694            0   0.50702182    1.5862761    2.1334856    5.9566741 
15855000     1.065465 3.9324208e-06   0.53873782  0.019091834            0   0.51964598    1.5902065    2.1289443    2.4007533 
15860000    1.0277284 -3.0560221e-05   0.57546487  0.014057322            0   0.56140755    1.5338846    2.1093495 -0.0029729714 
15865000    1.0159599 1.0908922e-05   0.57676921  0.020736759            0   0.55603246    1.5163201    2.0930893     2.847114 
15870000    1.0131708 1.2029842e-05   0.57368118  0.019357157            0   0.55432402    1.5121574    2.0858386    2.9173412 
15875000    1.0321363 -1.9986149e-05   0.56046228  0.023812086            0   0.53665019    1.5404635    2.1009258   0.71948317 
15880000    1.0460254 -1.6832864e-05   0.54035941  0.011447643            0   0.52891177    1.5611928    2.1015523   0.93806467 
15885000   0.99314389 -3.8824865e-05   0.64593477  0.020700971            0    0.6252338    1.4822673     2.128202  -0.55537266 
15890000    1.0253808 -4.955423e-05   0.58927594  0.030470298            0   0.55880564    1.5303809    2.1196569   -1.3055315 
15895000    1.0396194 -2.0508412e-05   0.57309445  0.028111796            0   0.54498266     1.551632    2.1247264   0.70718499 
15900000    1.0443247 2.5282668e-06   0.56162128  0.015119491            0   0.54650179    1.5586546    2.1202759    2.2950297 
15905000    1.0528994 -1.0019029e-05   0.56299538  0.015365815            0   0.54762957    1.5714523    2.1344477    1.4419324 
15910000    1.0383767 2.7484806e-05   0.59118565  0.019997082            0   0.57118857    1.5497772    2.1409628    4.0407126 
15915000    1.1098021 7.3296907e-05   0.49918841  0.016359928            0   0.48282848    1.6563796     2.155568    7.2218502 
15920000    1.0380917 -1.2608155e-05   0.61113459  0.026762104            0   0.58437248    1.5493519    2.1604865    1.2890108 
15925000    1.0829278 -5.301995e-05   0.51531262   0.03159985            0   0.48371277    1.6162698    2.1315824   -1.5331565 
15930000    1.0465754 -2.9514469e-05   0.56392701  0.050893049            0   0.51303396    1.5620137    2.1259407  0.085900612 
15935000    1.0653535 -8.6508938e-06   0.54366692  0.040994145            0   0.50267277    1.5900401     2.133707    1.5357572 
15940000    1.0452393 3.3216011e-05   0.58929051  0.041863299            0   0.54742721    1.5600197    2.1493102    4.4452008 
15945000    1.0551581 5.8220947e-05    0.5830668  0.029479899            0    0.5535869    1.5748235    2.1578903    6.1821222 
15950000    1.1320344 6.383062e-05   0.47839401  0.020906133            0   0.45748788    1.6895613    2.1679553    6.5799278 
15955000    1.0135155 2.1301046e-05   0.66575345  0.012268995            0   0.65348445    1.5126719    2.1784253    3.6507536 
15960000    1.1147199 7.0020751e-06   0.52522531   0.01609827            0   0.50912704    1.6637195    2.1889448    2.6729282 
15965000    1.1031408 2.1545757e-05   0.56251747  0.012467703            0   0.55004976    1.6464376    2.2089551    3.6981979 
15970000    1.0816006 -6.5471542e-06   0.58735572  0.012812811            0   0.57454291    1.6142889    2.2016446    1.7491053 
15975000    1.0993458 -2.1147781e-05   0.56596903  0.019465642            0   0.54650338    1.6407736    2.2067426   0.74500801 
15980000    1.0467366 -6.4208224e-05   0.62971002  0.029265378            0   0.60044464    1.5622544    2.1919644    -2.246108 
15985000    1.0782382 -7.6925507e-05   0.58296693  0.035977974            0   0.54698895    1.6092705    2.1922375   -3.1248536 
15990000    1.0978803 -1.749711e-05    0.5630085  0.018565016            0   0.54444349    1.6385864    2.2015949   0.99219466 
15995000    1.1236966 1.2741157e-06   0.52115723  0.031634557            0   0.48952267    1.6771172    2.1982745    2.2863413 
16000000    1.0633882 -5.0347233e-06   0.61223666  0.042272013            0   0.56996464    1.5871068    2.1993435    1.8513434 
16005000    1.0389815 1.0271829e-05   0.64919479  0.018824859            0   0.63036993    1.5506798    2.1998746    2.9098635 
16010000    1.1249305 -4.3910526e-05   0.52761922  0.014796583            0   0.51282263    1.6789588     2.206578  -0.82851749 
16015000    1.0838699 -5.5928995e-05   0.57966992  0.017775132            0   0.56189479    1.6176758    2.1973457   -1.6684664 
16020000    1.0869188 2.8281023e-06   0.57830646  0.024670401            0   0.55363606    1.6222262    2.2005327    2.3960111 
16025000    1.0747936 -4.0858677e-06   0.61272816  0.012267522            0   0.60046064    1.6041295    2.2168577    1.9344425 
16030000    1.0433787 -5.6062564e-05   0.66059547  0.034525768            0    0.6260697    1.5572427    2.2178382   -1.6572062 
16035000    1.0951015 -2.1541767e-05    0.5768185  0.023962683            0   0.55285582     1.634439    2.2112575   0.72229059 
16040000    1.1026976 3.6214407e-05   0.56219925  0.017762008            0   0.54443724    1.6457762    2.2079754    4.7111152 
16045000    1.0593713 6.4677677e-05   0.62962623  0.050525782            0   0.57910045    1.5811117     2.210738     6.681259 
16050000    1.0792497 5.3936177e-05   0.59307905  0.028064842            0   0.56501421    1.6107802    2.2038592    5.9319278 
16055000    1.1068893 2.7221788e-05   0.54066978  0.010166778            0     0.530503    1.6520323    2.1927021     4.074272 
16060000    1.0810717 3.2103675e-05   0.55481593  0.035435188            0   0.51938074    1.6134995    2.1683154    4.3873215 
16065000    1.0781066 6.6186701e-06   0.57982703  0.025345208            0   0.55448183    1.6090741    2.1889011    2.6463836 
16070000    1.0856703 -1.7461207e-05   0.53990113  0.011350148            0   0.52855098     1.620363    2.1602641   0.95334543 
16075000    1.0678954 -6.5116696e-06   0.57690175 0.0080787817            0   0.56882297    1.5938339    2.1707357    1.7206491 
16080000    1.0873095 -1.5389859e-05   0.54180198   0.01043003            0   0.53137195    1.6228094    2.1646113    1.1008643 
16085000    1.0394219 1.2082508e-05   0.63153388  0.023851883            0   0.60768199    1.5513371     2.182871     3.018014 
16090000    1.0443636 4.3596784e-05   0.62007114  0.031289726            0   0.58878141    1.5587126    2.1787838    5.1921935 
16095000    1.0587547 5.0322711e-06   0.59574069  0.014220667            0   0.58152002    1.5801914    2.1759321    2.5237627 
16100000    1.0678619 2.0189308e-05   0.58586071  0.021681336            0   0.56417938     1.593784    2.1796447    3.5751297 
16105000    1.0740496 -2.7034097e-05   0.58117653  0.033801248            0   0.54737529     1.603019    2.1841956   0.31559877 
16110000    1.0472169 -3.0451564e-05   0.63528785  0.024279328            0   0.61100852    1.5629712     2.198259  0.093446957 
16115000    1.0734263 1.8045439e-05   0.58463921  0.051619306            0   0.53301991    1.6020888     2.186728    3.4340288 
16120000    1.0557533 1.4223006e-05   0.62382679  0.020419072            0   0.60340772    1.5757118    2.1995385    3.1826328 
16125000    1.0635139 -6.3784006e-06   0.60790742 0.0093273773            0   0.59858004    1.5872945     2.195202    1.7543269 
16130000    1.0926553 5.6462049e-05    0.5800122  0.013380691            0   0.56663151     1.630788    2.2108002     6.113457 
16135000    1.0770354 4.6097357e-05   0.61736856  0.015594149            0   0.60177441    1.6074753    2.2248438    5.4110931 
16140000    1.1190605 -4.3370317e-07   0.56721195  0.012385902            0   0.55482605    1.6701979    2.2374098    2.2074322 
16145000    1.1288656 -4.0590783e-05   0.56731422  0.025488607            0   0.54182561    1.6848319    2.2521462  -0.55348878 
16150000    1.0850955 -6.0021194e-05    0.6295779  0.031796114            0   0.59778178     1.619505    2.2490829    -1.899582 
16155000    1.1287195 4.9022964e-05   0.58762946  0.029620098            0   0.55800936    1.6846139    2.2722434    5.6607106 
16160000    1.1259351 -2.446059e-05   0.58637267   0.02412416            0   0.56224851    1.6804582    2.2668308   0.57611487 
16165000    1.1282869 -7.0470541e-05   0.57123402  0.018161992            0   0.55307203    1.6839681    2.2552022   -2.6157216 
16170000    1.1286307 -1.3571834e-05   0.56671838 0.0051824117            0   0.56153597    1.6844814    2.2511997    1.3131146 
16175000    1.1523024 -4.2017864e-06   0.53440062  0.018026616            0     0.516374    1.7198113     2.254212    1.9637845 
16180000    1.1381362 -7.7777153e-06   0.53903835  0.034779162            0   0.50425918    1.6986683    2.2377067     1.700111 
16185000    1.1391804 1.503212e-05   0.53632869  0.027337505            0   0.50899119    1.7002268    2.2365555    3.2755756 
16190000     1.099508 4.8572685e-05   0.57689141  0.010837701            0   0.56605371    1.6410157    2.2179071    5.5752512 
16195000    1.1166218 5.4018148e-06   0.55875404 0.0075337226            0   0.55122032     1.666558    2.2253121    2.5986855 
16200000    1.1002971 -2.7085754e-05   0.58717476 0.0084798444            0   0.57869491    1.6421934    2.2293682   0.35720089 
16205000    1.1466945 2.9357271e-05   0.52967546  0.014493487            0   0.51518197    1.7114415     2.241117    4.2702915 
16210000    1.1239755 3.461306e-05   0.54315988  0.014956736            0   0.52820314    1.6775335    2.2206933    4.6131481 
16215000    1.0820248 3.5279612e-05   0.58743765  0.013590316            0   0.57384733     1.614922    2.2023597    4.6408865 
16220000    1.0625339 2.5809981e-05    0.6072954 0.0074134804            0   0.59988192    1.5858318    2.1931272    3.9771131 
16225000     1.071536 -2.5765244e-05   0.59181732  0.012756272            0   0.57906104    1.5992675    2.1910848   0.41019108 
16230000    1.1018537 -2.5483351e-06    0.5349024 0.0068989876            0   0.52800341    1.6445167    2.1794191    2.0032782 
16235000    1.0760487 7.5946054e-05   0.54507818 0.0080115836            0    0.5370666    1.6060027    2.1510808    7.4004721 
16240000    1.0428862 4.1650758e-05   0.59438464   0.01114264            0     0.583242    1.5565076    2.1508923    5.0297927 
16245000    1.0293507 -3.1055623e-05   0.60862225   0.03711925            0     0.571503     1.536306    2.1449282 -0.0016364556 
16250000    1.0892202 5.9203206e-06   0.51887678  0.032992219            0   0.48588456    1.6256612     2.144538    2.5537505 
16255000    1.0003976 -4.3776292e-05   0.65440613  0.019065975            0   0.63534016    1.4930935    2.1474996   -0.8783177 
16260000    1.0606161 -6.9715191e-05   0.58425385  0.020554796            0   0.56369906    1.5829695    2.1672234   -2.6514906 
16265000    1.0853104 -1.0498132e-05    0.5437187  0.028824586            0   0.51489411    1.6198258    2.1635445    1.4379136 
16270000     1.014528 1.8310958e-05   0.63718583  0.038211388            0   0.59897444     1.514183    2.1513688    3.4170222 
16275000    1.0936304 7.1874349e-05   0.52776238  0.019507364            0   0.50825501    1.6322434    2.1600057    7.1279608 
16280000    1.0593066 7.7417145e-05   0.59084846  0.034768093            0   0.55608037    1.5810151    2.1718636    7.5229366 
16285000    1.0368577 1.2112631e-05   0.61847729  0.045104072            0   0.57337322    1.5475102    2.1659875    3.0032125 
16290000   0.99751853 -2.3208198e-05   0.65241779  0.047595572            0   0.60482222    1.4887964    2.1412142   0.53706356 
16295000    1.0287638 -1.6543207e-05     0.602571  0.032940861            0   0.56963014      1.53543     2.138001   0.99453453 
16300000   0.99439492 -1.7025647e-05   0.64708509    0.0352164            0   0.61186869    1.4841344    2.1312195   0.95440682 
16305000    1.0166003 1.0064426e-05   0.59533836  0.024405512            0   0.57093285    1.5172759    2.1126142    2.8082673 
16310000    1.0286813 2.9273636e-05    0.5754348  0.022076499            0    0.5533583    1.5353068    2.1107417    4.1341354 
16315000    1.0576704 4.9821516e-05   0.52433476  0.022581566            0   0.50175319    1.5785731    2.1029079     5.546571 
16320000   0.97584277 2.4819934e-05   0.63885427  0.015006671            0    0.6238476    1.4564453    2.0952996    3.8108535 
16325000    1.0834754 -4.5682469e-05   0.49670135  0.012249801            0   0.48445155     1.617087    2.1137884   -1.0437839 
16330000   0.98988548 -7.4722574e-05   0.61278969 0.0079913111            0   0.60479838    1.4774041    2.0901938   -3.0746305 
16335000    1.0288264 -4.3159802e-05   0.54463331   0.01864855            0   0.52598477    1.5355235    2.0801568  -0.90304874 
16340000   0.99864952 4.2590543e-06   0.58856132  0.025945845            0   0.56261548    1.4904844    2.0790457    2.3734316 
16345000    1.0114572 3.9838332e-06   0.56094826  0.015421554            0   0.54552671    1.5095999    2.0705481    2.3459107 
16350000    1.0172283 2.4562944e-06   0.56408696  0.017016525            0   0.54707043    1.5182133    2.0823003    2.2520793 
16355000    1.0267889 5.3087675e-05   0.55815496  0.031004835            0   0.52715012    1.5324825    2.0906374    5.7600576 
16360000     1.030079 -4.467989e-06   0.56056697  0.034937166            0    0.5256298    1.5373928    2.0979598    1.7891324 
16365000    1.0449618 -6.1003905e-05   0.54146723  0.019167534            0    0.5222997    1.5596055    2.1010727   -2.1155172 
16370000    1.0537123 2.0614918e-05   0.52377958  0.044874582            0   0.47890499    1.5726657    2.0964452    3.5213484 
16375000   0.99377373 -6.2708032e-06   0.61452904  0.033397668            0   0.58113137    1.4832073    2.0977363    1.6642984 
16380000   0.98749329 1.7729411e-05   0.61883396  0.020847706            0   0.59798626    1.4738337    2.0926677    3.3181246 
16385000    1.1056742 4.9658242e-05   0.47175032  0.008909652            0   0.46284067    1.6502188    2.1219691    5.5543468 
16390000    1.0317135 -1.0511267e-06   0.59093783  0.012696328            0   0.57824151    1.5398325    2.1307703    2.0581164 
16395000    1.0474156 -1.355463e-05   0.58721157  0.027443708            0   0.55976786    1.5632677    2.1504793    1.2135833 
16400000    1.0163496 5.0673276e-05   0.65595816   0.05676237            0   0.59919579    1.5169018    2.1728599    5.6753967 
16405000    1.0626838 2.8130959e-05   0.58975472  0.028319303            0   0.56143542    1.5860556    2.1758103    4.1202222 
16410000    1.0663524 -4.3037973e-05   0.58706138  0.037718557            0   0.54934283    1.5915309    2.1785923  -0.79619243 
16415000    1.0792277 -3.9996782e-05   0.58213996  0.041033891            0   0.54110607    1.6107473    2.1928872  -0.57169035 
16420000    1.0808973 4.8320978e-06   0.58125894  0.025440363            0   0.55581858    1.6132392    2.1944981    2.5284927 
16425000    1.0962459 5.2600003e-05   0.56352264  0.025215107            0   0.53830753     1.636147    2.1996696    5.8353818 
16430000    1.0746587 6.9453751e-05   0.60181445  0.029465078            0   0.57234937    1.6039282    2.2057426    7.0063859 
16435000    1.0646027 0.00010820638   0.60762943  0.063541161            0   0.54408827    1.5889196     2.196549    9.6757741 
16440000    1.0261433 -1.52143e-05   0.65748046  0.079652945            0   0.57782752    1.5315188    2.1889993    1.1373868 
16445000    1.0668725 -5.8139769e-05   0.60229017  0.035653891            0   0.56663628    1.5923071    2.1945973   -1.8240235 
16450000    1.0823478 4.1476698e-05   0.57433716   0.02967385            0   0.54466331    1.6154041    2.1897413    5.0566106 
16455000    1.0675068 7.4137653e-05   0.58008458  0.030425911            0   0.54965867    1.5932539    2.1733385     7.297733 
16460000    1.0817316 0.00010743966   0.53873216  0.035270705            0   0.50346145    1.6144845    2.1532166    9.5794463 
16465000    1.1041224 2.9205956e-05   0.50120582  0.029522007            0   0.47168381    1.6479027    2.1491085    4.1678242 
16470000    1.0670486 -3.4866053e-06   0.54073506  0.020111693            0   0.52062337      1.59257    2.1333051    1.8923109 
16475000    1.0656627 -7.1725663e-06   0.53928617  0.028365881            0   0.51092029    1.5905015    2.1297877    1.6340199 
16480000    1.0457758 -4.503771e-05   0.55500579  0.023172919            0   0.53183287    1.5608204    2.1158262  -0.99718028 
16485000    1.0660896 -2.0828346e-05   0.54072906  0.017050333            0   0.52367872    1.5911387    2.1318678    0.6922125 
16490000    1.0523931 1.6081255e-05   0.54193826  0.014945483            0   0.52699278    1.5706967     2.112635    3.2241713 
16495000    1.0410696 2.6298568e-05   0.56170143  0.018699893            0   0.54300154    1.5537964    2.1154978    3.9332548 
16500000    1.0560687 -2.1522115e-05   0.53673909  0.025724247            0   0.51101484    1.5761826    2.1129217   0.62531305 
16505000    1.0466435 -1.9811127e-05   0.55455748   0.02291546            0   0.53164202    1.5621154    2.1166729   0.74732778 
16510000    1.0505857 -4.0563641e-06   0.53331936  0.034452662            0    0.4988667    1.5679991    2.1013185    1.8209426 
16515000    1.0618821 -1.8603333e-05   0.49418232   0.03262482            0    0.4615575     1.584859    2.0790413    0.7931789 
16520000    1.0716653 2.0691182e-05   0.49145435  0.024088095            0   0.46736626    1.5994604    2.0909148    3.5210893 
16525000    1.0739902 1.013492e-05   0.47605733  0.014938508            0   0.46111882    1.6029304    2.0789877    2.7795134 
16530000    1.0557604 -4.4244075e-06   0.51921296  0.011274522            0   0.50793844    1.5757224    2.0949353    1.7891203 
16535000    1.0908072 -7.1388157e-06   0.47032835  0.013651636            0   0.45667672    1.6280297     2.098358    1.6049231 
16540000    1.0779719 -1.3748816e-05   0.49325567  0.012740127            0   0.48051554     1.608873    2.1021287    1.1518106 
16545000    1.0909034 -4.2840843e-05   0.49003741 0.0092923673            0   0.48074504    1.6281734    2.1182108  -0.84294827 
16550000    1.0697249 1.4979589e-06    0.5233917  0.016184394            0   0.50720731    1.5965645    2.1199562    2.2234951 
16555000    1.0104089 1.5610837e-05   0.59063882  0.033429083            0   0.55720974    1.5080353    2.0986741    3.1776952 
16560000    1.0694127 -1.5713674e-05    0.4970282   0.01260044            0   0.48442776    1.5960985    2.0931267    1.0069975 
16565000    1.0017541 -1.9891487e-06   0.58773961  0.015611919            0    0.5721277     1.495118    2.0828577    1.9453677 
16570000    1.0759389 -3.6184927e-05   0.45357256 0.0087364281            0   0.44483613    1.6058388    2.0594113  -0.44169081 
16575000    1.0850187 -1.849985e-05   0.45371686 0.0060467612            0   0.44767009    1.6193905    2.0731073   0.79439768 
16580000    1.0543108 -4.9550031e-06   0.52467409 0.0067045637            0   0.51796953    1.5735588    2.0982329    1.7557431 
16585000    1.0361331 3.8869657e-05   0.54153323 0.0083629749            0   0.53317026    1.5464286    2.0879618    4.7746325 
16590000    0.9966649 1.228626e-05   0.59880547  0.014279076            0   0.58452639    1.4875224    2.0863278    2.9355541 
16595000    1.0304946 -1.6339702e-05   0.54330863  0.028089956            0   0.51521867    1.5380132    2.0813218    0.9519216 
16600000   0.98078927 -4.212976e-05   0.61144943  0.036633042            0   0.57481639     1.463828    2.0752774   -0.8367316 
16605000    1.0625047 -1.8017252e-05   0.50605687  0.016294581            0   0.48976229    1.5857883    2.0918451   0.84649267 
16610000    1.0735146 2.9226868e-05   0.50468491  0.022888202            0   0.48179671    1.6022206    2.1069055    4.1270666 
16615000     1.055122 3.7388686e-05   0.54557311  0.015347026            0   0.53022609    1.5747696    2.1203427    4.7046486 
16620000    1.0554037 -1.5566016e-06   0.55880908  0.048592535            0   0.51021655      1.57519    2.1339991    2.0264068 
16625000    1.0793822 2.3937347e-05   0.51056868  0.040748164            0   0.46982051     1.610978    2.1215467     3.776096 
16630000    1.0537382 1.7040174e-06   0.53249541  0.039938293            0   0.49255712    1.5727042    2.1051996    2.2229813 
16635000    1.0214485 -9.3611135e-05   0.59151756  0.023702579            0   0.56781498    1.5245119    2.1160295   -4.3543722 
16640000    1.0336576 -3.6305077e-05   0.58199254  0.030666989            0   0.55132555     1.542734    2.1247266  -0.38468034 
16645000    1.0262832 3.8574245e-05   0.58597849  0.050141492            0     0.535837    1.5317277    2.1177062     4.783958 
16650000    1.0573726 4.011659e-05   0.52765014  0.064000923            0   0.46364921    1.5781286    2.1057788    4.8786375 
16655000    1.0182788 3.7141382e-05   0.56056142  0.029110707            0   0.53145072    1.5197811    2.0803425    4.6475549 
16660000    1.0350437 3.2321611e-05   0.53299718  0.019767461            0   0.51322972    1.5448026    2.0777998    4.3118696 
16665000     1.032042 1.4217813e-05   0.53569427  0.043710825            0   0.49198344    1.5403227     2.076017    3.0587522 
16670000     1.009916 -1.5523679e-05   0.58190694  0.043761749            0   0.53814519    1.5072997    2.0892066    1.0162099 
16675000    1.0294483 1.3768991e-05   0.54202413  0.030423114            0   0.51160101    1.5364515    2.0784757    3.0301883 
16680000    1.0076617 -1.085173e-05   0.57950237  0.026518478            0   0.55298389    1.5039351    2.0834374    1.3333659 
16685000    1.0813605 -2.5134318e-05   0.48685369   0.02176759            0    0.4650861    1.6139306    2.1007843   0.36350023 
16690000    1.0438948 1.3530204e-05   0.56016363   0.01899361            0   0.54117002    1.5580129    2.1181766    3.0533843 
16695000    1.1005125 1.0702627e-05   0.47657749  0.028083225            0   0.44849426     1.642515    2.1190924     2.858858 
16700000    1.0477616 -6.5686347e-06   0.55819131  0.031093237            0   0.52709807    1.5637842    2.1219756    1.6679515 
16705000    1.0226327 9.749568e-06   0.59972032  0.013920019            0    0.5858003    1.5262793    2.1259996    2.7998898 
16710000    1.0999768 2.2615285e-06   0.50030633 0.0044173849            0   0.49588895    1.6417154    2.1420217    2.2983386 
16715000    1.0647384 2.1389414e-05   0.55917689  0.013930245            0   0.54524664     1.589122    2.1482989    3.6267352 
16720000    1.0243383 -1.1518473e-05   0.61731567  0.019901434            0   0.59741423    1.5288249    2.1461405    1.3499837 
16725000    1.1069275 -2.4191024e-05   0.48500648 0.0085700019            0   0.47643648    1.6520892    2.1370957   0.46501212 
16730000    1.1052739 -6.5981179e-06    0.5093901 0.0038168034            0    0.5055733    1.6496213    2.1590114    1.7029495 
16735000    1.0693716 -4.3835517e-05   0.57247972  0.004012161            0   0.56846756    1.5960371    2.1685168  -0.86139414 
16740000    1.1009768 1.7368796e-05   0.53265839  0.023778932            0   0.50887946    1.6432078    2.1758662    3.3763974 
16745000    1.0745199 8.2715847e-06   0.58493064  0.032207034            0   0.55272361     1.603721    2.1886516    2.7603835 
16750000    1.0027957 -1.7674639e-05   0.66675778  0.031878816            0   0.63487897    1.4966726    2.1634304   0.94175934 
16755000    1.0799291 2.5009176e-05   0.55541415  0.017363779            0   0.53805037    1.6117942    2.1672084    3.8958426 
16760000    1.0772957 -1.9002969e-05   0.56532111  0.016213984            0   0.54910712    1.6078639     2.173185   0.85969977 
16765000      1.04943 -4.046321e-05   0.61697806  0.019198248            0   0.59777982    1.5662743    2.1832524  -0.61356464 
16770000    1.0727579 -2.2896128e-05   0.59994683   0.01061474            0   0.58933209    1.6010912     2.201038   0.61845763 
16775000    1.0499393 -6.1948861e-05   0.63725626  0.020303215            0   0.61695304    1.5670344    2.2042906   -2.0776146 
16780000    1.0271628 -1.5782936e-05   0.68017717  0.022614953            0   0.65756221    1.5330405    2.2132176    1.1223011 
16785000    1.1036588 4.2208228e-05    0.5924546  0.023030284            0   0.56942432    1.6472107    2.2396653    5.1570981 
16790000    1.0981197 2.2532131e-05   0.59462281  0.034067346            0   0.56055546    1.6389437    2.2335665    3.7909874 
16795000    1.0922426 -1.3558574e-05   0.58817761  0.012846926            0   0.57533068    1.6301721    2.2183497    1.2811811 
16800000    1.0576433 -4.8229384e-05    0.6245677  0.016435214            0   0.60813249    1.5785326    2.2031003   -1.1305147 
16805000    1.1393013 -2.5724258e-05   0.51347193  0.016009691            0   0.49746224    1.7004071    2.2138791   0.43581836 
16810000    1.0678719 -1.7441312e-05   0.62334044  0.018385394            0   0.60495505    1.5937989    2.2171393    1.0115958 
16815000    1.0143611 3.438563e-05   0.69298647  0.050757039            0   0.64222943    1.5139339    2.2069203    4.5836551 
16820000    1.0273086 -3.3504191e-06   0.67276168  0.054003139            0   0.61875854     1.533258    2.2060197    1.9744387 
16825000    1.1025469 -2.416444e-05   0.56872064  0.031369314            0   0.53735132    1.6455512    2.2142718   0.54402571 
16830000    1.0680113 2.7870552e-05   0.60519754  0.024381023            0   0.58081652    1.5940068    2.1992043    4.1256169 
16835000    1.1188607 3.0783452e-06     0.535169  0.024474074            0   0.51069493    1.6698996    2.2050686    2.4178438 
16840000    1.0629726 -4.9566774e-05   0.63625358 0.0098001293            0   0.62645345    1.5864866    2.2227402   -1.2033152 
16845000    1.1274905 -3.1316375e-05   0.54521724  0.023557351            0   0.52165989    1.6827796    2.2279969  0.063409032 
16850000    1.1387457 3.6340783e-05   0.54553737  0.016396329            0   0.52914104     1.699578    2.2451153    4.7569903 
16855000     1.124193 3.5160965e-05   0.54536169  0.033029833            0   0.51233186     1.677858    2.2232197    4.6535457 
16860000    1.0558085 -1.5089306e-05   0.66426652  0.042781325            0   0.62148519    1.5757942    2.2400607    1.1970879 
16865000    1.0762641 -0.00010086539   0.62462725   0.01359208            0   0.61103517    1.6063241    2.2309514   -4.7408644 
16870000    1.1292908 -5.1375842e-05    0.5426788 0.0089096381            0   0.53376916    1.6854664    2.2281452    -1.322953 
16875000     1.114328 7.4597071e-05   0.56392079   0.01832658            0   0.54559421    1.6631345    2.2270553    7.3832049 
16880000    1.1118847 1.3539262e-05   0.56919615  0.032650782            0   0.53654537    1.6594879    2.2286841    3.1645179 
16885000    1.1630317 -2.5109706e-05   0.50090259   0.01811692            0   0.48278567    1.7358248    2.2367274   0.50114454 
16890000    1.1161195 4.5249239e-05   0.59622005  0.020630335            0   0.57558971    1.6658084    2.2620284    5.3896558 
16895000    1.0908073 -7.1780836e-05   0.63922218  0.019145179            0     0.620077    1.6280298     2.267252   -2.6942394 
16900000    1.1730131 -3.8193639e-05   0.52575198  0.016748587            0   0.50900339     1.750722     2.276474  -0.36347032 
16905000    1.1125585 8.6567148e-06   0.62007066  0.044219194            0   0.57585146    1.6604936    2.2805642    2.8789163 
16910000    1.1619866 -4.130569e-05   0.55163042  0.038411073            0   0.51321935    1.7342649    2.2858953  -0.56915392 
16915000    1.1831079 -3.1293595e-05    0.5259351  0.032732837            0   0.49320226    1.7657885    2.2917236   0.12871031 
16920000    1.1120638 4.4768694e-06   0.61162071   0.02009904            0   0.59152167    1.6597552    2.2713759    2.5808171 
16925000    1.0941859 1.6492501e-05   0.63173542   0.01645761            0   0.61527781    1.6330725    2.2648079    3.4047695 
16930000    1.1064644 -3.9877647e-05   0.61604602  0.055228574            0   0.56081745    1.6513981    2.2674442  -0.48889879 
16935000    1.1393729 -2.1186772e-05   0.57797138  0.038872864            0   0.53909852     1.700514    2.2784854   0.81405569 
16940000    1.1426959 -4.3591998e-05   0.56683564  0.026987788            0   0.53984785    1.7054736    2.2723092  -0.74076968 
16945000    1.1545995 4.4657693e-06   0.53229441  0.015725853            0   0.51656855    1.7232398    2.2555342    2.5642082 
16950000      1.08666 6.4322832e-05   0.62693373  0.053998922            0   0.57293481    1.6218401    2.2487739     6.694768 
16955000    1.0877867 5.3757754e-05   0.61860132  0.047346219            0    0.5712551    1.6235217     2.242123     5.957859 
16960000    1.1276058 -9.1592378e-06   0.57314684  0.034703878            0   0.53844296    1.6829517    2.2560985     1.623012 
16965000    1.1257184 -4.8093587e-05   0.59196457  0.024273839            0   0.56769073    1.6801346    2.2720992   -1.0521295 
16970000    1.0972421 2.9490189e-05   0.63577135  0.017689307            0   0.61808205    1.6376338    2.2734051     4.311767 
16975000    1.1024103 8.7101553e-06   0.60951185  0.015210545            0    0.5943013    1.6453474    2.2548592    2.8569051 
16980000    1.1595242 -4.6279248e-05   0.49921445 0.0084750955            0   0.49073935    1.7305899    2.2298043  -0.96901729 
16985000    1.1281537 -1.4880336e-05   0.53945283  0.021936201            0   0.51751663    1.6837694    2.2232222    1.1946934 
16990000    1.0387005 -3.866279e-05   0.66768246  0.042714952            0    0.6249675    1.5502605     2.217943  -0.45442908 
16995000    1.0915009 1.0569396e-05   0.59117668   0.01936873            0   0.57180795    1.6290651    2.2202418    2.9507984 
17000000    1.0780918 4.780933e-05   0.60364061  0.031606535            0   0.57203407     1.609052    2.2126926    5.5172735 
17005000    1.1358039 1.8586635e-05    0.5171636  0.047694526            0   0.46946907    1.6951873    2.2123509    3.4970591 
17010000    1.1156001 -6.5142046e-05   0.52729828  0.032499877            0    0.4947984    1.6650331    2.1923314   -2.3102868 
17015000    1.0920546 1.0697132e-05   0.54771502  0.027375338            0   0.52033969    1.6298915    2.1776065    2.9169923 
17020000    1.0594174 3.3902819e-05   0.58318162   0.02399233            0   0.55918929    1.5811805    2.1643621    4.5077249 
17025000   0.99977438 -1.1496855e-05   0.66755469  0.021916801            0   0.64563789    1.4921633     2.159718    1.3650553 
17030000    1.1029296 2.5470715e-05   0.51590096  0.025521716            0   0.49037924    1.6461224    2.1620234    3.9225592 
17035000    1.0342409 1.2944286e-05   0.60931572  0.014543616            0    0.5947721    1.5436046    2.1529203    3.0476293 
17040000    1.0250536 6.1142259e-06    0.6277933  0.010067441            0   0.61772586    1.5298925    2.1576858    2.5803011 
17045000      1.06643 1.1568146e-05   0.55191009  0.018904178            0   0.53300591    1.5916468    2.1435569    2.9431471 
17050000     1.073737 9.9804084e-06   0.53099063  0.041226593            0   0.48976404    1.6025524     2.133543    2.8233889 
17055000   0.99257723 1.1653856e-05   0.63856126  0.018572287            0   0.61998897    1.4814215    2.1199828    2.9254973 
17060000    1.0597793 -2.790844e-05   0.53550046  0.027517701            0   0.50798276    1.5817207    2.1172211   0.18818973 
17065000     1.065709 -5.6906276e-05   0.53544682  0.033007719            0    0.5024391    1.5905706    2.1260175   -1.8073444 
17070000    1.0134529 -5.1565202e-05   0.61242798  0.022608998            0   0.58981898    1.5125785    2.1250065   -1.4391803 
17075000   0.99862701 -3.3685237e-05   0.63604822  0.032929828            0    0.6031184    1.4904508     2.126499  -0.20182457 
17080000    1.0657791 -2.6958551e-05   0.53169138  0.033444167            0   0.49824721    1.5906753    2.1223666   0.25899158 
17085000    1.0564035 2.1344514e-05   0.56845734  0.043163383            0   0.52529396    1.5766822    2.1451395    3.6204723 
17090000    1.0540531 -4.2430325e-05   0.58977812  0.036656539            0   0.55312158    1.5731743    2.1629524  -0.76983164 
17095000    1.0351844 3.3996298e-05    0.6099157  0.010239435            0   0.59967627    1.5450127    2.1549284    4.5047525 
17100000    1.0270813 6.9524926e-05   0.62189069  0.012064267            0   0.60982642    1.5329188    2.1548095    6.9603724 
17105000     1.046104 4.0537273e-05   0.59227452  0.024636853            0   0.56763767    1.5613102    2.1535848    4.9555211 
17110000    1.0534597 7.5961873e-05     0.572294  0.034543925            0   0.53775008    1.5722886    2.1445827    7.3950673 
17115000    1.0725805 9.1984569e-06   0.55691183  0.029069297            0   0.52784253    1.6008264    2.1577382    2.7935356 
17120000    1.0321638 2.4200089e-05   0.59576447  0.045161767            0    0.5506027    1.5405045    2.1362689    3.8089791 
17125000     1.049809 -8.7142368e-06   0.55954737  0.026799264            0    0.5327481      1.56684    2.1263873    1.5240593 
17130000    1.0686408 -5.3589321e-05   0.53622895   0.03478525            0    0.5014437    1.5949464    2.1311753   -1.5729185 
17135000    1.0055398  1.54523e-06   0.61658907  0.033454864            0   0.58313421    1.5007682    2.1173572    2.2241635 
17140000     1.026001 -4.2308137e-05   0.57202666 0.0093415934            0   0.56268507    1.5313065    2.1033332  -0.82100525 
17145000    1.0653642 -5.0528479e-05   0.51816778  0.010368647            0   0.50779913    1.5900561    2.1082238   -1.3843046 
17150000    1.0591154 6.5378688e-06   0.52337598 0.0069301708            0   0.51644581    1.5807297    2.1041057    2.5560032 
17155000     1.000164 3.2931036e-05   0.59548526  0.016406285            0   0.57907897    1.4927447      2.08823    4.3644232 
17160000    1.0103605 4.3060383e-05    0.5720307  0.030078663            0   0.54195204     1.507963    2.0799937    5.0563274 
17165000     1.011831 3.0815003e-05   0.55788316  0.036398731            0   0.52148443    1.5101578     2.068041     4.197974 
17170000   0.99093975 1.9727765e-05   0.60300151  0.030635448            0   0.57236606    1.4789776    2.0819791    3.4455622 
17175000   0.97881392 -1.3348726e-05   0.62836312   0.02154434            0   0.60681878    1.4608798    2.0892429     1.166579 
17180000    1.0429043 3.1604292e-05   0.51727288  0.027363337            0   0.48990954    1.5565347    2.0738076    4.2582962 
17185000    1.0088545 1.9820796e-05   0.56979328  0.045068834            0   0.52472445    1.5057153    2.0755086    3.4455221 
17190000   0.99155096 -1.0154982e-05    0.5907642  0.037773941            0   0.55299026    1.4798898     2.070654    1.3687416 
17195000    1.0408426 -1.7587995e-05   0.51846498  0.019511487            0   0.49895349    1.5534576    2.0719225   0.85624031 
17200000    1.0372256 -4.8220648e-05   0.53444059  0.011909256            0   0.52253134    1.5480592    2.0824998   -1.2505114 
17205000    1.0336501 3.8971834e-05   0.54176216  0.016419681            0   0.52534248    1.5427227    2.0844849     4.778218 
17210000   0.99595369 2.5952099e-05   0.59720988 0.0049950202            0   0.59221486    1.4864609    2.0836708    3.8774799 
17215000    1.0338187 -4.1641448e-05   0.53511286  0.002968052            0   0.53214481    1.5429744    2.0780873  -0.80016963 
17220000    1.0283977 -3.8557599e-06   0.54943553  0.011487402            0   0.53794813    1.5348836    2.0843192     1.817809 
17225000   0.97666799 -2.2019477e-05    0.6078286  0.022532346            0   0.58529625     1.457677    2.0655056    0.5435193 
17230000    1.0222624 4.4895408e-06   0.53438847  0.029896201            0   0.50449227    1.5257266    2.0601151    2.3704322 
17235000   0.99636805 2.5593899e-05   0.57243076  0.034522846            0   0.53790791    1.4870793    2.0595101    3.8285603 
17240000    1.0181578 -5.3304157e-05   0.56643436  0.030759839            0   0.53567452    1.5196006    2.0860349   -1.5983484 
17245000    1.0082577 -6.7190858e-05   0.56994868   0.01415517            0   0.55579351    1.5048247    2.0747734   -2.5694588 
17250000    1.0159986 -4.8146271e-05   0.55195562  0.041251625            0     0.510704    1.5163779    2.0683335   -1.2595367 
17255000   0.97011003 3.0122548e-05   0.60497181  0.033551001            0   0.57142081    1.4478892     2.052861    4.1349316 
17260000     1.024318 3.900285e-05    0.5197982  0.013779036            0   0.50601917    1.5287946    2.0485928    4.7444698 
17265000   0.98495457 -2.6715584e-05   0.57634924  0.024912502            0   0.55143673    1.4700447    2.0463939    0.1998128 
17270000     1.036438 4.0064632e-05   0.48600935  0.010843932            0   0.47516542    1.5468837     2.032893    4.8021604 
17275000   0.96988449 5.7089253e-05   0.57443578  0.017617959            0   0.55681782    1.4475526    2.0219884    5.9679976 
17280000    1.0121237 2.1234976e-05   0.51611514   0.03028835            0   0.48582679    1.5105947    2.0267098    3.4944713 
17285000   0.96179207 -2.1691795e-05   0.59917636 0.0092035734            0   0.58997279    1.4354747     2.034651   0.53531415 
17290000   0.99473328 -4.8124558e-05    0.5551953  0.012269343            0   0.54292595    1.4846394    2.0398347   -1.2865348 
17295000   0.97305489 -2.5477208e-05    0.5840392 0.0092626468            0   0.57477655    1.4522844    2.0363236   0.27533903 
17300000   0.97800017 9.4888499e-06    0.5724193  0.010458874            0   0.56196043    1.4596653    2.0320846    2.6879539 
17305000   0.96018027 3.292284e-05   0.61390341  0.015013134            0   0.59889027    1.4330691    2.0469725    4.3225991 
17310000   0.98426568 4.2998697e-05   0.56948599  0.015812022            0   0.55367397    1.4690165    2.0385025    5.0105724 
17315000    1.0132949 9.109957e-05   0.52000707  0.031205085            0   0.48880199    1.5123426    2.0323497     8.329152 
17320000   0.94025661 0.00010422704   0.62986645  0.027047892            0   0.60281856     1.403333    2.0331994    9.2373726 
17325000   0.99360669 2.388278e-05    0.5572365  0.030982443            0   0.52625406     1.482958    2.0401945    3.6909722 
17330000   0.98915421 -7.5274003e-05   0.55092993 0.0077017465            0   0.54322818    1.4763127    2.0272426   -3.1756965 
17335000    0.9545813 -6.8010494e-05    0.6108754 0.0092903061            0    0.6015851    1.4247126     2.035588   -2.6652973 
17340000    0.9808837 -1.1116423e-05    0.5726185  0.022550509            0   0.55006799    1.4639689    2.0365874    1.2682202 
17345000   0.98097352 2.9670028e-05    0.5636658  0.013654145            0   0.55001166     1.464103    2.0277688    4.0785611 
17350000   0.96503109 2.958881e-05   0.56972815  0.013815061            0   0.55591309    1.4403089    2.0100371    4.0552156 
17355000   0.97917888 -3.8003905e-05   0.55851187  0.030918673            0    0.5275932    1.4614245    2.0199363  -0.60689358 
17360000   0.95094584 4.067652e-07   0.59221539  0.019561589            0    0.5726538    1.4192867     2.011502    2.0396177 
17365000   0.93778433 -2.8406919e-05   0.60394873  0.021252906            0   0.58269583    1.3996431    2.0035918  0.040105605 
17370000   0.94288883 1.7715683e-05   0.58820699  0.017780006            0   0.57042698    1.4072616    1.9954686    3.2199766 
17375000   0.95108267 -3.4967291e-05   0.59094106  0.011796187            0   0.57914487    1.4194909    2.0104319  -0.40650722 
17380000   0.97436331 -3.5563973e-05   0.55146437  0.022581167            0   0.52888321    1.4542372    2.0057016  -0.45248017 
17385000   0.88340778 -3.2638002e-05   0.67252505  0.041992632            0   0.63053242    1.3184861    1.9910112  -0.26492754 
17390000    1.0031414 -3.0571017e-05   0.50777135  0.020813783            0   0.48695757    1.4971886      2.00496  -0.10810876 
17395000   0.98045106 -2.0944021e-05   0.54690364  0.013183878            0   0.53371976    1.4633232    2.0102268    0.5625761 
17400000   0.95228852 2.7833772e-05   0.58860018 0.0091418807            0    0.5794583    1.4212906    2.0098908    3.9337611 
17405000    1.0134315 -3.048445e-05   0.50917059 0.0060021918            0   0.50316839    1.5125465    2.0217171 -0.085368106 
17410000   0.97096814 -9.9308076e-05   0.56786916  0.017659253            0   0.55020991      1.44917    2.0170391   -4.8471351 
17415000    0.9924721 4.8634201e-05   0.53803099  0.010897172            0   0.52713381    1.4812646    2.0192956    5.3808916 
17420000   0.95292369 5.7259429e-06   0.61192434  0.010050482            0   0.60187386    1.4222386     2.034163    2.4299401 
17425000    0.9896664 -4.6590872e-05   0.54637644  0.026060507            0   0.52031593    1.4770771    2.0234535   -1.1969076 
17430000    1.0044637 8.9501397e-05   0.51864336  0.010760829            0   0.50788253    1.4991621    2.0178055     8.204142 
17435000   0.92374572 3.0057395e-05   0.63207667 0.0099707187            0   0.62210595    1.3786905    2.0107672    4.0883343 
17440000   0.95747039 1.2477965e-05    0.5651402   0.01244227            0   0.55269793    1.4290246    1.9941648    2.8566417 
17445000   0.95450662 -2.4441463e-05   0.56196303 0.0066770273            0     0.555286    1.4246011    1.9865642   0.29717027 
17450000   0.95451806 -3.8804518e-05   0.56601243 0.0098632928            0   0.55614914    1.4246182    1.9906306  -0.69153767 
17455000   0.92432782 -2.1223793e-05   0.62557459  0.019143391            0    0.6064312    1.3795593    2.0051339    0.5381453 
17460000   0.97738433 -2.419132e-05   0.54194434  0.011322563            0   0.53062178    1.4587461    2.0006904   0.32858643 
17465000   0.94059468 2.2473122e-05   0.59231582  0.013482221            0    0.5788336    1.4038376    1.9961534    3.5494956 
17470000   0.95380882 -3.7750278e-05   0.58115468 0.0094906256            0   0.57166405    1.4235597    2.0047143   -0.6045849 
17475000   0.93882731 7.2182511e-06   0.60411374  0.038523888            0   0.56558986    1.4011998    2.0053135     2.504239 
17480000   0.98599415 2.7936128e-05    0.5328526  0.023180747            0   0.50967185    1.4715963    2.0044489     3.935394 
17485000   0.93909834 6.5459819e-05   0.57745285  0.014646754            0    0.5628061    1.4016043    1.9790571    6.5036398 
17490000   0.90643257 6.0909402e-05   0.62925721 0.0045275264            0   0.62472968    1.3528506    1.9821078    6.1921657 
17495000   0.95187941 -4.177068e-05   0.54892142 0.0047668589            0   0.54415456      1.42068    1.9696014  -0.91758798 
17500000   0.93400505 -5.9998983e-05   0.57956195  0.010018621            0   0.56954333    1.3940025    1.9735645   -2.1735652 
17505000   0.94610843 -3.8271456e-05   0.55373472 0.0030191768            0   0.55071554    1.4120668    1.9658016   -0.6795215 
17510000   0.93226531 -5.4553417e-05   0.57604535 0.0042328903            0   0.57181246     1.391406    1.9674513   -1.8032809 
17515000   0.93557087 -9.0504317e-06   0.58020279 0.0072719134            0   0.57293088    1.3963395    1.9765423    1.3509765 
17520000   0.89474341 4.0065039e-06    0.6318417  0.014054247            0   0.61778746    1.3354045    1.9672462    2.2441758 
17525000   0.91524636 2.1675506e-05    0.6229153  0.019707242            0   0.60320806    1.3660052    1.9889205    3.4871315 
17530000   0.97278813 -3.0138942e-05   0.54117465  0.015099999            0   0.52607465    1.4518863    1.9930609 -0.090142742 
17535000   0.93651498 -6.3186547e-05   0.59888606 0.0056891331            0   0.59319693    1.3977486    1.9966347   -2.3708195 
17540000    1.0051729 -2.9360588e-05   0.49467109 0.0097397608            0   0.48493133    1.5002205    1.9948916 -0.034512244 
17545000   0.94996441 -2.7629878e-05   0.58067701  0.024581387            0   0.55609563    1.4178219    1.9984989  0.088721714 
17550000   0.95581934 6.3157532e-06    0.5772574  0.033073774            0   0.54418363    1.4265604    2.0038178    2.4403626 
17555000    1.0299269 -1.4830241e-05   0.47550715    0.0214912            0   0.45401595     1.537166    2.0126731   0.98760688 
17560000   0.98855109 6.5882888e-05   0.53807468  0.014390005            0   0.52368468    1.4754125    2.0134872    6.5673124 
17565000   0.96506712 1.9320601e-05   0.57643046  0.026089135            0   0.55034132    1.4403627    2.0167931    3.3522331 
17570000   0.93806173 -2.0003907e-05   0.61174733  0.023384531            0    0.5883628    1.4000571    2.0118045   0.62913438 
17575000   0.91985763 2.6920406e-05   0.63655552  0.013175621            0    0.6233799    1.3728875     2.009443    3.8701815 
17580000    0.9899256 -1.8624714e-05   0.54318785 0.0077360393            0   0.53545181     1.477464    2.0206518   0.73331161 
17585000   0.96983332 4.0671989e-05   0.56435634  0.004584607            0   0.55977174    1.4474762    2.0118326    4.8230805 
17590000    1.0309973 4.985698e-05   0.47695866 0.0024698957            0   0.47448876    1.5387635    2.0157222    5.4618366 
17595000    1.0137576 -2.0775862e-05   0.50942877  0.013888591            0   0.49554018    1.5130333    2.0224621   0.58643447 
17600000   0.94244423 1.1482983e-05    0.6247219  0.027591595            0    0.5971303     1.406598    2.0313199    2.8250237 
17605000   0.95027598 4.7998246e-05   0.61640187  0.023719962            0   0.59268191    1.4182869    2.0346888    5.3523276 
17610000    1.0123575 6.0048213e-05   0.51818299  0.016379399            0   0.50180359    1.5109435    2.0291265     6.179659 
17615000   0.95455164 5.6138241e-06   0.59521422  0.021369624            0   0.57384459    1.4246683    2.0198825    2.4079101 
17620000   0.99301432 -8.7461748e-06   0.52750775  0.015932331            0   0.51157542    1.4820739    2.0095816     1.405046 
17625000    1.0007878 -5.4124206e-05    0.5077929  0.013430121            0   0.49436278    1.4936758    2.0014687   -1.7395965 
17630000   0.98472504 -4.3750835e-05   0.53230138  0.022772343            0   0.50952903    1.4697021    2.0020035   -1.0220542 
17635000    0.9405009 5.2884174e-05   0.58483491   0.03117777            0   0.55365714    1.4036976    1.9885325    5.6438866 
17640000   0.93733041 -1.0792722e-05   0.59373762  0.030867551            0   0.56287007    1.3989656    1.9927032    1.2467103 
17645000     1.004312 1.2642645e-05   0.47868951  0.019632342            0   0.45905717    1.4989357    1.9776252    2.8514848 
17650000   0.93093596 -1.3561027e-05   0.59248494   0.01832557            0   0.57415937    1.3894219    1.9819069    1.0445687 
17655000   0.98751424 -3.6370194e-05   0.51021205  0.012085566            0   0.49812649     1.473865    1.9840771  -0.52983079 
17660000   0.99045709 4.8482574e-06   0.50173741 0.0062898607            0   0.49544755    1.4782572    1.9799946    2.3151062 
17665000   0.96769699 1.2923362e-05   0.55538267 0.0025791064            0   0.55280356    1.4442878    1.9996704    2.8929332 
17670000   0.97986762 -3.3052113e-05   0.52885316 0.0049464786            0   0.52390668    1.4624524    1.9913056  -0.29325644 
17675000   0.99404303 -1.4912664e-05   0.52210857  0.018860965            0   0.50324761    1.4836092    2.0057178   0.97495445 
17680000    0.9615097 1.6414415e-05   0.57845136  0.030028612            0   0.54842275    1.4350532    2.0135046    3.1480689 
17685000   0.98680698 -2.9355874e-05     0.547671  0.013411899            0    0.5342591    1.4728094    2.0204804 -0.0085975673 
17690000    0.9711529 -1.3526917e-05   0.57196374  0.013751723            0   0.55821202    1.4494457    2.0214094     1.086429 
17695000   0.97738026 -4.7405379e-06   0.56703449  0.024073599            0   0.54296089      1.45874    2.0257745    1.6981085 
17700000   0.96014966 -2.6190603e-05   0.57227321  0.016344203            0   0.55592901    1.4330234    2.0052966   0.19500213 
17705000    0.9469576 -7.9401443e-05    0.5841984  0.009468651            0   0.57472975    1.4133342    1.9975326   -3.4906951 
17710000   0.98490781 4.1457965e-06   0.53857972  0.024339475            0   0.51424025    1.4699749    2.0085546    2.2951121 
17715000   0.98028753 5.8025711e-05   0.52892747  0.030231409            0   0.49869606    1.4630791    1.9920066    6.0027438 
17720000   0.98245079 1.5240508e-05   0.54766468  0.014990064            0   0.53267462    1.4663078    2.0139725    3.0673964 
17725000   0.95364034 1.056188e-05   0.59506186  0.019050112            0   0.57601175    1.4233082    2.0183701    2.7484072 
17730000    1.0135434 4.3826323e-06   0.51208586  0.014130564            0    0.4979553    1.5127136    2.0247995     2.327727 
17735000    0.9606035 -2.5209143e-05    0.5993091  0.011201979            0   0.58810712    1.4337007    2.0330098   0.29055386 
17740000   0.99373375 2.6503425e-05    0.5612893 0.0080562906            0   0.55323301    1.4831476    2.0444369    3.8763537 
17745000    1.0174518 3.409921e-05   0.52316229 0.0098335598            0   0.51332873    1.5185468    2.0417091    4.3986466 
17750000   0.94342841 7.6350533e-06   0.63394223  0.013058731            0    0.6208835    1.4080669    2.0420091     2.569744 
17755000    1.0446038 2.5733396e-05   0.51418263  0.023902143            0   0.49028049    1.5590712    2.0732538    3.8519462 
17760000   0.99905729 -6.4563257e-05   0.59423799  0.028262836            0   0.56597515     1.491093     2.085331   -2.3772813 
17765000    1.0304402 -6.1281307e-05   0.55555605   0.03038477            0   0.52517128     1.537932    2.0934881   -2.1422759 
17770000    1.0558445 4.2013965e-05   0.53193146  0.016788812            0   0.51514265     1.575848    2.1077794    5.0117846 
17775000   0.97788619 4.8083167e-05   0.62648922   0.01310663            0   0.61338259    1.4594951    2.0859844    5.4094929 
17780000    1.0044894 -4.358214e-05   0.58558694 0.0042208368            0    0.5813661    1.4992005    2.0847874  -0.92761008 
17785000    1.0234457 -2.1561005e-05   0.55170299  0.010806734            0   0.54089625    1.5274927    2.0791957   0.58889902 
17790000    1.0067078 3.7357997e-05     0.586919  0.017246577            0   0.56967242    1.5025114    2.0894304    4.6716152 
17795000   0.93991069 5.4691106e-05   0.68009236 0.0080535948            0   0.67203877    1.4028167    2.0829091    5.8631583 
17800000     1.003194 1.6834309e-05   0.59749168 0.0089487981            0   0.58854289     1.497267    2.0947587    3.2583461 
17805000    0.9862813 -4.5769675e-05   0.62837057   0.01741334            0   0.61095723    1.4720248    2.1003954   -1.0632045 
17810000   0.98020375 -5.8319019e-05   0.64067107  0.016804503            0   0.62386657    1.4629541    2.1036252   -1.9273855 
17815000    1.0063308 -2.6065448e-05   0.59646747  0.016466367            0    0.5800011    1.5019487    2.0984161   0.29677239 
17820000   0.93746066 -4.5871923e-05   0.69076036  0.026597192            0   0.66416316      1.39916    2.0899204   -1.0807469 
17825000   0.95639468 1.6146559e-06   0.67798693  0.036363018            0   0.64162391    1.4274191     2.105406     2.217011 
17830000    1.0323853 2.1651099e-05   0.57503295  0.024398436            0   0.55063452    1.5408351    2.1158681     3.612392 
17835000    1.0503978 -1.7774977e-05   0.57781527 0.0089890347            0   0.56882624    1.5677187     2.145534   0.91692751 
17840000    1.0238962 2.9597033e-05   0.60264604 0.0084591636            0   0.59418688    1.5281651    2.1308112    4.1765581 
17845000    1.0344616 3.4202131e-06   0.57632353  0.010924224            0   0.56539931     1.543934    2.1202575    2.3566626 
17850000   0.98294055 -3.5355707e-05   0.66614949  0.017426668            0   0.64872282    1.4670388    2.1331883  -0.31059818 
17855000   0.99972618 -7.1237727e-06   0.62935081   0.01494539            0   0.61440542    1.4920913    2.1214421     1.629047 
17860000    0.9785674 7.4526143e-06   0.66104416  0.018869879            0   0.64217428    1.4605118     2.121556    2.6366807 
17865000    1.0537207 3.3070623e-05   0.56946345  0.013357104            0   0.55610635    1.5726782    2.1421416    4.4279831 
17870000   0.98596878 -4.8303951e-06    0.6715819  0.017834608            0    0.6537473    1.4715584    2.1431403    1.8092634 
17875000    1.0336787 2.3505427e-05   0.61257102  0.019755591            0   0.59281543    1.5427655    2.1553365    3.7800316 
17880000    1.0501839 -1.9926956e-05    0.5995074  0.013061697            0    0.5864457    1.5673994    2.1669068   0.78955559 
17885000    1.0454666 -2.3842798e-05   0.60810196  0.012719131            0   0.59538283    1.5603588    2.1684608   0.52044658 
17890000   0.99896193 -8.2569063e-06   0.67931535  0.025875914            0   0.65343944    1.4909507     2.170266    1.5995487 
17895000    1.0801807 3.8145444e-05    0.5585601   0.01854797            0   0.54001213    1.6121697    2.1707298    4.8073429 
17900000    1.0103401 2.1903901e-05   0.65205011 0.0046415884            0   0.64740852    1.5079326    2.1599827    3.6739803 
17905000    1.0486695 3.1443739e-05   0.61612158 0.0084980764            0   0.60762351    1.5651392    2.1812608    4.3546521 
17910000    1.0733415 4.4297454e-05   0.58556574  0.027893428            0   0.55767231    1.6019621    2.1875279    5.2493679 
17915000     1.021149 1.9912284e-05   0.64811068  0.034000566            0   0.61411011    1.5240649    2.1721756    3.5485127 
17920000    1.0592664 2.3847313e-05   0.58259641   0.01532117            0   0.56727524     1.580955    2.1635514    3.8118777 
17925000    1.0213478 2.4332756e-06   0.63898094   0.02310999            0   0.61587095    1.5243616    2.1633426    2.3315306 
17930000    1.0473745 -1.9828738e-05   0.61125221  0.033132943            0   0.57811927    1.5632065    2.1744587   0.80389632 
17935000    1.0492951 -4.9053235e-05   0.59910894   0.04130193            0   0.55780701     1.566073    2.1651819   -1.2253777 
17940000    1.0621842 -2.6402988e-05    0.5812363  0.013880409            0    0.5673559      1.58531    2.1665463   0.34157177 
17945000    1.0048624 5.9582631e-05    0.6795361 0.0089537567            0   0.67058234    1.4997571    2.1792932    6.2976447 
17950000     1.042064 3.5483333e-05   0.61606583 0.0068644866            0   0.60920134    1.5552805    2.1713463    4.6239543 
17955000    1.0776656 2.5106177e-05   0.56188609 0.0086023173            0   0.55328377    1.6084159     2.170302    3.9056409 
17960000    1.0492646 8.9166348e-06   0.58948212  0.014881302            0   0.57460082    1.5660274    2.1555096    2.7718274 
17965000     1.025729 -5.3000082e-05    0.6218939  0.018332084            0   0.60356181    1.5309006    2.1527945   -1.5105712 
17970000    0.9776104 -2.6640458e-05   0.69522791  0.030515015            0    0.6647129    1.4590835    2.1543114   0.31292301 
17975000    1.0746335 -3.0490411e-05    0.5712505  0.013122314            0   0.55812818    1.6038904    2.1751409  0.067643704 
17980000    1.0372496 4.1021554e-05   0.61157499  0.012329877            0   0.59924512     1.548095      2.15967    4.9950798 
17985000    1.0377602 4.608728e-05   0.60398873   0.02374403            0    0.5802447     1.548857    2.1528458    5.3383986 
17990000   0.97896857 -4.5376315e-06   0.68672192  0.032434774            0   0.65428715    1.4611106    2.1478325    1.8341914 
17995000    1.0228773 -1.5919768e-05   0.61260595  0.030244743            0   0.58236121    1.5266444    2.1392504     1.038876 
18000000    1.0651657 -6.057337e-05   0.54884913   0.01497966            0   0.53386947    1.5897599     2.138609   -2.0482223 
18005000    1.0040964 5.5735265e-06   0.64631387  0.014303954            0   0.63200991    1.4986139    2.1449278    2.5301699 
18010000    1.0934783 -1.802022e-05   0.50924641  0.016581081            0   0.49266532    1.6320164    2.1412628   0.89570519 
18015000    1.0120389 -7.417359e-06   0.61635389  0.028657977            0   0.58769591    1.5104681     2.126822    1.6141342 
18020000   0.96892996 -8.8057362e-06   0.68458476  0.022485654            0   0.66209911     1.446128    2.1307127    1.5220602 
18025000    1.0330552 -4.8376775e-05   0.59862783 0.0075865637            0   0.59104127    1.5418349    2.1404628   -1.2033399 
18030000    1.0150627 3.6266674e-05   0.59822274  0.014096649            0   0.58412609    1.5149811    2.1132039    4.6199564 
18035000    1.0146941 3.5030792e-05   0.58695043  0.017894912            0   0.56905552    1.5144309    2.1013814    4.5227097 
18040000    1.0114351 7.4828916e-06   0.60422031   0.02172572            0   0.58249459    1.5095668    2.1137871    2.6310046 
18045000   0.97569456 5.6435891e-06   0.64518704  0.016267166            0   0.62891987    1.4562241    2.1014112     2.491496 
18050000    1.0265701 -1.7160606e-05   0.59244691  0.023838779            0   0.56860814    1.5321559    2.1246028   0.93846171 
18055000    1.0339923 4.0601135e-05   0.56719034  0.045140554            0   0.52204978    1.5432335    2.1104238    4.9167742 
18060000   0.97339524 2.7719737e-05   0.63482246  0.044675033            0   0.59014742    1.4527924    2.0876148    4.0036031 
18065000   0.97778183 -5.4115806e-05   0.62971591  0.048249562            0   0.58146635    1.4593394    2.0890553   -1.6514292 
18070000   0.96090015 -7.1917431e-05   0.64506091  0.044177994            0   0.60088292    1.4341435    2.0792044   -2.8917284 
18075000   0.97278145 -3.3651779e-07    0.6244871  0.021290621            0   0.60319648    1.4518763    2.0763634    2.0531033 
18080000    1.0224934 -2.2078814e-05   0.54327582  0.027974469            0   0.51530135    1.5260714    2.0693472   0.54325958 
18085000    1.0022507 -3.3155539e-05   0.58975002  0.022464941            0   0.56728508    1.4958591    2.0856092  -0.20610169 
18090000   0.97196201 5.1756477e-06   0.62005415  0.022447318            0   0.59760683    1.4506533    2.0707074    2.4284482 
18095000   0.99692841 2.086711e-05   0.57169316 0.0090872589            0    0.5626059    1.4879156    2.0596088    3.5019435 
18100000    1.0051552 -6.4258358e-06   0.55602054  0.011582699            0   0.54443784    1.5001941    2.0562146    1.6120608 
18105000   0.97158625 -6.6244968e-06   0.59470469  0.037118266            0   0.55758642    1.4500925    2.0447972    1.5869119 
18110000    1.0058627 1.0527875e-06   0.55849772  0.028042732            0   0.53045499    1.5012501    2.0597478    2.1325165 
18115000   0.95560589 -2.0526038e-05   0.61991262  0.013636465            0   0.60627615    1.4262418    2.0461544   0.62739466 
18120000   0.96639847 -7.4870547e-06   0.59124879 0.0081434135            0   0.58310538    1.4423497    2.0335985    1.5160933 
18125000     1.002556 1.1927604e-05   0.51207296  0.018143699            0   0.49392926    1.4963149    2.0083878    2.8328238 
18130000   0.94599688 -1.9426649e-05   0.60331439  0.037052682            0   0.56626171    1.4119003    2.0152147   0.67244473 
18135000   0.98359968 -3.0683886e-05   0.54108202  0.033006395            0   0.50807562    1.4680225    2.0091045  -0.11176565 
18140000   0.98474146 -4.748266e-05   0.52809031  0.008059625            0   0.52003068    1.4697266    1.9978169   -1.2841845 
18145000     1.020125 -7.1752263e-05   0.47764418 0.0064028095            0   0.47124137    1.5225366    2.0001808   -2.9593357 
18150000   0.95756674 -1.488194e-05   0.57654441  0.010682405            0   0.56586201    1.4291684    2.0057128   0.97707309 
18155000   0.95151383 6.4407958e-05   0.59093472    0.0355655            0   0.55536922    1.4201344    2.0110691    6.4629472 
18160000   0.97252421 2.9960442e-05   0.55164872  0.023288448            0   0.52836028    1.4514924    2.0031411    4.0740068 
18165000   0.95586899 -2.7103345e-05    0.5734205  0.017462574            0   0.55595792    1.4266345     2.000055   0.12667179 
18170000   0.96310161 -5.8891425e-05   0.57776274  0.018136618            0   0.55962612    1.4374292    2.0151919   -2.0553834 
18175000    1.0295848 -1.0313082e-05   0.51035344  0.020254511            0   0.49009893    1.5366553    2.0470087    1.3341685 
18180000    1.0100197 4.5305129e-05   0.54165576  0.034648507            0   0.50700725    1.5074544    2.0491102    5.1806007 
18185000   0.99167925 1.2578599e-05   0.56150991  0.032213036            0   0.52929687    1.4800813    2.0415912     2.911024 
18190000    1.0409736 -8.1601736e-06   0.47342725 0.0061980405            0   0.46722921    1.5536531    2.0270804    1.4630492 
18195000   0.95393338 5.4335053e-06    0.6162222  0.012874905            0    0.6033473    1.4237456    2.0399678    2.4155317 
18200000    1.0058968 -1.8118738e-06   0.55725527  0.014325066            0   0.54293021     1.501301    2.0585563    1.9333196 
18205000   0.98038963 9.550195e-06   0.59036815  0.033121242            0   0.55724691    1.4632315    2.0535997    2.7137092 
18210000   0.97975636 5.7695959e-06   0.57283984  0.016648583            0   0.55619125    1.4622864    2.0351262    2.4339207 
18215000   0.99702694 -8.9890605e-06   0.55181957  0.010949649            0   0.54086992    1.4880627    2.0398823    1.4185584 
18220000   0.95724222 -6.1236266e-05   0.60383075  0.019326701            0   0.58450405     1.428684    2.0325148   -2.2001359 
18225000    1.0073473 -1.4091198e-05   0.54032811  0.026161629            0   0.51416648    1.5034659     2.043794    1.0698104 
18230000     1.029853 1.5084071e-05   0.51960808  0.018127198            0   0.50148088    1.5370556    2.0566637    3.0992747 
18235000   0.95340082 -8.3174792e-05   0.61986119  0.028520379            0   0.59134081    1.4229507    2.0428119   -3.7062297 
18240000   0.98370235 -3.8257292e-05   0.56079201    0.0178543            0   0.54293771    1.4681758    2.0289678  -0.61537625 
18245000    1.0552117 1.1209708e-05   0.45350082 0.0079176889            0   0.44558313    1.5749034    2.0284043    2.8032193 
18250000    1.0073245 -3.2375774e-06   0.52758324  0.020709431            0    0.5068738    1.5034318     2.031015    1.8072337 
18255000   0.97430023 1.2898829e-05   0.57464212  0.015209031            0   0.55943309    1.4541431    2.0287852    2.9203523 
18260000    1.0203899 -3.6127922e-05   0.48283813  0.013323608            0   0.46951452    1.5229319    2.0057701  -0.49139192 
18265000   0.99975161 -2.2079237e-05   0.50735006  0.013602135            0   0.49374792    1.4921293    1.9994793   0.47336251 
18270000    0.9599586 5.0756555e-05   0.57420545  0.020514968            0   0.55369048    1.4327382    2.0069437    5.5152367 
18275000    1.0012024 3.4044998e-05   0.52795414  0.018490893            0   0.50946324    1.4942946    2.0222487     4.375439 
18280000    1.0131081 6.6147764e-05   0.52682464  0.010780385            0   0.51604426    1.5120639    2.0388885     6.611022 
18285000    1.0203272 4.8494018e-05    0.5244386 0.0035442121            0   0.52089439    1.5228383    2.0472769    5.3991834 
18290000    1.0161507 -4.5192088e-05   0.54672473 0.0014300797            0   0.54529465    1.5166049    2.0633296   -1.0603475 
18295000    1.0290705 7.2896737e-06   0.53887094  0.015493583            0   0.52337735    1.5358877    2.0747586    2.5786209 
18300000    1.0193457 3.2533035e-05   0.56386079  0.037655307            0   0.52620548    1.5213735    2.0852343    4.3339176 
18305000    1.0096178 -2.3295914e-05   0.57765107   0.02608171            0   0.55156936    1.5068545    2.0845056   0.47429204 
18310000    1.0425742 -2.6535439e-05   0.52801168  0.014695355            0   0.51331632     1.556042    2.0840536   0.24992408 
18315000    1.0647317 -1.1290085e-05   0.48352335  0.014551246            0   0.46897211    1.5891121    2.0726354    1.2922647 
18320000    1.0352903 -2.534659e-05   0.52487515  0.024983725            0   0.49989142    1.5451707    2.0700458   0.31808958 
18325000    1.0323205 1.7397978e-06   0.53653595   0.03383035            0    0.5027056    1.5407384    2.0772743    2.1975291 
18330000   0.95896842 1.2154631e-05   0.63288816  0.053887145            0   0.57900101    1.4312604    2.0641485    2.9042766 
18335000   0.98990425 -9.7103952e-06   0.59796073  0.045570802            0   0.55238993    1.4774321    2.0753928    1.4042103 
18340000    1.0358242 7.9327857e-06   0.55859522  0.040319755            0   0.51827546    1.5459676    2.1045628     2.652877 
18345000    1.0334615 2.0482576e-05   0.55291863  0.030810916            0   0.52210771    1.5424412    2.0953598    3.5111155 
18350000    1.0534934 -1.049007e-05   0.52943225  0.014159048            0    0.5152732    1.5723389    2.1017711    1.3766975 
18355000    1.0421258 -6.7811662e-05   0.54336158  0.013025299            0   0.53033628    1.5553727    2.0987343   -2.5884078 
18360000   0.99087504 -6.9018262e-05   0.64004755  0.046350918            0   0.59369663     1.478881    2.1189285   -2.6516137 
18365000     1.064911 -4.9841678e-06   0.51946597  0.030864974            0     0.488601    1.5893797    2.1088457      1.76434 
18370000    1.0897162 -4.2022399e-06   0.48322531  0.026974838            0   0.45625047    1.6264014    2.1096267    1.8191679 
18375000    1.0226921 -2.0334728e-05   0.59037435  0.034728621            0   0.55564572    1.5263679    2.1167422   0.71120581 
18380000    1.0321551 -4.4638344e-05   0.56805443   0.04728015            0   0.52077428    1.5404915     2.108546  -0.97685637 
18385000    1.0702605 -1.4897513e-05   0.49898232  0.022725136            0   0.47625718    1.5973638    2.0963461      1.06663 
18390000    1.0078718 -4.5119015e-06   0.59991801  0.010012577            0   0.58990543    1.5042487    2.1041667     1.792304 
18395000   0.99888352 -3.444272e-05   0.63974122  0.016212944            0   0.62352828    1.4908336    2.1305749  -0.25010596 
18400000    1.0253076 -5.5920099e-06   0.59931412  0.033100779            0   0.56621334    1.5302716    2.1295857    1.7430659 
18405000    1.0718292 3.6587804e-05   0.53393087   0.03540134            0   0.49852953    1.5997051    2.1336359     4.662585 
18410000   0.96964725 2.7663342e-05   0.67753293  0.053415072            0   0.62411786    1.4471985    2.1247315    4.0368217 
18415000    1.0263005 -9.3180451e-06   0.58458033  0.056965951            0   0.52761438    1.5317535    2.1163339    1.4722706 
18420000    1.0394076 2.1077153e-05   0.57633807   0.03278567            0    0.5435524    1.5513159    2.1276539    3.5845067 
18425000    1.0267927 6.6028571e-05   0.58584607  0.045458342            0   0.54038773     1.532488    2.1183341    6.6822289 
18430000    1.0051447 7.057381e-05   0.60310022   0.04778686            0   0.55531336    1.5001784    2.1032786    6.9813404 
18435000    1.0288979 -4.8018024e-06   0.55820731  0.032288828            0   0.52591848    1.5356301    2.0938374    1.7619368 
18440000    1.0053192 2.8105654e-05   0.59739276  0.057160122            0   0.54023264     1.500439    2.0978317    4.0404945 
18445000    1.0031393 5.6012633e-05   0.57905808  0.026026228            0   0.55303186    1.4971855    2.0762436    5.9478367 
18450000   0.97681417 -2.3964689e-05   0.60112784  0.017917096            0   0.58321074    1.4578952     2.059023   0.40258371 
18455000     1.006301 -5.8259527e-05   0.54732438  0.032136963            0   0.51518742    1.5019042    2.0492286   -1.9776699 
18460000    1.0109576 1.7427832e-05   0.55275302  0.036475167            0   0.51627785    1.5088542    2.0616072     3.266219 
18465000    1.0597652 2.8683417e-05   0.47316744  0.052283578            0   0.42088386    1.5816995    2.0548669    4.0374647 
18470000   0.95115017 2.2920618e-05   0.63119016    0.0292119            0   0.60197826    1.4195916    2.0507818    3.6350549 
18475000    1.0343167 1.5148085e-05   0.49725091  0.024890551            0   0.47236036    1.5437176    2.0409685    3.0880042 
18480000    1.0665953 2.6461223e-05   0.45886985  0.027640049            0    0.4312298    1.5918935    2.0507634    3.8797631 
18485000      1.02595 2.1501595e-05   0.51935726  0.017413016            0   0.50194424    1.5312304    2.0505876    3.5367779 
18490000   0.97739139 -7.481732e-05    0.5842856  0.034727529            0   0.54955807    1.4587566    2.0430422   -3.1283309 
18495000    0.9776085 -8.249882e-05   0.57859031  0.042291976            0   0.53629834    1.4590807     2.037671   -3.6646474 
18500000    0.9988914 -2.642283e-05   0.52894843  0.011631152            0   0.51731728    1.4908454    2.0197938   0.19344784 
18505000    1.0047732 2.6411299e-05   0.53579188 0.0053048871            0   0.53048699     1.499624    2.0354159    3.8609649 
18510000    1.0134728 7.6754319e-05   0.51423571  0.029642327            0   0.48459338    1.5126082    2.0268439    7.3321024 
18515000   0.94605745 5.2202855e-05   0.62205831  0.045942989            0   0.57611532    1.4119907    2.0340491    5.6423104 
18520000    1.0155194 -9.7334238e-06   0.52138131  0.029596767            0   0.49178454    1.5156626    2.0370439    1.3642697 
18525000     1.006629 -3.2185191e-05   0.54825914  0.028381425            0   0.51987772    1.5023938    2.0506529  -0.17398746 
18530000   0.93892218 -4.0559039e-05   0.64089266  0.037921006            0   0.60297165    1.4013414     2.042234  -0.76120678 
18535000   0.96412753 -3.7272349e-06    0.6229581  0.041150905            0   0.58180719    1.4389603    2.0619184     1.804292 
18540000    1.0050285 4.3741177e-05   0.56514032  0.044137224            0   0.52100309     1.500005    2.0651454    5.0885355 
18545000   0.98940942    3.957e-05   0.58731946  0.051995745            0   0.53532372    1.4766936     2.064013    4.7990914 
18550000    1.0319386 5.3837275e-05   0.53479918  0.019156608            0   0.51564257    1.5401683    2.0749675       5.7962 
18555000    1.0141096 3.7239254e-05    0.5674259 0.0088008387            0   0.55862507    1.5135586    2.0809845    4.6549617 
18560000    1.0476471 1.4473092e-05   0.53376419  0.020994042            0   0.51277015    1.5636133    2.0973775    3.0977576 
18565000    1.0521681 -2.860146e-06   0.52833333  0.027504949            0   0.50082838    1.5703609    2.0986942    1.9010009 
18570000    1.0486007 -3.7956867e-06   0.54680549  0.027088095            0    0.5197174    1.5650366    2.1118421    1.8494842 
18575000   0.98895399 -2.1767226e-05   0.62957197  0.068629354            0   0.56094261    1.4760138    2.1055858   0.60103515 
18580000   0.99591715 -8.6148581e-05   0.61457751  0.016709035            0   0.59786847    1.4864063    2.1009839   -3.8536061 
18585000    1.0510892 -6.6372416e-05   0.52504867  0.014595162            0   0.51045351    1.5687506    2.0937992   -2.4938622 
18590000    1.0506732 5.8955426e-06   0.52474523  0.029075827            0    0.4956694    1.5681297    2.0928749    2.5003748 
18595000    1.0331957 -1.2932035e-05   0.55604991  0.020035836            0   0.53601407    1.5420445    2.0980944    1.2042322 
18600000   0.97010456 -3.9705255e-06   0.65911722  0.032711485            0   0.62640574    1.4478811    2.1069983    1.8325556 
18605000    1.0181202 1.228988e-05   0.58316454  0.021081002            0   0.56208354    1.5195445     2.102709    2.9521855 
18610000    1.0326474 7.5178337e-06   0.55277767 0.0033486405            0   0.54942903    1.5412262    2.0940039    2.6136365 
18615000    1.0517885 4.808292e-06   0.53671077 0.0056423806            0   0.53106839    1.5697943    2.1065051    2.4388543 
18620000    1.0345137 -1.4646257e-05   0.54868304  0.018041138            0    0.5306419    1.5440117    2.0926947    1.0803454 
18625000    0.9930165 -1.6850242e-05   0.62338241 0.0063712365            0   0.61701117    1.4820771    2.1054595    0.9407708 
18630000    1.0281525 3.3906246e-05   0.55591779  0.012885214            0   0.54303258    1.5345176    2.0904354    4.4340351 
18635000   0.99494836 3.6324035e-05   0.59363747  0.014228319            0   0.57940915    1.4849604    2.0785979    4.5893152 
18640000    1.0225873 -2.5226472e-05   0.55000145   0.01031189            0   0.53968956    1.5262116     2.076213   0.33255931 
18645000    1.0309761 -3.8555926e-05   0.54314757  0.011571979            0   0.53157559    1.5387318    2.0818794  -0.58310624 
18650000    1.0245948 3.5359759e-05   0.57519156  0.055270804            0   0.51992076    1.5292077    2.1043992    4.5484658 
18655000   0.98476941 3.1463257e-05   0.64099047   0.07223366            0   0.56875681    1.4697683    2.1107588    4.2854991 
18660000    0.9956808 6.8803412e-06    0.6323921  0.036896289            0   0.59549581    1.4860536    2.1184457    2.5940149 
18665000    1.0455428 9.3050972e-06   0.54633706  0.049800003            0   0.49653705    1.5604727    2.1068097    2.7499781 
18670000    1.0515459 5.6902011e-05   0.54409568  0.021515578            0    0.5225801    1.5694322    2.1135279    6.0465949 
18675000    1.0207632 4.5776522e-05   0.59647943  0.017697687            0   0.57878175     1.523489    2.1199685    5.2840417 
18680000   0.99828129 -2.633361e-05   0.63011296  0.018764955            0   0.61134801    1.4899348    2.1200478   0.29986865 
18685000    1.0601215 1.9437085e-05   0.54177586  0.020732872            0   0.52104298    1.5822314    2.1240073    3.4674986 
18690000    1.0481138 2.7420737e-05   0.57784706  0.029846592            0   0.54800047    1.5643099     2.142157    4.0374783 
18695000    1.0657868 -3.5760752e-06   0.55129171  0.041488606            0   0.50980311    1.5906868    2.1419785    1.8948002 
18700000    1.0326588 -2.296761e-05   0.59462813   0.03385531            0   0.56077282    1.5412432    2.1358713   0.54835011 
18705000   0.98505457 -4.1653962e-05   0.65325263  0.029216063            0   0.62403656     1.470194    2.1234466  -0.75567531 
18710000   0.99360648 -3.3491452e-05   0.66446843  0.015444411            0   0.64902401    1.4829577    2.1474261   -0.1675031 
18715000    1.0765912 -1.9325085e-05    0.5500403 0.0046759311            0   0.54536437    1.6068123    2.1568526   0.82110271 
18720000    1.0531486 -4.2234038e-05   0.58505225 0.0039006603            0   0.58115159    1.5718243    2.1568765  -0.76234017 
18725000    1.0534833 -7.2204245e-08   0.60534689  0.021057217            0   0.58428967    1.5723239    2.1776708      2.17268 
18730000    1.0524023 2.4209755e-05   0.61565295  0.026596748            0    0.5890562    1.5707104    2.1863634    3.8597416 
18735000    1.0772404 3.573884e-05   0.59226648    0.0280523            0   0.56421418    1.6077812    2.2000477    4.6703163 
18740000     1.108244 -8.6126034e-06   0.55252024  0.028912104            0   0.52360814    1.6540542    2.2065744    1.6112713 
18745000    1.0720436 -3.2257708e-05   0.60854447  0.017843679            0   0.59070079    1.6000251    2.2085695 -0.021083272 
18750000    1.1155872 1.5829329e-05   0.55263607  0.014880469            0    0.5377556    1.6650139      2.21765    3.3117732 
18755000    1.1005364 6.2195419e-05   0.56999639  0.012713543            0   0.55728285    1.6425505    2.2125469    6.5114943 
18760000    1.0675825 3.9456547e-05   0.62874292  0.021649427            0   0.60709349    1.5933669    2.2221098    4.9493463 
18765000    1.1152001 -2.0783143e-05    0.5710733  0.012111092            0    0.5589622    1.6644361    2.2355094   0.79897854 
18770000    1.0896528 -3.0304976e-05   0.60691775  0.021056934            0   0.58586082    1.6263067    2.2332245   0.13854456 
18775000    1.1164185 3.0435989e-05   0.60431736   0.03646836            0     0.567849    1.6662547     2.270572    4.3743076 
18780000    1.1202497 1.9055525e-05   0.59853536  0.023302497            0   0.57523286    1.6719726     2.270508    3.5876258 
18785000    1.0887821 1.6236612e-05   0.63880696   0.01548425            0   0.62332271    1.6250073    2.2638143    3.3860889 
18790000    1.0981345 1.1662549e-05   0.61130639  0.024633426            0   0.58667297    1.6389657    2.2502721    3.0563875 
18795000    1.1028516 -4.3717443e-06    0.6002242  0.024028052            0   0.57619615     1.646006    2.2462302    1.9440552 
18800000    1.1380397 3.2014999e-05   0.54569976  0.017621926            0   0.52807783    1.6985242    2.2442239    4.4571007 
18805000    1.1024909 1.2189141e-05   0.58804033  0.048497556            0   0.53954278    1.6454676     2.233508    3.0760214 
18810000    1.0800711 -5.3889046e-05   0.62458159   0.02199572            0   0.60258587    1.6120061    2.2365877   -1.4882231 
18815000    1.0230676 -3.7833237e-05   0.69709541  0.043095878            0   0.65399953    1.5269283    2.2240237  -0.39100957 
18820000    1.0671733 -1.2410818e-05   0.64930649  0.026129847            0   0.62317664    1.5927561    2.2420626    1.3842269 
18825000    1.0948485 1.335401e-06   0.59754362  0.018319342            0   0.57922428    1.6340615    2.2316051     2.323908 
18830000    1.1153305 2.5653449e-05   0.56547004  0.016969695            0   0.54850034    1.6646308    2.2301009    4.0032673 
18835000    1.0867123 5.9521903e-06   0.62084652  0.020535355            0   0.60031116    1.6219182    2.2427647    2.6541801 
18840000    1.0744984 -1.6597531e-05   0.63714819  0.022539039            0   0.61460915    1.6036889    2.2408371    1.0936158 
18845000    1.1544376 3.0493687e-05   0.52466352 0.0087900577            0   0.51587347    1.7229981    2.2476616    4.3553853 
18850000    1.1530312 2.1384463e-05   0.52378722 0.0046731045            0   0.51911412     1.720899    2.2446862    3.7227803 
18855000    1.1118875 2.1222059e-05   0.57397889  0.027565757            0   0.54641314    1.6594921     2.233471    3.7003397 
18860000    1.1029286 -5.088635e-05    0.5815565  0.024921901            0    0.5566346    1.6461209    2.2276774   -1.2895871 
18865000    1.0681597 1.5124699e-05    0.6281306  0.017067748            0   0.61106285    1.5942283    2.2223589    3.2677781 
18870000    1.0489194 9.1060213e-05   0.65296348  0.062177004            0   0.59078648    1.5655122    2.2184757    8.5125576 
18875000    1.1084598 -9.2569564e-06   0.58176918  0.034099285            0    0.5476699    1.6543762    2.2361454    1.5963046 
18880000    1.1001916 -3.9645712e-06   0.61549107  0.026367827            0   0.58912324     1.642036    2.2575271    1.9834959 
18885000    1.1150847 -9.0433152e-06   0.58522882  0.017586752            0   0.56764206    1.6642639    2.2494928    1.6244188 
18890000    1.1060671 -5.2280526e-05   0.60945331  0.018712746            0   0.59074057    1.6508052    2.2602585   -1.3533715 
18895000    1.1057916 -5.0374596e-05    0.6060771  0.032189598            0    0.5738875    1.6503939     2.256471    -1.225421 
18900000     1.124821 -3.1427422e-05   0.58674083  0.012598822            0   0.57414201    1.6787953    2.2655362  0.093272785 
18905000     1.088349 -2.8804011e-05   0.64969614 0.0042361695            0   0.64545997    1.6243609     2.274057   0.28312383 
18910000    1.0988088 2.2872926e-05   0.65113994 0.0012500024            0   0.64988994    1.6399722    2.2911121    3.8720888 
18915000    1.1401711 1.324068e-05   0.58358374  0.006257906            0   0.57732583    1.7017054    2.2852891    3.2004849 
18920000    1.1202123 -7.5898524e-05    0.6273354  0.010506194            0    0.6168292    1.6719169    2.2992523   -2.9468537 
18925000     1.105822 -3.9609882e-05   0.66022681 0.0095668954            0   0.65065992    1.6504393    2.3106662  -0.42716886 
18930000    1.1474435 1.5608621e-05    0.5718015  0.020760211            0   0.55104129    1.7125595     2.284361    3.3632288 
18935000    1.1135291 2.9453744e-05   0.62869066  0.021613174            0   0.60707748    1.6619422    2.2906329    4.3264756 
18940000     1.159438 -3.5978421e-05   0.58137166  0.045131248            0   0.53624041    1.7304612    2.3118329  -0.17499564 
18945000    1.1518231 -7.6096862e-05   0.59076115  0.017001279            0   0.57375987     1.719096    2.3098572   -2.9499579 
18950000    1.1352499 1.7447842e-05   0.62878829 0.0067726292            0   0.62201566    1.6943605    2.3231488    3.5291436 
18955000    1.1633277 9.4475721e-06   0.59707253  0.016007169            0   0.58106536    1.7362666    2.3333391    2.9863553 
18960000    1.1153314 1.1378796e-05   0.63956124  0.018619826            0   0.62094142    1.6646322    2.3041934    3.0906958 
18965000     1.127039 3.0827685e-05   0.61668292  0.019371613            0   0.59731131    1.6821057    2.2987887    4.4295982 
18970000    1.1443418 2.4279282e-05   0.60805943  0.015189778            0   0.59286965    1.7079302    2.3159896    3.9941736 
18975000    1.1409514 1.7297239e-05   0.63354763  0.015814512            0   0.61773311    1.7028699    2.3364175    3.5320027 
18980000    1.1164459 9.4231128e-06    0.6780811   0.01503866            0   0.66304244    1.6662954    2.3443765    2.9957021 
18985000    1.1539665 1.0190749e-05   0.62585256  0.041872116            0   0.58398044     1.722295    2.3481476    3.0525321 
18990000    1.1599499 -2.6585509e-06   0.61273235  0.028383234            0   0.58434912    1.7312252    2.3439576    2.1601986 
18995000    1.1732987 -2.8534636e-05   0.59911065   0.01624303            0   0.58286762    1.7511483     2.350259   0.37794492 
19000000     1.126612 -1.4584088e-05   0.66176714  0.015373112            0   0.64639402    1.6814685    2.3432356    1.3351835 
19005000    1.1866157 -6.448198e-05    0.5725984 0.0075242234            0   0.56507417    1.7710239    2.3436223   -2.1133722 
19010000    1.1605912 -3.4265817e-05   0.61277711    0.0125344            0   0.60024271    1.7321824    2.3449595 -0.023493747 
19015000    1.1500538 -1.2415274e-05   0.61607564   0.01701511            0   0.59906053    1.7164553     2.332531    1.4743872 
19020000    1.1688012 -7.0436896e-05   0.59425882  0.023105268            0   0.57115356    1.7444358    2.3386947   -2.5299036 
19025000    1.1643716 -5.9473408e-05    0.5863595  0.049461348            0   0.53689815    1.7378246    2.3241841   -1.7866178 
19030000    1.1523856 -1.2942489e-05   0.59232859  0.040749139            0   0.55157945    1.7199355    2.3122641    1.4176792 
19035000    1.1423995 8.2161628e-05   0.61838017  0.026515084            0   0.59186509    1.7050312    2.3234114    8.0024231 
19040000    1.1104961 0.0001355854    0.6646011  0.044389127            0   0.62021197    1.6574155    2.3220166     11.69368 
19045000    1.0971032 5.0760165e-05   0.68780102   0.01964562            0    0.6681554    1.6374266    2.3252276    5.8337702 
19050000    1.1786048 4.1607314e-05   0.56789451  0.018561638            0   0.54933287    1.7590677    2.3269622    5.2028598 
19055000    1.1356302 -4.924418e-05   0.61505413  0.015379453            0   0.59967468     1.694928    2.3099822   -1.0937756 
19060000    1.1623311 -8.6502295e-06   0.57598737  0.020506352            0   0.55548102    1.7347792    2.3107666    1.7128627 
19065000     1.126396 5.4427542e-05   0.61565757  0.028833887            0   0.58682368     1.681146    2.2968036    6.0588353 
19070000    1.0670322 -3.7365723e-05   0.69936775   0.01315353            0   0.68621422    1.5925455    2.2919133  -0.29080551 
19075000    1.0889207 -1.3767471e-05   0.67664742 0.0034566223            0   0.67319079    1.6252141    2.3018616     1.350254 
19080000    1.1455769 -1.6598617e-05   0.58864517  0.010639178            0   0.57800599    1.7097735    2.2984186    1.1511222 
19085000    1.1606791 1.6194648e-05    0.5733476   0.01954285            0   0.55380475    1.7323136    2.3056612    3.4250352 
19090000    1.1238879  1.27423e-05   0.58990227  0.026674664            0   0.56322761    1.6774026    2.2673049    3.1480527 
19095000    1.0908632 -4.7813336e-05   0.64159093  0.049605139            0   0.59198579    1.6281133    2.2697042   -1.0351536 
19100000    1.0103558 -1.2646162e-05   0.74236532  0.048253196            0   0.69411212    1.5079561    2.2503214    1.3762187 
19105000    1.1033272 -3.9114911e-06   0.59095713  0.020361172            0   0.57059596    1.6467158    2.2376729    1.9673107 
19110000    1.0352498 9.8862566e-06   0.67502892   0.02544287            0   0.64958605    1.5451104    2.2201393    2.9034773 
19115000    1.0423887 -2.9307774e-05    0.6667263  0.022426553            0   0.64429975    1.5557651    2.2224914   0.19673803 
19120000    1.1393528 1.2710777e-05   0.53373428 0.0030828823            0    0.5306514     1.700484    2.2342183    3.1127872 
19125000    1.0771459 2.1672976e-05   0.62617582  0.011519922            0    0.6146559    1.6076403    2.2338161    3.7318522 
19130000    1.0844985 1.0825163e-05   0.63217832  0.035647671            0   0.59653064     1.618614    2.2507923    2.9990275 
19135000    1.0896293 2.6344645e-05   0.61639423  0.025231938            0    0.5911623    1.6262717     2.242666    4.0636078 
19140000    1.1046805 6.2594133e-05    0.6000869 0.0073607644            0   0.59272614    1.6487356    2.2488225     6.575329 
19145000    1.0903584 3.9713528e-05   0.61734448 0.0063813769            0    0.6109631      1.62736    2.2447045    4.9897035 
19150000    1.0719093 -6.8369918e-06   0.64765004  0.022709405            0   0.62494063    1.5998247    2.2474747    1.7749018 
19155000     1.064905 5.4352186e-06   0.66273421  0.020484403            0   0.64224981    1.5893707    2.2521049    2.6277872 
19160000    1.1317129 6.4946211e-06   0.57982312  0.014275111            0     0.565548    1.6890815    2.2689046    2.7178128 
19165000    1.0785579 -5.9119507e-06   0.63887631  0.012643386            0   0.62623293    1.6097476    2.2486239    1.8399899 
19170000    1.1009727 7.2057681e-05   0.61456452  0.020378464            0   0.59418605    1.6432018    2.2577663    7.2383932 
19175000    1.0552373 6.9604858e-05   0.66741948  0.012311395            0   0.65510809    1.5749417    2.2423612     7.053449 
19180000    1.0671385 -4.7933916e-07   0.65559652  0.012694834            0   0.64290169    1.5927043    2.2483008    2.2151689 
19185000    1.1212257 -3.461221e-05   0.57463162  0.021869423            0    0.5527622    1.6734293    2.2480609  -0.14433503 
19190000    1.0591126 2.1044253e-05    0.6538078  0.041143185            0   0.61266462    1.5807255    2.2345333    3.6891121 
19195000    1.0793215 1.2206727e-05   0.62757147  0.027034924            0   0.60053655    1.6108874    2.2384589    3.0821878 
19200000    1.0910588 -4.3029473e-05   0.59602992  0.015390251            0   0.58063967    1.6284052    2.2244351  -0.74976204 
19205000    1.1152912 -2.7164512e-05    0.5580417  0.018800485            0   0.53924122    1.6645721    2.2226138   0.34500278 
19210000    1.0853451 -2.7883294e-05   0.57093165 0.0074852113            0   0.56344643    1.6198776    2.1908093   0.26351602 
19215000    1.0410444 -2.9481761e-05   0.65369598 0.0083286034            0   0.64536738    1.5537587    2.2074547   0.16967541 
19220000    1.0672466 1.1651022e-05   0.60014733  0.025916713            0   0.57423061    1.5928656    2.1930129    2.9983316 
19225000    1.0936123 2.4510548e-05   0.56834573  0.034817794            0   0.53352793    1.6322164    2.2005621    3.8947312 
19230000    1.0615527 -2.9590886e-05   0.60325917  0.026674114            0   0.57658505    1.5843675    2.1876266   0.14230459 
19235000   0.99491619 -3.1409705e-05   0.69475591  0.021228807            0    0.6735271    1.4849124    2.1796683 0.0086295437 
19240000    1.0431188 5.623547e-05   0.61407689  0.017488241            0   0.59658865    1.5568548    2.1709317    6.0579274 
19245000    1.0705629 5.9563383e-05   0.57250675  0.015076941            0   0.55742981    1.5978151    2.1703218    6.2873429 
19250000    1.0434024 3.8033452e-05   0.60160469 0.0070637217            0   0.59454097     1.557278    2.1588827    4.7877549 
19255000    1.0964893 3.4170035e-05    0.5382249 0.0075065348            0   0.53071836    1.6365102    2.1747351    4.5365679 
19260000    1.0108777 -4.995834e-06   0.68674481  0.024332823            0   0.66241199     1.508735    2.1954798    1.8501677 
19265000    1.0616399 -3.5134765e-05   0.62841042  0.032264047            0   0.59614637    1.5844976     2.212908  -0.21560697 
19270000    1.0649001 -2.5136585e-05   0.60314863  0.022187463            0   0.58096117    1.5893634     2.192512   0.45507124 
19275000    1.0536872 9.5729938e-06   0.61378778  0.009348583            0   0.60443919    1.5726281    2.1864159    2.8481012 
19280000    1.0737994 3.8198187e-05   0.58280217 0.0078535057            0   0.57494866    1.6026456    2.1854477    4.8257064 
19285000    1.0968719 1.4220078e-05   0.55665737   0.01633172            0   0.54032565    1.6370813    2.1937387    3.1766305 
19290000    1.0483585 -2.7412866e-05   0.63405918  0.017211376            0    0.6168478    1.5646751    2.1987343   0.30395699 
19295000    1.0475533 -3.8806635e-05   0.63752642  0.019071436            0   0.61845498    1.5634733    2.2009997  -0.48131495 
19300000    1.0492023 3.8899583e-06   0.61713635  0.015493341            0   0.60164301    1.5659344    2.1830708    2.4519447 
19305000    1.0359298 -6.0524715e-06   0.63239684  0.023553217            0   0.60884363    1.5461253    2.1785221    1.7601753 
19310000   0.99602232 -1.1672085e-05   0.68044368 0.0069160895            0   0.67352759    1.4865633     2.167007    1.3602325 
19315000    1.0631539 3.2107946e-05   0.55837729 0.0069969241            0   0.55138037    1.5867571    2.1451344    4.3644357 
19320000    1.0303225 1.7948006e-05   0.60327398  0.014703236            0   0.58857075    1.5377563    2.1410303    3.3815965 
19325000    1.0810598 2.7220841e-06   0.53243852  0.039889895            0   0.49254863    1.6134817    2.1459202    2.3340707 
19330000    1.0508637 1.3149366e-05   0.58009824  0.035131107            0   0.54496713    1.5684141    2.1485123    3.0573965 
19335000     1.020763 1.1697356e-05   0.62587264  0.022609024            0   0.60326362    1.5234887    2.1493614    2.9578826 
19340000    1.0005883 -1.4703038e-06   0.64664519  0.034685414            0   0.61195978     1.493378    2.1400232    2.0383958 
19345000    1.0099805 3.4626145e-06   0.60655421  0.033238691            0   0.57331552    1.5073959    2.1139501     2.353286 
19350000    1.0161886 1.3970113e-05   0.58140844  0.013778929            0   0.56762951    1.5166615      2.09807    3.0636842 
19355000    1.0361489 -1.2513614e-05   0.57027879  0.010697236            0   0.55958155    1.5464522     2.116731      1.25179 
19360000     1.005408 -4.2453238e-06   0.62109919  0.017642282            0   0.60345691    1.5005715    2.1216707    1.8282339 
19365000    1.0425317 -2.4953487e-05   0.58025223  0.024067306            0   0.55618492    1.5559786    2.1362308   0.41144579 
19370000    1.0427787 -4.3591476e-06   0.57734418  0.044231392            0   0.53311278    1.5563472    2.1336914    1.8323871 
19375000    1.0281658 1.6410688e-05   0.60788137  0.029999278            0   0.57788209    1.5345375    2.1424189    3.2767256 
19380000    1.0350138 -2.7730252e-06   0.59937108  0.015822758            0   0.58354832    1.5447581    2.1441292    1.9524577 
19385000    1.0576446 -5.3318474e-05   0.56411507 0.0093064828            0   0.55480859    1.5785346    2.1426496   -1.5427233 
19390000    1.0651183 -1.579904e-05    0.5725111  0.022202289            0   0.55030882     1.589689    2.1622001    1.0701705 
19395000    1.0515887 -1.9878465e-05   0.59099157  0.021119997            0   0.56987157    1.5694962    2.1604878   0.78648822 
19400000    1.0065804 -7.8505274e-05   0.64528342  0.016822476            0   0.62846094    1.5023213    2.1476047   -3.2786798 
19405000    1.0340051 -2.3946829e-05   0.61174073  0.023852855            0   0.58788787    1.5432526    2.1549933   0.49978851 
19410000    1.0023809 -2.3496202e-05   0.67121656  0.013287429            0   0.65792913    1.4960535    2.1672701    0.5432126 
19415000    1.0547667 -8.8597853e-05   0.58766957 0.0060138532            0   0.58165571    1.5742393    2.1619088   -3.9619747 
19420000     1.079428 -6.6889902e-05   0.54043799 0.0099877159            0   0.53045027    1.6110463    2.1514842   -2.4719458 
19425000    1.0479071 2.1730428e-05   0.59259782  0.024826353            0   0.56777146    1.5640014    2.1565992    3.6586064 
19430000    1.0303249 6.9866803e-05    0.6143374  0.019680466            0   0.59465694      1.53776    2.1520974    6.9812908 
19435000     1.019396 2.9827917e-05    0.6278206  0.012542549            0   0.61527805    1.5214486    2.1492692    4.2109748 
19440000    1.0262442 -9.7301748e-06    0.6102373  0.011883103            0   0.59835419    1.5316694    2.1419067     1.469357 
19445000    1.0172438 -4.6411372e-05   0.63365284  0.014514538            0    0.6191383    1.5182364    2.1518893   -1.0560647 
19450000    1.0561375 -3.080633e-05   0.59317209  0.019115726            0   0.57405637    1.5762852    2.1694573  0.040123776 
19455000    1.0255819 2.6761045e-05   0.64165035   0.02416985            0    0.6174805     1.530681    2.1723313    4.0220548 
19460000    1.0346138 -2.5554177e-05   0.64349961  0.045196594            0   0.59830301    1.5441611    2.1876607   0.42135598 
19465000    1.0816957 6.3468096e-06   0.56194386  0.016919387            0   0.54502447    1.6144308    2.1763747    2.6150661 
19470000    1.0211237 4.3872371e-05   0.65178865 0.0064506188            0   0.64533803    1.5240271    2.1758158     5.208274 
19475000     1.059074 -5.146959e-06   0.60620599  0.016884752            0   0.58932123     1.580668     2.186874    1.8311162 
19480000    1.0406846 -5.3401252e-05   0.62443879  0.028790622            0   0.59564817    1.5532217    2.1776605    -1.513434 
19485000    1.1030057 -6.9026969e-05   0.55592129  0.016451606            0   0.53946969     1.646236    2.2021573   -2.5689868 
19490000    1.0391442 -2.5912994e-05   0.63645445   0.02850004            0   0.60795441    1.5509228    2.1873772   0.39627107 
19495000      1.06384 1.3616352e-05   0.58883323  0.019709881            0   0.56912335    1.5877812    2.1766144    3.1177767 
19500000   0.99069294 2.2179812e-05   0.69226774   0.01775264            0    0.6745151    1.4786092     2.170877    3.7039455 
19505000    1.0694393 1.3269644e-05   0.56175469  0.025598337            0   0.53615635    1.5961381    2.1578928    3.0750906 
19510000   0.98180968 -7.4539023e-05   0.68854228  0.031021341            0   0.65752094    1.4653509    2.1538932    -2.998244 
19515000    1.0606618 -4.7349448e-05   0.57909598  0.022129227            0   0.55696675    1.5830377    2.1621337   -1.1106602 
19520000    1.0377155 -1.5783825e-05   0.60020138  0.014983229            0   0.58521815    1.5487904    2.1489918    1.0580139 
19525000    1.0022126 -2.5977335e-05     0.665792 0.0068835142            0   0.65890849    1.4958023    2.1615943   0.36604096 
19530000    1.0560137 -5.4013689e-05    0.5699727  0.010550236            0   0.55942246    1.5761004    2.1460731   -1.5873531 
19535000    1.0339193 -4.8727658e-05   0.60992128  0.011233385            0   0.59868789    1.5431246    2.1530458   -1.2150099 
19540000    1.0620492 -6.7527523e-05   0.56449993   0.01746379            0   0.54703614    1.5851084    2.1496084    -2.517894 
19545000    1.0585706 2.4922586e-05   0.56254644  0.030718769            0   0.53182767    1.5799166    2.1424631    3.8651122 
19550000    1.0508967 4.4464704e-05   0.58742648  0.020341901            0   0.56708458    1.5684634    2.1558899    5.2292902 
19555000   0.97991049 2.0099903e-05   0.67647857  0.012673784            0   0.66380479    1.4625164     2.138995    3.5283003 
19560000    1.0323537 3.5946184e-05   0.58284841  0.010437631            0   0.57241078    1.5407879    2.1236363    4.6082365 
19565000    1.1001483 -3.5752262e-07   0.47799697 0.0047028165            0   0.47329415    1.6419714    2.1199683    2.0952564 
19570000    1.0462161 -6.8926914e-05   0.55125971 0.0016231025            0   0.54963661    1.5614775    2.1127372   -2.6514911 
19575000     1.032148 -2.0055928e-05   0.59187715 0.0055914194            0   0.58628573    1.5404809    2.1323581   0.74609238 
19580000    1.0421546  2.29543e-05   0.56740691  0.016357835            0   0.55104907    1.5554158    2.1228227    3.7094239 
19585000     1.006664 5.377573e-06   0.61507898  0.017082802            0   0.59799618     1.502446     2.117525    2.4892228 
19590000   0.98980307 -1.8242719e-05   0.64163028   0.01401428            0     0.627616    1.4772811    2.1189114   0.85797466 
19595000    1.0030282 -5.5314155e-05   0.61744173  0.008218863            0   0.60922286    1.4970196    2.1144613   -1.7088531 
19600000    1.0494036 -6.6431101e-05    0.5332752  0.016727669            0   0.51654753    1.5662349    2.0995101   -2.4922076 
19605000    1.0059502 3.4386549e-05   0.60812658  0.012024419            0   0.59610216    1.5013806    2.1095072    4.4863054 
19610000    1.0225064 4.8757298e-05   0.60053776 0.0099664668            0   0.59057129    1.5260908    2.1266286     5.496733 
19615000    1.0097402 4.6956894e-05   0.61825722  0.015286945            0   0.60297027    1.5070372    2.1252944    5.3709549 
19620000    1.0557552 2.206789e-05    0.5383325  0.015654842            0   0.52267765    1.5757146    2.1140471    3.6393797 
19625000   0.97574397 1.2238324e-05   0.64290956  0.011212914            0   0.63169664    1.4562979    2.0992074    2.9451204 
19630000   0.98222891 2.9897687e-05   0.64625539  0.018399618            0   0.62785577    1.4659767     2.112232    4.1787602 
19635000    1.0117351 5.5895254e-07   0.59277079  0.030583545            0   0.56218725    1.5100147    2.1027855    2.1414203 
19640000    1.0008658 3.7936195e-09   0.59632855  0.033967779            0   0.56236077    1.4937922    2.0901207     2.090383 
19645000     1.027149 -2.4965811e-05   0.55967022  0.012384641            0   0.54728558    1.5330198    2.0926901   0.36705318 
19650000    1.0358238 1.3505984e-05   0.57447783 0.0075811788            0   0.56689665     1.545967    2.1204449    3.0539785 
19655000    1.0533431 3.1546891e-06   0.55964982  0.016255538            0   0.54339428    1.5721145    2.1317644    2.3498165 
19660000    1.0942137 -4.6102466e-05   0.51218665  0.021980036            0   0.49020661    1.6331139    2.1453006   -1.0413019 
19665000    1.0184444 1.8080558e-05   0.61076867  0.023563017            0   0.58720565    1.5200282    2.1307969    3.3805251 
19670000   0.96572621 4.9563077e-05   0.67987616  0.019403742            0   0.66047242    1.4413464    2.1212225    5.5470224 
19675000   0.98029404 4.1219642e-05   0.63980046 0.0071328556            0    0.6326676    1.4630889    2.1028893     4.951991 
19680000    1.0099299 -2.553647e-07   0.58009958  0.025629916            0   0.55446967    1.5073203    2.0874199    2.0697691 
19685000    1.0307462 -8.3856359e-06   0.54765173  0.021389909            0   0.52626182    1.5383887    2.0860405    1.5064253 
19690000   0.95698537 -1.7297679e-05   0.65139738 0.0096266283            0   0.64177075    1.4283007     2.079698   0.88408247 
19695000   0.97613614 -3.6270299e-05   0.62255222  0.035972267            0   0.58657996    1.4568832    2.0794354  -0.42756767 
19700000    1.0379404 -5.6951841e-05   0.53857392    0.0256922            0   0.51288172    1.5491261       2.0877   -1.8488113 
19705000    1.0228316 2.9982353e-05    0.6010442  0.030735409            0   0.57030879    1.5265761    2.1276203    4.2000005 
19710000     1.022153 6.2147718e-05   0.59214477  0.038273995            0   0.55387078    1.5255633    2.1177081    6.4133584 
19715000    1.0024211 3.7438768e-05   0.62255174  0.032846381            0   0.58970536    1.4961135    2.1186652    4.7064329 
19720000   0.99350438 2.8715392e-05   0.61898717   0.02958056            0   0.58940661    1.4828053    2.1017925    4.0866004 
19725000    1.0124758 -4.9901175e-05   0.59449195  0.034774919            0   0.55971703    1.5111201    2.1056121   -1.3435571 
19730000   0.96728154 -2.4652837e-05   0.65311075  0.023397955            0   0.62971279    1.4436677    2.0967785    0.3927744 
19735000   0.99792628 4.4434472e-05   0.57933979  0.018064417            0   0.56127537     1.489405    2.0687448    5.1400555 
19740000   0.98675105 2.2694323e-05   0.59413217  0.022235502            0   0.57189667    1.4727259    2.0668581    3.6354897 
19745000    1.0015097 1.6953042e-05   0.57910099   0.01790818            0   0.56119281    1.4947532    2.0738542    3.2456485 
19750000   0.97975012 -1.3911646e-05    0.5986753  0.018237493            0    0.5804378     1.462277    2.0609523    1.0993794 
19755000   0.97629046 -2.4531737e-05   0.60555354  0.022303603            0   0.58324994    1.4571135    2.0626671    0.3670334 
19760000   0.97585267 2.1122526e-05   0.60011803  0.037122327            0    0.5629957    1.4564601    2.0565781    3.5165671 
19765000    0.9749406 5.6276672e-05   0.60549661  0.027561955            0   0.57793466    1.4550988    2.0605955     5.950439 
19770000   0.98798258 -1.6258826e-05   0.58817813  0.018988452            0   0.56918968     1.474564    2.0627421   0.93893209 
19775000   0.95656081 -4.1517606e-05    0.6129402  0.043450117            0   0.56949008     1.427667    2.0406072  -0.82908972 
19780000    0.9154045 -2.2723245e-05   0.67561971  0.045319882            0   0.63029983    1.3662412    2.0418609   0.47123026 
19785000   0.95724693 1.4997976e-05   0.61418297  0.044085568            0   0.57009741     1.428691     2.042874    3.0795341 
19790000   0.97836189 3.0306234e-05   0.60255168  0.025820799            0   0.57673089    1.4602051    2.0627568    4.1575237 
19795000   0.98987685 2.9156042e-05   0.57885619  0.017740298            0   0.56111589    1.4773912    2.0562474     4.071513 
19800000    1.0401499 2.5754704e-05   0.50141939  0.018952756            0   0.48246664    1.5524237    2.0538431    3.8340082 
19805000   0.99800305 -2.9499332e-06   0.56326231  0.032027369            0   0.53123494    1.4895196    2.0527819    1.8488825 
19810000   0.94371789 4.0483336e-06   0.63648158  0.034621012            0   0.60186057     1.408499    2.0449805    2.3248014 
19815000   0.96114675 6.7316435e-05   0.61215263  0.028717487            0   0.58343515    1.4345115    2.0466642    6.6995761 
19820000   0.98961687 4.4112441e-05   0.59098524  0.012659514            0   0.57832572    1.4770032    2.0679884    5.1170403 
19825000    1.0237605 -4.872593e-05   0.53624252  0.013709694            0   0.52253282    1.5279625     2.064205   -1.3037313 
19830000   0.98068322 -7.2742808e-05   0.61819366  0.011116193            0   0.60707747    1.4636697    2.0818634   -2.9461195 
19835000   0.97518641 -4.4656188e-05   0.63154758 0.0073149622            0   0.62423262    1.4554657    2.0870133  -0.99962239 
19840000    1.0126507 -4.1108953e-05   0.57560317 0.0084561356            0   0.56714703    1.5113812    2.0869844  -0.75446643 
19845000   0.95702538 -3.827813e-06   0.69204608  0.044899841            0   0.64714624    1.4283604    2.1204065     1.855828 
19850000   0.96916587 2.802603e-05    0.6764043  0.051689188            0   0.62471511    1.4464801    2.1228844    4.0600435 
19855000    1.0309308 5.8412491e-06   0.57933282  0.026248923            0    0.5530839    1.5386642     2.117997    2.5217442 
19860000    1.0214157 3.2300809e-05    0.6041435  0.017099877            0   0.58704362    1.5244629    2.1286064    4.3612384 
19865000   0.99099386 -3.3480501e-05   0.65474335 0.0078133822            0   0.64692997    1.4790583    2.1338017  -0.18037055 
19870000    1.0374596 -3.6901559e-05   0.58868404  0.007190355            0   0.58149369    1.5484085    2.1370925  -0.41354322 
19875000   0.97918178 9.1811198e-05   0.68795651  0.018155748            0   0.66980077    1.4614288    2.1493853    8.4953753 
19880000    1.0109711 6.898427e-05   0.64763917  0.011460042            0   0.63617913    1.5088743    2.1565135    6.9247062 
19885000    1.0244204 1.0603357e-05   0.63816351  0.013919226            0   0.62424428    1.5289474    2.1671109    2.9000149 
19890000    1.0720469 2.5907302e-05   0.57834382    0.0240106            0   0.55433322      1.60003    2.1783739    3.9690866 
19895000    1.0212254 4.8096546e-05   0.66183578    0.0254663            0   0.63636948     1.524179    2.1860147     5.510448 
19900000   0.99752335 4.8319356e-05   0.68864042  0.034270653            0   0.65436977    1.4888036     2.177444    5.5172779 
19905000    1.0510259 9.2444924e-06   0.61514508  0.021584918            0   0.59356016    1.5686561    2.1838012    2.8227805 
19910000   0.97940935 -4.9793358e-06   0.73237356  0.012294932            0   0.72007862    1.4617685     2.194142    1.8499703 
19915000    1.0727841 3.0868752e-06   0.58613939  0.015963669            0   0.57017572    1.6011302    2.1872696    2.4006344 
19920000    1.0761627 2.2583251e-05   0.56894944  0.026789636            0    0.5421598    1.6061728    2.1751222    3.7360765 
19925000    1.0206304 2.0235921e-05   0.62975375  0.011077115            0   0.61867664    1.5232908    2.1530446    3.5517514 
19930000    1.0022142 3.8718193e-06    0.6709274  0.013827586            0   0.65709982    1.4958046     2.166732    2.4343522 
19935000   0.99128481 -1.9629268e-05   0.68025963   0.03076548            0   0.64949415    1.4794926    2.1597522    0.8029772 
19940000    1.0211895 -4.2099857e-06   0.63582387  0.035021747            0   0.60080212    1.5241253    2.1599492     1.868955 
19945000   0.96380464 5.3889649e-05   0.70867663  0.036799369            0   0.67187726    1.4384784    2.1471551    5.8720076 
19950000   0.95522317 3.0865813e-05   0.71308945   0.03099848            0   0.68209097    1.4256706      2.13876     4.272205 
19955000   0.96993393 -2.9704692e-05   0.68408499  0.031229266            0   0.65285572    1.4476264    2.1317114  0.078523097 
19960000    1.0271993 -3.8521715e-05   0.61938477  0.033157876            0   0.58622689    1.5330949    2.1524797  -0.51014123 
19965000    1.0393403 4.0336789e-06   0.60839188  0.027518461            0   0.58087342    1.5512155    2.1596074    2.4384152 
19970000    1.0640067 7.2108521e-05   0.57344463  0.033513392            0   0.53993124    1.5880301    2.1614747    7.1456156 
19975000   0.93281375 7.1184732e-05   0.76443555  0.018037369            0   0.74639819    1.3922245    2.1566601    7.0769487 
19980000    1.0693414 5.1282304e-05   0.56880879  0.016546071            0   0.55226272     1.595992    2.1648008    5.7094337 
19985000    0.9952024 2.3072852e-05   0.66354555   0.01863957            0   0.64490598    1.4853396    2.1488851    3.7436806 
19990000    1.0281203 -1.3091996e-05   0.62324745  0.015491689            0   0.60775576    1.5344696     2.157717    1.2527982 
19995000    1.0212828 -6.0500557e-05   0.65211968 0.0075780788            0    0.6445416    1.5242647    2.1763843   -2.0054142 
20000000    1.0406245 -5.3594172e-05   0.63802224  0.010524651            0   0.62749759     1.553132    2.1911542   -1.5132749 
Loop time of 532.816 on 1 procs for 20000000 steps with 200 atoms

Performance: 32431.472 tau/day, 37536.426 timesteps/s
99.7% CPU use with 1 MPI tasks x no OpenMP threads

MPI task timing breakdown:
Section |  min time  |  avg time  |  max time  |%varavg| %total
---------------------------------------------------------------
Pair    | 17.595     | 17.595     | 17.595     |   0.0 |  3.30
Bond    | 58.51      | 58.51      | 58.51      |   0.0 | 10.98
Neigh   | 83.472     | 83.472     | 83.472     |   0.0 | 15.67
Comm    | 192.45     | 192.45     | 192.45     |   0.0 | 36.12
Output  | 1.0068     | 1.0068     | 1.0068     |   0.0 |  0.19
Modify  | 167.25     | 167.25     | 167.25     |   0.0 | 31.39
Other   |            | 12.53      |            |       |  2.35

Nlocal:        200.000 ave         200 max         200 min
Histogram: 1 0 0 0 0 0 0 0 0 0
Nghost:        0.00000 ave           0 max           0 min
Histogram: 1 0 0 0 0 0 0 0 0 0
Neighs:        73.0000 ave          73 max          73 min
Histogram: 1 0 0 0 0 0 0 0 0 0

Total # of neighbors = 73
Ave neighs/atom = 0.365
Ave special neighs/atom = 5.9400000
Neighbor list builds = 4315
Dangerous builds = 0
write_restart restart.equil
System init for write_restart ...
WARNING: Communication cutoff 1.4200000000000002 is shorter than a bond length based estimate of 1.8. This may lead to errors. (../comm.cpp:667)
#--------------End of Input file ------------------
Total wall time: 0:08:53
