LAMMPS (29 Oct 2020)
###################### polyelectrolyte complexation ######################
clear

#Initialization
#------------------------------------
units				lj
dimension			3
atom_style			full
boundary			p p p

#Atom Definition
#-------------------------------------
read_restart			restart.equil
Reading restart file ...
  restart file = 29 Oct 2020, LAMMPS = 29 Oct 2020
  restoring atom style full from restart
  orthogonal box = (-80.000000 -80.000000 -80.000000) to (80.000000 80.000000 80.000000)
  1 by 1 by 1 MPI processor grid
  restoring pair style lj/cut from restart
  restoring bond style harmonic from restart
  60 atoms
  59 bonds
Finding 1-2 1-3 1-4 neighbors ...
  special bond factors lj:    0.0      1.0      1.0     
  special bond factors coul:  0.0      0.0      0.0     
     2 = max # of 1-2 neighbors
     2 = max # of 1-3 neighbors
     4 = max # of 1-4 neighbors
     6 = max # of special neighbors
  special bonds CPU = 0.000 seconds
  read_restart CPU = 0.003 seconds

#Force definition
#----------------------------------------------
#Bond definition
bond_style			harmonic
bond_coeff			1 5000 1
#Pair definition
special_bonds	lj 0 1 1
dielectric		80
pair_style		 lj/cut 1.12
pair_modify 		 shift yes
pair_coeff	1 1 1 1 1.12

#Timestep etc
#--------------------------------------------
timestep		0.001
run_style		verlet
velocity		all	create	1	8

#Fix
#---------------------------------------
group polymers type 1
60 atoms in group polymers
fix 1 all nve
fix 2 all langevin 1	1	10	8

#Dump
#------------------------------------------------
compute  1 all gyration
variable  myRg2 equal c_1
variable  i equal step
fix  mythermofile all print 5000 "$i ${myRg2}" file radius_of_gyration.dat screen no

thermo_style		 custom step temp press pe evdwl ecoul ebond ke etotal enthalpy
thermo 	5000
dump	3 all custom 5000 dump.lammpstrj id mol type xu yu zu
run		2000000
Neighbor list info ...
  update every 1 steps, delay 10 steps, check yes
  max neighbors/atom: 2000, page size: 100000
  master list distance cutoff = 1.42
  ghost atom cutoff = 1.42
  binsize = 0.71, bins = 226 226 226
  1 neighbor lists, perpetual/occasional/extra = 1 0 0
  (1) pair lj/cut, perpetual
      attributes: half, newton on
      pair build: half/bin/newton
      stencil: half/bin/3d/newton
      bin: standard
WARNING: Communication cutoff 1.4200000000000002 is shorter than a bond length based estimate of 1.8. This may lead to errors. (../comm.cpp:667)
Per MPI rank memory allocation (min/avg/max) = 54.71 | 54.71 | 54.71 Mbytes
Step Temp Press PotEng E_vdwl E_coul E_bond KinEng TotEng Enthalpy 
 2000000            1 -0.00012130765   0.43871753 0.0060657727            0   0.43265176        1.475    1.9137175   -6.3675516 
 2005000    1.0612881 -1.9788249e-05   0.61176098  0.019782453            0   0.59197853    1.5653999    2.1771609   0.82628309 
 2010000   0.97140015 -2.4995514e-06   0.51662636  0.019145775            0   0.49748058    1.4328152    1.9494416    1.7788055 
 2015000    1.1653065 2.888778e-05   0.58396576  0.044375648            0   0.53959011    1.7188271    2.3027928    4.2748653 
 2020000    1.0701749 9.6037626e-06   0.56574852  0.063674673            0   0.50207384     1.578508    2.1442565    2.7998733 
 2025000     1.094127 -3.4194025e-05   0.51281962            0            0   0.51281962    1.6138373    2.1266569   -0.2076552 
 2030000    1.1857254 2.9236411e-05    0.3881743  0.011000418            0   0.37717388     1.748945    2.1371193    4.1329916 
 2035000   0.96889789 2.0718046e-05   0.58263547  0.042351873            0    0.5402836    1.4291244    2.0117599    3.4261118 
 2040000    0.9283019 7.4700281e-05   0.31399733  0.030516726            0    0.2834806    1.3692453    1.6832426    6.7827818 
 2045000   0.80382239 5.4575026e-05   0.37364025 0.0019937244            0   0.37164653     1.185638    1.5592783    5.2849334 
 2050000    1.0061546 -5.1384377e-05   0.50494153  0.088669921            0   0.41627161     1.484078    1.9890195   -1.5188206 
 2055000    1.0791597 -8.0647717e-05   0.52261292  0.047660321            0    0.4749526    1.5917605    2.1143734   -3.3911774 
 2060000   0.99799146 6.7152712e-05   0.45567473 0.00038270726            0   0.45529202    1.4720374    1.9277121    6.5120039 
 2065000   0.98838663 -1.0794331e-05   0.39591639 0.0013350795            0   0.39458131    1.4578703    1.8537867    1.1168937 
 2070000   0.83939271 -7.4964033e-05   0.49445013  0.019691847            0   0.47475829    1.2381043    1.7325544   -3.3849903 
 2075000   0.98461657 5.9366399e-05   0.55919389  0.021522644            0   0.53767125    1.4523094    2.0115033    6.0642495 
 2080000    1.1267265 4.4525902e-05   0.53056277   0.01569662            0   0.51486615    1.6619215    2.1924843    5.2321192 
 2085000    1.0690624 -9.838095e-06   0.46733364  0.029393725            0   0.43793991     1.576867    2.0442007    1.3725867 
 2090000   0.96002746 8.2390179e-05   0.45910081  0.041532569            0   0.41756824    1.4160405    1.8751413    7.4996442 
 2095000    1.0907053 -9.7088097e-06   0.49609793  0.025003636            0   0.47109429    1.6087904    2.1048883    1.4421002 
 2100000    1.0045052 6.4831729e-06    0.4964832  0.015290757            0   0.48119244    1.4816452    1.9781284     2.420713 
 2105000   0.88694627 3.7774183e-05   0.52287273 0.0070554588            0   0.51581727    1.3082457    1.8311185     4.409836 
 2110000    1.0053469 6.3386718e-05   0.55015784  0.016456817            0   0.53370103    1.4828867    2.0330445    6.3602445 
 2115000    1.0901604 -2.8572841e-05    0.5265739 0.0010449691            0   0.52552893    1.6079866    2.1345605   0.18398794 
 2120000    1.0769111 -3.8263876e-06   0.41122621  0.004133983            0   0.40709222    1.5884438      1.99967    1.7384553 
 2125000   0.95301576 -0.00019185142   0.55990241  0.028194262            0   0.53170814    1.4056982    1.9656006   -11.131457 
 2130000    1.1208789 3.0307738e-05   0.60650107  0.026751325            0   0.57974975    1.6532964    2.2597975    4.3288057 
 2135000    1.1072778 -1.5486305e-05   0.51938286  0.023868725            0   0.49551413    1.6332348    2.1526176    1.0954192 
 2140000    1.0117396 9.8717681e-05   0.45369554  0.014617365            0   0.43907817    1.4923159    1.9460115    8.6851385 
 2145000    1.1277674 3.1843695e-05   0.54020654 0.0074454212            0   0.53276112     1.663457    2.2036635    4.3775264 
 2150000    1.0476894 3.9105601e-05   0.47356421  0.040450688            0   0.43311352    1.5453418     2.018906    4.6885151 
 2155000    1.0194129 9.4936131e-05    0.4971039  0.030611609            0    0.4664923    1.5036341     2.000738    8.4817112 
 2160000   0.96526903 0.0001470112    0.5281087 0.0096478034            0    0.5184609    1.4237718    1.9518805    11.987845 
 2165000    1.0370901 4.5607132e-05   0.52498509 0.0034943386            0   0.52149076    1.5297079     2.054693    5.1681399 
 2170000   0.84163375 0.0001238517   0.51566829  0.022597557            0   0.49307073    1.2414098    1.7570781    10.212021 
 2175000   0.80522666 9.2681136e-06   0.56186015  0.092635134            0   0.46922502    1.1877093    1.7495695    2.3822727 
 2180000    1.0593474  6.08142e-05   0.42787023 0.00044903765            0   0.42742119    1.5625374    1.9904076    6.1419904 
 2185000     1.016597 -8.0668934e-05   0.66093062  0.065019568            0   0.59591105    1.4994805    2.1604111   -3.3465881 
 2190000    0.9608436 3.271845e-06   0.63102733  0.011096153            0   0.61993118    1.4172443    2.0482716    2.2716296 
 2195000    1.0263867 -0.00012221885   0.54514487  0.024199829            0   0.52094505    1.5139203    2.0590652   -6.2844082 
 2200000    1.0491153 -3.6032534e-05   0.43132888  0.028139138            0   0.40318974     1.547445    1.9787739  -0.48104708 
 2205000    1.2419519 4.6349551e-05    0.3391093  0.026448363            0   0.31266094    1.8318791    2.1709884    5.3351177 
 2210000   0.92826826 1.797471e-05   0.48144666 0.0054625732            0   0.47598409    1.3691957    1.8506423    3.0777159 
 2215000    1.1334914 -0.0001180438   0.33688458 0.00032107469            0   0.33656351    1.6718999    2.0087844   -6.0496725 
 2220000   0.88998355 -5.7049672e-05   0.56864843  0.069477787            0   0.49917064    1.3127257    1.8813742   -2.0132168 
 2225000   0.87668391 -7.0561728e-05    0.4629136  0.035792178            0   0.42712142    1.2931088    1.7560224   -3.0609916 
 2230000   0.95268933 3.1888077e-05   0.48316548 0.00034059586            0   0.48282489    1.4052168    1.8883822    4.0652749 
 2235000   0.88824545 2.9637116e-05   0.39867774  0.006180837            0    0.3924969     1.310162    1.7088398    3.7320669 
 2240000    1.0488479 3.7176949e-05   0.45778976  0.012235348            0   0.44555441    1.5470507    2.0048405    4.5427868 
 2245000     1.079783 2.8692844e-05   0.33184618  0.021313982            0    0.3105322      1.59268    1.9245262     3.883291 
 2250000    1.0105399 -2.1194266e-05   0.39995601            0            0   0.39995601    1.4905464    1.8905024   0.44364049 
 2255000    1.1000998 5.1093589e-05   0.48953011  0.020468617            0   0.46906149    1.6226472    2.1121774    5.6001664 
 2260000    1.0565435 -1.439819e-05   0.56981241  0.011220123            0   0.55859229    1.5584017    2.1282141    1.1452977 
 2265000    0.9059587 -0.0001299594   0.55014499   0.02667803            0   0.52346696    1.3362891    1.8864341   -6.9854607 
 2270000   0.90458211 -8.5910476e-06   0.57223866    0.0492331            0   0.52300556    1.3342586    1.9064973    1.3200151 
 2275000    1.0016115 -7.9329445e-05   0.34144627            0            0   0.34144627     1.477377    1.8188233   -3.5967335 
 2280000   0.90697357 -2.4771142e-07   0.46194481   0.01037729            0   0.45156752     1.337786    1.7997308    1.7828204 
 2285000   0.93658604 -6.0259763e-05    0.3789312  0.033349069            0   0.34558213    1.3814644    1.7603956   -2.3533375 
 2290000   0.88793421 3.1671525e-05   0.43442751  0.021880509            0     0.412547     1.309703    1.7441305    3.9062399 
 2295000   0.92770576 0.0001228538   0.50745306  0.017876355            0   0.48957671     1.368366    1.8758191    10.262638 
 2300000    1.0987004 -2.0778667e-05   0.41242243  0.020479838            0   0.39194259    1.6205832    2.0330056   0.61451527 
 2305000    1.2043705 -9.4945856e-05   0.52833627  0.027335999            0   0.50100027    1.7764465    2.3047828   -4.1768543 
 2310000    1.1035993 -8.9369781e-06   0.43716815  0.058172266            0   0.37899589     1.627809    2.0649771    1.4548794 
 2315000    1.1189071 8.6222258e-05   0.49350642  0.018193066            0   0.47531336     1.650388    2.1438944    8.0300005 
 2320000   0.86872723 -6.3596039e-05   0.59205506  0.048495889            0   0.54355917    1.2813727    1.8734277   -2.4680619 
 2325000    1.1404418 7.0437238e-05   0.52823983  0.013700921            0   0.51453891    1.6821517    2.2103915     7.018907 
 2330000    1.1869292 0.00016763852   0.55857368  0.036638637            0   0.52193504    1.7507205    2.3092942    13.753417 
 2335000     1.175615 9.2274463e-05   0.58533239  0.018590899            0   0.56674149    1.7340322    2.3193645    8.6186346 
 2340000    1.0926839 0.00013003105   0.64644897 0.0095871208            0   0.63686185    1.6117087    2.2581577    11.134944 
 2345000    1.0458292 3.0693663e-05   0.56869201  0.031771687            0   0.53692032     1.542598      2.11129    4.2066441 
 2350000   0.99208989 4.7642026e-05   0.59513645  0.012433034            0   0.58270342    1.4633326     2.058469    5.3108313 
 2355000    1.0782819 3.5430591e-05   0.50658258  0.016298326            0   0.49028425    1.5904658    2.0970484    4.5157768 
 2360000    1.0896965 -2.5446397e-05   0.47926385 0.0058361222            0   0.47342773    1.6073024    2.0865662    0.3494255 
 2365000    1.0152928 -6.0471651e-05   0.59539136   0.13127945            0   0.46411191    1.4975569    2.0929483   -2.0352498 
 2370000    1.1311998 -6.1079484e-05   0.55458272  0.016760721            0     0.537822    1.6685197    2.2231024   -1.9465903 
 2375000   0.93248134 3.4764485e-05   0.48633276   0.03461154            0   0.45172122      1.37541    1.8617427    4.2349983 
 2380000   0.84243538 3.2804677e-05   0.36225308  0.031184335            0   0.33106874    1.2425922    1.6048453    3.8443112 
 2385000   0.97780894 -0.00010654218   0.31578465 0.0065012512            0   0.30928339    1.4422682    1.7580528   -5.5152265 
 2390000   0.85450049 -5.8862254e-05   0.38401281   0.01874067            0   0.36527214    1.2603882     1.644401   -2.3739289 
 2395000   0.87584716 0.0001218318   0.48218402 0.0014187429            0   0.48076527    1.2918746    1.7740586    10.091109 
 2400000   0.91414717 9.671712e-05   0.54199131 0.0055287653            0   0.53646255    1.3483671    1.8903584    8.4929138 
 2405000   0.92713406 -3.4748383e-05   0.58496269  0.032440925            0   0.55252176    1.3675227    1.9524854  -0.41967086 
 2410000    1.0223677 -2.1721322e-05    0.6637613 0.0066599423            0   0.65710135    1.5079923    2.1717536   0.68891137 
 2415000    1.0920562 -9.6321509e-05   0.46704402  0.014790113            0   0.45225391    1.6107829    2.0778269   -4.4977215 
 2420000     1.088043 -4.5584145e-05   0.55299302   0.03930671            0   0.51368631    1.6048634    2.1578565  -0.95402116 
 2425000    1.0321108 6.8119402e-05   0.50365274 0.0026699181            0   0.50098283    1.5223635    2.0260162    6.6763007 
 2430000   0.85013671 -7.5090372e-05   0.57030541  0.034211723            0   0.53609368    1.2539516     1.824257   -3.3019123 
 2435000    1.1260772 8.8111012e-05   0.61651812  0.060655136            0   0.55586298    1.6609639     2.277482    8.2925271 
 2440000    1.0952426 -2.8697131e-05   0.59473733  0.038275907            0   0.55646142    1.6154828    2.2102201   0.25116266 
 2445000    1.0475721 -5.0230737e-05    0.4066749  0.012140187            0   0.39453471    1.5451688    1.9518437   -1.4772412 
 2450000    1.0840282 2.2699206e-05   0.47416065  0.046465792            0   0.42769486    1.5989416    2.0731022    3.6227014 
 2455000    1.0630679 5.5249419e-05   0.46782559  0.018038579            0   0.44978701    1.5680251    2.0358507    5.8075443 
 2460000   0.98934792 -8.5883454e-05   0.56464069 0.0015310793            0   0.56310961    1.4592882    2.0239289   -3.8390483 
 2465000    1.1501884 2.5183666e-05   0.48700379 0.0070450167            0   0.47995878    1.6965279    2.1835317    3.9027366 
 2470000    1.0703987 -2.7263392e-05   0.46620867  0.029777897            0   0.43643078    1.5788381    2.0450468   0.18386583 
 2475000    1.1253971 -1.3781559e-05   0.68576343   0.02591253            0    0.6598509    1.6599607    2.3457242    1.4049031 
 2480000     1.111005 0.00010464076   0.66377037   0.08621269            0   0.57755768    1.6387323    2.3025027    9.4459788 
 2485000    1.2027422 9.7468378e-06   0.43943698 0.0030185445            0   0.43641844    1.7740447    2.2134817    2.8788658 
 2490000     0.975362 -3.0855084e-05   0.72093426   0.05880732            0   0.66212694    1.4386589    2.1595932  0.053219506 
 2495000    1.1857228 9.5912148e-05   0.57482759 0.0036743738            0   0.57115322    1.7489412    2.3237688    8.8713714 
 2500000    1.1061033 -3.2177316e-05    0.7213694  0.046982454            0   0.67438694    1.6315023    2.3528717   0.15623362 
 2505000    1.2989746 -5.0049963e-05   0.58632064  0.070842472            0   0.51547817    1.9159875    2.5023081  -0.91443599 
 2510000    1.2379396 7.8460196e-05   0.58810654  0.095307316            0   0.49279922    1.8259609    2.4140674    7.7702835 
 2515000    1.1657549 7.0000036e-05   0.52609298  0.029930231            0   0.49616275    1.7194885    2.2455815    7.0242506 
 2520000    1.1897319 -4.5241716e-05   0.52553935   0.02447382            0   0.50106553    1.7548545    2.2803938  -0.80810727 
 2525000    1.0545254 3.0893836e-06   0.45677699  0.028769703            0   0.42800729     1.555425     2.012202    2.2231039 
 2530000   0.87119524 9.5425514e-05   0.47017651  0.026307702            0   0.44386881     1.285013    1.7551895    8.2695712 
 2535000    1.0410188 2.6694821e-05   0.50471656  0.008864253            0    0.4958523    1.5355027    2.0402192    3.8625857 
 2540000    1.0473376 6.8248318e-05   0.37785484 0.0092944991            0   0.36856034    1.5448229    1.9226777    6.5817629 
 2545000     1.070922 3.7404848e-05    0.4536654  0.023309958            0   0.43035544    1.5796099    2.0332753    4.5867796 
 2550000    1.1266322 8.7820133e-08   0.40738563 0.0045498024            0   0.40283582    1.6617825    2.0691681    2.0751633 
 2555000   0.78628673 -2.1133317e-06   0.62118419   0.03837403            0   0.58281016    1.1597729    1.7809571     1.636687 
 2560000   0.84247392 -3.6145017e-05   0.44234434  0.020521603            0   0.42182274     1.242649    1.6849934  -0.78250647 
 2565000   0.80915298 -4.3223518e-05   0.40696732  0.030500998            0   0.37646632    1.1935007     1.600468   -1.3502575 
 2570000   0.94856336 -3.7344875e-05   0.43908916 0.0088176807            0   0.43027148     1.399131    1.8382201  -0.71118999 
 2575000    0.9810516 -6.3744805e-05   0.48749181 0.0086905133            0   0.47880129    1.4470511    1.9345429   -2.4171024 
 2580000    1.0704098 -4.6645089e-05   0.63014562  0.025856102            0   0.60428952    1.5788544        2.209  -0.97530474 
 2585000    1.1002758 -9.3619047e-05   0.58884872  0.049333356            0   0.53951537    1.6229068    2.2117555   -4.1793048 
 2590000    1.2654418 -9.4698833e-05   0.41890977  0.014003841            0   0.40490593    1.8665266    2.2854364   -4.1793372 
 2595000    1.0926203 -5.3886999e-05   0.59813383  0.022388608            0   0.57574522     1.611615    2.2097488    -1.468937 
 2600000    1.0411208 1.2178386e-05   0.56218671  0.024864159            0   0.53732255    1.5356531    2.0978398    2.9292176 
 2605000    1.1129538 -9.3429568e-05   0.59416001  0.027653271            0   0.56650673    1.6416069    2.2357669   -4.1423583 
 2610000    1.0766833 -6.7372606e-05   0.57851878  0.020170114            0   0.55834866    1.5881079    2.1666266   -2.4326766 
 2615000    1.0815773 8.834105e-05   0.49130471  0.041228388            0   0.45007632    1.5953265    2.0866312    8.1173802 
 2620000    1.0861432 -5.4270927e-05    0.5789979  0.014823286            0   0.56417461    1.6020612    2.1810591   -1.5238362 
 2625000   0.94697491 -1.008118e-05   0.55664467    0.0508155            0   0.50582917     1.396788    1.9534327    1.2652241 
 2630000    1.0204082 0.00010689374   0.38773755  0.022518682            0   0.36521886    1.5051021    1.8928397    9.1901187 
 2635000   0.77947056 -4.4430982e-05   0.39584284 0.0043178831            0   0.39152495    1.1497191    1.5455619   -1.4875931 
 2640000   0.83286727 1.3676827e-05   0.48423723  0.026788836            0    0.4574484    1.2284792    1.7127165    2.6463879 
 2645000   0.99751694 -6.1581504e-06   0.46199879  0.016861571            0   0.44513722    1.4713375    1.9333363    1.5129399 
 2650000   0.98802644 7.3032229e-05   0.43101031 0.0033974624            0   0.42761285     1.457339    1.8883493    6.8740161 
 2655000    0.8482397 1.3376521e-05   0.36834683   0.02151493            0    0.3468319    1.2511536    1.6195004    2.5326709 
 2660000   0.85081981 0.00013225278      0.46056 0.0071109619            0   0.45344904    1.2549592    1.7155192    10.743975 
 2665000   0.91696843 -2.2744092e-05   0.35685247  0.023725855            0   0.33312661    1.3525284    1.7093809   0.15671756 
 2670000   0.84273363 -2.8576522e-05   0.57714968  0.074100595            0   0.50304908    1.2430321    1.8201818  -0.13064209 
 2675000     0.931765 1.481367e-05   0.40683708 0.0087049162            0   0.39813217    1.3743534    1.7811905    2.7924703 
 2680000   0.91664395 7.5605944e-06   0.50433361  0.016716877            0   0.48761674    1.3520498    1.8563834      2.37252 
 2685000     0.957716 1.3319985e-05   0.48740475  0.027086962            0   0.46031779    1.4126311    1.9000358    2.8093468 
 2690000   0.89476624 -4.5029353e-05   0.54693357  0.023893923            0   0.52303965    1.3197802    1.8667138   -1.2072901 
 2695000    1.0661803 -6.9562683e-05   0.50773494  0.061884315            0   0.44585063    1.5726159    2.0803509   -2.6684617 
 2700000    1.1460189 3.0550826e-05   0.51498162  0.003179133            0   0.51180249    1.6903778    2.2053595    4.2909625 
 2705000   0.96993558 3.8487663e-05    0.3571067  0.019288086            0   0.33781862     1.430655    1.7877617    4.4151861 
 2710000   0.97819389 2.0380562e-05   0.48958586   0.04115464            0   0.44843122     1.442836    1.9324218    3.3237349 
 2715000    1.0823123 1.9302335e-05   0.49086193  0.024617449            0   0.46624448    1.5964106    2.0872726    3.4049786 
 2720000    1.0750601 -4.6670218e-05    0.4339846 0.0052697246            0   0.42871487    1.5857137    2.0196983    -1.166322 
 2725000    1.0456689 0.00015653573   0.55172519  0.019413051            0   0.53231214    1.5423617    2.0940869    12.780259 
 2730000   0.99121493 1.3921242e-05   0.51080299  0.011816699            0   0.49898629     1.462042     1.972845    2.9232018 
 2735000   0.99683578 3.763709e-05   0.38214209  0.024928235            0   0.35721386    1.4703328    1.8524749    4.4218335 
 2740000    1.0041543 -6.9129824e-05   0.50696853  0.005106671            0   0.50186186    1.4811276    1.9880961   -2.7311665 
 2745000    1.0590499 1.5604757e-06   0.49581049   0.01539937            0   0.48041112    1.5620986    2.0579091    2.1644376 
 2750000    1.0299357 -6.3101529e-05   0.51403845  0.040707417            0   0.47333103    1.5191552    2.0331936   -2.2745374 
 2755000   0.91129675 -4.2798493e-05   0.53081487  0.005702366            0    0.5251125    1.3441627    1.8749776   -1.0467329 
 2760000   0.96885426 6.0857919e-05   0.53411692  0.014094548            0   0.52002237      1.42906     1.963177    6.1177442 
 2765000   0.99060068 2.6648796e-05   0.67219127  0.053669122            0   0.61852215     1.461136    2.1333273    3.9525517 
 2770000   0.98582022 6.2684023e-05    0.6625308  0.013928411            0   0.64860239    1.4540848    2.1166156     6.395845 
 2775000    1.0520208 4.0941869e-05   0.58684953 1.7137055e-05            0   0.58683239    1.5517306    2.1385802    4.9335451 
 2780000    1.1590045 -9.9385251e-05   0.60136617  0.018068265            0   0.58329791    1.7095316    2.3108978    -4.473802 
 2785000    1.2458095 1.072121e-05   0.37912965 0.0036447422            0    0.3754849     1.837569    2.2166987    2.9485999 
 2790000    1.0166583 -8.9858246e-05   0.51979442  0.014805465            0   0.50498895     1.499571    2.0193654   -4.1149576 
 2795000    1.1293661 5.4692093e-05   0.43079965  0.029631628            0   0.40116802     1.665815    2.0966146    5.8302615 
 2800000    1.0429472 -4.6260156e-05   0.46847349  0.017671685            0    0.4508018    1.5383472    2.0068207    -1.151206 
 2805000    1.1706072 0.00012960661   0.43126884  0.017550879            0   0.41371796    1.7266457    2.1579145    11.005726 
 2810000    1.0233773 -3.8769707e-05   0.49894491  0.016791389            0   0.48215353    1.5094815    2.0084264  -0.63825227 
 2815000   0.96085378 8.6633242e-07   0.60302772  0.027011105            0   0.57601662    1.4172593    2.0202871    2.0794287 
 2820000    1.0663253 -1.661824e-05   0.55028817 0.0058340379            0   0.54445413    1.5728298    2.1231179    0.9886461 
 2825000   0.90064685 -0.00011510274   0.69427866  0.087794376            0   0.60648429    1.3284541    2.0227328   -5.8349476 
 2830000    1.2745077 -9.4024596e-05    0.3889825 0.0071896764            0   0.38179282    1.8798988    2.2688813   -4.1498644 
 2835000    1.1161586 -9.3101685e-06   0.61184192  0.022699547            0   0.58914238    1.6463339    2.2581758    1.6226016 
 2840000   0.95669114 0.00011606269    0.4545454  0.012660832            0   0.44188457    1.4111194    1.8656648    9.7888776 
 2845000   0.95462916 -4.8049419e-05   0.46820888    0.0336658            0   0.43454308     1.408078    1.8762869   -1.4038868 
 2850000   0.76386725 4.1925933e-05   0.54018025 0.0045682027            0   0.53561204    1.1267042    1.6668844    4.5290281 
 2855000   0.95294825 -4.5697966e-05   0.55810157  0.019796453            0   0.53830512    1.4055987    1.9637002   -1.1559475 
 2860000   0.96976334 4.2951631e-05   0.54703936  0.024082768            0   0.52295659    1.4304009    1.9774403     4.909605 
 2865000     1.012345 -6.9766705e-05   0.43913476 0.0062562741            0   0.43287849    1.4932089    1.9323437   -2.8303967 
 2870000    1.1803568 -1.4527013e-06   0.40669287 0.0040761041            0   0.40261676    1.7410262    2.1477191     2.048548 
 2875000    1.2462841 8.0723152e-05   0.42585414  0.018379984            0   0.40747416    1.8382691    2.2641232    7.7748237 
 2880000    1.0338357 6.728708e-05   0.44055714  0.013606205            0   0.42695093    1.5249077    1.9654649    6.5589295 
 2885000   0.95093226 1.5621195e-05   0.41958108  0.010279063            0   0.40930202    1.4026251    1.8222062    2.8886131 
 2890000    1.0453636 3.7052517e-05   0.51387374    0.0151392            0   0.49873454    1.5419113     2.055785    4.5852369 
 2895000    1.2750089 3.7618408e-05   0.47307721  0.091698058            0   0.38137916    1.8806381    2.3537153    4.9217987 
 2900000    1.0454301 2.9712239e-05   0.52096792  0.060328669            0   0.46063925    1.5420094    2.0629773    4.0913328 
 2905000   0.97325308 -6.8555601e-05   0.52557824 0.0054574715            0   0.52012077    1.4355483    1.9611265   -2.7189358 
 2910000    1.0790081 2.8815773e-05   0.42962965  0.019951241            0   0.40967841     1.591537    2.0211666    3.9883234 
 2915000   0.99418131 5.0911739e-05   0.37391993 0.0064763054            0   0.36744363    1.4664174    1.8403374    5.3159121 
 2920000   0.95997806 -6.2816481e-05   0.48128172 0.0057315334            0   0.47555019    1.4159676    1.8972494   -2.3910224 
 2925000    1.0538728 -7.0815575e-05   0.42295938  0.015290978            0    0.4076684    1.5544624    1.9774217   -2.8569215 
 2930000   0.84895748 -3.0337287e-06   0.44718618  0.060859388            0   0.38632679    1.2522123    1.6993985    1.4922959 
 2935000   0.91179178 8.9043298e-05   0.51080625  0.041582191            0   0.46922406    1.3448929    1.8556991    7.9343883 
 2940000        1.094 5.4769423e-05   0.57851616  0.021966444            0   0.55654971      1.61365    2.1921661    5.9310921 
 2945000    1.1072752 -4.8450309e-05   0.67700534  0.022690636            0    0.6543147     1.633231    2.3102363  -0.99730482 
 2950000    1.0700829 -5.8081095e-05   0.59069955  0.028525423            0   0.56217413    1.5783723    2.1690719   -1.7959309 
 2955000   0.89176226 8.469711e-06   0.72689264  0.014537621            0   0.71235502    1.3153493     2.042242    2.6204409 
 2960000    1.0239007 -1.6052408e-05   0.62492702 0.0092488411            0   0.61567818    1.5102535    2.1351805    1.0393362 
 2965000    1.2318678 2.9357761e-05   0.42789768  0.018231116            0   0.40966656     1.817005    2.2449026    4.2490592 
 2970000    1.1418299 -9.9566373e-06   0.51793876  0.065718869            0   0.45221989    1.6841992    2.2021379    1.5224315 
 2975000    1.0579814 -9.1178405e-05   0.54552647  0.013697541            0   0.53182893    1.5605225     2.106049   -4.1183968 
 2980000    1.0715617 1.812839e-05   0.38578097 0.0061916737            0    0.3795893    1.5805536    1.9663346    3.2038993 
 2985000   0.86600805 3.8938638e-05   0.57734179    0.1038678            0   0.47347399    1.2773619    1.8547037    4.5129147 
 2990000   0.89379019 0.00012817669   0.45123691 0.0024020717            0   0.44883484    1.3183405    1.7695775    10.519773 
 2995000    1.0458299 -1.1132503e-05   0.54250994  0.010836358            0   0.53167358    1.5425992    2.0851091    1.3251302 
 3000000    1.1578681 -1.9289948e-05   0.35189897  0.014447797            0   0.33745118    1.7078554    2.0597544   0.74289388 
 3005000   0.98387278 -8.3450507e-06   0.52345487  0.026533913            0   0.49692096    1.4512124    1.9746672    1.4049784 
 3010000   0.85461572 3.4381347e-05   0.36050629  0.026633138            0   0.33387316    1.2605582    1.6210645    3.9681645 
 3015000   0.81442225 3.6893533e-05   0.37188573  0.015566646            0   0.35631908    1.2012728    1.5731585    4.0917571 
 3020000   0.79941416 3.1435791e-05   0.33322771  0.014563847            0   0.31866386    1.1791359    1.5123636    3.6583803 
 3025000   0.97301357 -1.9035898e-06   0.43137697  0.030894203            0   0.40048277     1.435195     1.866572    1.7366203 
 3030000   0.98134217 1.1478703e-05   0.57779648  0.036327337            0   0.54146914    1.4474797    2.0252762     2.808889 
 3035000    1.0447615 1.6406001e-05    0.3357588  0.016866374            0   0.31889243    1.5410232     1.876782     2.996765 
 3040000   0.80575591 -6.5621691e-05   0.55512207  0.047022793            0   0.50809928      1.18849     1.743612   -2.7361621 
 3045000   0.89513982 1.9626655e-05   0.45570393  0.050493471            0   0.40521046    1.3203312    1.7760352    3.1158815 
 3050000    1.0357382 3.6010489e-05   0.57180922 9.344697e-05            0   0.57171577    1.5277138     2.099523    4.5578391 
 3055000    1.1205727 -5.0297816e-05   0.43225858 0.00022943954            0   0.43202914    1.6528448    2.0851033   -1.3485609 
 3060000    1.0889102 -3.7467753e-06   0.37312382  0.012110629            0   0.36101319    1.6061426    1.9792664    1.7234865 
 3065000   0.96851319 -1.243448e-05   0.43277679 0.0058461663            0   0.42693062     1.428557    1.8613337    1.0124732 
 3070000    1.0829591 -9.6112995e-06   0.50793245  0.010418032            0   0.49751441    1.5973646    2.1052971    1.4491657 
 3075000   0.84575042 -3.1992846e-06   0.57318645  0.012560526            0   0.56062593    1.2474819    1.8206683    1.6022638 
 3080000    0.9518089 -0.00011335348   0.48118392 0.00088681459            0    0.4802971    1.4039181    1.8851021   -5.8531619 
 3085000    1.0182275 -4.6776849e-05   0.43593752  0.023473253            0   0.41246427    1.5018856    1.9378232   -1.2554764 
 3090000   0.99497226 7.5913625e-05   0.50061799  0.067132817            0   0.43348517    1.4675841    1.9682021    7.1505722 
 3095000   0.89055543 6.581252e-05   0.50371142 0.0013870837            0   0.50232433    1.3135693    1.8172807     6.310082 
 3100000     1.089595 -5.5957093e-05   0.57835682  0.014021129            0   0.56433569    1.6071527    2.1855095   -1.6344947 
 3105000   0.80917167 -2.5247922e-05   0.69107867  0.065748284            0   0.62533039    1.1935282    1.8846069   0.16101541 
 3110000   0.98633498 2.4823515e-05   0.38907289  0.010001466            0   0.37907142    1.4548441     1.843917    3.5385356 
 3115000   0.93439417 -3.0264219e-05    0.4288469 0.0032595483            0   0.42558735    1.3782314    1.8070783  -0.25895908 
 3120000   0.79553333 -1.3729703e-05   0.51812491  0.063386416            0   0.45473849    1.1734117    1.6915366    0.7542555 
 3125000   0.72216492 -5.6564276e-05   0.41929644 0.0013206721            0   0.41797576    1.0651933    1.4844897   -2.3769649 
 3130000   0.95330065 3.2222845e-05   0.46300811   0.01906264            0   0.44394547    1.4061185    1.8691266    4.0688728 
 3135000    1.0323222 -6.4663498e-06   0.46507821  0.016638006            0    0.4484402    1.5226753    1.9877535    1.5463173 
 3140000   0.93241538 -1.276705e-05   0.54065318  0.064517931            0   0.47613525    1.3753127    1.9159659    1.0444019 
 3145000   0.99259207 4.5669519e-05   0.50853832 0.0055770548            0   0.50296126    1.4640733    1.9726116    5.0903175 
 3150000    1.0622516 -1.5500688e-05   0.59910482 0.0059946831            0   0.59311013    1.5668211     2.165926    1.1077456 
 3155000    0.8872383 -0.00017507045   0.59283151 0.0091906002            0   0.58364091    1.3086765     1.901508   -10.049968 
 3160000   0.91238884 6.1488435e-05   0.53344271  0.042187935            0   0.49125477    1.3457735    1.8792162    6.0768267 
 3165000     1.027307 2.282717e-05   0.50042115  0.042461674            0   0.45795948    1.5152778    2.0156989    3.5740337 
 3170000   0.97127445 2.3415504e-05   0.59672825 0.0081896745            0   0.58853857    1.4326298    2.0293581    3.6278565 
 3175000    1.0157892 -1.2357502e-05   0.54788221 0.0084449439            0   0.53943726    1.4982891    2.0461713    1.2025658 
 3180000    1.1132517 6.3947587e-05   0.53617771 0.0070765221            0   0.52910119    1.6420462    2.1782239    6.5437125 
 3185000    1.0062479 -9.0159411e-05   0.68131838 0.0032272592            0   0.67809112    1.4842156     2.165534   -3.9893485 
 3190000    1.3468131 -7.1119262e-05   0.42215791 0.0020556403            0   0.42010227    1.9865493    2.4087072   -2.4463678 
 3195000    1.1005943 -3.5068178e-05   0.37811714  0.002476604            0   0.37564054    1.6233766    2.0014938  -0.39249385 
 3200000    1.0322473 -9.540255e-05    0.5843652  0.065601114            0   0.51876408    1.5225648      2.10693   -4.4058841 
 3205000    1.1443183 1.9417849e-05   0.42447314 0.0045659074            0   0.41990723    1.6878695    2.1123427    3.4379345 
 3210000     1.127006 3.9916564e-05   0.47255807  0.016972862            0   0.45558521    1.6623338    2.1348919    4.8598627 
 3215000    1.1697615 -4.4943995e-05   0.56395496  0.013355288            0   0.55059967    1.7253983    2.2893532  -0.77882346 
 3220000    1.1591106 4.421766e-06   0.51211494  0.036795331            0   0.47531961    1.7096882    2.2218031    2.5236623 
 3225000   0.99514344 6.5865703e-05    0.5842188  0.025881572            0   0.55833723    1.4678366    2.0520554    6.5484873 
 3230000    1.0633901 -6.7958015e-05   0.52555537 0.00074787564            0   0.52480749    1.5685004    2.0940557   -2.5452114 
 3235000      1.15064 4.892864e-05   0.54723556 0.0054251328            0   0.54181042    1.6971939    2.2444295    5.5846247 
 3240000    1.0476304 -0.00014864342   0.61320389  0.026645085            0    0.5865588    1.5452548    2.1584587   -7.9889323 
 3245000    1.1308872 -2.010215e-05   0.66592522  0.026920148            0   0.63900507    1.6680586    2.3339838   0.96167703 
 3250000    1.2032456 3.8345438e-05   0.42115516   0.03649871            0   0.38465645    1.7747873    2.1959424    4.8136577 
 3255000   0.95594288 -2.1697728e-05   0.59992539 3.4779068e-06            0   0.59992191    1.4100157    2.0099411   0.52870956 
 3260000   0.94091656 -2.7362464e-06   0.56705007  0.031893634            0   0.53515643    1.3878519     1.954902    1.7681076 
 3265000   0.93119554 -0.00010378097   0.54221453  0.033073783            0   0.50914075    1.3735134     1.915728   -5.1690526 
 3270000    1.0515975 -0.00010691297   0.49965121  0.033845709            0    0.4658055    1.5511063    2.0507576   -5.2478345 
 3275000    1.0998228 -1.9952004e-05    0.5572565  0.008921037            0   0.54833547    1.6222386    2.1794951   0.81743826 
 3280000   0.97108045 4.6082413e-05   0.48852074  0.027522806            0   0.46099794    1.4323437    1.9208644    5.0667571 
 3285000    1.0082038 0.00014049506   0.50413214  0.031663477            0   0.47246866    1.4871006    1.9912328    11.582362 
 3290000   0.98674339 6.8510417e-05   0.59119367  0.047848465            0   0.54334521    1.4554465    2.0466402     6.723618 
 3295000   0.90772588 -3.6672524e-06   0.50481694  0.010247264            0   0.49456967    1.3388957    1.8437126    1.5933615 
 3300000    1.1212515 0.00016123724   0.65283439  0.014092168            0   0.63874222     1.653846    2.3066804    13.313809 
 3305000   0.96604507 -6.7700799e-05   0.68068952  0.037458993            0   0.64323052    1.4249165     2.105606   -2.5161019 
 3310000    1.1010802 -1.5290874e-05   0.53038077  0.014105575            0    0.5162752    1.6240933    2.1544741    1.1106171 
 3315000   0.99574798 9.5625505e-05   0.54642765  0.008767031            0   0.53766062    1.4687283    2.0151559    8.5431904 
 3320000    1.0316934 -6.1378383e-05   0.54896547 0.0039332484            0   0.54503223    1.5217477    2.0707132   -2.1193844 
 3325000   0.99829552 -6.6817795e-05   0.56969503  0.067980385            0   0.50171465    1.4724859    2.0421809   -2.5192472 
 3330000    1.1265817 -2.7776365e-05   0.41531737  0.010746875            0   0.40457049     1.661708    2.0770254   0.18082554 
 3335000    1.1767459 -3.809143e-05   0.45549366 0.0023832241            0   0.45311043    1.7357002    2.1911939  -0.40918112 
 3340000   0.95690742 -9.3394524e-05   0.58078663  0.034130491            0   0.54665614    1.4114384    1.9922251   -4.3835078 
 3345000    1.0404217 -1.3203415e-05   0.56885078  0.011447717            0   0.55740306     1.534622    2.1034728    1.2021196 
 3350000    1.1630987 -2.4379434e-05   0.53501359  0.004832734            0   0.53018086    1.7155706    2.2505842   0.58628153 
 3355000     1.011411 1.5459201e-05   0.43060216 0.0051169513            0    0.4254852    1.4918312    1.9224333    2.9777815 
 3360000    0.8498122 -6.3333021e-05   0.41366956  0.019173885            0   0.39449568     1.253473    1.6671426   -2.6563917 
 3365000   0.96085323 -0.00015221722   0.39883582   0.01011899            0   0.38871683    1.4172585    1.8160943   -8.5752682 
 3370000   0.95006298 -3.9837644e-05   0.43865219  0.021005992            0   0.41764619    1.4013429    1.8399951  -0.87958807 
 3375000    1.1578774 4.9490605e-05   0.34504456  0.021663348            0   0.32338121    1.7078691    2.0529137    5.4314723 
 3380000     1.147713 6.9311166e-05   0.51964431  0.009758587            0   0.50988573    1.6928767     2.212521    6.9441633 
 3385000    1.0823442 1.8901518e-05   0.41035192  0.052322373            0   0.35802955    1.5964577    2.0068096    3.2971532 
 3390000   0.86582818 2.358194e-05   0.50929121  0.017401075            0   0.49189013    1.2770966    1.7863878    3.3962482 
 3395000   0.98034674 7.1513687e-05   0.44644763  0.019972045            0   0.42647559    1.4460114    1.8924591    6.7744601 
 3400000    1.1083979 9.5980404e-05   0.45647208 0.0062619642            0   0.45021012     1.634887    2.0913591    8.6436213 
 3405000    0.9859505 3.5231349e-05   0.53504619 0.0096453077            0   0.52540088     1.454277    1.9893232    4.3944499 
 3410000   0.98249988 1.3182749e-05    0.5812768  0.030955006            0    0.5503218    1.4491873    2.0304641    2.9304064 
 3415000   0.99898204 5.2098543e-05   0.59050108   0.02604117            0   0.56445991    1.4734985    2.0639996    5.6205935 
 3420000   0.83609229 -6.8552404e-05   0.61456559  0.049169111            0   0.56539648    1.2332361    1.8478017   -2.8320424 
 3425000   0.92789058 -1.4298233e-05   0.62795504  0.014238943            0   0.61371609    1.3686386    1.9965936    1.0205009 
 3430000   0.99435685 3.2010725e-05   0.74479217  0.005253373            0   0.73953879    1.4666764    2.2114685     4.396734 
 3435000   0.95469731 3.9469294e-08   0.73912743  0.014676073            0   0.72445136    1.4081785     2.147306    2.1500004 
 3440000    1.2046874 4.8620993e-05   0.56138069 0.0094104082            0   0.55197028     1.776914    2.3382946    5.6574877 
 3445000    1.1724741 8.8760385e-06   0.68215546  0.075128595            0   0.60702687    1.7293994    2.4115548    3.0174924 
 3450000    1.2293511 -7.5860184e-05   0.53797468  0.013800762            0   0.52417391    1.8132929    2.3512676   -2.8274544 
 3455000    1.0239025 9.5191456e-05   0.51055144 0.0012324867            0   0.50931895    1.5102561    2.0208076     8.519211 
 3460000    1.0236811 3.5145082e-05   0.44129962   0.01364224            0   0.42765738    1.5099297    1.9512293    4.3504669 
 3465000    0.8096581 -0.00017350197   0.56412391            0            0   0.56412391    1.1942457    1.7583696   -10.086031 
 3470000   0.92033019 -4.326903e-05   0.54889192  0.026355471            0   0.52253645     1.357487     1.906379   -1.0474535 
 3475000    1.0225358 -2.3716326e-05   0.47781057 0.0056698558            0   0.47214071    1.5082402    1.9860508   0.36701631 
 3480000    1.1827767 -5.0812508e-05   0.50595604 0.0088754754            0   0.49708056    1.7445956    2.2505516   -1.2182489 
 3485000    1.0832761 8.0489955e-05   0.48944398   0.02647931            0   0.46296467    1.5978322    2.0872762    7.5820571 
 3490000   0.98562748 -5.3374622e-05   0.44325496 0.0038641683            0   0.43939079    1.4538005    1.8970555    -1.746652 
 3495000      1.12446 -3.6973222e-06   0.70575701  0.058971146            0   0.64678586    1.6585785    2.3643355    2.1119316 
 3500000   0.96819056 7.1066791e-05    0.5449519  0.013777491            0   0.53117441    1.4280811     1.973033    6.8245259 
 3505000    1.0060304 -6.3104723e-05   0.54071731 0.0088633085            0     0.531854    1.4838949    2.0246122   -2.2833369 
 3510000    1.0699284 3.8274207e-05   0.49855932  0.011391176            0   0.48716814    1.5781443    2.0767037    4.6895562 
 3515000     1.118454 -2.5896077e-06   0.48631509  0.028221276            0   0.45809382    1.6497197    2.1360348    1.9592509 
 3520000    1.0654416 -9.1968624e-05   0.71469773  0.017874083            0   0.69682364    1.5715264    2.2862241   -3.9921673 
 3525000    1.1234985 0.00010825299   0.59918222  0.010828996            0   0.58835322    1.6571603    2.2563425    9.6464133 
 3530000    1.1032518 -3.0653962e-05   0.51269135  0.015619825            0   0.49707152    1.6272964    2.1399878  0.047343964 
 3535000     1.053243 -2.5291232e-05   0.63801211 0.0086003525            0   0.62941176    1.5535334    2.1915455   0.46499743 
 3540000   0.99030847 -1.9693943e-05    0.7358095 0.0045124899            0   0.73129701     1.460705    2.1965145   0.85207466 
 3545000   0.95201607 5.1071365e-05   0.70804981  0.010908719            0   0.69714109    1.4042237    2.1122735    5.5987454 
 3550000     1.025779 -0.0001365845    0.6485185 0.0094961322            0   0.63902237    1.5130241    2.1615425   -7.1626257 
 3555000    1.0262795 -0.00011374358   0.57301025  0.083156702            0   0.48985355    1.5137623    2.0867725   -5.6781223 
 3560000    1.1204107 -1.0793365e-05   0.49194468  0.053366263            0   0.43857841    1.6526058    2.1445505    1.4077234 
 3565000    1.1479359 -0.00016165225   0.45856074  0.010431364            0   0.44812937    1.6932055    2.1517663    -8.883694 
 3570000    1.0810859 6.041141e-05   0.46861115  0.041280845            0   0.42733031    1.5946017    2.0632129    6.1872985 
 3575000    1.0203924 9.9761622e-05   0.49407125  0.038962302            0   0.45510894    1.5050788      1.99915    8.8095434 
 3580000   0.91837904 -9.0507878e-05   0.51902642 0.0029155899            0   0.51611083    1.3546091    1.8736355   -4.3050356 
 3585000    1.1029709 -8.7218339e-05   0.43984291  0.022294008            0    0.4175489     1.626882    2.0667249   -3.8873803 
 3590000    1.1037585 0.00014944969   0.46195754 0.0094636673            0   0.45249387    1.6280438    2.0900013    12.292434 
 3595000   0.89154429 3.439746e-05   0.56994898 0.0022906264            0   0.56765835    1.3150278    1.8849768    4.2331767 
 3600000    1.1127661 0.00014809539   0.47644697 0.0019530541            0   0.47449391    1.6413299    2.1177769    12.227755 
 3605000   0.96207165 -8.7211243e-05   0.48639994  0.014264351            0   0.47213559    1.4190557    1.9054556   -4.0481652 
 3610000   0.95816936 8.0753587e-05   0.46515226  0.049894767            0   0.41525749    1.4132998    1.8784521    7.3912303 
 3615000   0.97212541 -8.1228312e-06   0.35469212 0.0086737065            0   0.34601842     1.433885    1.7885771    1.2340585 
 3620000    1.1470933 1.5061584e-06   0.47702266 0.0013262135            0   0.47569645    1.6919626    2.1689853    2.2718057 
 3625000    1.1513834 -2.1420066e-05    0.6089526 0.0057278306            0   0.60322477    1.6982906    2.3072432   0.84496671 
 3630000   0.98262564 -0.00011874758   0.45827308 0.0044761639            0   0.45379691    1.4493728    1.9076459   -6.1988556 
 3635000   0.96915878 9.0905913e-05   0.59127805  0.014659845            0   0.57661821    1.4295092    2.0207872    8.2266309 
 3640000   0.84580375 -1.1965248e-05   0.54250389    0.0489186            0   0.49358529    1.2475605    1.7900644   0.97323681 
 3645000   0.98459465 -1.8415748e-05   0.40441009  0.021510058            0   0.38290003    1.4522771    1.8566872   0.59950549 
 3650000    1.1865752 -1.4152948e-05   0.44435963 0.0059620501            0   0.43839758    1.7501984    2.1945581    1.2283835 
 3655000    1.1511159 -1.8271958e-05   0.60604633  0.072098189            0   0.53394814     1.697896    2.3039423    1.0565767 
 3660000    1.0019634 -0.00014243483   0.57348739  0.021559737            0   0.55192765    1.4778959    2.0513833    -7.672168 
 3665000    0.9818819 -8.4525557e-06   0.55927478  0.012629554            0   0.54664523    1.4482758    2.0075506    1.4305228 
 3670000    1.0219189 8.7924956e-05     0.576181  0.010946073            0   0.56523493    1.5073304    2.0835114    8.0858551 
 3675000    1.0898752 4.9727269e-05    0.6614055 0.0027490496            0   0.65865645    1.6075659    2.2689714    5.6636863 
 3680000   0.91469908 -2.8074475e-07   0.69442949  0.034928274            0   0.65950121    1.3491811    2.0436106    2.0244451 
 3685000    1.1922646 1.7740176e-05   0.57772991  0.021639346            0   0.55609056    1.7585904    2.3363203    3.5473829 
 3690000     1.171862 -5.5714944e-06   0.49318784  0.011494231            0   0.48169361    1.7284965    2.2216843     1.841337 
 3695000    1.1213777 -8.4069381e-05   0.56194355  0.044413593            0   0.51752995    1.6540321    2.2159756   -3.5231608 
 3700000   0.96151732 -1.0072141e-05    0.5462057  0.014243729            0   0.53196197     1.418238    1.9644437    1.2768522 
 3705000   0.96270118 6.2073312e-05   0.59370768  0.012923818            0   0.58078387    1.4199842    2.0136919      6.25123 
 3710000    0.9209388 5.105713e-05   0.45804289  0.043969406            0   0.41407348    1.3583847    1.8164276    5.3019277 
 3715000   0.81466192 3.3872796e-05   0.53477748  0.032204446            0   0.50257303    1.2016263    1.7364038    4.0487867 
 3720000   0.85718531 -3.816289e-05   0.41027167  0.047731221            0   0.36254045    1.2643483      1.67462  -0.93063329 
 3725000   0.88583611 -6.4074112e-05   0.44203216  0.040792023            0   0.40124014    1.3066083    1.7486404   -2.6254856 
 3730000   0.94151526 -9.1209864e-06     0.485604 0.00056660015            0    0.4850374     1.388735     1.874339    1.2516797 
 3735000    1.0826048 9.6737163e-05   0.53596507 0.0014393797            0    0.5345257    1.5968421    2.1328072    8.7367308 
 3740000    1.2405529 7.3836567e-05   0.52737629 0.0085291663            0   0.51884712    1.8298155    2.3571918    7.3977681 
 3745000    1.0701052 3.0102806e-05   0.56397313 0.0039664735            0   0.56000666    1.5784051    2.1423783    4.1973965 
 3750000   0.92568868 6.4676692e-05   0.50508082  0.010030693            0   0.49505013    1.3653908    1.8704716    6.2857338 
 3755000   0.96167128 0.00010692224   0.48230459 0.0031736437            0   0.47913095    1.4184651    1.9007697     9.199995 
 3760000   0.96688572 8.2392606e-05   0.67330793  0.095222039            0   0.57808589    1.4261564    2.0994644    7.7241329 
 3765000    1.0793361 3.6306704e-05   0.53605216 0.00042377675            0   0.53562838    1.5920207    2.1280729    4.6066106 
 3770000   0.99507115 -8.0192464e-05   0.59563007  0.033712573            0    0.5619175      1.46773      2.06336   -3.4111122 
 3775000    1.0265682 -3.8521439e-05   0.48477915 0.0066480499            0    0.4781311    1.5141881    1.9989672  -0.63076302 
 3780000    1.0511776 -8.9439917e-05   0.46071275 0.0014885566            0   0.45922419    1.5504869    2.0111997   -4.0945653 
 3785000    1.0523869 5.2705706e-05   0.46244407 0.0025568115            0   0.45988725    1.5522707    2.0147148    5.6127576 
 3790000    1.0462461 -8.4193936e-05   0.42846237 0.0057714505            0   0.42269092    1.5432131    1.9716754    -3.775964 
 3795000   0.99023472 2.7616497e-06   0.42129449  0.036884439            0   0.38441005    1.4605962    1.8818907    2.0704193 
 3800000    1.0782026 0.0001333268    0.4680614  0.029929188            0   0.43813221    1.5903488    2.0584102    11.160186 
 3805000    1.0018831 -4.4344165e-05   0.55480799  0.010209432            0   0.54459856    1.4777775    2.0325855  -0.99464281 
 3810000     1.099913 0.00010726356   0.45939065  0.011268756            0    0.4481219    1.6223717    2.0817624     9.404288 
 3815000    1.0122602 7.1567072e-05   0.37017595   0.01847276            0   0.35170319    1.4930838    1.8632598    6.7489053 
 3820000   0.94961361 2.0564589e-05   0.48842965  0.043026292            0   0.44540336    1.4006801    1.8891097    3.2929857 
 3825000      1.05364 6.5311428e-06   0.56256641  0.027697315            0    0.5348691     1.554119    2.1166854    2.5625448 
 3830000   0.96579755 -3.2788845e-05   0.55726314 0.0006060947            0   0.55665705    1.4245514    1.9818145  -0.25657062 
 3835000   0.99362604 -0.00013738892   0.59567369 0.0085231929            0    0.5871505    1.4655984    2.0612721   -7.3178114 
 3840000    0.8609818 -2.0591706e-05   0.46250216 0.00067705697            0    0.4618251    1.2699482    1.7324503   0.32672319 
 3845000    1.0359427 -4.328347e-05   0.46745428  0.052996246            0   0.41445803    1.5280155    1.9954698  -0.95934846 
 3850000   0.87570726 1.6483287e-05   0.39878063 1.2154224e-05            0   0.39876848    1.2916682    1.6904488    2.8157079 
 3855000   0.94761921 -1.2063301e-05    0.4561851  0.081915867            0   0.37426924    1.3977383    1.8539234    1.0304021 
 3860000   0.89541292 -4.029752e-06   0.43013657  0.011869455            0   0.41826712    1.3207341    1.7508706    1.4757729 
 3865000   0.96024145 6.3401149e-05   0.50629445  0.015659393            0   0.49063506    1.4163561    1.9226506    6.2508357 
 3870000    1.0698809 -6.2049516e-05   0.45341035 0.00036928075            0   0.45304107    1.5780743    2.0314847   -2.2044289 
 3875000    1.0158972 4.6985243e-05   0.44834512  0.034689044            0   0.41365608    1.4984484    1.9467935    5.1543194 
 3880000    1.0297426 -4.9428507e-05   0.39574329 0.0011764461            0   0.39456684    1.5188703    1.9146136   -1.4597059 
 3885000     0.800524 7.2387141e-05   0.66397966  0.011625954            0    0.6523537    1.1807729    1.8447526    6.7863814 
 3890000   0.99430157 0.00015574036   0.61321838  0.037416063            0   0.57580231    1.4665948    2.0798132    12.711689 
 3895000   0.90216491 5.8203788e-05   0.48258071 0.0047297125            0   0.47785099    1.3306932     1.813274    5.7866526 
 3900000     0.911206 -0.00014417089   0.77981435  0.082574823            0   0.69723953    1.3440289    2.1238432   -7.7182227 
 3905000     1.017078 1.8402231e-05   0.60389872 0.00056230614            0   0.60333641      1.50019    2.1040887    3.3603477 
 3910000    1.1479008 9.1565546e-06     0.297218 0.0038563121            0   0.29336169    1.6931537    1.9903717    2.6154591 
 3915000   0.94098694 7.7762688e-06   0.44923771  0.034845678            0   0.41439203    1.3879557    1.8371934    2.3680534 
 3920000     1.003104 6.3987124e-05   0.37149911  0.025841922            0   0.34565719    1.4795784    1.8510775    6.2192652 
 3925000   0.92286804 -2.0491237e-05   0.73934663  0.029047612            0   0.71029902    1.3612304     2.100577   0.70170853 
 3930000    1.2884708 1.0473104e-05   0.49128521  0.060558499            0   0.43072671    1.9004944    2.3917797    3.1067435 
 3935000   0.95135797 -1.9275295e-05   0.58811464 0.0091365184            0   0.57897813     1.403253    1.9913677   0.67550754 
 3940000    1.0204915 9.2883261e-05   0.34914223  0.027837842            0   0.32130439     1.505225    1.8543672    8.1951979 
 3945000   0.99542565 7.7287907e-05   0.43982074  0.012852362            0   0.42696838    1.4682528    1.9080736    7.1842614 
 3950000   0.99542245 2.8550307e-05   0.58273994 0.0065654285            0   0.57617451    1.4682481    2.0509881    4.0000223 
 3955000     1.011379 -1.0370411e-05    0.3530185 0.0058335379            0   0.34718496    1.4917841    1.8448026    1.1368492 
 3960000   0.99101292 -3.1606801e-05     0.347388 0.00048680356            0   0.34690119    1.4617441    1.8091321   -0.3485589 
 3965000   0.97223345 0.00011179033   0.39364527 0.0045723917            0   0.38907287    1.4340443    1.8276896    9.4592429 
 3970000   0.98861716 -2.0107436e-05   0.38436246  0.010425865            0    0.3739366    1.4582103    1.8425728   0.46990515 
 3975000   0.98149825 3.9579861e-05   0.49112758 0.0026871681            0   0.48844041    1.4477099    1.9388375    4.6408227 
 3980000   0.93326445 1.3705892e-05    0.5480349 1.9327461e-05            0   0.54801557    1.3765651       1.9246    2.8602555 
 3985000   0.96452823 0.00011291273   0.50981338  0.038505638            0   0.47130774    1.4226791    1.9324925    9.6406685 
 3990000    1.0491303 3.9830766e-05   0.56830647    0.0120553            0   0.55625117    1.5474672    2.1157737    4.8348873 
 3995000    1.0990028 -7.5981393e-05   0.53285236 0.0051020069            0   0.52775036    1.6210291    2.1538815   -3.0331149 
 4000000   0.97822856 -1.6295957e-05   0.50106544  0.025833766            0   0.47523168    1.4428871    1.9439526   0.83148192 
Loop time of 215.089 on 1 procs for 2000000 steps with 60 atoms

Performance: 803389.994 tau/day, 9298.495 timesteps/s
98.5% CPU use with 1 MPI tasks x no OpenMP threads

MPI task timing breakdown:
Section |  min time  |  avg time  |  max time  |%varavg| %total
---------------------------------------------------------------
Pair    | 0.79471    | 0.79471    | 0.79471    |   0.0 |  0.37
Bond    | 1.906      | 1.906      | 1.906      |   0.0 |  0.89
Neigh   | 182.37     | 182.37     | 182.37     |   0.0 | 84.79
Comm    | 24.977     | 24.977     | 24.977     |   0.0 | 11.61
Output  | 0.041241   | 0.041241   | 0.041241   |   0.0 |  0.02
Modify  | 4.3276     | 4.3276     | 4.3276     |   0.0 |  2.01
Other   |            | 0.6681     |            |       |  0.31

Nlocal:        60.0000 ave          60 max          60 min
Histogram: 1 0 0 0 0 0 0 0 0 0
Nghost:        0.00000 ave           0 max           0 min
Histogram: 1 0 0 0 0 0 0 0 0 0
Neighs:        20.0000 ave          20 max          20 min
Histogram: 1 0 0 0 0 0 0 0 0 0

Total # of neighbors = 20
Ave neighs/atom = 0.33333333
Ave special neighs/atom = 5.8000000
Neighbor list builds = 38485
Dangerous builds = 0
write_restart restart.rerun.1
System init for write_restart ...
WARNING: Communication cutoff 1.4200000000000002 is shorter than a bond length based estimate of 1.8. This may lead to errors. (../comm.cpp:667)
#--------------End of Input file ------------------
Total wall time: 0:03:35
