LAMMPS (29 Oct 2020)
###################### polyelectrolyte complexation ######################
clear

#Initialization
#------------------------------------
units				lj
dimension			3
atom_style			full
boundary			p p p

#Atom Definition
#-------------------------------------
read_restart			restart.equil
Reading restart file ...
  restart file = 29 Oct 2020, LAMMPS = 29 Oct 2020
  restoring atom style full from restart
  orthogonal box = (-80.000000 -80.000000 -80.000000) to (80.000000 80.000000 80.000000)
  1 by 1 by 1 MPI processor grid
  restoring pair style lj/cut from restart
  restoring bond style harmonic from restart
  60 atoms
  59 bonds
Finding 1-2 1-3 1-4 neighbors ...
  special bond factors lj:    0.0      1.0      1.0     
  special bond factors coul:  0.0      0.0      0.0     
     2 = max # of 1-2 neighbors
     2 = max # of 1-3 neighbors
     4 = max # of 1-4 neighbors
     6 = max # of special neighbors
  special bonds CPU = 0.000 seconds
  read_restart CPU = 0.002 seconds

#Force definition
#----------------------------------------------
#Bond definition
bond_style			harmonic
bond_coeff			1 5000 1
#Pair definition
special_bonds	lj 0 1 1
dielectric		80
pair_style		 lj/cut 1.12
pair_modify 		 shift yes
pair_coeff	1 1 1 1 1.12

#Timestep etc
#--------------------------------------------
timestep		0.001
run_style		verlet
velocity		all	create	1	6

#Fix
#---------------------------------------
group polymers type 1
60 atoms in group polymers
fix 1 all nve
fix 2 all langevin 1	1	100	6

#Dump
#------------------------------------------------
compute  1 all gyration
variable  myRg2 equal c_1
variable  i equal step
fix  mythermofile all print 5000 "$i ${myRg2}" file radius_of_gyration.dat screen no

thermo_style		 custom step temp press pe evdwl ecoul ebond ke etotal enthalpy
thermo 	5000
dump	3 all custom 5000 dump.lammpstrj id mol type xu yu zu
run		2000000
Neighbor list info ...
  update every 1 steps, delay 10 steps, check yes
  max neighbors/atom: 2000, page size: 100000
  master list distance cutoff = 1.42
  ghost atom cutoff = 1.42
  binsize = 0.71, bins = 226 226 226
  1 neighbor lists, perpetual/occasional/extra = 1 0 0
  (1) pair lj/cut, perpetual
      attributes: half, newton on
      pair build: half/bin/newton
      stencil: half/bin/3d/newton
      bin: standard
WARNING: Communication cutoff 1.4200000000000002 is shorter than a bond length based estimate of 1.8. This may lead to errors. (../comm.cpp:667)
Per MPI rank memory allocation (min/avg/max) = 54.71 | 54.71 | 54.71 Mbytes
Step Temp Press PotEng E_vdwl E_coul E_bond KinEng TotEng Enthalpy 
 2000000            1 -0.00012130765   0.43871753 0.0060657727            0   0.43265176        1.475    1.9137175   -6.3675516 
 2005000   0.94062861 -0.0001067393   0.39665462 0.0041822327            0   0.39247238    1.3874272    1.7840818   -5.5026547 
 2010000   0.93900036 1.8583249e-05   0.34518954 0.0081868417            0   0.33700269    1.3850255    1.7302151    2.9988316 
 2015000   0.83332165 -1.4326783e-05   0.52340269  0.027414839            0   0.49598785    1.2291494    1.7525521   0.77451042 
 2020000   0.94127366 2.647473e-05   0.41504442  0.019780771            0   0.39526365    1.3883786    1.8034231    3.6107646 
 2025000   0.89264947 -1.0899304e-05   0.36922237  0.031055392            0   0.33816698     1.316658    1.6858803   0.94182119 
 2030000   0.91892184 -0.00012897824   0.29850103 0.00082386355            0   0.29767717    1.3554097    1.6539108    -7.151004 
 2035000   0.88958774 -4.8391894e-05    0.4154325 0.0039216759            0   0.41151083    1.3121419    1.7275744   -1.5759789 
 2040000   0.94083444 0.00013461019   0.30568748 0.00016750378            0   0.30551998    1.3877308    1.6934183    10.882807 
 2045000   0.89319625 -2.3635694e-05   0.44540538            0            0   0.44540538    1.3174645    1.7628699   0.14933978 
 2050000   0.87972419 -3.6181543e-05   0.39670667  0.019822693            0   0.37688397    1.2975932    1.6942999  -0.77569348 
 2055000     0.845945 1.1422456e-05   0.41853482  0.016647005            0   0.40188781    1.2477689    1.6663037    2.4460767 
 2060000   0.89872646 1.5678321e-05   0.38665351  0.018943373            0   0.36771014    1.3256215     1.712275    2.7825818 
 2065000   0.85456122 4.8067066e-05   0.40142233 0.0048181513            0   0.39660418    1.2604778    1.6619001    4.9432785 
 2070000   0.81397689 4.7111391e-05    0.3885651 0.00069522518            0   0.38786987    1.2006159     1.589181    4.8053186 
 2075000   0.84117158 -5.4145351e-05   0.39231969 0.0015378794            0   0.39078181    1.2407281    1.6330478   -2.0632749 
 2080000   0.83335198 6.8281027e-05   0.41232685  0.013674498            0   0.39865236    1.2291942     1.641521    6.3028391 
 2085000   0.83923949 -1.2854064e-05   0.50528408 6.1734029e-05            0   0.50522234    1.2378782    1.7431623   0.86565822 
 2090000   0.90237369 -6.3863876e-06   0.40178633 0.0071945839            0   0.39459174    1.3310012    1.7327875    1.2968101 
 2095000   0.90794354 3.5975159e-05   0.41103245  0.025774304            0   0.38525815    1.3392167    1.7502492    4.2061534 
 2100000   0.87934359 -1.6599028e-06   0.48596594            0            0   0.48596594    1.2970318    1.7829977    1.6696817 
 2105000   0.92278559 -5.3505106e-05   0.42138773  0.017575563            0   0.40381217    1.3611087    1.7824965   -1.8701187 
 2110000   0.98811673 0.00016646964   0.34305304  0.024823819            0   0.31822922    1.4574722    1.8005252    13.164853 
 2115000   0.86328721 -1.3251938e-05   0.46349907 4.8369835e-06            0   0.46349424    1.2733486    1.7368477   0.83218208 
 2120000   0.87241258 3.7901119e-05   0.48244288  0.068294574            0   0.41414831    1.2868086    1.7692514    4.3566345 
 2125000   0.89650863 -2.6179469e-05   0.42734496  0.022158793            0   0.40518617    1.3223502    1.7496952 -0.037489893 
 2130000   0.91990471 1.418731e-05   0.46614765  0.054679124            0   0.41146853    1.3568595    1.8230071    2.7915274 
 2135000    1.0131976 -6.8266718e-05   0.43032972 0.0075795987            0   0.42275012    1.4944665    1.9247962   -2.7355451 
 2140000   0.87182438 2.1331814e-05   0.58210957  0.045424023            0   0.53668555     1.285941    1.8680505    3.3243024 
 2145000   0.97843851 2.7248533e-05   0.46176402  0.018031118            0    0.4437329    1.4431968    1.9049608    3.7651273 
 2150000    0.9798346 -1.9759274e-05   0.44543947 0.0064938032            0   0.43894566     1.445256    1.8906955   0.54179573 
 2155000   0.91970228 -6.8161804e-06   0.56903641  0.030014656            0   0.53902176    1.3565609    1.9255973    1.4602794 
 2160000    0.9984373 -2.8819662e-05   0.48406864 0.0054906536            0   0.47857799     1.472695    1.9567637 -0.010658564 
 2165000    1.0053425 -1.1302306e-05   0.53147948  0.024069769            0   0.50740971    1.4828802    2.0143597     1.242789 
 2170000    1.0808432 6.5428035e-05    0.5147504  0.029154081            0   0.48559632    1.5942437    2.1089941    6.5755479 
 2175000    1.1394202 4.9159183e-05   0.44561176            0            0   0.44561176    1.6806448    2.1262566    5.4821901 
 2180000    1.0903305 -2.5680713e-05   0.52132165 0.0024036119            0   0.51891804    1.6082375    2.1295592   0.37642251 
 2185000     1.195427 8.8126501e-05   0.46301731  0.038659526            0   0.42435779    1.7632548    2.2262721    8.2423746 
 2190000    1.2172622 4.9521809e-05   0.53304709 0.0065774718            0   0.52646962    1.7954618    2.3285088    5.7091977 
 2195000    1.0649886 -8.9912055e-05   0.68201356   0.01742127            0   0.66459229    1.5708582    2.2528718   -3.8851246 
 2200000    1.1193252 -1.1631932e-05   0.60446248 0.00045835962            0   0.60400412    1.6510046    2.2554671    1.4613938 
 2205000    1.1649404 -9.7842452e-05   0.55239658 0.00068238738            0   0.55171419     1.718287    2.2706836   -4.4086944 
 2210000    1.0426011 4.3555845e-05   0.64378077  0.018901147            0   0.62487963    1.5378366    2.1816174    5.1550297 
 2215000    1.0610793 -9.1644191e-05   0.59527121  0.046705433            0   0.54856578     1.565092    2.1603632   -4.0958803 
 2220000   0.96634466 2.3420971e-05   0.51130078  0.014593822            0   0.49670696    1.4253584    1.9366592    3.5355308 
 2225000   0.97733686 4.460594e-05   0.53219105 0.0050159564            0   0.52717509    1.4415719    1.9737629    5.0188617 
 2230000    1.0259215 -6.7664759e-06   0.45504957  0.025685516            0   0.42936406    1.5132341    1.9682837     1.506359 
 2235000   0.98001743 0.00013107399   0.46808538 0.0063277063            0   0.46175767    1.4455257    1.9136111    10.861596 
 2240000   0.97019321 -0.00018262361   0.50991857  0.051704598            0   0.45821397     1.431035    1.9409535   -10.526151 
 2245000   0.97546816 2.4986756e-05   0.48050943  0.028226621            0   0.45228281    1.4388155     1.919325    3.6250875 
 2250000    1.0039783 6.3222441e-05   0.43771995  0.020895959            0   0.41682399     1.480868     1.918588    6.2345733 
 2255000   0.90469302 7.1722657e-05   0.55782982 0.00079383955            0   0.55703598    1.3344222     1.892252    6.7885187 
 2260000   0.93338783 0.00019138009   0.52553973  0.021531155            0   0.50400857     1.376747    1.9022868    14.967168 
 2265000   0.93526587 7.3022208e-05   0.57410263  0.049103251            0   0.52499938    1.3795172    1.9536198    6.9386025 
 2270000    1.1035618 -2.8336554e-05   0.38397479  0.017661607            0   0.36631318    1.6277536    2.0117284  0.077286281 
 2275000    1.0183332 2.6052412e-05   0.44684504 0.0029617935            0   0.44388325    1.5020414    1.9488865    3.7273978 
 2280000    1.1058073 5.0534844e-05    0.4176281  0.011853394            0   0.40577471    1.6310657    2.0486938    5.4985392 
 2285000    1.0522767 0.00012926352   0.48452061 0.0008184651            0   0.48370214    1.5521081    2.0366287    10.861018 
 2290000    1.0595925 8.8359399e-05   0.47860349 0.0082193132            0   0.47038418    1.5628989    2.0415024    8.0735041 
 2295000    1.0199015 7.4077241e-05   0.39074259  0.026768196            0   0.36397439    1.5043548    1.8950974    6.9521037 
 2300000   0.98864157 -3.0735004e-05    0.4355599 0.0037019832            0   0.43185792    1.4582463    1.8938062  -0.20437003 
 2305000   0.96260193 -1.3676964e-05   0.46071938 0.00016785258            0   0.46055152    1.4198378    1.8805572   0.94687646 
 2310000   0.92605876 3.1100612e-05   0.58214558   0.01231536            0   0.56983022    1.3659367    1.9480823    4.0712174 
 2315000    1.0425718 -2.7838949e-05   0.39554802  0.026399002            0   0.36914902    1.5377934    1.9333415  0.032869169 
 2320000   0.99498438 0.0001120614   0.40711613            0            0   0.40711613     1.467602    1.8747181    9.5247764 
 2325000   0.81821767 -4.9699175e-05   0.62185981  0.023586976            0   0.59827284    1.2068711    1.8287309   -1.5640661 
 2330000   0.95463466 -3.0134085e-06   0.45564759  0.024066583            0     0.431581    1.4080861    1.8637337    1.6580184 
 2335000   0.87433067 -9.4300609e-05   0.50667919  0.056983841            0   0.44969535    1.2896377    1.7963169   -4.6412713 
 2340000   0.85655808 -3.5659664e-05   0.54945726 0.00094388383            0   0.54851338    1.2634232    1.8128804  -0.62148593 
 2345000   0.94316257 -4.6601842e-06   0.47804253 0.0048676064            0   0.47317492    1.3911648    1.8692073    1.5510721 
 2350000   0.83492088 -0.00010313248   0.55796295    0.0467587            0   0.51120425    1.2315083    1.7894712   -5.2510397 
 2355000   0.87955581 -1.4877126e-05   0.39197998 0.0017291031            0   0.39025088    1.2973448    1.6893248   0.67371301 
 2360000   0.90562989 -4.6116907e-05   0.36037365 0.0094795197            0   0.35089413    1.3358041    1.6961777   -1.4520698 
 2365000   0.88966553 9.6373979e-05   0.48137425  0.043032066            0   0.43834218    1.3122567    1.7936309    8.3727612 
 2370000   0.98352052 1.676292e-05   0.39957582 0.0038911249            0    0.3956847    1.4506928    1.8502686    2.9946173 
 2375000    1.0514246 -6.9567159e-05   0.37088103 1.7750278e-05            0   0.37086328    1.5508513    1.9217323   -2.8273858 
 2380000    1.0217832 4.1979008e-05    0.4343493  0.033602441            0   0.40074686    1.5071302    1.9414795    4.8072465 
 2385000   0.93484669 6.1831023e-05   0.51861194 6.2246545e-05            0   0.51854969    1.3788989    1.8975108    6.1185086 
 2390000   0.94845624 0.00015568021   0.52139535  0.010861266            0   0.51053408     1.398973    1.9203683    12.548137 
 2395000    1.0731767 -3.3368481e-05   0.51232009 0.0015352342            0   0.51078486    1.5829357    2.0952558  -0.18269917 
 2400000    1.1175707 -0.00010398312   0.47591071  0.036725856            0   0.43918485    1.6484167    2.1243274   -4.9742536 
 2405000    1.0463756 4.2496124e-05    0.4988602  0.048029128            0   0.45083107    1.5434041    2.0422643     4.943333 
 2410000    1.0233826 9.1290877e-05   0.55983183  0.016532276            0   0.54329956    1.5094893    2.0693211     8.301445 
 2415000   0.93498458 4.1661101e-05   0.59363271  0.011440321            0   0.58219239    1.3791023     1.972735    4.8167995 
 2420000   0.96781032 0.00015457422   0.62166974  0.038368582            0   0.58330116    1.4275202      2.04919    12.601457 
 2425000    1.0637244 -0.00010005293   0.55078712  0.035997327            0   0.51478979    1.5689934    2.1197805   -4.7104995 
 2430000    1.0784442 -7.358334e-05   0.71934822  0.062258384            0   0.65708984    1.5907052    2.3100535   -2.7132359 
 2435000    1.1162373 7.7456347e-05   0.59246762  0.020264009            0   0.57220361      1.64645    2.2389176    7.5266042 
 2440000    1.0209464 -5.0873299e-05   0.69495961   0.02109149            0   0.67386812    1.5058959    2.2008555    -1.272095 
 2445000    1.1277612 5.0391109e-05   0.56751746  0.016688995            0   0.55082846    1.6634477    2.2309652    5.6709982 
 2450000    1.2379201 -5.231546e-05   0.53366933 0.0014996918            0   0.53216964    1.8259321    2.3596014   -1.2118007 
 2455000    1.2321828 -5.4095801e-05   0.49816223  0.014762111            0   0.48340011    1.8174696    2.3156318   -1.3773082 
 2460000    1.0472477 0.00011563425    0.7754363  0.068641383            0   0.70679492    1.5446903    2.3201266    10.214092 
 2465000    1.1032988 2.2253022e-05   0.57979794 0.0053936627            0   0.57440427    1.6273657    2.2071636    3.7263032 
 2470000    1.2099863 4.1034732e-05   0.48767545  0.016866364            0   0.47080909    1.7847298    2.2724053    5.0737096 
 2475000    1.0882304 -3.318054e-06   0.55841331  0.017491268            0   0.54092204    1.6051399    2.1635532    1.9370407 
 2480000    1.2281637 -8.4157145e-06      0.45792 0.0084314078            0   0.44948859    1.8115414    2.2694614    1.6949486 
 2485000    1.1384397 -2.1965381e-05   0.52343371 0.0043996122            0    0.5190341    1.6791985    2.2026323   0.70312891 
 2490000    1.1023295 -8.2883446e-05   0.50333259   0.01024655            0   0.49308604     1.625936    2.1292686    -3.528908 
 2495000    1.1075911 3.298161e-06   0.63934247  0.042817353            0   0.59652511    1.6336969    2.2730394    2.4981938 
 2500000    1.1618629 9.2597131e-05   0.55345554 0.0094131874            0   0.54404235    1.7137477    2.2672033    8.5885007 
 2505000    1.2049273 -5.3063179e-05   0.41301726 0.0032254782            0   0.40979178    1.7772677     2.190285   -1.4321613 
 2510000    1.1298959 2.4875548e-05   0.52525188   0.02640751            0   0.49884437    1.6665965    2.1918484    3.8900191 
 2515000    1.0606367 1.558034e-05   0.59135683  0.014279443            0   0.57707739    1.5644391     2.155796    3.2194138 
 2520000     1.167992 4.2166035e-05   0.50658276 0.0046162261            0   0.50196654    1.7227881    2.2293709    5.1079056 
 2525000    1.0327089 0.00010414005   0.57093475  0.013146235            0   0.55778851    1.5232457    2.0941804    9.2034747 
 2530000    1.0779805 -5.2777058e-05   0.45704809 0.0010712499            0   0.45597684    1.5900212    2.0470693   -1.5558445 
 2535000    1.0558286 -8.588012e-05   0.56900678 0.0066539586            0   0.56235282    1.5573472     2.126354   -3.7363955 
 2540000    1.0762813 -3.2748535e-05   0.57464311  0.039336289            0   0.53530682    1.5875149     2.162158 -0.073475327 
 2545000    1.0279625 -6.738247e-05   0.46487685 0.0013956263            0   0.46348122    1.5162447    1.9811216   -2.6188551 
 2550000    1.0207281 1.963956e-05   0.52949195   0.01542089            0   0.51407106     1.505574    2.0350659    3.3757932 
 2555000   0.95271728 7.9477359e-05   0.61725464  0.066954045            0    0.5503006     1.405258    2.0225126     7.448167 
 2560000   0.91211898 -4.8938211e-05   0.61108004  0.025874268            0   0.58520577    1.3453755    1.9564555    -1.384393 
 2565000   0.97904883 -7.5311552e-06   0.53453478 0.0014655813            0    0.5330692     1.444097    1.9786318    1.4645049 
 2570000    1.0301152 6.5611223e-05   0.50241174   0.03281792            0   0.46959382    1.5194199    2.0218316    6.5008911 
 2575000    1.0141382 0.00010401164   0.53306766  0.042041811            0   0.49102585    1.4958538    2.0289215    9.1294497 
 2580000    1.0347227 5.7438968e-05   0.52760785   0.11931619            0   0.40829166     1.526216    2.0538239    5.9749908 
 2585000    1.0271062 3.4581003e-05   0.50890084 0.0060766068            0   0.50282424    1.5149816    2.0238825    4.3846123 
 2590000   0.97180811 -2.303495e-05   0.59262804  0.017627176            0   0.57500086     1.433417     2.026045   0.45352575 
 2595000    1.0197838 -7.7024983e-06   0.51907715 0.0022887192            0   0.51678843     1.504181    2.0232582    1.4974343 
 2600000   0.96883184 2.605466e-05   0.60826358  0.045906835            0   0.56235674     1.429027    2.0372905    3.8159554 
 2605000    1.0249409 0.00014056451   0.52930569  0.026557336            0   0.50274835    1.5117878    2.0410935    11.636964 
 2610000    1.1082558 -1.4062647e-05   0.48374969  0.029407271            0   0.45434242    1.6346773     2.118427    1.1584169 
 2615000     1.063819 6.5769219e-05   0.56165638  0.039137913            0   0.52251846     1.569133    2.1307893    6.6206347 
 2620000    1.1324446 -7.9231333e-05   0.43763846  0.016602417            0   0.42103604    1.6703558    2.1079942   -3.3008648 
 2625000   0.97992468 2.9781649e-05    0.6541302  0.081219399            0    0.5729108    1.4453889    2.0995191     4.132613 
 2630000    1.0089544 -2.3143756e-05   0.47639527  0.010318374            0   0.46607689    1.4882077     1.964603   0.38465592 
 2635000   0.89313498 4.1249704e-05   0.53197347 0.0084696096            0   0.52350386    1.3173741    1.8493476    4.6653274 
 2640000   0.90862458 -4.9940281e-05   0.46614923 0.0023345753            0   0.46381466    1.3402213    1.8063705    -1.602886 
 2645000   0.96460099 0.00010095614    0.4602485 0.0027503415            0   0.45749816    1.4227865     1.883035    8.7749741 
 2650000    1.0225545 0.00017058442   0.43231198  0.015558285            0    0.4167537    1.5082679    1.9405799     13.58581 
 2655000   0.90938212 -1.6840229e-05   0.50120617 0.0020521633            0     0.499154    1.3413386    1.8425448   0.69291849 
 2660000    0.9424553 1.092748e-05   0.40144794   0.02850521            0   0.37294273    1.3901216    1.7915695    2.5375522 
 2665000   0.78413199 1.6605925e-05   0.53927742  0.031152911            0   0.50812451    1.1565947    1.6958721    2.8295033 
 2670000   0.89767554 -5.4378002e-05   0.44196221  0.011104052            0   0.43085816    1.3240714    1.7660336   -1.9461713 
 2675000   0.92425708 -2.9271428e-05   0.47128538  0.036651288            0    0.4346341    1.3632792    1.8345646  -0.16369826 
 2680000    1.0000017 1.8878519e-06   0.32806212            0            0   0.32806212    1.4750025    1.8030646    1.9319419 
 2685000   0.99239835 -2.8432584e-06   0.44673873  0.049327705            0   0.39741102    1.4637876    1.9105263    1.7164265 
 2690000    1.0510625 2.5830576e-05   0.47580219  0.023322741            0   0.45247945    1.5503171    2.0261193    3.7894867 
 2695000    1.1016054 -1.4153814e-05   0.47948843  0.026181185            0   0.45330725     1.624868    2.1043564    1.1381227 
 2700000    1.0638922 1.6657347e-05   0.48297691  0.034341751            0   0.44863516     1.569241    2.0522179    3.1893594 
 2705000    1.0505544 6.3309966e-05   0.55388383 0.00083398941            0   0.55304984    1.5495677    2.1034515    6.4254119 
 2710000   0.95727682  3.48136e-05   0.64888758    0.0359946            0   0.61289298    1.4119833    2.0608709    4.4374793 
 2715000    0.9780509 5.1197867e-06   0.64076319  0.014917234            0   0.62584596    1.4426251    2.0833883     2.432899 
 2720000    1.1212615 2.8062258e-05   0.41797082  0.024622744            0   0.39334807    1.6538608    2.0718316    3.9875484 
 2725000    1.0849569 -8.3798046e-05   0.47165499  0.039235804            0   0.43241919    1.6003114    2.0719663   -3.6486469 
 2730000    1.0045827 -2.7111188e-05   0.70844049  0.061829481            0   0.64661101    1.4817594    2.1901999   0.33940953 
 2735000    1.0529014 -1.9933766e-05   0.62590536  0.026670869            0   0.59923449    1.5530296     2.178935   0.81812323 
 2740000    1.0565925 -4.4072056e-05   0.52414959   0.03021811            0   0.49393148     1.558474    2.0826235  -0.92602881 
 2745000   0.98671014 -2.0572453e-05   0.66066069  0.011796638            0   0.64886405    1.4553975    2.1160581   0.71164539 
 2750000   0.93165555 -7.8987687e-05   0.76064583  0.033643265            0   0.72700257    1.3741919    2.1348378   -3.2573883 
 2755000   0.98230488 -6.7776081e-05    0.6055666  0.014151244            0   0.59141535    1.4488997    2.0544663   -2.5723809 
 2760000    1.0332092 5.0395011e-05   0.59956174  0.032618465            0   0.56694328    1.5239836    2.1235453    5.5638448 
 2765000   0.98100921 -0.00012434842    0.6870221  0.042959537            0   0.64406256    1.4469886    2.1340107   -6.3548413 
 2770000    1.1188303 -5.5988166e-05   0.48760024  0.011972144            0   0.47562809    1.6502747    2.1378749   -1.6842505 
 2775000    1.1596851 1.1318331e-05   0.51608996 0.0030783338            0   0.51301163    1.7105355    2.2266254    2.9992902 
 2780000    1.0140995 3.5014926e-05   0.60503625   0.10297243            0   0.50206382    1.4957968     2.100833    4.4911853 
 2785000    1.0509866 -5.0691192e-05   0.51046347  0.014114535            0   0.49634894    1.5502052    2.0606687     -1.39985 
 2790000   0.95057103 -7.4514624e-05   0.67308856  0.018771771            0   0.65431679    1.4020923    2.0751808   -3.0116842 
 2795000   0.97185404 -0.0001086208   0.65522989 0.00050624125            0   0.65472365    1.4334847    2.0887146   -5.3264654 
 2800000     1.036355 -8.5197833e-05   0.47254503 0.0022085277            0   0.47033651    1.5286236    2.0011687   -3.8150034 
 2805000   0.98789967 4.8195208e-05   0.64370653 0.0064778075            0   0.63722872     1.457152    2.1008585    5.3909847 
 2810000   0.97385959 6.5276477e-05    0.5407836  0.023201657            0   0.51758195    1.4364429    1.9772265     6.433434 
 2815000   0.97440259 0.00015308088   0.53746555 0.0031484838            0   0.53431707    1.4372438    1.9747094    12.425031 
 2820000    1.0349021 2.2075904e-05   0.44416993 0.0086650378            0   0.43550489    1.5264806    1.9706505    3.4776989 
 2825000   0.93662244 -8.5928038e-05   0.54530238   0.01709034            0   0.52821204    1.3815181    1.9268205   -3.9392002 
 2830000    1.0670553 -2.4479889e-05   0.44320755 0.0056046107            0   0.43760294    1.5739066    2.0171142   0.34595373 
 2835000    1.0362633 2.2923735e-06   0.49141863 0.0035414462            0   0.48787718    1.5284884     2.019907    2.1763997 
 2840000    1.0120751 -1.5558858e-05   0.48887368  0.026937963            0   0.46193571    1.4928108    1.9816845   0.91953314 
 2845000    0.9430539 3.7613549e-05   0.50628802 0.0017741782            0   0.50451384    1.3910045    1.8972925    4.4650441 
 2850000   0.98762921 0.00010147786   0.51919424  0.016248697            0   0.50294554    1.4567531    1.9759473    8.9035025 
 2855000   0.90262633 -0.0001041997   0.50228618  0.015395902            0   0.48689028    1.3313738      1.83366    -5.279706 
 2860000   0.92760264 -6.5510697e-06   0.38272002  0.024315762            0   0.35840426    1.3682139    1.7509339    1.3037142 
 2865000   0.88712529 8.2996116e-06   0.47695145  0.046932389            0   0.43001906    1.3085098    1.7854613    2.3520481 
 2870000    1.0100164 2.033009e-05    0.4394885  0.054066751            0   0.38542175    1.4897741    1.9292626    3.3171301 
 2875000   0.95455032 5.5377514e-05   0.45300007   0.01057458            0   0.44242548    1.4079617    1.8609618    5.6414001 
 2880000    1.0139805 -5.8230699e-05   0.36794622  0.016346314            0    0.3515999    1.4956212    1.8635674   -2.1116483 
 2885000   0.95123929 -9.5583271e-05   0.48998359  0.039462349            0   0.45052124    1.4030779    1.8930615   -4.6320897 
 2890000    1.0137816 -5.2946657e-05   0.36511843  0.018416725            0   0.34670171    1.4953279    1.8604463   -1.7540455 
 2895000   0.90293703 -2.221801e-05   0.48658533  0.030946642            0   0.45563869    1.3318321    1.8184175     0.301668 
 2900000   0.95791122 2.706476e-05   0.41262272  0.018557676            0   0.39406505    1.4129191    1.8255418    3.6731627 
 2905000   0.87260633 -5.9959912e-05   0.58948268  0.043155622            0   0.54632706    1.2870943     1.876577   -2.2166863 
 2910000   0.91003257 -2.5243079e-05   0.46719134  0.027878549            0   0.43931279     1.342298    1.8094894  0.086228515 
 2915000   0.93699908 -2.9471309e-05   0.41944733 3.0660243e-06            0   0.41944427    1.3820736     1.801521  -0.21038705 
 2920000     0.931769 0.00011202522   0.43043713  0.049232776            0   0.38120436    1.3743593    1.8047964    9.4523846 
 2925000   0.93976918 -4.0169548e-05   0.41163091  0.011583143            0   0.40004776    1.3861595    1.7977904  -0.94445068 
 2930000   0.85821466 9.9284668e-06   0.49151772 0.0089632974            0   0.48255442    1.2658666    1.7573843    2.4351677 
 2935000    0.8957579 -3.7758814e-06   0.42356315  0.011012204            0   0.41255095    1.3212429    1.7448061    1.4870392 
 2940000   0.98481538 8.4516073e-09   0.32035839  0.012293653            0   0.30806474    1.4526027    1.7729611     1.773538 
 2945000   0.90395038 1.046702e-06   0.38969142  0.012756378            0   0.37693504    1.3333268    1.7230182    1.7944731 
 2950000    0.9129951 8.9825637e-05   0.41928163  0.013312705            0   0.40596892    1.3466678    1.7659494    7.8980462 
 2955000   0.89543068 -8.2379589e-05   0.35137402 0.0040359163            0    0.3473381    1.3207603    1.6721343   -3.9516457 
 2960000   0.90450555 4.0870054e-05    0.4770103   0.03141753            0   0.44559277    1.3341457     1.811156    4.6012184 
 2965000   0.93748928 -6.1924268e-05   0.54404621  0.012610534            0   0.53143568    1.3827967    1.9268429   -2.3005205 
 2970000   0.96657034 5.8912295e-05   0.50298568  0.032446507            0   0.47053918    1.4256912    1.9286769     5.950423 
 2975000   0.93223571 -4.7568942e-06   0.48502611 0.0013936628            0   0.48363245    1.3750477    1.8600738    1.5353365 
 2980000   0.93697726 4.670787e-05   0.52061946 0.0097588645            0    0.5108606    1.3820415    1.9026609    5.0912515 
 2985000   0.94497416 3.4848848e-05   0.46182983  0.008287685            0   0.45354215    1.3938369    1.8556667    4.2346814 
 2990000    1.0393878 -4.7792501e-06   0.44652127 0.0097576809            0   0.43676358    1.5330971    1.9796183    1.6533549 
 2995000     1.047608 -1.5546276e-05   0.49300123  0.003026184            0   0.48997505    1.5452217     2.038223   0.97693051 
 3000000     1.047964 -1.6610977e-05   0.47822352 0.0097394974            0   0.46848403    1.5457469    2.0239704   0.88999444 
 3005000   0.97247073 -7.9244825e-05   0.66794902   0.11306193            0   0.55488709    1.4343943    2.1023433   -3.3074367 
 3010000     1.062009 4.7451962e-05   0.49825706  0.034831496            0   0.46342556    1.5664632    2.0647203    5.3041075 
 3015000    1.0754154 5.2375369e-05    0.5323362  0.059918861            0   0.47241734    1.5862377    2.1185739    5.6940658 
 3020000    1.0368895 -1.1559273e-05   0.49353853 0.00045724027            0   0.49308129     1.529412    2.0229505    1.2338375 
 3025000   0.81514378 -3.5353394e-05   0.77120802  0.024845449            0   0.74636257    1.2023371    1.9735451  -0.43991325 
 3030000   0.95390955 -1.484998e-05   0.54738924  0.038360813            0   0.50902843    1.4070166    1.9544058    0.9406472 
 3035000   0.97044041 -1.3228227e-05   0.53033899  0.026284725            0   0.50405427    1.4313996    1.9617386    1.0586916 
 3040000   0.98273169 6.3717029e-06   0.47817399  0.021838469            0   0.45633552    1.4495292    1.9277032    2.3626781 
 3045000   0.97255728 2.6983798e-05   0.56067392  0.014033342            0   0.54664057     1.434522    1.9951959    3.8372898 
 3050000   0.99357232  6.74556e-05   0.41738763  0.015147683            0   0.40223995    1.4655192    1.8829068    6.4878757 
 3055000   0.94382149 5.8489724e-05   0.44635438 0.0082795176            0   0.43807486    1.3921367    1.8384911    5.8313896 
 3060000   0.95745815 -3.8143263e-05   0.49652273 0.0070772339            0    0.4894455    1.4122508    1.9087735  -0.69513992 
 3065000   0.94146172 5.1377437e-05   0.47968311  0.044377985            0   0.43530513     1.388656    1.8683391    5.3757055 
 3070000   0.92804141 6.8823501e-05   0.43151574  0.015275205            0   0.41624054    1.3688611    1.8003768    6.4987278 
 3075000   0.96788414 5.9384481e-06   0.39991192 0.0020514481            0   0.39786047    1.4276291     1.827541    2.2329391 
 3080000   0.97206483 -1.6918232e-05   0.39017753 0.00071364407            0   0.38946389    1.4337956    1.8239732   0.66902182 
 3085000   0.79926963 2.5496173e-08   0.62983828  0.011151073            0   0.61868721    1.1789227     1.808761    1.8105015 
 3090000   0.86515337 3.3333365e-05   0.47618411  0.013483229            0   0.46270088    1.2761012    1.7522853     4.027843 
 3095000   0.87352705 -2.1433943e-05   0.47188818  1.95088e-06            0   0.47188623    1.2884524    1.7603406   0.29711672 
 3100000   0.86572342 -6.2895049e-05   0.55075026  0.022396535            0   0.52835372     1.276942    1.8276923    -2.465943 
 3105000   0.82016449 -8.9035907e-05   0.49152879  0.033145906            0   0.45838288    1.2097426    1.7012714   -4.3769132 
 3110000   0.88639539 -0.00010205108   0.35694807  0.010703005            0   0.34624507    1.3074332    1.6643813   -5.3023057 
 3115000   0.74664424 2.3304094e-05   0.67030545  0.025078603            0   0.64522685    1.1013002    1.7716057    3.3624985 
 3120000   0.87071555 3.5451728e-05   0.40618287  0.002252904            0   0.40392996    1.2843054    1.6904883    4.1106596 
 3125000   0.94713323 -3.5044336e-05   0.44451645 0.0088243629            0   0.43569208    1.3970215     1.841538  -0.55082201 
 3130000   0.90405942 -8.0337201e-05   0.47876237  0.019699123            0   0.45906325    1.3334876      1.81225   -3.6721029 
 3135000   0.82228448 0.00014342325    0.6086111  0.047387655            0   0.56122344    1.2128696    1.8214807    11.612508 
 3140000   0.85817996 -5.6995417e-06   0.55305129  0.053899099            0    0.4991522    1.2658154    1.8188667     1.429778 
 3145000   0.84460905 5.6695892e-05   0.51596631   0.03002259            0   0.48594372    1.2457983    1.7617647    5.6322042 
 3150000   0.87791754 6.6000526e-05   0.47275421  0.023338066            0   0.44941614    1.2949284    1.7676826    6.2733185 
 3155000   0.89312105 5.4990949e-06   0.51767022 0.0011537588            0   0.51651646    1.3173535    1.8350238    2.2104286 
 3160000   0.90345092 0.00011390513   0.50108287 8.489323e-06            0   0.50107438    1.3325901     1.833673    9.6095962 
 3165000   0.93633316 3.1219287e-05   0.44702388  0.011661934            0   0.43536195    1.3810914    1.8281153     3.959352 
 3170000   0.82275692 -9.0665662e-05   0.53665378  0.050669059            0   0.48598472    1.2135665    1.7502202   -4.4392223 
 3175000   0.84470063 5.1715185e-05     0.472479 0.0089301982            0    0.4635488    1.2459334    1.7184124    5.2488357 
 3180000   0.93827395 -3.1035251e-05   0.46700408  0.019998388            0   0.44700569    1.3839541    1.8509581    -0.267715 
 3185000   0.99504997 5.7457915e-06   0.40231236  0.029170948            0   0.37314141    1.4676987    1.8700111    2.2622571 
 3190000   0.92831757 4.9095207e-05   0.54597155  0.057314335            0   0.48865722    1.3692684      1.91524    5.2668061 
 3195000   0.95077013 8.4157838e-07   0.51155627  0.039270591            0   0.47228567    1.4023859    1.9139422     1.971394 
 3200000   0.91667807 -1.1812119e-06   0.59024077   0.04777199            0   0.54246878    1.3521002    1.9423409    1.8617035 
 3205000   0.94713103 9.5271458e-05   0.57353765  0.075997549            0    0.4975401    1.3970183    1.9705559    8.4744208 
 3210000   0.93858124 -5.3838619e-05   0.55483338  0.021588418            0   0.53324496    1.3844073    1.9392407   -1.7361424 
 3215000    1.0647658 9.4578254e-06   0.38485047 0.0078853394            0   0.37696513    1.5705296      1.95538    2.6010342 
 3220000   0.94427266 -6.797078e-05   0.50816744  0.025246435            0     0.482921    1.3928022    1.9009696    -2.739169 
 3225000    1.0579469 0.00011905324   0.44948288  0.055886594            0   0.39359629    1.5604717    2.0099546    10.137322 
 3230000    1.0377022 -4.8743173e-06   0.52604697  0.023696639            0   0.50235033    1.5306107    2.0566577    1.7239043 
 3235000    1.0587978 -0.0001051456   0.53191257 0.0068105058            0   0.52510206    1.5617267    2.0936393   -5.0843003 
 3240000    1.0181786 2.1687088e-05   0.55859091   0.10523947            0   0.45335144    1.5018134    2.0604043    3.5409095 
 3245000    1.0992561 2.8111187e-05   0.54363648  0.042823688            0   0.50081279    1.6214027    2.1650392    4.0840962 
 3250000    1.1173412 -5.4370864e-05   0.46612971  0.018351307            0    0.4477784    1.6480782    2.1142079   -1.5975097 
 3255000    1.1633353 -3.9484261e-07   0.41126926  0.019501519            0   0.39176774    1.7159195    2.1271888    2.1002342 
 3260000    1.0512156 -6.7771575e-05   0.49080603  0.054009515            0   0.43679651    1.5505431    2.0413491   -2.5851904 
 3265000    1.0728199 -2.7327948e-05   0.46022973  0.017766711            0   0.44246302    1.5824093    2.0426391   0.17705114 
 3270000    1.1376346 -4.5305747e-05   0.32691616  0.016022043            0   0.31089412     1.678011    2.0049272   -1.0879452 
 3275000   0.94898611 -0.0001049191   0.48651482  0.022936402            0   0.46357841    1.3997545    1.8862693    -5.276208 
 3280000    1.0465132 6.5604135e-05   0.39688936  0.013265606            0   0.38362375     1.543607    1.9404964     6.419072 
 3285000     1.070175 -2.6137789e-05   0.36891928  0.017938153            0   0.35098112    1.5785081    1.9474274   0.16308768 
 3290000   0.98620355 -1.4507932e-05   0.47966614  0.048498569            0   0.43116757    1.4546502    1.9343164   0.94390824 
 3295000    1.0254176 3.126591e-05   0.36494271 0.0072627965            0   0.35767991    1.5124909    1.8774336    4.0118531 
 3300000    1.0355759 -9.1880296e-06     0.360635            0            0     0.360635    1.5274745    1.8881095    1.2608733 
 3305000    1.0406173 3.0416953e-06   0.41324866  0.018733362            0   0.39451529    1.5349105    1.9481591    2.1558055 
 3310000   0.97338315 -3.8114617e-05    0.4424718   0.02144084            0   0.42103096    1.4357401    1.8782119  -0.72374589 
 3315000    1.0290636 0.00012522298   0.38895751  0.022788435            0   0.36616907    1.5178688    1.9068264    10.455382 
 3320000   0.93171538 6.393413e-06   0.53172291  0.013165101            0   0.51855781    1.3742802    1.9060031    2.3424601 
 3325000    1.0001046 1.5200227e-05   0.49106694 0.0061820706            0   0.48488487    1.4751542    1.9662212      3.00389 
 3330000   0.99984062 9.711195e-06   0.40538237 0.0017622877            0   0.40362008    1.4747649    1.8801473    2.5430982 
 3335000   0.91919242 -1.1541406e-05   0.57073802  0.043439731            0   0.52729829    1.3558088    1.9265468    1.1386535 
 3340000    1.1142432 6.1987423e-05    0.3741034 0.0065148336            0   0.36758857    1.6435087    2.0176121    6.2492868 
 3345000    1.1309861 -5.9619449e-05   0.49917768  0.016278725            0   0.48289896    1.6682046    2.1673822   -1.9026388 
 3350000    1.0944799 0.0001169022   0.49042524   0.02121009            0   0.46921515    1.6143578    2.1047831    10.085307 
 3355000     1.001979 -4.7248309e-05   0.61495025  0.016985641            0   0.59796461     1.477919    2.0928693   -1.1326153 
 3360000    1.0040635 1.1667837e-05   0.54114842  0.021073637            0   0.52007478    1.4809937    2.0221421    2.8186664 
 3365000    1.0883271 -1.9280094e-05   0.58940004  0.031200716            0   0.55819933    1.6052825    2.1946826   0.87849481 
 3370000    1.1238489 -7.78643e-05   0.54243945 0.0058070658            0   0.53663238    1.6576772    2.2001166   -3.1154196 
 3375000     1.124629 2.031209e-05   0.56759088    0.0290747            0   0.53851618    1.6588277    2.2264186    3.6130573 
 3380000    1.1236481 -5.4950228e-05   0.46399123   0.01496047            0   0.44903076     1.657381    2.1213722   -1.6298967 
 3385000    1.1210852 6.0207018e-05   0.55505932  0.014629347            0   0.54042997    1.6536006    2.2086599    6.3187924 
 3390000    1.0899117 -6.6195569e-05   0.51594788  0.014405242            0   0.50154263    1.6076198    2.1235677   -2.3953831 
 3395000    1.0301092 -2.5977897e-05   0.63304458  0.027497971            0   0.60554661    1.5194111    2.1524557   0.37903129 
 3400000    1.0924611 4.2167948e-05   0.50689824  0.010102107            0   0.49679613    1.6113801    2.1182783    4.9969436 
 3405000     1.017421 -0.00013502817   0.61488656  0.016859254            0   0.59802731     1.500696    2.1155825   -7.1023404 
 3410000    1.1168222 1.8940585e-05   0.40938799 0.0020957619            0   0.40729223    1.6473127    2.0567007    3.3497113 
 3415000    1.0802688 5.2172845e-05   0.41293616  0.033170547            0   0.37976561    1.5933965    2.0063326    5.5679988 
 3420000   0.96647876 2.553767e-05   0.64323635  0.028043798            0   0.61519255    1.4255562    2.0687925    3.8121641 
 3425000    1.1359481 -2.6898608e-05   0.51106649  0.034366868            0   0.47669962    1.6755234    2.1865899    0.3503116 
 3430000    1.0568043 -1.3364896e-05   0.52212656  0.047079303            0   0.47504726    1.5587863    2.0809129     1.168536 
 3435000    1.0431036 3.9800589e-05   0.53481876            0            0   0.53481876    1.5385778    2.0733965    4.7904501 
 3440000   0.95514149 -5.5238189e-05   0.63603974  0.027725094            0   0.60831464    1.4088337    2.0448734   -1.7260536 
 3445000    1.1898129 7.5085833e-05   0.32299062 0.0059306718            0   0.31705995     1.754974    2.0779646    7.2038242 
 3450000   0.98793311 -8.9246344e-05   0.48259227 0.0092596787            0   0.47333259    1.4572013    1.9397936   -4.1527568 
 3455000   0.93233074 -0.00010013655   0.50276064   0.03193287            0   0.47082777    1.3751878    1.8779485   -4.9580399 
 3460000   0.97823333 2.8483282e-05    0.4246109  0.048261373            0   0.37634952    1.4428942    1.8675051    3.8119638 
 3465000   0.89518056 -2.1096057e-05   0.46387619 0.0023902854            0    0.4614859    1.3203913    1.7842675   0.34411004 
 3470000   0.94395818 -2.1287859e-05   0.37629078  0.043700387            0   0.33259039    1.3923383    1.7686291   0.31537794 
 3475000   0.89381375 -8.7008984e-06   0.46495462  0.023567134            0   0.44138748    1.3183753    1.7833299    1.1893486 
 3480000   0.92448926 4.8059662e-05   0.45124524  0.071651959            0   0.37959328    1.3636217    1.8148669    5.0957398 
 3485000   0.98736505 9.2137401e-05   0.37860874 0.0038811941            0   0.37472755    1.4563635    1.8349722    8.1248854 
 3490000   0.99668365 8.7737441e-05    0.3859065  0.016280201            0    0.3696263    1.4701084    1.8560149    7.8455575 
 3495000     1.022705 -1.2889847e-05   0.38620806  0.007573084            0   0.37863498    1.5084899    1.8946979     1.014751 
 3500000     1.094211 4.4817991e-05   0.36764004  0.047271335            0   0.32036871    1.6139612    1.9816013    5.0411762 
 3505000     1.078003 2.8386218e-05   0.37679676 0.0047578251            0   0.37203894    1.5900545    1.9668512    3.9046837 
 3510000   0.92391654 3.4062887e-05   0.40934887  0.010677524            0   0.39867134    1.3627769    1.7721258    4.0974855 
 3515000   0.99126784 -8.3672427e-05   0.33181121 0.0036079107            0    0.3282033    1.4621201    1.7939313   -3.9181064 
 3520000   0.99133754 2.1713053e-05    0.3141033  0.017609417            0   0.29649389    1.4622229    1.7763262    3.2586039 
 3525000    0.8275184 5.0923443e-06   0.44678476  0.021349994            0   0.42543476    1.2205896    1.6673744    2.0150118 
 3530000   0.92643839 -3.4563608e-06   0.41223352  0.042605539            0   0.36962798    1.3664966    1.7787301    1.5427759 
 3535000   0.86381614 -1.204987e-05   0.49984606 0.0085967709            0   0.49124929    1.2741288    1.7739749   0.95137043 
 3540000   0.79289913 -8.2178581e-06   0.48797469  0.035068646            0   0.45290604    1.1695262    1.6575009    1.0964951 
 3545000   0.86295696 8.3706598e-06    0.4108043  0.017105644            0   0.39369865    1.2728615    1.6836658    2.2551028 
 3550000   0.79814391 3.4381536e-05   0.48412763 0.0018719471            0   0.48225569    1.1772623    1.6613899    4.0085027 
 3555000   0.84421587 -1.1348248e-05    0.5097775            0            0    0.5097775    1.2452184    1.7549959   0.98028887 
 3560000   0.83655854 7.6971257e-05   0.50329253 0.0061224395            0   0.49717009    1.2339238    1.7372164    6.9917875 
 3565000   0.92113301 -3.0696932e-05   0.45667094 0.0002378098            0   0.45643313    1.3586712    1.8153421  -0.28023511 
 3570000   0.89520509 9.5586374e-05   0.45555499  0.054959113            0   0.40059588    1.3204275    1.7759825    8.3013456 
 3575000   0.82442116 -4.8750389e-05   0.54416307 0.0066696992            0   0.53749338    1.2160212    1.7601843   -1.5678423 
 3580000   0.88150271 -2.4994093e-05   0.41730819  0.027612728            0   0.38969546    1.3002165    1.7175247  0.011261284 
 3585000   0.85128569 -3.4612607e-05   0.47772152 0.0071304326            0   0.47059109    1.2556464    1.7333679   -0.6295194 
 3590000   0.95033285 -2.4123191e-05   0.46313918  0.018937997            0   0.44420118     1.401741    1.8648801   0.21807028 
 3595000   0.94720283 4.1444522e-05   0.59754244  0.014718348            0   0.58282409    1.3971242    1.9946666     4.823946 
 3600000    1.0402583 1.114867e-05   0.49837303  0.020155456            0   0.47821757     1.534381    2.0327541    2.7938366 
 3605000    1.0376709 -0.00013657305   0.53217765 0.0079784642            0   0.52419918    1.5305646    2.0627423   -7.2606446 
 3610000    1.0399273 2.3714846e-05    0.4854887  0.010793547            0   0.47469516    1.5338928    2.0193815     3.638315 
 3615000   0.98114676 0.00010524541   0.60172785 0.0067132863            0   0.59501456    1.4471915    2.0489193    9.2336723 
 3620000   0.97784646 1.0941772e-05   0.56014619  0.041602539            0   0.51854365    1.4423235    2.0024697     2.749428 
 3625000   0.89678239 -2.0895363e-05   0.58144658  3.08197e-06            0   0.58144349     1.322754    1.9042006   0.47774381 
 3630000   0.96448331 -1.8735827e-05   0.46223946 0.0017704414            0   0.46046902    1.4226129    1.8848523    0.6058199 
 3635000   0.96858112 -0.00018425352   0.57889384  0.018407509            0   0.56048633    1.4286572     2.007551   -10.570823 
 3640000   0.99294097 -4.9250424e-05   0.58630796 0.0038413287            0   0.58246664    1.4645879    2.0508959   -1.3112664 
 3645000   0.92925997 -2.6124997e-05   0.60249042  0.057195643            0   0.54529478    1.3706585    1.9731489   0.18968245 
 3650000   0.97041767 9.841063e-05   0.60121259  0.052426129            0   0.54878646    1.4313661    2.0325786    8.7507443 
 3655000    1.0784084 2.9671699e-05   0.50154974  0.019264304            0   0.48228544    1.5906524    2.0922021    4.1177901 
 3660000    1.0904215 -3.4082112e-05   0.50100057            0            0   0.50100057    1.6083717    2.1093722  -0.21729992 
 3665000    1.0260612 4.5499041e-06   0.51277159  0.023475591            0     0.489296    1.5134403    2.0262119    2.3368186 
 3670000    1.0908336 -6.0679225e-05   0.46593042            0            0   0.46593042    1.6089796      2.07491   -2.0674584 
 3675000   0.85680852 -4.3235948e-05   0.71384024  0.063810349            0   0.65002989    1.2637926    1.9776328  -0.97394125 
 3680000   0.99913192 3.814118e-05   0.44664625  0.010446086            0   0.43620016    1.4737196    1.9203658     4.524137 
 3685000   0.96486654 -1.1069485e-05   0.53234957   0.00624997            0    0.5260996    1.4231781    1.9555277    1.1998509 
 3690000     1.006048 3.4305401e-05    0.4771555            0            0    0.4771555    1.4839207    1.9610762    4.3029916 
 3695000   0.99710574 7.1046252e-05   0.54655185 0.0077208916            0   0.53883096     1.470731    2.0172828    6.8673737 
 3700000    0.9150905 -0.00010661085    0.6685644 0.0082054784            0   0.66035892    1.3497585    2.0183229   -5.2596444 
 3705000   0.99663019 -6.22834e-05   0.43803474 0.0050995185            0   0.43293522    1.4700295    1.9080643   -2.3438158 
 3710000   0.95350892 6.6053964e-05   0.51849222  0.023597459            0   0.49489476    1.4064257    1.9249179    6.4342018 
 3715000    1.0095004 2.2557067e-05   0.52962827  0.032723221            0   0.49690504    1.4890131    2.0186413    3.5585371 
 3720000   0.90715397 -6.5085267e-05   0.60729887    0.0217709            0   0.58552797    1.3380521     1.945351   -2.4978032 
 3725000   0.93466115 -7.0339144e-05   0.57375326  0.028687964            0    0.5450653    1.3786252    1.9523785   -2.8494404 
 3730000   0.95893249 0.00011303324      0.60142  0.019905524            0   0.58151448    1.4144254    2.0158454    9.7322481 
 3735000   0.92595183 -5.455907e-05   0.59652739   0.03863636            0   0.55789103     1.365779    1.9623063   -1.7622595 
 3740000    0.8139338 -4.7125296e-05   0.64665132  0.061426851            0   0.58522447    1.2005524    1.8472037   -1.3698832 
 3745000   0.96327216 2.8771724e-05   0.43323455  0.006010531            0   0.42722402    1.4208264     1.854061    3.8182107 
 3750000   0.95394218 5.4479207e-05   0.47495161  0.036255798            0   0.43869581    1.4070647    1.8820163    5.6011302 
 3755000    1.0583662 4.5848333e-05   0.48830924  0.020650178            0   0.46765906    1.5610901    2.0493994    5.1793123 
 3760000    1.0235769 1.6611476e-05   0.55890556  0.010925929            0   0.54797963    1.5097759    2.0686815    3.2026916 
 3765000     1.155674 9.5443516e-05   0.55503036  0.026267523            0   0.52876283    1.7046191    2.2596495    8.7752602 
 3770000    1.1879923 -1.7614386e-06   0.62381893  0.010018171            0   0.61380076    1.7522886    2.3761075      2.25586 
 3775000    1.1133512 -7.0578999e-05   0.55584183 0.0026853944            0   0.55315643     1.642193    2.1980349   -2.6201581 
 3780000    1.0618936 -4.5859096e-05   0.47032421  0.018868574            0   0.45145563     1.566293    2.0366172   -1.0940304 
 3785000    1.0581106 -8.1683042e-05   0.51128709 0.0025964951            0   0.50869059    1.5607131    2.0720002   -3.5042288 
 3790000    1.0841553 -6.1026791e-05   0.45930153 0.0020233644            0   0.45727816    1.5991291    2.0584306    -2.107665 
 3795000    1.0255003 -9.3880238e-06   0.51022684  0.030737768            0   0.47948907    1.5126129    2.0228397    1.3819506 
 3800000    1.1234625 1.0647408e-05   0.38410566  0.023781683            0   0.36032398    1.6571072    2.0412129    2.7680759 
 3805000    1.0773384 1.4654292e-05   0.52929142  0.017700284            0   0.51159113    1.5890742    2.1183656    3.1187653 
 3810000    1.1072038 8.7559772e-06   0.48459729  0.014585419            0   0.47001187    1.6331256    2.1177229    2.7154643 
 3815000   0.96161144 -0.00014152901   0.60089832 0.0066609982            0   0.59423733    1.4183769    2.0192752   -7.6424384 
 3820000    1.0030686 3.2065427e-05   0.53754297  0.027043458            0   0.51049952    1.4795262    2.0170692     4.206069 
 3825000    1.0593869 6.1411088e-05   0.45607115  0.053486655            0    0.4025845    1.5625956    2.0186668     6.210997 
 3830000   0.96795342 -1.6595212e-05   0.56933334  0.017445178            0   0.55188816    1.4277313    1.9970646   0.86416484 
 3835000    1.0456516 -0.00010846472   0.49085138 0.0092853598            0   0.48156602    1.5423361    2.0331875   -5.3713371 
 3840000   0.98713409 2.0653306e-05   0.44611095 0.0031145864            0   0.44299636    1.4560228    1.9021337    3.3120661 
 3845000   0.92009302 7.4628208e-05   0.57478234  0.049070459            0   0.52571188    1.3571372    1.9319196    7.0265386 
 3850000   0.98786299 -4.2559931e-05   0.43182176  0.012307695            0   0.41951407    1.4570979    1.8889197   -1.0165049 
 3855000   0.85044487 -6.2890899e-05   0.60361925  0.015297707            0   0.58832155    1.2544062    1.8580254   -2.4353266 
 3860000    1.0100749 0.00015229826   0.43549197    0.0083068            0   0.42718517    1.4898606    1.9253525    12.322247 
 3865000   0.98946874 0.00011984572   0.49878143 0.0028867718            0   0.49589466    1.4594664    1.9582478    10.139715 
 3870000   0.96251549 -9.153507e-05   0.55757734  0.013832686            0   0.54374465    1.4197104    1.9772877   -4.2715064 
 3875000    1.0427437 -1.7450031e-05   0.41071894 0.00015261188            0   0.41056633    1.5380469    1.9487659   0.75751039 
 3880000    1.0111475 1.2733014e-05   0.36903603 0.0024448528            0   0.36659118    1.4914425    1.8604785    2.7297189 
 3885000     0.897095 -6.2628781e-05   0.58421391  0.043725815            0    0.5404881    1.3232151     1.907429   -2.3680291 
 3890000    1.0115632 -0.00012121322   0.46789061 0.0011408743            0   0.46674974    1.4920558    1.9599464   -6.3148759 
 3895000    1.1164989 0.00010702286     0.428949   0.01821151            0   0.41073749     1.646836     2.075785    9.3818787 
 3900000    1.0304907 -9.7930873e-05   0.63655617  0.025049941            0   0.61150623    1.5199739      2.15653   -4.5288842 
 3905000    1.0713766 -6.8699148e-05   0.59527251  0.019570386            0   0.57570212    1.5802804     2.175553   -2.5143089 
 3910000   0.97979535 -4.5673308e-05   0.68558036  0.041273733            0   0.64430662    1.4451981    2.1307785    -0.987186 
 3915000    1.1708445 -2.4312778e-05     0.485613  0.015657139            0   0.46995587    1.7269956    2.2126086   0.55285625 
 3920000    1.1554856 -4.4999561e-05   0.43957771 0.0080399282            0   0.43153778    1.7043412    2.1439189  -0.92805108 
 3925000    1.0965003 -7.3024313e-05   0.49992786 0.0027040073            0   0.49722386     1.617338    2.1172658   -2.8678606 
 3930000    1.1395061 -2.6106506e-05    0.4461475 0.0061286335            0   0.44001887    1.6807714    2.1269189   0.34471479 
 3935000    1.1161546 5.9079414e-05   0.56937978  0.055102732            0   0.51427705    1.6463281    2.2157079    6.2488625 
 3940000    1.1777438 -3.5465682e-05   0.51590091  0.019630939            0   0.49626997    1.7371721     2.253073   -0.1680509 
 3945000     1.095496 2.4862838e-05   0.64420285 0.0082809051            0   0.63592195    1.6158566    2.2600594    3.9573625 
 3950000    1.0807067 -3.6027908e-05   0.64718413  0.095985095            0   0.55119903    1.5940424    2.2412265  -0.21827867 
 3955000    1.0937936 0.00011321442   0.56067136 0.0061971625            0   0.55447419    1.6133456    2.1740169    9.9027882 
 3960000     1.144985 -8.287701e-05   0.55178252  0.035128227            0   0.51665429    1.6888529    2.2406354   -3.4171019 
 3965000    1.1390679 -3.3753103e-05   0.56654993  0.055840478            0   0.51070945    1.6801251     2.246675 -0.057536792 
 3970000    1.2018555 9.3666528e-06   0.53999666  0.040068453            0   0.49992821    1.7727369    2.3127336    2.9521637 
 3975000    1.1983274 7.733876e-05   0.48840266  0.037053049            0   0.45134961    1.7675329    2.2559356     7.535595 
 3980000    1.0944223 -3.5181378e-05    0.5440304  0.013143987            0   0.53088641    1.6142729    2.1583033  -0.24341216 
 3985000   0.97352637 4.2241859e-05   0.59891294  0.060855605            0   0.53805734    1.4359514    2.0348643    4.9185752 
 3990000     1.071799 4.0168559e-05   0.50822647  0.017158257            0   0.49106822    1.5809035      2.08913    4.8313037 
 3995000    1.1296557 -3.5018626e-05   0.39339939  0.014031635            0   0.37936775    1.6662422    2.0596416  -0.33096328 
 4000000   0.95866905 3.8852656e-05   0.50689447 0.0015330823            0   0.50536139    1.4140369    1.9209313    4.5732726 
Loop time of 211.604 on 1 procs for 2000000 steps with 60 atoms

Performance: 816620.677 tau/day, 9451.628 timesteps/s
99.2% CPU use with 1 MPI tasks x no OpenMP threads

MPI task timing breakdown:
Section |  min time  |  avg time  |  max time  |%varavg| %total
---------------------------------------------------------------
Pair    | 0.79093    | 0.79093    | 0.79093    |   0.0 |  0.37
Bond    | 2.1172     | 2.1172     | 2.1172     |   0.0 |  1.00
Neigh   | 178.89     | 178.89     | 178.89     |   0.0 | 84.54
Comm    | 24.784     | 24.784     | 24.784     |   0.0 | 11.71
Output  | 0.04086    | 0.04086    | 0.04086    |   0.0 |  0.02
Modify  | 4.3549     | 4.3549     | 4.3549     |   0.0 |  2.06
Other   |            | 0.6283     |            |       |  0.30

Nlocal:        60.0000 ave          60 max          60 min
Histogram: 1 0 0 0 0 0 0 0 0 0
Nghost:        23.0000 ave          23 max          23 min
Histogram: 1 0 0 0 0 0 0 0 0 0
Neighs:        18.0000 ave          18 max          18 min
Histogram: 1 0 0 0 0 0 0 0 0 0

Total # of neighbors = 18
Ave neighs/atom = 0.3
Ave special neighs/atom = 5.8000000
Neighbor list builds = 37858
Dangerous builds = 0
write_restart restart.rerun.1
System init for write_restart ...
WARNING: Communication cutoff 1.4200000000000002 is shorter than a bond length based estimate of 1.8. This may lead to errors. (../comm.cpp:667)
#--------------End of Input file ------------------
Total wall time: 0:03:31
