LAMMPS (29 Oct 2020)
###################### polyelectrolyte complexation ######################
clear

#Initialization
#------------------------------------
units				lj
dimension			3
atom_style			full
boundary			p p p

#Atom Definition
#-------------------------------------
read_data			data.complexation
Reading data file ...
  orthogonal box = (-80.000000 -80.000000 -80.000000) to (80.000000 80.000000 80.000000)
  1 by 1 by 1 MPI processor grid
  reading atoms ...
  40 atoms
  scanning bonds ...
  1 = max bonds/atom
  reading bonds ...
  39 bonds
Finding 1-2 1-3 1-4 neighbors ...
  special bond factors lj:    0.0      0.0      0.0     
  special bond factors coul:  0.0      0.0      0.0     
     2 = max # of 1-2 neighbors
     2 = max # of 1-3 neighbors
     4 = max # of 1-4 neighbors
     6 = max # of special neighbors
  special bonds CPU = 0.000 seconds
  read_data CPU = 0.002 seconds

#Force definition
#----------------------------------------------
#Bond definition
bond_style			harmonic
bond_coeff			1 5000 1
#Pair definition
special_bonds	lj 0 1 1
Finding 1-2 1-3 1-4 neighbors ...
  special bond factors lj:    0.0      1.0      1.0     
  special bond factors coul:  0.0      0.0      0.0     
     2 = max # of 1-2 neighbors
     2 = max # of 1-3 neighbors
     4 = max # of 1-4 neighbors
     6 = max # of special neighbors
  special bonds CPU = 0.000 seconds
pair_style		 lj/cut 1.12
pair_modify 		 shift yes
pair_coeff	1 1 1 1 1.12

#Timestep etc
#--------------------------------------------
timestep		1e-05
run_style		verlet
velocity		all	create	1	13

#Fix
#---------------------------------------
group polymers type 1
40 atoms in group polymers
fix 1 all nve
fix 2 all langevin 1	1	10	13
fix 3 polymers recenter INIT INIT INIT units box

#Dump
#------------------------------------------------
compute  1 all gyration
variable  myRg2 equal c_1
variable  i equal step
fix  mythermofile all print 5000 "$i ${myRg2}" file radius_of_gyration.dat screen no

thermo_style		 custom step temp press pe evdwl ecoul ebond ke etotal enthalpy
thermo 	5000
dump	3 all custom 5000 dump.lammpstrj id mol type xu yu zu
run		20000000
Neighbor list info ...
  update every 1 steps, delay 10 steps, check yes
  max neighbors/atom: 2000, page size: 100000
  master list distance cutoff = 1.42
  ghost atom cutoff = 1.42
  binsize = 0.71, bins = 226 226 226
  1 neighbor lists, perpetual/occasional/extra = 1 0 0
  (1) pair lj/cut, perpetual
      attributes: half, newton on
      pair build: half/bin/newton
      stencil: half/bin/3d/newton
      bin: standard
WARNING: Communication cutoff 1.4200000000000002 is shorter than a bond length based estimate of 1.8. This may lead to errors. (../comm.cpp:667)
Per MPI rank memory allocation (min/avg/max) = 54.71 | 54.71 | 54.71 Mbytes
Step Temp Press PotEng E_vdwl E_coul E_bond KinEng TotEng Enthalpy 
       0            1 9.5214844e-06            0            0            0            0       1.4625       1.4625       2.4375 
    5000   0.73921573 -0.00018279862   0.37645784            0            0   0.37645784     1.081103    1.4575608   -17.261018 
   10000   0.47290633 -0.00031970164   0.75782636            0            0   0.75782636   0.69162551    1.4494519   -31.287996 
   15000   0.80309298 -8.3329201e-05   0.24363831            0            0   0.24363831    1.1745235    1.4181618   -7.1147484 
   20000   0.88927549 2.4927264e-05   0.15499327            0            0   0.15499327    1.3005654    1.4555587    4.0081105 
   25000   0.77878777 -0.00015070078   0.32975777            0            0   0.32975777    1.1389771    1.4687349   -13.963025 
   30000   0.77317529 -0.00013261885   0.36583754            0            0   0.36583754    1.1307689    1.4966064   -12.083564 
   35000   0.86323653 0.00013363625   0.26514177            0            0   0.26514177    1.2624834    1.5276252    15.211977 
   40000   0.90562622 0.00011853517    0.2267263            0            0    0.2267263    1.3244783    1.5512046    13.689206 
   45000   0.80585203 -0.00017261755   0.41973708            0            0   0.41973708    1.1785586    1.5982957   -16.077741 
   50000   0.89541064 -2.5988312e-05   0.26552898            0            0   0.26552898    1.3095381     1.575067   -1.0861362 
   55000   0.76647173 0.00017020646   0.43181261            0            0   0.43181261    1.1209649    1.5527775    18.981919 
   60000     0.866961 -1.7970204e-05   0.31899672            0            0   0.31899672    1.2679305    1.5869272  -0.25322169 
   65000   0.77128315 -0.00012457861   0.47678629            0            0   0.47678629    1.1280016    1.6047879   -11.152062 
   70000   0.86555746 0.00010111534   0.36055538            0            0   0.36055538    1.2658778    1.6264332    11.980644 
   75000   0.83363249 -1.0015232e-05   0.43260014 0.0036984829            0   0.42890165    1.2191875    1.6517876   0.62622785 
   80000   0.74053896 3.7386055e-06   0.54854323  0.014306932            0    0.5342363    1.0830382    1.6315815    2.0144147 
   85000   0.83090732 -4.5584128e-05    0.4411884  0.043088219            0   0.39810018    1.2152019    1.6563904   -3.0114244 
   90000   0.84879566 0.00010656624   0.37860292 0.0074577809            0   0.37114514    1.2413637    1.6199666     12.53235 
   95000   0.80348053 -5.9135309e-05   0.43607628            0            0   0.43607628    1.1750903    1.6111666   -4.4442891 
  100000   0.86662251 -4.0414903e-05   0.32364118            0            0   0.32364118    1.2674354    1.5910766   -2.5474094 
  105000   0.78335541 0.00017441113   0.45509282            0            0   0.45509282    1.1456573    1.6007501     19.46045 
  110000   0.78192282 -0.00019034984   0.48315008            0            0   0.48315008    1.1435621    1.6267122   -17.865112 
  115000   0.88353185 0.0001229031   0.36361408            0            0   0.36361408    1.2921653    1.6557794    14.241057 
  120000   0.86311661 5.6219038e-05   0.36890563            0            0   0.36890563     1.262308    1.6312137    7.3880432 
  125000    0.7214128 -0.00015677961    0.5600834            0            0    0.5600834    1.0550662    1.6151496   -14.439083 
  130000   0.83679552 8.5601514e-05    0.4283839            0            0    0.4283839    1.2238134    1.6521974    10.417792 
  135000   0.93667258 3.9045561e-06    0.2970911            0            0    0.2970911    1.3698837    1.6669748    2.0668013 
  140000    0.8303467 -0.00016132547   0.41523332            0            0   0.41523332     1.214382    1.6296154   -14.890113 
  145000   0.84016817 0.00019472573   0.42790846            0            0   0.42790846    1.2287459    1.6566544    21.596569 
  150000   0.83500767 -6.4686034e-05    0.4743422            0            0    0.4743422    1.2211987    1.6955409   -4.9283089 
  155000   0.78283728 -9.1177712e-05   0.58111479            0            0   0.58111479    1.1448995    1.7260143   -7.6105834 
  160000   0.90054741 6.4512244e-05   0.39813789            0            0   0.39813789    1.3170506    1.7151885    8.3212423 
  165000   0.98112815  -1.6069e-05   0.28967974            0            0   0.28967974    1.4348999    1.7245797  0.079114022 
  170000   0.90584341 -1.6441953e-05   0.45929964            0            0   0.45929964     1.324796    1.7840956    0.1004396 
  175000   0.88871706 4.5313776e-05   0.49951714            0            0   0.49951714    1.2997487    1.7992658    6.4393965 
  180000   0.87023471 0.00013811663   0.54880312            0            0   0.54880312    1.2727183    1.8215214    15.964664 
  185000   0.88997117 -0.00013564519   0.51860447            0            0   0.51860447    1.3015828    1.8201873    -12.06988 
  190000    0.9832917 0.00017144464   0.38741694            0            0   0.38741694    1.4380641    1.8254811    19.381412 
  195000    1.0081238 -0.00012723865    0.3623056            0            0    0.3623056    1.4743811    1.8366867   -11.192551 
  200000    1.0349923 -5.0167574e-05   0.37082339            0            0   0.37082339    1.5136763    1.8844997   -3.2526599 
  205000   0.96447094 2.278441e-05   0.48717133            0            0   0.48717133    1.4105387    1.8977101    4.2308337 
  210000   0.96244325 -7.7289027e-05     0.503409            0            0     0.503409    1.4075732    1.9109822   -6.0034142 
  215000    1.0462152 8.8602881e-05    0.3691204            0            0    0.3691204    1.5300898    1.8992102    10.972145 
  220000    1.0882165 -2.4293476e-05   0.36048098            0            0   0.36048098    1.5915166    1.9519976   -0.5356543 
  225000   0.98450563 -4.611503e-05   0.52105122            0            0   0.52105122    1.4398395    1.9608907   -2.7612883 
  230000    1.0221082 7.5629664e-05   0.46307649            0            0   0.46307649    1.4948332    1.9579097    9.7023873 
  235000   0.88518033 -3.4138175e-05   0.59369782            0            0   0.59369782    1.2945762     1.888274    -1.607475 
  240000   0.91331354 7.2754479e-05   0.58607421            0            0   0.58607421     1.335721    1.9217953     9.371854 
  245000   0.89256459 -6.5878963e-05   0.61933893 2.9772539e-06            0   0.61933595    1.3053757    1.9247146   -4.8212912 
  250000     1.039373 -3.6108268e-05   0.45087402            0            0   0.45087402     1.520083     1.970957   -1.7265296 
  255000   0.91815444 2.7097489e-05   0.58710009 2.2714826e-05            0   0.58707737    1.3428009     1.929901    4.7046838 
  260000   0.80484707 -0.00011784662   0.72899351 9.0616941e-05            0   0.72890289    1.1770888    1.9060823   -10.161411 
  265000   0.95385387 4.9102922e-05   0.55839542            0            0   0.55839542    1.3950113    1.9534067    6.9815459 
  270000   0.98615684 -0.00013880756   0.47549331            0            0   0.47549331    1.4422544    1.9177477   -12.296147 
  275000    1.0283464 9.2396572e-05   0.37924918            0            0   0.37924918    1.5039567    1.8832059    11.344615 
  280000    0.9971211 -1.1784562e-05   0.40390141            0            0   0.40390141    1.4582896     1.862191    0.6554519 
  285000   0.92290099 1.8713572e-05    0.5206974 5.1755054e-05            0   0.52064565    1.3497427    1.8704401    3.7867099 
  290000   0.92658229 2.4218761e-05   0.52973163 0.0016061325            0   0.52812549    1.3551266    1.8848582    4.3648593 
  295000    0.8696958 1.7110684e-05     0.601934 0.0043817624            0   0.59755223    1.2719301    1.8738641    3.6259981 
  300000   0.87907247 5.8984682e-05   0.59342325 0.0043228886            0   0.58910036    1.2856435    1.8790667    7.9190982 
  305000    1.0504845 -4.5404827e-05   0.30545485 0.00070056218            0   0.30475429    1.5363336    1.8417884   -2.8076659 
  310000    1.0209833 2.4805991e-05   0.37754117            0            0   0.37754117     1.493188    1.8707292    4.4108626 
  315000     1.024354 -7.8636753e-06   0.35668357            0            0   0.35668357    1.4981177    1.8548012    1.0495609 
  320000    0.9781721 3.0761918e-05   0.44065696 2.4698463e-05            0   0.44063226    1.4305767    1.8712337     5.021254 
  325000   0.99286462 6.0797175e-05   0.43130758 0.00040672388            0   0.43090085    1.4520645    1.8833721    8.1090029 
  330000   0.86445158 -5.9960336e-05   0.60263241 0.0063590612            0   0.59627335    1.2642604    1.8668928   -4.2730455 
  335000   0.90504639 5.9286014e-05   0.54754825 0.0015625145            0   0.54598573    1.3236303    1.8711786    7.9420665 
  340000   0.90955334 1.1491962e-05   0.58254193  0.003191141            0   0.57935079    1.3302218    1.9127637    3.0895406 
  345000    1.0605879 5.2644779e-05   0.38264905 0.0027737731            0   0.37987528    1.5511098    1.9337588    7.3245842 
  350000   0.95574362 -0.00010091738   0.50142918 0.0075544279            0   0.49387475     1.397775    1.8992042   -8.4347353 
  355000    1.0532204 5.7937291e-06    0.3874023 0.0063023493            0   0.38109995    1.5403348    1.9277371    2.5210149 
  360000    1.0766011 7.8202806e-06   0.39006356  0.011413734            0   0.37864983    1.5745291    1.9645927    2.7653894 
  365000    1.0532017 -4.3016395e-05   0.42469572  0.014113881            0   0.41058184    1.5403075    1.9650032   -2.4398756 
  370000    1.0487641 4.8788594e-05   0.43023085 0.0036511023            0   0.42657975    1.5338174    1.9640483    6.9600003 
  375000    1.0800317 3.8606604e-05   0.37948916            0            0   0.37948916    1.5795463    1.9590355    5.9123518 
  380000    1.0756029 0.00011604503   0.40517963            0            0   0.40517963    1.5730692    1.9782488     13.86126 
  385000    1.0462405 -0.00010812785   0.45608604            0            0   0.45608604    1.5301267    1.9862127   -9.0860787 
  390000   0.95648664 8.4941739e-05   0.52377599            0            0   0.52377599    1.3988617    1.9226377    10.620672 
  395000   0.84678852 -0.00016808616   0.65904266 5.5584951e-05            0   0.65898707    1.2384282    1.8974709   -15.314552 
  400000   0.79020945 4.5993601e-05   0.75391304 0.00095607713            0   0.75295696    1.1556813    1.9095944    6.6193391 
  405000   0.83598566 -0.00017283681   0.69989061 0.0046863466            0   0.69520427     1.222629    1.9225196   -15.775969 
  410000   0.86480543 8.601342e-05   0.62231683 0.0053882019            0   0.61692863    1.2647779    1.8870948    10.694869 
  415000   0.94551491 -0.00012291706   0.53180417  0.006028034            0   0.52577614    1.3828156    1.9146197   -10.672087 
  420000   0.97464935 5.2310437e-05   0.49244157 0.0059960374            0   0.48644554    1.4254247    1.9178662     7.274455 
  425000   0.92573323 -9.5823028e-05   0.51276507  0.004914283            0   0.50785079    1.3538849    1.8666499   -7.9456281 
  430000   0.92255882 -1.6099861e-05   0.52439562  0.002162451            0   0.52223317    1.3492423    1.8736379   0.22501214 
  435000   0.93125819 -0.00011446601   0.50672114 0.00022382476            0   0.50649732    1.3619651    1.8686862   -9.8526336 
  440000   0.97937992 -2.1989655e-05   0.44687819            0            0   0.44687819    1.4323431    1.8792213  -0.37251936 
  445000   0.95447265 -3.5060542e-05   0.47296795 0.00054677507            0   0.47242118    1.3959162    1.8688842   -1.7213153 
  450000   0.94213351 4.8630619e-05   0.47051543 0.00020169488            0   0.47031374    1.3778703    1.8483857    6.8281611 
  455000   0.95063737 -0.00012037522   0.45419688 0.00084287633            0     0.453354    1.3903072     1.844504   -10.481918 
  460000   0.95109638 9.5838497e-05    0.4612371 0.0032955163            0   0.45794159    1.3909785    1.8522156    11.666078 
  465000   0.85771929 -3.769334e-05   0.60756928 0.0053410895            0   0.60222819    1.2544145    1.8619837   -1.9978143 
  470000   0.86986577 0.00018676079    0.5759853 0.0082317798            0   0.56775352    1.2721787     1.848164    20.972469 
  475000   0.93080508 -8.7691358e-05    0.5264481 0.0029378967            0   0.52351021    1.3613024    1.8877505   -7.0918446 
  480000   0.91550479 9.2645425e-05   0.56106158 0.0024737392            0   0.55858784    1.3389258    1.8999873    11.386879 
  485000   0.87115446 -0.00015057586   0.66026756  0.008366544            0   0.65190101    1.2740634     1.934331   -13.484637 
  490000   0.90961464 3.5129241e-05   0.57269455  0.014114315            0   0.55858024    1.3303114     1.903006    5.5002402 
  495000   0.94548443 -0.0001208363   0.55557221 0.0062831221            0   0.54928909     1.382771    1.9383432   -10.435294 
  500000   0.94252179 0.00011771462   0.55637564  0.001463201            0   0.55491244    1.3784381    1.9348138    13.988791 
  505000   0.98507004 -9.6616597e-05   0.56907884 0.0066791747            0   0.56239966    1.4406649    2.0097438   -7.8837958 
  510000    1.0009433 8.1273826e-05   0.55943833   0.00532263            0    0.5541157    1.4638796     2.023318    10.345758 
  515000    0.9920081 -7.1061747e-05   0.65338698 0.0072851509            0   0.64610183    1.4508118    2.1041988   -5.1725241 
  520000    1.0942253 8.4194272e-05   0.52435301 0.0010636316            0   0.52328938    1.6003044    2.1246575    10.746151 
  525000    1.0761855 -8.474734e-05   0.50224328 0.0072246971            0   0.49501858    1.5739214    2.0761646    -6.601963 
  530000    1.0281083 8.8770748e-05   0.58447281  0.041764127            0   0.54270869    1.5036083    2.0880812    11.178206 
  535000   0.91802331 -2.4017346e-05   0.70752935  0.015198526            0   0.69233082    1.3426091    2.0501384  -0.40923782 
  540000   0.97361937 6.9661236e-05   0.58892639  0.002563619            0   0.58636277    1.4239183    2.0128447    9.1461553 
  545000    1.0635371 -3.624704e-05   0.44205049 6.2867459e-05            0   0.44198762     1.555423    1.9974735   -1.7142234 
  550000   0.97837293 3.6538255e-05   0.56321163 0.0066384253            0    0.5565732    1.4308704     1.994082    5.7355994 
  555000   0.93473535 1.0880503e-05   0.65240401  0.018960668            0   0.63344335    1.3670505    2.0194545    3.1336179 
  560000    0.9439868 2.0393904e-06   0.65565223  0.017378238            0   0.63827399    1.3805807    2.0362329    2.2450665 
  565000   0.98932462  5.73849e-05   0.60198095  0.027734697            0   0.57424625    1.4468873    2.0488682    7.9250819 
  570000    1.1217471 -9.2337378e-05   0.41858603  0.002249626            0   0.41633641    1.6405552    2.0591412   -7.3962063 
  575000    1.0711956 1.4041181e-05    0.4681166 0.0068971193            0   0.46121948    1.5666236    2.0347402    3.4725571 
  580000    1.0387553 -8.5120225e-05   0.53796189  0.011675951            0   0.52628594    1.5191796    2.0571415   -6.6591696 
  585000     1.026894 0.00012819953   0.59384201 0.0058317277            0   0.58801029    1.5018325    2.0956745    15.223306 
  590000    1.1154123 -2.0650812e-05   0.45787793   0.03228156            0   0.42559637    1.6312905    2.0891684 -0.025474774 
  595000    1.0552248 7.2831177e-05   0.58095596  0.013238559            0   0.56771741    1.5432663    2.1242222    9.5821348 
  600000    1.0827529 -4.2722736e-05   0.58937855  0.010090633            0   0.57928791    1.5835262    2.1729047   -2.2019035 
  605000    1.1449762 -2.5568144e-05   0.49973526  0.016954312            0   0.48278095    1.6745277     2.174263  -0.44391497 
  610000    1.1237641 -6.3615694e-05   0.50936108  0.022824305            0   0.48653678     1.643505    2.1528661   -4.3613809 
  615000     1.180598 2.7820539e-05   0.41067095  0.015044602            0   0.39562635    1.7266246    2.1372956    4.9861188 
  620000    1.0932389 6.2712018e-05   0.53808402  0.028422251            0   0.50966177    1.5988619    2.1369459    8.5586566 
  625000   0.98104387 -6.9968404e-06   0.68714039  0.024756276            0   0.66238412    1.4347767    2.1219171    1.4054406 
  630000     1.105259 0.00012247191   0.45424029 0.0070011915            0    0.4472391    1.6164414    2.0706816    14.611806 
  635000   0.98899084 -6.6551149e-05   0.61060773 4.608534e-05            0   0.61056164    1.4463991    2.0570068   -4.7578308 
  640000    1.0848183 -8.4529684e-06   0.47980485            0            0   0.47980485    1.5865468    2.0663516    1.2007676 
  645000    1.0486773 1.2467861e-05   0.56911083            0            0   0.56911083    1.5336906    2.1028015    3.3795104 
  650000   0.98382357 -1.8678501e-05   0.62273973            0            0   0.62273973     1.438842    2.0615817   0.14890319 
  655000    1.1147364 5.6343319e-05   0.45644272            0            0   0.45644272     1.630302    2.0867447    7.8563006 
  660000   0.90063332 -0.00016570471   0.76235277            0            0   0.76235277    1.3171762     2.079529   -14.888633 
  665000   0.94593773 9.6853939e-05   0.65459975            0            0   0.65459975    1.3834339    2.0380337    11.955877 
  670000    0.8707261 -0.00015375518   0.79136087            0            0   0.79136087    1.2734369    2.0647978   -13.679733 
  675000    1.0169387 0.00010132761    0.5574706            0            0    0.5574706    1.4872729    2.0447435    12.420691 
  680000     1.075101 -6.3841962e-05   0.49879551 9.8868199e-05            0   0.49869664    1.5723352    2.0711307   -4.4662861 
  685000    1.0708465 -2.0045652e-05   0.51697411 0.0015488974            0   0.51542522    1.5661129    2.0830871  0.030412252 
  690000    1.1029358 9.7663607e-05   0.50987456 0.0031669902            0   0.50670757    1.6130436    2.1229181    12.123672 
  695000      0.93072 -7.1831555e-05   0.79882972 0.0012131517            0   0.79761657     1.361178    2.1600077   -5.1955435 
  700000     1.003008 0.00015931328   0.69883819 0.0035860717            0   0.69525212    1.4668992    2.1657374    18.479417 
  705000   0.86694701 -0.00012795188   0.88097541  0.047336002            0    0.8336394      1.26791    2.1488854   -10.953387 
  710000    1.0576466 3.5004857e-05   0.60008619  0.034128862            0   0.56595733    1.5468082    2.1468944    5.7313918 
  715000    1.0806659 -0.00011961364   0.55975696  0.013946683            0   0.54581028    1.5804739    2.1402308   -10.108206 
  720000    1.0528533 -5.9453751e-05   0.63715134 0.0088169697            0   0.62833437     1.539798    2.1769493   -3.9111148 
  725000    1.0815579 1.4096682e-05   0.57740892  0.014037412            0   0.56337151    1.5817785    2.1591874    3.6026876 
  730000    1.0294719 -5.1562916e-05   0.65893866  0.064711571            0   0.59422709    1.5056027    2.1645414   -3.1155012 
  735000    1.0433603 0.00011766821    0.6436204   0.10846572            0   0.53515468    1.5259145    2.1695349    14.218759 
  740000   0.97443947 1.4062587e-06   0.71855241  0.032520478            0   0.68603194    1.4251177    2.1436701     2.287671 
  745000   0.96169967 0.00014655688   0.78140532  0.010801561            0   0.77060376    1.4064858    2.1878911    17.195316 
  750000   0.94821308 -2.8438421e-05   0.75394222 0.0012039238            0   0.75273829    1.3867616    2.1407039  -0.77139051 
  755000    1.0128992 9.9219927e-05   0.66144325 0.00074191459            0   0.66070133     1.481365    2.1428083    12.302929 
  760000   0.94237902 -1.7321519e-05   0.74046849 0.0035802377            0   0.73688825    1.3782293    2.1186978   0.34497427 
  765000   0.90678255 -2.9706034e-06   0.78437475 0.0074730478            0   0.77690171    1.3261695    2.1105442    1.8063544 
  770000    1.0440895 2.3134148e-05   0.57397237  0.020547511            0   0.55342486     1.526981    2.1009533    4.4698901 
  775000    1.1095788 3.8219659e-05   0.45644509  0.013743444            0   0.44270165    1.6227591    2.0792042    5.9928973 
  780000   0.94292063 1.7902277e-05   0.67654833  0.012644836            0    0.6639035    1.3790214    2.0555698    3.8887629 
  785000   0.79300251 -1.4408643e-05   0.90128466  0.025738525            0   0.87554614    1.1597662    2.0610508   0.58560577 
  790000    1.0101445 -2.6576066e-05   0.54596261  0.037369289            0   0.50859332    1.4773363     2.023299  -0.69809019 
  795000    1.0650181 -1.4419081e-05   0.47788065  0.017098139            0   0.46078251     1.557589    2.0354696   0.55895575 
  800000    0.9659792 -2.0535936e-05   0.66025706   0.00552194            0   0.65473512    1.4127446    2.0730016 -0.029878169 
  805000   0.96576368 1.6370372e-05   0.65542699 0.0065247535            0   0.64890223    1.4124294    2.0678564    3.7441825 
  810000    1.1561233 -3.2340076e-05      0.48709  0.001329402            0   0.48576059    1.6908303    2.1779203   -1.1337035 
  815000    1.0768727 3.7601036e-05   0.64810342            0            0   0.64810342    1.5749264    2.2230298    6.0733759 
  820000    1.0595726 9.2746151e-05   0.70148991   0.01325817            0   0.68823174    1.5496249    2.2511148    11.748321 
  825000    1.1100314 4.3944882e-06    0.6507524  0.040336296            0    0.6104161    1.6234209    2.2741733    2.7241689 
  830000    1.0347875 0.00010389366   0.72460996  0.042011818            0   0.68259814    1.5133768    2.2379867    12.876698 
  835000     1.016598 -0.00010597922   0.73909293  0.074364504            0   0.66472843    1.4867746    2.2258675   -8.6264042 
  840000    1.0899303 -3.9751442e-05   0.61221493  0.020591822            0   0.59162311    1.5940231     2.206238   -1.8643097 
  845000    1.1075221 4.650232e-05   0.59575063  0.040975623            0   0.55477501     1.619751    2.2155016    6.9773392 
  850000    1.1649365 -3.4983732e-05   0.54494518  0.049954184            0   0.49499099    1.7037197    2.2486649   -1.3336693 
  855000   0.99707594 2.8793385e-05   0.77275426  0.021675286            0   0.75107897    1.4582236    2.2309778    5.1794205 
  860000    1.0079757 -2.8336223e-05   0.70723084 0.0038471717            0   0.70338367    1.4741645    2.1813953  -0.72023385 
  865000    1.1995971 -1.959383e-05   0.45136556  0.002209613            0   0.44915595    1.7544108    2.2057764   0.19936823 
  870000     1.179384 6.3834539e-05   0.48162659 0.0011921872            0   0.48043441    1.7248491    2.2064757    8.7431326 
  875000    1.0414184 -3.9630592e-05   0.70303709 0.0011982905            0    0.7018388    1.5230744    2.2261115   -1.8320611 
  880000   0.99009493 -6.5899677e-07    0.7836364  0.012718566            0   0.77091783    1.4480138    2.2316502     2.164169 
  885000    1.0685018 3.6253881e-05   0.67074212  0.039849411            0   0.63089271    1.5626839     2.233426    5.9458234 
  890000    1.1680609 5.6256005e-05   0.52269998  0.039770803            0   0.48292918    1.7082891    2.2309891     7.991604 
  895000    1.0570444 -4.4590493e-05   0.68182911  0.021658285            0   0.66017083    1.5459274    2.2277565     -2.33831 
  900000    1.1032187 5.0083822e-05   0.60795171   0.02865023            0   0.57930148    1.6134574    2.2214091    7.3499925 
  905000    1.2325538 3.0248409e-05   0.38726098 0.0097888751            0    0.3774721      1.80261    2.1898709     5.287308 
  910000    1.1131323 -1.8089992e-05   0.58342194 0.0087272074            0   0.57469473    1.6279559    2.2113779   0.35896266 
  915000    1.1182423 7.5607193e-05   0.56686567 0.0087026611            0   0.55816301    1.6354294     2.202295    9.9444716 
  920000    1.0692342 2.6680487e-05   0.65321478  0.022981056            0   0.63023372     1.563755    2.2169698    4.9490517 
  925000    1.1787177 1.2142509e-05   0.52151573  0.023167739            0   0.49834799    1.7238746    2.2453904    3.4887832 
  930000    1.1168898 -6.1516605e-05   0.56931444  0.018237232            0   0.55107721    1.6334513    2.2027657   -4.0965346 
  935000    1.1453656 -1.5178701e-05   0.57463865  0.025123685            0   0.54951497    1.6750972    2.2497359   0.69543695 
  940000    1.0456171 -3.2990773e-06   0.65203165  0.021896341            0   0.63013531     1.529215    2.1812466    1.8434211 
  945000    1.1045007 -0.00010335277   0.63554927 0.0027548943            0   0.63279437    1.6153323    2.2508816   -8.3324417 
  950000     1.078983 -5.3529287e-05   0.62185024            0            0   0.62185024    1.5780126    2.1998629   -3.2815362 
  955000    1.1791338 -0.00012137367   0.50516326            0            0   0.50516326    1.7244831    2.2296464   -10.199018 
  960000    1.0046315 3.1177739e-05   0.70216859            0            0   0.70216859    1.4692735    2.1714421    5.3640426 
  965000    1.0251969 -6.3311086e-06   0.66598464 2.0483665e-05            0   0.66596416    1.4993504    2.1653351    1.5170295 
  970000    1.0371242 0.00010605854   0.68686242 0.0023464887            0   0.68451593    1.5167941    2.2036565    13.064051 
  975000   0.99992746 3.2764812e-06    0.7630988  0.029747833            0   0.73335097    1.4623939    2.2254927    2.5610044 
  980000    1.0606331 3.5807423e-05    0.6061829   0.03056701            0   0.57561589     1.551176    2.1573588     5.824039 
  985000    1.1788949 9.3150971e-05   0.44269088 0.0096464483            0   0.43304443    1.7241338    2.1668247    11.705484 
  990000    1.0314676 6.4594545e-05   0.65444966 0.0068897475            0   0.64755992    1.5085213     2.162971    8.7774524 
  995000    1.0271667 2.598557e-05   0.61731031  0.067686967            0   0.54962334    1.5022313    2.1195416    4.7804639 
 1000000    1.0343259 4.1120346e-05   0.61219221  0.030595744            0   0.58159647    1.5127017    2.1248939    6.3356173 
 1005000    1.0441662 3.4567581e-05   0.59425222  0.032101882            0   0.56215034    1.5270931    2.1213453    5.6610656 
 1010000    1.0048165 -2.8531814e-05   0.66732311  0.030630117            0   0.63669299    1.4695442    2.1368673  -0.78479045 
 1015000   0.94488553 4.888972e-05   0.71890942   0.01453226            0   0.70437716    1.3818951    2.1008045    7.1071119 
 1020000   0.98051354 0.00011476552   0.66901077  0.021692538            0   0.64731823     1.434001    2.1030118    13.855001 
 1025000    1.1600687 6.5656014e-05   0.39292341  0.019934403            0   0.37298901    1.6966004    2.0895238    8.8126996 
 1030000   0.98848414 1.0083344e-05   0.56890795 0.0086330316            0   0.56027492    1.4456581     2.014566    3.0471005 
 1035000   0.97317442 6.6487735e-06   0.61343129 0.0025975788            0   0.61083371    1.4232676    2.0366989    2.7175333 
 1040000   0.99409556 -1.5722854e-05   0.55588756 0.0011136906            0   0.55477387    1.4538648    2.0097523   0.39973203 
 1045000   0.92570951 -0.00013909928   0.61176105 0.0010573811            0   0.61070367    1.3538502    1.9656112   -12.278155 
 1050000    1.0074595 -1.0512511e-06   0.47468688   0.00120254            0   0.47348434    1.4734095    1.9480963    1.8404482 
 1055000    1.0336461 0.00010843498   0.42090002 0.00023286331            0   0.42066715    1.5117075    1.9326075    13.036349 
 1060000   0.87623659 -7.7044128e-06   0.63287328 0.0024931208            0   0.63038016     1.281496    1.9143693    1.1254374 
 1065000   0.98079877 -1.390567e-05   0.50194057  0.012169967            0   0.48977061    1.4344182    1.9363588   0.51241822 
 1070000   0.92468396 -5.0580366e-05   0.54595617  0.012681247            0   0.53327492    1.3523503    1.8983065    -3.281123 
 1075000   0.91237035 -7.0541085e-05   0.57110859  0.018537832            0   0.55257076    1.3343416    1.9054502   -5.3179568 
 1080000   0.85060252 2.614464e-05   0.63012536  0.021915927            0   0.60820943    1.2440062    1.8741316    4.5513427 
 1085000   0.94342707 7.1794037e-05   0.50507819   0.01122079            0   0.49385739    1.3797621    1.8848403    9.2365496 
 1090000   0.91193589 -4.1590911e-05   0.55166246 0.0030540763            0   0.54860839    1.3337062    1.8853687   -2.3735406 
 1095000    0.9054776 -0.00011234825   0.55501039            0            0   0.55501039     1.324261    1.8792714   -9.6251899 
 1100000     0.936073 -4.8114147e-05   0.52962641 0.0062152717            0   0.52341114    1.3690068    1.8986332   -3.0282555 
 1105000   0.79393165 -2.8150382e-05   0.68177616  0.045511053            0   0.63626511     1.161125    1.8429012   -1.0396979 
 1110000   0.92990846 -2.2183249e-05   0.48849617  0.048004819            0   0.44049135    1.3599911    1.8484873  -0.42307739 
 1115000   0.88029458 3.8579585e-05   0.54636189  0.030731282            0   0.51563061    1.2874308    1.8337927    5.7843422 
 1120000   0.93228714 5.2335386e-05   0.47640373  0.020169452            0   0.45623427    1.3634699    1.8398737    7.1990172 
 1125000   0.81368048 6.1076528e-05   0.67072016  0.026979298            0   0.64374086    1.1900077    1.8607279    8.1149643 
 1130000   0.87149592 6.2437037e-05   0.60581548   0.05866378            0    0.5471517    1.2745628    1.8803783    8.2739309 
 1135000    0.8476934 -2.4796625e-06   0.63543817  0.055013454            0   0.58042471    1.2397516    1.8751898    1.6212723 
 1140000    0.8626612 -8.5150632e-06   0.60638715  0.035703826            0   0.57068333     1.261642    1.8680292   0.99608669 
 1145000   0.86028378 2.5986798e-05   0.59241856  0.064438496            0   0.52798006     1.258165    1.8505836    4.5116317 
 1150000    0.8493544 5.1292646e-05   0.57854742 0.0027425489            0   0.57580487    1.2421808    1.8207282    7.0730952 
 1155000    1.0018459 1.3715409e-05   0.39044782 0.0065156609            0   0.38393216    1.4651997    1.8556475    3.2601054 
 1160000   0.89950882 -2.8876583e-05   0.53644498  0.013463111            0   0.52298187    1.3155317    1.8519766   -1.1049855 
 1165000   0.80428248 -2.4341985e-05   0.67368127 0.0084463168            0   0.66523495    1.1762631    1.8499444  -0.64267484 
 1170000   0.97546476 -6.2908749e-05   0.40606726 0.0020509662            0   0.40401629    1.4266172    1.8326845   -4.6091715 
 1175000   0.84241067 -8.1398871e-05   0.60028552 0.00089103901            0   0.59939448    1.2320256    1.8323111   -6.5029332 
 1180000   0.83915818 1.5157051e-05    0.5914882    0.0079592            0     0.583529    1.2272688     1.818757    3.3708391 
 1185000   0.87884942 1.2791425e-05   0.57498643  0.022946688            0   0.55203974    1.2853173    1.8603037    3.1701456 
 1190000    0.9026631 -5.490037e-05   0.55584183 0.0086061303            0    0.5472357    1.3201448    1.8759866   -3.7458113 
 1195000   0.95028186 -2.8182243e-05   0.47050134 0.00016236401            0   0.47033898    1.3897872    1.8602886   -1.0255731 
 1200000   0.80562879 1.3031008e-05   0.66419501 1.7470845e-05            0   0.66417754    1.1782321    1.8424271    3.1768024 
 1205000   0.94148361 4.3234673e-05   0.49079059 4.2575962e-06            0   0.49078633    1.3769198    1.8677104    6.2949409 
 1210000   0.92682331 -1.8816278e-05   0.50399629 5.3493635e-05            0   0.50394279    1.3554791    1.8594754 -0.067311533 
 1215000   0.82046922 -3.6958286e-05   0.62456485 9.1849519e-05            0     0.624473    1.1999362    1.8245011   -1.9600274 
 1220000   0.85215462 3.7555069e-05     0.584213  0.022307985            0   0.56190501    1.2462761    1.8304891    5.6761282 
 1225000   0.84767575 4.463951e-05   0.59527212  0.033554738            0   0.56171739    1.2397258    1.8349979    6.4060837 
 1230000   0.93541301 2.9409365e-05   0.49823153  0.022384931            0    0.4758466    1.3680415    1.8662731     4.877792 
 1235000   0.86483539 8.0691999e-06   0.63506099  0.012696335            0   0.62236465    1.2648218    1.8998828    2.7261688 
 1240000   0.98977201 -3.279869e-05   0.52252661 0.0022935203            0   0.52023309    1.4475416    1.9700682   -1.3885177 
 1245000   0.92858699 -4.9851778e-05    0.6178651            0            0    0.6178651    1.3580585    1.9759236   -3.1288985 
 1250000   0.90454634 -2.1704853e-05   0.62903752 0.00037592953            0   0.62866159     1.322899    1.9519365  -0.27064039 
 1255000     1.027556 7.0578656e-05   0.42395083 0.0048217474            0   0.41912908    1.5028007    1.9267515    9.1540059 
 1260000   0.75993812 6.9005575e-05   0.83416964  0.019424517            0   0.81474512    1.1114095    1.9455791      9.01175 
 1265000   0.88964748 6.1741139e-05    0.6473794  0.064044124            0   0.58333528    1.3011094    1.9484888    8.2707815 
 1270000   0.93958175 6.8338664e-05   0.57620582  0.023475847            0   0.55272997    1.3741383    1.9503441    8.9482233 
 1275000   0.90924134 -3.8173788e-05   0.60618269  0.012433784            0   0.59374891    1.3297655    1.9359482   -1.9730478 
 1280000    1.0575574 1.1872125e-05   0.43372802  0.012754883            0   0.42097313    1.5466777    1.9804057    3.1961113 
 1285000    1.0153045 1.446855e-05   0.46847756  0.030000599            0   0.43847696    1.4848829    1.9533605      3.43494 
 1290000   0.89656533 -0.0001030466    0.6383082  0.056160877            0   0.58214732    1.3112268     1.949535   -8.6024365 
 1295000    0.8621859 -0.00012692796   0.67134738  0.060155005            0   0.61119238    1.2609469    1.9322943   -11.065129 
 1300000   0.88623415 -3.4090157e-05   0.67485909  0.028127117            0   0.64673198    1.2961174    1.9709765   -1.5198556 
 1305000    1.0178828 2.0878174e-05   0.46717717  0.014790219            0   0.45238695    1.4886536    1.9558308    4.0937557 
 1310000   0.88311542 0.00012913831   0.65179857  0.016814891            0   0.63498368    1.2915563    1.9433549    15.167118 
 1315000   0.85291333 0.00021283075   0.67461027  0.026943851            0   0.64766642    1.2473857     1.921996    23.715864 
 1320000   0.98504547 0.00013393507     0.513526 0.0084472292            0   0.50507877     1.440629     1.954155    15.669106 
 1325000   0.97116822 -8.6926938e-06   0.53265067 0.00043132336            0   0.53221935    1.4203335    1.9529842    1.0628523 
 1330000    0.8454815 -0.00011208377   0.70860267 0.0028240532            0   0.70577862    1.2365167    1.9451194   -9.5322586 
 1335000   0.99766414 -6.0273237e-05   0.51907098 0.0070314324            0   0.51203955    1.4590838    1.9781548   -4.1938247 
 1340000   0.95840613 -2.4932672e-05    0.5490073 0.0067554206            0   0.54225188     1.401669    1.9506763  -0.60242932 
 1345000   0.84087808 -3.8508072e-05   0.68857412 0.0060626597            0   0.68251146    1.2297842    1.9183583   -2.0248683 
 1350000   0.95455576 -8.6150442e-06   0.52066554  0.016477286            0   0.50418826    1.3960378    1.9167033    1.0345228 
 1355000    1.0078527 5.2974178e-05    0.4525908  0.031516318            0   0.42107448    1.4739846    1.9265754    7.3511312 
 1360000   0.82937055 -7.1817737e-05   0.68410736  0.042790649            0   0.64131671    1.2129544    1.8970618   -5.4570745 
 1365000   0.85658818 -0.00013803127   0.66922433  0.037358976            0   0.63186535    1.2527602    1.9219845   -12.212418 
 1370000   0.97454798 -1.9587537e-05    0.4887712  0.011246185            0   0.47752501    1.4252764    1.9140476 -0.091716175 
 1375000   0.87404861 3.2332794e-05   0.60321437 0.0038054622            0   0.59940891    1.2782961    1.8815105    5.1923886 
 1380000   0.92682902 -4.7660138e-05   0.57013542  0.016279272            0   0.55385615    1.3554874    1.9256229   -2.9547753 
 1385000   0.79239153 -0.00015973966   0.79622113    0.0385169            0   0.75770423    1.1588726    1.9550937   -14.402247 
 1390000   0.96208319 -4.0289838e-05   0.55746848  0.012474586            0    0.5449939    1.4070467    1.9645151   -2.1611643 
 1395000    0.9244389 6.6335885e-05   0.57816433            0            0   0.57816433    1.3519919    1.9301562    8.7229508 
 1400000   0.98464894 -2.8316508e-05   0.48706982 8.9383238e-05            0   0.48698043    1.4400491    1.9271189  -0.97249155 
 1405000    0.8803947 -1.9378882e-05   0.59184105 0.00070900487            0   0.59113205    1.2875773    1.8794183  -0.10497922 
 1410000   0.85755945 6.1977205e-05   0.66990313 0.0012993534            0   0.66860378    1.2541807    1.9240838    8.2705496 
 1415000   0.95815535 -9.3876106e-05   0.54471086 0.0036836426            0   0.54102721    1.4013022    1.9460131   -7.6669002 
 1420000    0.9425906 -0.00013862174   0.58459579  0.018764424            0   0.56583136    1.3785387    1.9631345   -12.231732 
 1425000   0.90140766 5.3689178e-05   0.62411343  0.073248869            0   0.55086456    1.3183087    1.9424221     7.440194 
 1430000   0.87777376 6.5153697e-05   0.62051784   0.12406484            0     0.496453    1.2837441     1.904262    8.5760005 
 1435000   0.94754316 -1.7102195e-05   0.53717459  0.042970674            0   0.49420392    1.3857819    1.9229565   0.17169172 
 1440000   0.95984481 1.516517e-06   0.52438482  0.011496093            0   0.51288873     1.403773    1.9281579    2.0834492 
 1445000   0.96053081 4.2126799e-07   0.50882105  0.037815796            0   0.47100525    1.4047763    1.9135974    1.9567352 
 1450000    1.0078905 6.2205852e-06   0.47102521  0.023564559            0   0.44746065    1.4740398    1.9450651     2.582053 
 1455000    1.0100339 6.4363456e-05   0.45584291  0.015105054            0   0.44073786    1.4771745    1.9330174    8.5238353 
 1460000   0.97426547 9.7977882e-05   0.46725625 0.0082289541            0    0.4590273    1.4248632    1.8921195    11.925055 
 1465000   0.95124869 3.0264619e-05   0.49128347 0.0063980523            0   0.48488542    1.3912012    1.8824847    4.9815817 
 1470000    0.9209908 1.4026451e-05   0.59224797 0.0028019419            0   0.58944603     1.346949     1.939197    3.3755056 
 1475000   0.88835288 6.4628464e-05   0.62987224 0.00011100751            0   0.62976124    1.2992161    1.9290883     8.547043 
 1480000   0.93273859 -6.6509504e-05   0.55691482 0.00024530363            0   0.55666952    1.3641302     1.921045   -4.8895282 
 1485000    1.0648898 -1.6450402e-05   0.34630452   0.00255532            0    0.3437492    1.5574013    1.9037058   0.21918466 
 1490000   0.91499485 0.00012163112   0.56619557 0.0074724918            0   0.55872308      1.33818    1.9043755    14.359402 
 1495000   0.89552719 5.656816e-06   0.58761197 0.0057803743            0    0.5818316    1.3097085    1.8973205    2.4765784 
 1500000   0.94311385 -9.6542278e-05   0.48009416 0.0090080881            0   0.47108607     1.379304    1.8593982   -8.0265311 
 1505000   0.95586217 -6.4749778e-05   0.41608876 0.0099964227            0   0.40609233    1.3979484    1.8140372   -4.8163401 
 1510000   0.81763594 -2.0857048e-06   0.61119727  0.010676663            0    0.6005206    1.1957926    1.8069898    1.5934137 
 1515000   0.77366837 6.5604394e-05   0.65333597 0.0059750776            0   0.64736089      1.13149     1.784826    8.5027159 
 1520000   0.94031518 2.7327296e-05   0.39644725 0.0015958092            0   0.39485144    1.3752109    1.7716582    4.5699733 
 1525000   0.94120255 -4.9212638e-05   0.41450108            0            0   0.41450108    1.3765087    1.7910098   -3.2483643 
 1530000   0.85064915 -3.8605227e-05   0.49833551  0.001828117            0    0.4965074    1.2440744    1.7424099   -2.2107653 
 1535000   0.85681048 4.6455713e-05   0.49432431  0.027118912            0    0.4672054    1.2530853    1.7474096    6.5044747 
 1540000   0.79313257 5.4432269e-05   0.60340839  0.030231411            0   0.57317698    1.1599564    1.7633648    7.3372291 
 1545000   0.86751867 9.7093962e-05   0.54218139  0.015190794            0    0.5269906    1.2687461    1.8109274    11.753349 
 1550000   0.74256665 5.7891354e-05   0.72816037  0.021174375            0     0.706986    1.0860037    1.8141641    7.7422387 
 1555000   0.85630439 -4.9725093e-05   0.55880107  0.026724206            0   0.53207687    1.2523452    1.8111462   -3.2807033 
 1560000   0.86965348 1.7686629e-05   0.54059727  0.030941105            0   0.50965617    1.2718682    1.8124655    3.6235763 
 1565000   0.84002232 -7.3089035e-05   0.61221859 0.0050685563            0   0.60715003    1.2285326    1.8407512   -5.6435659 
 1570000   0.86113405 -8.1183315e-05    0.5899185 0.0023595216            0   0.58755898    1.2594086    1.8493271   -6.4638444 
 1575000   0.95363846 8.4120144e-05   0.45081973  0.016333904            0   0.43448582    1.3946962     1.845516    10.459419 
 1580000   0.84588392 2.2330699e-05   0.65933834  0.050709208            0   0.60862913    1.2371052    1.8964436    4.1831071 
 1585000    0.9101447  5.54203e-05   0.55075547  0.033926071            0    0.5168294    1.3310866    1.8818421    7.5568808 
 1590000   0.95330998 2.7828607e-05   0.51957198 0.0063809737            0     0.513191    1.3942158    1.9137878    4.7634372 
 1595000   0.87842342 -6.956955e-05   0.61224699  0.014035667            0   0.59821133    1.2846943    1.8969412   -5.2269806 
 1600000   0.98730074 4.0176143e-05   0.49365399  0.016226651            0   0.47742734    1.4439273    1.9375813    6.0516184 
 1605000    1.0040113 -4.1029907e-06    0.4760897  0.001811871            0   0.47427783    1.4683665    1.9444562    1.5243099 
 1610000   0.84880649 -3.8313931e-05   0.71830825 0.00037603522            0   0.71793221    1.2413795    1.9596877   -1.9636588 
 1615000   0.94329292 -5.0486162e-05   0.61506877            0            0   0.61506877    1.3795659    1.9946347   -3.1751484 
 1620000   0.92232412 0.00010014936   0.63011905            0            0   0.63011905     1.348899    1.9790181    12.234312 
 1625000    1.0197179 -1.1639791e-06   0.47543326 0.00033122421            0   0.47510203    1.4913374    1.9667707    1.8475792 
 1630000   0.87475476 5.3065045e-05    0.6875867  0.014057774            0   0.67352893    1.2793288    1.9669155    7.4007762 
 1635000    0.9354152 -3.1463173e-05   0.61243433  0.033048972            0   0.57938536    1.3680447    1.9804791   -1.2413498 
 1640000     1.048744 -4.0057113e-05   0.44085505 0.0052638487            0   0.43559121    1.5337881    1.9746432   -2.1272051 
 1645000   0.93836932 -1.09414e-05   0.62030633            0            0   0.62030633    1.3723651    1.9926715   0.87227213 
 1650000   0.91304398 -0.0001037805   0.64611498            0            0   0.64611498    1.3353268    1.9814418   -8.6456809 
 1655000   0.96209178 1.7128412e-05   0.55418018            0            0   0.55418018    1.4070592    1.9612394    3.7151888 
 1660000    0.9373328 7.4987148e-05   0.59538593            0            0   0.59538593    1.3708492    1.9662351    9.6449191 
 1665000   0.94572699 -2.8540921e-05   0.56731984            0            0   0.56731984    1.3831257    1.9504456   -0.9721447 
 1670000   0.98443238 5.0834421e-05   0.51815541            0            0   0.51815541    1.4397324    1.9578878    7.1633325 
 1675000   0.94480187 0.00010885637   0.56615164            0            0   0.56615164    1.3817727    1.9479244    13.094817 
 1680000   0.95309105 -5.7024986e-05   0.58824644 0.00018856366            0   0.58805788    1.3938957    1.9821421   -3.8572165 
 1685000   0.98653105 -0.00014025505   0.50585621  0.011171768            0   0.49468444    1.4428017    1.9486579   -12.413459 
 1690000   0.86917508 9.212793e-06   0.63752014  0.021060872            0   0.61645927    1.2711686    1.9086887    2.8520787 
 1695000   0.90914358 7.9042885e-05   0.57367046  0.011135861            0    0.5625346    1.3296225    1.9032929    9.9972844 
 1700000   0.91716457 6.1951142e-05   0.57463434  0.033049933            0    0.5415844    1.3413532    1.9159875    8.2597844 
 1705000   0.91138525 2.1263403e-05   0.60285655  0.043922679            0   0.55893387    1.3329009    1.9357575      4.11313 
 1710000    0.9371411 -9.035021e-05   0.59591425   0.01020838            0   0.58570587    1.3705689    1.9664831   -7.2853784 
 1715000      1.03628 -1.80899e-05    0.4525262 0.0014779272            0   0.45104827    1.5155595    1.9680857   0.11567988 
 1720000   0.93295401 9.2773967e-05   0.63131849  0.009188731            0   0.62212976    1.3644452    1.9957637    11.495818 
 1725000   0.82125924 -3.3996764e-05    0.7354884  0.090208988            0   0.64527941    1.2010916      1.93658   -1.5446886 
 1730000    1.0390037 -3.9219875e-05   0.39255026  0.016348891            0   0.37620137    1.5195429    1.9120931   -2.1040221 
 1735000   0.89424951 4.2891867e-05   0.59482586 0.00035201732            0   0.59447385    1.3078399    1.9026658     6.294793 
 1740000   0.91729985 -1.3065226e-05    0.6048732 0.0030176472            0   0.60185555     1.341551    1.9464242   0.60854511 
 1745000   0.96582688 -3.7114121e-05   0.58316662  0.026880482            0   0.55628614    1.4125218    1.9956884   -1.8047975 
 1750000   0.98465283 -1.0791673e-05   0.58561413  0.036227708            0   0.54938642    1.4400548    2.0256689   0.92060156 
 1755000   0.98774557 4.2032425e-05   0.59650849  0.053025129            0   0.54348336    1.4445779    2.0410864    6.3452067 
 1760000    1.0520002 8.3082596e-05   0.45099289  0.042998543            0   0.40799435    1.5385502    1.9895431    10.497201 
 1765000   0.87517399 9.8958289e-05   0.67519071   0.06004858            0   0.61514213     1.279942    1.9551327    12.088462 
 1770000   0.92359441 6.6844127e-05   0.64254965   0.04180441            0   0.60074524    1.3507568    1.9933065    8.8381451 
 1775000     1.115154 -1.4296157e-05   0.39869257  0.013052075            0    0.3856405    1.6309127    2.0296052   0.56567879 
 1780000   0.96917816 -5.4708267e-05   0.62000209 0.0049606306            0   0.61504145    1.4174231    2.0374251   -3.5647014 
 1785000   0.89393406 -5.3297925e-05   0.73303783 0.0086106227            0   0.72442721    1.3073786    2.0404164   -3.4172911 
 1790000    1.0787546 6.3205126e-06   0.46473478 0.0034307917            0   0.46130399    1.5776786    2.0424134    2.6896339 
 1795000   0.97739599 0.00012584978   0.55708515 0.0003752505            0    0.5567099    1.4294416    1.9865268    14.873545 
 1800000   0.99407802 1.5463716e-05   0.56884412 0.00033764463            0   0.56850648    1.4538391    2.0226832    3.6061677 
 1805000    1.0546528 -9.8256719e-05   0.48529449 0.0052541223            0   0.48004037    1.5424297    2.0277242   -8.0337638 
 1810000   0.99482148 -8.6996524e-05   0.59790536  0.013305619            0   0.58459974    1.4549264    2.0528318   -6.8556123 
 1815000   0.95643519 -6.9954106e-05   0.62849329   0.01412745            0   0.61436584    1.3987865    2.0272797   -5.1360207 
 1820000   0.98045066 6.5820694e-05   0.54221286  0.021390364            0    0.5208225    1.4339091     1.976122    8.7161611 
 1825000   0.92229756 8.6541308e-05   0.64114113  0.084373509            0   0.55676762    1.3488602    1.9900013    10.851831 
 1830000    1.0449895 -3.8703013e-05   0.44356169  0.065607663            0   0.37795402    1.5282971    1.9718588   -1.9913297 
 1835000   0.93253229 -5.7787052e-05   0.63314818  0.010981418            0   0.62216676    1.3638285    1.9969767   -3.9204175 
 1840000    1.1500662  1.06447e-06   0.31201266 0.0042033169            0   0.30780935    1.6819718    1.9939844    2.1029862 
 1845000    0.9633232 -1.1884588e-05   0.58239921 0.00038237552            0   0.58201683    1.4088602    1.9912594   0.77427756 
 1850000   0.98753637 -4.6354576e-06   0.53646259            0            0   0.53646259    1.4442719    1.9807345    1.5060637 
 1855000   0.97908694 -1.969932e-05   0.53578837            0            0   0.53578837    1.4319147     1.967703 -0.049507315 
 1860000   0.93525864 -9.7297271e-06    0.5491846            0            0    0.5491846    1.3678158    1.9170004    0.9206763 
 1865000   0.94451885 -1.1634117e-05   0.54583714            0            0   0.54583714    1.3813588     1.927196    0.7358624 
 1870000   0.95464004 -0.00010894877    0.5425289 0.0081510418            0   0.53437785    1.3961611      1.93869   -9.2176641 
 1875000    1.0067752 -2.8570346e-05   0.48558432  0.077304134            0   0.40828019    1.4724087     1.957993  -0.96761041 
 1880000    1.0062349 -1.8447666e-05   0.52838173  0.014338169            0   0.51404356    1.4716185    2.0000003   0.11095922 
 1885000    1.0719173 -1.5035297e-05   0.46645951            0            0   0.46645951     1.567679    2.0341385   0.49452412 
 1890000    1.0558187 -1.5732057e-05   0.48768303  0.013559297            0   0.47412373    1.5441348    2.0318178   0.42085518 
 1895000   0.98112766 -0.00012211698   0.55806265  0.073756883            0   0.48430576    1.4348992    1.9929619   -10.511817 
 1900000    1.0284259 -3.2241642e-05   0.47207391  0.030963215            0    0.4411107    1.5040728    1.9761468   -1.3253974 
 1905000    1.1021322 4.4483714e-06   0.36466484 0.0088580979            0   0.35580675    1.6118683    1.9765332    2.4320464 
 1910000    1.0553918 3.0338915e-06   0.42270503  0.041711612            0   0.38099342    1.5435106    1.9662156    2.2768861 
 1915000   0.96127648 9.1243868e-06   0.51086285  0.014312526            0   0.49655032    1.4058669    1.9167297    2.8510669 
 1920000   0.99426914 -1.6069443e-05    0.4889109 0.0030456683            0   0.48586523    1.4541186    1.9430295   0.29751858 
 1925000    1.0154264 8.6109661e-05   0.44433163 0.0033185474            0   0.44101308    1.4850611    1.9293927    10.747022 
 1930000    1.0568235 -8.4818003e-06   0.38217952 0.0018617206            0    0.3803178    1.5456044     1.927784    1.0592476 
 1935000   0.98371044 -0.00010984139    0.5176583 0.0046750832            0   0.51298322    1.4386765    1.9563348    -9.291424 
 1940000   0.94610231 -8.2255381e-05   0.53021194  0.023004011            0   0.50720793    1.3836746    1.9138866   -6.5090645 
 1945000   0.99544207 -2.14737e-05   0.43952859  0.030283628            0   0.40924496     1.455834    1.8953626  -0.30354427 
 1950000   0.96956621 -1.2835302e-05   0.48809253  0.015797827            0   0.47229471    1.4179906    1.9060831   0.59174822 
 1955000   0.91789913 -3.7907127e-05   0.55325231   0.07505381            0    0.4781985    1.3424275    1.8956798     -1.98601 
 1960000   0.87446474 -7.9882675e-05    0.6302113  0.020644671            0   0.60956663    1.2789047     1.909116   -6.2708699 
 1965000    1.0826675 -7.3153469e-05    0.3112723  0.014709179            0   0.29656312    1.5834012    1.8946735   -5.5962418 
 1970000   0.97016132 -2.8246567e-05   0.48634034  0.039659083            0   0.44668126    1.4188609    1.9052013  -0.98724714 
 1975000   0.97567667 -3.3046586e-05   0.46388674  0.031931842            0    0.4319549    1.4269271    1.8908139   -1.4931566 
 1980000   0.96136548 -6.6630031e-06   0.44822261  0.010796995            0   0.43742561     1.405997    1.8542196    1.1719281 
 1985000   0.98222638 2.1987193e-05   0.43354803  0.018620035            0     0.414928    1.4365061    1.8700541    4.1215427 
 1990000   0.88711705 3.2443429e-05   0.57292549  0.072744624            0   0.50018087    1.2974087    1.8703342    5.1925413 
 1995000   0.90407309 4.3228548e-05   0.51616339  0.060919151            0   0.45524424    1.3222069    1.8383703    6.2649736 
 2000000    0.9385292 1.9157719e-06   0.46355757  0.032154398            0   0.43140317     1.372599    1.8361565    2.0323316 
 2005000   0.98935654 -3.1322626e-05   0.36578346  0.019817007            0   0.34596646    1.4469339    1.8127174   -1.3947195 
 2010000   0.97237334 -3.8919236e-05   0.37703818  0.032031461            0   0.34500672     1.422096    1.7991342   -2.1861956 
 2015000   0.93716906 -8.5315921e-05   0.47964415  0.051092416            0   0.42855173    1.3706097    1.8502539   -6.8860965 
 2020000    1.0052501 -0.00012530869   0.41788336  0.025749225            0   0.39213413    1.4701783    1.8880616   -10.943548 
 2025000   0.96965243 -6.5542695e-05   0.47584316 0.0036736891            0   0.47216947    1.4181167    1.8939598   -4.8176121 
 2030000    1.0276787 1.9620949e-05   0.36210865  0.019669372            0   0.34243927    1.5029801    1.8650887    3.8742739 
 2035000   0.90315203 2.8370155e-05   0.48601151  0.031369885            0   0.45464163    1.3208599    1.8068714    4.7119752 
 2040000   0.94980295 7.1126856e-06    0.4739593  0.044792172            0   0.42916713    1.3890868    1.8630461    2.5913851 
 2045000   0.94827777 -2.3805512e-05   0.52416577 0.0059159378            0   0.51824983    1.3868562     1.911022   -0.5266624 
 2050000    1.0008964 -7.7156843e-05   0.37403432            0            0   0.37403432     1.463811    1.8378453   -6.0630154 
 2055000   0.93792687 1.1551655e-05   0.46001903            0            0   0.46001903     1.371718    1.8317371    3.0146266 
 2060000     1.014807 0.00012062541    0.3583887            0            0    0.3583887    1.4841553     1.842544    14.194586 
 2065000   0.93476425 8.6844265e-05   0.44047691            0            0   0.44047691    1.3670927    1.8075696    10.700422 
 2070000    1.0086864 1.0919879e-05   0.33732342  0.013780012            0   0.32354341    1.4752039    1.8125273     2.930723 
 2075000   0.77777256 -3.1836943e-05   0.67862944  0.086994698            0   0.59163474    1.1374924    1.8161218   -1.4439812 
 2080000   0.91218244 -5.9262568e-05   0.47923478  0.027266844            0   0.45196793    1.3340668    1.8133016   -4.2551854 
 2085000   0.97776527 6.0525591e-06   0.37558677 0.0028475846            0   0.37273919    1.4299817    1.8055685    2.4253505 
 2090000   0.93819375 -9.5397796e-05   0.39188908 0.0030880292            0   0.38880106    1.3721084    1.7639974   -8.0047368 
 2095000   0.89228721 -0.00011792851   0.46773372 0.0025562586            0   0.46517747      1.30497    1.7727038   -10.303176 
 2100000   0.85912405 -0.0001306481   0.52294601 0.00012770959            0    0.5228183    1.2564689    1.7794149   -11.598951 
 2105000    1.0073207 -6.5541699e-05   0.32315171            0            0   0.32315171    1.4732065    1.7963582   -4.9151117 
 2110000    1.0439056 6.4829475e-06   0.32919117 0.0019293642            0   0.32726181    1.5267119    1.8559031    2.5197569 
 2115000   0.99395149 1.9696947e-05   0.37006922  0.010885451            0   0.35918377    1.4536541    1.8237233    3.8406906 
 2120000   0.95772881 -1.3021739e-05   0.44985856 0.0095966969            0   0.44026186    1.4006784    1.8505369   0.51711089 
 2125000   0.94860194 4.5104151e-05   0.45479485 0.0010293044            0   0.45376554    1.3873303    1.8421252    6.4607903 
 2130000   0.95700451 3.8971281e-07   0.44239329            0            0   0.44239329    1.3996191    1.8420124     1.881919 
 2135000   0.96475434 4.496395e-05   0.41015277  0.016210534            0   0.39394224    1.4109532     1.821106    6.4254145 
 2140000   0.91665625 -2.6736156e-05   0.46374525  0.046725906            0   0.41701934    1.3406098     1.804355  -0.93342734 
 2145000   0.97266382 -8.244336e-05   0.40148514  0.052550526            0   0.34893461    1.4225208     1.824006   -6.6181941 
 2150000    1.0465646 -7.3978172e-06   0.35250239 0.0043617957            0   0.34814059    1.5306008    1.8831031    1.1255667 
 2155000    1.0819153 2.9736269e-05   0.29614018            0            0   0.29614018    1.5823011    1.8784413    4.9234352 
 2160000    1.0321984 2.8917927e-05    0.3927574 0.00033781766            0   0.39241958    1.5095902    1.9023476    4.8635433 
 2165000    1.0039268 7.1974746e-05   0.43255586  0.033822519            0   0.39873335     1.468243    1.9007988    9.2710128 
 2170000   0.93506781 1.914003e-05   0.51053871  0.033711516            0   0.47682719    1.3675367    1.8780754    3.8380144 
 2175000    1.0079884 -5.4472132e-05   0.43770109 0.0013156776            0   0.43638542     1.474183    1.9118841   -3.6660622 
 2180000    1.1200956 1.7744365e-05   0.29112751 0.00019384505            0   0.29093367    1.6381398    1.9292673    3.7462903 
 2185000    1.0004143 2.5545785e-05   0.48484319  0.009610204            0   0.47523298    1.4631059    1.9479491    4.5638375 
 2190000    1.0182995 -3.6914823e-05   0.44264259  0.031554702            0   0.41108789     1.489263    1.9319056   -1.8481722 
 2195000   0.95168968 -3.9202259e-05    0.5330795  0.054944936            0   0.47813456    1.3918462    1.9249257   -2.0893856 
 2200000    1.0304653 1.7991412e-05   0.41392214  0.010713929            0   0.40320821    1.5070556    1.9209777    3.7632983 
 2205000     1.014086 2.4945735e-05   0.39395573 0.0085433342            0    0.3854124    1.4831008    1.8770566    4.4314999 
 2210000   0.97604104 -1.6623815e-05   0.43616077  0.015303743            0   0.42085703      1.42746    1.8636208   0.16134214 
 2215000   0.98047409 -5.6218883e-05   0.39968291  0.031414339            0   0.36826857    1.4339434    1.8336263   -3.9231874 
 2220000   0.92921895 -7.5287928e-05   0.48393438   0.01102452            0   0.47290986    1.3589827    1.8429171   -5.8665667 
 2225000    1.1108857 -1.624128e-05   0.25875043  0.017106588            0   0.24164384    1.6246704    1.8834208   0.22031378 
 2230000   0.94322775 5.9248895e-05   0.51529747  0.019992433            0   0.49530504    1.3794706    1.8947681    7.9618549 
 2235000   0.97355951 2.7901086e-05   0.44157156  0.013141114            0   0.42843044    1.4238308    1.8654023    4.7224735 
 2240000    0.8939421 -2.4045849e-06   0.54870405 0.0071056337            0   0.54159841    1.3073903    1.8560944    1.6098649 
 2245000   0.94322749 5.9952467e-05   0.47279739 0.0018478714            0   0.47094952    1.3794702    1.8522676    7.9914003 
 2250000   0.91293074 2.4488322e-05   0.49261585   0.00317986            0   0.48943599    1.3351612    1.8277771    4.3353813 
 2255000   0.94533275 -3.3126563e-05   0.41496537  0.041913535            0   0.37305184    1.3825492    1.7975145   -1.5946455 
 2260000   0.86695208 2.9825708e-05   0.50538921  0.050621077            0   0.45476813    1.2679174    1.7733066    4.8274591 
 2265000   0.85213282 -3.463537e-05   0.48854971 0.0094316505            0   0.47911806    1.2462442     1.734794   -1.8118679 
 2270000   0.92338498 3.3619078e-05   0.44021124 0.0036726941            0   0.43653854    1.3504505    1.7906618    5.2332554 
 2275000   0.89413597 5.6353489e-05   0.50899704 0.0048597396            0    0.5041373    1.3076739    1.8166709    7.5872682 
 2280000   0.90489317 -9.3911464e-05   0.49532471 0.0094307109            0     0.485894    1.3234063     1.818731   -7.7978029 
 2285000   0.97990278 -6.6283639e-05   0.37807475  0.014494634            0   0.36358012    1.4331078    1.8111826   -4.9762621 
 2290000   0.90339947 4.3599369e-05   0.48095198 0.0042600392            0   0.47669194    1.3212217    1.8021737     6.266749 
 2295000   0.91254461 -4.246925e-05   0.45050136            0            0   0.45050136    1.3345965    1.7850978   -2.5637534 
 2300000   0.92968367 -3.0902194e-05    0.3924504 8.0660842e-05            0   0.39236974    1.3596624    1.7521128   -1.4122719 
 2305000   0.86776175 5.8014987e-05   0.44078711  0.017685954            0   0.42310115    1.2691016    1.7098887    7.6506233 
 2310000   0.82305205 -4.9540014e-06   0.50122433  0.038214511            0   0.46300982    1.2037136    1.7049379    1.1976482 
 2315000    0.9447344 -3.2419077e-06    0.3263925  0.049935446            0   0.27645706    1.3816741    1.7080666    1.3760952 
 2320000   0.88381736 5.8170643e-05   0.41273505  0.055964068            0   0.35677098    1.2925829    1.7053179    7.6619917 
 2325000   0.82524382 -7.3224647e-05   0.48974362   0.04893872            0    0.4408049    1.2069191    1.6966627   -5.8015411 
 2330000   0.89121313 -3.8823268e-05   0.36731898  0.028108394            0   0.33921058    1.3033992    1.6707182   -2.3047845 
 2335000   0.90994112 1.6293194e-05   0.31751203 0.00063792409            0   0.31687411    1.3307889    1.6483009     3.316724 
 2340000   0.93077675 3.5909226e-05   0.29964417 0.0053191627            0     0.294325     1.361261    1.6609052    5.3380099 
 2345000   0.91132315 -3.9200396e-07    0.3245357  0.028860553            0   0.29567514    1.3328101    1.6573458    1.6172046 
 2350000   0.85680006 -4.8592143e-05   0.41002381  0.015918582            0   0.39410523    1.2530701    1.6630939   -3.3127416 
 2355000   0.89549988 -3.6642183e-05   0.39946922 0.0027762922            0   0.39669293    1.3096686    1.7091378   -2.0430218 
 2360000   0.92506456 -5.2495657e-05   0.39283244 0.00034591041            0   0.39248653    1.3529069    1.7457394   -3.6298159 
 2365000   0.89731114 -5.5806438e-05   0.44333779  0.019408716            0   0.42392907    1.3123175    1.7556553   -3.9589239 
 2370000   0.87174723 2.9210812e-05   0.49844342  0.058687481            0   0.43975594    1.2749303    1.7733737    4.7645609 
 2375000   0.83742693 4.5059533e-05   0.57351426  0.067769497            0   0.50574476    1.2247369    1.7982511    6.4123474 
 2380000    0.8950131 -4.1472147e-05   0.48962257   0.05200899            0   0.43761358    1.3089567    1.7985792   -2.4481686 
 2385000   0.84268025 -6.2904917e-05   0.53829111  0.036695643            0   0.50159546    1.2324199     1.770711   -4.6707526 
 2390000   0.88888457 3.1379352e-05   0.42371313  0.028625613            0   0.39508752    1.2999937    1.7237068    4.9369525 
 2395000   0.81064431 7.0659661e-05      0.53752   0.01067309            0   0.52684691    1.1855673    1.7230873    8.9586365 
 2400000   0.85472197 1.0766373e-05    0.4723243  0.011360384            0   0.46096391    1.2500309    1.7223552    2.8248318 
 2405000   0.76243075 -4.342795e-05   0.56243954  0.018782606            0   0.54365693     1.115055    1.6774945   -2.7695276 
 2410000   0.90085058 -2.6783993e-05   0.34365135 0.0042653339            0   0.33938601     1.317494    1.6611453   -1.0815355 
 2415000   0.84178173 1.2498055e-05   0.41228065   0.01358572            0   0.39869493    1.2311058    1.6433864    2.9231873 
 2420000    0.7531349 3.7575576e-05    0.5214432  0.027584256            0   0.49385895    1.1014598     1.622903    5.4706419 
 2425000   0.87677985 -4.4864233e-06   0.36968594 0.0062705204            0   0.36341542    1.2822905    1.6519765    1.1925667 
 2430000   0.89816553 -5.0624686e-05   0.35693132            0            0   0.35693132    1.3135671    1.6704984   -3.5134695 
 2435000   0.85710854 -1.4499971e-05   0.45804817 7.1028707e-06            0   0.45804107    1.2535212    1.7115694   0.22677234 
 2440000   0.88379146 2.7027222e-05   0.43338827 0.00092534182            0   0.43246293     1.292545    1.7259333    4.4935208 
 2445000   0.84321405 2.5079565e-05   0.48926902  0.038050373            0   0.45121865    1.2332005    1.7224696     4.290617 
 2450000   0.90055392 5.8302578e-06   0.39394141  0.018900802            0    0.3750406    1.3170601    1.7110015    2.3080199 
 2455000   0.91452451 -4.0525687e-05   0.37293487 9.9679006e-06            0    0.3729249    1.3374921     1.710427   -2.4394034 
 2460000   0.79612895 -3.070991e-05   0.52450544            0            0   0.52450544    1.1643386     1.688844   -1.4558507 
 2465000   0.91619388 -4.4912253e-07   0.35362492            0            0   0.35362492    1.3399336    1.6935585    1.6475683 
 2470000   0.88913863 -2.8277856e-05   0.37717729 6.7479791e-06            0   0.37717055    1.3003652    1.6775425   -1.2181099 
 2475000   0.78914975 1.7674497e-05   0.54587553 0.0096677642            0   0.53620777    1.1541315     1.700007    3.5098755 
 2480000   0.77764483 8.7268064e-05   0.56595245  0.028110917            0   0.53784153    1.1373056     1.703258    10.639508 
 2485000   0.84423306 2.5781558e-05   0.47036289 0.0076788173            0   0.46268407    1.2346909    1.7050537    4.3450853 
 2490000   0.86958085 -9.2301026e-06    0.4181047  0.021139614            0   0.39696508     1.271762    1.6898667   0.74470419 
 2495000   0.79507332 4.4149457e-06   0.53813155  0.017669751            0   0.52046179    1.1627947    1.7009263    2.1530167 
 2500000   0.81039756 -3.3704964e-05   0.51591777 0.00043149563            0   0.51548628    1.1852064    1.7011242   -1.7502641 
 2505000   0.79002637 -1.5556037e-05   0.52778003            0            0   0.52778003    1.1554136    1.6831936  0.090255441 
 2510000   0.79016606 -1.8577065e-05    0.5220844 0.00040078825            0   0.52168361    1.1556179    1.6777023  -0.22458919 
 2515000   0.85135558 -2.7986748e-05   0.43361027 0.0020534433            0   0.43155683    1.2451075    1.6787178   -1.1871252 
 2520000     0.867369 3.809541e-05   0.39491931  0.010538808            0   0.38438051    1.2685272    1.6634465    5.5644164 
 2525000   0.83876632 3.2936475e-05   0.44581562  0.028163486            0   0.41765213    1.2266957    1.6725114    5.0452064 
 2530000   0.92545415 -1.1609684e-06    0.3191189 0.0080987881            0   0.31102011    1.3534767    1.6725956    1.5537124 
 2535000   0.90837295 4.4865177e-05   0.35656527 0.0023897734            0    0.3541755    1.3284954    1.6850607    6.2792548 
 2540000   0.91587908 4.6344532e-05   0.35916927 0.0036722444            0   0.35549703    1.3394732    1.6986424    6.4443225 
 2545000    0.8973688 -1.4725333e-05   0.41846793 0.0027582365            0   0.41570969    1.3124019    1.7308698   0.22299571 
 2550000   0.80953173 3.8490575e-06   0.49621151 0.00022230831            0    0.4959892    1.1839402    1.6801517    2.0742952 
 2555000   0.83763357 -1.5748856e-05   0.46549385 9.377929e-05            0   0.46540008    1.2250391     1.690533  0.077850093 
 2560000   0.87617951 -5.2721216e-05    0.4078572 0.0025613679            0   0.40529583    1.2814125    1.6892697   -3.7093828 
 2565000   0.79119579 -1.7283608e-05   0.57725231  0.012727718            0   0.56452459    1.1571238    1.7343762 -0.035465259 
 2570000   0.83467069 -1.0630152e-05   0.53820929   0.02098851            0   0.51722078    1.2207059    1.7589152   0.67038756 
 2575000   0.90976514 4.0918369e-05   0.40176907 0.0079821767            0    0.3937869    1.3305315    1.7323006    5.9223416 
 2580000    0.8981524 -1.4964711e-05   0.42674241  0.016959115            0    0.4097833    1.3135479    1.7402903   0.20790391 
 2585000   0.87533324 -5.1778343e-05   0.43703338  0.018247524            0   0.41878585    1.2801749    1.7172082   -3.5848941 
 2590000   0.86636431 -6.8436864e-06   0.43288927  0.002542914            0   0.43034635    1.2670578    1.6999471   0.99915359 
 2595000   0.87736381 -5.7976809e-05   0.45753248            0            0   0.45753248    1.2831446     1.740677   -4.1961482 
 2600000   0.92219216 -2.5108656e-06   0.40265864 0.00078628726            0   0.40187235     1.348706    1.7513647     1.494252 
 2605000   0.85236354 1.2634595e-05   0.50672196  0.038615153            0   0.46810681    1.2465817    1.7533036    3.0470862 
 2610000   0.84703115 -6.5519914e-06   0.49521058  0.045624121            0   0.44958646    1.2387831    1.7339936    1.0630697 
 2615000    0.8844553 -7.7208531e-06   0.47227628 0.0047171642            0   0.46755912    1.2935159    1.7657922   0.97517681 
 2620000    0.8903797 -2.4398503e-05   0.45753286 0.00031093252            0   0.45722193    1.3021803    1.7597132  -0.73869352 
 2625000    1.0042481 -2.2163162e-05   0.24723122            0            0   0.24723122    1.4687128    1.7159441  -0.55356375 
 2630000   0.94501912 -1.8046966e-05   0.34842543            0            0   0.34842543    1.3820905    1.7305159  -0.11749337 
 2635000   0.84960967 2.5893192e-05   0.49351008 0.0012421877            0   0.49226789    1.2425541    1.7360642    4.3875271 
 2640000   0.85918388 4.9409893e-05   0.47702916  0.013824366            0    0.4632048    1.2565564    1.7335856    6.7931587 
 2645000   0.88440413 -2.6537645e-05   0.38902565  0.015577745            0   0.37344791     1.293441    1.6824667   -1.0349882 
 2650000     0.898783 1.2369513e-05    0.3653147  0.014077094            0   0.35123761    1.3144701    1.6797848     2.946423 
 2655000   0.95876615 1.0709595e-05   0.30025577  0.017989171            0    0.2822666    1.4021955    1.7024513    2.7991138 
 2660000    0.9053226 -9.1091356e-05   0.36347584 0.0032674582            0   0.36020838    1.3240343    1.6875101   -7.6402448 
 2665000   0.91740676 1.1465228e-05    0.3929368            0            0    0.3929368    1.3417074    1.7346442    2.9086836 
 2670000   0.94055938 -3.4564231e-05   0.35500591            0            0   0.35500591    1.3755681     1.730574   -1.8088033 
 2675000   0.89306607 2.1970198e-05   0.41684652 0.0011711266            0   0.41567539    1.3061091    1.7229556    3.9727039 
 2680000   0.88954734 -2.3589568e-05   0.42958997 0.0065132033            0   0.42307677     1.300963     1.730553  -0.68501886 
 2685000    1.0089706 2.7119292e-05    0.2959109 0.0041487948            0   0.29176211    1.4756196    1.7715305    4.5485459 
 2690000   0.96835097 -2.345148e-05   0.35219322 0.00022225392            0   0.35197096    1.4162133    1.7684065  -0.63302508 
 2695000   0.84819844 -5.3134418e-05   0.45856747 0.0024111887            0   0.45615628    1.2404902    1.6990577   -3.7419067 
 2700000   0.80779866 8.6520418e-05   0.54878506  0.031431883            0   0.51735318    1.1814055    1.7301906    10.589881 
 2705000   0.86429538 -3.2937076e-05   0.48711137  0.020176604            0   0.46693477     1.264032    1.7511434   -1.6216132 
 2710000   0.89137998 -2.6641911e-05   0.41958975 7.2831429e-06            0   0.41958247    1.3036432     1.723233   -1.0048988 
 2715000   0.96440234 2.5042869e-05   0.31574739            0            0   0.31574739    1.4104384    1.7261858    4.2905756 
 2720000   0.94700468 5.267858e-05   0.30782985            0            0   0.30782985    1.3849943    1.6928242    7.0871108 
 2725000   0.89094646 4.5152592e-05    0.3556355 0.0045819997            0    0.3510535    1.3030092    1.6586447    6.2822701 
 2730000   0.89236462 2.4632339e-05   0.38693704  0.043361303            0   0.34357574    1.3050833    1.6920203    4.2143718 
 2735000   0.92683419 9.2321352e-05   0.34959337  0.018717764            0   0.33087561     1.355495    1.7050884    11.158795 
 2740000   0.93951253 6.9477081e-06   0.31366761 0.00028816042            0   0.31337945    1.3740371    1.6877047      2.39915 
 2745000   0.98609939 -2.1107161e-05   0.25459585            0            0   0.25459585    1.4421704    1.6967662  -0.46460708 
 2750000   0.94582916 -6.7082034e-05   0.32310489 0.00018122516            0   0.32292366    1.3832751      1.70638   -5.1628202 
 2755000   0.89451984 3.1828497e-05   0.42274178 0.0087575005            0   0.41398428    1.3082353     1.730977    4.9902152 
 2760000   0.87327139 1.3251586e-05   0.46887172  0.041603544            0   0.42726817    1.2771594    1.7460311    3.1029936 
 2765000   0.88034948 2.1703262e-05   0.46166518  0.046254239            0   0.41541094    1.2875111    1.7491763    3.9715904 
 2770000   0.97274587 -7.2432431e-06   0.35305368  0.002677167            0   0.35037652    1.4226408    1.7756945    1.0339864 
 2775000   0.95411226 2.8458986e-06   0.38959641 0.0052667395            0   0.38432967    1.3953892    1.7849856    2.0764056 
 2780000   0.95330658 6.5881875e-05   0.44978507 0.0045470388            0   0.44523803    1.3942109    1.8439959    8.5902999 
 2785000    1.0308694 1.4915408e-05   0.36254213 0.0069732152            0   0.35556891    1.5076465    1.8701887    3.3975265 
 2790000   0.98672332 1.7863409e-05    0.4849414  0.025759962            0   0.45918144    1.4430829    1.9280243    3.7572374 
 2795000   0.93138746 -2.1405954e-05   0.57140785    0.1485621            0   0.42284575    1.3621542     1.933562  -0.25840764 
 2800000   0.92946155 -7.1885232e-05   0.56492366  0.074759949            0   0.49016371    1.3593375    1.9242612   -5.4367866 
 2805000   0.96807121 -3.9766324e-05    0.4855973  0.018397763            0   0.46719954    1.4158041    1.9014014   -2.1706702 
 2810000   0.99454473 -0.00011210979   0.45641553 0.0073391959            0   0.44907633    1.4545217    1.9109372   -9.5691051 
 2815000    1.0190117 -6.332922e-05   0.40928223  0.014981576            0   0.39430066    1.4903046    1.8995869   -4.5853253 
 2820000    1.0353064 2.9899308e-05   0.38662957 0.0038575132            0   0.38277206    1.5141356    1.9007651    4.9624542 
 2825000   0.99824283 -1.7082879e-05   0.41947633            0            0   0.41947633    1.4599301    1.8794065   0.13011965 
 2830000   0.97946546 -1.6730913e-05    0.4493197  0.003380719            0   0.44593898    1.4324682    1.8817879   0.16854244 
 2835000   0.93224299 2.7519582e-05   0.52106859  0.023923478            0   0.49714511    1.3634054     1.884474    4.7024792 
 2840000   0.92302394 -1.0671007e-05    0.5419146  0.034348861            0   0.50756574    1.3499225    1.8918371   0.79912597 
 2845000   0.98347519 1.5910249e-05     0.488279  0.072812823            0   0.41546617    1.4383325    1.9266115    3.5558209 
 2850000    0.9787962 5.5805174e-05   0.46394213  0.036727354            0   0.42721477    1.4314894    1.8954316    7.6098814 
 2855000   0.95497665 9.0970986e-06   0.54414236  0.037068879            0   0.50707348    1.3966534    1.9407957    2.8723386 
 2860000    1.0222151 -5.1753723e-06   0.45149001  0.020481954            0   0.43100805    1.4949895    1.9464795    1.4165214 
 2865000   0.99139989 6.2006776e-06    0.4791035  0.018434035            0   0.46066946    1.4499223    1.9290258    2.5639752 
 2870000   0.98498535 -4.0166595e-05   0.51681176  0.097225068            0   0.41958669    1.4405411    1.9573528   -2.1557065 
 2875000    1.0398864 -8.2404152e-06   0.49132484  0.052939391            0   0.43838545    1.5208338    2.0121586    1.1683401 
 2880000    1.0624744 5.0886973e-05    0.5005443  0.048531453            0   0.45201284    1.5538688    2.0544131    7.2652391 
 2885000    1.0170628 3.3312484e-05   0.57227477  0.046050027            0   0.52622474    1.4874543    2.0597291    5.4709275 
 2890000    1.0376137 3.8800938e-05   0.55375155  0.029546481            0   0.52420507    1.5175101    2.0712616    6.0444776 
 2895000    1.1098618 2.416134e-05   0.44180838  0.015046963            0   0.42676141    1.6231728    2.0649812    4.5391024 
 2900000    1.0305898 -3.5775818e-06   0.49520067  0.022876817            0   0.47232385    1.5072376    2.0024383    1.6360939 
 2905000    1.0192713 -1.5773952e-05   0.55746587  0.026474243            0   0.53099162    1.4906843    2.0481502    0.4328975 
 2910000    1.0215282 -1.4574824e-05   0.51890159  0.011639208            0   0.50726238     1.493985    2.0128866   0.52042461 
 2915000     1.079387 3.2028925e-06   0.44058381  0.088033923            0   0.35254988    1.5786035    2.0191873    2.3471635 
 2920000   0.95672689 -1.7397847e-05   0.60018329    0.1045776            0   0.49560569    1.3992131    1.9993964   0.21785682 
 2925000    1.0687853 1.4939417e-05   0.48133185  0.026572199            0   0.45475965    1.5630985    2.0444303    3.5742266 
 2930000    1.0769981 0.00010399423   0.47185193 0.0092567584            0   0.46259517    1.5751097    2.0469617    12.695971 
 2935000    1.1485708 3.5906982e-06   0.42210935 0.00043485601            0   0.42167449    1.6797847    2.1018941    2.4695816 
 2940000    1.1175184 3.087407e-05   0.46732348  0.007485421            0   0.45983806    1.6343707    2.1016942    5.2631989 
 2945000   0.97791886 1.0743495e-05   0.62876113   0.05633098            0   0.57243015    1.4302063    2.0589675    3.1591014 
 2950000    1.0837804 3.2554627e-05   0.43927731  0.045708278            0   0.39356903    1.5850289    2.0243062       5.3579 
 2955000    1.1322662 1.8903567e-05   0.33661619  0.015700169            0   0.32091602    1.6559393    1.9925555    3.9282808 
 2960000   0.92101382 -1.9475704e-05   0.65181355  0.018589992            0   0.63322356    1.3469827    1.9987963 0.0044841531 
 2965000    1.1290699 3.8310725e-05   0.33178691  0.017405116            0   0.31438179    1.6512648    1.9830517      5.90607 
 2970000    1.0034545 1.9313756e-05   0.52710969   0.08135891            0   0.44575078    1.4675522    1.9946619    3.9723905 
 2975000   0.95824572 -7.9215107e-05   0.60695686   0.05342946            0    0.5535274    1.4014344    2.0083912   -6.1032357 
 2980000    1.0675744 -6.7103512e-05   0.41851951  0.040609644            0   0.37790987    1.5613276    1.9798471   -4.8915525 
 2985000   0.95103995 1.9009836e-05   0.63164418  0.021488561            0   0.61015562    1.3908959    2.0225401    3.9691473 
 2990000    1.1433704 3.074174e-05    0.3830944  0.016782944            0   0.36631146    1.6721792    2.0552736    5.2032279 
 2995000    1.0947895 -3.2178232e-05   0.45086973  0.065387687            0   0.38548204    1.6011296    2.0519993   -1.2430517 
 3000000   0.93629994 -3.7245212e-06   0.69335411  0.076532595            0   0.61682151    1.3693387    2.0626928    1.6813018 
 3005000      1.15929 1.6960876e-05    0.3836782 0.0075606648            0   0.37611753    1.6954616    2.0791398    3.8159335 
 3010000     1.031255 -3.9835285e-05   0.57230578 0.0031037005            0   0.56920208    1.5082104    2.0805162    -1.998617 
 3015000    1.1815051 -3.2494008e-05   0.34704017 0.0045398326            0   0.34250034    1.7279512    2.0749913   -1.2523951 
 3020000    1.0688826 8.8329196e-07   0.53712568 0.0059966731            0   0.53112901    1.5632409    2.1003666    2.1908156 
 3025000    1.1756084 1.8377273e-05   0.32937772 0.0085641607            0   0.32081356    1.7193273     2.048705    3.9305377 
 3030000    1.1727831 2.5471239e-05    0.3594862 0.0045134174            0   0.35497279    1.7151953    2.0746815    4.6829364 
 3035000    1.0172283 2.0130796e-05   0.56984881 1.0048959e-05            0   0.56983876    1.4876963    2.0575451    4.1189387 
 3040000     1.181529 -2.2066063e-05   0.33202437  0.001731786            0   0.33029259    1.7279861    2.0600105  -0.19955434 
 3045000    1.0232885 -1.2623895e-05   0.53901876  0.059939121            0   0.47907964    1.4965595    2.0355782   0.74289139 
 3050000    1.0048924 4.232491e-05   0.53806625   0.07946798            0   0.45859827    1.4696551    2.0077214    6.3417921 
 3055000    1.0713632 -3.9312137e-05   0.41342696   0.01093721            0   0.40248975    1.5668687    1.9802957   -2.0452671 
 3060000    1.1475601 -1.8925215e-05    0.3422514 0.0043654013            0     0.337886    1.6783066     2.020558  0.082616008 
 3065000    1.1174111 7.3495227e-05   0.41224762  0.019611733            0   0.39263588    1.6342137    2.0464613    9.5723726 
 3070000    1.0298956 1.762843e-05   0.58950079  0.056905103            0   0.53259569    1.5062222     2.095723    3.9008743 
 3075000    1.1396999 -2.4230269e-05   0.44563709  0.018780532            0   0.42685656    1.6668111    2.1124482  -0.36873134 
 3080000    1.1172316 -5.8461317e-05   0.47422059  0.020330864            0   0.45388972    1.6339513    2.1081719   -3.8782671 
 3085000    1.1470149 -3.931683e-05   0.42307398  0.010640035            0   0.41243395    1.6775093    2.1005833   -1.9254601 
 3090000    1.0931731 4.9364344e-05   0.50598796  0.011043084            0   0.49494487    1.5987656    2.1047535    7.1596623 
 3095000    1.1281418 9.274215e-05   0.46903773 0.0028450675            0   0.46619267    1.6499074    2.1189452    11.615741 
 3100000    1.2019409 1.6219803e-05   0.35451316 0.0056246537            0   0.34888851    1.7578385    2.1123517    3.7732594 
 3105000     1.066024 -7.4361081e-05   0.54145484  0.013402137            0    0.5280527    1.5590601    2.1005149   -5.5140598 
 3110000    1.1025546 -3.1532858e-05   0.41212408  0.014975233            0   0.39714885    1.6124861    2.0246102   -1.2043544 
 3115000    1.0145783 5.9491219e-05   0.55933247 0.0097102421            0   0.54962223    1.4838207    2.0431532     8.135054 
 3120000    1.1213072 7.4198576e-05   0.40158922    0.0255337            0   0.37605552    1.6399118     2.041501    9.6394352 
 3125000   0.99886071 -5.2050893e-05   0.59839481  0.033871309            0    0.5645235    1.4608338    2.0592286   -3.2707828 
 3130000    1.0672586 -6.0151102e-05   0.52453852  0.010889066            0   0.51364946    1.5608657    2.0854042   -4.0740686 
 3135000    1.0292512 2.7103941e-05   0.58459355 0.0080850114            0   0.57650854    1.5052799    2.0898734     4.865317 
 3140000    1.1502299 2.8742608e-06   0.39803116  0.010268181            0   0.38776298    1.6822113    2.0802424    2.3745667 
 3145000    1.0382799 -2.9421717e-05   0.55788718 0.0051636531            0   0.55272353    1.5184843    2.0763715   -0.9364123 
 3150000    1.0962095 -5.1615695e-06   0.47404855  0.004187841            0   0.46986071    1.6032064    2.0772549    1.5487102 
 3155000     1.097712 -9.2283337e-06     0.490471 0.0063911026            0   0.48407989    1.6054038    2.0958748    1.1508934 
 3160000   0.99491774 -8.476327e-05   0.67959161  0.063633005            0    0.6159586    1.4550672    2.1346588      -6.5451 
 3165000    1.2200275 1.0185303e-05   0.40652054  0.058813265            0   0.34770727    1.7842903    2.1908108    3.2337858 
 3170000    1.1284345 4.2244156e-05   0.53615659  0.035856687            0   0.50029991    1.6503354     2.186492    6.5122936 
 3175000    1.0196803 5.5218092e-05   0.65954816 0.0084029134            0   0.65114525    1.4912824    2.1508306    7.8051632 
 3180000    1.1469404 -2.4200324e-05    0.4649112 0.0031132384            0   0.46179796    1.6774003    2.1423115  -0.33580167 
 3185000    1.0823184 -3.8321875e-05   0.55402861  0.003641197            0   0.55038741    1.5828906    2.1369193   -1.7872408 
 3190000    1.0703542 -3.5997209e-05   0.54680795  0.039589123            0   0.50721883     1.565393     2.112201   -1.5739132 
 3195000   0.97772764 5.6391148e-05   0.65655318  0.028321973            0   0.62823121    1.4299267    2.0864799    7.8609334 
 3200000    1.0825899 7.1245295e-05   0.51719264  0.075670627            0   0.44152201    1.5832878    2.1004804    9.3959986 
 3205000    1.1418154 -4.6587254e-05   0.43706229  0.016685699            0   0.42037659     1.669905    2.1069673   -2.6635676 
 3210000    1.0675681 1.1116279e-05   0.55105968  0.014784082            0    0.5362756    1.5613184     2.112378     3.250685 
 3215000    1.1228045 8.1443845e-05    0.4255002  0.015210924            0   0.41028928    1.6421016    2.0676018    10.407451 
 3220000    1.1615225 2.0534695e-05   0.37943213  0.011273155            0   0.36815897    1.6987267    2.0781589    4.1809116 
 3225000    1.0344854 1.6192054e-05   0.58314963  0.035432812            0   0.54771682     1.512935    2.0960846    3.7541509 
 3230000     1.081675 1.9978353e-05   0.55782138  0.039580783            0   0.51824059    1.5819497    2.1397711    4.1855544 
 3235000    1.0369596 -1.396784e-05   0.63211139  0.010236242            0   0.62187515    1.5165534    2.1486647   0.71835798 
 3240000    1.1269003 7.4381589e-06   0.50314334 0.0023651413            0    0.5007782    1.6480917     2.151235    2.9129025 
 3245000    1.1280494 -3.1448243e-05   0.51901356 0.00031445834            0   0.51869911    1.6497723    2.1687859   -1.0515142 
 3250000    1.0701038 1.6720383e-05   0.56671537 0.0073305323            0   0.55938484    1.5650268    2.1317421    3.8439094 
 3255000    1.1566733 -8.0086729e-05   0.39364309  0.013386222            0   0.38025687    1.6916347    2.0852778   -6.1156033 
 3260000    1.0601763 -9.5166156e-05   0.48461859 0.0066580723            0   0.47796052    1.5505078    2.0351264    -7.709888 
 3265000   0.95842985 -5.7845979e-05   0.56865726 0.00070711805            0   0.56795014    1.4017037    1.9703609   -3.9530673 
 3270000    1.0253487 1.7613087e-07   0.48708948   0.01017515            0   0.47691433    1.4995725     1.986662    2.0046978 
 3275000   0.94365665 1.556991e-05   0.63812721  0.044183815            0    0.5939434    1.3800979    2.0182251    3.6125838 
 3280000   0.86787843 1.3971332e-06   0.75629747  0.019449204            0   0.73684826    1.2692722    2.0255697    2.1686361 
 3285000    1.0402869 4.239665e-06   0.54605666  0.028039753            0    0.5180169    1.5214196    2.0674763     2.501618 
 3290000    1.1160994 4.7566471e-05    0.4869493  0.029787875            0   0.45716142    1.6322954    2.1192447    6.9900513 
 3295000    1.1089936 -5.6670532e-05   0.50796269  0.026433614            0   0.48152908    1.6219031    2.1298658   -3.6731966 
 3300000    1.1422141 -6.9835103e-05   0.45694024  0.060820163            0   0.39612008    1.6704881    2.1274283   -5.0236862 
 3305000    1.1823286 4.0471513e-06   0.43747512  0.024400402            0   0.41307472    1.7291556    2.1666307     2.581059 
 3310000    1.1769607 3.1780104e-05     0.485836 0.00039622174            0   0.48543978    1.7213051    2.2071411    5.4614238 
 3315000    1.2916573 2.2468499e-05   0.31258847 0.0008774822            0   0.31171098    1.8890488    2.2016373    4.5024116 
 3320000    1.0725503 -4.8661002e-05   0.56915894 0.0051182461            0   0.56404069    1.5686049    2.1377638   -2.8451228 
 3325000    1.1350457 -7.0763421e-05   0.52045722 0.0019441541            0   0.51851307    1.6600044    2.1804616   -5.0657127 
 3330000     1.062785 3.388088e-05   0.62116303  0.023387997            0   0.59777504     1.554323    2.1754861    5.6448882 
 3335000    1.1132028 7.1306496e-05   0.53720177   0.10342145            0   0.43378032     1.628059    2.1652608     9.467046 
 3340000    1.1044116 -4.1697956e-05   0.52069581  0.051538137            0   0.46915767     1.615202    2.1358978   -2.1339728 
 3345000    1.0366473 -9.7430854e-05   0.65588452 0.0046307772            0   0.65125375    1.5160967    2.1719812   -7.8049383 
 3350000    1.2215187 -1.8651317e-05   0.40420654  0.018254416            0   0.38595213    1.7864711    2.1906776   0.28078271 
 3355000   0.99706501 7.4432412e-05   0.67583911  0.014709216            0   0.66112989    1.4582076    2.1340467    9.7559257 
 3360000    1.1336716 2.0522177e-05   0.51129108  0.011460805            0   0.49983027    1.6579948    2.1692859    4.2707568 
 3365000    1.1920813 -5.8560603e-05   0.37598502  0.015190743            0   0.36079427    1.7434189    2.1194039   -3.8772019 
 3370000    1.1255207 -1.9974534e-05   0.44857787 0.0047178325            0   0.44386003     1.646074    2.0946519  0.049259637 
 3375000    1.0639432 4.6330327e-05    0.5369105  0.018714082            0   0.51819642     1.556017    2.0929275    6.8371529 
 3380000   0.91544973 -5.1504779e-05   0.77643023   0.11452845            0   0.66190178    1.3388452    2.1152755    -3.158814 
 3385000    1.0180446 -2.8555275e-05    0.6318124  0.022745373            0   0.60906703    1.4888902    2.1207026  -0.80335764 
 3390000    1.1811828 4.9096815e-06   0.40164671 0.0060385735            0   0.39560813    1.7274799    2.1291266    2.6318779 
 3395000    1.1815466 -2.8057889e-05    0.4095388 0.0079250791            0   0.40161372    1.7280119    2.1375507  -0.73557708 
 3400000     1.054588 -3.3358485e-05   0.57650918 0.0054133411            0   0.57109584    1.5423349    2.1188441   -1.2970648 
 3405000    1.1352013 2.5688231e-05   0.45032871 0.00026328705            0   0.45006542    1.6602319    2.1105606    4.7410354 
 3410000    1.0776809 2.4265415e-05   0.56889521 0.0027585206            0   0.56613669    1.5761084    2.1450036    4.6297821 
 3415000    1.1086419 -2.2789462e-05   0.59039847  0.044848931            0   0.54554954    1.6213888    2.2117872  -0.12185367 
 3420000   0.92400993 7.8227157e-05   0.86199698   0.29487169            0   0.56712529    1.3513645    2.2133615    10.223822 
 3425000    1.1875093 4.9614858e-05   0.44294193  0.010700771            0   0.43224115    1.7367324    2.1796743    7.2602358 
 3430000    1.1706047 8.088221e-06   0.42229369   0.00433136            0   0.41796233    1.7120093     2.134303    2.9625368 
 3435000    1.0989332 -3.0756405e-05   0.52984312 0.0009426917            0   0.52890043    1.6071899     2.137033   -1.0124229 
 3440000    1.2080308 -5.2825231e-05   0.42683932 0.00013444106            0   0.42670488     1.766745    2.1935844   -3.2157192 
 3445000     1.221248 -1.3399565e-05   0.41242685 7.5921476e-05            0   0.41235093    1.7860752     2.198502   0.82638659 
 3450000    1.2764588 5.5749781e-05   0.36440147 9.9683191e-05            0   0.36430178    1.8668211    2.2312225    7.9400001 
 3455000    1.1201806 5.620144e-05   0.60231676 0.00014308506            0   0.60217368    1.6382642    2.2405809    7.9956084 
 3460000    1.2688882 2.6426404e-05   0.39017729            0            0   0.39017729     1.855749    2.2459263      4.95199 
 3465000    1.0814029 6.2208661e-06   0.66141317            0            0   0.66141317    1.5815517    2.2429649    2.8799816 
 3470000    1.2892795 -1.6543682e-05   0.35431988            0            0   0.35431988    1.8855713    2.2398911   0.54581812 
 3475000    1.1581697 -1.5722736e-05   0.57115661  0.057656458            0   0.51350015    1.6938232    2.2649798   0.65497158 
 3480000    1.2077906 4.531817e-05   0.49969861  0.046294406            0   0.45340421    1.7663938    2.2660924     6.906673 
 3485000    1.2899969 5.8929422e-05   0.35908772            0            0   0.35908772    1.8866204    2.2457081    8.2800809 
 3490000    1.2118319 -7.493199e-06   0.52941937 2.330232e-05            0   0.52939606    1.7723041    2.3017235    1.5344199 
 3495000    1.2093662 -2.4756201e-06   0.52065522 0.0014473631            0   0.51920786     1.768698    2.2893533    2.0358498 
 3500000    1.2709907 3.4559306e-05   0.40883106  0.003978688            0   0.40485237    1.8588239    2.2676549    5.8065279 
 3505000    1.2122655 2.9699292e-05   0.49469553   0.10800863            0   0.38668691    1.7729383    2.2676338    5.3088413 
 3510000    1.2734021 2.0187088e-06   0.42242246  0.023785844            0   0.39863661    1.8623506     2.284773    2.4914888 
 3515000    1.2827053 -1.579174e-05   0.42661054 0.0011914098            0   0.42541913    1.8759565    2.3025671   0.68549284 
 3520000     1.260714 -1.350211e-05   0.42003225 0.0009687358            0   0.41906351    1.8437943    2.2638265   0.88121044 
 3525000    1.1954265 -8.2712639e-06   0.47630894 2.9819772e-05            0   0.47627912    1.7483112    2.2246201    1.3776427 
 3530000    1.2472121 2.3405811e-05   0.39514117 0.00068052614            0   0.39446065    1.8240477    2.2191889     4.615944 
 3535000     1.134639 -2.1479128e-05   0.53070024  0.016676349            0   0.51402389    1.6594095    2.1901098 -0.0093529706 
 3540000    1.1232747 -4.9475405e-05   0.52015323  0.017565123            0    0.5025881    1.6427893    2.1629425   -2.9033389 
 3545000    1.1205673 9.1607887e-06   0.51583264  0.035895351            0   0.47993729    1.6388297    2.1546623    3.0927271 
 3550000    1.1388002 7.9802298e-05   0.49352738   0.05071796            0   0.44280942    1.6654953    2.1590227    10.330778 
 3555000    1.2067881 3.2653406e-05   0.38478027 0.0058660987            0   0.37891417    1.7649276    2.1497079    5.4934167 
 3560000    1.1260953 -3.8218588e-05   0.50910198  0.029450212            0   0.47965177    1.6469144    2.1560164    -1.757567 
 3565000    1.1408625 2.5261538e-05   0.49074976  0.060121932            0   0.43062783    1.6685114    2.1592611    4.7460426 
 3570000    1.2231707 5.9671133e-05   0.40044261  0.028813137            0   0.37162947    1.7888872    2.1893298    8.2996538 
 3575000    1.1391685 2.7509584e-05   0.50076911  0.049071228            0   0.45169788     1.666034    2.1668031    4.9837845 
 3580000    1.2657449 1.1354025e-05   0.27911831  0.015233366            0   0.26388495    1.8511519    2.1302702    3.2929223 
 3585000    1.1395988 7.9863009e-06   0.48603094  0.009246385            0   0.47678456    1.6666632    2.1526941    2.9704914 
 3590000    1.1865396 -5.6033526e-05   0.42957625  0.018072328            0   0.41150392    1.7353142    2.1648905   -3.5729426 
 3595000    1.2184087 -1.7152296e-05   0.37453378  0.007836469            0   0.36669731    1.7819227    2.1564564   0.40006131 
 3600000    1.1074372 -4.9881763e-06     0.556136            0            0     0.556136    1.6196269    2.1757629    1.6649736 
 3605000    1.1786001 -0.00010333168   0.50101106 0.0057028021            0   0.49530825    1.7237027    2.2247137   -8.3564498 
 3610000    1.2026537 -3.631124e-07   0.45728628  0.010471996            0   0.44681428     1.758881    2.2161673    2.1789846 
 3615000    1.1651305 2.1413264e-05   0.51480421  0.048128339            0   0.46667587    1.7040033    2.2188075    4.4115257 
 3620000    1.1595024 -5.3238503e-08   0.49456858  0.060357481            0    0.4342111    1.6957723    2.1903409    2.1848892 
 3625000    1.2299281 -6.3324546e-05   0.37089928  0.016892019            0   0.35400726    1.7987699    2.1696692   -4.3147643 
 3630000    1.1713684 -5.1632345e-05    0.4317467 0.0075594479            0   0.42418725    1.7131263     2.144873   -3.1422791 
 3635000    1.1529646 -2.1394343e-05   0.46257838 0.00096498201            0   0.46161339    1.6862107    2.1487891 -0.041991669 
 3640000    1.2114413 -1.7753734e-05   0.38615621 0.00092588852            0   0.38523032    1.7717329    2.1578891   0.33990672 
 3645000    1.1408572 2.8142091e-05   0.45046146  0.010350481            0   0.44011098    1.6685036    2.1189651    5.0007152 
 3650000    1.0538314 -1.8728494e-05   0.52494498  0.013009296            0   0.51193569    1.5412284    2.0661734    0.1483756 
 3655000     1.063363 -6.7806653e-05   0.52012636 0.0032206729            0   0.51690569    1.5551684    2.0752947   -4.8681066 
 3660000    1.1602974 -1.7900245e-05   0.40212394            0            0   0.40212394    1.6969349    2.0990589   0.26607382 
 3665000    1.1220087 2.7634036e-06   0.44413759  0.001431748            0   0.44270585    1.6409377    2.0850753    2.3680478 
 3670000     1.132336 4.3950164e-05   0.38050178 0.0025772215            0   0.37792456    1.6560414    2.0365431    6.5370399 
 3675000    1.0334311 -1.3807417e-05   0.53234279  0.036622471            0   0.49572031    1.5113929    2.0437357   0.62985623 
 3680000    1.0469854 -4.1640599e-05   0.47203158  0.085658795            0   0.38637278    1.5312161    2.0032477   -2.2607496 
 3685000    1.0060917 -5.3575048e-05   0.53021012  0.021204484            0   0.50900563    1.4714091    2.0016192   -3.4844657 
 3690000    1.0821249 -4.2681743e-05   0.41262061 0.0015111052            0   0.41110951    1.5826077    1.9952283   -2.3753821 
 3695000    1.0688087 -3.8522556e-05   0.43522084 0.00095438036            0   0.43426646    1.5631327    1.9983536   -1.9463562 
 3700000    1.0775345 -6.1544474e-06   0.40591919  0.015132208            0   0.39078698    1.5758943    1.9818135    1.3515981 
 3705000    1.0478946 2.1306388e-05   0.45531169  0.022329423            0   0.43298226    1.5325459    1.9878576    4.1696317 
 3710000     1.108559 -7.8148192e-06   0.34878844 0.0016791463            0    0.3471093    1.6212675    1.9700559    1.1698185 
 3715000   0.99552196 -1.5341228e-05   0.50256658            0            0   0.50256658    1.4559509    1.9585174   0.38757572 
 3720000    1.1435015 8.5358148e-05    0.3392535            0            0    0.3392535     1.672371    2.0116245    10.752299 
 3725000    1.0365653 3.9208551e-05    0.4979515 0.00048923079            0   0.49746227    1.5159767    2.0139282    6.0288839 
 3730000    1.0377656 2.7222859e-05   0.45220497 0.0077974385            0   0.44440753    1.5177321    1.9699371    4.7575579 
 3735000     1.085023 8.1333325e-05   0.42376568 0.0062676201            0   0.41749806    1.5868462    2.0106118    10.339144 
 3740000     1.009697 7.9724805e-06   0.53496002  0.012681334            0   0.52227868    1.4766819    2.0116419    2.8280239 
 3745000    1.0487225 -4.2651326e-06    0.5017074  0.031310981            0   0.47039642    1.5337566     2.035464    1.5987144 
 3750000    1.1233291 -1.8254632e-05   0.41733897   0.10179372            0   0.31554525    1.6428688    2.0602078    0.1909334 
 3755000    1.0360061 2.7989726e-05   0.56039311   0.10040826            0   0.45998485     1.515159    2.0755521       4.9417 
 3760000    1.1189441 3.3363378e-05   0.43827028  0.045032062            0   0.39323822    1.6364557     2.074726    5.4911359 
 3765000    0.9558823 -1.0518415e-05   0.67967357  0.080534969            0    0.5991386    1.3979779    2.0776514    1.0005657 
 3770000    1.2619255 3.2889746e-05   0.28737639   0.01097653            0   0.27639986     1.845566    2.1329424    5.5008524 
 3775000    1.2287724 7.8864518e-05   0.37021697  0.016419245            0   0.35379773    1.7970796    2.1672966    10.243023 
 3780000    1.1812679 5.5487997e-06   0.48279731  0.061670899            0   0.42112641    1.7276043    2.2104016    2.7785987 
 3785000    1.2435008 -2.9597301e-05   0.36615157  0.059009255            0   0.30714231    1.8186199    2.1847715  -0.84599211 
 3790000    1.2045943 -2.4251337e-05    0.4465706  0.011780904            0   0.43478969    1.7617192    2.2082898  -0.27504716 
 3795000    1.1653965 -8.7973456e-06   0.48232981  0.027558731            0   0.45477108    1.7043923    2.1867221    1.2858739 
 3800000     1.102261 2.2990523e-05   0.52285293  0.010096505            0   0.51275642    1.6120567    2.1349096    4.4891392 
 3805000    1.1872464 2.0120863e-05   0.39007239 0.0042146674            0   0.38585773    1.7363479    2.1264203    4.1867966 
 3810000    1.1913503 4.1658089e-05   0.37258277  0.031002423            0   0.34158035    1.7423498    2.1149326    6.3807209 
 3815000    1.1401819 9.9969949e-08   0.46431727  0.033758002            0   0.43055927     1.667516    2.1318332    2.1420702 
 3820000    1.1285721 -3.7217501e-05   0.47968131  0.014184879            0   0.46549643    1.6505368    2.1302181    -1.680854 
 3825000    1.0254032 -2.8090043e-05   0.55876566  0.045757783            0   0.51300788    1.4996522    2.0584179  -0.81800248 
 3830000    1.0844585 -1.6656371e-06   0.45206699  0.059106215            0   0.39296078    1.5860205    2.0380875    1.8675263 
 3835000    1.0027606 -6.9527024e-05   0.57145345  0.075882464            0   0.49557099    1.4665373    2.0379908   -5.0815765 
 3840000   0.95573458 1.6289612e-05   0.58770716   0.11185826            0    0.4758489    1.3977618     1.985469    3.6535253 
 3845000    1.0122321 2.6957924e-05   0.48116622  0.061082905            0   0.42008331    1.4803895    1.9615557    4.7220472 
 3850000    1.0033528 1.5508142e-05   0.49162462  0.046020991            0   0.44560363    1.4674035    1.9590282    3.5470619 
 3855000    1.0428623 -1.0806212e-05   0.42741332  0.058276722            0    0.3691366    1.5251861    1.9525994   0.84604328 
 3860000    1.0417913 -4.6008038e-06   0.44533459   0.06212891            0   0.38320568    1.5236197    1.9689543     1.497832 
 3865000   0.99717147 7.9286517e-05   0.49315187   0.10281324            0   0.39033863    1.4583633    1.9515151    10.070455 
 3870000    1.0142088 8.641118e-05   0.45986433  0.068058706            0   0.39180563    1.4832804    1.9431447     10.79165 
 3875000   0.91251237 8.6932593e-05   0.58647182  0.020910644            0   0.56556118    1.3345493    1.9210212    10.822919 
 3880000     0.905053 -1.7508763e-05   0.64811589   0.10004754            0   0.54806835      1.32364    1.9717559   0.17885861 
 3885000    1.0928289 -1.2851228e-05   0.35815337  0.014348053            0   0.34380532    1.5982622    1.9564156   0.64044985 
 3890000    1.1063946 4.8124534e-05   0.38802231            0            0   0.38802231    1.6181022    2.0061245    6.9340767 
 3895000    1.0689071 5.4859445e-05   0.46349087 8.5559048e-06            0   0.46348231    1.5632766    2.0267674    7.6443746 
 3900000    1.0421509 5.8500185e-05   0.48984586 0.00026167057            0   0.48958419    1.5241457    2.0139915    8.0044105 
 3905000    1.0602908 7.5842644e-07   0.43189086  0.017544236            0   0.41434662    1.5506752    1.9825661     2.060229 
 3910000    1.0996965 -4.6308976e-05   0.35941802  0.073402742            0   0.28601528    1.6083061    1.9677241    -2.774315 
 3915000   0.97825345 7.4342203e-06   0.50860007  0.023349283            0   0.48525078    1.4306957    1.9392957    2.7005599 
 3920000   0.98860285 1.6967984e-05   0.47903276   0.12990816            0    0.3491246    1.4458317    1.9248644     3.662386 
 3925000   0.97998476 -2.1403964e-05   0.49293654  0.045896073            0   0.44704046    1.4332277    1.9261643  -0.26560165 
 3930000    1.0268285 -5.7596077e-05   0.44890534   0.05367226            0   0.39523308    1.5017367    1.9506421   -3.9471962 
 3935000   0.93163951 -8.4569386e-05   0.56156857  0.031912257            0   0.52965632    1.3625228    1.9240914   -6.7358138 
 3940000    1.0119869 -4.7601898e-05   0.41253601  0.014594734            0   0.39794127    1.4800309    1.8925669   -2.9818675 
 3945000   0.98179613 -4.4841603e-05      0.45972 0.0062159095            0   0.45350409    1.4358768    1.8955968   -2.6961833 
 3950000    1.0046471 -5.0539402e-05   0.42740493  0.028286636            0   0.39911829    1.4692963    1.8967013   -3.2785335 
 3955000    1.0066924 -1.3761158e-05   0.49579363  0.039317009            0   0.45647662    1.4722876    1.9680813   0.55893866 
 3960000    1.0713004 -7.4682227e-06   0.38269287   0.10261405            0   0.28007882    1.5667769    1.9494698    1.1847237 
 3965000    1.0217705 -4.8449822e-05   0.48079134  0.044381615            0   0.43640972    1.4943393    1.9751306   -2.9861311 
 3970000   0.94926833 -1.7504044e-05   0.59660418  0.049696657            0   0.54690752    1.3883049    1.9849091   0.19249504 
 3975000    1.0502783 4.2398001e-05   0.42002912  0.024961724            0    0.3950674     1.536032    1.9560611    6.2976164 
 3980000   0.97204661 1.8816777e-05   0.53180521  0.019427616            0    0.5123776    1.4216182    1.9534234    3.8802614 
 3985000    1.0597866 -8.49371e-06   0.40064594  0.019312801            0   0.38133314    1.5499379    1.9505838    1.0808279 
 3990000    1.0093463 7.4663808e-05   0.48878834  0.075864056            0   0.41292429    1.4761689    1.9649573    9.6105312 
 3995000    1.0155219 8.692458e-06   0.47434693  0.078846433            0    0.3955005    1.4852007    1.9595476    2.8496553 
 4000000    1.0979357 -6.6702194e-06   0.36532401  0.028504505            0    0.3368195     1.605731     1.971055    1.2880245 
 4005000    1.0678213 9.4430128e-05   0.40646456  0.012541402            0   0.39392316    1.5616887    1.9681533    11.637798 
 4010000    1.0062054 -4.4477974e-05   0.51211972  0.072399441            0   0.43972028    1.4715754    1.9836951   -2.5708494 
 4015000    1.0634415 -9.4077076e-05   0.42933588  0.022388221            0   0.40694766    1.5552832     1.984619   -7.6488736 
 4020000     1.111651 3.3636121e-06   0.32492342 0.0039436491            0   0.32097978    1.6257896     1.950713    2.2951469 
 4025000   0.98615371 -3.0137714e-05   0.48134573 0.00078279178            0   0.48056294    1.4422498    1.9235955   -1.1625064 
 4030000    1.0452882 6.1170802e-06   0.38393185 0.0029680763            0   0.38096377     1.528734    1.9126658    2.5390548 
 4035000     1.010827 -2.3259018e-05   0.40207704  0.010837119            0   0.39123992    1.4783345    1.8804116  -0.50131189 
 4040000   0.94156747 -9.5462854e-05   0.53474236  0.011768357            0     0.522974    1.3770424    1.9117848   -7.8636115 
 4045000    1.0852817 -3.1935914e-05   0.37466286 0.0044972701            0   0.37016559    1.5872246    1.9618874   -1.3083501 
 4050000    1.0386218 4.5798554e-05   0.39711881 0.00016707183            0   0.39695174    1.5189844    1.9161032    6.6058751 
 4055000   0.94607608 7.824368e-05   0.52610285 0.0050561048            0   0.52104674    1.3836363    1.9097391     9.921892 
 4060000    1.0344781 8.7863604e-06   0.38980338  0.018375406            0   0.37142797    1.5129242    1.9027276    2.8024509 
 4065000   0.94489805 -2.946071e-05   0.52189969  0.079988163            0   0.44191153    1.3819134    1.9038131   -1.1129636 
 4070000   0.96311018 -9.5364024e-06   0.50651436  0.027864715            0   0.47864964    1.4085486     1.915063   0.93853539 
 4075000     1.045398 1.2399279e-05   0.37767906 0.0058951108            0   0.37178395    1.5288945    1.9065736    3.1762598 
 4080000    1.0270986 3.1389987e-05   0.37519147 0.0045275472            0   0.37066392    1.5021318    1.8773232    5.0916579 
 4085000    1.1194882 -1.0197324e-05   0.21995272 0.00055953457            0   0.21939318    1.6372515    1.8572043   0.81299832 
 4090000    1.0354823 -4.5528248e-05    0.3260979            0            0    0.3260979    1.5143929    1.8404908   -2.8216018 
 4095000   0.99750225 -2.0556604e-05   0.39719583            0            0   0.39719583     1.458847    1.8560429  -0.24895342 
 4100000   0.97338827 1.1893281e-06   0.44404215            0            0   0.44404215    1.4235804    1.8676225    1.9894097 
 4105000   0.94263921 -2.0439662e-06   0.48277364 0.0011483557            0   0.48162528    1.3786098    1.8613835    1.6520813 
 4110000    1.0265746 5.7361755e-05   0.36322298   0.02140414            0   0.34181884    1.5013653    1.8645883     7.738432 
 4115000   0.92881171 9.325596e-06   0.54403728  0.037516902            0   0.50652038    1.3583871    1.9024244    2.8573654 
 4120000   0.99535189 -4.7174564e-05   0.45402208  0.035220256            0   0.41880182    1.4557021    1.9097242   -2.9209512 
 4125000    1.0081007 -2.513205e-05   0.45770032   0.02667865            0   0.43102167    1.4743473    1.9320476  -0.64147429 
 4130000   0.94690259 -8.7657016e-06   0.55726658  0.025239215            0   0.53202737     1.384845    1.9421116    1.0445038 
 4135000    1.0432366 -1.8023528e-05   0.41456159 0.0054565742            0   0.40910502    1.5257335    1.9402951  0.094685801 
 4140000    1.0444375 9.0990622e-06   0.43080348  0.028245776            0    0.4025577    1.5274899    1.9582934    2.8900373 
 4145000   0.89081774 5.4181306e-05   0.56461754  0.018953047            0   0.54566449    1.3028209    1.8674385    7.4156043 
 4150000    1.0448301 1.962109e-05   0.34547802  0.004713184            0   0.34076484    1.5280641    1.8735421    3.8827417 
 4155000   0.87229481 -5.7826944e-05   0.59645955   0.01667113            0   0.57978842    1.2757312    1.8721907   -4.0492883 
 4160000    1.0099861 -5.5793226e-05   0.37489649  0.035382244            0   0.33951424    1.4771047    1.8520011   -3.8612252 
 4165000   0.91712459 -1.5412107e-05   0.48733012  0.015443818            0   0.47188631    1.3412947    1.8286248   0.25042504 
 4170000   0.89204419 3.9099968e-06   0.52024309  0.049430081            0     0.470813    1.3046146    1.8248577    2.2252414 
 4175000    0.9039204 1.5788173e-05   0.45108123  0.090114898            0   0.36096633    1.3219836    1.7730648    3.3897737 
 4180000    0.8606541 -3.5517189e-06   0.47641781  0.032071688            0   0.44434612    1.2587066    1.7351244    1.3714284 
 4185000   0.89125977 7.283988e-06   0.42218912 0.0059061916            0   0.41628292    1.3034674    1.7256565    2.4715369 
 4190000   0.82455147 2.1568767e-05   0.51677564  0.018839558            0   0.49793608    1.2059065    1.7226822    3.9313239 
 4195000   0.95720915  2.99315e-06   0.35167972 0.0076872961            0   0.34399242    1.3999184    1.7515981    2.0580967 
 4200000   0.91210091 2.7221971e-05   0.40018535  0.011312772            0   0.38887258    1.3339476    1.7341329    4.5216627 
 4205000   0.87835706 -1.6676818e-05   0.42671461  0.010236685            0   0.41647793    1.2845972    1.7113118 0.0036056371 
 4210000   0.78773808 -7.5649884e-05   0.54864041 0.0016787047            0   0.54696171    1.1520669    1.7007074   -6.0458408 
 4215000   0.93620843 1.1326033e-06   0.34652046 0.00011339041            0   0.34640707    1.3692048    1.7157253    1.8317039 
 4220000   0.86804984 8.0832298e-07   0.43252078 0.00079574053            0   0.43172504    1.2695229    1.7020437    1.7848159 
 4225000    0.8702873 -2.5256371e-05   0.47012419  0.021202787            0    0.4489214    1.2727952    1.7429194  -0.84333305 
 4230000   0.94668752 -7.7612695e-05   0.38666134  0.028972968            0   0.35768837    1.3845305    1.7711918   -6.1763481 
 4235000    0.8428954 -4.9064633e-06   0.53984418  0.023660216            0   0.51618396    1.2327345    1.7725787    1.2701569 
 4240000    0.9727601 4.3358255e-05   0.33652548  0.021252926            0   0.31527255    1.4226616    1.7591871    6.1990724 
 4245000   0.90550192 -1.712523e-05   0.42775638  0.019006501            0   0.40874988    1.3242966    1.7520529 -0.0015705716 
 4250000    0.8617419 -1.5586717e-05   0.47908013 0.0083940863            0   0.47068605    1.2602975    1.7393777   0.14329786 
 4255000    0.9357417 -4.1462456e-05   0.40364585 1.2926593e-05            0   0.40363293    1.3685222    1.7721681   -2.4735874 
 4260000   0.92534241 -4.7687344e-05   0.40569526 0.0065800282            0   0.39911523    1.3533133    1.7590085   -3.1241755 
 4265000   0.90794064 4.956377e-07   0.41590867  0.041898264            0   0.37401041    1.3278632    1.7437719    1.7945252 
 4270000   0.87029386 3.2670606e-05   0.47453048    0.1009676            0   0.37356288    1.2728048    1.7473352    5.0928053 
 4275000   0.84779387 2.3412216e-05   0.47355796  0.014670102            0   0.45888786    1.2398985    1.7134565    4.1108675 
 4280000   0.98074147 -3.7136323e-05   0.33494956 0.0020455963            0   0.33290397    1.4343344     1.769284   -2.0334755 
 4285000    0.8803384 -9.7789976e-05   0.41703934 0.0013484591            0   0.41569088    1.2874949    1.7045342   -8.3091593 
 4290000   0.97189667 -2.4296409e-05   0.29273628 0.0013442508            0   0.29139202    1.4213989    1.7141352  -0.77381712 
 4295000   0.86580397 4.4426526e-05   0.48028848  0.003316735            0   0.47697175    1.2662383    1.7465268     6.295803 
 4300000   0.79363109 -3.6065625e-05   0.55777604  0.022964826            0   0.53481122    1.1606855    1.7184615   -1.9746585 
 4305000   0.91138568 -6.0885786e-05   0.39828848  0.034994654            0   0.36329383    1.3329016      1.73119   -4.5035144 
 4310000   0.85569956 -2.7537474e-05   0.48149695   0.14033039            0   0.34116655    1.2514606    1.7329575   -1.0868798 
 4315000   0.94093811 -1.4579452e-05   0.39289296  0.019661388            0   0.37323157     1.376122    1.7690149   0.27607903 
 4320000   0.94021596 -1.4050439e-05   0.44839524 0.00013058174            0   0.44826465    1.3750658    1.8234611   0.38469617 
 4325000   0.99443536 5.0739536e-06   0.36559212 0.00066878579            0   0.36492334    1.4543617    1.8199538    2.3395267 
 4330000   0.91435476 3.838792e-05   0.44022037  0.010225008            0   0.42999536    1.3372438    1.7774642    5.7083872 
 4335000   0.89086531 3.4545501e-05   0.48319676  0.043841766            0     0.439355    1.3028905    1.7860873    5.3235465 
 4340000   0.78947872 1.5446688e-05   0.61406289  0.075788731            0   0.53827416    1.1546126    1.7686755    3.3504164 
 4345000   0.92579059 -1.8460202e-05   0.42184661   0.03997721            0    0.3818694    1.3539687    1.7758153  -0.11450929 
 4350000   0.95192433 -6.1742609e-05   0.36768993  0.006849749            0   0.36084018    1.3921893    1.7598793   -4.5625639 
 4355000   0.90255423 -7.6776673e-05   0.46222466   0.00276753            0   0.45945713    1.3199856    1.7822102   -6.0797211 
 4360000   0.84257994 -3.2012645e-05   0.55077926   0.03759646            0    0.5131828    1.2322732    1.7830524   -1.4950425 
 4365000   0.91905767 -2.8833526e-05   0.41718047  0.034968281            0   0.38221219    1.3441218    1.7613023   -1.1912507 
 4370000   0.94594481 -1.0847249e-07        0.391  0.006136167            0   0.38486383    1.3834443    1.7744443    1.7633367 
 4375000   0.87607876 1.5881772e-05   0.47429128 0.0010779172            0   0.47321336    1.2812652    1.7555565    3.3818499 
 4380000   0.83864076 -8.9413968e-06     0.521409 0.0035752485            0   0.51783376    1.2265121    1.7479211   0.83232208 
 4385000    0.9228007 3.163698e-05   0.39350092  0.069349551            0   0.32415136     1.349596    1.7430969    4.9827237 
 4390000   0.87568706 5.9944917e-06   0.40636555  0.039374219            0   0.36699133    1.2806923    1.6870579    2.3008938 
 4395000     0.834064 -7.0636506e-05   0.47702663  0.016499558            0   0.46052707    1.2198186    1.6968452    -5.536333 
 4400000   0.86110057 2.3690779e-05   0.42595873  0.025527637            0   0.40043109    1.2593596    1.6853183    4.1112541 
 4405000   0.92981664 5.9457039e-05   0.34470585  0.010009526            0   0.33469633    1.3598568    1.7045627    7.7929635 
 4410000    0.9223026 3.3462699e-06    0.3717214 0.0075774361            0   0.36414396    1.3488676    1.7205889     2.063247 
 4415000   0.77818798 -6.1803224e-06   0.60255963  0.027225882            0   0.57533375    1.1380999    1.7406595    1.1077945 
 4420000     0.837267 1.0554325e-05   0.51184414  0.074879041            0    0.4369651     1.224503    1.7363471      2.81711 
 4425000   0.89163843 4.3117584e-05   0.42244975  0.016921949            0    0.4055278    1.3040212     1.726471    6.1417116 
 4430000   0.88173125 6.1110561e-05   0.48215051 0.0015398528            0   0.48061066     1.289532    1.7716825    8.0294039 
 4435000   0.84991237 1.0287736e-05   0.51267205  0.049636347            0    0.4630357    1.2429968    1.7556689     2.809133 
 4440000   0.90475534 -6.9607121e-06   0.46981097  0.029778811            0   0.44003216    1.3232047    1.7930157    1.0802387 
 4445000    1.0115672 4.4987395e-05   0.32110972 0.00088209832            0   0.32022762     1.479417    1.8005267     6.407236 
 4450000   0.87306365 9.8113494e-05   0.54658837 0.0040906245            0   0.54249775    1.2768556     1.823444    11.870266 
 4455000   0.94327796 9.6889079e-05   0.40332292  0.012671699            0   0.39065122     1.379544    1.7828669    11.704309 
 4460000   0.85392797 3.5378285e-05    0.5128498  0.061706212            0   0.45114359    1.2488697    1.7617195    5.3844558 
 4465000   0.75929449 -2.3615205e-05   0.66542274   0.04457554            0    0.6208472    1.1104682    1.7758909  -0.64230609 
 4470000   0.97604435 -5.1854103e-05   0.35542167 0.0049687737            0   0.35045289    1.4274649    1.7828865   -3.5269736 
 4475000   0.93106313 1.402366e-05   0.40916757            0            0   0.40916757    1.3616798    1.7708474    3.2068701 
 4480000   0.85760748 1.831476e-05   0.51378697            0            0   0.51378697    1.2542509    1.7680379    3.6434694 
 4485000   0.93768059 -8.700853e-05   0.39111874            0            0   0.39111874    1.3713579    1.7624766   -7.1471968 
 4490000   0.87752203 -8.6958507e-05    0.4610815            0            0    0.4610815     1.283376    1.7444575   -7.1600936 
 4495000   0.94092691 -5.0584491e-06   0.43053102            0            0   0.43053102    1.3761056    1.8066366    1.2886514 
 4500000   0.94110041 1.3509028e-05   0.42143586 0.0043653555            0   0.41707051    1.3763594    1.7977952    3.1811197 
 4505000   0.95199714 -1.8477162e-05   0.42140155  0.012282826            0   0.40911872    1.3922958    1.8136974 -0.078363985 
 4510000    0.9849155 7.4379735e-06   0.31769015  0.010034412            0   0.30765574    1.4404389    1.7581291    2.5197776 
 4515000   0.91653156 7.5583416e-05   0.42741993  0.002557735            0    0.4248622    1.3404274    1.7678473    9.5075892 
 4520000   0.92765159 7.0847368e-05      0.40558 0.00080345738            0   0.40477655    1.3566905    1.7622705     9.017041 
 4525000   0.93057706 -2.0579406e-05    0.3835949  0.014965252            0   0.36862965    1.3609689    1.7445638  -0.36276733 
 4530000   0.86539755 -4.4884858e-05   0.49838681  0.020532973            0   0.47785384    1.2656439    1.7640307   -2.8321787 
 4535000   0.94722666 1.766923e-05   0.40568147  0.023624352            0   0.38205712     1.385319    1.7910005    3.6003296 
 4540000   0.93653204 7.5641363e-05    0.4482206  0.034381082            0   0.41383952    1.3696781    1.8178987    9.5635743 
 4545000   0.86415149 6.4491523e-05   0.55343259  0.037835282            0    0.5155973    1.2638216    1.8172541    8.4211861 
 4550000   0.86016785 -2.8143221e-05   0.58050605  0.085351478            0   0.49515457    1.2579955    1.8385015   -1.0433643 
 4555000   0.92460242 -4.8903242e-05   0.45837962  0.091293591            0   0.36708603     1.352231    1.8106107   -3.1970813 
 4560000   0.85403528 -2.9395167e-05   0.60372895  0.034640068            0   0.56908888    1.2490266    1.8527555   -1.1573096 
 4565000    0.9401482 9.0925385e-06   0.49204591  0.055979521            0   0.43606638    1.3749667    1.8670126    2.7980886 
 4570000   0.99363803 4.9411724e-05   0.44512337   0.10060236            0   0.34452101    1.4531956     1.898319    6.9580795 
 4575000   0.90079098 8.1651843e-06   0.58297669  0.026404717            0   0.55657198    1.3174068    1.9003835    2.7364984 
 4580000    0.8985046 -1.3509732e-05   0.56664003 0.0050827431            0   0.56155729     1.314063     1.880703   0.49730649 
 4585000    1.0136225 -1.6382541e-05   0.37752997  0.008018311            0   0.36951166     1.482423    1.8599529   0.18238077 
 4590000   0.94496017 -5.4774462e-05   0.47301582  0.034116918            0    0.4388989    1.3820042    1.8550201   -3.7538848 
 4595000   0.93262313 -4.0429303e-06   0.47989442  0.022080041            0   0.45781438    1.3639613    1.8438558    1.4298597 
 4600000   0.93547434 3.7906238e-07   0.46096483  0.068059127            0   0.39290571    1.3681312    1.8290961     1.867912 
 4605000   0.88126344 -2.1362193e-05   0.55023826  0.096834704            0   0.45340356    1.2888478    1.8390861  -0.34840247 
 4610000     1.028434 -1.5107905e-07   0.39613044   0.12535465            0   0.27077579    1.5040847    1.9002152    1.8847447 
 4615000   0.99862127 3.9688932e-05   0.40712114  0.018874796            0   0.38824634    1.4604836    1.8676048    5.9317514 
 4620000   0.94191485 2.8335385e-05   0.48070783  0.066959735            0   0.41374809    1.3775505    1.8582583    4.7598017 
 4625000   0.99091763 -8.5857946e-07   0.39852302  0.023227927            0   0.37529509     1.449217    1.8477401    1.7598215 
 4630000   0.95738797 1.4510432e-06   0.42468576  0.038803382            0   0.38588238    1.4001799    1.8248657    1.9734525 
 4635000    1.0238587 -2.7846098e-06   0.34660345  0.048103804            0   0.29849965    1.4973934    1.8439968    1.5588528 
 4640000    1.0092447 -3.1248762e-06   0.38084183  0.038705762            0   0.34213606    1.4760203    1.8568621    1.5368748 
 4645000   0.97338185 2.8291466e-05    0.4466453 0.0038022694            0   0.44284303     1.423571    1.8702163    4.7672624 
 4650000    1.0021285 5.1668219e-05   0.37568255 0.00014199671            0   0.37554055     1.465613    1.8412955    7.1321212 
 4655000    1.0032514 -9.6859922e-06   0.38715429            0            0   0.38715429    1.4672551    1.8544094   0.86256379 
 4660000   0.91165747 -5.406874e-05   0.47695345            0            0   0.47695345    1.3332991    1.8102525   -3.7263864 
 4665000    1.0004321 -5.3112507e-05   0.32048406            0            0   0.32048406    1.4631319     1.783616   -3.6551047 
 4670000   0.95044837 -2.3974056e-05   0.39298862 0.00050226437            0   0.39248636    1.3900307    1.7830194    -0.671924 
 4675000   0.96167025 -1.7046994e-05   0.40267305 0.0099410735            0   0.39273198    1.4064427    1.8091158  0.063503575 
 4680000     1.011427 -8.3227348e-05   0.36724419  0.025444635            0   0.34179955     1.479212    1.8464561   -6.6760243 
 4685000    1.0016642 -1.4078632e-05   0.40339069  0.072020413            0   0.33137028    1.4649339    1.8683246   0.42667261 
 4690000    1.0074413 3.976934e-05   0.36911364  0.049500908            0   0.31961273    1.4733829    1.8424965     5.914877 
 4695000   0.94480757 6.0337986e-05   0.43135477  0.019637506            0   0.41171726    1.3817811    1.8131358    7.9917457 
 4700000   0.94598777 0.00010456138    0.4213637   0.03537827            0   0.38598543    1.3835071    1.8048708    12.511956 
 4705000   0.96178035 1.7051448e-05   0.37660515  0.060804444            0    0.3158007    1.4066038    1.7832089    3.5292772 
 4710000   0.94724295 -1.7668024e-05   0.42734762  0.051107403            0   0.37624021    1.3853428    1.8126904 0.0034847597 
 4715000   0.90966931 -6.7295357e-05    0.4625189  0.027034368            0   0.43548453    1.3303914    1.7929103   -5.0981343 
 4720000    1.0014732 -4.6037948e-05   0.34225202  0.021810932            0   0.32044109    1.4646546    1.8069066   -2.9073793 
 4725000   0.94985019 1.1313399e-05   0.37385876  0.061552243            0   0.31230652    1.3891559    1.7630147    2.9215067 
 4730000    1.0336594 3.9216244e-05   0.27915072 0.0066223298            0   0.27252839    1.5117269    1.7908776     5.806621 
 4735000    0.9819899 4.3926535e-05   0.36513594            0            0   0.36513594    1.4361602    1.8012962    6.2993733 
 4740000    1.0206888 -6.2210244e-06   0.35418264 0.0022319681            0   0.35195067    1.4927573      1.84694    1.2099071 
 4745000   0.97712966 -3.7878857e-05   0.39887987  0.016280773            0    0.3825991    1.4290521     1.827932    -2.050863 
 4750000    1.0384327 -3.21489e-05   0.30784567  0.029588695            0   0.27825697    1.5187078    1.8265535   -1.4654939 
 4755000   0.92107306 -3.9601385e-05   0.43793029  0.033730522            0   0.40419977    1.3470694    1.7849996   -2.2701821 
 4760000   0.97267739 -1.9212338e-07   0.39331731  0.029157298            0   0.36416001    1.4225407     1.815858    1.7961846 
 4765000   0.94809011 5.4892216e-05   0.42446133  0.099579237            0   0.32488209    1.3865818    1.8110431     7.432006 
 4770000   0.88809037 2.7290674e-05   0.52614834    0.1247709            0   0.40137745    1.2988322    1.8249805    4.6195455 
 4775000   0.92700551 3.2708587e-05   0.45400814  0.010842364            0   0.44316577    1.3557456    1.8097537     5.159113 
 4780000   0.92729999 5.0695785e-05   0.41690997   0.01854576            0   0.39836421    1.3561762    1.7730862    6.9643346 
 4785000   0.98735416 -4.2753912e-06   0.34319046  0.014017179            0   0.32917329    1.4440055    1.7871959    1.3493959 
 4790000   0.99042033 1.2186405e-05   0.37852596  0.022215535            0   0.35631043    1.4484897    1.8270157    3.0749036 
 4795000   0.97957678 3.680656e-05   0.39461384  0.012839926            0   0.38177391     1.432631    1.8272449    5.5962366 
 4800000    1.0179446 4.0120326e-05   0.34744295 0.0024197774            0   0.34502317     1.488744    1.8361869    5.9445084 
 4805000   0.99115639 9.7930879e-06     0.367707  0.060760502            0    0.3069465    1.4495662    1.8172732    2.8200854 
 4810000    1.0342111 -8.0442787e-05   0.31884089  0.012114245            0   0.30672664    1.5125337    1.8313746   -6.4059667 
 4815000   0.97216932 -4.2088409e-05   0.39754085 0.0089285603            0   0.38861229    1.4217976    1.8193385   -2.4905145 
 4820000   0.96302664 -3.8642848e-05    0.3906622  0.052645654            0   0.33801655    1.4084265    1.7990887    -2.157939 
 4825000    0.9210828 -4.8340341e-05   0.49411399  0.084539514            0   0.40957448    1.3470836    1.8411976   -3.1088533 
 4830000    1.0258788 -2.7517757e-06   0.31344019  0.011577325            0   0.30186286    1.5003478     1.813788    1.5320061 
 4835000   0.97689627 -8.3212061e-06    0.3637029 0.00066988961            0   0.36303301    1.4287108    1.7924137   0.94032219 
 4840000   0.97252878 2.6468393e-05    0.4379334 0.0078352756            0   0.43009813    1.4223233    1.8602567    4.5706202 
 4845000   0.96338847 4.7722014e-05   0.47049914  0.076446811            0   0.39405233    1.4089556    1.8794548    6.7661891 
 4850000   0.93371974 3.4096327e-07   0.52074981  0.030819843            0   0.48992997    1.3655651    1.8863149    1.9212296 
 4855000   0.87916409 -1.9251991e-06    0.5754025  0.054172192            0    0.5212303    1.2857775      1.86118    1.6640396 
 4860000   0.91461404 -1.2291249e-05     0.537821  0.071359413            0   0.46646159     1.337623     1.875444   0.61682018 
 4865000   0.97613389 2.2793163e-05   0.43461311  0.036308894            0   0.39830422    1.4275958    1.8622089    4.1962289 
 4870000   0.95478792 1.4141427e-05   0.45720126  0.011793618            0   0.44540764    1.3963773    1.8535786    3.3016607 
 4875000   0.96310401 -4.7728121e-05   0.45154636 0.0052113878            0   0.44633497    1.4085396     1.860086   -3.0272737 
 4880000   0.95514771 1.5038425e-05   0.47115784 9.9184696e-05            0   0.47105866    1.3969035    1.8680614    3.4079961 
 4885000   0.93107048 -1.9516065e-05   0.46099129   0.02185747            0   0.43913382    1.3616906    1.8226819  -0.17576319 
 4890000   0.91989116 -3.4934701e-05   0.46907259   0.12001945            0   0.34905314    1.3453408    1.8144134      -1.7629 
 4895000   0.93419455 -1.7088416e-05   0.46425117  0.030562673            0    0.4336885    1.3662595    1.8305107  0.080656862 
 4900000    1.0051256 -2.8506168e-05   0.36507166 0.00099506289            0    0.3640766    1.4699962    1.8350679   -1.0839637 
 4905000   0.92411873 7.1772901e-05   0.50554006 0.0032644427            0   0.50227561    1.3515236    1.8570637    9.2066088 
 4910000   0.93188683 8.7250443e-05   0.49423464  0.088134029            0   0.40610062    1.3628845    1.8571191    10.791564 
 4915000    0.9061489 6.4281655e-05   0.53245678   0.11305445            0   0.41940232    1.3252428    1.8576995     8.440141 
 4920000   0.87504414 1.7728062e-05   0.56486185  0.062050938            0   0.50281092    1.2797521    1.8446139    3.6599675 
 4925000    1.0253717 2.6578472e-05   0.35129848  0.010518953            0   0.34077953    1.4996061    1.8509046    4.5725401 
 4930000   0.98546616 2.1330169e-05   0.39175962  0.013469858            0   0.37828976    1.4412443    1.8330039    4.0172132 
 4935000    0.8865713 -8.4335292e-05   0.55208521  0.038327557            0   0.51375765    1.2966105    1.8486957   -6.7872381 
 4940000   0.96142273 -9.2217003e-06   0.43511114  0.059600623            0   0.37551052    1.4060807    1.8411919   0.89688977 
 4945000   0.95938855 3.7710752e-05    0.4570265  0.017746036            0   0.43928046    1.4031058    1.8601323    5.7217133 
 4950000   0.97942345 8.3292582e-06   0.39098849  0.022740349            0   0.36824814    1.4324068    1.8233953    2.6763113 
 4955000   0.95265102 1.7390635e-05   0.46007577  0.021405301            0   0.43867047    1.3932521    1.8533279    3.6341289 
 4960000   0.99593732 3.3720713e-05   0.39713522 0.0075775183            0    0.3895577    1.4565583    1.8536936    5.3066945 
 4965000    1.0441816 2.0024633e-05   0.33845695 0.00081246914            0   0.33764448    1.5271157    1.8655726     3.916095 
 4970000   0.96434833 -1.3524782e-06   0.45269923 0.00045082636            0   0.45224841    1.4103594    1.8630587    1.7245649 
 4975000   0.94963877 4.1939246e-06   0.48648765 0.0073844906            0   0.47910316    1.3888467    1.8753343    2.3047922 
 4980000   0.98081749 -2.3611897e-05   0.40592307  0.012892414            0   0.39303066    1.4344456    1.8403686  -0.57748965 
 4985000   0.96992203 -7.6175032e-05    0.4296933 0.00056806108            0   0.42912524     1.418511    1.8482043   -5.9521191 
 4990000    1.0045023 -7.7047411e-05   0.40082728 0.0036880218            0   0.39713926    1.4690846    1.8699119    -6.019743 
 4995000   0.93054953 -5.162825e-05    0.5354271  0.053067533            0   0.48235956    1.3609287    1.8963558    -3.390377 
 5000000     0.958064 -3.5198965e-05   0.48867366  0.053083622            0   0.43559004    1.4011686    1.8898423   -1.7145318 
 5005000   0.98220236 -6.3087702e-05   0.45421015  0.033125681            0   0.42108447     1.436471    1.8906811   -4.5694996 
 5010000   0.96290765 -3.3916511e-06   0.45956138  0.056774247            0   0.40278713    1.4082524    1.8678138    1.5205087 
 5015000    1.0061904 2.8927622e-05   0.45204227  0.022396586            0   0.42964569    1.4715535    1.9235958    4.8857843 
 5020000    1.0285265 3.0004105e-05    0.4340971  0.021637135            0   0.41245997    1.5042199     1.938317    5.0107374 
 5025000    1.0218475 -1.0339086e-05   0.46030779  0.023710353            0   0.43659743     1.494452    1.9547598   0.89603731 
 5030000    1.0363817 -2.3055568e-05   0.44076832  0.093083841            0   0.34768447    1.5157082    1.9564765  -0.40441367 
 5035000   0.85659495 1.3965874e-06   0.66333701  0.072180732            0   0.59115627    1.2527701    1.9161071    2.0591177 
 5040000   0.93768722 3.3507568e-05   0.54311396 0.0010277659            0    0.5420862    1.3713676    1.9144815    5.3456565 
 5045000    1.0101273 2.2156396e-05   0.46074144            0            0   0.46074144    1.4773112    1.9380527    4.2068676 
 5050000    1.0724554 2.9168915e-05   0.34897659            0            0   0.34897659    1.5684661    1.9174427    4.9043396 
 5055000    1.0077526 3.9772692e-05   0.43915278            0            0   0.43915278    1.4738382     1.912991    5.9857147 
 5060000    1.0143512 5.6325724e-05   0.45465547            0            0   0.45465547    1.4834886     1.938144    7.7058981 
 5065000    1.0268514 6.4029295e-05   0.44883771            0            0   0.44883771    1.5017702    1.9506079    8.5072076 
 5070000    1.0361445 -9.9443737e-06    0.4406016            0            0    0.4406016    1.5153613    1.9559629   0.93765901 
 5075000   0.99864471 -3.0429275e-05   0.45669157 0.00012470831            0   0.45656686    1.4605179    1.9172095   -1.1987483 
 5080000   0.95256467 2.4185044e-05   0.54694627  0.014436474            0    0.5325098    1.3931258    1.9400721    4.4166206 
 5085000   0.99186944 1.954141e-05   0.51163559  0.024322077            0   0.48731351    1.4506091    1.9622447     3.963285 
 5090000    1.0140277 -1.386558e-05   0.45436649  0.011017475            0   0.44334901    1.4830156     1.937382   0.51754665 
 5095000    1.0724047 5.6674542e-05   0.35359451  0.010004579            0   0.34358994    1.5683918    1.9219863    7.7254594 
 5100000     1.085095 5.7500362e-05   0.35359679  0.004324749            0   0.34927204    1.5869514    1.9405482    7.8285853 
 5105000    1.0233646 1.7483778e-05   0.46741302 0.0029872957            0   0.46442573    1.4966707    1.9640838    3.7544226 
 5110000    1.0056717 6.6534869e-06   0.46077843  0.040338982            0   0.42043945    1.4707948    1.9315732    2.6128903 
 5115000   0.98334418 5.1261982e-05    0.4792737  0.043453678            0   0.43582002    1.4381409    1.9174146    7.1666416 
 5120000    0.9112014 9.0380194e-05   0.56541612  0.069932181            0   0.49548393     1.332632    1.8980482     11.15298 
 5125000     1.022569 2.105865e-05   0.40956618  0.033286147            0   0.37628003    1.4955071    1.9050733     4.061479 
 5130000   0.99562501 1.7461133e-05   0.45105748  0.015264557            0   0.43579292    1.4561016    1.9071591    3.6951791 
 5135000   0.98374722 1.7466209e-05   0.47461963 0.0081180581            0   0.46650157    1.4387303    1.9133499    3.7018898 
 5140000    1.0267154 2.187167e-05   0.42570764 0.0047554731            0   0.42095217    1.5015713     1.927279     4.166938 
 5145000    1.0185587 8.940348e-05   0.42216645 0.0029321349            0   0.41923431    1.4896421    1.9118086    11.066725 
 5150000    1.0800831 6.0966425e-05    0.3706457 0.0023513999            0    0.3682943    1.5796216    1.9502673    8.1932292 
 5155000    1.0422819 2.1166685e-05   0.44539544 0.0079273035            0   0.43746813    1.5243373    1.9697328    4.1372013 
 5160000    1.0652998 -3.4410854e-06   0.37848477  0.014395429            0   0.36408934    1.5580009    1.9364857    1.5841185 
 5165000    1.0547763 -7.3107628e-05   0.36980538 0.0051623971            0   0.36464299    1.5426104    1.9124157   -5.5738053 
 5170000    1.0485055 -7.5756685e-06   0.40551789 0.0025263483            0   0.40299154    1.5334393    1.9389572    1.1632087 
 5175000    1.0103647 5.0626318e-05   0.43351372 0.0012643367            0   0.43224939    1.4776583    1.9111721     7.095307 
 5180000    1.0263366 1.2016676e-05   0.41174132            0            0   0.41174132    1.5010173    1.9127587    3.1432663 
 5185000   0.98356666 -6.0744349e-06   0.47939536            0            0   0.47939536    1.4384662    1.9178616    1.2958395 
 5190000   0.97533106 -7.7007313e-05   0.45957115            0            0   0.45957115    1.4264217    1.8859928    -5.999556 
 5195000   0.93219475 -8.7230884e-05   0.54676242  0.033980387            0   0.51278203    1.3633348    1.9100972   -7.0223453 
 5200000   0.90419913 4.0257964e-05   0.58409669   0.10694748            0   0.47714921    1.3223912    1.9064879    6.0289034 
 5205000   0.95058626 3.8237052e-05   0.49462498 0.0085367816            0   0.48608819    1.3902324    1.8848574    5.8003315 
 5210000   0.91873542 -6.5925178e-07   0.52937329 0.0031728339            0   0.52620045    1.3436505    1.8730238    1.8055165 
 5215000    1.0397173 1.5537685e-06   0.29917261 0.0082418392            0   0.29093077    1.5205866    1.8197592    1.9788651 
 5220000   0.89689813 2.3233342e-05   0.52123897 0.0062143794            0   0.51502459    1.3117135    1.8329525    4.2120467 
 5225000   0.91416456 7.3378421e-05   0.52476686 0.0064710879            0   0.51829577    1.3369657    1.8617325    9.3756828 
 5230000   0.96605493 4.2436186e-05   0.44386474 0.0089792952            0   0.43488544    1.4128553    1.8567201    6.2021855 
 5235000   0.97236055 -4.0275527e-05   0.47512061  0.042566145            0   0.43255446    1.4220773    1.8971979    -2.227016 
 5240000   0.98562842 -3.8183856e-05   0.47925499  0.098642528            0   0.38061247    1.4414816    1.9207366   -1.9892903 
 5245000    0.8825885 -2.7218286e-05    0.6430244  0.062240166            0   0.58078424    1.2907857    1.9338101  -0.85334241 
 5250000   0.99186894 -1.0821146e-05   0.44109461  0.012141862            0   0.42895275    1.4506083    1.8917029   0.78361761 
 5255000   0.94522939 2.2037608e-05   0.48539758 0.0016744399            0   0.48372314     1.382398    1.8677956    4.1244466 
 5260000   0.83687655 3.3303823e-05   0.66629418  0.012745005            0   0.65354918     1.223932    1.8902261    5.3005376 
 5265000   0.94770842 5.733315e-05   0.47577091 0.0055243845            0   0.47024652    1.3860236    1.8617945     7.732709 
 5270000   0.86619715 5.1606436e-05   0.58564352  0.013415941            0   0.57222758    1.2668133    1.8524569    7.1369559 
 5275000   0.89575396 -1.8141561e-05   0.55449468  0.061950344            0   0.49254434    1.3100402    1.8645349 0.0068390359 
 5280000    1.0006584 -2.9122562e-05   0.39620416  0.002864272            0   0.39333989    1.4634629     1.859667   -1.1224834 
 5285000    1.0099308 -3.2347363e-06   0.38151134            0            0   0.38151134    1.4770238    1.8585351    1.5272981 
 5290000    1.0108248 6.7603533e-06   0.38394237  0.017525667            0    0.3664167    1.4783312    1.8622736    2.5545338 
 5295000   0.86838137 2.5881413e-05   0.58458216  0.074128394            0   0.51045376    1.2700078    1.8545899    4.5048466 
 5300000   0.94889473 5.5066511e-05   0.50095204  0.027610414            0   0.47334163    1.3877585    1.8887106    7.5275213 
 5305000    1.0442286 4.0343714e-05   0.39931674   0.02931792            0   0.36999882    1.5271843    1.9265011    6.0576974 
 5310000   0.95058048 -2.200419e-05   0.56791311    0.1116221            0   0.45629101     1.390224    1.9581371  -0.29509203 
 5315000    1.0041693 -3.1742111e-05   0.51424509   0.10715429            0    0.4070908    1.4685976    1.9828427   -1.2675495 
 5320000    1.0758412 5.9115586e-06   0.42045761  0.061100498            0   0.35935711    1.5734178    1.9938754     2.599219 
 5325000    1.0853166 3.0347054e-05   0.44321869  0.007026181            0   0.43619251    1.5872755    2.0304942    5.1380325 
 5330000    1.0986252 -8.1130606e-06   0.44260705  0.014000826            0   0.42860622    1.6067394    2.0493464     1.218569 
 5335000    1.0153706 -1.3511285e-05   0.54690565  0.030553925            0   0.51635173    1.4849796    2.0318852   0.64832966 
 5340000    1.0040906 4.6679124e-05   0.54583764  0.010251964            0   0.53558568    1.4684826    2.0143202    6.7942625 
 5345000    1.0042929 4.2789222e-05   0.51592767 1.5179085e-05            0   0.51591249    1.4687783     1.984706    6.3663224 
 5350000     1.043503 4.5668667e-05   0.46400376            0            0   0.46400376    1.5261232     1.990127    6.6665984 
 5355000    1.0485421 -1.8190532e-05   0.45480899  0.016570891            0    0.4382381    1.5334928    1.9883018   0.12559135 
 5360000    1.0383822 -5.9747596e-06   0.47645261  0.067555844            0   0.40889676     1.518634    1.9950866    1.3832713 
 5365000    1.0631795 -5.9183591e-06   0.43656161 0.0003892397            0   0.43617237       1.5549    1.9914617    1.3854217 
 5370000    1.0822161 -2.5246091e-05   0.44755521 0.0010949913            0   0.44646022    1.5827411    2.0302963  -0.55490344 
 5375000    1.0413186 2.2259744e-05   0.52612643 0.0039680856            0   0.52215834    1.5229284    2.0490549    4.3284526 
 5380000    1.1214621 3.3296501e-05   0.40715001 0.0047356821            0   0.40241432    1.6401383    2.0472883    5.4568499 
 5385000    1.0766152 -1.2698944e-05   0.46406584 0.0020520648            0   0.46201377    1.5745497    2.0386155   0.73824363 
 5390000   0.98080486 -2.4749731e-05   0.56473205  0.030629727            0   0.53410233    1.4344271    1.9991592  -0.53521334 
 5395000    1.0376157 -2.3130509e-05   0.46034823  0.062413303            0   0.39793493     1.517513    1.9778612  -0.39070296 
 5400000    1.0312141 -2.514535e-06   0.47051636  0.038373969            0   0.43214239    1.5081506    1.9786669    1.7211785 
 5405000    1.0194668 5.3824772e-05   0.43951535  0.026406511            0   0.41310884    1.4909702    1.9304855    7.4421421 
 5410000    1.0365798 1.7428461e-05   0.45581563 0.0063320865            0   0.44948355    1.5159979    1.9718136     3.756488 
 5415000    1.0219253 -5.2606307e-05   0.48578847  0.012681486            0   0.47310699    1.4945657    1.9803542   -3.4065316 
 5420000    1.1065384 -4.152183e-05      0.36234  0.017015317            0   0.34532468    1.6183124    1.9806524    -2.271183 
 5425000    1.0707134 3.4092204e-07   0.43225788   0.03306023            0   0.39919765    1.5659184    1.9981763    2.0330867 
 5430000    1.0614541 -2.5353032e-05   0.43357719   0.00878668            0   0.42479051    1.5523767    1.9859539  -0.61019663 
 5435000   0.92509218 -7.7519891e-05   0.63876135            0            0   0.63876135    1.3529473    1.9917087   -5.9463282 
 5440000    1.0408911 -7.6601361e-05   0.48584873            0            0   0.48584873    1.5223033     2.008152   -5.8358274 
 5445000    1.0919735 -3.281291e-05   0.44078542  0.026054348            0   0.41473108    1.5970113    2.0377967   -1.3222452 
 5450000   0.93924738 3.7608673e-05    0.6807931   0.13537975            0   0.54541335    1.3736493    2.0544424    5.9055706 
 5455000   0.99835501 6.3992697e-05    0.5573344     0.019946            0    0.5373884    1.4600942    2.0174286    8.5702808 
 5460000    1.0430183 7.9563559e-05   0.45510166  0.012413387            0   0.44268827    1.5254143     1.980516    10.127824 
 5465000    1.0322317 4.9822194e-05   0.44153231  0.007211374            0   0.43432094    1.5096388    1.9511711    7.0529638 
 5470000    1.0015701 8.7701373e-07   0.50195121  0.038502319            0   0.46344889    1.4647962    1.9667475    2.0565537 
 5475000    1.0418972 1.4620745e-06   0.45383587  0.054665047            0   0.39917082    1.5237747    1.9776106     2.127327 
 5480000   0.98325444 6.0448603e-05   0.52814479  0.020539586            0    0.5076052    1.4380096    1.9661544    8.1560914 
 5485000    1.0767507 5.3819837e-05   0.41762353 0.0019393345            0   0.41568419    1.5747479    1.9923714    7.5035227 
 5490000    1.1549742 -5.1746276e-05   0.32284506 0.0013346689            0   0.32151039    1.6891497    2.0119948   -3.2868239 
 5495000    1.0929518 -9.797908e-05   0.42136714 0.0045868561            0   0.41678028     1.598442    2.0198092   -8.0132486 
 5500000    1.0072812 -1.1671711e-05   0.50164956 0.0070061181            0   0.49464345    1.4731488    1.9747984   0.77961514 
 5505000   0.98045074 1.4155837e-05    0.4861073 0.0052187056            0   0.48088859    1.4339092    1.9200165    3.3695742 
 5510000   0.94055623 3.7547425e-05    0.5131618   0.02147048            0   0.49169132    1.3755635    1.8887253    5.7335816 
 5515000   0.96962692 9.2436829e-05   0.48432091  0.076409516            0   0.40791139    1.4180794    1.9024003    11.367932 
 5520000   0.96855051 7.7263049e-05   0.48445225 0.0022665763            0   0.48218567    1.4165051    1.9009574    9.8126936 
 5525000   0.96386919 -3.5077416e-06   0.54379926 0.0050417219            0   0.53875754    1.4096587    1.9534579    1.5942652 
 5530000   0.90056713 -3.5837459e-05   0.61780435   0.10562255            0   0.51218181    1.3170794    1.9348838    -1.734872 
 5535000    1.0071539 1.4045053e-05   0.46639374  0.036697062            0   0.42969668    1.4729625    1.9393562    3.3775697 
 5540000    0.9527915 7.5916923e-05   0.51490348 0.0086757463            0   0.50622774    1.3934576     1.908361    9.6822539 
 5545000   0.91592423 1.3789574e-05   0.56318425 0.0061167187            0   0.55706753    1.3395392    1.9027234    3.3147758 
 5550000    1.0352121 1.9028171e-05   0.38789196 0.0027802902            0   0.38511167    1.5139978    1.9018897    3.8503744 
 5555000   0.95820346 5.1108159e-05   0.50505703  0.012147013            0   0.49291002    1.4013726    1.9064296    7.1399051 
 5560000    1.0253744 2.8672131e-05   0.43355391 0.0078184462            0   0.42573546    1.4996101     1.933164    4.8691902 
 5565000   0.89194809 2.0089089e-05   0.61708594 0.00066126186            0   0.61642468    1.3044741      1.92156    3.9786827 
 5570000    1.0393741 2.1202567e-05   0.37600805 0.00015799434            0   0.37585006    1.5200846    1.8960926    4.0672354 
 5575000    1.0934868 -2.1799529e-05   0.33836875            0            0   0.33836875    1.5992244    1.9375932  -0.29467863 
 5580000    1.0444065 -3.1520905e-05   0.40736787            0            0   0.40736787    1.5274446    1.9348124   -1.2929283 
 5585000   0.97393455 5.3938126e-05   0.52436421 0.00030161293            0    0.5240626    1.4243793    1.9487435    7.4720076 
 5590000    1.0229555 6.9679818e-05   0.43672378   0.03914786            0   0.39757592    1.4960725    1.9327962    9.0680096 
 5595000   0.97562738 2.5238503e-06    0.4958043  0.072906857            0   0.42289744     1.426855    1.9226593    2.1811016 
 5600000    1.0190612 -6.0473227e-05   0.45548793   0.01074249            0   0.44474544    1.4903771     1.945865   -4.2465935 
 5605000   0.94707572 -0.00013106028   0.58531872 0.00014767163            0   0.58517105    1.3850982     1.970417   -11.450155 
 5610000    1.0654854 -8.0866555e-05    0.4478696 0.0030082992            0    0.4448613    1.5582723    2.0061419   -6.2745933 
 5615000    1.0370232 -3.4377829e-05   0.50184982 0.0045792993            0   0.49727053    1.5166465    2.0184963   -1.5017934 
 5620000    1.1501532 -1.0075544e-06   0.37425021 0.0031522805            0   0.37109793    1.6820991    2.0563493    1.9531757 
 5625000     1.025794 -1.806448e-05   0.59925722 0.0037339161            0   0.59552331    1.5002237    2.0994809   0.24967814 
 5630000   0.97746351 -5.2810543e-05   0.62651081   0.05400288            0   0.57250793    1.4295404    2.0560512   -3.3517484 
 5635000    1.1072637 -1.8772486e-05   0.45178838  0.059211283            0    0.3925771    1.6193732    2.0711615   0.14885897 
 5640000    1.0344701 -5.1213975e-05   0.55388502   0.01421529            0   0.53966973    1.5129125    2.0667975   -3.1775135 
 5645000     1.138238 -8.1903569e-05   0.45818124  0.010135675            0   0.44804556     1.664673    2.1228543   -6.2640712 
 5650000    1.1098252 2.6851413e-05   0.51599911 0.0012202436            0   0.51477887    1.6231193    2.1391184    4.8887031 
 5655000    1.0923159 6.3283434e-05   0.58246321 0.0039356672            0   0.57852754     1.597512    2.1799752    8.6601988 
 5660000    1.1889518 2.0450942e-05   0.46522337  0.010938192            0   0.45428517     1.738842    2.2040653    4.2982418 
 5665000    1.1217328 -4.0841821e-05   0.54605794  0.070335324            0   0.47572262    1.6405342    2.1865921   -1.9956103 
 5670000    1.0175198 -7.3204866e-05   0.69096766   0.08013581            0   0.61083185    1.4881227    2.1790904   -5.3170879 
 5675000    1.1845369 7.0477501e-05   0.43670176  0.047764363            0    0.3889374    1.7323852     2.169087    9.3859831 
 5680000    1.0503539 8.2485192e-05   0.61934569  0.069351012            0   0.54999468    1.5361425    2.1554882    10.601972 
 5685000    1.1641226 6.7093459e-06   0.48392785  0.055660799            0   0.42826705    1.7025293    2.1864571    2.8734941 
 5690000     1.172281 1.5521764e-05   0.46844458  0.025449464            0   0.44299512    1.7144609    2.1829055    3.7723341 
 5695000    1.1902889 1.2958114e-05   0.44931149  0.028360826            0   0.42095066    1.7407976     2.190109    3.5170199 
 5700000    1.1278546 -1.8576554e-05   0.56401262   0.01884348            0   0.54516914    1.6494874       2.2135   0.31126089 
 5705000    1.1747547 -4.0415456e-05    0.5374954  0.010444435            0   0.52705097    1.7180787    2.2555741   -1.8829686 
 5710000    1.1699351 -5.7589598e-05   0.54548705 0.0009270853            0   0.54455997    1.7110301    2.2565172   -3.6406576 
 5715000    1.0354507 -3.4331948e-05     0.737098            0            0     0.737098    1.5143466    2.2514446   -1.2641469 
 5720000    1.3223023 4.5136294e-05   0.37759144 0.0093787691            0   0.36821268    1.9338671    2.3114586    6.9334151 
 5725000    1.2450072 3.7953527e-05   0.49546725  0.063130462            0   0.43233679    1.8208231    2.3162903    6.2027315 
 5730000    1.1482069 1.1779951e-05    0.6551135  0.034746929            0   0.62036657    1.6792526    2.3343661     3.540633 
 5735000    1.1300813 9.8285936e-06    0.7164215  0.018851928            0   0.69756957     1.652744    2.3691655    3.3756134 
 5740000    1.1756202 6.9110583e-05   0.60200152 2.3269458e-05            0   0.60197825    1.7193446    2.3213461    9.3982698 
 5745000    1.2628238 5.5826404e-05   0.53594963 0.0024855014            0   0.53346413    1.8468798    2.3828294    8.0994532 
 5750000    1.1968002 1.3669525e-05   0.66378475  0.031198589            0   0.63258616    1.7503203     2.414105    3.8138644 
 5755000    1.1821305 -1.719378e-05   0.74525794  0.024753752            0   0.72050419    1.7288658    2.4741237   0.71348069 
 5760000    1.1739614 -8.1147775e-05   0.78394573  0.024550373            0   0.75939536    1.7169185    2.5008642    -5.808668 
 5765000    1.2742045 -5.5378257e-05   0.63498623  0.036734557            0   0.59825167     1.863524    2.4985103   -3.1722233 
 5770000    1.2688244 -0.0001152652   0.63957938 0.00093332666            0   0.63864605    1.8556557    2.4952351   -9.3079214 
 5775000    1.3011004 -9.2383099e-05   0.59261755 0.00033861184            0   0.59227894    1.9028594    2.4954769   -6.9645524 
 5780000    1.2672203 -2.529971e-05   0.59682554  0.009118328            0   0.58770721    1.8533097    2.4501352  -0.14055502 
 5785000    1.1890012 -3.657131e-05   0.70825981  0.037063511            0    0.6711963    1.7389143    2.4471741    -1.297728 
 5790000    1.2218476 1.9408754e-05   0.65794031  0.031345915            0   0.62659439    1.7869522    2.4448925    4.4323489 
 5795000    1.2871816 3.4024784e-05   0.52117574  0.011244611            0   0.50993113    1.8825031    2.4036788    5.8878167 
 5800000    1.1700444 -3.9016113e-05   0.64342874  0.025475985            0   0.61795276      1.71119    2.3546187   -1.6406313 
 5805000    1.1723612 -2.6105303e-06   0.63307816  0.039314142            0   0.59376402    1.7145782    2.3476564    2.0803381 
 5810000    1.2233507 -2.5412591e-06   0.53644549  0.012653443            0   0.52379205    1.7891503    2.3255958    2.0653709 
 5815000    1.2248212 -8.1473536e-05   0.50344859 0.0099025075            0   0.49354608     1.791301    2.2947496   -6.0481405 
 5820000    1.2384216 3.9823701e-05   0.44848523 0.0011236206            0   0.44736161    1.8111915    2.2596768    6.3376238 
 5825000    1.0977456 4.2693145e-05   0.64749384            0            0   0.64749384     1.605453    2.2529468    6.6247249 
 5830000    1.1262261 -9.0416303e-05    0.6341049 0.0016666102            0   0.63243829    1.6471056    2.2812105   -6.9774189 
 5835000     1.223174 -6.7483609e-06   0.52174566 0.0041208652            0   0.51762479     1.788892    2.3106377    1.6196055 
 5840000    1.2544079 -1.6853208e-06   0.53043515  0.085116261            0   0.44531889    1.8345715    2.3650067    2.1924298 
 5845000    1.1917322 1.2220389e-06   0.59745017  0.022016794            0   0.57543337    1.7429083    2.3403585    2.4654953 
 5850000    1.1426657 -6.6328923e-05   0.67435001 0.00062636366            0   0.67372365    1.6711486    2.3454986   -4.4465831 
 5855000    1.2578902 -4.2306054e-05   0.48635566 0.00044205471            0    0.4859136    1.8396645    2.3260201   -2.0061198 
 5860000    1.2948011 4.1622401e-05   0.44430172 0.0084380496            0   0.43586367    1.8936466    2.3379484    6.6000822 
 5865000    1.3265072 -3.5335059e-06   0.37218065 0.0079644906            0   0.36421616    1.9400168    2.3121974    1.9503664 
 5870000    1.2107733 8.8739168e-06   0.56114384 0.0011723161            0   0.55997153    1.7707559    2.3318998    3.2405888 
 5875000    1.1760134 -8.830487e-05   0.57757153 0.0018057465            0   0.57576578    1.7199196    2.2974911   -6.7449275 
 5880000     1.204076 -5.215498e-05   0.57187759  0.012154274            0   0.55972331    1.7609611    2.3328387   -3.0078313 
 5885000     1.310654 6.0850233e-05   0.41275185  0.015283228            0   0.39746863    1.9168315    2.3295833    8.5606472 
 5890000    1.1845117 2.4266039e-06   0.59213036  0.054021025            0   0.53810934    1.7323484    2.3244787     2.572963 
 5895000    1.2269631 0.00011183355   0.52522319   0.04396411            0   0.48125908    1.7944335    2.3196567    13.771412 
 5900000    1.1359101 7.3805825e-05   0.64587357  0.030787364            0    0.6150862    1.6612686    2.3071421    9.8648586 
 5905000    1.2005988  1.29256e-05   0.50429779  0.031780693            0    0.4725171    1.7558758    2.2601736     3.583755 
 5910000    1.1056904 -1.1760888e-06   0.61222941   0.01173753            0   0.60049188    1.6170723    2.2293017    2.1088702 
 5915000    1.2259708 -5.7468013e-05   0.44327532 0.0020738823            0   0.44120144    1.7929822    2.2362576    -3.648467 
 5920000    1.0977139 3.2405197e-06   0.60600836  0.023617852            0    0.5823905    1.6054065    2.2114149    2.5432441 
 5925000    1.1847769 -6.3899905e-06   0.52378695  0.091143041            0   0.43264391    1.7327362    2.2565232    1.6021882 
 5930000    1.1556357 1.6042791e-05    0.5828944 0.0033207886            0   0.57957361    1.6901172    2.2730116    3.9157934 
 5935000    1.1082325 -2.6394528e-05    0.6237392   0.03867895            0   0.58506024      1.62079    2.2445292  -0.45827053 
 5940000    1.1828353 6.2770028e-06   0.48044442  0.028636063            0   0.45180836    1.7298966     2.210341    2.8531061 
 5945000     1.107671 6.4311987e-05   0.58943713            0            0   0.58943713    1.6199688    2.2094059    8.7949534 
 5950000    1.2315601 1.8573358e-05   0.42094842            0            0   0.42094842    1.8011566    2.2221051     4.124017 
 5955000    1.1797955 -1.9904851e-06   0.48696114 2.4618129e-08            0   0.48696112    1.7254509     2.212412    2.0085863 
 5960000    1.1897056 -7.8440964e-06   0.53276759 0.0073985621            0   0.52536903    1.7399444     2.272712    1.4694765 
 5965000    1.2122625 2.3799848e-06   0.52312277  0.024688583            0   0.49843419    1.7729339    2.2960567    2.5397671 
 5970000    1.1975241 2.5738895e-05   0.51820471  0.018559762            0   0.49964495     1.751379    2.2695837    4.9052465 
 5975000    1.3231891 2.1336721e-05   0.37895096  0.008314493            0   0.37063647    1.9351641    2.3141151    4.4989953 
 5980000     1.201446 -3.3554567e-05   0.61852643  0.021589208            0   0.59693722    1.7571148    2.3756413   -1.0603464 
 5985000    1.2450504 -6.1074727e-06   0.56497131  0.059197678            0   0.50577363    1.8208862    2.3858575    1.7604523 
 5990000    1.1221062 3.7533279e-05   0.70344913  0.087437248            0   0.61601188    1.6410804    2.3445295    6.1879373 
 5995000    1.2980924 2.5992352e-05   0.45755081  0.041703674            0   0.41584714    1.8984602     2.356011    5.0176278 
 6000000    1.1742028 1.1131747e-05   0.57355208  0.001595569            0   0.57195651    1.7172716    2.2908237    3.4307146 
 6005000    1.2335031 -3.8108965e-07   0.53571894 1.2226154e-05            0   0.53570672    1.8039983    2.3397172    2.3006936 
 6010000    1.2411188 -1.4298562e-05   0.54306498 0.00026415333            0   0.54280083    1.8151363    2.3582013    0.8940286 
 6015000    1.2163104 -3.8736768e-05   0.58852444  0.027784527            0   0.56073992    1.7788539    2.3673784   -1.5992667 
 6020000    1.1052656 -9.027635e-05   0.70598369  0.092782738            0   0.61320095    1.6164509    2.3224346   -6.9218636 
 6025000    1.1820175 -5.3544405e-05   0.56079952  0.077959645            0   0.48283987    1.7287006    2.2895001   -3.1934469 
 6030000     1.185672 5.7416896e-05   0.56834487  0.030361354            0   0.53798351    1.7340453    2.3023902    8.1818803 
 6035000    1.1434924 6.5145238e-05   0.63502705 0.00054308738            0   0.63448396    1.6723577    2.3073847    8.9782571 
 6040000    1.2156885 8.9938481e-05   0.53227725  0.012428078            0   0.51984917    1.7779445    2.3102217    11.519922 
 6045000    1.1732061 2.4964171e-05   0.56526987  0.034700434            0   0.53056943     1.715814    2.2810839     4.837415 
 6050000    1.2434694 -2.6276859e-05   0.45802057 0.0020131459            0   0.45600742    1.8185741    2.2765946   -0.4141557 
 6055000    1.1225248 -1.0325862e-05   0.64105726            0            0   0.64105726    1.6416925    2.2827498    1.2253815 
 6060000    1.1725458 -6.3516066e-05   0.55272033            0            0   0.55272033    1.7148482    2.2675685   -4.2364767 
 6065000     1.292173 4.2376378e-06   0.41062877            0            0   0.41062877    1.8898031    2.3004318    2.7343659 
 6070000    1.2288212 -4.007763e-05    0.5073405 0.00015049471            0      0.50719     1.797151    2.3044915   -1.7994578 
 6075000    1.1683497 -0.00012938337   0.56052354 0.00075106327            0   0.55977248    1.7087115     2.269235   -10.979623 
 6080000    1.2191357 -7.1448054e-05   0.47228357 0.0007312777            0   0.47155229     1.782986    2.2552696   -5.0610112 
 6085000    1.1920231 -3.728043e-05   0.52380529  0.014534312            0   0.50927098    1.7433337     2.267139    -1.550377 
 6090000     1.207471 -8.0318216e-06   0.45317661  0.057406317            0   0.39577029    1.7659264     2.219103    1.3966445 
 6095000    1.2307331 6.6376539e-06   0.44388026  0.023317479            0   0.42056278    1.7999472    2.2438275    2.9235232 
 6100000    1.2074829 -5.5972077e-05   0.47307159 0.0036747498            0   0.46939684    1.7659438    2.2390154   -3.4925253 
 6105000    1.2341249 -3.4871127e-05   0.45932505            0            0   0.45932505    1.8049077    2.2642327   -1.3065706 
 6110000    1.2653423 4.8154466e-05   0.42544439 0.0045599839            0   0.42088441    1.8505632    2.2760075    7.2070249 
 6115000    1.2943599 7.055749e-05   0.38811834 0.0068580096            0   0.38126033    1.8930013    2.2811196    9.5062066 
 6120000    1.2126856 3.5802112e-05   0.47319804  0.011166976            0   0.46203106    1.7735527    2.2467508     5.912887 
 6125000    1.2056068 3.2929672e-06   0.48806814  0.019500262            0   0.46856788    1.7631999     2.251268    2.5884679 
 6130000    1.2562148 4.3760695e-05   0.42268784 0.0066207145            0   0.41606713    1.8372141     2.259902    6.7409972 
 6135000    1.3022618 5.9741921e-05   0.34131254 0.00058810196            0   0.34072444    1.9045579    2.2458705    8.3634432 
 6140000    1.1327366 -1.3179394e-05   0.58726086  0.045175262            0    0.5420856    1.6566273    2.2438882   0.89431825 
 6145000    1.2440335 -1.4530352e-05   0.43477652  0.039249377            0   0.39552714    1.8193989    2.2541755   0.76626745 
 6150000    1.2341833 -3.4808341e-05   0.40671914  0.014124343            0   0.39259479    1.8049931    2.2117122   -1.3526619 
 6155000    1.1525667 -1.0905715e-05   0.52675278  0.004725865            0   0.52202692    1.6856288    2.2123816    1.0956364 
 6160000    1.1664512 3.2131029e-05   0.48902861 0.0021752502            0   0.48685336    1.7059349    2.1949635    5.4851809 
 6165000    1.1408875 -2.5387105e-05   0.49085814  0.010302297            0   0.48055584    1.6685479     2.159406  -0.44023348 
 6170000    1.1715596 -2.9821541e-05   0.37846236  0.018477327            0   0.35998503    1.7134059    2.0918683  -0.96185754 
 6175000    1.1361328 7.021638e-05   0.39592596  0.039561926            0   0.35636404    1.6615943    2.0575202    9.2476775 
 6180000    1.0091466 4.4480166e-05   0.55287286  0.027014143            0   0.52585871    1.4758769    2.0287497    6.5835188 
 6185000     1.118001 2.7315562e-05   0.39668904  0.044309901            0   0.35237914    1.6350764    2.0317655     4.828879 
 6190000    1.1694484 4.3303085e-05   0.31762096  0.024178807            0   0.29344216    1.7103183    2.0279393    6.4621752 
 6195000    1.1056736 -7.4824801e-05   0.40366015 0.0022458756            0   0.40141427    1.6170476    2.0207078   -5.6413519 
 6200000      1.13231 -4.9158757e-05   0.37615499  0.014125519            0   0.36202947    1.6560034    2.0321584   -3.0016983 
 6205000    1.0340378 8.8976584e-06   0.49951553  0.013374425            0    0.4861411    1.5122803    2.0117959    2.9229161 
 6210000    1.1534528 -3.6293088e-05   0.34529096 0.0051934613            0    0.3400975    1.6869248    2.0322157   -1.6841965 
 6215000    1.1010603 -8.1292945e-05   0.45448797 0.00056627322            0    0.4539217    1.6103007    2.0647886   -6.2596089 
 6220000    1.1197954 -2.9287169e-05   0.38339467 0.0036481126            0   0.37974655    1.6377007    2.0210954  -0.97791071 
 6225000     1.032512 2.8406387e-05   0.47570432 0.0052485516            0   0.47045576    1.5100488    1.9857531    4.8945671 
 6230000    1.0925065 7.8463812e-06   0.38629304 0.0026473955            0   0.38364565    1.5977907    1.9840838    2.7875532 
 6235000    1.1299686 4.1966283e-06   0.35396811 0.00096175453            0   0.35300635    1.6525791    2.0065472    2.4362819 
 6240000      1.07584 -1.9338126e-05   0.40117294 0.00038155478            0   0.40079138    1.5734159    1.9745889 -0.0056352116 
 6245000    1.0609215 -2.3995001e-05   0.46047416 8.1189979e-05            0   0.46039297    1.5515977    2.0120718  -0.44501624 
 6250000    1.0456897 -1.6149813e-05   0.52441613  0.010474698            0   0.51394144    1.5293212    2.0537373   0.39999644 
 6255000    1.1498314 -5.2770597e-05   0.39162144   0.01736681            0   0.37425463    1.6816284    2.0732498   -3.3304593 
 6260000    1.1452077 -3.0638583e-05   0.37514755  0.006276194            0   0.36887136    1.6748662    2.0500138   -1.0873771 
 6265000    1.1164177 -3.8360936e-06   0.40398064  0.012701882            0   0.39127876    1.6327608    2.0367415    1.6439255 
 6270000    1.0823421 3.0452739e-05   0.42734018  0.029329754            0   0.39801042    1.5829253    2.0102655    5.1286259 
 6275000    1.0785253 2.4592176e-05   0.41871374   0.03383626            0   0.38487748    1.5773433     1.996057    4.5142958 
 6280000    1.0496664 2.5549576e-05   0.43736085   0.01087328            0   0.42648757    1.5351371    1.9724979    4.5887745 
 6285000    1.0437039 3.6041839e-05   0.43924347  0.010373666            0    0.4288698     1.526417    1.9656605    5.6563448 
 6290000    1.0323623 -3.5834741e-05   0.38871864  0.050553806            0   0.33816483    1.5098299    1.8985485    -1.770929 
 6295000   0.97860654 -0.00010107258   0.45720567   0.00981307            0    0.4473926    1.4312121    1.8884177   -8.4614145 
 6300000    1.0069164 -4.7764561e-05   0.41391294  0.023544535            0    0.3903684    1.4726153    1.8865282   -3.0045629 
 6305000    0.9827747 5.4941205e-05   0.41557394  0.025839912            0   0.38973403     1.437308    1.8528819    7.4788613 
 6310000    1.0323534 8.4698195e-05   0.35516591 0.0023578747            0   0.35280803    1.5098169    1.8649828    10.538078 
 6315000   0.96901218  8.69876e-07   0.40980993 0.0074505877            0   0.40235935    1.4171803    1.8269903    1.9160656 
 6320000   0.95883253 -2.4099848e-05   0.43765041  0.037792125            0   0.39985829    1.4022926     1.839943  -0.62788145 
 6325000   0.97527077 4.8303147e-05   0.41275824  0.025224052            0   0.38753419    1.4263335    1.8390917     6.785334 
 6330000   0.95920785 2.4729132e-05   0.43048925  0.036348231            0   0.39414102    1.4028415    1.8333307    4.3655938 
 6335000    1.0259106 -1.592144e-05   0.39249701  0.014576665            0   0.37792034    1.5003942    1.8928912   0.26253574 
 6340000    1.0251004 -7.491299e-05   0.44137719 0.0075169869            0    0.4338602    1.4992094    1.9405865   -5.7305036 
 6345000    1.0588618 -3.4222222e-05   0.41377882   0.02030873            0   0.39347009    1.5485853    1.9623642   -1.5419914 
 6350000    1.0031714 7.806031e-05   0.45060115  0.011581268            0   0.43901988    1.4671381    1.9177393     9.911115 
 6355000    1.0307976 5.1689243e-05   0.40286466  0.014227055            0    0.3886376    1.5075414    1.9104061    7.2033846 
 6360000    1.1182137 9.8516094e-06   0.27815441 0.0091996948            0   0.26895472    1.6353875    1.9135419    2.9223467 
 6365000     1.093262 3.0022052e-06   0.32219446 0.0052689477            0   0.31692552    1.5988957    1.9210902     2.228516 
 6370000     1.071651 -7.9556616e-06   0.38488658 0.0075159947            0   0.37737058    1.5672896    1.9521762    1.1375165 
 6375000   0.96350165 -1.1873153e-05   0.53025549 0.0034753414            0   0.52678015    1.4091212    1.9393767   0.72356584 
 6380000   0.99287104 -5.223411e-05     0.519231 0.0012374856            0   0.51799351    1.4520739    1.9713049    -3.377468 
 6385000    1.0663394 -6.7274301e-05   0.41443525  0.037093714            0   0.37734154    1.5595214    1.9739566   -4.9149318 
 6390000     1.018427 2.2045249e-05   0.45001264  0.075023843            0    0.3749888    1.4894495    1.9394621    4.1968957 
 6395000    1.0831226 8.6874456e-06   0.29833241 0.0055303523            0   0.29280206    1.5840669    1.8823993    2.7719937 
 6400000    1.0617144 -2.5858927e-05   0.36917966 0.0085599416            0   0.36061972    1.5527573    1.9219369  -0.72601716 
 6405000   0.99912097 2.2081271e-05    0.4465134  0.027096987            0   0.41941641    1.4612144    1.9077278    4.1688499 
 6410000    1.0722697 1.5856362e-05   0.35153391  0.010923828            0   0.34061008    1.5681944    1.9197283    3.5434197 
 6415000    1.0936726 4.5029751e-06   0.32969047 0.00098833407            0   0.32870213    1.5994961    1.9291866    2.3902912 
 6420000   0.97480297 5.6902296e-05   0.53767889  0.072490154            0   0.46518874    1.4256493    1.9633282    7.7901234 
 6425000     1.019137 4.1575748e-05   0.51360794  0.060591346            0   0.45301659    1.4904879    2.0040958    6.2614524 
 6430000    1.0795942 2.8173788e-05   0.43093814  0.061468387            0   0.36946976    1.5789065    2.0098447    4.8948405 
 6435000    1.0623403 -1.8686645e-05   0.44112874  0.024766682            0   0.41636206    1.5536727    1.9948014  0.081288927 
 6440000    1.0014502 -8.3819312e-05    0.5546695 0.0084872022            0    0.5461823    1.4646209    2.0192904   -6.5638072 
 6445000    1.0572706 -3.4808749e-05   0.41979277  0.048237353            0   0.37155542    1.5462583    1.9660511   -1.5983648 
 6450000   0.97273416 1.0930762e-06   0.51185631  0.033852937            0   0.47800337    1.4226237      1.93448     2.046411 
 6455000     1.084116 -1.4607757e-06    0.3381386 0.0065490636            0   0.33158954    1.5855196    1.9236582    1.7740748 
 6460000    1.0167153 3.7140866e-06   0.40722187 0.0079530202            0   0.39926885    1.4869461    1.8941679    2.2744904 
 6465000    1.0136419 -8.4630348e-06   0.38490908 0.0053344301            0   0.37957465    1.4824513    1.8673604    1.0007456 
 6470000    1.0333933 -1.4995578e-05   0.36945761  0.007050585            0   0.36240702    1.5113376    1.8807952   0.34524809 
 6475000   0.93324865 1.1884607e-05   0.47184654  0.013841039            0    0.4580055    1.3648762    1.8367227    3.0537064 
 6480000    1.0508321 1.6791813e-05   0.25691924   0.01001342            0   0.24690582    1.5368419    1.7937612    3.5132428 
 6485000   0.90181221 3.1588358e-05   0.46108902 0.0030140161            0     0.458075    1.3189003    1.7799894    5.0146372 
 6490000   0.83301175 3.0006979e-05   0.52421388  0.025094931            0   0.49911895    1.2182797    1.7424936    4.8152083 
 6495000   0.99215133 8.5377639e-06   0.28627339  0.044880809            0   0.24139258    1.4510213    1.7372947    2.6115617 
 6500000   0.89397993 1.8198036e-06   0.40439436  0.096944051            0   0.30745031    1.3074457      1.71184    1.8981879 
 6505000    0.8651104 -3.4608493e-05   0.41846855  0.034296257            0    0.3841723     1.265224    1.6836925   -1.8602171 
 6510000   0.93074549 -5.8167105e-05   0.32911323            0            0   0.32911323    1.3612153    1.6903285    -4.265983 
 6515000   0.92988534 -1.1078791e-05   0.29965346  0.007616653            0    0.2920368    1.3599573    1.6596108   0.52514259 
 6520000   0.87005101 3.4382656e-06   0.37218633  0.038570655            0   0.33361568    1.2724496    1.6446359    1.9967143 
 6525000   0.90325202 -5.7128383e-05   0.36987218  0.053632695            0   0.31623948    1.3210061    1.6908782   -4.1590682 
 6530000   0.92757762 -4.9073863e-05   0.39777022  0.036471553            0   0.36129867    1.3565823    1.7543525   -3.2708111 
 6535000   0.96527073 5.7266996e-05   0.35667186  0.040296964            0    0.3163749    1.4117084    1.7683803    7.6325206 
 6540000   0.92995932 8.5726743e-05   0.42909067  0.075747499            0   0.35334317    1.3600655    1.7891562    10.567575 
 6545000   0.96652469 3.2387212e-05   0.40900823  0.030310021            0   0.37869821    1.4135424    1.8225506    5.1390011 
 6550000   0.97370629 -1.6480037e-05    0.4112288  0.019753016            0   0.39147579    1.4240455    1.8352743   0.14771842 
 6555000     1.008829 1.927495e-05   0.37488102   0.04073558            0   0.33414544    1.4754124    1.8502935    3.8240483 
 6560000    1.0530736 5.581827e-06   0.33114399  0.005356555            0   0.32578744    1.5401202    1.8712642    2.4428433 
 6565000    1.0060661 -5.6225756e-05   0.43863626  0.028668059            0    0.4099682    1.4713717    1.9100079   -3.8475095 
 6570000    1.0327092 -3.362107e-05   0.35212145  0.079888872            0   0.27223258    1.5103373    1.8624587   -1.5803388 
 6575000    1.0136928 -5.7272693e-06   0.39461273  0.040867249            0   0.35374548    1.4825257    1.8771384     1.290666 
 6580000    1.0619664 1.1286111e-06    0.3351706 0.0029568623            0   0.33221374    1.5531259    1.8882965    2.0038663 
 6585000     1.100207 3.0829754e-06   0.26467038 0.00018049259            0   0.26448988    1.6090527    1.8737231    2.1894198 
 6590000    1.0382668 3.1613006e-05   0.35466024            0            0   0.35466024    1.5184651    1.8731254    5.1102972 
 6595000   0.99072556 6.1612968e-06   0.39551901            0            0   0.39551901    1.4489361    1.8444551    2.4753719 
 6600000     1.050046 -2.2187129e-05   0.33244715 0.0078515198            0   0.32459563    1.5356923    1.8681395  -0.40382257 
 6605000    1.0371836 -1.1875053e-05   0.34782086  0.026190048            0   0.32163081    1.5168809    1.8647018   0.64869641 
 6610000    1.0850061 1.7943163e-05   0.33497955  0.011939758            0   0.32303979    1.5868215     1.921801    3.7591809 
 6615000    1.1321626 4.2900277e-05   0.28652089 0.00039816182            0   0.28612273    1.6557879    1.9423087    6.3352971 
 6620000     1.017348 4.0062601e-05   0.40763485  0.034474588            0   0.37316026    1.4878714    1.8955063    5.9979167 
 6625000    1.0499225 1.5938749e-05   0.38390981  0.084239431            0   0.29967038    1.5355116    1.9194214    3.5515493 
 6630000    1.0600591 -3.4641048e-05   0.35726593  0.060267499            0   0.29699844    1.5503364    1.9076024   -1.6396409 
 6635000   0.99403549 -4.232973e-05   0.47074281  0.076653697            0   0.39408911    1.4537769    1.9245197   -2.4100446 
 6640000    1.0259227 -9.0700751e-06    0.3855269  0.087213975            0   0.29831292    1.5004119    1.8859388   0.95716313 
 6645000    1.0340614 5.7637672e-06   0.37511702  0.031600139            0   0.34351688    1.5123147    1.8874317    2.4776415 
 6650000    1.1096361 6.2335877e-05   0.27155006  0.024971521            0   0.24657854    1.6228427    1.8943928    8.2775866 
 6655000     1.068111 2.9222133e-05   0.32583449  0.034063673            0   0.29177082    1.5621123    1.8879468    4.8802933 
 6660000    1.0012722 -6.1274643e-05   0.39986796  0.035352111            0   0.36451585    1.4643605    1.8642285   -4.4102949 
 6665000    0.9840244 -8.5757124e-05   0.43357489  0.073222921            0   0.36035197    1.4391357    1.8727106    -6.908819 
 6670000    1.0311591 -4.7068463e-05    0.3865513  0.052628513            0   0.33392278    1.5080702    1.8946215    -2.925189 
 6675000    1.0690723 -1.2581777e-05   0.36293821  0.012594086            0   0.35034413    1.5635183    1.9264565   0.63808255 
 6680000    1.0401739 3.0136338e-05   0.41471407 0.00027824658            0   0.41443582    1.5212544    1.9359684    5.0219294 
 6685000    1.0282698 3.3223674e-05   0.40345699 1.1174047e-05            0   0.40344582    1.5038445    1.9073015    5.3094058 
 6690000    1.0888304 -5.6643605e-05   0.29009034            0            0   0.29009034    1.5924145    1.8825049   -3.9178003 
 6695000   0.98062936 -5.317898e-05   0.42195045            0            0   0.42195045    1.4341704    1.8561209   -3.5894067 
 6700000    1.0034688 6.0052953e-05     0.400548 0.00014156304            0   0.40040644    1.4675732    1.8681212    8.0175435 
 6705000    1.1057604 5.5712937e-05   0.26550596  0.001047257            0    0.2644587    1.6171746    1.8826806    7.5876853 
 6710000    1.0501293 -5.2958252e-05   0.35079409 0.00090928902            0   0.34988481     1.535814    1.8866081   -3.5363168 
 6715000    0.9603088 -4.285953e-05   0.44764284 0.0042998458            0     0.443343    1.4044516    1.8520945   -2.5367214 
 6720000   0.98271352 2.5634812e-05     0.397456   0.03555407            0   0.36190193    1.4372185    1.8346745    4.4596793 
 6725000   0.98001013 3.2900492e-05   0.34994273  0.038055044            0   0.31188768    1.4332648    1.7832075    5.1522179 
 6730000   0.94151893 3.912316e-05   0.40394328  0.030544101            0   0.37339918    1.3769714    1.7809147    5.7871263 
 6735000   0.99190342 3.0941294e-07   0.34097092  0.021708001            0   0.31926292    1.4506587    1.7916297    1.8233136 
 6740000   0.97189291 -5.656848e-05   0.33663037  0.015955344            0   0.32067503    1.4213934    1.7580237   -4.0345886 
 6745000   0.92657378 -0.0001179725   0.42782172  0.045826809            0   0.38199491    1.3551142    1.7829359   -10.297448 
 6750000   0.95268225 -7.0738043e-05   0.40361913  0.016492099            0   0.38712703    1.3932978    1.7969169   -5.4466587 
 6755000   0.88773624 3.0286846e-05   0.47860026   0.06323686            0    0.4153634    1.2983142    1.7769145    4.8782875 
 6760000   0.94743505 -9.9926408e-06   0.39501694  0.045306583            0   0.34971036    1.3856238    1.7806407   0.75739429 
 6765000   0.98524644 7.5777934e-06   0.32884497 0.0083323369            0   0.32051263    1.4409229    1.7697679    2.5457339 
 6770000   0.89897639 1.5855038e-05   0.45567309  0.023343573            0   0.43232952     1.314753    1.7704261     3.393982 
 6775000   0.95732508 -4.7268706e-05   0.39869025  0.022364404            0   0.37632585    1.4000879    1.7987782   -3.0415374 
 6780000   0.96545206 -2.5412662e-05   0.36119974  0.026569265            0   0.33463048    1.4119736    1.7731734  -0.82908318 
 6785000   0.92144825 -3.6635239e-05   0.44986593  0.060658155            0   0.38920777    1.3476181     1.797484   -1.9539645 
 6790000   0.97266086 -3.9105356e-05   0.44972437  0.055262935            0   0.39446143    1.4225165    1.8722409   -2.1321476 
 6795000   0.94369109 -3.3699215e-05   0.46998135   0.10372829            0   0.36625306    1.3801482    1.8501296     -1.60067 
 6800000   0.99092508 -6.4264206e-05   0.39072448  0.041329028            0   0.34939545    1.4492279    1.8399524   -4.7407023 
 6805000   0.99210292 -1.3342002e-06   0.41127959 0.0013483009            0   0.40993129    1.4509505    1.8622301     1.725608 
 6810000    1.0798964 4.7084908e-05   0.29043421            0            0   0.29043421    1.5793485    1.8697827    6.6912772 
 6815000    1.0674086 -2.0876968e-05   0.31983755            0            0   0.31983755     1.561085    1.8809226  -0.25687893 
 6820000    1.0364092 -7.5678686e-05   0.39940609 0.00075923828            0   0.39864685    1.5157485    1.9151545   -5.8343429 
 6825000    1.0618956 -5.596552e-05   0.40030627  0.011287785            0   0.38901848    1.5530223    1.9533286   -3.7775407 
 6830000     1.090792 -5.7110386e-05   0.36627064  0.019026084            0   0.34724456    1.5952833    1.9615539   -3.8865496 
 6835000    1.0715608 -3.500006e-06   0.38620127  0.022822608            0   0.36337867    1.5671576    1.9533589    1.5949583 
 6840000    1.0944611 2.1552348e-05   0.34682239   0.03612999            0    0.3106924    1.6006494    1.9474718    4.1544322 
 6845000    1.0820978 -1.0814904e-06   0.38899729  0.098447325            0   0.29054997    1.5825681    1.9715653    1.8608207 
 6850000   0.96377282 -4.6800452e-05   0.54212677  0.030743078            0   0.51138369    1.4095178    1.9516445   -2.8407218 
 6855000    1.0433234 -1.090979e-05   0.41677305  0.063574153            0   0.35319889    1.5258605    1.9426336   0.82547109 
 6860000   0.99594733 -5.2030826e-06   0.50123737  0.069826055            0   0.43141131     1.456573    1.9578103    1.4250147 
 6865000    1.0380608 -1.5791397e-05   0.46232515  0.057439751            0   0.40488539     1.518164    1.9804891    0.3634501 
 6870000    1.1320351 -1.8198937e-05   0.32311647  0.034547478            0   0.28856899    1.6556013    1.9787178   0.11514667 
 6875000    1.0603792 -2.3293561e-05    0.4080506   0.08823592            0   0.31981468    1.5508045    1.9588551  -0.42640549 
 6880000    1.0104347 2.0664503e-05   0.48386657  0.089168437            0   0.39469813    1.4777608    1.9616274    4.0776725 
 6885000    1.0261344 5.8492654e-05   0.43006446  0.048935332            0   0.38112913    1.5007215     1.930786    7.9204337 
 6890000    1.1223072 5.0850757e-06   0.34244346  0.021850952            0   0.32059251    1.6413742    1.9838177    2.5045294 
 6895000    1.0629486 -9.3726588e-06   0.39524477  0.011053703            0   0.38419107    1.5545624    1.9498071   0.99004686 
 6900000    1.0672741 -3.1446386e-05    0.4134757 0.0069556896            0   0.40652001    1.5608884    1.9743641   -1.2457458 
 6905000    1.0768853 -4.1893601e-05   0.42325937 0.0080096158            0   0.41524975    1.5749447    1.9982041   -2.2917006 
 6910000    1.1650737 8.7302763e-05   0.27707544 0.0016317022            0   0.27544374    1.7039202    1.9809957    10.920799 
 6915000    1.1632744 7.2656444e-05    0.2425216 8.3006245e-05            0    0.2424386    1.7012888    1.9438104    9.3838303 
 6920000    1.1324382 3.2702908e-05   0.34366181  0.018556046            0   0.32510576    1.6561908    1.9998526    5.3486304 
 6925000    1.0497428 0.00012684961   0.43125395   0.03086624            0   0.40038771    1.5352488    1.9665027    14.955902 
 6930000    1.1182357 6.0540055e-05   0.35313693 0.0031045937            0   0.35003234    1.6354198    1.9885567    8.1878583 
 6935000    1.1444415 -1.2831269e-05    0.3361529 0.00022392616            0   0.33592897    1.6737457    2.0098986    0.6959767 
 6940000    1.0788483 -6.1553735e-05   0.41532275 0.0028882548            0   0.41243449    1.5778156    1.9931383   -4.3099641 
 6945000    1.1100976 -6.6848417e-05   0.38328012  0.035224634            0   0.34805548    1.6235178    2.0067979     -4.83848 
 6950000    1.0767701 4.320976e-05   0.44856727   0.04773993            0   0.40082734    1.5747763    2.0233436     6.448023 
 6955000    1.0641477 4.5215298e-05   0.40848772  0.010839031            0   0.39764869     1.556316    1.9648037    6.5948502 
 6960000    1.0877677 2.8378965e-05    0.3847957  0.027925045            0   0.35687066    1.5908603     1.975656    4.8816621 
 6965000    1.0939346 -2.5824899e-06   0.39818269  0.014004307            0   0.38417838    1.5998793     1.998062    1.7336151 
 6970000    1.0677763 2.6698196e-05   0.44086683  0.027169519            0   0.41369731    1.5616229    2.0024897     4.736385 
 6975000     1.070669 -2.6050269e-05   0.44463927  0.046635207            0   0.39800407    1.5658534    2.0104926  -0.65705491 
 6980000    1.0673303 -2.9948702e-05   0.43255534  0.037978316            0   0.39457702    1.5609705    1.9935259   -1.0732212 
 6985000    1.0441592 -6.1980598e-05   0.44925689  0.053483477            0   0.39577341    1.5270828    1.9763397   -4.3704735 
 6990000    1.1576675 -6.567424e-06    0.2936338  0.011127676            0   0.28250612    1.6930887    1.9867225    1.3142183 
 6995000     1.160348 -1.3870719e-05    0.3360743 0.00035784334            0   0.33571645     1.697009    2.0330833   0.61272173 
 7000000    1.1409314 6.9240612e-05   0.33075222  0.016591606            0   0.31416062    1.6686122    1.9993645    9.0896032 
 7005000     1.089304 -3.2156116e-05   0.42055009  0.052479828            0   0.36807027    1.5931071    2.0136572   -1.2791291 
 7010000    1.1541661 -2.8730005e-05   0.36367626 0.0060008558            0   0.35767541    1.6879679    2.0516441  -0.89030839 
 7015000    1.1247706 5.5722483e-06   0.38040649 4.4987781e-05            0    0.3803615     1.644977    2.0253835    2.5959817 
 7020000    1.1526383 -9.6556944e-06   0.34067754 0.0011120733            0   0.33956547    1.6857335    2.0264111     1.037668 
 7025000    1.1182316 1.8192573e-05   0.40025099 0.0033297567            0   0.39692123    1.6354137    2.0356647    3.8985842 
 7030000    1.0242216 3.2007698e-05   0.55614083  0.013997176            0   0.54214365    1.4979242     2.054065    5.3316532 
 7035000    1.0295122 -3.7017603e-06   0.52628344   0.01794241            0   0.50834103    1.5056616    2.0319451    1.6528848 
 7040000    1.1213759 -1.6264463e-05   0.41073585  0.036342861            0   0.37439299    1.6400123    2.0507482   0.38526718 
 7045000    1.1398605 -7.1606969e-05    0.4050327     0.023991            0    0.3810417    1.6670459    2.0720786    -5.260475 
 7050000    1.1004296 -9.8457539e-06   0.43167208  0.031228613            0   0.40044346    1.6093783    2.0410503    1.0328451 
 7055000    1.1111175 1.7740631e-06   0.37191757  0.018494431            0   0.35342314    1.6250094     1.996927     2.178591 
 7060000    1.0451228 -2.37022e-05   0.48356322  0.005614988            0   0.47794824    1.5284922    2.0120554  -0.41504987 
 7065000    1.1492218 5.8454055e-06   0.33592018 0.0037490447            0   0.33217113    1.6807369    2.0166571    2.6152266 
 7070000     1.127554 -3.3786531e-05   0.39354196 0.00093063197            0   0.39261133    1.6490478    2.0425897    -1.417151 
 7075000    1.0761343 -9.0418979e-05   0.49256115 0.00011081132            0   0.49245034    1.5738464    2.0664076   -7.1924959 
 7080000    1.1315354 5.2605495e-06    0.4247357 1.760575e-06            0   0.42473394    1.6548706    2.0796063    2.6182866 
 7085000    1.1564973 6.7882397e-06   0.39599342 0.00010549776            0   0.39588792    1.6913773    2.0873708    2.7824865 
 7090000    1.1533055 2.3346131e-05    0.4307419 0.0029637145            0   0.42777818    1.6867093    2.1174512     4.508095 
 7095000    1.1709868 -5.5703131e-05   0.45228166 0.0069067949            0   0.44537487    1.7125682    2.1648498   -3.5391507 
 7100000    1.1268021 -8.9007506e-05   0.53101252 0.0032351791            0   0.52777734    1.6479481    2.1789606    -6.935408 
 7105000     1.241088 -3.7673523e-05    0.3817325 0.00044264325            0   0.38128985    1.8150912    2.1968237   -1.6609451 
 7110000    1.2684354 -1.9427966e-05   0.34568118            0            0   0.34568118    1.8550868     2.200768   0.21134422 
 7115000    1.2413237 7.797422e-05   0.40977386 0.0050700899            0   0.40470377    1.8154359    2.2252098     10.20977 
 7120000    1.1553891 4.7499341e-05   0.51459012  0.033634591            0   0.48095553    1.6897566    2.2043467    7.0682793 
 7125000    1.1332179 -4.5748317e-05   0.53008815  0.014074501            0   0.51601365    1.6573311    2.1874193   -2.4972084 
 7130000    1.1383981 -2.5952176e-05   0.47587346 0.00037910972            0   0.47549435    1.6649073    2.1407807  -0.51672212 
 7135000    1.2400181 6.2670413e-05   0.31882361            0            0   0.31882361    1.8135265    2.1323501    8.5498004 
 7140000    1.2287892 3.4781766e-05   0.37495902            0            0   0.37495902    1.7971043    2.1720633    5.7337161 
 7145000    1.1485837 -1.9428441e-05   0.49689832 0.0016041454            0   0.49529418    1.6798037     2.176702    0.1872296 
 7150000    1.1878912 1.144464e-05   0.39826205  0.013518153            0    0.3847439    1.7372908    2.1355529     3.307484 
 7155000    1.2522028 -2.9125434e-05   0.31413923  0.010754487            0   0.30338474    1.8313465    2.1454858  -0.83695872 
 7160000     1.207905 -9.15028e-05   0.39401018 0.0031241192            0   0.39088607    1.7665611    2.1605712   -7.2093154 
 7165000    1.1191174 -6.0171075e-05   0.46714039  0.017844565            0   0.44929583    1.6367092    2.1038496   -4.0576684 
 7170000    1.1282031 -3.921203e-06    0.4539359  0.027409517            0   0.42652638    1.6499971     2.103933    1.7024018 
 7175000    1.1299524 -1.7417341e-05   0.42033633 0.0016945392            0   0.41864179    1.6525553    2.0728916   0.28935591 
 7180000    1.1842923 6.6312797e-05   0.36115879            0            0   0.36115879    1.7320274    2.0931862    8.8836167 
 7185000    1.1564271 -3.2235851e-05   0.42208496 0.00092709736            0   0.42115786    1.6912746    2.1133596   -1.1875915 
 7190000    1.1250803 -8.6374772e-05   0.46530102 0.0075429757            0   0.45775804      1.64543     2.110731   -6.7340456 
 7195000    1.0906408 -6.957359e-05   0.46513811 0.0099008542            0   0.45523725    1.5950621    2.0602002   -5.0641354 
 7200000    1.1586345 -7.9741142e-05   0.46401028 0.0046541215            0   0.45935616    1.6945029    2.1585132   -6.0069797 
 7205000     1.196789 -1.6955867e-05   0.43504495  0.025976818            0   0.40906813    1.7503039    2.1853488   0.44906798 
 7210000    1.1636622 -9.3924484e-05   0.45449067  0.033428279            0   0.42106239    1.7018559    2.1563466   -7.4615206 
 7215000    1.1249847 -1.6706748e-05   0.52757712  0.018435483            0   0.50914163    1.6452902    2.1728673   0.46209631 
 7220000    1.0988619 6.2537611e-05   0.51056059  0.018371133            0   0.49218946    1.6070856    2.1176462    8.5214975 
 7225000    1.2204949 9.236013e-05   0.34648166  0.019630829            0   0.32685083    1.7849738    2.1314555    11.589133 
 7230000    1.2404972 -8.1869588e-06   0.29936763 0.0045157582            0   0.29485187    1.8142272    2.1135948    1.2752502 
 7235000    1.1633607 -3.3309235e-05   0.42164871            0            0   0.42164871     1.701415    2.1230638   -1.2878019 
 7240000    1.1293892 -6.6297419e-05   0.50271104            0            0   0.50271104    1.6517317    2.1544428   -4.6344129 
 7245000    1.1172859 -5.1926307e-05   0.49084455 0.00060230559            0   0.49024224    1.6340307    2.1248752   -3.1923786 
 7250000    1.2049498 -1.276983e-05   0.39344085 0.0065620924            0   0.38687875    1.7622391    2.1556799   0.84804932 
 7255000    1.2020841 -2.3403754e-05   0.38548967 0.0095158499            0   0.37597382     1.758048    2.1435376   -0.2530068 
 7260000    1.1700935 1.6692634e-05   0.43149969 0.0027137635            0   0.42878593    1.7112618    2.1427615    3.8520872 
 7265000    1.1992608 -7.5522554e-06   0.40597637 0.0095111207            0   0.39646525    1.7539189    2.1598952    1.3865443 
 7270000    1.1053468 -2.3421499e-05   0.49237492  0.036220397            0   0.45615452    1.6165696    2.1089446  -0.28941695 
 7275000    1.1326486 4.2561199e-05   0.43187578  0.016617611            0   0.41525817    1.6564985    2.0883743    6.4466411 
 7280000    1.1085697 4.0226041e-05    0.4424329  0.012582293            0   0.42985061    1.6212832    2.0637161    6.1828627 
 7285000    1.0643493 -2.0545754e-05   0.52924952  0.019414246            0   0.50983527    1.5566108    2.0858603  -0.01802487 
 7290000    1.1679868 1.3583835e-05   0.40829355   0.08592126            0   0.32237229    1.7081807    2.1164742    3.5074589 
 7295000    1.1580503 2.2378819e-07   0.39814488  0.023056096            0   0.37508879    1.6936486    2.0917935    2.1147094 
 7300000    1.1527453 -2.2435643e-05   0.41292418  0.004767459            0   0.40815672      1.68589    2.0988141   -0.1985957 
 7305000    1.1696648 -5.3916127e-05   0.39656194  0.048412171            0   0.34814977    1.7106348    2.1071967   -3.4138146 
 7310000    1.2366272 -6.6993568e-05   0.29486564  0.023166786            0   0.27169885    1.8085672    2.1034328   -4.7567085 
 7315000    1.1196671 5.9172119e-06   0.48902805  0.026439966            0   0.46258808    1.6375132    2.1265412    2.7324637 
 7320000    1.1584811 5.2441605e-05   0.43684991  0.022221534            0   0.41462838    1.6942786    2.1311285    7.5011488 
 7325000    1.2075556 1.3343404e-05   0.34577166  0.029116759            0    0.3166549    1.7660501    2.1118218    3.4781863 
 7330000    1.0801996 -4.492006e-05   0.50025543  0.038969427            0   0.46128601     1.579792    2.0800474   -2.5197667 
 7335000    1.0169687 -5.1916183e-06   0.57364672  0.015782902            0   0.55786381    1.4873167    2.0609634    1.5293417 
 7340000    1.1389646 2.8545987e-05   0.38184122 0.0074399239            0    0.3744013    1.6657358     2.047577     4.970686 
 7345000    1.1104717 8.0484551e-06   0.42508195  0.018921227            0   0.40616072    1.6240648    2.0491468    2.8733086 
 7350000    1.0863045 1.1440206e-05   0.47346666  0.017169705            0   0.45629696    1.5887203     2.062187     3.233664 
 7355000    1.0404562 -2.9581669e-06   0.51338577 0.0095123284            0   0.50387344    1.5216671    2.0350529    1.7321366 
 7360000    1.0920006 -5.5313677e-05   0.44117214  0.051661055            0   0.38951108    1.5970508    2.0382229   -3.6258975 
 7365000    1.0586857 -3.3734593e-05   0.54152082  0.051852562            0   0.48966826    1.5483279    2.0898487   -1.3645737 
 7370000    1.0758039 -1.2985229e-05   0.51897846  0.019280269            0   0.49969819    1.5733632    2.0923416   0.76265417 
 7375000    1.1384174 -6.977786e-06   0.44513344 0.0019546632            0   0.44317878    1.6649354    2.1100689    1.3955436 
 7380000    1.0819264 4.414415e-06   0.52036226 0.0098885067            0   0.51047375    1.5823173    2.1026796    2.5547157 
 7385000    1.0732117 4.1410163e-06   0.51987554  0.013173964            0   0.50670157    1.5695721    2.0894477    2.5134878 
 7390000    1.0232766 6.1053467e-05   0.59342703  0.047817171            0   0.54560986     1.496542     2.089969     8.341844 
 7395000    1.1074963 9.7872316e-05    0.4806561  0.073183781            0   0.40747232    1.6197133    2.1003694    12.122495 
 7400000    1.0719454 -1.5709986e-05   0.53118922  0.012001307            0   0.51918791    1.5677201    2.0989094   0.49020682 
 7405000   0.96601303 -7.4637128e-05   0.67854021  0.046005795            0   0.63253442    1.4127941    2.0913343   -5.5515076 
 7410000    1.1170711 -3.207772e-05   0.43747678  0.037389672            0   0.40008711    1.6337164    2.0711932   -1.2135653 
 7415000     1.174306 -6.0081899e-06   0.33958921 0.00014942163            0   0.33943979    1.7174226    2.0570118    1.4417731 
 7420000    1.0674311 4.1794125e-05   0.49412024  0.047101275            0   0.44701897     1.561118    2.0552383    6.3349567 
 7425000    1.0443181 1.0601255e-05    0.5213012  0.061906372            0   0.45939483    1.5273152    2.0486164    3.1341849 
 7430000    1.1441037 -8.3466576e-05   0.41104931 0.0069023748            0   0.40414694    1.6732517     2.084301   -6.4626764 
 7435000    1.1118244 -1.8597904e-05   0.47094286  0.031419898            0   0.43952296    1.6260432     2.096986   0.19256068 
 7440000    1.0937268 -5.5396214e-05   0.51095686  0.033273211            0   0.47768365    1.5995755    2.1105324   -3.5620399 
 7445000    1.1333755 -1.7547353e-05   0.48117495  0.011804284            0   0.46937067    1.6575617    2.1387366   0.34188766 
 7450000    1.1543795 -2.0831986e-06   0.44588331 0.0078043566            0   0.43807895    1.6882801    2.1341634    1.9208439 
 7455000     1.079946 -2.5228423e-06   0.57482778  0.017324563            0   0.55750321     1.579421    2.1542488    1.8959097 
 7460000    1.0837567 4.6363935e-05   0.51624159  0.049449547            0   0.46679205    1.5849941    2.1012357    6.8489027 
 7465000    1.1787974 1.8176524e-05   0.39015406 0.0060464247            0   0.38410763    1.7239912    2.1141452    3.9754213 
 7470000    1.1785055 -1.1918013e-05   0.34629935 0.00010887496            0   0.34619047    1.7235643    2.0698637   0.84945918 
 7475000    1.1293897 -5.4943333e-06   0.38356754 0.00099897205            0   0.38256857    1.6517325       2.0353    1.4726803 
 7480000   0.99779721 -2.0223018e-05   0.56927864  0.014245858            0   0.55503279    1.4592784    2.0285571 -0.042279983 
 7485000   0.99928985 -3.9439713e-05   0.56773364  0.045977509            0   0.52175613    1.4614614     2.029195   -2.0094316 
 7490000    1.1209206 -3.1319379e-05   0.40489707  0.031256901            0   0.37364016    1.6393463    2.0442434   -1.1628609 
 7495000   0.97314028 -4.2414804e-05   0.63130499   0.10660795            0   0.52469704    1.4232177    2.0545226   -2.2887533 
 7500000    1.0661233 -5.3361899e-05   0.51435602  0.034390061            0   0.47996596    1.5592053    2.0735613   -3.3906971 
 7505000    1.1503068 1.8537559e-05   0.42227414 0.0088968102            0   0.41337733    1.6823237    2.1045978    4.0028439 
 7510000    1.0807888 8.4073771e-05   0.47609256  0.034780238            0   0.44131233    1.5806535    2.0567461      10.6659 
 7515000    1.0643968 4.4027175e-05   0.49762165  0.050733408            0   0.44688824    1.5566803    2.0543019    6.5626846 
 7520000    1.0889552 -2.258519e-05   0.49770954  0.060558329            0   0.43715122     1.592597    2.0903066   -0.2224169 
 7525000     1.146372 -5.2216548e-05   0.41282485  0.016057426            0   0.39676743     1.676569    2.0893938   -3.2575807 
 7530000     1.196029 1.8558899e-05   0.31570125  0.016022898            0   0.29967835    1.7491925    2.0648937     3.965325 
 7535000    1.1132409 7.9520229e-05   0.43377501  0.016947968            0   0.41682704    1.6281149    2.0618899    10.204761 
 7540000    1.1126404 4.8084061e-05   0.42457434 0.0061321077            0   0.41844223    1.6272366     2.051811    6.9756188 
 7545000   0.98429466 1.8474939e-05     0.577895  0.026582945            0   0.55131205    1.4395309    2.0174259    3.9092597 
 7550000    1.0365577 -4.329572e-06    0.5162416  0.049857729            0   0.46638387    1.5159656    2.0322072     1.588859 
 7555000    1.0672716 3.4893065e-05   0.50812348  0.035639429            0   0.47248405    1.5608847    2.0690082    5.6420581 
 7560000    1.1084319 0.0001051013   0.45790212  0.028402582            0   0.42949953    1.6210817    2.0789838    12.841357 
 7565000    1.0632155 9.4304128e-05   0.48243115  0.014515271            0   0.46791588    1.5549526    2.0373838    11.694126 
 7570000    1.0684016 2.1158169e-05   0.49330539  0.037056869            0   0.45624852    1.5625373    2.0558427    4.2224392 
 7575000    1.1204883 -1.6722308e-05   0.43550284  0.052956122            0   0.38254671    1.6387141    2.0742169   0.36185262 
 7580000    1.0593391 1.4475075e-05   0.51782045  0.048633486            0   0.46918696    1.5492835    2.0671039    3.5493515 
 7585000     1.034573 -2.9900832e-06   0.53445338 0.0082896241            0   0.52616376    1.5130629    2.0475163    1.7413318 
 7590000    1.1135983 8.0445001e-06   0.41503468 0.00019908465            0    0.4148356    1.6286375    2.0436722     2.867429 
 7595000    1.0400585 3.4236395e-05   0.47244147 0.0080780855            0   0.46436339    1.5210856     1.993527    5.4993338 
 7600000    1.0720551 0.00010658959   0.39548205  0.040937463            0   0.35454459    1.5678806    1.9633626    12.878136 
 7605000    1.0414141 9.7704173e-05    0.4548454  0.062796726            0   0.39204867    1.5230682    1.9779136    11.982821 
 7610000    1.1187671 -8.5060424e-05   0.37356587 0.0045901205            0   0.36897575    1.6361969    2.0097627   -6.7004247 
 7615000    1.0957407 -8.6554187e-05   0.38150308            0            0   0.38150308    1.6025207    1.9840238   -6.8791249 
 7620000    1.1028869 -5.4932216e-05   0.39697064 2.379238e-05            0   0.39694685    1.6129721    2.0099428   -3.6151161 
 7625000    1.0115506 -8.0741535e-05   0.48956608  0.002070004            0   0.48749608    1.4793928    1.9689589   -6.2989743 
 7630000    1.0726813 -3.108315e-05   0.44514936  0.012527625            0   0.43262173    1.5687965    2.0139458   -1.1689688 
 7635000    1.1800851 -1.0934182e-05   0.30738805  0.011629839            0   0.29575821    1.7258745    2.0332625   0.91360232 
 7640000     1.038717 -1.5500492e-06   0.48313297 0.0044649334            0   0.47866803    1.5191236    2.0022565    1.8435315 
 7645000    1.1013943 1.6774315e-06   0.43031074 0.00073499487            0   0.42957575    1.6107892       2.0411     2.212869 
 7650000    1.1251337 1.858745e-05   0.41613478 0.0075473592            0   0.40858742     1.645508    2.0616428    3.9649977 
 7655000    1.0928678 1.3732202e-05   0.45788685  0.031967377            0   0.42591947    1.5983192     2.056206    3.4623835 
 7660000    1.0952725 -2.1318884e-05   0.46349628  0.029791268            0   0.43370502     1.601836    2.0653323  -0.11772148 
 7665000    1.1777776 -1.1540277e-06   0.40711496  0.019328667            0   0.38778629    1.7224998    2.1296147    2.0114423 
 7670000    1.1731869 2.2487139e-05   0.42227339 0.0084292532            0   0.41384413    1.7157859    2.1380593    4.4407423 
 7675000    1.2229235 -5.2134796e-05   0.44051976  0.015535972            0   0.42498378    1.7885256    2.2290453   -3.1095578 
 7680000    1.2387051 -8.4991995e-05   0.44296893  0.064017524            0    0.3789514    1.8116062    2.2545751   -6.4486052 
 7685000    1.0995948 -5.2517412e-05   0.67652991  0.071560509            0    0.6049694    1.6081574    2.2846873   -3.0930957 
 7690000    1.2264945 -2.3000256e-05   0.44820758  0.019010716            0   0.42919686    1.7937482    2.2419558  -0.11327047 
 7695000    1.2165056 -2.2407189e-05    0.4995846 0.0060552075            0   0.49352939    1.7791394     2.278724 -0.015772097 
 7700000    1.2216972 1.8193823e-05   0.48813393  0.020615007            0   0.46751892    1.7867321     2.274866    4.1379135 
 7705000    1.2392673 0.00010126592   0.48077395  0.033797793            0   0.44697616    1.8124285    2.2932024    12.662833 
 7710000    1.2403964 6.0431233e-05   0.43793691  0.051699574            0   0.38623734    1.8140797    2.2520166    8.4401749 
 7715000    1.1788231 -4.8201582e-05   0.49034585  0.040187027            0   0.45015882    1.7240289    2.2143747   -2.7214673 
 7720000     1.148186 -5.3017051e-05   0.50318275 0.0027758756            0   0.50040687    1.6792221    2.1824048   -3.2465411 
 7725000    1.1596863 -2.4833056e-05   0.48857618 9.3683849e-05            0    0.4884825    1.6960412    2.1846174  -0.35828751 
 7730000    1.1886488 4.093104e-05   0.46267265 0.00022440655            0   0.46244824    1.7383988    2.2010715      6.39241 
 7735000    1.2127158 5.0802776e-05   0.42307312 0.0015933613            0   0.42147976    1.7735968    2.1966699    7.3988742 
 7740000    1.0778323 9.1967395e-06   0.61948933   0.00328217            0   0.61620716    1.5763298    2.1958191    3.1375652 
 7745000     1.161815 3.0223697e-05    0.4902225 0.0065318643            0   0.48369064    1.6991545     2.189377    5.2842836 
 7750000    1.1588091 2.3940846e-05   0.52265989 0.0072882345            0   0.51537166    1.6947583    2.2174182    4.6689609 
 7755000    1.2304536 -3.9708042e-05   0.46068463 0.0027367797            0   0.45794786    1.7995384     2.260223   -1.8058804 
 7760000    1.2038381 -4.7115765e-05   0.49796094  0.031581379            0   0.46637956    1.7606132    2.2585741   -2.5660802 
 7765000    1.2852955 -2.4748802e-05   0.40903462   0.08471678            0   0.32431784    1.8797446    2.2887792  -0.24549807 
 7770000    1.2273207 3.1367593e-06   0.45162225  0.035337581            0   0.41628467    1.7949565    2.2465788    2.5677829 
 7775000    1.2169682  1.28748e-05   0.42346991 0.0078085873            0   0.41566132     1.779816    2.2032859    3.5216654 
 7780000    1.1032604 8.1787645e-06   0.59064879  0.060840053            0   0.52980874    1.6135183    2.2041671    3.0416726 
 7785000    1.1361612 6.1477056e-05   0.52542414   0.11440501            0   0.41101914    1.6616357    2.1870599    8.4823104 
 7790000    1.2312663 7.4223463e-06   0.36203021  0.037869956            0   0.32416026    1.8007269    2.1627572    2.9228054 
 7795000    1.2216115 -6.2932709e-05   0.40791232  0.014504767            0   0.39340756    1.7866068    2.1945191   -4.2497903 
 7800000    1.1612248 -2.6880077e-05   0.53711605 0.0011317013            0   0.53598435    1.6982912    2.2354073  -0.51711255 
 7805000    1.2653962 -5.3578215e-06   0.43406068 0.00088101802            0   0.43317966     1.850642    2.2847027    1.7360618 
 7810000    1.2170681 -2.0760663e-06    0.4680464 0.0028598339            0   0.46518657    1.7799621    2.2480085    2.0354193 
 7815000    1.1332775 -5.0309293e-06   0.55628034  0.024632668            0   0.53164768    1.6574184    2.2136987    1.6985316 
 7820000    1.1200776 -6.6645943e-05   0.58711304  0.039282186            0   0.54783086    1.6381135    2.2252265    -4.599318 
 7825000    1.1489082 5.6568763e-06   0.55964496  0.046254868            0   0.51339009    1.6802783    2.2399232    2.8191874 
 7830000    1.1247099 7.7482947e-05   0.60608604  0.061649597            0   0.54443644    1.6448883    2.2509743    10.185228 
 7835000    1.1652104 -2.1790359e-05   0.52289989  0.043230674            0   0.47966922    1.7041202    2.2270201 -0.0043126879 
 7840000    1.1589185 -2.9212256e-06    0.4895765  0.033760621            0   0.45581588    1.6949183    2.1844948    1.8853613 
 7845000     1.129189 8.7209145e-05   0.54590435  0.063156492            0   0.48274786    1.6514389    2.1973432     11.12756 
 7850000    1.1144682 8.7009466e-05   0.54153334  0.050610255            0   0.49092309    1.6299098    2.1714432    11.081213 
 7855000    1.1915841 1.1242791e-05   0.43227618  0.032669538            0   0.39960664    1.7426917    2.1749679    3.3262297 
 7860000    1.0032165 -5.2607296e-05    0.6816501  0.040068601            0    0.6415815    1.4672041    2.1488542   -3.2381328 
 7865000    1.1396757 -2.4572351e-05   0.52740975  0.034051053            0    0.4933587    1.6667757    2.1941854  -0.32202331 
 7870000    1.2185343 -5.8623163e-07   0.39461784 0.0015125206            0   0.39310532    1.7821065    2.1767243    2.1166942 
 7875000    1.2147299 -1.1484405e-05   0.41956251            0            0   0.41956251    1.7765425     2.196105    1.0201019 
 7880000    1.2043605 -4.784049e-05   0.43664957 0.00072487269            0   0.43592469    1.7613772    2.1980267   -2.7008394 
 7885000    1.1323435 -6.7583648e-05   0.55968944 0.0059158071            0   0.55377364    1.6560523    2.2157418   -4.7048238 
 7890000    1.2152315 2.6536669e-05   0.43841179  0.010647828            0   0.42776396     1.777276    2.2156878    4.9330427 
 7895000    1.1472551 8.0715818e-05   0.56463983  0.065662441            0   0.49897739    1.6778606    2.2425004      10.5078 
 7900000    1.0539312 0.00012639883   0.68431317   0.12942443            0   0.55488874    1.5413743    2.2256875    15.168927 
 7905000    1.0600774 -7.9851868e-06   0.63507343  0.035083284            0   0.59999015    1.5503632    2.1854367    1.3677535 
 7910000    1.1897122 -1.8644807e-05   0.45685473  0.011403234            0    0.4454515    1.7399541    2.1968089   0.28758063 
 7915000     1.167542 2.3727896e-05   0.48127712  0.017349731            0   0.46392738    1.7075301    2.1888072    4.6185438 
 7920000    1.1854792 -3.6786925e-05   0.45273445  0.025565038            0   0.42716941    1.7337633    2.1864978   -1.5804834 
 7925000    1.1348408 -3.7731605e-06   0.53612037  0.053483391            0   0.48263698    1.6597047    2.1958251    1.8094535 
 7930000    1.1794624 6.9637445e-05   0.46119966  0.058397268            0   0.40280239    1.7249637    2.1861634    9.3170377 
 7935000    1.0605814 2.5248217e-05   0.61797717  0.026685328            0   0.59129185    1.5511002    2.1690774    4.7544948 
 7940000    1.0954343 1.1677836e-05   0.58899602  0.051296062            0   0.53769996    1.6020726    2.1910687    3.3868791 
 7945000    1.1927887 3.5695265e-05   0.43568529  0.072250178            0   0.36343511    1.7444535    2.1801388    5.8353339 
 7950000    1.2080123 -1.7663903e-05   0.43165047  0.043892725            0   0.38775775     1.766718    2.1983685    0.3895848 
 7955000    1.2441435 4.4168038e-06   0.35920855 0.0063042144            0   0.35290434    1.8195599    2.1787685    2.6310492 
 7960000    1.0754712 1.7325367e-05   0.60885714 0.0027578658            0   0.60609927    1.5728767    2.1817338    3.9558513 
 7965000    1.1431513 -6.7200035e-05   0.52582297  0.016698541            0   0.50912443    1.6718588    2.1976818   -4.6836018 
 7970000    1.1195659 -6.3759876e-06   0.54860762  0.028609916            0    0.5199977    1.6373652    2.1859728    1.5330717 
 7975000    1.1547539 4.0216303e-05   0.46701872  0.029158578            0   0.43786015    1.6888276    2.1558463    6.2739958 
 7980000    1.0324789 -2.4473051e-05   0.64386044  0.032964749            0   0.61089569    1.5100004    2.1538608  -0.35217962 
 7985000    1.1202805 2.2198839e-05   0.51255775  0.014420144            0   0.49813761    1.6384102     2.150968     4.424129 
 7990000    1.1247397 4.5747527e-05   0.48688279 0.0043012393            0   0.48258155    1.6449319    2.1318147    6.8163614 
 7995000    1.0893454 -1.6410461e-05    0.5263897   0.01384675            0   0.51254295    1.5931676    2.1195573   0.43912611 
 8000000    1.0960478 -9.1755495e-05   0.56759816 0.0025896658            0    0.5650085    1.6029699     2.170568   -7.2251946 
 8005000    1.1143331 -6.2658102e-05   0.50972867 2.9187202e-05            0   0.50969948    1.6297121    2.1394408   -4.2767488 
 8010000    1.1389477 5.0050571e-05   0.46414094 0.0004350757            0   0.46370586     1.665711     2.129852    7.2550304 
 8015000    1.1231474 2.6193483e-05   0.42722519 0.0037611923            0     0.423464     1.642603    2.0698282    4.7520409 
 8020000    1.0531278 -1.1801498e-05    0.5630001 0.0095977216            0   0.55340238    1.5401994    2.1031995    0.8947261 
 8025000     1.034913 1.3514888e-05   0.61091126 0.0050176247            0   0.60589364    1.5135602    2.1244715     3.508396 
 8030000    1.1453403 5.5031388e-05   0.46212221  0.018659652            0   0.44346256    1.6750602    2.1371824    7.7723965 
 8035000    1.1497375 4.9442197e-05   0.47787814  0.030741831            0   0.44713631     1.681491    2.1593692    7.2222501 
 8040000    1.1108764 3.6698072e-05   0.56178298  0.029596936            0   0.53218605    1.6246568    2.1864397    5.9443224 
 8045000    1.1317468 -3.2894127e-05   0.54403857 0.0023623433            0   0.54167623    1.6551797    2.1992183   -1.1691403 
 8050000    1.1046688 -9.6417702e-05    0.5981101            0            0    0.5981101    1.6155781    2.2136883   -7.6594844 
 8055000    1.2038137 4.5129726e-06   0.47060731  0.011248114            0    0.4593592    1.7605776    2.2311849    2.6933133 
 8060000    1.1383582 5.096412e-05   0.56607022  0.062587187            0   0.50348304    1.6648489    2.2309191     7.449645 
 8065000    1.2274489 -5.7057369e-05   0.42884113 0.0031471552            0   0.42569398     1.795144    2.2239851   -3.6186894 
 8070000    1.1530931 -1.5382629e-05   0.50267023   0.00550089            0   0.49716934    1.6863986    2.1890688   0.61388762 
 8075000    1.1079943 5.1481538e-07   0.56169247  0.011234254            0   0.55045822    1.6204417    2.1821342    2.2348513 
 8080000    1.2404188 -5.288559e-05   0.41621841  0.018612379            0   0.39760604    1.8141125     2.230331   -3.1851535 
 8085000    1.1726479 -3.4836772e-05   0.50288348  0.049060179            0    0.4538233    1.7149975     2.217881   -1.3494044 
 8090000    1.0470532 -4.0489779e-06   0.64752739  0.043973118            0   0.60355427    1.5313153    2.1788427    1.7642274 
 8095000    1.1898121 1.4589039e-06   0.45925787    0.0113809            0   0.44787697    1.7401001     2.199358    2.3487498 
 8100000    1.1506349 -3.303579e-05   0.50917135 0.0029860965            0   0.50618525    1.6828036    2.1919749     -1.19089 
 8105000     1.189091 8.2211992e-06   0.46892012  0.018096409            0   0.45082371    1.7390456    2.2079658    3.0498166 
 8110000    1.1555745 9.9594538e-05   0.51280572  0.053281204            0   0.45952451    1.6900276    2.2028334    12.401314 
 8115000    1.0784871 4.4242936e-05   0.61342425  0.028482285            0   0.58494197    1.5772874    2.1907116    6.7211883 
 8120000    1.1263413 4.6684794e-05   0.59371184  0.046144264            0   0.54756758    1.6472742     2.240986    7.0215089 
 8125000    1.1996124 -1.8632208e-05   0.49910471   0.04503145            0   0.45407326    1.7544332    2.2535379   0.34559982 
 8130000    1.1352936 2.0416582e-05   0.60503168   0.12245921            0   0.48257248    1.6603669    2.2653986    4.3560565 
 8135000    1.1130118 -5.2697704e-05   0.60883455  0.038386677            0   0.57044787    1.6277797    2.2366143   -3.1596307 
 8140000    1.1917335 4.4012415e-05   0.47968224  0.025308244            0   0.45437399    1.7429102    2.2225925    6.7294637 
 8145000     1.119606 -1.9121135e-05   0.58464377  0.020030845            0   0.56461293    1.6374238    2.2220676   0.26406339 
 8150000    1.2516666 -2.9470751e-05    0.3610455  0.018820852            0   0.34222465    1.8305624    2.1916079  -0.82619704 
 8155000    1.2208575 -1.6560815e-05     0.384676 0.0074380611            0   0.37723794    1.7855041    2.1701801   0.47435264 
 8160000    1.1331689 -2.9128463e-05   0.47288469            0            0   0.47288469    1.6572595    2.1301442  -0.85261041 
 8165000     1.108269 9.4127646e-05   0.48714381            0            0   0.48714381    1.6208434    2.1079872    11.746658 
 8170000    1.1134263 6.1305996e-05   0.50383628            0            0   0.50383628     1.628386    2.1322223    8.4099563 
 8175000    1.0949793 3.8255869e-05   0.49378519 0.0040775419            0   0.48970765    1.6014072    2.0951924    6.0125934 
 8180000    1.1345555 -2.1441962e-05   0.41884761  0.028708987            0   0.39013863    1.6592873     2.078135  -0.11752193 
 8185000     1.074868 -5.7014588e-05   0.55143474   0.03614025            0   0.51529449    1.5719944    2.1234292   -3.7148646 
 8190000    1.1125132 3.4034363e-05    0.4829725  0.022198796            0   0.46077371    1.6270505     2.110023    5.5951418 
 8195000    1.1522251 8.6827841e-05   0.40859501 0.0083631788            0   0.40023183    1.6851293    2.0937243    10.984895 
 8200000    1.1444417 -2.1867889e-05   0.47755255  0.015571146            0   0.46198141    1.6737459    2.1512985 -0.087973315 
 8205000    1.0710563 -9.4653052e-05   0.59468806  0.052271493            0   0.54241657    1.5664199    2.1611079   -7.5313646 
 8210000    1.1429704 -2.7530662e-05   0.45603625 0.0021322893            0   0.45390396    1.6715941    2.1276304  -0.69150938 
 8215000    1.1002096 6.0196798e-05   0.52778727            0            0   0.52778727    1.6090566    2.1368438     8.300996 
 8220000    1.1948056 4.9842698e-05   0.36383177 0.0012818946            0   0.36254987    1.7474032     2.111235    7.2151273 
 8225000    1.0433914 -2.9475366e-06   0.55335539  0.029161859            0   0.52419353    1.5259599    2.0793153    1.7774876 
 8230000     1.062916 1.4033353e-05   0.53831108  0.054988493            0   0.48332259    1.5545147    2.0928258    3.5298412 
 8235000    1.0674143 6.3093023e-05   0.56820302   0.11149355            0   0.45670947    1.5610934    2.1292965    8.5900221 
 8240000    1.1343147 -1.6710976e-05   0.46506457  0.025985391            0   0.43907918    1.6589353    2.1239999   0.41279593 
 8245000    1.0961454 -8.352562e-05   0.55398749  0.024858473            0   0.52912902    1.6031126    2.1571001   -6.3959234 
 8250000    1.2130202 -8.7468142e-05   0.39620122  0.033584885            0   0.36261633     1.774042    2.1702432   -6.7864945 
 8255000    1.1682836 -4.5315255e-05   0.47332895  0.029362108            0   0.44396685    1.7086148    2.1819437   -2.4583384 
 8260000    1.1836716 -1.1781091e-05   0.46858347  0.019030646            0   0.44955283    1.7311197    2.1997032   0.99331946 
 8265000    1.1585101 5.9606447e-06   0.49360645  0.042775719            0   0.45083073    1.6943211    2.1879275    2.7982975 
 8270000    1.0684763 5.8168406e-05   0.62774955  0.036459042            0   0.59129051    1.5626466    2.1903961    8.1468409 
 8275000    1.1813936 0.00013678438   0.51134168   0.02813667            0   0.48320501    1.7277881    2.2391298    16.245851 
 8280000    1.2844164 6.7869348e-05   0.34291963  0.011847067            0   0.33107257    1.8784589    2.2213786    9.1711998 
 8285000    1.0690622 6.778196e-06   0.62471786  0.058401922            0   0.56631594    1.5635035    2.1882214    2.8823086 
 8290000    1.1033758 6.2395213e-05   0.57642555  0.071938009            0   0.50448754    1.6136871    2.1901126    8.5793825 
 8295000    1.0718129 1.5336237e-05   0.54672493  0.040296873            0   0.50642806    1.5675263    2.1142513     3.684682 
 8300000    1.0171366 -5.1966385e-05   0.59338652  0.036157461            0   0.55722906    1.4875622    2.0809488    -3.240409 
 8305000    1.1433326 -6.2513479e-05   0.40891087 0.0044786951            0   0.40443218    1.6721239    2.0810348   -4.3203454 
 8310000    1.0765577 -5.7150661e-05   0.50116899  0.011440781            0   0.48972821    1.5744656    2.0756346    -3.776593 
 8315000    1.0401598 -1.1111396e-05    0.5486587  0.067587665            0   0.48107103    1.5212338    2.0698925   0.93208553 
 8320000    1.0795082 9.7889297e-06   0.45696227  0.025389521            0   0.43157275    1.5787808    2.0357431    3.0381295 
 8325000     1.115509  4.07206e-05   0.40630634  0.013929572            0   0.39237677    1.6314319    2.0377383    6.2075277 
 8330000    1.1413885 9.3964703e-05   0.36056903  0.016624177            0   0.34394486    1.6692807    2.0298497    11.651835 
 8335000    1.0614475 1.283161e-05   0.49094619  0.025737678            0   0.46520851     1.552367    2.0433132    3.3572701 
 8340000    1.0544993 -9.4276354e-05   0.53040139  0.040339453            0   0.49006193    1.5422052    2.0726066    -7.581292 
 8345000   0.99766226 -9.0796935e-05   0.59625704  0.033514266            0   0.56274277    1.4590811    2.0553381    -7.242268 
 8350000    1.0440413 -7.3349414e-05   0.50071993  0.032750187            0   0.46796974    1.5269105    2.0276304   -5.4833496 
 8355000    1.0125585 1.9179172e-05   0.54948338  0.084839819            0   0.46464356    1.4808667    2.0303501    3.9942973 
 8360000    1.0599169 8.5568012e-05   0.44824245   0.14500106            0   0.30324139    1.5501284    1.9983709    10.760535 
 8365000   0.97868215 1.0631212e-05   0.52551954   0.03922866            0   0.48629088    1.4313226    1.9568422    3.0454783 
 8370000   0.95895711 3.9294409e-05   0.53483423 0.00099246831            0   0.53384176    1.4024748     1.937309    5.9610565 
 8375000    1.0694202 2.8631465e-05   0.36466405 0.00050380273            0   0.36416024    1.5640271    1.9286911    4.8605531 
 8380000    1.0190586 9.0681935e-05   0.45104714  0.014219906            0   0.43682723    1.4903733    1.9414204    11.227251 
 8385000    1.0340608 -2.841099e-05   0.44075528  0.040599442            0   0.40015584    1.5123139    1.9530692  -0.95621613 
 8390000   0.98865478 -8.8158233e-05   0.47403156  0.003066968            0   0.47096459    1.4459076    1.9199392   -7.1074639 
 8395000    1.0512231 2.7896065e-05   0.35629044 0.0069679601            0   0.34932248    1.5374137    1.8937042    4.7502613 
 8400000   0.94616884 0.00010833835   0.52111457  0.030448665            0    0.4906659    1.3837719    1.9048865    12.998734 
 8405000   0.96124048 1.901181e-05   0.53473499  0.056339981            0   0.47839501    1.4058142    1.9405492    3.8873585 
 8410000    1.0075039 -0.00010126737   0.43994516 0.0087755684            0   0.43116959    1.4734744    1.9134196   -8.4563588 
 8415000    1.0598387 -2.6386985e-05   0.35923112 0.00065120202            0   0.35857992    1.5500141    1.9092452  -0.79278208 
 8420000   0.87456779 -2.0845459e-05   0.57919546 0.0024324515            0   0.57676301    1.2790554    1.8582509  -0.27632415 
 8425000   0.99175285 1.9246457e-05   0.39887444  0.011120175            0   0.38775427    1.4504385     1.849313    3.8201502 
 8430000   0.99343596 8.6973649e-05   0.41820021   0.01098855            0   0.40721166    1.4529001    1.8711003    10.777202 
 8435000    1.0215429 7.4995902e-05   0.42115057  0.013473765            0    0.4076768    1.4940065    1.9151571    9.5947374 
 8440000   0.96443244 4.1665513e-05   0.49094719  0.030970303            0   0.45997689    1.4104824    1.9014296    6.1679782 
 8445000    1.0001107 -2.731369e-05   0.45567144  0.013448299            0   0.44222314    1.4626619    1.9183334  -0.87858849 
 8450000    0.9769012 -0.00012181899   0.48522625 0.00028925228            0     0.484937     1.428718    1.9139443   -10.560321 
 8455000    1.0481721 -5.6930077e-05    0.4054883 6.4205337e-05            0   0.40542409    1.5329517      1.93844   -3.8911999 
 8460000    1.0464797 1.6674152e-05   0.42523499 0.0025145493            0   0.42272044    1.5304765    1.9557115    3.6631447 
 8465000    1.0644252 -3.465799e-05   0.41653564 0.0019993506            0   0.41453629    1.5567219    1.9732575   -1.5757206 
 8470000    1.1061979 2.0110029e-05   0.38710228  0.001079797            0   0.38602248    1.6178145    2.0049168    4.0641837 
 8475000    0.9967803 3.1013458e-05   0.55327171  0.018619604            0    0.5346521    1.4577912    2.0110629     5.186841 
 8480000    1.0728848 -3.5734391e-05   0.48090169  0.032717535            0   0.44818416     1.569094    2.0499957   -1.6092059 
 8485000    1.1166436 1.136337e-06   0.46240221  0.089396223            0   0.37300599    1.6330912    2.0954934    2.2118544 
 8490000    1.2093175 6.9067154e-05   0.32797786  0.056534323            0   0.27144353    1.7686268    2.0966046    9.1690812 
 8495000    1.1739992 4.6633487e-05    0.3976143  0.015795634            0   0.38181867    1.7169739    2.1145882    6.8898573 
 8500000    1.1625903 -2.0277557e-05    0.4333378  0.013154053            0   0.42018374    1.7002883    2.1336261  0.057204237 
 8505000    1.1565488 -2.6519395e-05   0.40272115   0.04670407            0   0.35601708    1.6914526    2.0941737  -0.62141232 
 8510000    1.1445007 -0.00010621598   0.39200558 0.0084044759            0   0.38360111    1.6738322    2.0658378   -8.8106786 
 8515000    1.0531287 -3.2247514e-05   0.51679221            0            0   0.51679221    1.5402007     2.056993   -1.2451525 
 8520000    1.0879385 -8.2634647e-06   0.45504828            0            0   0.45504828      1.59111    2.0461583    1.1999795 
 8525000    1.0960392 -3.5116688e-05   0.44698756            0            0   0.44698756    1.6029573    2.0499449    -1.546004 
 8530000    1.0707263 9.1437017e-06    0.4777493            0            0    0.4777493    1.5659372    2.0436865    2.9800016 
 8535000    1.0793103 -7.9281811e-06   0.47444096  0.001151092            0   0.47328987    1.5784914    2.0529323    1.2410866 
 8540000    1.0180127 -2.8274978e-05   0.53029745  0.016067146            0    0.5142303    1.4888435     2.019141   -0.8762168 
 8545000    1.1473782 4.6326823e-05   0.34955502  0.023441109            0   0.32611391    1.6780406    2.0275957    6.7714624 
 8550000    1.0859183 1.8020033e-05   0.42211606  0.012782844            0   0.40933321    1.5881555    2.0102715    3.8555229 
 8555000   0.95888465 -0.00010505579   0.62784474 0.0029956209            0   0.62484912    1.4023688    2.0302135   -8.7274994 
 8560000    1.1413916 -3.07115e-05   0.33128292 2.1069823e-05            0   0.33126185    1.6692852    2.0005681   -1.1442894 
 8565000    1.0581675 -2.9652084e-07   0.44315751            0            0   0.44315751      1.54757    1.9907275    1.9603638 
 8570000    1.0216098 -5.2550021e-05   0.49151661            0            0   0.49151661    1.4941043    1.9856209   -3.3955012 
 8575000   0.98797928 4.4916231e-05   0.56090286 0.00018568425            0   0.56071718    1.4449197    2.0058226    6.6052446 
 8580000    1.0695514 7.9972786e-05   0.46572322 0.0018791747            0   0.46384405    1.5642189    2.0299421    10.219155 
 8585000    1.0257854 -6.1684535e-05   0.51486524 0.0019742086            0   0.51289103    1.5002111    2.0150764     -4.30142 
 8590000    1.0557896 -2.7794019e-05   0.44943204 0.0047595163            0   0.44467252    1.5440923    1.9935243  -0.85258326 
 8595000   0.97399105 3.4856769e-05   0.56956392 0.0060268192            0    0.5635371    1.4244619    1.9940258     5.563359 
 8600000    1.0090909 3.4920708e-06     0.505411   0.02452222            0   0.48088878    1.4757955    1.9812065    2.3387945 
 8605000    1.0289312 3.762669e-05   0.46531054  0.019713298            0   0.44559724    1.5048118    1.9701224    5.8230955 
 8610000    1.0132572 -3.1783846e-05    0.4952451  0.025493409            0   0.46975169    1.4818886    1.9771337   -1.2775322 
 8615000   0.94621588 -2.2874729e-05    0.5673143  0.058641706            0    0.5086726    1.3838407     1.951155  -0.39121719 
 8620000   0.99901193 1.3310632e-05   0.47847598   0.02156826            0   0.45690772     1.461055    1.9395309    3.3025397 
 8625000   0.97094732 -5.8546314e-05   0.50402494  0.024821634            0   0.47920331    1.4200104    1.9240354   -4.0711071 
 8630000   0.97605975 -8.4618678e-05   0.48042666  0.013553022            0   0.46687364    1.4274874     1.907914   -6.7570386 
 8635000   0.90393844 -3.6599443e-05   0.55328633 0.0024553087            0   0.55083102      1.32201    1.8752963   -1.8724866 
 8640000   0.99762319 3.6316605e-06   0.36641387 0.0099068613            0   0.35650701    1.4590239    1.8254378    2.1973198 
 8645000    0.9341035 -2.4201881e-05   0.47165222  0.025872293            0   0.44577993    1.3661264    1.8377786  -0.64049407 
 8650000   0.93007386 -6.3182208e-05   0.46828421    0.0102881            0   0.45799611     1.360233    1.8285172   -4.6413409 
 8655000   0.99949605 5.3961785e-07   0.38200811 0.0023599093            0    0.3796482     1.461763    1.8437711     1.899028 
 8660000   0.98121634 6.5038083e-05   0.40893744 0.0084935014            0   0.40044394    1.4350289    1.8439663    8.5038661 
 8665000   0.95093682 -2.0183113e-05   0.46662303  0.011663223            0    0.4549598    1.3907451    1.8573681  -0.20938267 
 8670000    1.0051597 -7.1223789e-05   0.37688769   0.02878048            0   0.34810721     1.470046    1.8469337   -5.4463823 
 8675000   0.97570495 -3.3500395e-06   0.44196819   0.05970721            0   0.38226098    1.4269685    1.8689367    1.5258926 
 8680000   0.94714787 -6.3489842e-07   0.48622494  0.021679854            0   0.46454508    1.3852038    1.8714287    1.8064151 
 8685000   0.95982037 -1.818324e-05   0.45500066   0.02125335            0   0.43374731    1.4037373    1.8587379 -0.0032258371 
 8690000   0.90381077 -5.3170747e-05   0.52454694  0.030196393            0   0.49435055    1.3218232    1.8463702   -3.5983143 
 8695000   0.96695653 -4.8558497e-05   0.44264034  0.009511768            0   0.43312857    1.4141739    1.8568143   -3.1155758 
 8700000   0.98764197 4.4946045e-05   0.42044203 0.00029296381            0   0.42014906    1.4444264    1.8648684    6.4673434 
 8705000   0.88832143 6.5494156e-05   0.52109785 0.0032893792            0   0.51780847    1.2991701    1.8202679    8.5268695 
 8710000   0.96905865 1.2333677e-06   0.44082505  0.015354844            0   0.42547021    1.4172483    1.8580733    1.9843702 
 8715000   0.99908678 -1.9112229e-05   0.42545606  0.019701862            0    0.4057542    1.4611644    1.8866205 -0.070471822 
 8720000   0.96013656 -3.4615606e-05   0.49123596 0.0024533846            0   0.48878257    1.4041997    1.8954357   -1.6492024 
 8725000    0.9751315 -1.3449286e-05   0.49834275            0            0   0.49834275    1.4261298    1.9244726   0.54726569 
 8730000     1.052354 5.4230992e-05   0.40852215            0            0   0.40852215    1.5390677    1.9475899    7.5008435 
 8735000    1.0009999 2.4591657e-05   0.51790176            0            0   0.51790176    1.4639623    1.9818641    4.5000498 
 8740000   0.98478916 -3.3042406e-05   0.56068379            0            0   0.56068379    1.4402541    2.0009379   -1.3826045 
 8745000    1.0526571 6.0499571e-05   0.44093084            0            0   0.44093084     1.539511    1.9804418    8.1755979 
 8750000    1.0974889 3.5903096e-05   0.40982008            0            0   0.40982008    1.6050775    2.0148975    5.6913746 
 8755000    1.0564178 -4.7192441e-05    0.5079823            0            0    0.5079823    1.5450111    2.0529934   -2.7795126 
 8760000    1.0442013 2.3973317e-05   0.54827445            0            0   0.54827445    1.5271443    2.0754188    4.5302864 
 8765000    1.0808088 6.4098087e-05   0.50483924            0            0   0.50483924    1.5806829    2.0855221    8.6491662 
 8770000    1.1516228 -1.2696011e-05   0.43617172            0            0   0.43617172    1.6842484    2.1204201   0.82034861 
 8775000    1.1044946 -4.3665099e-05   0.49565574            0            0   0.49565574    1.6153233    2.1109791    -2.360327 
 8780000    1.0291228 -8.7506469e-05   0.54762626 0.0030839454            0   0.54454231    1.5050922    2.0527184    -6.907944 
 8785000    1.1797098 -3.1844725e-05    0.3318641 0.0076984938            0    0.3241656    1.7253256    2.0571897   -1.2037101 
 8790000    1.0566435 3.9605112e-05   0.49980043  0.010598345            0   0.48920208    1.5453412    2.0451416     6.100705 
 8795000    1.0735399 1.7788333e-05   0.47861074  0.012544721            0   0.46606602    1.5700521    2.0486629    3.8701882 
 8800000    1.0522057 2.4623052e-05   0.49874411 0.0030913477            0   0.49565277    1.5388508    2.0375949    4.5589955 
 8805000    1.1066819 -3.5285814e-05    0.4159923 7.4746043e-05            0   0.41591755    1.6185224    2.0345147   -1.5787527 
 8810000   0.97935664 -1.4549665e-05   0.57669474  0.004502423            0   0.57219232    1.4323091    2.0090038   0.51911816 
 8815000    1.1076972 9.8129158e-06   0.42702274  0.013001649            0   0.41402109    1.6200072    2.0470299    3.0518725 
 8820000    1.0250287 -3.7878566e-05   0.54528133 0.0057484876            0   0.53953285    1.4991044    2.0443858   -1.8343793 
 8825000     1.013979 -3.8297544e-05   0.56827556 7.8724451e-05            0   0.56819683    1.4829443    2.0512199   -1.8704486 
 8830000   0.97119784 2.2987323e-05   0.65370991  0.003061744            0   0.65064816    1.4203768    2.0740868    4.4279886 
 8835000    1.0302864 6.8054471e-05   0.54416437  0.051561395            0   0.49260298    1.5067938    2.0509582    9.0197361 
 8840000    1.1777789 -8.0422712e-05   0.34120061  0.029655895            0   0.31154472    1.7225017    2.0637023   -6.1715834 
 8845000    1.0947038 -0.00010821623   0.46064268 0.0012873703            0   0.45935531    1.6010043     2.061647   -9.0196945 
 8850000    1.1209414 -1.0965247e-05   0.44127967 0.0047404907            0   0.43653918    1.6393768    2.0806565   0.95781522 
 8855000    1.0047369 6.9629782e-05   0.60645034   0.03376733            0   0.57268301    1.4694277     2.075878    9.2059677 
 8860000    1.0535114 8.0298995e-05   0.54552491   0.01139445            0   0.53413046    1.5407604    2.0862853    10.308902 
 8865000    1.0686959 8.4606874e-05   0.50562705  0.026680248            0    0.4789468    1.5629677    2.0685947    10.732339 
 8870000    1.0669288 9.3425964e-05   0.49091132  0.048164672            0   0.44274665    1.5603833    2.0512946    11.618113 
 8875000    1.0469067 -1.8114458e-05   0.52387784  0.023276919            0   0.50060092    1.5311011     2.054979   0.20005847 
 8880000    1.0416635 7.1286963e-05   0.51005108  0.010881333            0   0.49916975    1.5234328    2.0334839    9.3332689 
 8885000   0.97852461 2.8538363e-05    0.5762237 0.0046011503            0   0.57162255    1.4310922    2.0073159    4.9296443 
 8890000    1.0844024 -0.00013486223   0.43244121 0.00022209178            0   0.43221912    1.5859384    2.0183797   -11.791513 
 8895000    1.1316096 -2.0527782e-05    0.3790915 0.00085699476            0   0.37823451     1.654979    2.0340705 -0.067974384 
 8900000    1.0056553 6.3235777e-05   0.57236362  0.023598028            0    0.5487656    1.4707708    2.0431344     8.518478 
 8905000   0.93138877 -6.2807805e-05   0.67070871  0.045173615            0   0.62553509    1.3621561    2.0328648   -4.3986545 
 8910000   0.95411226 -1.2879013e-05   0.64339208  0.023819289            0   0.61957279    1.3953892    2.0387813    0.7199703 
 8915000    1.0578928 -2.7248195e-05   0.41154401 0.0070883483            0   0.40445567    1.5471683    1.9587123  -0.83150284 
 8920000   0.98226237 -8.5940998e-06   0.51458426  0.021035687            0   0.49354857    1.4365587     1.951143    1.0711072 
 8925000   0.97295794 -4.3809067e-05   0.55997026  0.028213592            0   0.53175667     1.422951    1.9829212   -2.5031272 
 8930000    1.0517973 -5.4337584e-05   0.45253818  0.016823552            0   0.43571463    1.5382536    1.9907918   -3.5733769 
 8935000    1.0448199 1.6768038e-05   0.48077453  0.017471521            0   0.46330301    1.5280491    2.0088236    3.7258707 
 8940000    1.0885701 -9.636268e-06   0.45897531  0.021056821            0   0.43791849    1.5920338    2.0510091    1.0642553 
 8945000    0.9824839 4.8554668e-05   0.63342984   0.01602944            0    0.6174004    1.4368827    2.0703126    7.0423106 
 8950000    1.0955815 3.0639215e-05   0.47308093  0.021524542            0   0.45155638    1.6022879    2.0753688    5.2128245 
 8955000    1.0775149 -3.9454615e-05   0.49264331  0.011320144            0   0.48132316    1.5758656    2.0685089   -1.9716437 
 8960000    1.0439738 -5.916453e-05   0.53134335 0.0002071756            0   0.53113618    1.5268117    2.0581551   -4.0002928 
 8965000    1.0339302 -6.9442346e-05    0.5642225            0            0    0.5642225     1.512123    2.0763455   -5.0345508 
 8970000   0.97118621 -9.2583536e-05   0.66526631            0            0   0.66526631    1.4203598    2.0856261    -7.394928 
 8975000    1.1043281 2.8012083e-05   0.51078035  0.019982638            0   0.49079771    1.6150799    2.1258602    4.9942975 
 8980000    1.0541595 6.4151103e-05   0.54975711   0.08452669            0   0.46523042    1.5417082    2.0914653    8.6605383 
 8985000    1.0095588 -0.00011675025    0.6066532  0.044992111            0   0.56166109    1.4764797    2.0831329   -9.8720932 
 8990000    1.0409827 -4.2507397e-05   0.56252677  0.026078765            0     0.536448    1.5224372     2.084964   -2.2677934 
 8995000    1.0060982  0.000124531   0.63935999  0.042908278            0   0.59645171    1.4714186    2.1107786    14.862753 
 9000000    1.0625675 4.2707524e-05   0.51998494  0.016544342            0    0.5034406     1.554005    2.0739899    6.4472403 
 9005000    1.0434829 4.010409e-05   0.51390213 0.00087289314            0   0.51302924    1.5260938    2.0399959    6.1466548 
 9010000    1.0605888 3.6277539e-05   0.49066988            0            0   0.49066988    1.5511111     2.041781    5.7566009 
 9015000    1.1238015 8.9103057e-06   0.41582622            0            0   0.41582622    1.6435597    2.0593859    2.9718012 
 9020000   0.96649069 6.6478354e-05   0.62256641            0            0   0.62256641    1.4134926     2.036059    8.8434425 
 9025000      1.13785 -2.4876123e-05   0.40341855 0.00050723934            0   0.40291131    1.6641056    2.0675241  -0.47979082 
 9030000    1.0360313 -6.8590006e-05   0.56236989 0.0092152549            0   0.55315463    1.5151958    2.0775657   -4.9460509 
 9035000    1.1770586 5.1960167e-06   0.40880864  0.010031213            0   0.39877743    1.7214483    2.1302569     2.662329 
 9040000    1.0890234 -2.1507805e-05   0.55010484 0.00082120361            0   0.54928364    1.5926968    2.1428016 -0.059597678 
 9045000    1.1259981 6.9588818e-05   0.53901611            0            0   0.53901611    1.6467723    2.1857884    9.3116834 
 9050000     1.233754 2.4251831e-05   0.38800632 0.0011043909            0   0.38690193    1.8043652    2.1923716    4.6757591 
 9055000    1.2232407 -4.9744985e-05   0.37243255  0.020806232            0   0.35162631    1.7889896    2.1614221   -2.9324643 
 9060000     1.018604 6.517303e-05   0.68594138  0.017454076            0    0.6684873    1.4897083    2.1756497     8.849368 
 9065000    1.2080526 -5.031565e-05   0.40776247 0.00024819804            0   0.40751427    1.7667769    2.1745394   -2.9777832 
 9070000    1.0075728 -1.5138052e-05    0.7278971   0.00926767            0   0.71862943    1.4735752    2.2014723   0.65133577 
 9075000      1.05098 6.4046233e-05   0.63170569  0.068595179            0   0.56311052    1.5370582    2.1687639    8.7270982 
 9080000    1.1803847 1.2792558e-05   0.48086143  0.035981606            0   0.44487982    1.7263126    2.2071741     3.517132 
 9085000    1.1435134 3.6393441e-06   0.53469341  0.023714046            0   0.51097936    1.6723883    2.2070818    2.5797506 
 9090000    1.2419935 -1.4310954e-05   0.35890721 0.0069434556            0   0.35196375    1.8164155    2.1753228   0.70988111 
 9095000     1.016789 2.5327543e-05   0.67772678 0.0068485136            0   0.67087827    1.4870538    2.1647806     4.758321 
 9100000   0.97419607 -9.4467288e-06    0.7732137   0.02066747            0   0.75254623    1.4247618    2.1979754    1.2306304 
 9105000    1.1344954 -9.2557479e-05   0.54073777 0.0072022867            0   0.53353549    1.6591995    2.1999373   -7.2779486 
 9110000    1.0673955 -0.00011953871   0.64930734 0.00014974758            0   0.64915759    1.5610659    2.2103732   -10.030391 
 9115000    1.0506782 -0.00013804015   0.68458462  0.014074281            0   0.67051034    1.5366169    2.2212016    -11.91411 
 9120000    1.2139863 -2.6799081e-05   0.52940412  0.045313347            0   0.48409078    1.7754549    2.3048591  -0.43936682 
 9125000    1.2120558 4.6470045e-05   0.47871466   0.01381731            0   0.46489735    1.7726316    2.2513463    7.0098789 
 9130000    1.2072405 2.2831967e-05   0.50827753 0.0028300002            0   0.50544753    1.7655893    2.2738668    4.6118602 
 9135000    1.1526315 1.5428339e-05    0.6448305 0.0010578923            0    0.6437726    1.6857236     2.330554    3.9104159 
 9140000    1.2567691 9.1914924e-07   0.54238971 0.0043769328            0   0.53801277    1.8380248    2.3804145    2.4745354 
 9145000    1.1880551 7.0132451e-05   0.60640269  0.063020323            0   0.54338236    1.7375306    2.3439333    9.5254963 
 9150000    1.3437285 1.3588096e-05   0.35325213  0.024249246            0   0.32900288     1.965203    2.3184551    3.7098761 
 9155000    1.1757103 -0.00013478403   0.58953229 0.0018932936            0     0.587639    1.7194764    2.3090087   -11.492876 
 9160000     1.148178 -6.2308529e-05   0.68137589  0.018205148            0   0.66317074    1.6792103    2.3605861   -4.0198073 
 9165000    1.2536483 7.397624e-05   0.53465422  0.043195506            0   0.49145871    1.8334606    2.3681149    9.9432819 
 9170000    1.0667133 9.6820958e-05   0.79747823  0.061438108            0   0.73604012    1.5600681    2.3575464    12.272013 
 9175000    1.1894555 7.0165228e-05   0.64056018  0.033274005            0   0.60728617    1.7395787    2.3801389    9.5650582 
 9180000    1.3359994 -2.41022e-05   0.41889238  0.015506081            0    0.4033863    1.9538991    2.3727915 -0.095273807 
 9185000    1.1956323 -5.9255397e-05   0.63026274  0.045935472            0   0.58432727    1.7486123     2.378875   -3.6888777 
 9190000    1.2063821 -2.7171442e-05   0.62911905  0.024063549            0    0.6050555    1.7643338    2.3934528  -0.38890278 
 9195000    1.3097808 -6.7373618e-06   0.54828413 0.0098758008            0   0.53840832    1.9155544    2.4638385    1.7739326 
 9200000    1.2620458 5.9275144e-05   0.61921384 0.0018696641            0   0.61734417     1.845742    2.4649558    8.5347305 
 9205000    1.2422021 4.2439266e-05   0.67401033            0            0   0.67401033    1.8167205    2.4907309    6.8365117 
 9210000    1.3270433 3.9437444e-05   0.52867743  0.020681584            0   0.50799585    1.9408009    2.4694783    6.5078726 
 9215000    1.2396231 6.6707226e-05   0.64736719  0.089183863            0   0.55818332    1.8129487    2.4603159    9.2911358 
 9220000    1.2244238 -1.0791813e-05   0.65490818  0.030097392            0   0.62481079    1.7907199    2.4456281    1.3405464 
 9225000    1.3015219 -4.3790257e-05   0.52159536  0.056942618            0   0.46465274    1.9034758    2.4250711   -2.0590512 
 9230000    1.2767847 -3.3034237e-05   0.57982477  0.009928329            0   0.56989644    1.8672977    2.4471225  -0.93558337 
 9235000     1.408243 -9.6494589e-06   0.38338875 4.1876512e-05            0   0.38334688    2.0595553    2.4429441    1.4548395 
 9240000    1.2985955 5.0289669e-05   0.51236047 0.0033450865            0   0.50901539    1.8991959    2.4115564    7.5612185 
 9245000    1.3066654 2.8322507e-05   0.50921473  0.019967012            0   0.48924772    1.9109982    2.4202129    5.3204377 
 9250000    1.2026774 2.1953298e-05   0.66496681  0.034152863            0   0.63081395    1.7589157    2.4238825    4.6719002 
 9255000     1.238873 6.8491177e-05   0.62877322   0.04118362            0    0.5875896    1.8118517    2.4406249    9.4541215 
 9260000    1.1513963 4.3237068e-05    0.7749802  0.038141461            0   0.73683874    1.6839172    2.4588974    6.8863732 
 9265000    1.1623855 9.6906312e-05   0.75501535  0.017282579            0   0.73773277    1.6999888    2.4550042    12.378211 
 9270000    1.1950179 8.0221209e-05   0.66411074 0.0051866895            0   0.65892405    1.7477137    2.4118245    10.626476 
 9275000    1.0597439 -6.8904683e-05   0.83809768 0.0006580132            0   0.83743967    1.5498755    2.3879732   -4.6678663 
 9280000     1.242954 -7.2804645e-06   0.52491333 0.0049145443            0   0.51999878    1.8178203    2.3427336     1.597214 
 9285000    1.2692509 9.8332576e-05   0.45205118  0.049906008            0   0.40214517    1.8562794    2.3083306    12.377586 
 9290000    1.2724541 -1.2660428e-05   0.44541356  0.014097549            0   0.43131601    1.8609641    2.3063777    1.0099499 
 9295000    1.0682247 -8.3837221e-05   0.71776978  0.012581495            0   0.70518829    1.5622786    2.2800484   -6.3048831 
 9300000    1.1659746 5.0719073e-05   0.55490375  0.019307346            0    0.5355964    1.7052379    2.2601417    7.4537747 
 9305000    1.1502442 7.277152e-05   0.56596378  0.038698649            0   0.52726514    1.6822322     2.248196    9.6999996 
 9310000    1.1634595 -4.7182682e-05    0.5389739  0.026431879            0   0.51254202    1.7015596    2.2405335   -2.5909731 
 9315000    1.2403494 -2.2779096e-05   0.45925523  0.010818471            0   0.44843676     1.814011    2.2732662 -0.059313168 
 9320000    1.1048213 8.8458044e-06    0.6550749     0.035266            0    0.6198089    1.6158011     2.270876    3.1766864 
 9325000    1.0364076 -4.9796062e-05   0.78848474  0.058904995            0   0.72957974    1.5157461    2.3042309   -2.7948859 
 9330000    1.3135282 8.906198e-06   0.39921776  0.029648758            0     0.369569     1.921035    2.3202528    3.2322474 
 9335000    1.2428792 -1.7266466e-05   0.53649751 0.00041838135            0   0.53607913    1.8177108    2.3542083   0.58612216 
 9340000    1.1416551 -0.00010195275   0.73095477            0            0   0.73095477    1.6696706    2.4006254   -8.0393359 
 9345000    1.2371514 -2.1460648e-05   0.58334362            0            0   0.58334362    1.8093339    2.3926775   0.19510712 
 9350000    1.2595272 -7.5062388e-05   0.56995648            0            0   0.56995648    1.8420585     2.412015   -5.2743735 
 9355000    1.2734547 -4.7369617e-06   0.58602395 0.00096331287            0   0.58506064    1.8624274    2.4484514    1.9633865 
 9360000    1.3046535 1.1612156e-05   0.57434071  0.020819422            0   0.55352128    1.9080558    2.4823965    3.6714813 
 9365000    1.2976716 0.00012883099   0.55988513 0.0066955773            0   0.55318955    1.8978447    2.4577298    15.650023 
 9370000    1.2620909 1.6669573e-05   0.61946188 4.4659574e-05            0   0.61941722     1.845808    2.4652699    4.1722341 
 9375000    1.2286357 5.2326954e-05   0.67951241            0            0   0.67951241    1.7968797    2.4763921    7.8346722 
 9380000    1.2644977 -3.5824897e-05   0.58903379 0.0035773507            0   0.58545644    1.8493278    2.4383616   -1.2301078 
 9385000    1.2431029 -8.2089599e-05   0.60252147  0.038442613            0   0.56407885    1.8180379    2.4205594   -5.9854155 
 9390000    1.1320229 2.4218023e-06   0.72564876  0.037128554            0   0.68852021    1.6555834    2.3812322    2.6292247 
 9395000    1.1705455 -3.4263435e-05   0.68306931 0.0099674472            0   0.67310186    1.7119227    2.3949921   -1.1135837 
 9400000     1.228955 -5.2918809e-05   0.62322681 0.0093215148            0   0.61390529    1.7973467    2.4205735   -2.9983125 
 9405000    1.2175268 8.892763e-05   0.58945197  0.015622892            0   0.57382908    1.7806329    2.3700849    11.476274 
 9410000    1.2429365 5.7424939e-05   0.56866198 0.0060427151            0   0.56261926    1.8177946    2.3864566    8.2667704 
 9415000    1.1337071 -6.953258e-05   0.74307256  0.020028712            0   0.72304385    1.6580466    2.4011192   -4.7190169 
 9420000    1.2692129 5.0627178e-05   0.56291865  0.058818841            0   0.50409981    1.8562238    2.4191425    7.6033655 
 9425000    1.2057667 8.9455404e-05    0.6384347  0.031359575            0   0.60707513    1.7634337    2.4018684    11.562102 
 9430000    1.1980475 -3.5338685e-05   0.63510387 0.0082492283            0   0.62685464    1.7521444    2.3872483    -1.231433 
 9435000    1.2630093 -9.6426924e-05   0.53739306  0.017702909            0   0.51969015    1.8471511    2.3845442   -7.4895728 
 9440000    1.1844438 -0.00011962333   0.69855484  0.027266962            0   0.67128788     1.732249    2.4308039   -9.8186249 
 9445000    1.1068114 -0.00015689918   0.79989148  0.014698233            0   0.78519325    1.6187116    2.4186031   -13.647873 
 9450000    1.3759684 4.1768639e-06   0.42470949  0.022297604            0   0.40241189    2.0123538    2.4370632    2.8647741 
 9455000    1.2649663 5.1455822e-05   0.54144536  0.059474961            0    0.4819704    1.8500133    2.3914586    7.6605348 
 9460000    1.1779332 3.6275041e-06   0.70592128  0.007637148            0   0.69828414    1.7227274    2.4286486    2.8001051 
 9465000    1.2226126 6.7134245e-07   0.64214233  0.010695254            0   0.63144708     1.788071    2.4302133    2.4989588 
 9470000     1.223734 -0.00010162411   0.57000057  0.022876736            0   0.54712384     1.789711    2.3597115   -8.0465977 
 9475000    1.2219479 -5.1659847e-05   0.58237915  0.057278548            0    0.5251006    1.7870989     2.369478   -2.9204903 
 9480000    1.1926035 1.3685887e-05   0.64590883  0.020248791            0   0.62566004    1.7441827    2.3900915    3.7915263 
 9485000     1.106966 -1.6236397e-05     0.788192  0.035334168            0   0.75285783    1.6189378    2.4071298   0.74452274 
 9490000    1.2597635 8.4105543e-06   0.57978526 0.0069160962            0   0.57286916    1.8424042    2.4221894    3.2834302 
 9495000    1.2831329 4.8138807e-05   0.55778094 0.0024675429            0    0.5553134    1.8765819    2.4343628    7.3637767 
 9500000    1.2702546 3.023753e-05   0.52587248 0.0099690997            0   0.51590338    1.8577474    2.3836198    5.4799429 
 9505000    1.1337369 2.0421682e-05    0.7053312  0.038160575            0   0.66717062    1.6580902    2.3634214    4.4546016 
 9510000    1.1751739 6.6584263e-05   0.61727078  0.024247199            0   0.59302358    1.7186918    2.3359626    9.1541911 
 9515000    1.2716388 5.1869164e-05   0.46129407  0.014413975            0    0.4468801    1.8597718    2.3210658    7.6324682 
 9520000    1.1399676 -4.4837614e-05   0.67328679  0.091372447            0   0.58191434    1.6672026    2.3404894   -2.2508823 
 9525000    1.0962775 -3.2805561e-05   0.76211893  0.095991491            0   0.66612744    1.6033058    2.3654247  -0.99386469 
 9530000    1.2394482 -5.8199298e-05   0.52146917  0.017172036            0   0.50429713     1.812693    2.3341622   -3.6254459 
 9535000     1.212865 -7.3644238e-05   0.53480224  0.054566083            0   0.48023616    1.7738151    2.3086173   -5.2325527 
 9540000    1.0548512 -1.1509921e-06   0.75561951  0.084012137            0   0.67160737    1.5427198    2.2983393    2.1804777 
 9545000    1.1968876 -7.1376219e-05   0.56482238   0.01323131            0   0.55159107    1.7504481    2.3152705   -4.9936543 
 9550000    1.2233234 5.5605931e-05   0.52385833  0.018905018            0   0.50495331    1.7891105    2.3129688    8.0070161 
 9555000    1.2391105 6.6279056e-05   0.51788502  0.081115761            0   0.43676926    1.8121992    2.3300842    9.1170595 
 9560000    1.3021324 -2.8102128e-05   0.47484322  0.013998016            0   0.46084521    1.9043686    2.3792118  -0.49844608 
 9565000    1.2997469 -6.1503523e-05   0.49290649 0.0076367334            0   0.48526976    1.9008799    2.3937864   -3.9041743 
 9570000    1.2926955 -3.4396126e-05   0.52764805 0.0034299105            0   0.52421814    1.8905672    2.4182153    -1.103948 
 9575000    1.1670887 4.2693873e-05   0.74385901  0.030497029            0   0.71336198    1.7068672    2.4507262    6.8225788 
 9580000     1.206707 8.5891583e-05   0.71247429   0.03963691            0   0.67283738     1.764809    2.4772833    11.272581 
 9585000    1.3186942 8.9799876e-05    0.5335436 0.0063792711            0   0.52716433    1.9285902    2.4621338    11.657641 
 9590000    1.3349902 2.8018001e-05   0.49696834 0.0031320383            0    0.4938363    1.9524231    2.4493914    5.3184348 
 9595000    1.3444172 -5.3217048e-06   0.49263008 0.00035989524            0   0.49227019    1.9662102    2.4588403    1.9138977 
 9600000    1.1716437 3.641924e-06   0.67203163  0.062656287            0   0.60937534     1.713529    2.3855606    2.7584936 
 9605000    1.1510512 6.3086066e-06   0.75178832  0.043076403            0   0.70871192    1.6834123    2.4352006    3.0812019 
 9610000    1.1616731 5.0096146e-05   0.75682436  0.030039612            0   0.72678475    1.6989469    2.4557713    7.5856166 
 9615000    1.3025675 0.0001030046    0.5617796  0.055352075            0   0.50642752     1.905005    2.4667846    13.014456 
 9620000    1.2627964 3.6987448e-05   0.60973926  0.020508185            0   0.58923108    1.8468398     2.456579    6.2440937 
 9625000    1.3008368 7.3648318e-06   0.58021811  0.041903152            0   0.53831496    1.9024738    2.4826919    3.2368507 
 9630000    1.2014591 0.00012382414   0.70991121  0.022421417            0   0.68748979    1.7571339    2.4670451    15.146637 
 9635000    1.2790353 7.5484636e-05   0.52652722 0.0098122988            0   0.51671493    1.8705892    2.3971164    10.126743 
 9640000    1.2862037 -1.6272055e-05   0.51974165  0.016298132            0   0.50344352     1.881073    2.4008146   0.73455613 
 9645000    1.1878307 -8.0449027e-05   0.68116701  0.071375196            0   0.60979182    1.7372024    2.4183694   -5.8196109 
 9650000    1.2067925 -1.3915581e-05   0.61919464  0.080318084            0   0.53887656     1.764934    2.3841287   0.95917321 
 9655000    1.3009746 4.7306045e-06   0.49883564   0.02990443            0   0.46893121    1.9026754    2.4015111     2.885925 
 9660000     1.135923 1.8121221e-05   0.76609994   0.02731181            0   0.73878813    1.6612874    2.4273874    4.2830004 
 9665000    1.2268048 0.00010562357   0.61303522  0.015270357            0   0.59776486     1.794202    2.4072372    13.223091 
 9670000    1.2918079 4.4222672e-05   0.51194817 0.0031665007            0   0.50878167    1.8892691    2.4012172    6.9296189 
 9675000     1.174147 -3.1470494e-05   0.73833118  0.013416896            0   0.72491428      1.71719    2.4555212  -0.76705744 
 9680000    1.2161203 1.8548662e-05   0.66522086   0.09857012            0   0.56665074    1.7785759    2.4437968    4.3431798 
 9685000    1.0997838 3.9040996e-05   0.85327109   0.14935132            0   0.70391977    1.6084338    2.4617049     6.459503 
 9690000    1.2307398 7.9139936e-05   0.64295899  0.092338776            0   0.55062021     1.799957     2.442916    10.546845 
 9695000    1.2804991 4.0882848e-05    0.5388119  0.033271709            0   0.50554019    1.8727299    2.4115418    6.5979454 
 9700000    1.2413152 -2.8345977e-05   0.58265135  0.066455076            0   0.51619628    1.8154234    2.3980748  -0.50455323 
 9705000    1.1520862 -2.5561673e-05    0.7580231  0.048943908            0   0.70907919    1.6849261    2.4429492  -0.17456613 
 9710000       1.1314 7.4359232e-05   0.77399056   0.04111077            0   0.73287979    1.6546725    2.4286631    10.043048 
 9715000    1.1773655 0.00011166587   0.66454494  0.071296227            0   0.59324871     1.721897    2.3864419    13.821027 
 9720000    1.1774031 6.0784762e-05   0.64854516   0.13608503            0   0.51246013    1.7219521    2.3704973    8.5948569 
 9725000    1.0871889 2.3193667e-05    0.7636854  0.021074857            0   0.74261054    1.5900138    2.3536992    4.7287307 
 9730000    1.0722726 4.1932452e-06   0.76018162  0.048694367            0   0.71148726    1.5681987    2.3283803    2.7577686 
 9735000    1.1697678 7.8957864e-06   0.63044983    0.0262472            0   0.60420263    1.7107855    2.3412353    3.1497638 
 9740000    1.1198004 -8.3787268e-05   0.66511609 0.0089859615            0   0.65613013    1.6377082    2.3028243   -6.2769919 
 9745000     1.134043 -6.7580589e-05   0.66533773  0.031390493            0   0.63394724    1.6585378    2.3238756   -4.5963768 
 9750000    1.2091483 -7.1914684e-05   0.60527496  0.022674262            0    0.5826007    1.7683794    2.3736543   -4.9904093 
 9755000    1.1820894 2.2198951e-05   0.68218586  0.049473849            0   0.63271201    1.7288057    2.4109916    4.6841641 
 9760000    1.1743842 3.3145976e-05   0.70066067  0.039007345            0   0.66165333     1.717537    2.4181976    5.8123456 
 9765000    1.2137641 -6.5068657e-05   0.68650444 0.0082227242            0   0.67828172      1.77513    2.4616344   -4.2013961 
 9770000    1.2249088 4.3178793e-05   0.72527401  0.011933324            0   0.71334068    1.7914291    2.5167031    6.9382115 
 9775000    1.2894373 4.7959895e-05   0.68079709  0.058140029            0   0.62265706    1.8858021    2.5665992    7.4776924 
 9780000    1.3313219 0.00010756475   0.64773471 0.0076108777            0   0.64012383    1.9470583     2.594793    13.609424 
 9785000    1.1835311 -7.0848278e-06   0.84134224            0            0   0.84134224    1.7309142    2.5722565    1.8467701 
 9790000    1.3424401 -4.6698167e-05   0.56203851 3.2812879e-05            0   0.56200569    1.9633187    2.5253572   -2.2565351 
 9795000    1.2040121 -1.6860633e-05   0.71949653  0.001663569            0   0.71783296    1.7608677    2.4803642   0.75383542 
 9800000      1.09317 -2.7486361e-06   0.91511478 0.0044176986            0   0.91069708    1.5987612     2.513876    2.2324156 
 9805000    1.3640559 4.0054987e-05   0.56043535  0.005673165            0   0.55476218    1.9949317     2.555367    6.6569977 
 9810000    1.2683161 -4.4503555e-05   0.68448591 0.0061840967            0   0.67830182    1.8549122    2.5393981   -2.0177659 
 9815000     1.251061 2.3195143e-06   0.71541435  0.010636548            0    0.7047778    1.8296766     2.545091    2.7826093 
 9820000    1.2438827 -2.998313e-06   0.72770209  0.025964834            0   0.70173725    1.8191785    2.5468806    2.2398533 
 9825000    1.2958359 8.9988899e-06   0.68772054  0.010983011            0   0.67673753    1.8951601    2.5828806    3.5043669 
 9830000    1.3987417 6.4556266e-05   0.51977325 0.00020981295            0   0.51956344    2.0456598    2.5654331    9.1759947 
 9835000     1.232792 -1.0740218e-05   0.74074932 0.00056281008            0   0.74018651    1.8029584    2.5437077    1.4439094 
 9840000    1.3074199 -6.1596231e-05    0.6464558   0.04090556            0   0.60555024    1.9121015    2.5585574   -3.7488967 
 9845000    1.3853221 2.383346e-05   0.55775966  0.032449361            0    0.5253103    2.0260336    2.5837933    5.0243396 
 9850000    1.3727965 7.0506241e-06   0.56916255 5.7260956e-05            0   0.56910529    2.0077149    2.5768775    3.2988614 
 9855000    1.2571207 -5.612475e-05   0.67492702  0.012085188            0   0.66284183    1.8385391    2.5134661   -3.2337083 
 9860000    1.2144586 8.0983828e-05   0.74506488   0.04861851            0   0.69644636    1.7761456    2.5212105    10.813955 
 9865000    1.1807425 8.5862067e-05   0.80496463  0.029192766            0   0.77577186    1.7268359    2.5318005    11.324076 
 9870000    1.2540818 -3.2461617e-05   0.71434471  0.064314456            0   0.65003025    1.8340946    2.5484393   -0.7756303 
 9875000    1.2337904 3.0023788e-05   0.75517417  0.097351527            0   0.65782265    1.8044185    2.5595927    5.6340286 
 9880000    1.2975783 0.00012058388   0.67662452  0.010936613            0   0.66568791    1.8977082    2.5743327    14.922122 
 9885000    1.3291467 4.4561226e-05   0.65072638 0.0038613422            0   0.64686504     1.943877    2.5946034     7.157673 
 9890000    1.2461606 -9.2818846e-05   0.73360921  0.052185064            0   0.68142415    1.8225099    2.5561192   -6.9485307 
 9895000    1.3161799 -2.7280344e-05    0.5927564   0.17094119            0   0.42181522     1.924913    2.5176695  -0.27583781 
 9900000    1.2225956 0.00011318454   0.74204336   0.11615413            0   0.62588924    1.7880461    2.5300895    14.120186 
 9905000    1.1617127 9.6321408e-05   0.80324577  0.070079393            0   0.73316637    1.6990048    2.5022505    12.365563 
 9910000    1.2975388 -2.6435068e-05   0.55108149   0.10365224            0   0.44742925    1.8976505     2.448732  -0.25821894 
 9915000    1.2557172 -4.6066651e-05   0.63823834   0.10942032            0   0.52881802    1.8364865    2.4747248   -2.2425003 
 9920000    1.3955658 -1.743183e-05   0.50734216  0.034760401            0   0.47258175     2.041015    2.5483572   0.76333784 
 9925000    1.3680247 -4.0980664e-06   0.59032128 0.0037214967            0   0.58659979    2.0007362    2.5910574    2.1714154 
 9930000    1.4552782 1.7597621e-06   0.45181435 0.0041330082            0   0.44768135    2.1283443    2.5801587    2.7603583 
 9935000    1.3646356 1.4163581e-05   0.60653238  0.020694893            0   0.58583748    1.9957795    2.6023119    4.0526626 
 9940000    1.2791049 6.4981859e-05   0.76455692  0.051221454            0   0.71333546    1.8706909    2.6352478    9.2893902 
 9945000     1.307658 -6.1213889e-06   0.71970953  0.031344809            0   0.68836472    1.9124498    2.6321593    2.0053291 
 9950000    1.3237953 -0.00016996144   0.68684918  0.090873237            0   0.59597594    1.9360506    2.6228998   -14.781152 
 9955000    1.3091284 -0.0001535375   0.69872295  0.080809394            0   0.61791355    1.9146003    2.6133233   -13.108917 
 9960000    1.4286539 4.3850153e-05   0.52833058  0.024965379            0    0.5033652    2.0894063    2.6177369    7.1079926 
 9965000    1.3326018 5.8118757e-05   0.71588574  0.056612206            0   0.65927354    1.9489302    2.6648159    8.6161767 
 9970000    1.3406749 -8.5560526e-05   0.74863869  0.021583094            0   0.72705559    1.9607371    2.7093758   -6.0520221 
 9975000    1.3554084 7.3547826e-06   0.72081914  0.018858768            0   0.70196037    1.9822848     2.703104    3.4562337 
 9980000    1.3422553 8.3705444e-05   0.73782278  0.054868508            0   0.68295427    1.9630483    2.7008711    11.272309 
 9985000     1.430233 -5.7133961e-05   0.64930188 0.0049450631            0   0.64435681    2.0917157    2.7410176      -3.1095 
 9990000    1.3707244 -7.4634123e-05   0.71697133 0.00035577101            0   0.71661556    2.0046845    2.7216558   -4.9208784 
 9995000    1.4625697 5.5323051e-05   0.57743825            0            0   0.57743825    2.1390081    2.7164464    8.3815268 
10000000    1.3257323 4.4414276e-05   0.79086044  0.024839261            0   0.76602118    1.9388835    2.7297439    7.2777658 
10005000    1.3425691 -2.3314938e-05   0.72195366   0.07043627            0   0.65151738    1.9635072    2.6854609   0.29801127 
10010000    1.3881363 -5.3709518e-05   0.67528664  0.061503768            0   0.61378288    2.0301493    2.7054359   -2.7944187 
10015000    1.3265857 3.7787322e-06   0.75095477  0.066785093            0   0.68416968    1.9401316    2.6910863    3.0780285 
10020000     1.293108 -4.3713391e-06   0.78431921  0.056955443            0   0.72736376    1.8911705    2.6754897    2.2278646 
10025000    1.3721614 -1.5316784e-05   0.62227406  0.037129001            0   0.58514506     2.006786    2.6290601    1.0606214 
10030000    1.5000671 3.6613654e-05   0.40949325 0.0010615114            0   0.40843174    2.1938481    2.6033414    6.3525795 
10035000     1.384074 8.0128192e-05   0.53204275  0.039466106            0   0.49257665    2.0242083     2.556251    10.761378 
10040000    1.3793118 3.9496012e-05   0.55313106  0.036265021            0   0.51686604    2.0172435    2.5703745    6.6147661 
10045000    1.3357554 -4.5456466e-05   0.59184335            0            0   0.59184335    1.9535422    2.5453856   -2.1093565 
10050000    1.3293828 -4.865021e-05   0.57209288 0.0064149787            0    0.5656779    1.9442224    2.5163153   -2.4654663 
10055000    1.3711891 6.8182165e-05   0.61079578  0.088889671            0    0.5219061    2.0053641    2.6161599    9.5980136 
10060000    1.1576456 0.00014966162   0.91896836  0.062522494            0   0.85644587    1.6930567    2.6120251    17.937375 
10065000    1.3780885 4.4650034e-05   0.62227794            0            0   0.62227794    2.0154545    2.6377324    7.2098959 
10070000    1.3080915 6.3843926e-06   0.70960226            0            0   0.70960226    1.9130838     2.622686    3.2764479 
10075000     1.332996 6.6808041e-05   0.71356582            0            0   0.71356582    1.9495067    2.6630725     9.504216 
10080000    1.3042479 -0.00010202644   0.73806977            0            0   0.73806977    1.9074625    2.6455323   -7.8019749 
10085000    1.2779872 -2.2203597e-06   0.75120804 0.0016025061            0   0.74960554    1.8690562    2.6202643    2.3928994 
10090000    1.3390148 -4.0809089e-05   0.68895647 0.0055086858            0   0.68344778    1.9583091    2.6472656   -1.5315851 
10095000    1.3633654 -5.5040176e-06   0.64662834  0.015697216            0   0.63093112     1.993922    2.6405503    2.0769389 
10100000    1.3330995 9.3620534e-05   0.73150121  0.019285693            0   0.71221552    1.9496581    2.6811593    12.267902 
10105000    1.4528366 -5.9225712e-05   0.56160523  0.025572037            0   0.53603319    2.1247735    2.6863787   -3.3783342 
10110000    1.3960042 -1.9077893e-06   0.66274677   0.12946343            0   0.53328334    2.0416561    2.7044029    2.5090452 
10115000    1.3672138 3.4241894e-05   0.73148423  0.029700862            0   0.70178337    1.9995502    2.7310344    6.2374043 
10120000    1.4668024 -3.6295424e-05   0.67731695  0.015867281            0   0.66144967    2.1451985    2.8225154  -0.89413599 
10125000    1.3611895 -8.3374515e-05     0.806162  0.034415734            0   0.77174626    1.9907396    2.7969016   -5.7406488 
10130000    1.3742485 6.0848368e-07   0.80719493  0.015783043            0   0.79141189    2.0098385    2.8170334    2.8793422 
10135000    1.4857867 9.4697344e-05   0.63449126  0.021487007            0   0.61300425    2.1729631    2.8074544    12.504462 
10140000    1.3771483 2.5730771e-05   0.77412295   0.06783467            0   0.70628828    2.0140794    2.7882024    5.4230333 
10145000    1.3513744 -6.744759e-05   0.83237834  0.020208876            0   0.81216947    1.9763851    2.8087634   -4.0978699 
10150000    1.4838082 -7.8493367e-05    0.6326507  0.044963765            0   0.58768693    2.1700695    2.8027202   -5.2350006 
10155000    1.5227778 8.0773942e-05   0.58053471  0.017154469            0   0.56338024    2.2270625    2.8075972    11.078849 
10160000    1.4504755 -5.937532e-05   0.66744259 0.0019275444            0   0.66551505    2.1213205    2.7887631   -3.2912697 
10165000    1.3118159 -3.0445729e-05   0.92128889 0.0033954501            0   0.91789344    1.9185308    2.8398197  -0.27782293 
10170000    1.4929426 3.9012634e-05   0.63048552  0.027336674            0   0.60314884    2.1834286    2.8139141    6.8088078 
10175000    1.4060406 4.078046e-05   0.74125577  0.046751617            0   0.69450416    2.0563344    2.7975902    6.9735093 
10180000    1.3893872 -8.2117544e-05   0.81108223  0.042832636            0   0.76824959    2.0319787    2.8430609   -5.5657755 
10185000    1.4680123 -1.2780509e-05   0.67637002  0.019142172            0   0.65722784    2.1469679    2.8233379    1.5146138 
10190000    1.5320673 3.0248108e-06   0.53404067 0.0065034962            0   0.52753717    2.2406484    2.7746891    3.0844297 
10195000    1.4419341 -3.0510619e-05   0.69812003  0.041242633            0    0.6568774    2.1088287    2.8069487   -0.3173387 
10200000    1.2731461 4.492423e-05   0.91552204  0.063647839            0    0.8518742    1.8619762    2.7774983    7.3777394 
10205000    1.3437821 -6.986081e-05   0.82774129  0.070681081            0   0.75706021    1.9652814    2.7930227   -4.3607242 
10210000    1.4385251 -4.1168081e-05   0.69836369  0.025285132            0   0.67307855     2.103843    2.8022067   -1.4134047 
10215000     1.370181 -4.7097564e-05   0.76902065  0.024151757            0    0.7448689    2.0038897    2.7729103   -2.0498802 
10220000     1.355459 3.5927053e-05   0.77943668  0.074267528            0   0.70516915    1.9823587    2.7617954    6.4407256 
10225000    1.4408169 4.826933e-05   0.62635411  0.091680074            0   0.53467404    2.1071948    2.7335489    7.6763283 
10230000    1.3646545 -7.9650766e-05   0.78228006  0.034246224            0   0.74803384    1.9958072    2.7780873   -5.3781512 
10235000    1.4552588 8.6939192e-05    0.6402679            0            0    0.6402679    2.1283159    2.7685838    11.671157 
10240000    1.2840527 6.1775103e-05   0.84184448            0            0   0.84184448     1.877927    2.7197715    9.0455421 
10245000    1.3781029 -6.5344668e-05    0.6786162  0.012663597            0    0.6659526    2.0154755    2.6940917   -3.9972023 
10250000    1.4114345 -3.3288588e-06   0.63205174  0.032400838            0    0.5996509    2.0642229    2.6962747    2.3553995 
10255000    1.3885947 0.00010721492   0.65687646 0.0069642266            0   0.64991223    2.0308197    2.6876962    13.666504 
10260000    1.4022667 6.8924794e-05   0.63391138            0            0   0.63391138     2.050815    2.6847264    9.7426253 
10265000    1.3278699 -9.0267005e-05   0.74321803            0            0   0.74321803    1.9420098    2.6852278   -6.5581135 
10270000    1.3897863 3.5037242e-05   0.65571916            0            0   0.65571916    2.0325625    2.6882817    6.2760953 
10275000    1.3456125 2.4814813e-05   0.72803242 0.00068775922            0   0.72734466    1.9679583    2.6959907    5.2370275 
10280000    1.3850757 4.4543424e-06   0.67228801 0.0072803679            0   0.66500764    2.0256733    2.6979613     3.154086 
10285000    1.3681669 -8.184093e-05   0.69252379  0.026900346            0   0.66562345    2.0009441    2.6934679   -5.6870433 
10290000    1.5147636 3.2489834e-05   0.49861301  0.013326191            0   0.48528682    2.2153418    2.7139548    6.0409137 
10295000    1.4345653 0.00011070581   0.64344406 0.0017372832            0   0.64170678    2.0980517    2.7414958    14.077771 
10300000    1.4474848 -1.8448683e-05   0.59658477            0            0   0.59658477    2.1169465    2.7135313   0.82438616 
10305000    1.4397406 -8.2422397e-05   0.56114637 0.00042708143            0   0.56071929    2.1056206     2.666767   -5.7732865 
10310000    1.3394979 6.663254e-06   0.68875767 0.0024205067            0   0.68633716    1.9590156    2.6477733    3.3300905 
10315000    1.4775005 8.5311549e-05   0.52034799 0.0079199432            0   0.51242804    2.1608444    2.6811924    11.417095 
10320000    1.3479025 -5.0341276e-05   0.70508631  0.039217016            0    0.6658693    1.9713075    2.6763938   -2.4785529 
10325000     1.354855 2.9356751e-05   0.69490217  0.066958368            0    0.6279438    1.9814754    2.6763776    5.6825089 
10330000    1.4011398 -0.00011390308    0.5669975 0.0051963292            0   0.56180117    2.0491669    2.6161644   -9.0475113 
10335000    1.3913292 -2.1552731e-05   0.54116156  0.010520148            0   0.53064141     2.034819    2.5759806   0.36898092 
10340000    1.3698041 4.6249324e-05   0.59358908  0.029270349            0   0.56431873    2.0033384    2.5969275    7.3328583 
10345000    1.3575977 7.1320433e-06   0.62104404 0.0082575743            0   0.61278646    1.9854866    2.6065307    3.3368519 
10350000    1.4026127 7.0342171e-06   0.54020251   0.01635474            0   0.52384777     2.051321    2.5915236    3.3118274 
10355000    1.4671574 9.6480636e-05   0.53134546  0.025405978            0   0.50593948    2.1457177    2.6770632     12.55668 
10360000    1.5536628 8.5781052e-05   0.45793392 0.0037784431            0   0.45415547    2.2722318    2.7301657    11.514145 
10365000    1.5386958 -4.9897325e-05   0.49944392  0.012408228            0   0.48703569    2.2503426    2.7497866   -2.3596995 
10370000    1.4269521 -5.6345953e-05   0.67385218 0.0057304643            0   0.66812172    2.0869175    2.7607696   -3.0090559 
10375000    1.6406961 -2.0249326e-05   0.33673966  0.010030948            0   0.32670871     2.399518    2.7362577   0.66272672 
10380000    1.3573787 -2.1131556e-05   0.73580262   0.03183265            0   0.70396997    1.9851663    2.7209689   0.55709756 
10385000    1.3276443 -4.0940367e-05   0.76708532  0.011682769            0   0.75540255    1.9416798    2.7087651   -1.4835284 
10390000    1.4283921 -6.2214741e-06   0.61736162 0.0003374172            0    0.6170242    2.0890234     2.706385    2.0693061 
10395000    1.4644041 -9.7248242e-05   0.57225525 1.1903218e-06            0   0.57225406    2.1416909    2.7139462   -7.2442738 
10400000    1.3369146 4.3777211e-05   0.71507309  0.010987822            0   0.70408526    1.9552376    2.6703107    7.1530971 
10405000    1.2269226 -7.4089649e-05   0.87828819  0.047767008            0   0.83052118    1.7943743    2.6726625   -4.9141176 
10410000    1.4411734 -1.6519129e-06   0.56554125  0.008567274            0   0.55697398    2.1077161    2.6732574    2.5041015 
10415000    1.2780598 3.0331908e-05    0.8170452  0.046157975            0   0.77088722    1.8691624    2.6862076     5.792195 
10420000    1.4110762 -0.00013237951   0.61265868  0.041049461            0   0.57160922     2.063699    2.6763576   -10.879304 
10425000    1.3181226 -4.792746e-06    0.7594379  0.010312865            0   0.74912504    1.9277543    2.6871922     2.196415 
10430000    1.5040003 4.6425159e-05   0.48577217  0.031815137            0   0.45395703    2.1996004    2.6853726    7.4393088 
10435000    1.3166861 -0.00010422378   0.75646532   0.01970427            0   0.73676105    1.9256534    2.6821188   -7.9903965 
10440000    1.3464376 7.0658281e-05   0.70875081  0.046054527            0   0.66269628     1.969165    2.6779158    9.9133238 
10445000     1.407179 5.2614208e-05   0.68474076  0.041821504            0   0.64291925    2.0579992      2.74274    8.1304349 
10450000    1.4149445 -4.6544477e-05   0.64155993  0.016842476            0   0.62471745    2.0693563    2.7109162   -2.0552382 
10455000    1.3546003 8.3569489e-06   0.71870433  0.003956901            0   0.71474743    1.9811029    2.6998073    3.5555588 
10460000    1.3765744 7.687847e-07   0.61708117 0.00013789902            0   0.61694327      2.01324    2.6303212    2.7090447 
10465000    1.2648802 7.4003816e-05   0.81129036  0.085915145            0   0.72537522    1.8498873    2.6611777    10.239168 
10470000    1.2767429 7.9901127e-05   0.80820783  0.056400462            0   0.75180737    1.8672364    2.6754442     10.85732 
10475000     1.385221 -0.00012063308   0.64622782  0.061661815            0   0.58456601    2.0258857    2.6721135   -9.6807136 
10480000    1.3322389 -0.00012843947   0.76460154 0.0016056519            0   0.76299589    1.9483994     2.713001   -10.439201 
10485000    1.3248464 3.9171387e-05   0.78889604            0            0   0.78889604    1.9375879    2.7264839    6.7376339 
10490000    1.3909495 3.3581263e-05    0.6691656 2.0058968e-05            0   0.66914554    2.0342637    2.7034293    6.1421506 
10495000    1.2930113 1.6004125e-05   0.84655013  0.018392766            0   0.82815736    1.8910291    2.7375792    4.3764016 
10500000    1.3246281 9.9747642e-05    0.8292915  0.045541351            0   0.78375015    1.9372686    2.7665601    12.980719 
10505000    1.3498563 1.992727e-05   0.79093281  0.010620029            0   0.78031278    1.9741649    2.7650977    4.8056502 
10510000    1.3093889 4.6206413e-05   0.85944352            0            0   0.85944352    1.9149812    2.7744247    7.5059614 
10515000    1.4410608 -1.6964084e-05    0.6681445 0.00033422747            0   0.66781027    2.1075515     2.775696    1.0385738 
10520000    1.3984089 -4.3094869e-05   0.76069616  0.048402153            0   0.71229401    2.0451729    2.8058691   -1.6070455 
10525000    1.4460534 7.2902932e-05   0.65386906  0.044972459            0    0.6088966    2.1148531    2.7687222    10.233982 
10530000    1.3444058 0.00011285054   0.78198578  0.015424104            0   0.76656168    1.9661934    2.7481792    14.304074 
10535000    1.4039925 2.5903769e-05   0.70626203 0.0062046187            0   0.70005741     2.053339    2.7596011     5.412147 
10540000    1.1370172 -0.00012670653    1.0651919  0.033978218            0    1.0312137    1.6628876    2.7280795   -10.246669 
10545000    1.4174174 -9.288293e-05   0.66246327  0.021074858            0   0.64138841    2.0729729    2.7354361   -6.7757759 
10550000    1.3472494 3.8883298e-05    0.7553363  0.034130629            0   0.72120567    1.9703523    2.7256886    6.7073383 
10555000    1.3365085 0.00014400849   0.71640962  0.046035606            0   0.67037402    1.9546436    2.6710532    17.417522 
10560000    1.2300388 0.00013743197   0.80898954  0.028548826            0   0.78044072    1.7989318    2.6079214    16.680955 
10565000    1.2487847 3.7221658e-05   0.82343928 0.0097553015            0   0.81368398    1.8263476    2.6497869    6.4612846 
10570000     1.251084 -8.6981531e-05   0.84001537 0.0052007205            0   0.83481465    1.8297104    2.6697258   -6.2371831 
10575000    1.4198365 -1.1349603e-05    0.5641041  0.015816396            0    0.5482877    2.0765109     2.640615    1.4784157 
10580000    1.2554048 7.4994128e-05   0.80517146  0.098594704            0   0.70657675    1.8360295     2.641201      10.3206 
10585000    1.3981628 5.3323033e-05   0.61668476  0.054394817            0   0.56228995    2.0448131    2.6614978    8.1217765 
10590000      1.16296 -1.0241574e-05   0.93972283 0.0043721744            0   0.93535065     1.700829    2.6405519    1.5918147 
10595000    1.2260751 1.3025627e-05   0.82204007  0.051662026            0   0.77037805    1.7931348    2.6151749     3.948999 
10600000    1.3776382 -6.540368e-05   0.59755347  0.039313503            0   0.55823996    2.0147958    2.6123493   -4.0849875 
10605000     1.225645 3.6523704e-05   0.83670436  0.068947253            0    0.7677571    1.7925058    2.6292101    6.3692374 
10610000    1.1334506 -2.29573e-05   0.96922635  0.078280833            0   0.89094552    1.6576716    2.6268979   0.27607039 
10615000    1.2158358 -0.00021498953   0.88020053  0.018194831            0    0.8620057    1.7781598    2.6583603   -19.356567 
10620000    1.2196841 -0.00011093667   0.91176339  0.016357343            0   0.89540605    1.7837881    2.6955514   -8.6643635 
10625000    1.4625718 3.4211574e-06   0.53953294 0.0070368478            0   0.53249609    2.1390113    2.6785442    3.0288708 
10630000    1.2432804 -4.7439365e-05   0.83812815 0.0036215764            0   0.83450657    1.8182975    2.6564257   -2.2013653 
10635000    1.2741042 2.6090292e-05   0.76715729  0.040999276            0   0.72615801    1.8633774    2.6305347    5.3021805 
10640000    1.2945144 0.00014040251   0.70668502  0.013176039            0   0.69350898    1.8932273    2.5999123     16.97713 
10645000    1.2031321 3.7002297e-05   0.82188972  0.015670139            0   0.80621958    1.7595807    2.5814704    6.3705056 
10650000    1.2764369 1.7298453e-05     0.700588  0.028194922            0   0.67239308     1.866789     2.567377    4.3387385 
10655000    1.2215541 6.0549218e-06    0.7911015 0.0029039967            0   0.78819751    1.7865228    2.5776243    3.1976483 
10660000    1.2491312 -0.00010093786   0.77008431 0.00034502016            0   0.76973929    1.8268544    2.5969387   -7.7390978 
10665000    1.1946539 -0.00010714349   0.86991475 0.0075632483            0    0.8623515    1.7471813     2.617096   -8.3543974 
10670000    1.2826494 -3.1301753e-05   0.72333727  0.024220517            0   0.69911675    1.8758748    2.5992121  -0.60608745 
10675000    1.3187278 5.1717685e-05   0.63695362  0.011677369            0   0.62527625    1.9286394     2.565593    7.8614839 
10680000      1.21056 0.00011869585   0.81864351  0.011169972            0   0.80747354     1.770444    2.5890875    14.743543 
10685000    1.3522376 2.3794555e-05   0.61178276  0.021326821            0   0.59045594    1.9776475    2.5894303    5.0259927 
10690000    1.1520426 -2.1619451e-05   0.87623458 0.0041150274            0   0.87211955    1.6848623    2.5610969   0.34726515 
10695000    1.2629949 -2.7319115e-05   0.75919887 0.0057057824            0   0.75349309      1.84713    2.6063289  -0.19114844 
10700000     1.399118 -8.8263319e-05   0.59790804  0.005634282            0   0.59227375      2.04621     2.644118   -6.3940459 
10705000    1.1619689 -0.00011890164   0.93410183 0.0005440868            0   0.93355775    1.6993796    2.6334814   -9.5420463 
10710000    1.3309528 -5.1019196e-05   0.64176036 0.0053313047            0   0.63642905    1.9465184    2.5882788   -2.6360869 
10715000    1.1286133 5.6210887e-06   0.88589077  0.052456878            0   0.83343389    1.6505969    2.5364877    3.1120872 
10720000   0.98316389 3.3096766e-06    1.0573087  0.050448234            0    1.0068605    1.4378772    2.4951859    2.8340968 
10725000    1.2722183 8.2622919e-05   0.56258931 0.0080969513            0   0.55449236    1.8606193    2.4232086    10.883795 
10730000    1.2463439 9.7781271e-05   0.61157448            0            0   0.61157448    1.8227779    2.4343524    12.447155 
10735000    1.1198498 4.2143364e-05    0.7814249            0            0    0.7814249    1.6377804    2.4192053    6.7346858 
10740000    1.1922809 2.3782844e-05   0.66839447 0.0033655826            0   0.66502889    1.7437109    2.4121054    4.8474686 
10745000    1.0601212 -5.0108544e-05   0.86714282  0.027999555            0   0.83914326    1.5504272      2.41757   -2.7135449 
10750000    1.2150865 -3.1487802e-05   0.61517605  0.096480952            0    0.5186951    1.7770641    2.3922401  -0.83211085 
10755000    1.0883566 4.5638247e-06   0.76860875  0.020895341            0   0.74771341    1.5917216    2.3603304     2.827666 
10760000    1.1701144 -9.6965722e-05    0.6373403 0.0097581108            0   0.62758219    1.7112923    2.3486326   -7.5806573 
10765000    1.0583935 -4.6345273e-05   0.77593186  0.079957578            0   0.69597428    1.5479005    2.3238324   -2.4219236 
10770000   0.93450404 0.00010363606   0.93685721   0.13886311            0   0.79799409    1.3667122    2.3035694    12.915902 
10775000    1.0849119 5.9399437e-05   0.68513973  0.022894078            0   0.66224565    1.5866836    2.2718233    8.3543257 
10780000     1.193791 9.3578757e-05    0.5612587 0.0022374082            0   0.55902129    1.7459194    2.3071781    11.889643 
10785000    1.0073687 3.4417842e-05   0.79733538  0.022730026            0   0.77460536    1.4732768    2.2706122    5.7949992 
10790000   0.97887983 -2.0813196e-05   0.81667884  0.079598364            0   0.73708047    1.4316118    2.2482906   0.11701932 
10795000   0.96643292 2.4449727e-05   0.80620683  0.090231771            0   0.71597506    1.4134081     2.219615     4.723267 
10800000    1.0032632 -9.967858e-06   0.74943706 0.0058090551            0   0.74362801    1.4672724    2.2167095    1.1960008 
10805000    1.1043513 1.3789451e-05   0.62574071 0.00027928003            0   0.62546143    1.6151138    2.2408545    3.6528943 
10810000    1.2149797 4.5278482e-05   0.46790564 0.00012029823            0   0.46778534    1.7769077    2.2448134      6.88133 
10815000     1.033385 -1.2510947e-05   0.71988502 0.0070124106            0   0.71287261    1.5113256    2.2312106    0.9500896 
10820000    1.0856516 -5.5485317e-05   0.65606031  0.017135504            0   0.63892481    1.5877655    2.2438258   -3.4378706 
10825000    1.0440403 9.8504329e-05    0.7003542    0.0369427            0    0.6634115    1.5269089    2.2272631    12.314106 
10830000    1.1756833 5.716569e-05   0.45536211  0.013751142            0   0.44161097    1.7194368    2.1747989    8.0285655 
10835000    1.0865926 -9.0858247e-05   0.59473561 0.0036833346            0   0.59105227    1.5891417    2.1838773   -7.1200072 
10840000    1.0029289 -3.4109641e-05   0.75252117 0.0039221816            0   0.74859899    1.4667835    2.2193047   -1.2735225 
10845000    1.1175108 2.3854147e-05   0.57212043 0.0077242723            0   0.56439616    1.6343596      2.20648    4.6491447 
10850000    1.0164729 -4.7653954e-05   0.74140406  0.042349963            0    0.6990541    1.4865916    2.2279956   -2.6517693 
10855000    1.1171763 2.7790846e-05   0.61881358  0.052794091            0   0.56601949    1.6338704    2.2526839    5.0984665 
10860000    1.1047425 7.4422142e-05   0.59915971  0.037917704            0     0.561242    1.6156859    2.2148456     9.835673 
10865000   0.97952785 -1.3114167e-05   0.80241656   0.05234127            0   0.75007529    1.4325595     2.234976   0.89208536 
10870000    1.1348263 2.6491349e-05   0.56047901 0.0032651207            0   0.55721389    1.6596835    2.2201625    4.9328767 
10875000    1.1263248 -2.9407763e-05    0.5820326            0            0    0.5820326    1.6472501    2.2292827  -0.78207222 
10880000     1.098884 -5.8064295e-05   0.64505782 0.00031787151            0   0.64473995    1.6071179    2.2521757   -3.6936081 
10885000    1.1503696 4.8428798e-05   0.53558055  0.012898803            0   0.52268175    1.6824156    2.2179961     7.177105 
10890000    1.1825265 8.5260714e-05   0.52187248  0.039823527            0   0.48204895     1.729445    2.2513175    10.982015 
10895000    1.1739311 7.677768e-06   0.56595468  0.022254801            0   0.54369988    1.7168742    2.2828289    3.0690323 
10900000    1.1419745 -8.0125235e-05   0.66741307  0.030867966            0    0.6365451    1.6701377    2.3375507   -5.8672734 
10905000    1.1266454 -5.6278338e-05   0.70485219  0.037803177            0   0.66704901    1.6477188     2.352571   -3.4103308 
10910000    1.2405249 5.6361254e-05   0.53653009  0.034904279            0   0.50162581    1.8142677    2.3507978    8.1221901 
10915000    1.2783689 8.6787584e-06   0.47550099 0.00035923441            0   0.47514176    1.8696144    2.3451154    3.2338203 
10920000    1.1890784 -0.00011297431   0.58189768            0            0   0.58189768    1.7390272    2.3209249   -9.2476446 
10925000    1.0806841 -0.00014304563   0.74787713            0            0   0.74787713    1.5805004    2.3283776   -12.319495 
10930000    1.3154812 -6.3248183e-05   0.37719308 0.0061735369            0   0.37101954    1.9238912    2.3010843   -4.1755297 
10935000    1.1180138 5.8650476e-05   0.62219567    0.1002287            0   0.52196697    1.6350953    2.2572909    8.2630997 
10940000    1.0000547 9.5211485e-05    0.7850963   0.13107786            0   0.65401844    1.4625799    2.2476762    11.997332 
10945000    1.1144031 7.3907651e-05   0.60975969  0.042145185            0    0.5676145    1.6298146    2.2395743    9.8077177 
10950000    1.2079955 3.9945648e-05   0.46323541  0.025507787            0   0.43772763    1.7666935    2.2299289    6.3203633 
10955000    1.1156824 3.235858e-05   0.59576874 0.0035301298            0   0.59223861    1.6316855    2.2274542    5.5409728 
10960000    1.0517164 1.8155194e-05   0.65690628  0.012903216            0   0.64400307    1.5381352    2.1950415    4.0541333 
10965000    1.0480629 -4.3347626e-05   0.69061458  0.017445487            0    0.6731691    1.5327921    2.2234066   -2.2153902 
10970000    1.1066498 3.5006948e-05   0.60434454 0.00072963459            0   0.60361491    1.6184753    2.2228198    5.8075313 
10975000    1.1599654 3.6280365e-05   0.50404214 0.00023966722            0   0.50380248    1.6964494    2.2004916     5.915601 
10980000     1.228466 -5.9325131e-06   0.40373747  0.030558039            0   0.37317943    1.7966315     2.200369    1.5928796 
10985000    1.1424407 4.0496885e-06   0.57970763  0.044026016            0   0.53568161    1.6708196    2.2505272    2.6652153 
10990000    1.1134957 -5.4049267e-05   0.61767256  0.024718319            0   0.59295424    1.6284875    2.2461601   -3.2884849 
10995000    1.0915822 -9.3519183e-05   0.64238117  0.067398749            0   0.57498242    1.5964389    2.2388201   -7.3375443 
11000000    1.2396227 -1.6117415e-06   0.40492553  0.027395384            0   0.37753014    1.8129482    2.2178737    2.0528314 
11005000    1.0859428 5.6417416e-05   0.62369579  0.025735115            0   0.59796067    1.5881913    2.2118871    7.9890305 
11010000    1.1089402 4.4254691e-05   0.58673355  0.026998632            0   0.55973492     1.621825    2.2085585    6.7402389 
11015000    1.0938765 9.1681038e-06   0.61594419  0.013065976            0   0.60287821    1.5997945    2.2157386    3.1545525 
11020000    1.1074099 -2.7161919e-05   0.56749584 0.0024963919            0   0.56499944    1.6195869    2.1870828  -0.59429772 
11025000    1.0581109 -3.8108447e-05   0.63991023  0.025100215            0   0.61481002    1.5474873    2.1873975   -1.7149075 
11030000    1.0358974 -7.8039409e-05   0.67364864  0.037452291            0   0.63619635    1.5149999    2.1886486   -5.8025869 
11035000    1.1158807 -0.00010182566   0.54136414  0.016030586            0   0.52533356    1.6319756    2.1733397   -8.2536078 
11040000    1.1852264 -8.4976679e-06   0.42927315  0.010606395            0   0.41866675    1.7333937    2.1626668    1.2925056 
11045000    1.0349932 9.0079799e-05   0.61727057  0.020006097            0   0.59726447    1.5136775    2.1309481    11.355119 
11050000   0.98238168 4.4328395e-05   0.73677743  0.019332862            0   0.71744457    1.4367332    2.1735106    6.7127382 
11055000    1.1401512 -1.6265029e-06   0.50772053 0.0063481599            0   0.50137237    1.6674711    2.1751916    2.0086377 
11060000    1.1516104 3.6502756e-05   0.46106112  0.016875273            0   0.44418584    1.6842302    2.1452913    5.8831736 
11065000   0.94032238 -3.5831696e-05    0.7810078  0.035502097            0    0.7455057    1.3752215    2.1562293   -1.5129363 
11070000    1.0306025 -4.023399e-05   0.62150439  0.044633561            0   0.57687083    1.5072562    2.1287606      -1.9912 
11075000    1.0856607 2.8782896e-05   0.54622241  0.034222882            0   0.51199953    1.5877788    2.1340012    5.0813698 
11080000    1.0005256 -4.1824573e-05   0.66055732  0.057083806            0   0.60347351    1.4632687    2.1238261   -2.1590102 
11085000   0.99227028 -7.4960095e-05   0.64952732 0.0066316172            0    0.6428957    1.4511953    2.1007226   -5.5751911 
11090000    1.0461308 -1.2050662e-05    0.6068885 0.00013639703            0    0.6067521    1.5299663    2.1368548   0.90286706 
11095000    1.0447334 -6.1846468e-05   0.57740493 0.0036070979            0   0.57379783    1.5279226    2.1053275   -4.2277509 
11100000   0.83041004 -8.7785006e-05   0.89160735  0.023188864            0   0.86841849    1.2144747     2.106082   -6.8831026 
11105000    0.9240288 -4.5446266e-05   0.79255865  0.032388672            0   0.76016998    1.3513921    2.1439508   -2.5097468 
11110000    1.0189205 -1.7178847e-06   0.63908894  0.024426821            0   0.61466212    1.4901713    2.1292602    1.9533488 
11115000    1.0208217 1.1346942e-05   0.63277982  0.014171343            0   0.61860848    1.4929518    2.1257316    3.2876584 
11120000    1.0604282 -3.3168821e-05   0.60079556 0.0057642272            0   0.59503133    1.5508762    2.1516718   -1.2448155 
11125000    1.0824369 -6.7955412e-05    0.5618538  0.026385328            0   0.53546847    1.5830639    2.1449177   -4.8137165 
11130000     1.122363 -5.8029175e-05   0.50226838  0.046406264            0   0.45586212    1.6414559    2.1437243   -3.7984633 
11135000   0.99233188 1.4301039e-05   0.67507223  0.055722285            0   0.61934995    1.4512854    2.1263576     3.590784 
11140000    1.1601861 4.0179598e-05   0.46977881  0.021220948            0   0.44855786    1.6967722     2.166551    6.2809418 
11145000   0.91538207 -4.4080718e-05   0.82196397  0.025602217            0   0.79636176    1.3387463    2.1607102   -2.3531553 
11150000   0.98354292 1.3273032e-05   0.69098548  0.004247151            0   0.68673833    1.4384315     2.129417    3.4885755 
11155000    1.0591505 2.6976628e-05   0.61326959 0.0027898954            0    0.6104797    1.5490076    2.1622772    4.9246839 
11160000    1.0276426 7.4108912e-05   0.64063903 0.0063490192            0   0.63429001    1.5029273    2.1435663    9.7323189 
11165000    1.0681868 0.00011158105   0.52816437   0.00459809            0   0.52356628    1.5622232    2.0903875    13.516287 
11170000    1.0057339 7.1248155e-05   0.62053863  0.045340186            0   0.57519845    1.4708858    2.0914245    9.3872356 
11175000   0.93965348 2.1645362e-05    0.7311163   0.12931491            0   0.60180139    1.3742432    2.1053595    4.3218446 
11180000   0.99218684 6.7498555e-06    0.6363631  0.072617018            0   0.56374608    1.4510733    2.0874364    2.7786216 
11185000    0.9339107 8.6438499e-05   0.67001993 0.0044542228            0    0.6655657    1.3658444    2.0358643    10.887167 
11190000    1.0613618 0.0001100811   0.46981969            0            0   0.46981969    1.5522416    2.0220613    13.294366 
11195000    0.9997111 1.3399252e-06   0.50805176 0.0035561993            0   0.50449556    1.4620775    1.9701293    2.1073376 
11200000     1.043968 -5.4360245e-05   0.41371759  0.010543332            0   0.40317426    1.5268032    1.9405208   -3.6259683 
11205000   0.94146013 2.5903354e-06   0.59731121  0.014048756            0   0.58326246    1.3768854    1.9741967     2.239447 
11210000   0.99877666 0.00010035779   0.54433008  0.029001469            0   0.51532861    1.4607109    2.0050409    12.281679 
11215000    1.0358936 1.6864157e-05   0.50239768  0.033187988            0   0.46920969    1.5149944     2.017392    3.7442818 
11220000   0.90370599 -7.3389209e-05   0.63460674  0.018412642            0    0.6161941      1.32167    1.9562768   -5.5587782 
11225000   0.95346909 3.5465103e-05   0.54229725  0.099814132            0   0.44248312    1.3944485    1.9367458    5.5683723 
11230000   0.81036994 4.0462539e-05   0.73626904  0.032763196            0   0.70350584     1.185166    1.9214351    6.0647991 
11235000    1.1325518 -1.3016411e-05   0.24716343 8.2816186e-05            0   0.24708061     1.656357    1.9035205   0.57063995 
11240000   0.87595738 -0.00012364815   0.60517121 0.0013113048            0   0.60385991    1.2810877    1.8862589   -10.775311 
11245000   0.92753547 -0.00011833252   0.52985978 0.0098025361            0   0.52005724    1.3565206    1.8863804    -10.23087 
11250000   0.82933242 -2.5726867e-05   0.67123793 0.0099373476            0   0.66130058    1.2128987    1.8841366  -0.75029462 
11255000   0.94183145 -4.0021322e-06   0.51532859 0.0012777567            0   0.51405083    1.3774285    1.8927571    1.4829387 
11260000   0.80426228 9.1838348e-05   0.70834484  0.064537608            0   0.64380723    1.1762336    1.8845784    11.288825 
11265000   0.87633621 9.0766035e-05   0.57128246  0.011855181            0   0.55942728    1.2816417    1.8529242    11.147366 
11270000    0.9974789 -2.5431387e-05   0.39351977 0.0001395288            0   0.39338024    1.4588129    1.8523327  -0.75184141 
11275000   0.90673324 -2.5946379e-05   0.55332642  0.037488057            0   0.51583836    1.3260974    1.8794238  -0.77748541 
11280000   0.82497404 1.5934155e-05   0.67272765   0.06015885            0    0.6125688    1.2065245    1.8792522    3.5109097 
11285000   0.93717624 7.2139628e-06   0.44982918  0.010856462            0   0.43897272    1.3706202    1.8204494    2.5591592 
11290000   0.87103755 1.7709488e-05   0.58343558 0.0067928883            0   0.57664269    1.2738924     1.857328    3.6707796 
11295000    0.9382401 7.0404565e-05   0.51308538 0.0045112764            0    0.5085741    1.3721761    1.8852615     9.094689 
11300000    1.0368998 5.8083057e-05   0.38184679 0.0015502083            0   0.38029658    1.5164659    1.8983127    7.8460178 
11305000   0.94099243 -3.2278889e-05   0.55053549            0            0   0.55053549    1.3762014    1.9267369   -1.3786213 
11310000   0.98543072 -2.3826694e-06    0.4943268 0.0001569965            0    0.4941698    1.4411924    1.9355192    1.6915339 
11315000   0.93988541 9.6146708e-05   0.62106479  0.045013649            0   0.57605114    1.3745824    1.9956472     11.84107 
11320000   0.94960729 -3.7039045e-05   0.61376482  0.074325535            0   0.53943929    1.3888007    2.0025655   -1.7902327 
11325000   0.93442959 -7.3596921e-05   0.59373066  0.016886344            0   0.57684431    1.3666033    1.9603339   -5.5759908 
11330000    1.0382557 -1.7149674e-05   0.47456854  0.018843279            0   0.45572526    1.5184489    1.9930175   0.23689083 
11335000    1.0405567 -7.8139372e-06   0.46533178  0.038808333            0   0.42652345    1.5218141    1.9871459    1.1869987 
11340000    1.0229975 -3.5995875e-05   0.49543476 0.0083932583            0    0.4870415    1.4961338    1.9915686    -1.694409 
11345000   0.97038214 6.7547191e-05   0.58137858 0.00042290879            0   0.58095567    1.4191839    2.0005625    8.9173948 
11350000    1.0103807 0.00011973542   0.59190806   0.04579749            0   0.54611057    1.4776818    2.0695899    14.330497 
11355000   0.96929172 -1.714881e-05   0.65807039   0.15204577            0   0.50602462    1.4175891    2.0756595   0.31962139 
11360000    1.1058032 -3.1435934e-05   0.46807527 0.0043053481            0   0.46376992    1.6172372    2.0853125   -1.1337272 
11365000    1.1538202 1.6008042e-05   0.40360228 0.0096626936            0   0.39393959    1.6874621    2.0910643    3.7302879 
11370000   0.97844251 1.4103678e-05   0.65613336 0.0045082805            0   0.65162508    1.4309722    2.0871055    3.5313222 
11375000    1.0419528 -5.9940408e-05   0.56538648 0.00025366205            0   0.56513281    1.5238559    2.0892424   -4.0486554 
11380000    1.0246976 -4.4690768e-05   0.59624299            0            0   0.59624299    1.4986202    2.0948632   -2.4814715 
11385000    1.2069939 -7.0425148e-05   0.30848626 0.00017217646            0   0.30831409    1.7652285    2.0737148   -5.1378204 
11390000    1.0869529 3.8100209e-05   0.48029701   0.02156524            0   0.45873177    1.5896687    2.0699657     5.971427 
11395000     1.087292 8.1530733e-05   0.50097887  0.015160566            0    0.4858183    1.5901646    2.0911434     10.43989 
11400000   0.97934146 -0.00014678399    0.6168019            0            0    0.6168019    1.4322869    2.0490888   -12.981592 
11405000    1.1793957 2.8442105e-06   0.35590485 0.0039900025            0   0.35191485    1.7248662    2.0807711    2.3720183 
11410000    1.1182001 0.00010573382   0.42522061  0.022425815            0   0.40279479    1.6353677    2.0605883    12.887731 
11415000    1.0106627 -2.918816e-05   0.60366894  0.022308328            0   0.58136061    1.4780942    2.0817631  -0.90710447 
11420000    1.0649989 7.5003426e-06   0.51930249  0.016660013            0   0.50264248    1.5575609    2.0768634    2.8448985 
11425000    1.0684477 -3.1213374e-05   0.50949329  0.034073333            0   0.47541995    1.5626048    2.0720981   -1.1241514 
11430000    1.0574605 -3.186427e-05   0.53595082  0.011625736            0   0.52432508     1.546536    2.0824868   -1.1804145 
11435000   0.99249126 2.0930565e-05   0.58770777 0.0034942824            0   0.58421349    1.4515185    2.0392262    4.1825161 
11440000    1.0438331 -5.282223e-05   0.52649548 6.7827192e-05            0   0.52642765    1.5266059    2.0531014   -3.3558949 
11445000    1.0241475 -9.9547538e-05   0.53979167 0.00043898141            0   0.53935269    1.4978158    2.0376074   -8.1560605 
11450000     1.158524 1.2265324e-05   0.35422177 0.0010258686            0    0.3531959    1.6943413    2.0485631    3.3045323 
11455000    1.0296677 1.9563518e-05   0.55441296 0.00080991156            0   0.55360305     1.505889    2.0603019    4.0636062 
11460000    1.0031978 -3.4225892e-05   0.58319513 0.00073373401            0   0.58246139    1.4671768    2.0503719   -1.4543595 
11465000    1.1232647 -4.0443783e-05   0.44536269  0.025759927            0   0.41960276    1.6427746    2.0881373   -2.0533061 
11470000    1.1306942 -1.4001491e-05   0.45531399  0.023403332            0   0.43191066    1.6536402    2.1089542   0.67520159 
11475000     1.056417 2.5918188e-05   0.58083638  0.028550348            0   0.55228604    1.5450099    2.1258463    4.7798688 
11480000    1.1647221 -3.4382553e-05   0.47657993  0.055842153            0   0.42073777    1.7034061    2.1799861   -1.3407873 
11485000    1.1254585 -6.8273956e-05   0.55816767  0.017309857            0   0.54085781     1.645983    2.2041507   -4.7871024 
11490000     1.119051 -3.1604349e-05    0.5743957 0.0060176487            0   0.56837806    1.6366121    2.2110079   -1.0252775 
11495000    1.0911678 -1.7902879e-05   0.59421692 0.0065190886            0   0.58769783    1.5958329    2.1900498   0.35679499 
11500000     1.020984 3.4259234e-05   0.68081996  0.034767797            0   0.64605216    1.4931891     2.174009    5.6821545 
11505000   0.99089579 6.8858632e-05   0.75012793    0.0378357            0   0.71229223    1.4491851     2.199313    9.2504369 
11510000    1.1704229 5.1843047e-05   0.53370561  0.014622943            0   0.51908267    1.7117434    2.2454491    7.5541771 
11515000    1.1637999 -5.9790747e-05   0.49464317  0.028504125            0   0.46613904    1.7020574    2.1967006   -3.9258719 
11520000    1.0256694 -8.2160593e-05   0.75075897  0.041233663            0   0.70952531    1.5000415    2.2508005   -6.1624442 
11525000    1.1914734 -4.1960733e-05   0.51702616 0.0015441505            0   0.51548201    1.7425299     2.259556    -2.037223 
11530000    1.0968488 -6.0843389e-05   0.63457997            0            0   0.63457997    1.6041414    2.2387213   -3.9916417 
11535000    1.1344966  2.43452e-05   0.55631658            0            0   0.55631658    1.6592013    2.2155179    4.7084664 
11540000    1.1378296 -7.0789762e-05   0.59041107 0.0054678991            0   0.58494317    1.6640758    2.2544868   -4.9943848 
11545000    1.2570968 4.2338689e-05   0.43378456   0.01587244            0   0.41791212    1.8385041    2.2722887    6.6077705 
11550000    1.1928221 4.9487719e-05   0.53122785   0.01047955            0    0.5207483    1.7445024    2.2757302    7.3432727 
11555000    1.0397188 -8.8154198e-05   0.69468356 0.0059344037            0   0.68874916    1.5205887    2.2152723   -6.8117176 
11560000    1.1322095 -1.7971397e-05   0.55028654            0            0   0.55028654    1.6558564    2.2061429   0.36587186 
11565000    1.0291577 7.2070625e-05   0.67069868            0            0   0.67069868    1.5051431    2.1758418    9.5558738 
11570000    1.1188647 4.1180702e-05    0.5141913 0.00012545066            0   0.51406585    1.6363396    2.1505309    6.3674348 
11575000     1.024966 -8.4739212e-05   0.63793561  0.019502936            0   0.61843267    1.4990128    2.1369484    -6.540347 
11580000   0.99266339 -8.3364684e-06    0.6540841   0.07365189            0   0.58043221    1.4517702    2.1058543    1.2521999 
11585000   0.95869228 4.0347672e-05   0.70363352  0.080046803            0   0.62358672    1.4020875     2.105721    6.2373225 
11590000   0.81727447 3.5734568e-05   0.86025651   0.08149883            0   0.77875768    1.1952639    2.0555204    5.7147401 
11595000   0.94154647 -4.7588811e-05   0.66036927  0.099353948            0   0.56101533    1.3770117     2.037381   -2.8357132 
11600000   0.81764169 2.4477421e-05   0.80530374   0.07029543            0   0.73500831     1.195801    2.0011047    4.5075926 
11605000     0.873052 -7.9352556e-05   0.72145423  0.042353527            0    0.6791007    1.2768386    1.9982928   -6.1274089 
11610000   0.94550696 -3.0539176e-05   0.61767781 0.0061764109            0    0.6115014    1.3828039    2.0004817   -1.1267299 
11615000    1.0319643 -7.4107493e-05    0.5642077  0.010334106            0    0.5538736    1.5092478    2.0734555   -5.5151517 
11620000    1.0611303 -7.1758807e-06   0.52705487  0.012652537            0   0.51440234     1.551903    2.0789579    1.3441477 
11625000    1.0600142 2.8638051e-05   0.53185543  0.010189454            0   0.52166598    1.5502708    2.0821262    5.0146626 
11630000   0.98316585 -7.6151433e-06   0.61878261 0.0022223519            0   0.61656026      1.43788    2.0566627     1.276872 
11635000    1.0407551 -1.1132882e-06   0.53907069 0.0013797874            0    0.5376909    1.5221043     2.061175    1.9471743 
11640000    1.0914937 5.1468934e-06   0.45910836  0.018695597            0   0.44041276    1.5963095    2.0554179    2.5824598 
11645000    1.0472067 -0.00011783159   0.53114384   0.10016733            0   0.43097652    1.5315398    2.0626837   -10.003271 
11650000    1.0649417 -2.3923005e-05   0.50232111  0.083982246            0   0.41833886    1.5574772    2.0597983   -0.3899174 
11655000   0.99962054 -1.5613599e-05   0.64010781  0.012080235            0   0.62802757     1.461945    2.1020529   0.50322032 
11660000    1.0488322 6.3784199e-05   0.54898135  0.040401599            0   0.50857975    1.5339171    2.0828984    8.6144004 
11665000    1.1804485 3.9259531e-05   0.36755177   0.02053751            0   0.34701426     1.726406    2.0939577    6.1141337 
11670000    0.9795866 -6.7487162e-06   0.65870405   0.10268782            0   0.55601624    1.4326454    2.0913495    1.4002809 
11675000    0.9432775 0.00014579274   0.71268747   0.11835785            0   0.59432961    1.3795433    2.0922308    17.021408 
11680000    1.1473758 7.1631869e-05   0.43822075 0.0011585933            0   0.43706215    1.6780371    2.1162578    9.4513612 
11685000    1.1751876 -8.3995062e-05   0.38138873            0            0   0.38138873    1.7187119    2.1001006   -6.5009937 
11690000    1.0088441 4.2331855e-05   0.63139172            0            0   0.63139172    1.4754345    2.1068262    6.4416081 
11695000    1.0599232 1.1936757e-05   0.55338734 0.0014300483            0   0.55195729    1.5501376     2.103525    3.3258488 
11700000    1.1123267 -6.7248163e-05   0.47480622 0.0050081794            0   0.46979804    1.6267778     2.101584   -4.7846279 
11705000    1.0108469 -1.8403737e-05   0.60841236 0.0056508227            0   0.60276154    1.4783636     2.086776   0.20223335 
11710000    1.0520581 -0.00011239821   0.57388328 0.0019955235            0   0.57188776    1.5386349    2.1125182   -9.3970585 
11715000     1.075675 9.808012e-05   0.54554929  0.021346542            0   0.52420275    1.5731746    2.1187239    12.162128 
11720000    1.0338152 1.9467364e-05   0.61986173  0.080853446            0   0.53900828    1.5119548    2.1318165    4.1252745 
11725000     1.163152 -2.3588948e-05   0.43966038  0.001123417            0   0.43853696    1.7011098    2.1407702   -0.2747381 
11730000    1.0874569 1.1519888e-06   0.51894262 0.00046301366            0    0.5184796    1.5904057    2.1093483     2.227312 
11735000    1.0871773 -0.00016363245   0.49312724 0.0080833828            0   0.48504386    1.5899968    2.0831241   -14.672839 
11740000    1.1393455 -2.8640441e-05   0.42675138  0.033653948            0   0.39309744    1.6662928    2.0930442  -0.83973691 
11745000    1.0482895 0.00010960819    0.5544845  0.095169621            0   0.45931488    1.5331234    2.0876079    13.311487 
11750000    1.0528985 7.9689965e-05   0.59480455 0.0032101402            0   0.59159441    1.5398641    2.1346686    10.294921 
11755000    1.0735587 -1.3713889e-05   0.59144341            0            0   0.59144341    1.5700795    2.1615229   0.75722074 
11760000    1.1010645 -4.8140141e-05   0.54661502 0.0012280828            0   0.54538693    1.6103069    2.1569219   -2.7726285 
11765000    1.0601189 2.3796611e-05   0.62753383 0.0040309221            0   0.62350291    1.5504239    2.1779577    4.6147306 
11770000    1.0007696 6.2225969e-05   0.65391153 0.0089294315            0    0.6449821    1.4636255     2.117537    8.4894762 
11775000    1.0775069 -1.9289824e-05   0.50320353 0.0058371562            0   0.49736637    1.5758539    2.0790574    0.1037794 
11780000    0.9937163 -5.1993277e-05    0.6054733 0.00028132853            0   0.60519197    1.4533101    2.0587834   -3.2653282 
11785000    1.0663201 -2.4663571e-05   0.50906004 0.00013044943            0   0.50892959    1.5594932    2.0685532   -0.4569965 
11790000    1.1394085 3.7787048e-05   0.44754289  0.012085153            0   0.43545774     1.666385    2.1139279    5.9833215 
11795000   0.93985333 5.917794e-05   0.75925797  0.028319177            0    0.7309388    1.3745355    2.1337935    8.1936145 
11800000    1.0201348 4.176317e-06   0.64849414  0.033777658            0   0.61471648    1.4919472    2.1404413    2.5680962 
11805000    1.0912731 -8.0656858e-05   0.54365525  0.018401172            0   0.52525408    1.5959869    2.1396421   -6.1196202 
11810000   0.93594252 -2.1823962e-05   0.81089194 0.00056669534            0   0.81032525    1.3688159    2.1797079 -0.055065851 
11815000     1.109122 6.5929273e-05   0.59210972            0            0   0.59210972    1.6220909    2.2142006    8.9653582 
11820000    1.0929592 2.5695693e-05   0.62410533  0.001540363            0   0.62256497    1.5984528    2.2225581     4.853797 
11825000    1.1768776 -1.7344672e-05   0.49420068 0.0043206743            0   0.48988001    1.7211835    2.2153842   0.43928972 
11830000    1.1255421 1.3761513e-05   0.55144567 0.0048943972            0   0.54655128    1.6461054    2.1975511      3.60673 
11835000    1.0846286 6.3057944e-06   0.59847299 0.00030483208            0   0.59816816    1.5862694    2.1847423    2.8304557 
11840000    1.1160436 5.1691327e-05   0.58442655  0.002015691            0   0.58241086    1.6322138    2.2166403    7.5098321 
11845000    1.1592971 6.4825804e-05   0.51828869  0.012764536            0   0.50552415    1.6954721    2.2137607    8.8519231 
11850000    1.0566659 2.5834857e-05   0.69307118  0.026433899            0   0.66663728    1.5453739    2.2384451    4.8839345 
11855000    1.1091258 1.3190521e-05    0.5997157  0.050330765            0   0.54938494    1.6220964    2.2218121    3.5725215 
11860000    1.1189771 -2.2131266e-05   0.60579035  0.042544176            0   0.56324618     1.636504    2.2422943 -0.023947379 
11865000    1.1496596 -2.6034305e-05   0.58902531  0.058276637            0   0.53074867    1.6813771    2.2704025  -0.39551035 
11870000    1.2235704 -2.4510924e-05   0.45817725  0.050701096            0   0.40747616    1.7894718     2.247649  -0.26226959 
11875000    1.1061797 -2.3814633e-05   0.67009101 0.0063035005            0   0.66378751    1.6177877    2.2878787  -0.15073969 
11880000    1.2271394 -4.2270568e-05   0.49841781 0.0015064678            0   0.49691134    1.7946914    2.2931092    -2.035397 
11885000    1.1420902 -6.5225816e-06   0.66655649  0.003108768            0   0.66344772    1.6703069    2.3368634    1.6689511 
11890000     1.152247 0.00013232502     0.631485  0.032504642            0   0.59898036    1.6851612    2.3166462    15.866728 
11895000    1.1433161 0.00011680332    0.5980934  0.091018503            0    0.5070749    1.6720998    2.2701932    14.230854 
11900000    1.1224219 -7.0825938e-07   0.67261294  0.022785965            0   0.64982697    1.6415421     2.314155    2.2416293 
11905000    1.1515667 5.7836784e-05   0.63705588  0.030820578            0    0.6062353    1.6841663    2.3212222    8.2437089 
11910000    1.2673944 5.7656978e-05   0.45201111  0.037378453            0   0.41463265    1.8535643    2.3055754      8.20965 
11915000    1.1357303 -1.5913001e-05   0.65065669  0.073330717            0   0.57732598    1.6610056    2.3116623     0.682171 
11920000     1.191151 -3.5146783e-05   0.58499292  0.014815093            0   0.57017782    1.7420583    2.3270512   -1.2719794 
11925000    1.1779499 -1.9685446e-05   0.59718006 0.0043415092            0   0.59283855    1.7227517    2.3199317   0.30414205 
11930000    1.1621353 -2.9265987e-05   0.61441846 0.0081710373            0   0.60624742    1.6996228    2.3140413  -0.68279576 
11935000    1.2499571 -8.4602871e-05   0.53921499  0.010840406            0   0.52837458    1.8280622    2.3672772   -6.2960568 
11940000    1.1407558 -0.00011021934   0.69123981  0.055922597            0   0.63531721    1.6683554    2.3595952   -8.9268657 
11945000    1.2336844 -2.4997536e-05   0.51462985  0.057989241            0   0.45664061    1.8042634    2.3188932  -0.24085441 
11950000    1.2452575 6.9622358e-05   0.48274222 0.0034882747            0   0.47925395     1.821189    2.3039312    9.4332607 
11955000    1.1811451 8.2137194e-05   0.57062174  0.064181548            0   0.50644019    1.7274247    2.2980465    10.708895 
11960000    1.1786442 2.5776906e-05   0.60366143  0.036912979            0   0.56674845    1.7237671    2.3274286    4.9669837 
11965000    1.1379383 -3.8820206e-05   0.64804855 0.0077116207            0   0.64033693    1.6642348    2.3122834   -1.6629057 
11970000    1.0972865 1.7440985e-05    0.7110867  0.020471975            0   0.69061472    1.6047815    2.3158682     4.101825 
11975000      1.21186 3.0430544e-05   0.53457778  0.011703256            0   0.52287452    1.7723453    2.3069231    5.4230107 
11980000     1.202297 -1.9384522e-06   0.50904181  0.028327275            0   0.48071453    1.7583594    2.2674012    2.0689037 
11985000    1.0731988 -4.3934066e-05   0.71108855  0.039074638            0   0.67201392    1.5695533    2.2806418   -2.2182066 
11990000    1.2224251 -2.341982e-05   0.54308715  0.012233986            0   0.53085317    1.7877968    2.3308839 -0.067305638 
11995000    1.1405982 4.4337578e-05   0.63675833 0.0058113955            0   0.63094694    1.6681249    2.3048832    6.8450512 
12000000    1.0953524 6.3615699e-05   0.64668783 0.0089194854            0   0.63776834    1.6019528    2.2486407    8.7628882 
12005000    1.1505812 4.1982686e-05   0.52801526   0.04477317            0   0.48324209     1.682725    2.2107402    6.5097673 
12010000    1.1694154 4.8560014e-06    0.5025642  0.016862166            0   0.48570203      1.71027    2.2128342    2.7100888 
12015000    1.1165522 1.5782077e-05   0.57462079  0.044140062            0   0.53048073    1.6329575    2.2075783     3.823663 
12020000    1.0822677 1.7494015e-05   0.61034078  0.062348619            0   0.54799216    1.5828165    2.1931572    3.9845444 
12025000    1.1198548 -2.3592436e-05   0.58822324  0.013769896            0   0.57445334    1.6377877    2.2260109  -0.18985449 
12030000    1.0278448 -7.7022475e-05     0.711328  0.066178447            0   0.64514955     1.503223     2.214551   -5.6725505 
12035000    1.0013193 -7.5598742e-05   0.73526802  0.066944853            0   0.66832317    1.4644295    2.1996975   -5.5416136 
12040000   0.89827889 -3.5599587e-05    0.8738546   0.10245837            0   0.77139622    1.3137329    2.1875875   -1.4578103 
12045000     1.073967 -5.1780611e-05   0.62249353  0.044797793            0   0.57769574    1.5706767    2.1931703   -3.1091643 
12050000    1.2244414 -1.886168e-05   0.44825487 0.0093575788            0   0.43889729    1.7907456    2.2390005   0.30756443 
12055000    1.0937882 1.2176191e-05   0.64235718  0.012645372            0   0.62971181    1.5996653    2.2420225    3.4888644 
12060000     1.029624 4.5744703e-06   0.73880677  0.011720099            0   0.72708667     1.505825    2.2446318    2.7130576 
12065000    1.0736383 -8.343274e-06   0.65308583 0.00043084702            0   0.65265498     1.570196    2.2232818    1.3689305 
12070000    1.1310768 -2.162579e-05   0.58710736 0.0017539257            0   0.58535344    1.6541999    2.2413072  0.026826388 
12075000    1.2048299 -1.6038651e-05   0.49488584   0.01201751            0   0.48286833    1.7620637    2.2569496   0.61459167 
12080000    1.0715202 1.5630927e-05   0.64894847  0.021624137            0   0.62732433    1.5670983    2.2160468    3.8166537 
12085000   0.96576722 6.4669769e-05   0.76675198  0.028999234            0   0.73775275    1.4124346    2.1791865    8.8013709 
12090000    1.0971176 6.7044331e-05   0.60747386  0.028140466            0   0.57933339    1.6045345    2.2120084    9.0773479 
12095000    1.0527053 8.0936928e-06   0.68569989 0.0051738545            0   0.68052604    1.5395815    2.2252814    3.0540755 
12100000    1.0801587 1.7047454e-05   0.64396694 0.0025384005            0   0.64142854    1.5797321     2.223699    3.9693583 
12105000     1.024223 -2.8808433e-06   0.70981756   0.02590331            0   0.68391425    1.4979262    2.2077437    1.9127454 
12110000    1.1120148 -2.2450928e-05   0.62769494  0.039374215            0   0.58832073    1.6263216    2.2540165 -0.044958494 
12115000     1.097238 3.5870607e-05   0.64951182  0.069727443            0   0.57978438    1.6047106    2.2542225    5.9273726 
12120000    1.2344648 -2.0960664e-05   0.46219959 0.0079121018            0   0.45428749    1.8054048    2.2676043   0.12123236 
12125000    1.1262305 -2.7843706e-06   0.62818793 0.0034226928            0   0.62476524    1.6471121    2.2753001    1.9901805 
12130000    1.1535307 -5.9891388e-05   0.61671044  0.014286169            0   0.60242427    1.6870386     2.303749   -3.8291291 
12135000    1.0553518 -0.00011675313   0.76883703  0.015333983            0   0.75350305    1.5434521    2.3122891   -9.6432313 
12140000     1.265826 -2.752896e-05   0.49934746 0.0049451544            0   0.49440231    1.8512705    2.3506179  -0.46834753 
12145000    1.1110856 2.4517011e-05   0.67217577 4.6384051e-05            0   0.67212938    1.6249627    2.2971384    4.8076804 
12150000    1.1043158 -7.7102657e-06   0.62904978 0.00090535397            0   0.62814443    1.6150619    2.2441117    1.4545804 
12155000    1.0145235 -2.8690625e-06   0.81417736 0.00040822429            0   0.81376914    1.4837406     2.297918     2.004126 
12160000    1.1091962 2.8368535e-05   0.69383172 0.00060818873            0   0.69322353    1.6221994    2.3160311    5.2209691 
12165000    1.1369524 -3.8795872e-05   0.63984752  0.016131685            0   0.62371584    1.6627929    2.3026404   -1.6700569 
12170000    1.0218516 -8.7672109e-05   0.81947958  0.067592208            0   0.75188737     1.494458    2.3139376   -6.6636864 
12175000   0.97913485 -0.00011457763   0.86746361  0.044887846            0   0.82257576    1.4319847    2.2994483   -9.4333013 
12180000    1.1074222 -6.08707e-05   0.68955609  0.018778442            0   0.67077764     1.619605    2.3091611   -3.9239985 
12185000    1.1781662 -3.3258385e-07   0.56532709  0.026316399            0   0.53901069    1.7230681    2.2883952    2.2543386 
12190000    1.0842634 7.6236267e-05   0.68307502   0.01067067            0   0.67240435    1.5857352    2.2688102    10.075404 
12195000    1.0334365 4.7753257e-05   0.74620398 0.0090949694            0   0.73710901    1.5114008    2.2576048    7.1475383 
12200000    1.0946139 -2.3158449e-05   0.68337937  0.010416214            0   0.67296315    1.6008728    2.2842521 -0.087173067 
12205000    1.0870919 0.00010412481   0.66350138  0.094775035            0   0.56872634    1.5898719    2.2533733    12.915754 
12210000    1.1324514 -4.438583e-05   0.62358104  0.085554722            0   0.53802632    1.6562102    2.2797913   -2.2653178 
12215000    1.0718278 -3.99569e-05   0.70705072   0.05338082            0    0.6536699    1.5675482    2.2745989   -1.8169877 
12220000     1.048798 2.2635641e-05   0.74660286  0.035568758            0    0.7110341    1.5338671      2.28047    4.5983596 
12225000    1.0128353 0.00011692652   0.81461246  0.050930413            0   0.76368204    1.4812717    2.2958841     14.26916 
12230000    1.1790022 6.512621e-05   0.62489239 0.0015778599            0   0.62331453    1.7242907    2.3491831     9.018107 
12235000     1.100439 -4.3584707e-05   0.71527367            0            0   0.71527367     1.609392    2.3246656   -2.1384083 
12240000    1.2090167 -2.9930165e-05   0.56326515            0            0   0.56326515    1.7681869     2.331452  -0.73339683 
12245000    1.1091933 -6.1418772e-05   0.70034949            0            0   0.70034949    1.6221952    2.3225447   -3.9667376 
12250000    1.1739407 3.1162484e-05   0.58565271 0.0038971521            0   0.58175556    1.7168883    2.3025411    5.4935794 
12255000     1.244828 3.0957567e-05   0.51919653   0.04221698            0   0.47697955    1.8205609    2.3397575    5.5098123 
12260000    1.0883451 2.1276436e-05    0.7571004  0.030124848            0   0.72697555    1.5917047    2.3488051    4.5275121 
12265000    1.2135201 -1.3210397e-05   0.64669192  0.023695545            0   0.62299637    1.7747731     2.421465    1.0687203 
12270000    1.2835666 5.3322019e-05   0.56827402  0.081466302            0   0.48680772    1.8772162    2.4454902    7.9056649 
12275000    1.1780767 1.2888633e-05   0.69448253 0.00040476222            0   0.69407777    1.7229372    2.4174197    3.7372158 
12280000    1.2333932 -2.0458902e-05   0.62534941 0.0037377836            0   0.62161162    1.8038375    2.4291869   0.33419533 
12285000     1.269189 -5.7525155e-05   0.59823777  0.016651432            0   0.58158634    1.8561889    2.4544267   -3.4361492 
12290000    1.2432261 -6.0453761e-05   0.65180676  0.020903712            0   0.63090304    1.8182182     2.470025   -3.7204401 
12295000    1.1622501 -1.5894608e-05   0.72071149  0.059353454            0   0.66135803    1.6997908    2.4205023   0.79289435 
12300000     1.284088 9.172774e-05   0.57246312  0.048063085            0   0.52440003    1.8779788    2.4504419    11.843362 
12305000    1.2490643 6.9049518e-05   0.60936761  0.022012309            0    0.5873553    1.8267565    2.4361241    9.5067947 
12310000    1.2248351 2.3262882e-06   0.63381901 0.0071537543            0   0.62666526    1.7913213    2.4251403    2.6633522 
12315000    1.1980898 3.444712e-05   0.68166514 0.00014929192            0   0.68151585    1.7522063    2.4338714    5.9612565 
12320000    1.1544439 5.3219237e-05   0.71997819            0            0   0.71997819    1.6883742    2.4083524    7.8580023 
12325000    1.1873498 6.6996073e-06   0.72022903 0.0039311152            0   0.71629792    1.7364991    2.4567281    3.1427679 
12330000     1.307642 -6.3630664e-06   0.54604768  0.040894937            0   0.50515274    1.9124265    2.4584741    1.8068961 
12335000    1.3472092 -4.3374098e-05   0.48734854  0.084709099            0   0.40263944    1.9702934     2.457642   -1.9838656 
12340000       1.1694 -6.8209336e-05   0.72075648   0.02602178            0    0.6947347    1.7102476     2.431004    -4.553632 
12345000    1.2378703 -2.4084216e-05   0.62003223 0.0060201122            0   0.61401211    1.8103853    2.4304175 -0.035806241 
12350000    1.1088632 -2.1162461e-05   0.84308834 0.00047165314            0   0.84261669    1.6217124    2.4648007   0.29776469 
12355000    1.3503571 2.9133122e-05   0.49729995 0.00094245422            0    0.4963575    1.9748973    2.4721972     5.455429 
12360000     1.382422 2.3318251e-05   0.46428868  0.006133936            0   0.45815475    2.0217922    2.4860809    4.8738698 
12365000    1.1216586 -6.0861806e-06   0.85167038  0.010718344            0   0.84095204    1.6404257    2.4920961    1.8688712 
12370000    1.2614172 -1.9962711e-05   0.63150615  0.031740603            0   0.59976555    1.8448227    2.4763288   0.43214728 
12375000     1.286036 -6.7141549e-05    0.6020367   0.02580562            0   0.57623108    1.8808277    2.4828644   -4.3924302 
12380000    1.2211522 -9.0625129e-05   0.73763466 0.0070419512            0   0.73059271    1.7859351    2.5235698   -6.7564435 
12385000     1.276585 -7.8332142e-05   0.66514788  0.028988692            0   0.63615919    1.8670056    2.5321535   -5.4890578 
12390000    1.2278538 1.9787328e-05   0.78129007   0.13066087            0    0.6506292    1.7957362    2.5770263    4.6032487 
12395000    1.2138068 6.9049117e-05   0.81001433  0.065150469            0   0.74486386    1.7751924    2.5852068    9.6558364 
12400000    1.3269608 2.6451397e-05   0.65704183  0.017245742            0   0.63979609    1.9406802     2.597722    5.3063451 
12405000    1.3280279 -2.8997051e-05    0.6105866 0.0097290681            0   0.60085753    1.9422408    2.5528274   -0.4164706 
12410000    1.4773261 1.3380451e-05   0.41120557  0.063249617            0   0.34795595    2.1605894     2.571795    3.9419531 
12415000    1.2880923 7.3496033e-05   0.67166587  0.041317441            0   0.63034843    1.8838351    2.5555009    10.081495 
12420000    1.4446239 7.2984881e-05   0.46714022  0.034029144            0   0.43311107    2.1127624    2.5799026    10.053554 
12425000    1.2076116 7.2087332e-05   0.78331132  0.087169881            0   0.69614143    1.7661319    2.5494433    9.9311861 
12430000    1.3851854 0.00010809049   0.49281007    0.1162198            0   0.37659027    2.0258336    2.5186437     13.58711 
12435000    1.2063896 8.0562106e-05    0.7076708  0.081575008            0   0.62609579    1.7643447    2.4720155    10.721575 
12440000    1.2043968 8.7026961e-05   0.74479723  0.003619024            0   0.74117821    1.7614303    2.5062276    11.417788 
12445000    1.2927856 7.9886875e-05   0.62210913 0.0031057944            0   0.61900334    1.8906989     2.512808    10.693224 
12450000     1.312905 -6.8351095e-06    0.5411463  0.034531811            0   0.50661449    1.9201235    2.4612698    1.7613546 
12455000    1.2119866 -6.2104909e-06    0.7098496  0.034382245            0   0.67546736    1.7725303    2.4823799    1.8464257 
12460000    1.3201258 5.801313e-05   0.57662223 0.0023568015            0   0.57426542     1.930684    2.5073062    8.4478507 
12465000    1.3205932 -5.79957e-05   0.54816343  0.013500533            0    0.5346629    1.9313676     2.479531   -3.4592287 
12470000    1.3203156 -7.0000961e-05   0.54327578  0.012699587            0   0.53057619    1.9309615    2.4742373   -4.6938611 
12475000    1.3864421 4.5601049e-05   0.40011514 0.00056388177            0   0.39955125    2.0276716    2.4277868    7.0973341 
12480000    1.2594135 1.8955744e-05   0.60185219 0.0029118834            0   0.59894031    1.8418923    2.4437445    4.3848127 
12485000    1.1208678 -8.207042e-05   0.81124653  0.036024249            0   0.77522228    1.6392692    2.4505157   -5.9534953 
12490000    1.1334129 1.7157437e-05   0.75896342   0.02451728            0   0.73444614    1.6576164    2.4165798    4.1735013 
12495000    1.1956982 2.9532694e-05   0.59206616  0.045935021            0   0.54613114    1.7487087    2.3407748    5.3649227 
12500000    1.1911422 -3.9902139e-05   0.56962295  0.016265019            0   0.55335793    1.7420455    2.3116684   -1.7743107 
12505000    1.2096894 1.8211058e-05   0.50609119  0.003269502            0   0.50282169    1.7691708     2.275262    4.1400744 
12510000    1.2359743 7.337733e-05   0.47793955 0.0012975714            0   0.47664197    1.8076125     2.285552    9.7993906 
12515000    1.2168035 8.4852448e-06   0.54241376  0.030983073            0   0.51143069    1.7795751    2.3219889    3.1908779 
12520000     1.137071 1.0204376e-05   0.65968102  0.046107065            0   0.61357396    1.6629663    2.3226474    3.3675754 
12525000    1.1820568 3.6420489e-05   0.60218243 0.0092676743            0   0.59291475    1.7287581    2.3309405    6.0603986 
12530000    1.2954959 7.5492045e-05     0.466624 0.0053012405            0   0.46132276    1.8946628    2.3612868    10.091672 
12535000    1.1542295 1.5986107e-05   0.68281877  0.046942316            0   0.63587645    1.6880606    2.3708794    4.0078567 
12540000    1.1552019 -8.6095703e-05   0.65231126  0.054892188            0   0.59741907    1.6894828     2.341794    -6.474406 
12545000    1.1854782 -0.00012747736   0.59382056   0.03050878            0   0.56331178    1.7337618    2.3275824   -10.726099 
12550000    1.2925456 -7.6557916e-06   0.45857526   0.01072871            0   0.44784655     1.890348    2.3489232    1.5649702 
12555000    1.2484157 2.6350999e-05   0.47503374 0.00048742168            0   0.47454632     1.825808    2.3008417     4.999184 
12560000    1.1923001 -0.00012602796   0.60263192 0.0051165456            0   0.59751537    1.7437389    2.3463708   -10.558893 
12565000    1.1686147 -6.7752927e-05   0.60491511 0.0046858197            0   0.60022929    1.7090991    2.3140142   -4.6238856 
12570000    1.1290473 -8.1294746e-06   0.67085915 0.0015144114            0   0.66934474    1.6512316    2.3220908    1.4896326 
12575000    1.1156118 -3.7701591e-05   0.69550924 0.0077859852            0   0.68772325    1.6315823    2.3270916   -1.5335514 
12580000     1.200019 -4.8802488e-05   0.59520116  0.009415379            0   0.58578578    1.7550277    2.3502289   -2.6471458 
12585000    1.1646056 -1.1685267e-06   0.59233081 0.0018906087            0   0.59044021    1.7032357    2.2955665    2.1759094 
12590000    1.1776794 -1.4399458e-05   0.56499151 7.0563238e-05            0   0.56492094    1.7223561    2.2873476    0.8128431 
12595000    1.1814253 -4.5776787e-05    0.5362105            0            0    0.5362105    1.7278345     2.264045    -2.423498 
12600000    1.1878863 2.521989e-05   0.57871373            0            0   0.57871373    1.7372837    2.3159975    4.8985141 
12605000    1.1467091 -2.6392219e-07   0.69013789 0.00047920185            0   0.68965869     1.677062    2.3671999    2.3401743 
12610000     1.268858 -8.2457697e-05   0.53159821    0.0106016            0   0.52099661    1.8557048     2.387303   -6.0563652 
12615000    1.1741765 -2.1367626e-05   0.67265756  0.099233476            0   0.57342408    1.7172331    2.3898907   0.20184582 
12620000    1.1058529 2.2413887e-05   0.79536526  0.037975657            0    0.7573896    1.6173098    2.4126751    4.7078571 
12625000    1.2118927 -1.2862151e-05   0.71720909   0.10018865            0   0.61702043     1.772393    2.4896021    1.1725179 
12630000    1.2979314 2.5976258e-05   0.59462712  0.041101239            0   0.55352589    1.8982247    2.4928518    5.1528206 
12635000    1.3164065 -1.8005918e-05   0.60839847  0.010829036            0   0.59756944    1.9252444    2.5336429   0.68983695 
12640000    1.2901562 -3.117234e-05   0.68679432  0.019870406            0   0.66692391    1.8868534    2.5736477  -0.61839995 
12645000    1.3496115 1.9997371e-05   0.53559029  0.080827272            0   0.45476302    1.9738068    2.5093971    4.5571279 
12650000    1.3170033 4.7607299e-05   0.56639878  0.037780586            0   0.52861819    1.9261174    2.4925161    7.3675035 
12655000    1.4435649 5.1995564e-05   0.43253114 0.0084123702            0   0.42411877    2.1112136    2.5437448    7.8680906 
12660000    1.2875226 2.5581827e-06   0.63309662  0.024541334            0   0.60855529    1.8830018    2.5160984    2.7780563 
12665000    1.1674157 -5.9586603e-05    0.7721417   0.11333458            0   0.65880713    1.7073455    2.4794872   -3.6221809 
12670000    1.2178586 -3.7425482e-05   0.68207766  0.031731996            0   0.65034566    1.7811182    2.4631959   -1.3691734 
12675000    1.2888934 6.0245822e-05    0.5888467    0.1068107            0   0.48203601    1.8850066    2.4738533    8.6430255 
12680000     1.168248 0.00010832291   0.80013999    0.1133149            0   0.68682509    1.7085627    2.5087027    13.600969 
12685000     1.236833 0.00017136319   0.66911921  0.065362441            0   0.60375677    1.8088682    2.4779874    20.025578 
12690000    1.2394278 0.0001245011   0.62063113  0.033468824            0    0.5871623    1.8126631    2.4332943    15.182206 
12695000    1.1612245 2.2078668e-06   0.70662037  0.063383015            0   0.64323735    1.6982908    2.4049112    2.6309967 
12700000    1.2168016 -2.6383265e-05   0.60373231  0.059696316            0   0.54403599    1.7795723    2.3833046  -0.31834175 
12705000    1.2778046 -7.2894981e-05     0.525428  0.043675374            0   0.48175263    1.8687892    2.3942172   -5.0702289 
12710000    1.2101036 -0.00010717321   0.62840914  0.028669687            0   0.59973945    1.7697765    2.3981856   -8.5763513 
12715000    1.2945222 8.8558439e-06   0.54125914  0.010336447            0   0.53092269    1.8932387    2.4344978    3.3413362 
12720000    1.1847533 8.1127852e-05   0.73700661  0.036157333            0   0.70084927    1.7327017    2.4697083      10.7772 
12725000    1.2831489 4.2214282e-05   0.57659655  0.068684615            0   0.50791194    1.8766053    2.4532018    6.7759443 
12730000    1.3273849 -4.2410833e-06   0.55077024  0.031568324            0   0.51920191    1.9413005    2.4920707    2.0577838 
12735000    1.3374767 6.5422527e-05   0.56063072 0.0026387852            0   0.55799193    1.9560597    2.5166904    9.2159572 
12740000    1.4409736 8.032513e-05   0.41759421  0.015599672            0   0.40199454     2.107424    2.5250182    10.750311 
12745000    1.3074115 -7.4531673e-05   0.64027789  0.065999055            0   0.57427884    1.9120893    2.5523672   -5.0796761 
12750000    1.3374951 -0.0001611581   0.57882865  0.058130352            0   0.52069829    1.9560866    2.5349152   -13.967674 
12755000    1.3501152 -5.1998505e-05    0.5405574  0.029126324            0   0.51143108    1.9745435    2.5151009   -2.8095461 
12760000    1.4592108  0.000135999   0.38249272  0.011670275            0   0.37082244    2.1340959    2.5165886    16.442887 
12765000    1.2562599 0.00015502726   0.71043558  0.029297553            0   0.68113803    1.8372801    2.5477157    18.422507 
12770000    1.3480625 2.1688372e-05   0.57744842   0.13457148            0   0.44287694    1.9715414    2.5489899    4.7698791 
12775000    1.3791569 -5.9753244e-05   0.49620652  0.029365588            0   0.46684094    2.0170169    2.5132234   -3.6055088 
12780000    1.2209214 -6.6536935e-05   0.65075397 6.1949303e-05            0   0.65069202    1.7855975    2.4363515   -4.3770307 
12785000    1.2813338 -9.8995042e-05   0.59783782  0.057871306            0   0.53996651    1.8739506    2.4717885   -7.6653039 
12790000    1.2444382 3.4071394e-05   0.68072291   0.03282153            0   0.64790138    1.8199909    2.5007138    5.9896246 
12795000     1.313252 6.3303201e-05   0.57394514 0.0051971599            0   0.56874798     1.920631    2.4945762     8.976824 
12800000    1.3660037 1.9593666e-05   0.43294067  0.034462446            0   0.39847822    1.9977804    2.4307211    4.4371125 
12805000     1.151367 3.3294144e-05   0.76492542   0.12224658            0   0.64267884    1.6838743    2.4487997    5.8581201 
12810000    1.3026431 -1.0168107e-05   0.51424892  0.056820783            0   0.45742814    1.9051155    2.4193644    1.3781502 
12815000    1.2879926 0.00012866482   0.56369237  0.030382266            0    0.5333101    1.8836892    2.4473816    15.622659 
12820000    1.3400535 1.0607992e-06   0.51194104 0.0078363643            0   0.50410468    1.9598282    2.4717693    2.5803951 
12825000    1.4745048 2.8649001e-05   0.34914394   0.03525265            0   0.31389129    2.1564632    2.5056072    5.4392648 
12830000    1.2955689 6.539767e-05   0.55111687  0.098794172            0    0.4523227    1.8947695    2.4458864    9.1426078 
12835000    1.2217023 8.7891147e-06   0.68531892  0.064028948            0   0.62128997    1.7867396    2.4720585    3.3720639 
12840000    1.3421798 7.6148144e-05   0.53287233 0.0066928096            0   0.52617952    1.9629379    2.4958103     10.29338 
12845000    1.3396828 -8.6476605e-07   0.51297481            0            0   0.51297481     1.959286    2.4722609    2.3837088 
12850000    1.3573793 -9.9552275e-08   0.47852984 0.0032051325            0    0.4753247    1.9851672    2.4636971    2.4535029 
12855000    1.2940755 8.9716677e-06   0.58709875  0.013873879            0   0.57322487    1.8925854    2.4796841    3.3983829 
12860000    1.3542093 3.7767607e-05   0.52617623  0.011521565            0   0.51465466    1.9805311    2.5067073    6.3741103 
12865000    1.4228556 1.7951591e-05   0.39573284 0.0010767311            0   0.39465611    2.0809262    2.4766591     4.314902 
12870000    1.3684383 -0.0001149985   0.44777094 0.0045894054            0   0.44318153     2.001341    2.4491119   -9.3267349 
12875000    1.2443299 -0.00011829129   0.65688294  0.030610443            0    0.6262725    1.8198324    2.4767154    -9.636313 
12880000     1.314174 -9.8191927e-06   0.51325664  0.021213626            0   0.49204301    1.9219794    2.4352361    1.4297507 
12885000    1.3387723 8.0828572e-05   0.49713062 0.0038409335            0   0.49328968    1.9579545    2.4550851    10.731931 
12890000     1.307662 2.112065e-05   0.58350008 0.0038938216            0   0.57960626    1.9124557    2.4959558    4.6587104 
12895000    1.2766548 -6.3098286e-05   0.62362398 0.0026816968            0   0.62094228    1.8671077    2.4907316   -3.9705328 
12900000    1.3704596 -2.8593911e-05   0.50346859 0.0082335021            0   0.49523509    2.0042971    2.5077657  -0.42025078 
12905000    1.2780817 5.6983911e-05   0.63374028   0.06896661            0   0.56477367    1.8691945    2.5029348    8.3380872 
12910000    1.2757474 1.2319357e-05   0.58369343  0.042585014            0   0.54110842    1.8657805    2.4494739    3.7109761 
12915000    1.3259842 -8.6615931e-06   0.52154432  0.010084943            0   0.51145937    1.9392518    2.4607961     1.573849 
12920000    1.1792086 -6.237647e-07   0.70444068  0.030904617            0   0.67353607    1.7245925    2.4290332    2.3651597 
12925000     1.219019 -6.418965e-05   0.67236517   0.15714707            0    0.5152181    1.7828153    2.4551805   -4.1178397 
12930000    1.2003272 -4.944571e-05   0.69370406   0.12724522            0   0.56645884    1.7554786    2.4491826   -2.6140581 
12935000    1.3100665 2.7809285e-05   0.53927401 0.0096918221            0   0.52958219    1.9159723    2.4552463     5.302917 
12940000    1.2851434 2.8098144e-07   0.60285187 0.0034144309            0   0.59943744    1.8795222     2.482374    2.5111465 
12945000    1.3416547 1.3334247e-06   0.51742957 0.0054305767            0     0.511999    1.9621699    2.4795995    2.6161422 
12950000    1.3104327 2.7352795e-05   0.61257335  0.017709612            0   0.59486373    1.9165079    2.5290812    5.3300075 
12955000    1.4146974 -4.7116744e-05   0.48251366  0.030376926            0   0.45213673     2.068995    2.5515087    -2.273246 
12960000    1.3235429 -7.0717384e-05   0.60619691  0.025142691            0   0.58105422    1.9356815    2.5418784   -4.6995817 
12965000    1.4134837 2.5437853e-05   0.48796596  0.016895756            0   0.47107021      2.06722    2.5551859    5.1600221 
12970000    1.3833056 4.2421585e-05   0.61098321 0.0090033329            0   0.60197988    2.0230844    2.6340676    6.9780379 
12975000    1.3384942 1.6724013e-05   0.70227274 0.0020572167            0   0.70021552    1.9575477    2.6598205    4.3723594 
12980000    1.3673479 9.5629131e-05   0.62188628 5.0353001e-05            0   0.62183593    1.9997462    2.6216325    12.414055 
12985000    1.3376692 4.6078916e-05   0.65264328            0            0   0.65264328    1.9563411    2.6089844    7.3274655 
12990000    1.3483502 6.8032998e-05   0.61881356            0            0   0.61881356    1.9719622    2.5907757    9.5573547 
12995000    1.5081227 2.5506911e-06   0.42235011 0.0003449176            0    0.4220052    2.2056294    2.6279795    2.8891703 
13000000    1.4154049 -6.9618046e-05   0.52352616  0.017179744            0   0.50634641    2.0700296    2.5935558   -4.5353321 
13005000    1.3572272 -1.6864941e-05   0.58357972  0.030591929            0   0.55298779    1.9849447    2.5685245   0.84155455 
13010000    1.3752962 2.4830137e-05   0.51085492 0.0045584976            0   0.50629642    2.0113708    2.5222257    5.0648317 
13015000    1.4778623 5.9794485e-05   0.42854402 0.0051931041            0   0.42335092    2.1613736    2.5899176    8.7128729 
13020000    1.3433239 -3.8328131e-05   0.61666882  0.015093443            0   0.60157538    1.9646112      2.58128   -1.3435206 
13025000    1.4337272 -4.0172261e-05   0.53412212 0.0081113409            0   0.52601078     2.096826    2.6309481   -1.4826914 
13030000    1.3225672 2.4946369e-05   0.64462059  0.028289567            0   0.61633102    1.9342545    2.5788751    5.1333833 
13035000    1.3569796 3.9656164e-05   0.54822106   0.03988066            0    0.5083404    1.9845826    2.5328037    6.5935949 
13040000    1.2796845 3.342163e-05   0.64092587   0.01669839            0   0.62422748    1.8715385    2.5124644    5.9348393 
13045000    1.2784134 4.2664876e-05    0.6246532  0.059433675            0   0.56521953    1.8696796    2.4943328    6.8632161 
13050000    1.2083462 -3.61956e-05   0.68740617  0.067805294            0   0.61960088    1.7672063    2.4546124    -1.251817 
13055000    1.2943623 -4.9401226e-06   0.58451529  0.010639844            0   0.57387544    1.8930049    2.4775202    1.9716516 
13060000    1.3285259 3.5976254e-05   0.53685545 0.0024775622            0   0.53437789    1.9429691    2.4798245     6.163793 
13065000    1.2212795 8.3364466e-06   0.72323168  0.015324383            0   0.70790729    1.7861212    2.5093529     3.363005 
13070000    1.2888685 9.8992844e-05   0.60736509  0.033482225            0   0.57388286    1.8849702    2.4923353    12.629203 
13075000    1.2662002 8.5233183e-05   0.59067106  0.031222563            0   0.55944849    1.8518177    2.4424888    11.170367 
13080000    1.2586874 -8.2866425e-06   0.61303989  0.026502142            0   0.58653775    1.8408304    2.4538703    1.6053181 
13085000    1.1045275 -8.6903522e-05   0.79499154  0.034697205            0   0.76029434    1.6153715     2.410363   -6.4885576 
13090000    1.3125736 -3.4993197e-05   0.47542057 0.0073946616            0   0.46802591    1.9196388    2.3950594    -1.188244 
13095000     1.385091 1.2532216e-05   0.38245778 0.0062032929            0   0.37625448    2.0256955    2.4081533    3.6914522 
13100000    1.3203717 -2.6072314e-05   0.51465608 0.0054324069            0   0.50922367    1.9310437    2.4456997  -0.22410521 
13105000    1.1553593 -3.3901788e-05   0.78718711   0.06482053            0   0.72236658    1.6897129       2.4769   -0.9946431 
13110000    1.2324114 3.7495539e-05   0.67224354  0.039935953            0   0.63230758    1.8024017    2.4746452    6.3141884 
13115000     1.273229 3.4388133e-05   0.53564817  0.008679985            0   0.52696819    1.8620975    2.3977456    5.9190904 
13120000     1.232595 -6.9030986e-05    0.6247089 0.00075655755            0   0.62395235    1.8026702    2.4273791   -4.6413939 
13125000    1.2402177 -4.5316293e-05   0.62216045 0.0040561992            0   0.61810426    1.8138183    2.4359788   -2.2044096 
13130000    1.3380563 7.7297344e-05   0.50484923  0.026862351            0   0.47798688    1.9569073    2.4617566    10.377005 
13135000    1.2567217 7.7185738e-05   0.62778482  0.027590237            0   0.60019458    1.8379554    2.4657403     10.36956 
13140000     1.126635 -4.0149455e-06    0.7339987  0.037261963            0   0.69673674    1.6477036    2.3817023    1.9705719 
13145000    1.1771869 -5.462431e-05   0.67730681  0.064156753            0   0.61315005    1.7216359    2.3989427   -3.1945867 
13150000    1.2600973 3.5011643e-05    0.5675117  0.012249621            0   0.55526208    1.8428922    2.4104039    5.9955962 
13155000    1.2280129 6.1116073e-05   0.62532225 0.0037459481            0    0.6215763    1.7959688    2.4212911    8.6795769 
13160000    1.1304591 -1.4100938e-06   0.72009963            0            0   0.72009963    1.6532965    2.3733961    2.2290025 
13165000    1.1104499 -3.0375718e-05   0.74238244            0            0   0.74238244     1.624033    2.3664154  -0.74405813 
13170000    1.2195984 -5.0514315e-05   0.57278118            0            0   0.57278118    1.7836626    2.3564438   -2.8162221 
13175000     1.253497 -1.6756237e-05   0.53763982  0.015406519            0    0.5222333    1.8332394    2.3708792   0.65504058 
13180000    1.1233563 -6.2713953e-05   0.70834322  0.068853377            0   0.63948984    1.6429086    2.3512518    -4.070657 
13185000     1.170293 1.965988e-05   0.63480946  0.037399472            0   0.59740998    1.7115535    2.3463629    4.3595346 
13190000    1.2225084 8.4820602e-05   0.53189344  0.061778522            0   0.47011492    1.7879185    2.3198119    11.005442 
13195000     1.105403 7.238035e-05   0.70339707 0.0092104735            0    0.6941866    1.6166518    2.3200489    9.7317968 
13200000     1.126203 1.2238122e-05   0.61025665   0.04796209            0   0.56229456    1.6470718    2.2573285    3.5105122 
13205000    1.1656623 -3.8279201e-05   0.56932691  0.043107194            0   0.52621972    1.7047811     2.274108   -1.6456822 
13210000    1.1064846 -1.316137e-05   0.63563002  0.010886173            0   0.62474384    1.6182337    2.2538637   0.90613938 
13215000    1.1448776 2.3114345e-05   0.53847721 0.00022765567            0   0.53824956    1.6743835    2.2128608    4.5797697 
13220000    1.1796651 8.8918809e-05   0.45063196            0            0   0.45063196    1.7252602    2.1758921    11.281178 
13225000    1.1096591 8.2410875e-05   0.55523701            0            0   0.55523701    1.6228765    2.1781135    10.616987 
13230000    1.1090627 -3.1596056e-05   0.54698176 0.0028910337            0   0.54409073    1.6220042    2.1689859   -1.0664502 
13235000    1.2271365 -3.5275632e-05   0.42182194  0.012312913            0   0.40950902    1.7946871    2.2165091   -1.3957156 
13240000      1.17433 5.7738742e-05   0.46397402 0.0092393359            0   0.45473468    1.7174577    2.1814317    8.0938789 
13245000   0.96252066 8.4241475e-05   0.77372578 0.0025075822            0    0.7712182    1.4076865    2.1814122    10.807739 
13250000    1.0426137 4.578468e-05   0.67165116 0.0026378918            0   0.66901327    1.5248226    2.1964737     6.884825 
13255000    1.1318395 1.7804472e-06   0.49576007 0.0069159199            0   0.48884415    1.6553152    2.1510753    2.3333931 
13260000     1.179432 6.1633143e-06   0.43517639 0.0049292694            0   0.43024712    1.7249193    2.1600957    2.7912191 
13265000    1.0593201 -1.7868732e-05    0.5754482  0.052802323            0   0.52264588    1.5492557    2.1247039   0.29494575 
13270000   0.99085067 -7.1543835e-05   0.66621413  0.031262511            0   0.63495162    1.4491191    2.1153332   -5.2107555 
13275000    1.0212305 -9.4780969e-05   0.65708559 0.0024342459            0   0.65465135    1.4935496    2.1506352   -7.5549361 
13280000    1.1812885 -5.783497e-05   0.45756868 0.0060353515            0   0.45153333    1.7276344    2.1852031   -3.7370979 
13285000    1.1083967 3.3379033e-05   0.55621866 0.0099744524            0   0.54624421    1.6210301    2.1772488    5.5952617 
13290000    1.1170584 3.2261265e-05   0.55042601  0.012211892            0   0.53821412    1.6336978    2.1841239    5.4876774 
13295000    1.1378187 -3.5865861e-05   0.53805141  0.010925287            0   0.52712612    1.6640598    2.2021113   -1.4705529 
13300000    1.0784052 -8.0217754e-05   0.60661866  0.015022896            0   0.59159576    1.5771676    2.1837863   -6.0305117 
13305000    1.1730339 -1.645032e-05   0.51400421  0.012751516            0   0.50125269    1.7155621    2.2295663   0.54505357 
13310000     1.070637 0.00013269935   0.62134193  0.011064646            0   0.61027728    1.5658066    2.1871486    15.775562 
13315000    1.2350106 5.9915372e-05   0.42040651  0.011692612            0    0.4087139     1.806203    2.2266095    8.3619436 
13320000    1.1153316 -4.4579118e-05   0.56424152   0.01126439            0   0.55297713    1.6311725     2.195414   -2.3694877 
13325000    1.1799833 -3.6718051e-05   0.49755959  0.033876912            0   0.46368268    1.7257256    2.2232852   -1.5366432 
13330000    1.0282127 2.0935549e-05   0.76939709  0.075369212            0   0.69402788    1.5037611    2.2731582    4.4169585 
13335000    1.1954172 -2.9634876e-05   0.49778054  0.041693318            0   0.45608722    1.7482977    2.2460782   -0.7885331 
13340000    1.0509567 -1.7167286e-05   0.65616098  0.030724984            0     0.625436    1.5370242    2.1931852   0.43525503 
13345000    1.1477793 6.8524913e-05   0.54353614 0.0042362267            0   0.53929991    1.6786272    2.2221633    9.2391144 
13350000    0.9427025 1.9572792e-06   0.87387084   0.13052138            0   0.74334945    1.3787024    2.2525732    2.4529986 
13355000    1.1742402 -1.8173171e-05   0.52127668  0.044079119            0   0.47719756    1.7173264     2.238603   0.37767029 
13360000    1.0425256 -3.3054103e-05   0.73847146  0.013930184            0   0.72454127    1.5246937    2.2631652    -1.121575 
13365000    1.0815959 -8.6497495e-05    0.6938379  0.019304592            0   0.67453331     1.581834    2.2756719   -6.5816716 
13370000    1.1482798 -4.711064e-05   0.61319568  0.022032007            0   0.59116368    1.6793592    2.2925549   -2.5315746 
13375000    1.1175647 -0.00011791617   0.63705528  0.015916152            0   0.62113913    1.6344384    2.2714937   -9.8031224 
13380000    1.0809094 -5.3498351e-06   0.65015462  0.027201343            0   0.62295328      1.58083    2.2309846    1.6831615 
13385000    1.0821025 -4.0621223e-05   0.71019946   0.06472144            0   0.64547802    1.5825749    2.2927744   -1.8668388 
13390000    1.0842854 -6.8288131e-05   0.67805651 0.0089934832            0   0.66906303    1.5857674    2.2638239   -4.7288807 
13395000    1.0988126 -7.5179017e-05   0.64648222  0.022361241            0   0.62412098    1.6070134    2.2534956   -5.4448358 
13400000    1.0768529 -0.00013574962   0.68136459  0.027308834            0   0.65405575    1.5748974     2.256262   -11.644499 
13405000    1.1314485 -4.1306464e-05   0.56301925 0.0085072498            0     0.554512    1.6547434    2.2177627   -2.0120192 
13410000   0.99716428 3.3939916e-05   0.75587921  0.039858988            0   0.71602023    1.4583528     2.214232    5.6896793 
13415000    1.1644008 -3.8452843e-05   0.51058188  0.070195147            0   0.44038674    1.7029361     2.213518   -1.7240531 
13420000    1.0418914 -2.5147958e-05   0.64977412  0.091321702            0   0.55845242    1.5237662    2.1735403  -0.40161054 
13425000    1.0444943 0.0001111988   0.66088098   0.09813293            0   0.56274806     1.527573    2.1884539    13.575211 
13430000    1.0884947 5.906555e-05   0.59880652  0.031134697            0   0.56767183    1.5919235    2.1907301    8.2390424 
13435000    1.0896789 8.2134773e-06   0.59697601 0.00052843625            0   0.59644757    1.5936554    2.1906314    3.0316915 
13440000    1.0905193 1.7095236e-05   0.55580277 0.0017793971            0   0.55402337    1.5948845    2.1506873    3.9012395 
13445000    1.0459757 -1.5066657e-05   0.64734875 0.0080317501            0     0.639317    1.5297394    2.1770882   0.63426252 
13450000    1.1286292 9.8958277e-05    0.5579312  0.012282114            0   0.54564908    1.6506202    2.2085514    12.341879 
13455000    1.0964552 7.2530638e-05   0.58944976  0.009084619            0   0.58036514    1.6035657    2.1930154    9.6201528 
13460000    1.0923745 -5.7366553e-05   0.57131969 0.0040746765            0   0.56724501    1.5975978    2.1689174   -3.7054176 
13465000    1.1153077 -3.9661447e-05   0.57143668 0.0059005888            0   0.56553609    1.6311375    2.2025741   -1.8587581 
13470000    1.1308008 -7.9929624e-05    0.5234589 0.0093797807            0   0.51407912    1.6537962    2.1772551   -6.0075384 
13475000    1.2093458 -3.6919338e-06   0.38663532  0.012481716            0    0.3741536    1.7686683    2.1553036    1.7772495 
13480000    1.0657693 7.0448234e-05   0.60604186   0.12849551            0   0.47754635    1.5586876    2.1647295    9.3786286 
13485000    1.0066133 2.4999047e-06   0.70616426  0.098647055            0    0.6075172     1.472172    2.1783362    2.4343265 
13490000    1.1774701 1.7115019e-05    0.4379673  0.084929889            0   0.35303741      1.72205    2.1600173    3.9125952 
13495000    1.1313264 -6.2911393e-05   0.49127175  0.010604337            0   0.48066742    1.6545648    2.1458366   -4.2962901 
13500000    1.0769211 -0.00010805253   0.60020896 0.0082667294            0   0.59194223    1.5749972    2.1752061   -8.8893726 
13505000    1.1916497 -1.4137129e-05   0.44001583  0.013019155            0   0.42699667    1.7427877    2.1828035   0.73516152 
13510000    1.0953688 -8.0194171e-05   0.59955219 0.0058411869            0     0.593711    1.6019769    2.2015291    -6.010354 
13515000    1.1693757 -1.2744825e-05   0.51188247 0.0031170764            0   0.50876539    1.7102119    2.2220944   0.91702438 
13520000    1.1801509 8.5121319e-06   0.48049545 0.0031835796            0   0.47731187    1.7259707    2.2064661    3.0781084 
13525000    1.1655412 -3.3039807e-05   0.55467429 0.0006651436            0   0.55400914     1.704604    2.2592783   -1.1239979 
13530000    1.1394328 4.7553411e-05   0.59225897 7.768679e-05            0   0.59218128    1.6664204    2.2586794    7.1281486 
13535000    1.2240081 -1.6651311e-05   0.52311264 0.0030534778            0   0.52005916    1.7901118    2.3132244   0.60813015 
13540000    1.2279395 -3.649664e-05   0.51101813  0.010824613            0   0.50019351    1.7958615    2.3068797   -1.4303763 
13545000    1.1546305 2.4241972e-05   0.62902855  0.012406478            0   0.61662207    1.6886472    2.3176757    4.8000537 
13550000    1.2410184 -4.1621745e-05   0.51822785  0.084168226            0   0.43405962    1.8149894    2.3332173   -1.9288494 
13555000    1.0995364 -3.7274792e-05   0.71871577  0.067931618            0   0.65078415    1.6080721    2.3267878   -1.4901509 
13560000    1.1402288 0.00010340095   0.67016773   0.10175723            0    0.5684105    1.6675846    2.3377523     12.92601 
13565000    1.1447242 7.5631881e-06   0.61056334 0.0032405353            0    0.6073228    1.6741592    2.2847225     3.059193 
13570000    1.2331838 -6.2015655e-05   0.48446935 0.00018134198            0   0.48428801    1.8035313    2.2880007   -4.0624024 
13575000    1.0214213 -1.7741482e-05   0.78995798  0.022577891            0   0.76738009    1.4938287    2.2837867   0.46705891 
13580000     1.240895 -1.6093995e-05   0.54065067  0.062502485            0   0.47814818    1.8148089    2.3554596    0.7074345 
13585000    1.1949336 -5.4371271e-05   0.54089428  0.065302089            0   0.47559219    1.7475903    2.2884846   -3.2791336 
13590000    1.2182889 -5.5309513e-05   0.52921839  0.032460116            0   0.49675827    1.7817475    2.3109659   -3.3527283 
13595000    1.2013052 -4.7457008e-05    0.5827935  0.017627652            0   0.56516584    1.7569088    2.3397023   -2.5198953 
13600000    1.1508555 -6.2273299e-05   0.66734783 0.0015368955            0   0.66581094    1.6831261     2.350474   -4.0263119 
13605000    1.2141712 3.0122503e-05   0.56108814  0.021115879            0   0.53997227    1.7757255    2.3368136    5.4213579 
13610000    1.1675441 7.7041552e-06   0.65558656   0.13702391            0   0.51856265    1.7075333    2.3631198    3.1520253 
13615000    1.1020029 -2.1637418e-05   0.71036803  0.042251805            0   0.66811622    1.6116793    2.3220473    0.1063757 
13620000    1.1237762 5.4699577e-05   0.66275439  0.026087668            0   0.63666672    1.6435226     2.306277    7.9075137 
13625000    1.2464132 1.5219951e-05   0.49907922  0.036666622            0    0.4624126    1.8228792    2.3219585    3.8804814 
13630000    1.2123258 -6.4820919e-05   0.54899547  0.041132279            0    0.5078632    1.7730265     2.322022   -4.3156401 
13635000    1.2303452 9.1374686e-05   0.53670297 0.00056910433            0   0.53613387    1.7993799    2.3360829    11.692851 
13640000    1.1541137 0.00012967413   0.59402228 0.00045285434            0   0.59356942    1.6878913    2.2819136    15.560544 
13645000    1.0926402 -8.8694332e-05   0.68100232 0.00015540834            0   0.68084691    1.5979863    2.2789887   -6.8033109 
13650000    1.2515351 -2.4160175e-05   0.46423416  0.018177118            0   0.44605704    1.8303701    2.2946043  -0.17939765 
13655000    1.2144647 -4.1415816e-05   0.54579045  0.069025204            0   0.47676525    1.7761547    2.3219451   -1.9190345 
13660000    1.1334662 -8.2528878e-05   0.63016612  0.039054224            0   0.59111189    1.6576943    2.2878604   -6.1630967 
13665000    1.2569832 4.4537206e-05   0.40560483  0.019550407            0   0.38605442    1.8383379    2.2439428    6.8045526 
13670000    1.2048099 4.9106576e-05   0.47418209  0.053151659            0   0.42103043    1.7620344    2.2362165    7.2647299 
13675000    1.0076129 2.6549542e-05   0.76670509  0.021929649            0   0.74477544    1.4736338    2.2403389     4.959012 
13680000    1.2109743 9.0557044e-06   0.49450643  0.011803914            0   0.48270251    1.7710499    2.2655563    3.1928605 
13685000     1.093465 6.9279969e-05   0.65457562  0.049268014            0    0.6053076    1.5991925    2.2537681     9.348037 
13690000    1.2323608 9.4189666e-05    0.4583567    0.0328318            0    0.4255249    1.8023276    2.2606843    11.905706 
13695000   0.99167103 1.5798511e-05   0.78121462   0.02052849            0   0.76068613    1.4503189    2.2315335     3.849301 
13700000    1.1158645 -2.899256e-05   0.61462202  0.033646692            0   0.58097533    1.6319519    2.2465739  -0.72226427 
13705000    1.1371431   2.5592e-05   0.57510261   0.10878814            0   0.46631447    1.6630718    2.2381744    4.8587952 
13710000    1.0255343 9.4788692e-05   0.71354077   0.07021528            0   0.64332549    1.4998439    2.2133847    11.919747 
13715000    1.0140202 7.3677888e-05   0.74513747  0.039799633            0   0.70533783    1.4830045     2.228142    9.7727577 
13720000    1.2494843 -5.750631e-06   0.43984646  0.011778929            0   0.42806753    1.8273708    2.2672173    1.6783527 
13725000    1.2083601 1.6751422e-05   0.49968158  0.021556432            0   0.47812515    1.7672267    2.2669083    3.9822538 
13730000    1.0307461 6.4639571e-05   0.73972673 0.0069720308            0    0.7327547    1.5074662    2.2471929     8.866285 
13735000    1.1930728 5.4071823e-05   0.47144412  0.036598865            0   0.43484526    1.7448689    2.2163131    7.7532677 
13740000    1.0151208 -4.3295746e-06   0.70822309  0.050752984            0   0.65747011    1.4846142    2.1928373    1.7494889 
13745000    1.0755341 -2.8842047e-05   0.62143837  0.072066302            0   0.54937207    1.5729686     2.194407  -0.75901859 
13750000    1.0085275 4.5380139e-05   0.68306694  0.029339145            0   0.65372779    1.4749715    2.1580384    6.8049647 
13755000    1.1230462 8.2573236e-05   0.52438301  0.000493585            0   0.52388942     1.642455     2.166838    10.622337 
13760000    1.0955089 -4.6729678e-06   0.60151893 0.0080226899            0   0.59349624    1.6021817    2.2037007    1.7251888 
13765000    1.1839169 -5.3489884e-05   0.51471546   0.03394596            0    0.4807695    1.7314784    2.2461939   -3.2311702 
13770000    1.0718371 -2.4506969e-05   0.67041767  0.060478661            0   0.60993901    1.5675618    2.2379794  -0.27153415 
13775000    1.1397878 -1.0206774e-05   0.60857131  0.024585615            0   0.58398569    1.6669396     2.275511    1.2303372 
13780000    1.1332966 6.2654355e-07    0.6075107   0.01601648            0   0.59149422    1.6574463     2.264957     2.329115 
13785000     1.209669 6.3424213e-05   0.51667393  0.043099174            0   0.47357475     1.769141    2.2858149    8.7804543 
13790000    1.1422827 8.5209843e-05    0.6155194  0.048554492            0   0.56696491    1.6705884    2.2861078    11.011596 
13795000    1.1487169 -6.6444697e-05   0.65237192  0.056943293            0   0.59542862    1.6799984    2.3323703   -4.4715666 
13800000    1.2561208 -5.1446824e-05   0.54547014  0.069109003            0   0.47636113    1.8370767    2.3825468    -2.885608 
13805000    1.1800834 4.0901176e-05   0.66749213  0.016682767            0   0.65080936     1.725872    2.3933642    6.5816446 
13810000    1.2028943 -6.3965475e-06   0.66088571  0.018656092            0   0.64222962    1.7592329    2.4201186    1.7651121 
13815000    1.2624403 -2.9973302e-05   0.49347854  0.021349169            0   0.47212937    1.8463189    2.3397974  -0.72946868 
13820000    1.1436912 -4.4702512e-06   0.66915876  0.027836052            0   0.64132271    1.6726483    2.3418071    1.8840534 
13825000    1.1494178 9.480989e-06   0.67871422  0.031884387            0   0.64682984    1.6810236    2.3597378    3.3305911 
13830000    1.1793116 8.9446972e-06   0.61320366   0.02647668            0   0.58672698    1.7247433    2.3379469    3.2538839 
13835000    1.2292073 1.3738327e-05   0.53301642  0.080411521            0    0.4526049    1.7977156    2.3307321    3.7375368 
13840000    1.0912917 -1.1713238e-05   0.74909873  0.058167134            0    0.6909316     1.596014    2.3451128    1.1456772 
13845000    1.1488656 -2.9509926e-05   0.67178153  0.040404178            0   0.63137736    1.6802159    2.3519974  -0.66981897 
13850000     1.175936 -9.666245e-05   0.61145589  0.079024354            0   0.53243154    1.7198063    2.3312622   -7.5669727 
13855000    1.1554113 -3.8160593e-05   0.65501123  0.027950752            0   0.62706048    1.6897891    2.3448003   -1.5628444 
13860000    1.1639949 6.9501244e-06    0.6145842  0.060822287            0   0.55376191    1.7023425    2.3169267    3.0286194 
13865000    1.1635241 9.4672652e-05   0.63127685  0.018133586            0   0.61314327     1.701654    2.3329309     12.02741 
13870000     1.145701  0.000177122   0.61116737 0.0008593682            0     0.610308    1.6755877     2.286755    20.424048 
13875000    1.0846711 0.00012122749   0.69077423 0.00017271723            0   0.69060151    1.5863314    2.2771057    14.690801 
13880000    1.0622005 5.4757561e-05   0.70752826 0.00044854377            0   0.70707971    1.5534682    2.2609965    7.8681708 
13885000     1.177538 -9.4315094e-06   0.55436808  0.050556081            0     0.503812    1.7221493    2.2765174    1.3107308 
13890000    1.1132228 -2.637095e-05   0.63588201  0.035989379            0   0.59989263    1.6280883    2.2639703  -0.43641495 
13895000    1.0704154 -5.8473623e-05    0.7073941  0.010353246            0   0.69704085    1.5654825    2.2728766   -3.7148224 
13900000    1.1928099 -4.6395212e-05   0.55488953 0.0073421392            0   0.54754739    1.7444845     2.299374   -2.4514956 
13905000     1.204869 0.00010165549    0.5378741 0.0098504735            0   0.52802363    1.7621208     2.299995    12.709517 
13910000    1.1913403 3.1754033e-05   0.56770952   0.03135799            0   0.53635153    1.7423351    2.3100447    5.5616577 
13915000    1.1967084 2.181437e-05    0.5940684  0.027749036            0   0.56631937    1.7501861    2.3442545    4.5780459 
13920000    1.3018513 1.5768973e-05   0.47629017 0.0024527945            0   0.47383738    1.9039576    2.3802478    3.9949906 
13925000    1.1794902 -3.4641745e-05   0.59712975  0.026331356            0   0.57079839    1.7250045    2.3221342   -1.2251805 
13930000    1.0727231 -6.2360705e-05   0.72374078  0.021883601            0   0.70185718    1.5688576    2.2925984   -4.0931379 
13935000    1.2212349 -3.8503539e-05   0.50715704 0.00028391061            0   0.50687313    1.7860561    2.2932131   -1.6495493 
13940000    1.2927518 4.4729201e-05   0.44769807            0            0   0.44769807    1.8906496    2.3383476    6.9186178 
13945000    1.1702319 7.6133039e-05    0.6344307  0.042459488            0   0.59197121    1.7114641    2.3458948    10.141918 
13950000    1.1434978 4.8950697e-05   0.65958731   0.12133209            0   0.53825522    1.6723655    2.3319528    7.3445042 
13955000    1.2006787 3.3254323e-05   0.61188055  0.027324803            0   0.58455574    1.7559925    2.3678731    5.7731157 
13960000    1.1958175 4.8126824e-05   0.60087215  0.012250533            0   0.58862162     1.748883    2.3497552     7.277942 
13965000    1.2235927  2.37631e-05   0.55024758 0.0059938858            0    0.5442537    1.7895043    2.3397519    4.7730934 
13970000    1.1070274 -2.6007135e-05   0.68490184   0.01120169            0   0.67370015    1.6190275    2.3039294  -0.35920121 
13975000    1.2844416 -3.9929228e-05    0.4611697  0.055850478            0   0.40531922    1.8784959    2.3396656   -1.7490874 
13980000    1.1255172 -9.2036007e-05   0.73965473   0.02399904            0   0.71565569     1.646069    2.3857237   -7.0387634 
13985000    1.2761013 -4.4949877e-05   0.48979221 0.0004079911            0   0.48938422    1.8662981    2.3560903   -2.2467771 
13990000    1.1600651 4.9887857e-05    0.6232157  0.019190166            0   0.60402554    1.6965952    2.3198109    7.4283275 
13995000    1.1606265 3.4671239e-05    0.6388223  0.065820733            0   0.57300157    1.6974163    2.3362386    5.8865734 
14000000     1.225221 -2.3181853e-05   0.59122734  0.035899683            0   0.55532765    1.7918857     2.383113 0.0092912514 
14005000    1.2398767 -4.5143082e-05   0.61098637   0.01300608            0   0.59798029    1.8133197     2.424306   -2.1983455 
14010000    1.1930546 -8.3373713e-05   0.65961361 5.0543571e-05            0   0.65956307    1.7448424     2.404456   -6.1330123 
14015000    1.2575527 -4.8356186e-05   0.54163679 6.9010502e-06            0   0.54162989    1.8391708    2.3808075   -2.5708659 
14020000    1.1847736 -5.5615776e-06   0.69786587 0.00073678452            0   0.69712909    1.7327314    2.4305972    1.8610917 
14025000     1.277181 6.0621529e-05   0.56707509 0.0053855259            0   0.56168957    1.8678772    2.4349523    8.6425968 
14030000    1.3584132 0.00011182559   0.43283236   0.01161256            0    0.4212198    1.9866793    2.4195117    13.870452 
14035000    1.2498685 6.7262457e-05   0.61616613  0.012405488            0   0.60376064    1.8279327    2.4440988    9.3317744 
14040000    1.2598677 -1.7178314e-05   0.64601799 0.0014090084            0   0.64460898    1.8425566    2.4885746   0.72951523 
14045000    1.2683462 -1.1492856e-05   0.61909387 0.0064954706            0    0.6125984    1.8549564    2.4740502    1.2971818 
14050000    1.1871763 1.7198171e-05   0.73463757  0.015619999            0   0.71901757    1.7362453    2.4708829    4.2319755 
14055000    1.3261813 8.0323209e-05   0.56442853 0.0064029443            0   0.55802558    1.9395401    2.5039687    10.729065 
14060000    1.3805084 6.9436839e-05   0.49727953   0.04225539            0   0.45502414    2.0189936    2.5162731    9.6266054 
14065000    1.2133996 -1.4260179e-05   0.70818563   0.03299907            0   0.67518656     1.774597    2.4827826    1.0225403 
14070000    1.2317998 -5.5019751e-05   0.69600014 0.0033081677            0   0.69269198    1.8015071    2.4975073   -3.1365152 
14075000    1.3269058 -5.538092e-06   0.49200709 0.00023019104            0    0.4917769    1.9405998    2.4326069    1.8655062 
14080000    1.2984267 3.4032723e-05   0.52675511 0.0018156335            0   0.52493948     1.898949    2.4257042     5.910655 
14085000    1.2196925 1.6459498e-05   0.65733129  0.027892652            0   0.62943864    1.7838002    2.4411315    4.1265841 
14090000    1.2564723 8.4057444e-05   0.63225991  0.054077432            0   0.57818248    1.8375908    2.4698507    11.077333 
14095000    1.1626757 0.00010177012   0.75461294  0.060873286            0   0.69373965    1.7004132    2.4550262    12.876286 
14100000    1.1481676 3.7380652e-05   0.72839334   0.11340855            0   0.61498479    1.6791951    2.4075884    6.2353672 
14105000    1.2060382 2.4161572e-05    0.6575753 0.0097417746            0   0.64783353    1.7638308    2.4214061     4.895551 
14110000    1.1272771 -1.15515e-05   0.78500101    0.0436519            0   0.74134911    1.6486428    2.4336438    1.2507702 
14115000    1.2672871 5.3439408e-05   0.61643257  0.038190639            0   0.57824193    1.8534075      2.46984    7.9420354 
14120000    1.2914265 8.6093762e-05   0.56705209  0.011763641            0   0.55528845    1.8887113    2.4557634    11.271765 
14125000    1.2720966 -7.846994e-06   0.56889919  0.032175768            0   0.53672342    1.8604413    2.4293405    1.6258083 
14130000    1.1670345 -4.6948237e-05   0.69784332   0.11523802            0   0.58260529     1.706788    2.4046313   -2.4028681 
14135000    1.1728685 -2.0934147e-06   0.66449151  0.063254611            0    0.6012369    1.7153202    2.3798117     2.165446 
14140000    1.1937086 4.6459997e-05   0.60716495  0.013819961            0   0.59334498    1.7457988    2.3529638    7.1104675 
14145000     1.302821 3.1724077e-05   0.46435777  0.077071686            0   0.38728608    1.9053757    2.3697335    5.6182789 
14150000    1.1459744 -5.0130632e-05   0.69738761  0.078091781            0   0.61929583    1.6759876    2.3733752   -2.7600015 
14155000    1.1855593 -4.3925255e-05   0.60379086  0.019154757            0    0.5846361    1.7338805    2.3376714   -2.1602747 
14160000    1.1315874 4.9884589e-05   0.65928872   0.03008221            0   0.62920651    1.6549466    2.3142353    7.4224172 
14165000    1.1656267 -1.7647483e-05   0.59312825 0.0065975729            0   0.58653068     1.704729    2.2978573   0.49075497 
14170000    1.1698581 -3.3548785e-05   0.62028324  0.010921977            0   0.60936126    1.7109175    2.3312007   -1.1041949 
14175000    1.2215099 -9.6775994e-06   0.55386277   0.06427531            0   0.48958746    1.7864583    2.3403211    1.3493349 
14180000    1.2358069 2.3144386e-05   0.58434541  0.036606522            0   0.54773889    1.8073676     2.391713    4.7616982 
14185000    1.2347398 3.4103787e-05   0.59145873  0.037626708            0   0.55383202     1.805807    2.3972657    5.8894935 
14190000    1.2354857 2.877567e-05   0.59143467  0.097244185            0   0.49419049    1.8068978    2.3983325    5.3449611 
14195000    1.1581215 3.9685911e-05   0.67796985  0.062100997            0   0.61586885    1.6937527    2.3717226    6.4355599 
14200000     1.230384 -2.6770235e-05   0.55956743  0.027173661            0   0.53239377    1.7994366     2.359004  -0.38226811 
14205000    1.1260575  2.45711e-05   0.70594022  0.069247363            0   0.63669286    1.6468591    2.3527994    4.8688799 
14210000    1.2156197 5.5105088e-05   0.57268583 0.00051097517            0   0.57217485    1.7778438    2.3505296    7.9932906 
14215000    1.1306973 2.0698689e-05    0.6468485 3.4590611e-06            0   0.64684504    1.6536449    2.3004934    4.4200391 
14220000    1.3360745 -2.0422186e-05   0.36008377 0.0016883375            0   0.35839543    1.9540089    2.3140927   0.22286085 
14225000      1.05881 -8.9537862e-05   0.77959676 0.0043030542            0   0.77529371    1.5485097    2.3281064   -6.8405706 
14230000     1.174386 -0.00011781706   0.68140673 0.0049361302            0    0.6764706    1.7175395    2.3989462   -9.6655211 
14235000    1.1477084 -4.6151417e-05   0.71076177  0.031245383            0   0.67951639    1.6785235    2.3892852   -2.3366199 
14240000    1.2455649 -3.995758e-05   0.53803469  0.015256226            0   0.52277846    1.8216386    2.3596733   -1.7319829 
14245000    1.1823329 3.5280737e-06    0.6538446            0            0    0.6538446    1.7291619    2.3830065    2.7442812 
14250000    1.1711254 -3.1263312e-05   0.64949798 0.0052983212            0   0.64419966     1.712771    2.3622689   -0.8390942 
14255000    1.2655773 -5.0186907e-05   0.51830039  0.051062003            0   0.46723839    1.8509068    2.3692072   -2.7699321 
14260000    1.1396098 5.5486582e-05   0.68107515  0.015047839            0   0.66602731    1.6666793    2.3477545    8.0295804 
14265000    1.1742744 3.1499619e-06   0.64371724  0.020225539            0    0.6234917    1.7173763    2.3610935    2.6836497 
14270000    1.1971631 -7.6823729e-06   0.63156716  0.068121907            0   0.56344525     1.750851    2.3824181    1.5957431 
14275000    1.2627949 1.3395706e-05   0.52716249  0.033093323            0   0.49406917    1.8468375        2.374    3.7457203 
14280000     1.241287 1.2674276e-05   0.57342696 0.0094648585            0    0.5639621    1.8153822    2.3888092    3.6866551 
14285000    1.1906992 -3.569489e-05   0.63936928 0.0093293337            0   0.63003995    1.7413975    2.3807668   -1.2743899 
14290000    1.1038375 1.5814899e-05   0.72662896  0.032062981            0   0.69456598    1.6143624    2.3409914     3.960437 
14295000    1.1708214 0.00011111086   0.61394572   0.11426707            0   0.49967864    1.7123263    2.3262721    13.704024 
14300000    1.1920083 4.3934839e-05   0.55212532  0.054637053            0   0.49748827    1.7433121    2.2954374     6.794365 
14305000    1.2167909 -2.7202787e-05   0.47720093 0.0082084674            0   0.46899247    1.7795567    2.2567576  -0.52880773 
14310000     1.215453 -3.535194e-05   0.45660068  0.026330118            0   0.43027056       1.7776    2.2342007    -1.385838 
14315000     1.089483 1.1538563e-06   0.64981648  0.014953174            0   0.63486331    1.5933688    2.2431853    2.3613402 
14320000    1.1167736 -2.2319799e-05   0.60798893  0.013487856            0   0.59450107    1.6332815    2.2412704 -0.044277052 
14325000    1.1231183 -9.4881665e-05   0.60549603  0.057839595            0   0.54765643    1.6425605    2.2480566   -7.4678259 
14330000    1.1041181 -6.843885e-05   0.63593945  0.074985161            0   0.56095428    1.6147727    2.2507121   -4.7574261 
14335000    1.1843191 -5.6075661e-05   0.52367734 0.0037110014            0   0.51996634    1.7320667     2.255744   -3.4864037 
14340000     1.113089 -2.6233246e-05   0.61604741            0            0   0.61604741    1.6278926      2.24394  -0.44234435 
14345000    1.1976156 4.5654995e-05   0.45940285            0            0   0.45940285    1.7515127    2.2109156    6.8859871 
14350000      1.08877 4.5084036e-06    0.6372695   0.01234353            0   0.62492597    1.5923262    2.2295957    2.6912562 
14355000    1.1630453 -6.3491719e-05   0.54673002  0.029630681            0   0.51709934    1.7009537    2.2476837   -4.2538683 
14360000    1.1290901 2.3115167e-05   0.60049625  0.024446179            0   0.57605007    1.6512942    2.2517905    4.6187836 
14365000    1.3135219 7.0724056e-05   0.37888677 0.0060474984            0   0.37283927    1.9210258    2.2999125    9.5420559 
14370000    1.1846575 8.0771307e-05   0.57583935 0.00098169677            0   0.57485766    1.7325616     2.308401    10.579383 
14375000    1.1426349 6.2986441e-05   0.65088393  0.027480248            0   0.62340368    1.6711035    2.3219874     8.771799 
14380000    1.2303947 -5.9963783e-06   0.50888952  0.016639675            0   0.49224985    1.7994522    2.3083418    1.6943126 
14385000    1.1850673 -9.4079957e-05    0.5876821  0.031601092            0     0.556081    1.7331609     2.320843   -7.3129446 
14390000    1.0992091 -0.00011033115    0.6867697  0.050931488            0   0.63583822    1.6075934    2.2943631   -9.0035463 
14395000    1.2604781 -3.0140223e-05   0.46057104 0.0040514432            0   0.45651959    1.8434492    2.3040202  -0.78233862 
14400000    1.1946761 4.310401e-05   0.56979958            0            0   0.56979958    1.7472139    2.3170134    6.7308641 
14405000    1.2147435 8.2818522e-05   0.50577934 6.9943575e-05            0    0.5057094    1.7765623    2.2823417    10.762958 
14410000    1.1338377 -2.1998058e-05   0.61502265 0.00021490382            0   0.61480775    1.6582376    2.2732602  0.020659066 
14415000    1.1643489 -3.6111284e-05   0.56079236 0.00039754754            0   0.56039482    1.7028603    2.2636527   -1.4341428 
14420000    1.2336562 5.613064e-05   0.46137184  0.010577216            0   0.45079462    1.8042222     2.265594    8.0133716 
14425000    1.1795492 8.2152454e-05   0.57352163  0.060708771            0   0.51281286    1.7250906    2.2986123    10.711024 
14430000     1.220466 0.00012744046   0.49661159  0.033712908            0   0.46289869    1.7849315    2.2815431    15.331447 
14435000    1.1216282 8.3103469e-05   0.64022477  0.010765974            0   0.62945879    1.6403812     2.280606    10.790401 
14440000    1.2485941 4.3094433e-05   0.50550396 0.0033357045            0   0.50216826    1.8260688    2.3315728    6.7444427 
14445000    1.1886268 -2.7666173e-05   0.56995581 0.0041103498            0   0.56584546    1.7383667    2.3083225  -0.52469358 
14450000    1.2184793 -6.5748249e-05   0.51954897 0.0039600391            0   0.51558893     1.782026     2.301575   -4.4310457 
14455000    1.1115768 -6.2723738e-05   0.64839589   0.04609864            0   0.60229725    1.6256811     2.274077   -4.1488338 
14460000    1.1631643 -9.1282666e-05   0.55615891   0.10945197            0   0.44670695    1.7011278    2.2572867   -7.0900583 
14465000     1.238487   5.3461e-05    0.4462898  0.029677909            0   0.41661189    1.8112873    2.2575771    7.7319834 
14470000    1.0763251 0.0001289674   0.68935252 0.0065872185            0    0.6827653    1.5741255     2.263478     15.46974 
14475000    1.1901436 -2.8352661e-05   0.51767319 8.1489336e-05            0    0.5175917    1.7405851    2.2582582  -0.64505425 
14480000    1.1016763 -9.647191e-05   0.63429957 0.00051660373            0   0.63378297    1.6112016    2.2455011   -7.6332225 
14485000    1.2482312 2.6556058e-05   0.47048156 0.0025723367            0   0.46790922    1.8255382    2.2960197    5.0153601 
14490000    1.2675842 3.716996e-05   0.44979766  0.016006765            0   0.43379089    1.8538419    2.3036396    6.1098435 
14495000    1.1898788 -1.796301e-05   0.55379442  0.087098617            0    0.4666958    1.7401977    2.2939922   0.45457995 
14500000    1.1803942 3.4509642e-05    0.6181452   0.11913899            0   0.49900621    1.7263265    2.3444717     5.878259 
14505000    1.0462262 3.0721582e-05   0.78206377   0.06889083            0   0.71317294    1.5301059    2.3121696    5.4580597 
14510000    1.2161123 -1.8765756e-05   0.53508781   0.06319727            0   0.47189054    1.7785642     2.313652   0.39203861 
14515000    1.0973839 -2.7279899e-05    0.7197788   0.10238361            0   0.61739519    1.6049239    2.3247027  -0.46875897 
14520000    1.1936562 -7.1776399e-05   0.56906965  0.010771918            0   0.55829774    1.7457222    2.3147918   -5.0351114 
14525000    1.2237415 -8.9033802e-05   0.54693984            0            0   0.54693984    1.7897219    2.3366618   -6.7803995 
14530000    1.1974726 -4.5590871e-05   0.55020266            0            0   0.55020266    1.7513036    2.3015063   -2.3669989 
14535000    1.2633537 3.334143e-05   0.45587123  0.001398226            0     0.454473    1.8476548     2.303526    5.7176885 
14540000    1.1975744 2.0375262e-05   0.53502363  0.004494547            0   0.53052908    1.7514525    2.2864761     4.372903 
14545000    1.2217588 -4.0575244e-05   0.45988147 0.0035364568            0   0.45634501    1.7868222    2.2467037   -1.9082013 
14550000    1.1291014 -4.3057226e-05   0.56991232 0.0098877555            0   0.56002456    1.6513108    2.2212231   -2.1878369 
14555000    1.0236551 3.7728111e-05   0.68929656  0.068024708            0   0.62127185    1.4970955    2.1863921    6.0497506 
14560000    1.1283597 7.0924254e-05   0.52186218  0.091955679            0    0.4299065    1.6502261    2.1720883    9.4347319 
14565000    1.1585311  9.96325e-06     0.471516  0.024499544            0   0.44701646    1.6943518    2.1658678    3.1861046 
14570000    1.1163002 -3.8508165e-05   0.54683015  0.042444203            0   0.50438595    1.6325891    2.1794192   -1.7638169 
14575000    1.1731977 -1.5351567e-05   0.47384673  0.014916831            0    0.4589299    1.7158016    2.1896484   0.61764789 
14580000    1.1522163 5.1037353e-05    0.4936935 0.0047470466            0   0.48894645    1.6851163    2.1788098    7.4050348 
14585000    1.0664971 5.4687286e-05   0.61145915  0.054971283            0   0.55648786     1.559752    2.1712111    7.7711892 
14590000    1.0759198 -1.3859542e-05   0.58723735  0.043635207            0   0.54360214    1.5735327    2.1607701   0.74155297 
14595000    1.0713783 6.6001751e-06    0.5988038  0.043787281            0   0.55501652    1.5668907    2.1656945    2.8415525 
14600000    1.0741591 8.9224466e-05   0.52584599  0.016230359            0   0.50961563    1.5709577    2.0968037    11.233389 
14605000     1.152085 5.7455531e-05   0.47133165 0.0016436757            0   0.46968797    1.6849244     2.156256    8.0397024 
14610000   0.99956754 4.9093276e-05   0.68172558 0.0014967903            0   0.68022879    1.4618675    2.1435931    7.1707446 
14615000    1.1320567 6.1107403e-05    0.4884164 0.0052174031            0     0.483199    1.6556329    2.1440493    8.4014474 
14620000    1.0975677 -8.8197825e-06   0.51333491 0.0079674469            0   0.50536746    1.6051927    2.1185276    1.2153819 
14625000     1.031377 -5.5505891e-05   0.58850879  0.028135026            0   0.56037376    1.5083888    2.0968976   -3.5869056 
14630000    1.0555333 -2.2223514e-05   0.52310021  0.059624442            0   0.46347577    1.5437174    2.0668176  -0.20887015 
14635000    1.0676809 -3.3548789e-06   0.52723462  0.044455769            0   0.48277885    1.5614833    2.0887179    1.7451783 
14640000    1.0879567 -6.7948838e-06   0.52930445  0.030146806            0   0.49915765    1.5911367    2.1204411     1.424645 
14645000    1.0517531 1.6133462e-05   0.63211193  0.062913541            0   0.56919839    1.5381889    2.1703009    3.8223674 
14650000    1.1133125 1.8749268e-05   0.56416282  0.084367262            0   0.47979555    1.6282195    2.1923824    4.1123074 
14655000    1.0757039 2.2507556e-05   0.59532338  0.024598564            0   0.57072482    1.5732169    2.1685403    4.4733141 
14660000    1.1901966 3.8381481e-05   0.42901583  0.006631288            0   0.42238454    1.7406625    2.1696783     6.099942 
14665000    1.1138799 1.417689e-05   0.54705266  0.011823837            0   0.53522883    1.6290494    2.1761021    3.6278156 
14670000   0.91260001 -5.3719794e-05   0.84861109  0.072730772            0   0.77588032    1.3346775    2.1832886   -3.3176183 
14675000    1.0304747 -4.2812814e-06   0.64859769  0.045835554            0   0.60276214    1.5070692    2.1556669    1.7172637 
14680000    1.0983395 2.9301444e-05   0.56094262   0.01884922            0    0.5420934    1.6063215    2.1672641     5.167732 
14685000    1.1336787 4.1836222e-05   0.45076326 0.0088500366            0   0.44191323    1.6580051    2.1087684    6.3927975 
14690000   0.99244089 6.1872263e-05   0.62371105 0.0073508338            0   0.61636021    1.4514448    2.0751558    8.4108756 
14695000     1.059124 4.2838454e-05   0.51764581  0.034415094            0   0.48323072    1.5489689    2.0666147    6.4532724 
14700000    1.1000341 -6.8331655e-06   0.46400865  0.046391411            0   0.41761724    1.6087998    2.0728085    1.3730923 
14705000    1.0927889 -2.4492818e-05   0.50450572 0.0096794487            0   0.49482627    1.5982038    2.1027095  -0.40535512 
14710000   0.95380176 -7.1105734e-05   0.73408721 0.0039394109            0    0.7301478    1.3949351    2.1290223   -5.1522048 
14715000    1.1457733 -7.7734977e-05   0.49679964  0.006155979            0   0.49064366    1.6756934    2.1724931   -5.7875686 
14720000    1.1327678 -9.5539767e-06   0.51358042  0.005393882            0   0.50818653    1.6566729    2.1702533    1.1919261 
14725000     1.071359 5.5957567e-05   0.60584724 0.0031700204            0   0.60267722    1.5668626    2.1727098    7.9027647 
14730000     1.065587 7.7338265e-05   0.57312264 0.0037742176            0   0.56934843     1.558421    2.1315436    10.050982 
14735000    1.0609535 1.5134688e-05   0.53803526 0.0055668516            0   0.53246841    1.5516444    2.0896797    3.6394717 
14740000    1.0186267 -2.3806824e-05    0.5980825  0.027901129            0   0.57018137    1.4897415     2.087824  -0.34999475 
14745000    1.0950734 4.3148486e-05   0.45475572  0.015955687            0   0.43880003    1.6015448    2.0563005    6.4747055 
14750000    1.0985165 3.4094456e-06     0.476569 0.0012290956            0    0.4753399    1.6065804    2.0831494    2.4322766 
14755000    1.1197502 -6.0868194e-05   0.50578839            0            0   0.50578839    1.6376347     2.143423     -4.08948 
14760000    1.0407429 -2.5675117e-05   0.60500134   0.00397897            0   0.60102237    1.5220865    2.1270878  -0.50204422 
14765000    1.0624657 1.6251901e-05   0.58327306 0.0053785996            0   0.57789446     1.553856    2.1371291    3.8013237 
14770000   0.91679248 2.316461e-05   0.76433165 0.00014846587            0   0.76418318     1.340809    2.1051407    4.4771967 
14775000    1.2007659 3.3698692e-06   0.36483743            0            0   0.36483743    1.7561202    2.1209576    2.4660322 
14780000     0.978455 -6.2409001e-05   0.73485723            0            0   0.73485723    1.4309904    2.1658477   -4.2248341 
14785000    1.1804506 -7.4044251e-05   0.45612803  0.014672944            0   0.44145509    1.7264089     2.182537   -5.3995943 
14790000    1.0233883 -5.768763e-05   0.66131532  0.053201022            0    0.6081143    1.4967054    2.1580207   -3.7491926 
14795000   0.99403421 -1.6427524e-05    0.7170811  0.080893518            0   0.63618758     1.453775    2.1708561   0.48867767 
14800000    1.1160786 -2.7405985e-05   0.52621073  0.012941855            0   0.51326888     1.632265    2.1584757  -0.64789708 
14805000     1.082321 -4.8419254e-05   0.57378563  0.001463656            0   0.57232197    1.5828945    2.1566801   -2.8014515 
14810000    1.1079637 2.7604291e-05   0.50914916 0.0059229028            0   0.50322626    1.6203968     2.129546    4.9562254 
14815000   0.97211157 0.00010775547   0.67917511  0.033287061            0   0.64588805    1.4217132    2.1008883    13.135048 
14820000    1.0895123 2.912532e-05   0.52897629  0.017731651            0   0.51124464    1.5934117     2.122388    5.1048208 
14825000   0.91846651 -0.00011118694   0.73190845 0.0055005231            0   0.72640793    1.3432573    2.0751657   -9.3103768 
14830000    1.0387344 -6.857378e-05   0.51672893 0.0096385397            0   0.50709039     1.519149    2.0358779   -4.9860771 
14835000    0.9478058 7.6368737e-05   0.63420052 0.0057197169            0    0.6284808     1.386166    2.0203665    9.8405251 
14840000   0.95561057 4.3743521e-05    0.6280255            0            0    0.6280255    1.3975805     2.025606    6.5049425 
14845000   0.96895049 -7.4292766e-06   0.64380798  0.012697517            0   0.63111046    1.4170901    2.0608981    1.3001401 
14850000   0.98531581 -1.1179962e-05   0.55114509  0.030490261            0   0.52065483    1.4410244    1.9921695   0.84734141 
14855000    1.0635162 -0.00010332715   0.42373927 0.0032113424            0   0.42052793    1.5553925    1.9791318    -8.601568 
14860000   0.86879426 -0.00012385458   0.69076326  0.015946047            0   0.67481721    1.2706116    1.9613749   -10.721334 
14865000   0.80616384 -2.2805271e-05   0.77273727  0.022716066            0    0.7500212    1.1790146    1.9517519  -0.38350792 
14870000   0.92548786 7.6480939e-05   0.59452949  0.010057003            0   0.58447249     1.353526    1.9480555    9.7797036 
14875000   0.91569541 -5.2776412e-05   0.60295135 0.0087265535            0    0.5942248    1.3392045    1.9421559   -3.4621487 
14880000   0.97843189 -2.2815748e-05   0.50862451 0.0075325274            0   0.50109198    1.4309566    1.9395811  -0.39675144 
14885000   0.98430262 1.3378609e-05   0.51586648  0.016425471            0   0.49944101    1.4395426    1.9554091    3.3253786 
14890000    1.0114769 -7.0575972e-05   0.48406356  0.024521853            0   0.45954171     1.479285    1.9633485    -5.263631 
14895000   0.83750047 -1.6831632e-05   0.73360259 0.0060795603            0   0.72752303    1.2248444     1.958447   0.23488788 
14900000   0.85445258 -0.00012293736   0.71343569  0.010983761            0   0.70245193    1.2496369    1.9630726   -10.625714 
14905000   0.95169678 -8.6606059e-06   0.59976279  0.016969935            0   0.58279285    1.3918565    1.9916193    1.1047733 
14910000    1.0411875 -2.9123926e-05   0.50870363  0.016441293            0   0.49226234    1.5227367    2.0314403  -0.95084967 
14915000    1.1112584 -2.2775363e-05   0.42253241 0.0095898396            0   0.41294257    1.6252154    2.0477478  -0.28444932 
14920000    1.1685774 1.9294491e-05   0.34181712 0.0013983057            0   0.34041882    1.7090445    2.0508616    4.0266175 
14925000    1.0148819 5.8245028e-05    0.5563068 0.0025925538            0   0.55371425    1.4842647    2.0405715    8.0048624 
14930000     1.000764 4.4908516e-05   0.57184905   0.02508416            0   0.54676489    1.4636174    2.0354664    6.6340985 
14935000    1.0248045 -4.6837264e-05   0.54565085  0.024567592            0   0.52108326    1.4987765    2.0444274   -2.7517085 
14940000    1.0707775 3.0253148e-05   0.47894204 0.0011481559            0   0.47779388    1.5660121    2.0449541    5.1428765 
14945000    1.0375372 -7.9436461e-05   0.50173305 4.8162084e-05            0   0.50168489    1.5173981    2.0191311   -6.1151624 
14950000     1.051693 -5.2906558e-05   0.51592339 0.0054326045            0   0.51049078    1.5381011    2.0540244   -3.3636071 
14955000    1.0075627 -3.9378303e-05   0.55335779  0.010994657            0   0.54236313    1.4735605    2.0269183     -2.00542 
14960000   0.94873176 3.0528252e-05   0.61070342 0.0038567985            0   0.60684662    1.3875202    1.9982236    5.1243166 
14965000   0.95750871 2.5756681e-05   0.62672461 4.8642644e-05            0   0.62667597    1.4003565    2.0270811    4.6645653 
14970000    1.0505454 -3.849162e-06   0.51363928 0.0051904947            0   0.50844878    1.5364226    2.0500619    1.6559077 
14975000   0.99782613 -1.9434192e-05   0.57266131  0.027577154            0   0.54508416    1.4593207     2.031982  0.041920731 
14980000    1.0000195 -9.7413581e-06   0.56770284  0.036267492            0   0.53143535    1.4625285    2.0302314    1.0327163 
14985000   0.81965969 3.1048386e-05   0.80451184 0.0061360819            0   0.79837576    1.1987523    2.0032641    5.1826188 
14990000    1.0075298 1.7052102e-05   0.49882655 3.5491647e-06            0     0.498823    1.4735124    1.9723389    3.7184742 
14995000   0.94494006 -1.0367278e-05   0.57071917 0.00021969497            0   0.57049948    1.3819748     1.952694   0.89108471 
15000000   0.92485453 1.2768533e-05   0.61287785 0.0040618219            0   0.60881603    1.3525998    1.9654776    3.2729754 
15005000   0.88569327 7.6041364e-05   0.70319159  0.015495103            0   0.68769648    1.2953264     1.998518    9.7851537 
15010000    1.0088444 8.984208e-05   0.52353628  0.020159387            0    0.5033769     1.475435    1.9989712      11.1988 
15015000    1.0421708 -8.5303542e-06    0.4806216 0.0045012077            0   0.47612039    1.5241747    2.0047963    1.1312881 
15020000   0.93461305 -5.8069904e-05   0.62130854 0.0021608532            0   0.61914769    1.3668716    1.9881801    -3.958178 
15025000   0.93370296 -2.0098848e-06   0.59695059  0.035642448            0   0.56130814    1.3655406    1.9624912     1.756679 
15030000   0.87784008 5.3493111e-05   0.71234231  0.020426539            0   0.69191577    1.2838411    1.9961834     7.473878 
15035000    1.0808172 3.7423704e-06   0.43382801            0            0   0.43382801    1.5806951    2.0145232    2.3977419 
15040000   0.96911877 -0.000122908   0.54350088 0.0039014114            0   0.53959947    1.4173362    1.9608371   -10.624942 
15045000   0.91744766 2.4303881e-05   0.67530674 0.0090879242            0   0.66621881    1.3417672    2.0170739    4.5057913 
15050000   0.98994394 -3.5332271e-05    0.5757284 0.0042425786            0   0.57148582     1.447793    2.0235214   -1.5945032 
15055000    1.1067144 -6.1323641e-06   0.37268138 0.0088740701            0   0.36380731    1.6185699    1.9912512    1.3632972 
15060000   0.95214218 5.3937275e-06   0.56983709 0.0061455064            0   0.56369158    1.3925079     1.962345    2.5146627 
15065000   0.93170098 -1.7897213e-05   0.56540891 0.0078037848            0   0.55760512    1.3626127    1.9280216  0.095347001 
15070000   0.95774503 7.2569246e-05   0.53234869 0.0092312417            0   0.52311745    1.4007021    1.9330508    9.3641416 
15075000   0.99399754 -4.4130058e-05   0.48708649 0.0071283112            0   0.47995818    1.4537214    1.9408079     -2.57811 
15080000   0.84439483 1.6345708e-05    0.6851941 0.0034599741            0   0.68173413    1.2349274    1.9201215    3.5939221 
15085000   0.98163326 4.6865994e-05   0.48791701 0.0018425134            0   0.48607449    1.4356386    1.9235556    6.7226334 
15090000   0.86238733 0.00012169117   0.64232444 0.0096282136            0   0.63269623    1.2612415    1.9035659    14.364741 
15095000   0.85461923 5.885496e-05   0.67259433  0.028716644            0   0.64387769    1.2498806     1.922475    7.9492229 
15100000   0.89459286 -3.1022852e-05   0.63360741  0.011587819            0   0.62201959    1.3083421    1.9419495   -1.2347906 
15105000   0.93844813 2.344778e-05   0.56518172  0.011170986            0   0.55401074    1.3724804    1.9376621    4.3387148 
15110000   0.93667274 -9.285293e-05   0.59098144   0.08638387            0   0.50459757    1.3698839    1.9608653   -7.5472747 
15115000   0.96083744 -0.00012993259   0.56284946 0.0083676287            0   0.55448183    1.4052248    1.9680742   -11.337023 
15120000   0.91810322 7.8424073e-05    0.6129987            0            0    0.6129987     1.342726    1.9557247    9.9863497 
15125000   0.97036291 6.1544263e-05   0.54106331            0            0   0.54106331    1.4191558    1.9602191    8.2623516 
15130000    1.0079881 2.4904069e-05   0.48766766            0            0   0.48766766    1.4741826    1.9618503     4.512027 
15135000    0.9494731 6.4657455e-05   0.58267914            0            0   0.58267914    1.3886044    1.9712835     8.592207 
15140000   0.94058563 -5.4862021e-05   0.54657628 0.0011950144            0   0.54538127    1.3756065    1.9221828   -3.6956882 
15145000   0.98980072 -3.0580887e-05   0.48233069  0.041513469            0   0.44081722    1.4475836    1.9299142   -1.2015685 
15150000     0.963097 -8.4530816e-05   0.50166675  0.020914221            0   0.48075252    1.4085294    1.9101961   -6.7457595 
15155000    0.9430198 -0.00010047031   0.51951366 0.0046671191            0   0.51484654    1.3791665    1.8986801   -8.3894797 
15160000   0.84011588 3.8505048e-05   0.66061264 0.0046100126            0   0.65600262    1.2286695    1.8892821     5.832199 
15165000    1.0283551 -3.5432561e-05   0.47682529 0.0030446962            0   0.47378059    1.5039693    1.9807946   -1.6474996 
15170000   0.93513849 -9.2699083e-05   0.63902087 0.0016869597            0   0.63733391      1.36764    2.0066609   -7.4857252 
15175000   0.98141038 9.1801397e-05   0.55398318 0.00055567933            0    0.5534275    1.4353127    1.9892959    11.389759 
15180000   0.93004107 -3.5680227e-05   0.59705254 0.0044952603            0   0.59255728    1.3601851    1.9572376   -1.6964177 
15185000    1.0399725 -6.5433095e-05   0.46601308  0.003219408            0   0.46279367    1.5209598    1.9869728   -4.7133761 
15190000   0.93195737   2.1999e-06   0.63836223 0.0002295633            0   0.63813266    1.3629877    2.0013499    2.2266196 
15195000   0.91416161 -8.7503453e-05   0.67781991            0            0   0.67781991    1.3369614    2.0147813   -6.9455724 
15200000    1.0318919 2.7211024e-05   0.58177887 0.00051064833            0   0.58126822    1.5091419    2.0909208    4.8773296 
15205000   0.93937829 -7.4905791e-05   0.69721307 0.0063355726            0    0.6908775    1.3738408    2.0710538   -5.5992992 
15210000   0.99601774 -4.3844782e-05   0.59309895  0.010701611            0   0.58239734    1.4566759    2.0497749   -2.4399308 
15215000   0.94896504 -9.9584293e-05   0.60929657 0.0047030343            0   0.60459354    1.3878614    1.9971579   -8.2002737 
15220000   0.98996348 -7.4316583e-05    0.5887049 0.00035938204            0   0.58834552    1.4478216    2.0365265   -5.5734916 
15225000    1.1208187 -1.6846834e-05   0.34080541            0            0   0.34080541    1.6391973    1.9800028   0.25488696 
15230000   0.94675788 -4.3241898e-05   0.63112498 6.1132024e-05            0   0.63106385    1.3846334    2.0157584    -2.412212 
15235000   0.98712048 5.5987819e-05   0.53725683  0.018235995            0   0.51902083    1.4436637    1.9809205    7.7140732 
15240000    1.0294703 2.0407825e-05   0.51015329  0.030890747            0   0.47926254    1.5056003    2.0157536    4.1055148 
15245000    1.0137672 -7.254723e-06   0.54420143  0.010034126            0    0.5341673    1.4826345     2.026836    1.2839523 
15250000   0.96121114 6.8445369e-05   0.59782469 0.0008254922            0    0.5969992    1.4057713     2.003596    9.0124017 
15255000    1.0362353 2.4080495e-05   0.46195762 0.0030493245            0   0.45890829    1.5154942    1.9774518    4.4432944 
15260000   0.92265252 -6.6820304e-05   0.63788138 0.0022453683            0   0.63563601    1.3493793    1.9872607   -4.8551384 
15265000   0.94340775 -5.1849602e-05   0.62766338  0.038169577            0   0.58949381    1.3797338    2.0073972    -3.302002 
15270000    1.0422331 3.4042613e-05   0.48732241  0.038341327            0   0.44898108     1.524266    2.0115884    5.4975519 
15275000   0.89467026 9.2427197e-06   0.69909153 0.0020942348            0   0.69699729    1.3084552    2.0075468    2.9540013 
15280000   0.97788584 -5.9912986e-05   0.58393947 0.0021636586            0   0.58177581     1.430158    2.0140975   -4.1209922 
15285000   0.94556106 -7.5172921e-05   0.64848931 0.0040648304            0   0.64442448    1.3828831    2.0313724   -5.6663348 
15290000    0.8643437 -4.4862824e-05   0.77602875 0.0049893825            0   0.77103936    1.2641027    2.0401314   -2.5538218 
15295000   0.95532643 3.6916275e-05   0.64455418 0.0026592333            0   0.64189494    1.3971649    2.0417191    5.8219456 
15300000   0.90563343 2.7568254e-05   0.73518969 0.0042051278            0   0.73098456    1.3244889    2.0596786    4.8826678 
15305000   0.99296562 5.4255793e-05   0.65660707 0.0052383551            0   0.65136872    1.4522122    2.1088193    7.6646125 
15310000     1.005336 4.8749078e-05   0.65787752 0.0031983892            0   0.65467913     1.470304    2.1281815     7.120087 
15315000    1.1134193 -2.5660622e-05   0.53806142 0.0083520974            0   0.52970933    1.6283757    2.1664371  -0.46121065 
15320000    1.1251426 -3.3993863e-05   0.46744712  0.018691068            0   0.44875606    1.6455211    2.1129682   -1.3680033 
15325000    1.0134959 4.5136438e-05   0.63156081  0.011525072            0   0.62003574    1.4822378    2.1137986    6.7357698 
15330000   0.95214286 3.3913617e-05   0.70737566  0.013876179            0   0.69349948    1.3925089    2.0998846    5.5726389 
15335000    1.0261249 2.2492593e-05   0.61233157  0.013995525            0   0.59833604    1.5007077    2.1130393    4.4162808 
15340000   0.90603394  9.57388e-05    0.7506185  0.022102124            0   0.72851638    1.3250746    2.0756931    11.879346 
15345000    1.0605949 5.2560733e-06   0.53687921  0.020337046            0   0.51654217      1.55112    2.0879993    2.6262212 
15350000    1.1006556 -3.2005636e-05   0.48748038  0.022111766            0   0.46536862    1.6097089    2.0971893   -1.1801878 
15355000    1.0432427 2.9349903e-05   0.61223663  0.024749982            0   0.58748665    1.5257425    2.1379791    5.1434092 
15360000    1.1186368 -5.4368488e-05   0.48552802  0.014426653            0   0.47110137    1.6360063    2.1215343   -3.4457988 
15365000   0.96408507 -9.5827166e-05    0.7025172 0.0041475538            0   0.69836964    1.4099744    2.1124916   -7.7002102 
15370000   0.98041602 1.2910719e-05    0.6615849 0.0051336844            0   0.65645122    1.4338584    2.0954433     3.417501 
15375000     1.008144 1.6984375e-05   0.62193304 0.0049374548            0   0.61699558    1.4744106    2.0963437    3.8355436 
15380000    1.0093594 1.6899864e-05   0.60186533  0.012734137            0   0.58913119    1.4761881    2.0780534    3.8085995 
15385000   0.94245369 6.8049342e-05   0.65955753  0.053654492            0   0.60590303    1.3783385     2.037896    9.0061486 
15390000   0.87457626 -5.8498698e-06   0.78059143  0.045820049            0   0.73477138    1.2790678    2.0596592    1.4606325 
15395000   0.98512131 4.6042282e-05   0.61679272  0.027542383            0   0.58925034    1.4407399    2.0575326    6.7722623 
15400000   0.98067604 4.962849e-05   0.61160618  0.014322553            0   0.59728363    1.4342387    2.0458449    7.1278022 
15405000     1.013724 1.831669e-05   0.54349345 0.0026020531            0    0.5408914    1.4825713    2.0260647    3.9016937 
15410000   0.98249772 4.0119956e-05   0.60240308 0.00070416685            0   0.60169892    1.4369029     2.039306    6.1475895 
15415000    1.0562249 7.2688089e-06   0.49243807 0.0039294319            0   0.48850863     1.544729    2.0371671    2.7814931 
15420000    1.0252289 4.5461256e-05   0.53071566  0.029207124            0   0.50150853    1.4993973     2.030113    6.6853456 
15425000    1.0074362 6.9020204e-05    0.5406166  0.053586731            0   0.48702987    1.4733754     2.013992    9.0816609 
15430000    1.0722186 -5.9021761e-05   0.44288583  0.040261929            0    0.4026239    1.5681198    2.0110056   -4.0328227 
15435000   0.97158392 5.1710142e-06   0.58486717 0.0063126147            0   0.57855455    1.4209415    2.0058087    2.5353205 
15440000   0.79845101 0.00011821877   0.80266351  0.065621552            0   0.73704196    1.1677346    1.9703981       14.076 
15445000   0.88786567 -2.5163955e-05   0.68770904   0.13431071            0   0.55339832    1.2985035    1.9862126  -0.59057641 
15450000    1.0538171 -2.8669189e-05   0.45759606  0.026596571            0   0.43099949    1.5412075    1.9988036  -0.93692139 
15455000    1.0374609 8.4651307e-05   0.48268286 0.0081484446            0   0.47453441    1.5172866    1.9999694    10.668263 
15460000    1.0748173 -4.1669376e-05   0.46075315  0.018987508            0   0.44176565    1.5719203    2.0326734   -2.2342707 
15465000    1.0156558 -4.0896887e-05   0.52356105  0.048449115            0   0.47511194    1.4853966    2.0089577   -2.1788835 
15470000    1.0194841 1.4682771e-05   0.54119793  0.065325231            0    0.4758727    1.4909955    2.0321934    3.5357092 
15475000   0.81772413 2.7066142e-05   0.80751203  0.033078111            0   0.77443392    1.1959215    2.0034336    4.7750065 
15480000   0.99505476 7.837505e-05   0.53121985  0.024129948            0    0.5070899    1.4552676    1.9864874    10.012093 
15485000    1.0882883 -2.7469568e-05   0.39402521 0.0047712894            0   0.38925392    1.5916216    1.9856468  -0.82723691 
15490000   0.83804696 -0.00013401371   0.75177732  0.050965314            0     0.700812    1.2256437     1.977421   -11.745583 
15495000   0.95080136 -5.2189952e-05   0.62768975  0.026548481            0   0.60114127     1.390547    2.0182367   -3.3260143 
15500000    1.0802626 8.3645384e-05   0.43960607  0.011009861            0   0.42859621    1.5798841    2.0194902    10.584778 
15505000    1.1138972 3.5784819e-05   0.38444445 0.0097047685            0   0.37473968    1.6290747    2.0135191    5.6778846 
15510000    1.0400422 -4.2079767e-05   0.51846996  0.003384421            0   0.51508554    1.5210617    2.0395316   -2.2694365 
15515000   0.95225779 -5.1209038e-05   0.62934684 0.00015786042            0   0.62918898     1.392677    2.0220239   -3.2217817 
15520000    1.0629518 -2.1308406e-05   0.47698753  0.001187969            0   0.47579956     1.554567    2.0315545  -0.15042622 
15525000    0.9987445 4.153025e-05   0.55104113  0.017728428            0    0.5333127    1.4606638     2.011705    6.2644025 
15530000   0.90701029 2.7750739e-05   0.66374881  0.020519639            0   0.64322918    1.3265026    1.9902514     4.831927 
15535000    1.0083072 -3.5713801e-05   0.51451911  0.050281493            0   0.46423761    1.4746492    1.9891683   -1.6679249 
15540000   0.97644905 -3.310774e-05   0.57641228  0.038701026            0   0.53771125    1.4280567     2.004469   -1.3857635 
15545000   0.98070746 3.3560533e-05   0.61294344  0.015605258            0   0.59733818    1.4342847    2.0472281    5.4838267 
15550000    1.0240926 6.4581586e-05   0.57919849  0.037782311            0   0.54141618    1.4977354    2.0769339    8.6900884 
15555000   0.98246786 1.3164726e-05   0.62824263  0.022716987            0   0.60552564    1.4368592    2.0651019    3.4131699 
15560000   0.96338384 -4.2531345e-06   0.61282587  0.014066945            0   0.59875893    1.4089489    2.0217747    1.5862538 
15565000   0.96569595 7.0621564e-06   0.63391254  0.025252258            0   0.60866028    1.4123303    2.0462429    2.7694077 
15570000    1.0553961 1.3775574e-05    0.5168937 0.0072568334            0   0.50963686    1.5435168    2.0604105    3.4710293 
15575000    1.0245934 5.9075319e-05   0.58067866 0.0094221506            0   0.57125651    1.4984679    2.0791466    8.1284592 
15580000   0.90456079 1.1557881e-05   0.77233702  0.040405963            0   0.73193106    1.3229202    2.0952572    3.2787842 
15585000    1.0681781 -5.8835825e-06   0.55748749 0.0095221155            0   0.54796537    1.5622105     2.119698    1.5172192 
15590000    1.0183794 7.6468324e-05   0.60667863  0.014358237            0    0.5923204    1.4893798    2.0960585    9.9264149 
15595000   0.98397994 -1.7785456e-05   0.67020023  0.040047199            0   0.63015303    1.4390707    2.1092709   0.28804016 
15600000    0.9801332 -0.00016264183   0.66957975  0.024614229            0   0.64496552    1.4334448    2.1030246   -14.551499 
15605000    1.0845012 -0.00010365672   0.49307029 0.0087331083            0   0.48433719     1.586083    2.0791533   -8.5352943 
15610000   0.97683156 7.5968975e-05    0.6428926   0.06006383            0   0.58282877    1.4286162    2.0715088    9.8507318 
15615000   0.95974712 0.00010784926   0.64825915  0.029605719            0   0.61865343    1.4036302    2.0518893    13.095653 
15620000   0.99343306 -5.2188379e-05   0.56448068  0.006007878            0    0.5584728    1.4528958    2.0173765   -3.3267135 
15625000    1.0127885 -5.2603473e-05   0.52033146  0.016037496            0   0.50429397    1.4812031    2.0015346   -3.3850611 
15630000    1.0783147 2.3817125e-05   0.41812276  0.016846673            0   0.40127609    1.5770352     1.995158    4.4340315 
15635000    1.0036924 7.0672358e-05   0.57239106  0.028943408            0   0.54344765    1.4679002    2.0402912    9.2771407 
15640000    1.0662889 -1.4090265e-05   0.50999057 0.0051824467            0   0.50480812    1.5594475    2.0694381   0.62659501 
15645000   0.87058999 -0.00018029494    0.8246243 0.0013683178            0   0.82325599    1.2732379    2.0978622    -16.36434 
15650000    1.0682587 -1.861351e-05   0.54541752  0.010476133            0   0.53494138    1.5623283    2.1077458   0.20172234 
15655000       1.1156 5.868234e-05   0.47772786   0.01343536            0    0.4642925    1.6315649    2.1092928    8.1183644 
15660000    1.0740105 -3.4375639e-05   0.55921592 0.0031090145            0   0.55610691    1.5707403    2.1299563   -1.3901091 
15665000    1.2433157 9.5108931e-05   0.33550698            0            0   0.33550698    1.8183493    2.1538562    11.893011 
15670000    1.0056879 8.8170708e-05   0.69121837 0.0092903511            0   0.68192802    1.4708186     2.162037    11.190717 
15675000   0.97250419 -3.491547e-05   0.80030798  0.055296621            0   0.74501136    1.4222874    2.2225954   -1.3527487 
15680000    1.2287841 8.414286e-05   0.40997844  0.040858036            0    0.3691204    1.7970967    2.2070752    10.823304 
15685000    1.0777431 3.7787907e-05   0.60499527  0.019308366            0    0.5856869    1.5761993    2.1811946    6.0506763 
15690000    1.1267377 -0.00010428267   0.50103478  0.012965668            0   0.48806912    1.6478538    2.1488886   -8.5296564 
15695000    1.0358903 -8.4031256e-05   0.59896119 0.0059367703            0   0.59302442    1.5149896    2.1139508   -6.4908498 
15700000    1.0924992 -2.6481702e-05   0.52797793 0.0034480503            0   0.52452988    1.5977801    2.1257581  -0.58596822 
15705000    1.0627576 -4.530809e-05   0.55369649  0.029705672            0   0.52399082     1.554283    2.1079795   -2.5315689 
15710000   0.97243712 4.7296978e-05   0.67482578  0.023320692            0   0.65150509    1.4221893    2.0970151    6.9402256 
15715000    1.0859471 9.3757004e-06   0.55344545  0.076916015            0   0.47652944    1.5881976    2.1416431    3.1017148 
15720000    1.1172115 -8.5942999e-05   0.48389996  0.010396656            0    0.4735033    1.6339218    2.1178217   -6.6827414 
15725000    1.1421043 -2.2412644e-05   0.46866045            0            0   0.46866045    1.6703276     2.138988  -0.15606672 
15730000    1.1167104 -7.9329274e-06   0.49807155 0.0056162602            0   0.49245529     1.633189    2.1312605    1.3189288 
15735000    0.9578881 4.8145773e-05   0.69732804  0.020604262            0   0.67672377    1.4009113    2.0982394    7.0283665 
15740000    1.0917649 1.6777097e-05   0.51505534  0.016925293            0   0.49813005    1.5967061    2.1117615    3.8297363 
15745000    1.0979024 -5.0152096e-05   0.49969066  0.033944485            0   0.46574617    1.6056823     2.105373   -3.0302017 
15750000    1.0277854 -4.6899095e-05    0.5509029  0.034013242            0   0.51688965    1.5031361     2.054039   -2.7484284 
15755000    1.0891647 -1.2968169e-05   0.44600866 0.0080159145            0   0.43799274    1.5929034    2.0389121    0.7109716 
15760000    1.0730335 -2.7972935e-05   0.48937246            0            0   0.48937246    1.5693116     2.058684  -0.80574449 
15765000   0.99992651  2.01023e-05   0.59976227 0.0011383186            0   0.59862396    1.4623925    2.0621548    4.1206304 
15770000   0.90259451 8.5293597e-05   0.72182418 0.0086341641            0   0.71319002    1.3200445    2.0418687    10.775933 
15775000    1.0958256 2.7478179e-06   0.46856664  0.029113599            0   0.43945304     1.602645    2.0712116    2.3525882 
15780000   0.95297466 -4.9809468e-05   0.70314121  0.043875626            0   0.65926558    1.3937254    2.0968666   -3.0036228 
15785000     1.066739 -7.4948915e-05   0.59479833  0.022061397            0   0.57273693    1.5601058    2.1549041   -5.5198648 
15790000    1.0407582 -6.2068436e-05    0.6352781  0.042817858            0   0.59246024    1.5221089     2.157387   -4.1984209 
15795000    1.0555163 -3.2089083e-05    0.5860258  0.024724416            0   0.56130138    1.5436926    2.1297184   -1.1562036 
15800000    1.0349993 -1.4813695e-05   0.62413539 0.0089828769            0   0.61515252    1.5136865    2.1378219   0.62089954 
15805000   0.95441291 -8.3446401e-06   0.72747762  0.044979236            0   0.68249838    1.3958289    2.1233065    1.2688154 
15810000   0.94072945 4.4038305e-05   0.78989212  0.060567077            0   0.72932504    1.3758168    2.1657089    6.6752314 
15815000    1.1122284 6.0138511e-05   0.55646486 0.0011985846            0   0.55526628     1.626634    2.1830988    8.3412823 
15820000    1.1350689 2.7728916e-05   0.55208015  0.002315949            0    0.5497642    1.6600382    2.2121184    5.0515593 
15825000    1.0850019 -7.9747923e-05   0.64429604 0.0081447925            0   0.63615125    1.5868152    2.2311113    -5.935076 
15830000     1.091515 -9.765462e-05   0.68781168  0.031511947            0   0.65629974    1.5963407    2.2841524   -7.7156807 
15835000     1.164936 -2.8210096e-05   0.57437111  0.036598191            0   0.53777292    1.7037189      2.27809  -0.61062383 
15840000    1.0729401 -1.156101e-05   0.71213051 0.0052812356            0   0.70684928    1.5691749    2.2813054    1.0974579 
15845000    1.0692844 3.0327967e-05   0.68578481 0.0042227925            0   0.68156202    1.5638285    2.2496133    5.3551972 
15850000    1.0125731 3.3661433e-05   0.72161138  0.016376568            0   0.70523481    1.4808881    2.2024995    5.6494302 
15855000    1.0115063 3.0839026e-07   0.75336957   0.03341244            0   0.71995713    1.4793279    2.2326975    2.2642767 
15860000    1.0499458 -3.81491e-06     0.727068  0.067776452            0   0.65929155    1.5355457    2.2626137    1.8719669 
15865000    1.0487705 -3.3582323e-05   0.71569975  0.021203365            0   0.69449639    1.5338268    2.2495266   -1.1893034 
15870000    1.1335817 4.1462776e-05   0.58926436  0.013691544            0   0.57557282    1.6578633    2.2471277    6.4929159 
15875000     1.061258 -1.0787919e-05   0.69463641   0.01760475            0   0.67703166    1.5520898    2.2467262    1.1420433 
15880000    1.2022185 -8.0101618e-05   0.53075266  0.013121348            0   0.51763131    1.7582446    2.2889973   -5.9134085 
15885000    1.1134195 -1.9993266e-05   0.65199293  0.036972904            0   0.61502003     1.628376    2.2803689   0.23305844 
15890000    1.1036662 2.7402407e-05   0.66914707   0.01188724            0   0.65725983    1.6141118    2.2832588    5.0892653 
15895000    1.2084531 9.9499412e-05   0.58472285 0.0084214518            0    0.5763014    1.7673626    2.3520855    12.540825 
15900000    1.0676326 9.4539251e-05   0.79086462  0.026630884            0   0.76423374    1.5614127    2.3522773    12.033097 
15905000    1.2543122 -1.4563817e-06   0.50400507  0.022474801            0   0.48153027    1.8344316    2.3384367    2.1893032 
15910000    1.0896013 -0.00012486325   0.76345209  0.005076903            0   0.75837519    1.5935419     2.356994   -10.429003 
15915000    1.1921152 -0.00011454549   0.64645125  0.026027892            0   0.62042336    1.7434685    2.3899197   -9.3395385 
15920000    1.0992346 1.5163184e-05   0.73433714  0.048926565            0   0.68541057    1.6076307    2.3419678    3.8946779 
15925000    1.2294486 7.6793747e-05   0.58718024 0.0069107738            0   0.58026947    1.7980686    2.3852489    10.248929 
15930000    1.1272991 2.0240959e-05   0.69818211 0.0076128281            0   0.69056928     1.648675    2.3468571    4.4195313 
15935000    1.1907415 -0.00010766487   0.60289726  0.019313897            0   0.58358336    1.7414595    2.3443567   -8.6805257 
15940000    1.1177233 -2.302114e-05   0.68655693  0.026634867            0   0.65992206    1.6346703    2.3212272 -0.036137497 
15945000    1.1275379 9.4055763e-05   0.71567073  0.003914947            0   0.71175578    1.6490242     2.364695    11.996005 
15950000    1.3155508 -1.0997699e-05    0.4496795   0.00208589            0   0.44759361    1.9239931    2.3736726    1.2475081 
15955000    1.1867896 -6.0593525e-05   0.65187548  0.011927588            0    0.6399479    1.7356798    2.3875553   -3.8172217 
15960000    1.0742678 6.3657964e-05   0.79769481  0.068475071            0   0.72921974    1.5711166    2.3688114    8.8873869 
15965000    1.1738639 7.5111731e-05   0.60306772  0.020225313            0   0.58284241     1.716776    2.3198437    10.011285 
15970000    1.2211307 4.4421305e-05   0.51920203 0.0049376365            0    0.5142644    1.7859037    2.3051057    6.8538474 
15975000    1.1753516 8.8469048e-05   0.59394041   0.02632089            0   0.56761952    1.7189517    2.3128921    11.372123 
15980000    1.0980601 -1.4915201e-06   0.68436923  0.071908344            0   0.61246089    1.6059128    2.2902821    2.1375504 
15985000    1.0930261 -7.7690032e-05   0.72689868  0.028801094            0   0.69809759    1.5985507    2.3254494   -5.6300099 
15990000    1.1604701 -2.4052903e-05   0.66038141  0.040936815            0    0.6194446    1.6971875    2.3575689  -0.10544837 
15995000    1.1889583 -6.3783146e-05   0.57812407  0.039604047            0   0.53852002    1.7388515    2.3169756   -4.2144185 
16000000    1.1039985 -1.0384182e-05   0.70735527   0.03478682            0   0.67256845    1.6145977     2.321953    1.2586128 
16005000    1.1048061 -1.3826006e-05   0.70022729   0.11501679            0    0.5852105    1.6157789    2.3160062    0.9002232 
16010000     1.224146 5.6699923e-06   0.54685261  0.028158068            0   0.51869454    1.7903135    2.3371661    2.9177733 
16015000    1.1619484 5.4416136e-05   0.71568062   0.04126033            0   0.67442029    1.6993496    2.4150302    7.9872425 
16020000    1.1440736 7.5399062e-05   0.72235066 0.0043933039            0   0.71795735    1.6732077    2.3955584    10.116422 
16025000    1.2076732 0.00012379574   0.65120709  0.039413906            0   0.61179319     1.766222    2.4174291    15.094113 
16030000    1.2408026 9.7491341e-05   0.61944057  0.041533792            0   0.57790678    1.8146738    2.4341144    12.417228 
16035000    1.2682274 1.5542554e-06   0.62056566  0.066196701            0   0.55436896    1.8547826    2.4753483     2.634504 
16040000    1.2406532 1.4747399e-05   0.69746862  0.041334242            0   0.65613437    1.8144553    2.5119239    4.0220576 
16045000    1.1007158 2.8581826e-05   0.90451344 9.021348e-05            0   0.90442323    1.6097969    2.5143103    5.4410893 
16050000    1.0915782 -7.1662707e-05   0.92386677            0            0   0.92386677    1.5964332    2.5202999   -4.8179613 
16055000    1.2439512 -2.7712095e-05   0.67508145 0.00098079488            0   0.67410065    1.8192787    2.4943601  -0.34335842 
16060000    1.2793237 4.6638861e-06   0.58405672   0.03229159            0   0.55176513    1.8710109    2.4550676    2.9326495 
16065000    1.1103761 4.1042324e-06   0.86612127  0.066873863            0    0.7992474    1.6239251    2.4900464    2.9103198 
16070000    1.1949604 4.5629239e-05    0.7411338   0.12236282            0   0.61877098    1.7476295    2.4887633    7.1611974 
16075000    1.3898283 1.2226719e-05   0.52088654  0.050126367            0   0.47076018    2.0326239    2.5535104    3.8055265 
16080000    1.2855261 3.6179119e-05   0.69048788  0.038369463            0   0.65211842     1.880082    2.5705699    6.2753116 
16085000    1.2695939 3.6806566e-05   0.63868374  0.047629039            0    0.5910547    1.8567811    2.4954648    6.2644572 
16090000    1.2433616 -3.0602235e-05   0.65829438  0.097436985            0    0.5608574    1.8184164    2.4767107   -0.6569581 
16095000     1.299751 -1.2118563e-05   0.59682952  0.028052197            0   0.56877733    1.9008858    2.4977153    1.2567745 
16100000    1.2104582 3.850694e-05   0.76075211  0.011100568            0   0.74965155    1.7702952    2.5310473     6.474158 
16105000    1.2966036 -1.6335053e-05    0.6326772  0.007244029            0   0.62543317    1.8962828      2.52896   0.85625065 
16110000    1.3373235 -4.973653e-05   0.57403898   0.09888213            0   0.47515685    1.9558357    2.5298746    -2.563146 
16115000    1.2099031 -4.1992851e-05   0.77213797  0.051602308            0   0.72053566    1.7694832    2.5416212   -1.7584467 
16120000    1.2992278 -1.8157243e-05    0.5942683  0.026435621            0   0.56783267    1.9001206    2.4943889   0.63508719 
16125000    1.2617609 -4.668952e-05   0.67024176  0.017803674            0   0.65243808    1.8453253     2.515567   -2.2654399 
16130000    1.2632485 -4.685789e-05    0.6844003 0.00044861225            0   0.68395168    1.8475009    2.5319012   -2.2663468 
16135000    1.3008313 -6.5279634e-05   0.58598197   0.10695289            0   0.47902908    1.9024658    2.4884478   -4.1961867 
16140000    1.2031789 -0.00010362663   0.70044417  0.024909638            0   0.67553453    1.7596492    2.4600933   -8.1512739 
16145000    1.2337899 5.1527095e-05    0.6944724 0.0001600853            0   0.69431231    1.8044177    2.4988901    7.7752647 
16150000    1.3490317 -3.0614892e-06   0.52769921            0            0   0.52769921    1.9729588    2.5006581    2.1871616 
16155000    1.3072676 -0.00014014279   0.58577892            0            0   0.58577892    1.9118788    2.4976577   -11.852964 
16160000    1.2813034 3.1630024e-06   0.57436747 0.0032645997            0   0.57110287    1.8739062    2.4482737    2.7721651 
16165000    1.2361239 8.5226347e-05   0.59235709 0.0055052804            0   0.58685181    1.8078313    2.4001884    11.127366 
16170000    1.2939205 1.3818401e-05   0.54020552  0.018585108            0   0.52162041    1.8923587    2.4325642    3.8475684 
16175000    1.1337469 -2.5737563e-05   0.75885396    0.0517195            0   0.70713446    1.6581049    2.4169589  -0.21856763 
16180000    1.4068283 4.2856824e-05   0.33784158   0.01720955            0   0.32063203    2.0574864    2.3953279    6.7838667 
16185000    1.2646953 -1.2226072e-05   0.56782349 0.0093880574            0   0.55843543    1.8496168    2.4174403    1.1654906 
16190000     1.172358 -3.078888e-05    0.6980677  0.011189758            0   0.68687794    1.7145735    2.4126412  -0.74014007 
16195000    1.2377246 3.1400656e-05      0.59608  0.025225132            0   0.57085487    1.8101723    2.4062523    5.6216794 
16200000    1.3166064 7.1751215e-05   0.45778383  0.012173098            0   0.44561073    1.9255369    2.3833207    9.7306451 
16205000     1.125806 3.4866088e-05   0.76599506  0.023922774            0   0.74207229    1.6464912    2.4124863    5.9827737 
16210000    1.1131158 -1.2233013e-05   0.78052897  0.011097723            0   0.76943124    1.6279318    2.4084608    1.1558002 
16215000    1.1624797 -5.2178707e-06   0.67737914  0.001891203            0   0.67548793    1.7001265    2.3775056    1.8431957 
16220000    1.1048031 -6.5163817e-05    0.7424125 0.00071337059            0   0.74169913    1.6157746    2.3581871   -4.3145878 
16225000    1.2152944 -4.2408727e-06   0.58930265 0.00067362148            0   0.58862903     1.777368    2.3666706    1.9324053 
16230000      1.22785 0.00010201318   0.56730862  0.034258054            0   0.53305056    1.7957306    2.3630392    12.809188 
16235000    1.1680042 0.0001585525   0.67877384  0.087098446            0   0.59167539    1.7082061      2.38698    18.622756 
16240000    1.1766704 0.00014378583   0.67755928            0            0   0.67755928    1.7208804    2.3984397    17.122109 
16245000    1.2403369 7.323505e-05   0.59247181  0.005328709            0   0.58714311    1.8139927    2.4064645    9.9057336 
16250000    1.2571245 1.5448317e-05   0.53014814  0.035126792            0   0.49502134    1.8385445    2.3686927    3.9506004 
16255000    1.1107434 -5.296366e-05   0.76611472  0.032523227            0   0.73359149    1.6244623     2.390577   -3.0329018 
16260000    1.1901323 -0.00012237876   0.63064157 0.0034553179            0   0.62718625    1.7405685      2.37121   -10.160375 
16265000    1.0896894 -0.00012326452   0.77257476            0            0   0.77257476    1.5936708    2.3662456   -10.256042 
16270000    1.2188868 -2.5663507e-06   0.59412251            0            0   0.59412251    1.7826219    2.3767444    2.1139501 
16275000     1.235424 7.6757954e-05   0.59069743 0.00020802528            0    0.5904894    1.8068075     2.397505    10.257519 
16280000    1.2318055 8.7631157e-05   0.57703202 0.0029193187            0    0.5741127    1.8015156    2.3785476    11.351978 
16285000    1.2510397 8.939712e-05   0.57501164 0.0096913708            0   0.56532027    1.8296456    2.4046572    11.558922 
16290000    1.1975818 -3.0249328e-05   0.68192848  0.057603036            0   0.62432545    1.7514634    2.4333919  -0.66413927 
16295000     1.290914 -3.6002604e-06   0.54944716  0.026625616            0   0.52282154    1.8879617    2.4374088    2.0687422 
16300000    1.2286184 -2.2000258e-05   0.63426094  0.011785951            0   0.62247499    1.7968544    2.4311154   0.17828893 
16305000    1.2152427 -2.6634696e-05   0.64262388  0.027171435            0   0.61545244    1.7772925    2.4199164  -0.30747644 
16310000    1.3581251 -2.4462262e-05   0.43716045  0.019063677            0   0.41809677    1.9862579    2.4234184 -0.081517237 
16315000    1.1971122 -5.2630813e-05   0.63409496 0.0013691532            0   0.63272581    1.7507766    2.3848716   -3.0045236 
16320000    1.2347357 -9.5429392e-05   0.57391701 0.0002479616            0   0.57366905    1.8058009    2.3797179   -7.3922518 
16325000    1.2533085 -3.8712539e-05   0.54629207 0.0078183465            0   0.53847372    1.8329636    2.3792557   -1.5849083 
16330000    1.1945948 -1.9520607e-05   0.58641372  0.031914797            0   0.55449892    1.7470949    2.3335086    0.3345985 
16335000    1.2441027  2.10549e-05   0.53600017  0.032937454            0   0.50306272    1.8195002    2.3555004    4.5115221 
16340000    1.0956613 -5.4425109e-05   0.76209917  0.059240082            0   0.70285909    1.6024046    2.3645038   -3.2086274 
16345000    1.0907744 -0.00011572644   0.76484321 0.0063916606            0   0.75845154    1.5952575    2.3601007   -9.4902863 
16350000    1.1816976 -7.4669692e-05   0.65464319 0.0012763115            0   0.65336688    1.7282327    2.3828759   -5.2633005 
16355000    1.1758627 -4.5879915e-05   0.69538713 0.0019093347            0   0.69347779    1.7196993    2.4150864   -2.2830169 
16360000    1.2357481 1.5941429e-05   0.59660349 0.0011301701            0   0.59547332    1.8072817    2.4038852    4.0362875 
16365000    1.1975783 -6.9020737e-05   0.60641432 0.0089950549            0   0.59741926    1.7514583    2.3578726   -4.7098508 
16370000   0.98957566 -0.00016469723   0.93611348  0.037462848            0   0.89865063    1.4472544    2.3833679   -14.481628 
16375000    1.1178732 -5.5404013e-05   0.73139554  0.076377951            0   0.65501759    1.6348896    2.3662851   -3.3070858 
16380000    1.1304934 -3.6948697e-05   0.70966899 0.0070737506            0   0.70259524    1.6533466    2.3630156    -1.420531 
16385000    1.2618979 -7.3716769e-05   0.55505948 0.0091224009            0   0.54593708    1.8455257    2.4005852   -5.1480119 
16390000    1.1736675 -4.7813727e-05   0.65831369  0.011398501            0   0.64691519    1.7164887    2.3748024   -2.5213233 
16395000     1.209372 -2.7454609e-05   0.63305445 1.9822761e-06            0   0.63305247    1.7687065    2.4017609  -0.40959099 
16400000    1.1169315 0.00011903483   0.75136323            0            0   0.75136323    1.6335123    2.3848755    14.574042 
16405000    1.1453712 6.4382138e-06   0.72916034            0            0   0.72916034    1.6751054    2.4042657    3.0635388 
16410000    1.0856409 -0.00013419103   0.77706045            0            0   0.77706045    1.5877499    2.3648103   -11.376351 
16415000    1.0835974 -2.7806098e-05   0.78180535 0.0013762565            0   0.78042909    1.5847612    2.3665666  -0.48077785 
16420000    1.2245278 4.6058714e-05   0.58023225  0.022272045            0    0.5579602    1.7908719    2.3711041    7.0875165 
16425000    1.1433774 9.7957713e-05   0.66800935  0.014018999            0   0.65399035    1.6721895    2.3401988    12.371069 
16430000    1.1913793 0.00010150532   0.59956848 0.0037855869            0   0.59578289    1.7423922    2.3419607    12.736106 
16435000     1.071979 4.4797932e-05   0.73909085  0.029451653            0    0.7096392    1.5677693    2.3068602    6.8941684 
16440000    1.1700756 9.5752186e-05   0.58245777  0.023309448            0   0.55914833    1.7112356    2.2936934    12.098717 
16445000    1.0492267 0.00010660076   0.76176205  0.037029806            0   0.72473225    1.5344941    2.2962561    13.212174 
16450000    1.0349669 -4.9190794e-05   0.76395134  0.056943474            0   0.70700787     1.513639    2.2775904   -2.7595469 
16455000    1.1074623 3.2003038e-05   0.61697664  0.043443473            0   0.57353316    1.6196637    2.2366403    5.5137514 
16460000    1.0375396 7.1805754e-05   0.74830945 0.0022606118            0   0.74604884    1.5174017    2.2657111    9.6186203 
16465000    1.0613389 3.5112359e-06   0.68481322  0.035564241            0   0.64924898    1.5522081    2.2370214    2.5965719 
16470000    1.0683445 9.4857897e-05   0.71656869  0.039169333            0   0.67739936    1.5624539    2.2790225    11.992471 
16475000    1.0670289 -3.8703823e-05   0.77046423  0.018435796            0   0.75202843    1.5605297    2.3309939   -1.6322775 
16480000     1.251093 -4.1588023e-05   0.53101271 0.0037506093            0    0.5272621    1.8297235    2.3607362   -1.8978774 
16485000    1.1879305 3.1445496e-05   0.62724216 0.0066416972            0   0.62060046    1.7373484    2.3645905    5.5846094 
16490000    1.0501211 1.9867759e-05   0.79175611  0.037106435            0   0.75464968    1.5358021    2.3275582    4.3620167 
16495000    1.0848723 4.4864905e-05   0.72649444  0.028644788            0   0.69784966    1.5866258    2.3131202    6.9072865 
16500000    1.1599274 2.6901035e-05   0.61317425 0.0013094336            0   0.61186481    1.6963938    2.3095681    5.0642341 
16505000    1.0986566 -6.866593e-05   0.70498622 0.00020034944            0   0.70478587    1.6067853    2.3117716   -4.7196197 
16510000    1.2011601 -9.9043927e-05   0.59691864            0            0   0.59691864    1.7566967    2.3536153   -7.7884828 
16515000    1.2130929 1.4717319e-05   0.58994348            0            0   0.58994348    1.7741484    2.3640919    3.8711453 
16520000    1.1058985 1.1727983e-05   0.71553131 2.0562322e-05            0   0.71551074    1.6173765    2.3329078    3.5338533 
16525000    1.1301084 -4.2448368e-05   0.70048947 0.0090242997            0   0.69146517    1.6527835    2.3532729   -1.9934399 
16530000    1.1807638 -1.9423084e-08   0.66403824   0.04549994            0    0.6185383     1.726867    2.3909053    2.3889163 
16535000    1.0966596 9.0029244e-05   0.77867102  0.018959313            0   0.75971171    1.6038647    2.3825357     11.60153 
16540000    1.0358446 0.00010336881   0.86737773   0.03028118            0   0.83709654    1.5149228    2.3823005    12.967267 
16545000    1.1451649 0.00010953633   0.76468562  0.033648938            0   0.73103668    1.6748037    2.4394893     13.65601 
16550000    1.2111993 5.1975825e-05   0.69155136 0.0055175618            0    0.6860338    1.7713789    2.4629303    7.7852548 
16555000    1.1749265 -8.7767007e-05   0.70756586  0.031588304            0   0.67597756    1.7183301    2.4258959   -6.5614456 
16560000    1.1918157 -0.00014437254   0.68666081  0.012362926            0   0.67429788    1.7430305    2.4296913   -12.354057 
16565000    1.1979464 -0.00010934006   0.67508489 0.0035775976            0    0.6715073    1.7519967    2.4270816    -8.769341 
16570000    1.1933081 -3.9030976e-05   0.66202386 0.0087845597            0    0.6532393    1.7452131    2.4072369    -1.589535 
16575000    1.1898079 1.017467e-05   0.64828739  0.014250373            0   0.63403702     1.740094    2.3883814    3.4302676 
16580000    1.1230033 4.2350059e-05   0.70477196  0.014367479            0   0.69040448    1.6423924    2.3471643    6.6838103 
16585000    1.1190807 2.346915e-05   0.69365968  0.049742923            0   0.64391675    1.6366555    2.3303151    4.7335561 
16590000    1.0525299 1.3130691e-05   0.77922535  0.032331311            0   0.74689404    1.5393249    2.3185503     3.663133 
16595000    1.0401077 2.7954885e-06   0.82739696  0.063792704            0   0.76360425    1.5211575    2.3485544    2.6348125 
16600000   0.88291205 6.9836367e-05     1.027192    0.1002703            0   0.92692173    1.2912589    2.3184509    9.4696949 
16605000    1.0019866 9.4638569e-05   0.87712739  0.051788994            0   0.82533839    1.4654054    2.3425328    12.033522 
16610000    1.1093636 -1.491403e-05    0.7100236  0.047248174            0   0.66277543    1.6224443    2.3324679   0.80527124 
16615000   0.99674864 -0.00010833048   0.92324202  0.028815957            0   0.89442607    1.4577449    2.3809869   -8.7120541 
16620000    1.2356033 -4.9619211e-05   0.59037173  0.045598334            0   0.54477339    1.8070699    2.3974416   -2.6835656 
16625000     1.319598 -2.1848675e-06   0.45731798 0.0048167376            0   0.45250124    1.9299121    2.3872301    2.1634997 
16630000     1.224273 1.2977829e-05   0.57410471  0.039113189            0   0.53499152    1.7904993     2.364604    3.6935337 
16635000    1.1171987 2.8364312e-05   0.71107364  0.050231618            0   0.66084202    1.6339031    2.3449767    5.2494823 
16640000    1.0890782 4.7565914e-05   0.72479236 0.0052398985            0   0.71955246    1.5927769    2.3175692    7.1883189 
16645000   0.97186708 9.1743264e-05   0.89035403  0.035519694            0   0.85483434    1.4213556    2.3117096     11.70622 
16650000    1.0449294 6.6968871e-05   0.78612137  0.012177368            0   0.77394401    1.5282092    2.3143306     9.171943 
16655000     1.106376 1.4320667e-05   0.68597611 0.0010381143            0   0.68493799    1.6180749     2.304051    3.7704873 
16660000    1.1649776 -3.2360587e-05   0.57839239 8.1145001e-05            0   0.57831125    1.7037798    2.2821722   -1.0315519 
16665000    1.0403295 -3.2497101e-05   0.75868381 0.0048857737            0   0.75379803     1.521482    2.2801658   -1.0475374 
16670000    1.1336548 2.2956599e-05   0.58891187 0.0061909229            0   0.58272094    1.6579701     2.246882    4.5976377 
16675000     1.061621 9.5534291e-06    0.7412412 0.0052352158            0   0.73600599    1.5526207    2.2938619     3.272133 
16680000     1.009832 -5.9986011e-06   0.81746349  0.014928647            0   0.80253484    1.4768793    2.2943428     1.680086 
16685000    1.0803879 1.7760175e-05   0.71128355  0.015978262            0   0.69530529    1.5800673    2.2913508    4.1099927 
16690000   0.99064965 4.0729117e-05   0.85866231  0.033535972            0   0.82512633    1.4488251    2.3074874     6.478149 
16695000    1.1328385 3.9375813e-05   0.65917529  0.023492189            0    0.6356831    1.6567763    2.3159516    6.3480349 
16700000    1.1425617 -1.2546719e-05   0.64934666 0.0097366326            0   0.63961003    1.6709965    2.3203431    1.0355591 
16705000   0.95210759 9.5755229e-06   0.91801772  0.037039182            0   0.88097853    1.3924574    2.3104751    3.2910086 
16710000    1.1581313 6.7996328e-05   0.60433927  0.043295347            0   0.56104392    1.6937671    2.2981063    9.2609303 
16715000    1.2324873 7.7441233e-06   0.47991738 0.0088868561            0   0.47103052    1.8025127    2.2824301    3.0754283 
16720000    1.1158901 -8.0208113e-06    0.6868938 0.00023604059            0   0.68665776    1.6319892     2.318883    1.4975519 
16725000    1.0212444 -3.717004e-05   0.81939728 0.0063365676            0   0.81306071    1.4935699    2.3129672   -1.4932449 
16730000    1.0701314 -2.2323645e-05   0.72532748  0.013039865            0   0.71228761    1.5650672    2.2903947 0.0044534488 
16735000    1.1839708 7.5735734e-06   0.56141994  0.005529412            0   0.55589053    1.7315573    2.2929773    3.0685112 
16740000   0.97067176 2.1275271e-05   0.91937981  0.011415229            0   0.90796458    1.4196074    2.3389873     4.517575 
16745000    1.1190673 0.00011408321   0.73076564  0.016755842            0    0.7140098     1.636636    2.3674016    14.049522 
16750000     1.061127 1.7715153e-05   0.81001857  0.018806384            0   0.79121219    1.5518982    2.3619168    4.1759484 
16755000    1.0169127 -0.00011317036   0.87451247  0.035277169            0    0.8392353    1.4872348    2.3617472   -9.2268975 
16760000     1.136143 -5.708928e-06    0.6501064  0.013697055            0   0.63640934    1.6616092    2.3117156    1.7271213 
16765000    1.0854572 6.8085204e-06    0.7202186 8.8104169e-05            0    0.7201305    1.5874811    2.3076997    3.0048922 
16770000   0.96205869 6.1754895e-06   0.86624456 0.0020592828            0   0.86418527    1.4070108    2.2732554    2.9056255 
16775000    1.0461772 5.4903224e-05   0.76481191  0.079182932            0   0.68562898    1.5300342    2.2948461    7.9169363 
16780000    1.1446476 -3.1817253e-05   0.61867347  0.096662226            0   0.52201124    1.6740471    2.2927206  -0.96536611 
16785000    1.0584696 -6.5700662e-05    0.7623683  0.063723022            0   0.69864527    1.5480118    2.3103801   -4.4173676 
16790000    1.0073969 2.9857427e-05   0.87220011  0.067074538            0   0.80512557     1.473318    2.3455181    5.4029186 
16795000    1.1098891 -1.7256471e-05   0.72080197    0.0182459            0   0.70255607    1.6232129    2.3440148    0.5769522 
16800000    1.1772225 3.3774235e-05   0.62422784            0            0   0.62422784    1.7216879    2.3459158    5.8043975 
16805000    1.0364405 4.0474187e-05   0.87015527            0            0   0.87015527    1.5157942    2.3859495    6.5305063 
16810000    1.0879011 2.6633453e-06   0.75239761            0            0   0.75239761    1.5910554     2.343453    2.6161795 
16815000    1.2701947 9.0933523e-05   0.49171796            0            0   0.49171796    1.8576598    2.3493778    11.660971 
16820000    1.0162541 -2.9220666e-06   0.85457844            0            0   0.85457844    1.4862717    2.3408501    2.0416305 
16825000    1.1281031 -0.00010274055   0.71468599            0            0   0.71468599    1.6498508    2.3645368    -8.156095 
16830000    1.0651188 -8.1919059e-05   0.81477537 0.00019763604            0   0.81457773    1.5577362    2.3725115   -6.0160001 
16835000    1.0902922 -4.2343105e-05   0.80098661 0.0056372249            0   0.79534938    1.5945523     2.395539    -1.940395 
16840000    1.3440033 -6.0885311e-06   0.42882769  0.012260861            0   0.41656683    1.9656048    2.3944325    1.7709669 
16845000    1.1285261 5.0402706e-05   0.74641496  0.004355701            0   0.74205926    1.6504694    2.3968844    7.5581215 
16850000     1.113998 5.1520068e-05   0.75898425  0.033348782            0   0.72563547    1.6292221    2.3882063    7.6638613 
16855000    1.1303177 -1.9277705e-05   0.69763027  0.053783054            0   0.64384722    1.6530897    2.3507199   0.37668291 
16860000    1.1206731 -3.4978285e-05   0.75077794  0.026973165            0   0.72380478    1.6389843    2.3897623    -1.192014 
16865000    1.1870951 7.7180384e-06   0.63950072   0.01579044            0   0.62371028    1.7361265    2.3756273    3.1659544 
16870000    1.0888651 7.2789663e-05   0.80350589 0.0094942326            0   0.79401166    1.5924652    2.3959711    9.8496326 
16875000    1.0549066 4.9429256e-05   0.85497043 0.0051624082            0   0.84980802    1.5428009    2.3977713    7.4593271 
16880000    1.1821185 7.7638172e-05   0.71051222  0.031290736            0   0.67922149    1.7288483    2.4393605    10.389509 
16885000    1.1402975 -1.3250254e-05    0.7239794  0.077974182            0   0.64600522     1.667685    2.3916644    1.0348384 
16890000    1.1105576 -8.4456005e-05   0.73585391   0.05939191            0     0.676462    1.6241905    2.3600444   -6.2882505 
16895000    1.1172977 -5.1241495e-05   0.68612331  0.056091673            0   0.63003164    1.6340479    2.3201712   -2.9269579 
16900000    1.1276202 -1.9316609e-05   0.65879971  0.016516432            0   0.64228328    1.6491446    2.3079443   0.32992357 
16905000    1.2526439 -3.2959968e-05   0.51227755  0.018013919            0   0.49426363    1.8319916    2.3442692   -1.0308315 
16910000    1.1557263 -3.5786813e-05   0.66378404    0.0351625            0   0.62862154    1.6902497    2.3540338   -1.3105359 
16915000    1.2258316 5.8176491e-06   0.51505995  0.026687393            0   0.48837255    1.7927787    2.3078386    2.9035659 
16920000    1.1621648 -1.7924129e-05   0.63875944 0.0049876667            0   0.63377177     1.699666    2.3384255   0.50299467 
16925000    1.0809839 6.4057214e-05   0.70391971 0.0070051378            0   0.69691458    1.5809389    2.2848586    8.8443173 
16930000    1.1591138 5.1359149e-05   0.57106514  0.022131721            0   0.54893342    1.6952039    2.2662691    7.5254459 
16935000    1.1497023 -4.0877062e-05   0.60392408   0.15419867            0   0.44972541    1.6814396    2.2853637   -1.9004475 
16940000    1.0532701 -1.0256889e-05   0.75112122  0.064872566            0   0.68624866    1.5404076    2.2915288    1.2412234 
16945000    1.1536846 7.0037829e-05   0.57318934  0.014532897            0   0.55865644    1.6872637    2.2604531    9.4323267 
16950000    1.1698948 6.6410559e-05   0.58974262 0.0082716582            0   0.58147096    1.7109711    2.3007138     9.101155 
16955000    1.1716778  7.67433e-05   0.61127882 0.0013108378            0   0.60996798    1.7135788    2.3248576    10.183372 
16960000     1.235829 4.696745e-06   0.51863217  0.011460089            0   0.50717208       1.8074    2.3260321    2.8069788 
16965000    1.0744488 -0.00010457492   0.72680402  0.022054471            0   0.70474955    1.5713814    2.2981854   -8.4102866 
16970000    1.0942117 -0.00010686698    0.7441435 0.0097993159            0   0.73434418    1.6002846    2.3444281   -8.5987511 
16975000    1.3330878 -6.079801e-05   0.41917204  0.024667733            0    0.3945043    1.9496409    2.3688129   -3.8569033 
16980000    1.2700815 -3.5119372e-06   0.51169909  0.011742579            0   0.49995651    1.8574942    2.3691933     2.009571 
16985000    1.1561823 1.8489319e-05   0.63688627 0.0012955299            0   0.63559074    1.6909166    2.3278029    4.2211091 
16990000     1.233357 2.904879e-05   0.50079641 0.0098987188            0   0.49089769    1.8037846     2.304581    5.2791771 
16995000     1.130461 3.3162282e-07    0.6135811  0.021136955            0   0.59244414    1.6532992    2.2668803    2.3008385 
17000000    1.2334012 -2.7052238e-05   0.50606385  0.036411554            0    0.4696523    1.8038493    2.3099132  -0.46023596 
17005000    1.1837078 4.2367546e-05   0.58641743  0.033761178            0   0.55265625    1.7311726    2.3175901    6.6560268 
17010000    1.0633078 6.2056071e-05   0.76058371  0.042451508            0    0.7181322    1.5550877    2.3156714    8.6702131 
17015000    1.2867926 -6.0721549e-05   0.44582158  0.010564574            0   0.43525701    1.8819342    2.3277558   -3.8901309 
17020000    1.2014378 -5.9028698e-05    0.6178025  0.025844846            0   0.59195765    1.7571029    2.3749054   -3.6696333 
17025000    1.3192453 8.6322558e-05   0.40833581  0.063216119            0   0.34511969    1.9293963    2.3377321    11.177162 
17030000    1.2484536 8.741781e-05   0.49698719  0.023416752            0   0.47357043    1.8258635    2.3228506    11.274434 
17035000    1.1661347 -3.4354669e-05   0.55295037  0.025870023            0   0.52708034     1.705472    2.2584224   -1.2594957 
17040000    1.0974362 -8.5014825e-05   0.67196311  0.015053202            0   0.65690991    1.6050004    2.2769635   -6.4285546 
17045000    1.0687046 -7.8211867e-05   0.72701539 0.0077355374            0   0.71927986    1.5629805    2.2899959   -5.7188992 
17050000    1.1652202 -7.549876e-05   0.57776775  0.004214949            0    0.5735528    1.7041346    2.2819024   -5.4491707 
17055000    1.1739631 -7.6563678e-05   0.56923719 0.0028886661            0   0.56634853     1.716921    2.2861582   -5.5539624 
17060000    1.1772035 1.538983e-05    0.5253755  0.025762037            0   0.49961346    1.7216601    2.2470356    3.8229542 
17065000    1.2474156 7.168377e-05   0.47451455  0.022901886            0   0.45161266    1.8243453    2.2988598    9.6392778 
17070000    1.0749452 -2.4585678e-05   0.69477115  0.022489603            0   0.67228154    1.5721073    2.2668784    -0.250695 
17075000    1.1800946 -8.5553248e-05   0.50852447  0.040262748            0   0.46826172    1.7258883    2.2344128   -6.5262398 
17080000    1.1813157 4.1369338e-07   0.56164318  0.034440768            0   0.52720241    1.7276742    2.2893174    2.3316796 
17085000    1.1553874 8.2653336e-05   0.63628392  0.071526724            0    0.5647572    1.6897541     2.326038     10.78974 
17090000    1.2262668 9.4105175e-05    0.5530726  0.039160067            0   0.51391254    1.7934153    2.3464879    11.982858 
17095000    1.1594715 7.7490126e-05   0.64343055  0.020356068            0   0.62307448    1.6957271    2.3391577    10.274147 
17100000    1.1529439 5.5236906e-05   0.69703563  0.010070525            0   0.68696511    1.6861804     2.383216    8.0394752 
17105000    1.1777135 1.7049252e-05   0.66475303  0.015686387            0   0.64906665     1.722406     2.387159    4.1330024 
17110000    1.1319509 -8.4735336e-07   0.67119512   0.02499259            0   0.64620253    1.6554781    2.3266732    2.2399043 
17115000    1.1597957 4.8100025e-05   0.60801756  0.019324777            0   0.58869279    1.6962012    2.3042188    7.2296613 
17120000    1.2822862 2.2423167e-05   0.45080286  0.022494491            0   0.42830837    1.8753435    2.3261464    4.6222787 
17125000    1.1636098 7.2688045e-05   0.61577593  0.038117609            0   0.57765832    1.7017794    2.3175553    9.7608111 
17130000    1.1218379 1.0975856e-05   0.65030489  0.073802834            0   0.57650205    1.6406879    2.2909928    3.4149205 
17135000    1.1008006 -9.8408084e-05   0.66961153  0.067603846            0   0.60200769    1.6099208    2.2795324   -7.7974554 
17140000    1.1246931 2.5240199e-05   0.59899578  0.045226169            0   0.55376961    1.6448637    2.2438595    4.8284558 
17145000    1.1063574 6.176411e-05   0.65111501  0.060998096            0   0.59011692    1.6180477    2.2691627    8.5938076 
17150000    1.0188923 6.0002311e-05   0.76713763  0.043036476            0   0.72410116    1.4901299    2.2572676    8.4015042 
17155000    1.1714787 9.6569165e-05    0.5412363  0.021631848            0   0.51960445    1.7132876    2.2545239    12.143206 
17160000    1.1777206 9.4613244e-06   0.54473734 0.0089811732            0   0.53575617    1.7224164    2.2671537    3.2359933 
17165000    1.1173009 -3.7116477e-05   0.61544585  0.021806439            0   0.59363941    1.6340526    2.2494985   -1.5512287 
17170000    1.0814821 3.5518694e-05   0.65582184  0.034700814            0   0.62112103    1.5816675    2.2374894    5.8746036 
17175000    1.1262481 3.8691515e-05   0.56283481  0.022487078            0   0.54034774    1.6471378    2.2099727    6.1719838 
17180000    1.0751532 -9.1230375e-05    0.6376128 0.0070489323            0   0.63056387    1.5724115    2.2100243   -7.1319661 
17185000    1.1292358 -5.5357577e-05   0.58472526  0.017239477            0   0.56748578    1.6515074    2.2362326   -3.4323832 
17190000    1.1021583 5.1070732e-06   0.64182979 0.0059567563            0   0.63587303    1.6119065    2.2537363    2.7767006 
17195000    1.1218941 -2.194404e-06   0.62263765 0.0075667966            0   0.61507086    1.6407701    2.2634078    2.0387008 
17200000    1.2245934 8.3194384e-06   0.54703203  0.030611744            0   0.51642029    1.7909679    2.3379999    3.1899104 
17205000    1.2342471 -5.8683696e-05   0.56234105  0.022829546            0   0.53951151    1.8050863    2.3674274   -3.6417831 
17210000    1.2010252 -5.503609e-05   0.59132832  0.014462509            0   0.57686581    1.7564994    2.3478277   -3.2878679 
17215000    1.2001051 -6.0169082e-06   0.59395183  0.016169692            0   0.57778214    1.7551537    2.3491055    1.7329741 
17220000    1.1896285 5.0441471e-06   0.58085521  0.012902737            0   0.56795247    1.7398317    2.3206869    2.8372076 
17225000    1.1464425 2.0023668e-06   0.66157172 0.0010863495            0   0.66048537    1.6766722    2.3382439    2.5432863 
17230000    1.2152051 2.3006642e-05   0.58699857 0.0029639329            0   0.58403464    1.7772375    2.3642361    4.7201162 
17235000    1.1398595 1.8757309e-05   0.67724508  0.031742443            0   0.64550263    1.6670445    2.3442896    4.2650381 
17240000    1.1987842 2.3610252e-05   0.59500264  0.021399601            0   0.57360304    1.7532219    2.3482245    4.7659144 
17245000    1.1855877  -5.5264e-05   0.58851287  0.010752991            0   0.57775988    1.7339219    2.3224348   -3.3365988 
17250000    1.1554631 -0.00012148865   0.59383471 0.00040124587            0   0.59343347    1.6898648    2.2836995   -10.156738 
17255000    1.1975806 -3.4439006e-05   0.53055869            0            0   0.53055869    1.7514616    2.2820203   -1.2445339 
17260000    1.2825978 2.0477814e-05    0.4220017            0            0    0.4220017    1.8757993     2.297801    4.3947291 
17265000    1.1841608 3.2118386e-05    0.5338113 0.0047291494            0   0.52908215    1.7318351    2.2656464    5.5545691 
17270000    1.1544029 5.5227681e-05   0.57384825  0.032877956            0   0.54097029    1.6883142    2.2621624     7.917477 
17275000   0.97076547 1.1961175e-05    0.8487122  0.052662362            0   0.79604984    1.4197445    2.2684567    3.4932811 
17280000    1.0567571 -3.3291677e-05   0.70509056  0.022422139            0   0.68266842    1.5455072    2.2505978     -1.15847 
17285000    1.2280744 -2.6143275e-06   0.50696443 0.0046025379            0   0.50236189    1.7960588    2.3030232    2.0353161 
17290000    1.1370542 1.5642604e-05   0.65221911  0.051528601            0   0.60069051    1.6629417    2.3151608    3.9169635 
17295000    1.1241764 1.6227871e-05   0.58730469  0.060927903            0   0.52637679     1.644108    2.2314127    3.8931467 
17300000    1.0411986 0.00011897026    0.7147613  0.042134409            0   0.67262689     1.522753    2.2375142    14.420069 
17305000    1.0554686 9.7760864e-05   0.66654952  0.011153063            0   0.65539646    1.5436229    2.2101724    12.220885 
17310000    1.1090886 -2.8739221e-05   0.60594659  0.018232206            0   0.58771438     1.622042    2.2279886  -0.71490759 
17315000    1.0713709 7.2007025e-06   0.64165352  0.025841318            0    0.6158122      1.56688    2.2085335    2.9458854 
17320000    1.0889943 5.6178377e-05   0.61054725 0.0064361514            0    0.6041111    1.5926541    2.2032013    7.9558672 
17325000    1.1289822 -1.8210116e-05   0.56285624 0.0024128461            0   0.56044339    1.6511365    2.2139927   0.34927691 
17330000    1.1324055 -1.2508878e-05   0.53648498 0.0013995209            0   0.53508546     1.656143     2.192628   0.91171887 
17335000    1.1175566 1.4247562e-05   0.55667608 1.5978636e-05            0    0.5566601    1.6344265    2.1911026    3.6500529 
17340000    1.1705114 -2.9313996e-05   0.49796624            0            0   0.49796624    1.7118729    2.2098391  -0.79191409 
17345000    1.0509957 1.6002655e-05   0.64239037 0.0014275819            0   0.64096279    1.5370812    2.1794715    3.8181434 
17350000   0.93185829 8.3591873e-06    0.8457991  0.064669519            0   0.78112958    1.3628428    2.2086419    3.0646226 
17355000    1.0619162 1.0804587e-05   0.65255665  0.063413123            0   0.58914353    1.5530524    2.2056091    3.3119987 
17360000    1.1780224 7.4070331e-05    0.5096655     0.011406            0    0.4982595    1.7228578    2.2325233    9.8173252 
17365000    1.0646574 7.4741516e-05   0.65223048 0.0039856085            0   0.64824487    1.5570614    2.2092919    9.8628231 
17370000    1.0691993 -5.8475767e-05   0.61465973 0.00062476246            0   0.61403497     1.563704    2.1783637   -3.8095548 
17375000    1.0872251 -2.8372242e-05   0.57771868 0.00010490486            0   0.57761377    1.5900667    2.1677853  -0.73753219 
17380000    1.2273142 -6.3900499e-05   0.36666326 2.0383069e-06            0   0.36666122     1.794947    2.1616103   -4.3818008 
17385000    1.0683671 -4.3478447e-06   0.62856175  0.000704054            0    0.6278577     1.562487    2.1910487    1.7458294 
17390000    1.0462784 8.6259441e-06    0.6586272  0.030736336            0   0.62789086    1.5301822    2.1888094    3.0721061 
17395000   0.98227181 3.2459331e-05    0.7584827  0.041257524            0   0.71722517    1.4365725    2.1950552    5.5188907 
17400000     1.054428 4.4428047e-05    0.6579002  0.043246309            0   0.61465389     1.542101    2.2000012    6.7494332 
17405000    1.1062608 -4.253877e-06   0.56524166  0.013718771            0   0.55152289    1.6179064     2.183148     1.747551 
17410000    1.1702275 -4.4320884e-05     0.477193 0.0035512709            0   0.47364173    1.7114577    2.1886507   -2.3498078 
17415000     1.066291 -0.00011633635   0.63171678 0.0019395441            0   0.62977724    1.5594506    2.1911673   -9.7216753 
17420000     1.076483 -2.0393452e-05   0.62603675  0.041882981            0   0.58415377    1.5743564    2.2003932   0.11210367 
17425000    1.1783182 2.4071026e-05   0.48641784  0.035298415            0   0.45111942    1.7232904    2.2097082    4.6745813 
17430000    1.0448555 2.9853966e-05   0.69486642 0.0023744585            0   0.69249196    1.5281011    2.2229675    5.2800136 
17435000    1.0124881 -4.4973301e-05   0.68356521   0.03427113            0   0.64929408    1.4807638     2.164329    -2.440937 
17440000    1.0785838 1.3402659e-05    0.6098932  0.050705824            0   0.55918737    1.5774288     2.187322    3.5597543 
17445000    1.1890954 6.7544937e-05   0.48107249   0.02766772            0   0.45340477     1.739052    2.2201245     9.136726 
17450000    1.0751027 8.9757975e-05    0.6622168 0.0034830306            0   0.65873377    1.5723377    2.2345545    11.425771 
17455000    1.1489312 0.00010166267   0.56993237 0.0047137769            0   0.56521859    1.6803119    2.2502443    12.660501 
17460000    1.1702102 2.7678492e-05   0.57050586  0.049824336            0   0.52068153    1.7114324    2.2819382    5.1162158 
17465000    1.0354388 9.774478e-06   0.76153411   0.13710267            0   0.62443144    1.5143292    2.2758633    3.2767699 
17470000    1.1231056 -4.9380362e-05   0.65089303  0.081701508            0   0.56919153     1.642542     2.293435    -2.763114 
17475000    1.0158338 5.3319565e-05   0.80766058  0.036645985            0    0.7710146     1.485657    2.2933176     7.753241 
17480000    1.0953911 -8.8751653e-06   0.75035762  0.065502863            0   0.68485476    1.6020095    2.3523671    1.4435502 
17485000    1.2944596  7.23131e-07   0.46567736  0.014537909            0   0.45113946    1.8931471    2.3588245    2.4328731 
17490000    1.0682585 2.4888216e-05   0.79915094 0.0013647299            0   0.79778621     1.562328     2.361479    4.9100323 
17495000     1.206701 -2.1783808e-05   0.57646882  0.022621664            0   0.55384715    1.7648002     2.341269   0.11060704 
17500000    1.2010147 -3.8699913e-05   0.58303055  0.040470915            0   0.54255963     1.756484    2.3395146   -1.6233565 
17505000   0.99759451 4.680099e-05   0.80179999  0.086438142            0   0.71536184     1.458982     2.260782    7.0532033 
17510000    1.1287664 0.00013202141   0.60103213  0.073683083            0   0.52734905    1.6508209    2.2518531    15.770845 
17515000    1.1157999 5.3275469e-06   0.66068156 0.0081246825            0   0.65255687    1.6318573    2.2925389    2.8380797 
17520000    1.1139182 -6.3936894e-05    0.6629304 0.0057914112            0   0.65713899    1.6291054    2.2920358   -4.2551022 
17525000    1.2147294 1.8022787e-05   0.46695628 0.0068393606            0   0.46011692    1.7765418     2.243498    4.0890314 
17530000    1.0083622 5.5267733e-05    0.6976278 0.0022034986            0    0.6954243    1.4747298    2.1723576    7.8317734 
17535000    1.0231392 1.4524153e-05   0.67251529  0.010073505            0   0.66244179    1.4963411    2.1688564    3.6561297 
17540000    1.2086791 -5.3818074e-06   0.39765611  0.020712072            0   0.37694404    1.7676932    2.1653493    1.6142522 
17545000    1.0763282 -6.9853876e-06   0.58663136 0.0038296021            0   0.58280176      1.57413    2.1607614    1.4454577 
17550000    1.0864924 3.2473717e-05   0.59137975 0.0033907922            0   0.58798895    1.5889952    2.1803749    5.5056835 
17555000    1.1046561 9.2748371e-05   0.60040942  0.013472606            0   0.58693682    1.6155596     2.215969    11.713402 
17560000     1.101429 9.0432695e-05   0.57950293  0.015554202            0   0.56394872      1.61084    2.1903429    11.450651 
17565000    1.2025054 6.8202154e-05   0.48236425  0.010357189            0   0.47200706    1.7586642    2.2410284    9.2249289 
17570000    1.0290485 -1.9760797e-05   0.73654174  0.005925466            0   0.73061627    1.5049835    2.2415252   0.21801962 
17575000    1.0867025 -5.9969975e-05   0.70686821  0.020554029            0   0.68631418    1.5893024    2.2961706   -3.8447548 
17580000    1.2132274 3.0428512e-05   0.50442582  0.035946969            0   0.46847885    1.7743451    2.2787709    5.3946506 
17585000    1.2281499 3.2927024e-05    0.5270035  0.030911968            0   0.49609153    1.7961692    2.3231727    5.6948999 
17590000    1.1783169 -6.0623974e-05    0.6151329  0.061485698            0    0.5536472    1.7232885    2.3384214   -3.8694735 
17595000    1.1376477 -7.7671279e-05   0.61301065  0.026689109            0   0.58632154    1.6638098    2.2768204   -5.6767185 
17600000    1.1494661 -8.5600656e-05   0.63679515  0.001592251            0    0.6352029    1.6810942    2.3178894   -6.4476178 
17605000    1.1943566 -0.00015391379   0.57026803 0.0020648191            0   0.56820321    1.7467465    2.3170145   -13.443758 
17610000     1.099709 -9.9567716e-05   0.70545834  0.025099784            0   0.68035855    1.6083244    2.3137828   -7.8819514 
17615000    1.1711457 -1.5831379e-05   0.66077481  0.013849773            0   0.64692504    1.7128005    2.3735753   0.75244218 
17620000    1.1927475 -9.3431739e-05   0.62503358 0.0098001175            0   0.61523347    1.7443932    2.3694268   -7.1979832 
17625000    1.2227588 -0.00013449066   0.58777511  0.021561261            0   0.56621385    1.7882848    2.3760599   -11.395783 
17630000    1.2816019 -1.9004681e-05   0.47692078 0.0053242563            0   0.47159652    1.8743428    2.3512635   0.40518424 
17635000    1.0926413 0.00010564093   0.75421155 0.0088867099            0   0.74532484    1.5979879    2.3521995    13.169831 
17640000    1.1601448 7.2151057e-05   0.64954176  0.067148661            0    0.5823931    1.6967118    2.3462536    9.7345218 
17645000    1.2469173 -1.1745057e-05   0.47726243  0.060385325            0   0.41687711    1.8236166     2.300879    1.0981852 
17650000    1.0540345 -1.1806724e-05   0.74972787  0.035406621            0   0.71432125    1.5415254    2.2912533    1.0822447 
17655000   0.91702218 -6.0266537e-05   0.94667614  0.072960575            0   0.87371556    1.3411449    2.2878211   -3.8834724 
17660000    1.1774525 -1.5814097e-05   0.49909451  0.010339109            0    0.4887554    1.7220243    2.2211188   0.60175528 
17665000    1.1435606 -2.7907744e-05   0.55013749            0            0   0.55013749    1.6724574    2.2225949  -0.63515815 
17670000    1.1677454 1.1219008e-05   0.50096139 0.0061853517            0   0.49477604    1.7078277    2.2087891    3.3576155 
17675000    1.0023143 8.4426663e-05   0.73837349  0.025857606            0   0.71251589    1.4658847    2.2042582    10.849548 
17680000    1.0273266 7.7165125e-05   0.72912882  0.004095071            0   0.72503374    1.5024651    2.2315939    10.133303 
17685000    1.0673179 4.4905403e-06   0.64221116 0.00050610613            0   0.64170505    1.5609524    2.2031635    2.6629949 
17690000    1.1224939 -1.8716663e-05   0.57026192  0.031043623            0    0.5392183    1.6416473    2.2119092    0.2953229 
17695000    1.1788124 3.9531939e-05   0.41515059  0.070565774            0   0.34458481    1.7240132    2.1391638    6.1872343 
17700000    1.1429776 -2.4768528e-05   0.46798549  0.033461939            0   0.43452355    1.6716047    2.1395902  -0.39670701 
17705000    1.0063368 -4.8801629e-05   0.62782746   0.01200261            0   0.61582485    1.4717676     2.099595   -2.8976918 
17710000    1.0829719 7.0022787e-05   0.51707749    0.0462376            0   0.47083989    1.5838464    2.1009239    9.2712572 
17715000    1.0237743 4.3411259e-06   0.57048258  0.090435097            0   0.48004748    1.4972699    2.0677525    2.5122838 
17720000    1.0501986 -5.1230879e-05   0.51322023  0.017054476            0   0.49616576    1.5359154    2.0491356   -3.1969064 
17725000    1.0940849 3.6715094e-05   0.42665804 0.00055505177            0   0.42610298    1.6000991    2.0267571    5.7863828 
17730000    1.0554703 1.365342e-05   0.53211012 3.2848258e-05            0   0.53207727    1.5436253    2.0757354    3.4738456 
17735000    1.0878618 1.8617866e-05    0.4836509            0            0    0.4836509    1.5909979    2.0746488    3.9811183 
17740000    1.0165797 3.0247351e-05   0.58634415            0            0   0.58634415    1.4867477    2.0730919    5.1704207 
17745000    1.1139714 -7.7862185e-06   0.43886418 0.0024419391            0   0.43642224    1.6291831    2.0680473    1.2707386 
17750000   0.98860067 -5.0261089e-05   0.62984273  0.026852387            0   0.60299034    1.4458285    2.0756712   -3.0710643 
17755000    1.0465663 -2.6847478e-05   0.52301386  0.055138528            0   0.46787533    1.5306032     2.053617  -0.69556471 
17760000    1.1632695 5.2091294e-05   0.35287756 0.0083142129            0   0.34456335    1.7012816    2.0541592    7.3883077 
17765000     1.044003 3.840126e-05   0.49499492 0.0026141188            0    0.4923808    1.5268543    2.0218493    5.9541383 
17770000     1.061252 5.3717887e-06   0.47381266  0.028777078            0   0.44503559    1.5520811    2.0258938    2.5759649 
17775000   0.92150194 4.4218527e-05   0.66319095  0.025736111            0   0.63745484    1.3476966    2.0108875    6.5388647 
17780000   0.93288255 7.0566099e-05   0.60826437  0.021432121            0   0.58683224    1.3643407    1.9726051    9.1985736 
17785000    1.0060663 4.4627625e-07    0.5244627  0.012065714            0   0.51239698    1.4713719    1.9958346    2.0415333 
17790000   0.97192717 2.0202421e-05   0.51377824 0.0031666979            0   0.51061154    1.4214435    1.9352217    4.0039496 
17795000    1.0100958 4.0992096e-06   0.46025973  0.002090751            0   0.45816898     1.477265    1.9375248    2.3572838 
17800000    1.0233773 -8.1770035e-05   0.47121884 0.0058173063            0   0.46540153    1.4966894    1.9679082   -6.4053434 
17805000    1.0823253 -8.1134979e-05   0.42389843 0.0037655732            0   0.42013286    1.5829008    2.0067992   -6.3014227 
17810000    1.0566626 -4.8539279e-05   0.43715278 0.0067515827            0   0.43040119    1.5453691    1.9825219   -2.9879003 
17815000   0.99107282 -5.0540851e-05   0.49973661  0.011545121            0   0.48819149     1.449444    1.9491806   -3.2262025 
17820000   0.96482513 -5.4804304e-05   0.50168743 0.0021751115            0   0.49951232    1.4110568    1.9127442   -3.6992166 
17825000    1.0185437 -5.7552107e-05   0.41974532 0.0012214246            0    0.4185239    1.4896201    1.9093654   -3.9839703 
17830000   0.97455025 -1.5342808e-05   0.48054935 0.00023329551            0   0.48031605    1.4252797    1.9058291   0.33472558 
17835000   0.95938832 4.9183775e-06   0.54836893            0            0   0.54836893    1.4031054    1.9514744    2.4551162 
17840000    1.0288865 -8.5567527e-05   0.41387504 0.0001374552            0   0.41373758    1.5047465    1.9186216   -6.8434932 
17845000   0.99689707 -7.4032761e-05   0.44117002 0.0026175102            0   0.43855251     1.457962     1.899132   -5.6818227 
17850000   0.97990842 -8.3852072e-07    0.4941535 0.0038541402            0   0.49029936    1.4331161    1.9272696    1.8414051 
17855000   0.99144338 -1.4610856e-06   0.53422107 0.0043030487            0   0.52991802    1.4499859     1.984207    1.8345918 
17860000    1.0987496 -4.9581336e-05   0.37463337 0.0092589992            0   0.36537437    1.6069213    1.9815547   -3.0955741 
17865000   0.96066496 -1.6780761e-05   0.56807912   0.04553091            0   0.52254821    1.4049725    1.9730516   0.25470174 
17870000   0.97924864 5.2389305e-05   0.54990333  0.042365862            0   0.50753747    1.4321511    1.9820545    7.3467193 
17875000   0.94768636 3.7745929e-05   0.60933606 0.0079885924            0   0.60134746    1.3859913    1.9953274    5.8605105 
17880000    1.0536347 1.5368823e-06   0.51505155 0.0084836661            0   0.50656788    1.5409407    2.0559923     2.213369 
17885000   0.93683325 -2.883396e-05   0.67998194  0.037145858            0   0.64283609    1.3701186    2.0501006  -0.90249698 
17890000     1.020834 6.5633039e-06   0.61461651  0.072200449            0   0.54241606    1.4929697    2.1075863    2.7796686 
17895000    1.0901454 1.8659748e-05   0.52974474  0.056772141            0    0.4729726    1.5943377    2.1240824    4.0348406 
17900000    1.1161487 -2.9879969e-05   0.51156546  0.031584192            0   0.47998127    1.6323675     2.143933  -0.91577586 
17905000   0.98822794 -5.0067887e-05   0.67403332 0.0029875995            0   0.67104572    1.4452834    2.1193167   -3.0076349 
17910000    1.0456917 1.605344e-05    0.5381812 0.00015169128            0   0.53802951    1.5293241    2.0675053    3.7113775 
17915000    1.1234037 1.9881733e-05   0.40183213 0.00026124368            0   0.40157088     1.642978    2.0448101    4.0806995 
17920000    1.0623368 -3.1852353e-05   0.52687384 0.00033448653            0   0.52653936    1.5536676    2.0805415   -1.1811394 
17925000    1.0461352 -4.9059841e-05   0.51722601 0.00025476862            0   0.51697125    1.5299728    2.0471988   -2.9765289 
17930000    1.1041995 2.3227906e-05   0.45495654 0.0035714468            0    0.4513851    1.6148917    2.0698483    4.4483858 
17935000    1.0789746 4.8307414e-05   0.46423151  0.013006318            0   0.45122519    1.5780004    2.0422319    6.9889112 
17940000    1.0605114 -3.2026284e-05   0.47571021  0.027993658            0   0.44771656    1.5509979    2.0267082   -1.2527833 
17945000   0.92058109 -3.9369317e-05   0.67280322   0.04854793            0   0.62425529    1.3463498    2.0191531    -2.012265 
17950000    1.0896451 2.7416126e-06   0.40340985  0.011112109            0   0.39229774     1.593606    1.9970159     2.277757 
17955000    1.1134704 2.0276805e-05   0.36794036 0.0027110812            0   0.36522928    1.6284505    1.9963909    4.0727357 
17960000   0.96286406 -3.1630297e-06   0.54439121  0.048643661            0   0.49574755    1.4081887    1.9525799    1.6286857 
17965000    0.9166808 -1.4612572e-05   0.62572517  0.043854359            0   0.58187081    1.3406457    1.9663708   0.47004343 
17970000   0.94712833 -2.9124233e-05   0.59750443  0.009156451            0   0.58834798    1.3851752    1.9826796  -0.99964186 
17975000    1.0493273 2.104562e-05   0.45262812  0.066989684            0   0.38563844    1.5346412    1.9872693    4.1423408 
17980000    1.0386473 3.5824309e-05   0.46730958  0.062614535            0   0.40469505    1.5190216    1.9863312    5.6547404 
17985000     1.034263 2.2519945e-05   0.49575539  0.034255081            0   0.46150031    1.5126097    2.0083651    4.3144075 
17990000     1.023956 1.1069515e-05   0.48681783  0.022516573            0   0.46430126    1.4975357    1.9843535    3.1178719 
17995000   0.87383104 1.8708533e-05   0.68577915  0.093566015            0   0.59221314    1.2779779    1.9637571    3.8795109 
18000000   0.95930383 2.3787023e-05   0.51993454  0.084604385            0   0.43533016    1.4029818    1.9229164    4.3587075 
18005000    1.0535734 2.1995478e-05   0.39458098  0.011432209            0   0.38314877    1.5408511     1.935432     4.187769 
18010000   0.96096302 1.3609755e-05   0.55007411 0.00070289066            0   0.54937122    1.4054084    1.9554825    3.3491214 
18015000    0.9494835 -9.5811568e-06   0.56488798  0.016920493            0   0.54796749    1.3886196    1.9535076   0.97239716 
18020000   0.87868737 5.2429837e-06   0.66320232  0.046296762            0   0.61690556    1.2850803    1.9482826    2.4851641 
18025000   0.96935251 2.8693597e-05   0.51860048  0.050524567            0   0.46807591     1.417678    1.9362785    4.8745029 
18030000   0.89316337 1.964248e-05   0.60439664  0.034672665            0   0.56972397    1.3062514    1.9106481     3.922038 
18035000   0.96834649 3.0504526e-05   0.48703934 0.0047680433            0   0.48227129    1.4162067    1.9032461    5.0269096 
18040000    1.0798432 -7.1620031e-06    0.3340554 0.00068219371            0   0.33337321    1.5792707    1.9133261     1.179937 
18045000    1.0130039 -1.4538141e-05   0.42285099  0.024817307            0   0.39803369    1.4815182    1.9043692   0.41566358 
18050000   0.98288656 5.0998565e-06   0.47033737  0.074461937            0   0.39587543    1.4374716     1.907809    2.4300343 
18055000   0.91528678 -1.0723231e-05   0.53299087   0.11534308            0    0.4176478    1.3386069    1.8715978   0.77353891 
18060000   0.95296861 2.7320311e-05   0.52959134    0.1214114            0   0.40817994    1.3937166    1.9233079    4.7209077 
18065000   0.95728609 3.5236314e-06    0.4898645  0.023299059            0   0.46656544    1.4000309    1.8898954    2.2507153 
18070000    0.9442329 3.7726148e-05    0.5216758 0.0044647893            0   0.51721101    1.3809406    1.9026164     5.765774 
18075000     0.924529 8.5426136e-05   0.56932418  0.033088016            0   0.53623616    1.3521237    1.9214478    10.669084 
18080000   0.99752967 0.0001005669   0.44815335  0.019444125            0   0.42870923    1.4588871    1.9070405    12.205091 
18085000   0.92646527 9.4383671e-05   0.55551892 0.0084833354            0   0.54703558    1.3549555    1.9104744    11.575362 
18090000    0.9341584 5.5613646e-05   0.57931899  0.022253334            0   0.55706565    1.3662067    1.9455256     7.640363 
18095000     1.004768 2.1714423e-05   0.51664438  0.046143403            0   0.47050098    1.4694732    1.9861176    4.2096745 
18100000   0.96898799 -4.7727505e-05   0.64112924  0.032591127            0   0.60853811    1.4171449    2.0582742   -2.8290223 
18105000    1.0696014 -3.7914026e-05   0.51227442  0.029451061            0   0.48282336    1.5642921    2.0765665   -1.8058298 
18110000     1.138849 -8.2016411e-06   0.44250128  0.020552721            0   0.42194856    1.6655667    2.1080679    1.2682199 
18115000    1.1185876 3.4559289e-05   0.45415022  0.014154171            0   0.43999605    1.6359344    2.0900846    5.6289557 
18120000    1.0045662 4.1044216e-06   0.62070985  0.020903877            0   0.59980597    1.4691781    2.0898879    2.5101807 
18125000    1.0279787 6.7533084e-06   0.59118429  0.060289447            0   0.53089484    1.5034188    2.0946031    2.7861419 
18130000    1.1679641 -1.4005343e-05   0.41507608  0.035680983            0   0.37939509    1.7081475    2.1232236   0.68907649 
18135000    1.1081152 -7.3114229e-05   0.50892855 0.0039539675            0   0.50497458    1.6206185    2.1295471     -5.35735 
18140000    1.0126998 -6.8200625e-07   0.67377849 0.0023855514            0   0.67139294    1.4810734    2.1548519    2.0850145 
18145000     1.079251 -1.866312e-05   0.55216579 0.0084919956            0   0.54367379    1.5784046    2.1305704   0.21946697 
18150000    1.2329865 -2.0858022e-06   0.28618398  0.010761799            0   0.27542218    1.8032428    2.0894268    1.8758406 
18155000    1.1308206 -5.5676531e-05   0.49218359  0.020615366            0   0.47156823    1.6538251    2.1460087   -3.5552681 
18160000    1.0450062 -9.4522407e-05   0.62839605   0.05028242            0   0.57811363    1.5283216    2.1567176   -7.5223769 
18165000    1.1726161 3.9748502e-06   0.42906093  0.035654342            0   0.39340659     1.714951     2.144012    2.5510366 
18170000    1.2051363 9.4921945e-05   0.37647724 0.0092725209            0   0.36720471    1.7625119    2.1389891    11.858996 
18175000    1.1495896 0.00010954423   0.48977271 0.0068804183            0   0.48289229    1.6812747    2.1710474    13.388377 
18180000    1.1557573 1.0007448e-05   0.47663665 0.00080681689            0   0.47582984     1.690295    2.1669317    3.1916943 
18185000    1.2001619 2.0487477e-05   0.40861779 0.00027759805            0   0.40834019    1.7552368    2.1638545    4.2617721 
18190000    1.1863288 4.3091671e-05   0.44049641            0            0   0.44049641    1.7350059    2.1755023    6.5880894 
18195000    1.0326909 -6.2149818e-05   0.64752359 0.0025220721            0   0.64500152    1.5103104     2.157834   -4.2063074 
18200000    1.1390723 -2.6849704e-05   0.50789877 0.0098825511            0   0.49801622    1.6658932    2.1737919  -0.57561779 
18205000    1.2575623 -1.7036486e-05   0.38910722 0.0097215147            0    0.3793857    1.8391849    2.2282921   0.48375597 
18210000    1.2798444 1.1400873e-05   0.36212434  0.011082616            0   0.35104172    1.8717724    2.2338967    3.4013461 
18215000     1.207318 4.4604066e-05    0.4803832 0.0074490941            0   0.47293411    1.7657026    2.2460858    6.8135422 
18220000    1.1453154 2.3366774e-05   0.58504976 0.0042177299            0   0.58083203    1.6750238    2.2600735    4.6528312 
18225000     1.140631 7.2568061e-05   0.61833216   0.10287002            0   0.51546214    1.6681729     2.286505    9.7174745 
18230000    1.1829059 -2.6411677e-05   0.57083686   0.13237999            0   0.43845687    1.7299999    2.3008368  -0.40371895 
18235000    1.2474831 -4.6536624e-05   0.47694316  0.053728145            0   0.42321501     1.824444    2.3013872   -2.4639631 
18240000    1.1590367 -2.7746954e-05   0.59321114  0.027636427            0   0.56557471    1.6950912    2.2883023  -0.55298573 
18245000    1.2697476 -5.5373999e-05    0.4678337  0.026614334            0   0.44121937    1.8570059    2.3248396   -3.3454579 
18250000    1.1775782 -7.4843683e-05   0.62731977 0.0025837033            0   0.62473607     1.722208    2.3495278   -5.3144653 
18255000    1.2754469 -7.4794226e-06   0.44863902            0            0   0.44863902    1.8653411    2.3139802    1.5480873 
18260000    1.2783021 -6.6138083e-07   0.40783609 0.0036520884            0     0.404184    1.8695169    2.2773529    2.2096275 
18265000    1.1775464 -4.1514323e-06   0.57492382  0.029718551            0   0.54520527    1.7221616    2.2970854    1.8719787 
18270000    1.2427748 1.347845e-05    0.4628807  0.032777872            0   0.43010283    1.8175581    2.2804388    3.6606321 
18275000    1.1094619 1.9453311e-05   0.62394371  0.016641065            0   0.60730264    1.6225881    2.2465318    4.2385508 
18280000    1.2050644 9.5470147e-05    0.4896822 0.00037831527            0   0.48930388    1.7624066    2.2520888    12.028232 
18285000    1.2233835 3.878445e-05   0.47394646  0.002011877            0   0.47193458    1.7891984    2.2631448    6.2346725 
18290000    1.1837985 -3.4546708e-05   0.57065922   0.02869095            0   0.54196827    1.7313053    2.3019645   -1.2356184 
18295000    1.3373033 2.4425763e-06   0.41857368   0.01547593            0   0.40309775    1.9558061    2.3743798    2.6244996 
18300000    1.2544861 2.1031501e-05    0.5414627            0            0    0.5414627    1.8346859    2.3761486    4.5297743 
18305000    1.2313645 2.2570295e-05    0.6014231            0            0    0.6014231    1.8008706    2.4022937    4.7134918 
18310000    1.3725743 4.0821128e-05   0.41803662            0            0   0.41803662    2.0073899    2.4254265      6.60551 
18315000    1.2324289 8.7791442e-06   0.58427459            0            0   0.58427459    1.8024273    2.3867019    3.2856863 
18320000    1.3150983 7.3853728e-07   0.47591274            0            0   0.47591274    1.9233312     2.399244    2.4748702 
18325000    1.4085318 1.9293199e-05   0.36253447 0.00088022069            0   0.36165425    2.0599778    2.4225123    4.3981358 
18330000     1.230088 2.4718062e-05   0.59263159 0.0046188384            0   0.58801275    1.7990037    2.3916353    4.9227649 
18335000    1.2242222 5.3509526e-05   0.59577467  0.033734831            0   0.56203984    1.7904249    2.3861996     7.865575 
18340000    1.1814311 3.5000972e-05   0.60789978  0.081805078            0   0.52609471     1.727843    2.3357428    5.9198423 
18345000    1.2543479 -8.7263918e-05   0.53034668  0.046180946            0   0.48416573    1.8344839    2.3648305   -6.5709947 
18350000    1.1681825 -6.4466956e-05    0.6353307   0.10810503            0   0.52722567     1.708467    2.3437977   -4.2576187 
18355000    1.1660421 1.8721621e-05   0.65672838  0.043860684            0    0.6128677    1.7053366     2.362065     4.279159 
18360000    1.1622564 3.3318747e-06   0.69555794  0.086972632            0   0.60858531       1.6998    2.3953579    2.7365419 
18365000    1.2952692 -5.4071473e-05   0.48549901 0.0082883511            0   0.47721066    1.8943312    2.3798302   -3.1570887 
18370000    1.3108332 -6.4007224e-05   0.40191359            0            0   0.40191359    1.9170936    2.3190072   -4.2353326 
18375000    1.2400875 -9.632899e-06   0.49481185            0            0   0.49481185    1.8136279    2.3084398    1.3220309 
18380000    1.2119286 6.8386437e-05   0.53286834 0.0022911781            0   0.53057716    1.7724455    2.3053139    9.3080851 
18385000    1.1761274 -1.5341978e-05    0.5134379  0.010152303            0    0.5032856    1.7200864    2.2335243   0.66250569 
18390000    1.1585801 -2.9135246e-05   0.50416777 0.0029621704            0    0.5012056    1.6944234    2.1985912  -0.78485799 
18395000    1.1813753 4.8153865e-05   0.45550573 9.0045241e-05            0   0.45541569    1.7277613    2.1832671    7.1142228 
18400000     1.182732 -2.5167927e-05    0.5381403 0.00093937119            0   0.53720093    1.7297455    2.2678858  -0.30930991 
18405000     1.210486 -6.4323819e-05   0.48787127 0.0046078373            0   0.48326343    1.7703358     2.258207    -4.328552 
18410000    1.1007875 -2.1707527e-05    0.6677283 0.0047109746            0   0.66301732    1.6099017      2.27763  0.054779255 
18415000    1.2847283 -4.983787e-05   0.40093076 0.0013155616            0    0.3996152    1.8789152     2.279846   -2.8235519 
18420000    1.2697231 -6.5097801e-05   0.38003887 0.0007454284            0   0.37929344      1.85697    2.2370089   -4.4290059 
18425000    1.0916154 2.0888836e-05   0.62543646  0.015048832            0   0.61038763    1.5964875     2.221924    4.3609408 
18430000   0.98927075 6.5113928e-05   0.75804414   0.12440308            0   0.63364105    1.4468085    2.2048526    8.8725188 
18435000    1.1956482 4.9238078e-05   0.42261379  0.035194781            0   0.38741901    1.7486354    2.1712492    7.2132284 
18440000    1.1439958 4.9380637e-05   0.45934967 4.5999685e-05            0   0.45930367    1.6730938    2.1324435    7.1890207 
18445000    1.0865398 -1.1342395e-07    0.4899307            0            0    0.4899307    1.5890645    2.0789952    2.0673805 
18450000    1.0463811 -5.8872242e-05   0.55937101            0            0   0.55937101    1.5303323    2.0897033   -3.9388142 
18455000    1.0178055 -4.659663e-05   0.64487086 0.00048050569            0   0.64439036    1.4885406    2.1334114   -2.6380835 
18460000     1.146614 -6.8771092e-06   0.46095509 0.0049617036            0   0.45599338     1.676923    2.1378781    1.4336621 
18465000    1.0822631 4.5465914e-05   0.54046637  0.005991235            0   0.53447514    1.5828097    2.1232761    6.7789856 
18470000    1.1117707 0.00010279492   0.50175015 0.00036947189            0   0.50138068    1.6259646    2.1277148    12.653914 
18475000    1.0400491 6.0611358e-05   0.55477961            0            0   0.55477961    1.5210718    2.0758514    8.2824545 
18480000    1.0973104 9.9393921e-06   0.44425738            0            0   0.44425738    1.6048165    2.0490739    3.0668676 
18485000   0.96653951 -8.76106e-06   0.62363378            0            0   0.62363378     1.413564    2.0371978    1.1400653 
18490000   0.97156994 -7.6768998e-05   0.59385322            0            0   0.59385322     1.420921    2.0147743   -5.8463711 
18495000   0.90610601 -1.4463533e-05   0.70242135            0            0   0.70242135      1.32518    2.0276014   0.54653563 
18500000    1.0358872 1.7958505e-05   0.51248298 0.00082086996            0   0.51166211    1.5149851    2.0274681     3.866419 
18505000    0.9876121 -1.8246876e-05   0.55950009  0.015046831            0   0.54445326    1.4443827    2.0038828   0.13540264 
18510000   0.94624415 1.5766189e-05   0.66413828  0.019889771            0   0.64424851    1.3838821    2.0480204    3.6624781 
18515000   0.89678431 -8.2440297e-05   0.72841396  0.017691909            0   0.71072205    1.3115471     2.039961   -6.4019254 
18520000     1.012236 8.1980018e-05   0.55086326  0.050252315            0   0.50061094    1.4803952    2.0312584    10.426012 
18525000   0.91908301 0.00010127832   0.68616767  0.042158908            0   0.64400876    1.3441589    2.0303266    12.401226 
18530000    1.0492718 7.1849874e-05   0.46792421  0.027896679            0   0.44002753      1.53456    2.0024842    9.3599113 
18535000    0.9587995 9.7149849e-07   0.60264185  0.021994236            0   0.58064761    1.4022443    2.0048861    2.1043676 
18540000   0.98369023 -0.00010326385   0.58562215 0.0017647863            0   0.58385736     1.438647    2.0242691   -8.5499496 
18545000   0.99604484 -9.2181646e-05   0.53605889 0.0038833897            0    0.5321755    1.4567156    1.9927745   -7.4466261 
18550000   0.96881112 -3.2513052e-05   0.61934599  0.023692787            0    0.5956532    1.4168863    2.0362323   -1.2931043 
18555000    1.0736189 2.0195065e-06   0.48477343   0.03012568            0   0.45464775    1.5701676     2.054941    2.2617385 
18560000    1.0212247 5.910352e-06   0.51402308  0.034646924            0   0.47937616    1.4935411    2.0075642    2.6127842 
18565000    1.0367816 3.6293101e-05   0.46751948 0.0050468702            0   0.46247261     1.516293    1.9838125    5.7002261 
18570000   0.97403596 -6.496987e-06   0.54484843 0.0018970502            0   0.54295138    1.4245276     1.969376    1.3040846 
18575000    1.0282912 -2.6983513e-05   0.45706103  0.007225558            0   0.44983548    1.5038759     1.960937  -0.80217479 
18580000   0.95996646 2.2948621e-05   0.59286048  0.016365652            0   0.57649482     1.403951    1.9968114    4.3467502 
18585000   0.99734946 7.4840577e-06   0.52103304  0.022769236            0    0.4982638    1.4586236    1.9796566    2.7460241 
18590000   0.97742707 -8.9055002e-06   0.54883699 0.0090459459            0   0.53979104    1.4294871    1.9783241    1.0664009 
18595000    0.9053253 -2.0546985e-05   0.66289458  0.037587215            0   0.62530736    1.3240383    1.9869328  -0.11707842 
18600000    1.0145999 -5.4908356e-05   0.49274429   0.04640327            0   0.44634102    1.4838523    1.9765966   -3.6460191 
18605000   0.99335549 -3.6655874e-05   0.53717768 0.0037748202            0   0.53340286    1.4527824    1.9899601   -1.7636014 
18610000    1.0207399 -5.2994469e-06   0.50156518  0.016667594            0   0.48489758     1.492832    1.9943972    1.4517339 
18615000   0.96877362 -3.1949729e-05   0.57509201  0.035039102            0    0.5400529    1.4168314    1.9919234   -1.2797288 
18620000    1.0914017 -4.7733357e-05   0.40154297  0.015543188            0   0.38599978    1.5961749    1.9977179   -2.8901779 
18625000    1.0867271 1.3574491e-05   0.40787367 0.00072126115            0   0.40715241    1.5893383     1.997212    3.3872399 
18630000    1.0016912 -7.0961728e-06   0.50789405 0.0037212002            0   0.50417285    1.4649733    1.9728674    1.2462193 
18635000    1.0002609 -2.4653765e-05   0.52020162  0.036668707            0   0.48353292    1.4628815    1.9830831  -0.54146246 
18640000    1.0837786 1.7428806e-06   0.40843659  0.084357284            0   0.32407931    1.5850262    1.9934628    2.1719338 
18645000    0.9901296 2.9036595e-05   0.52663767  0.062001827            0   0.46463584    1.4480645    1.9747022    4.9480496 
18650000    1.0391562 7.669684e-05   0.48392316  0.046210436            0   0.43771272    1.5197659    2.0036891    9.8574455 
18655000    1.1208436 3.7582204e-05    0.3722946  0.026277194            0    0.3460174    1.6392338    2.0115284    5.8599461 
18660000    1.0379017 -3.2033807e-07   0.50387645  0.016037653            0    0.4878388    1.5179313    2.0218078    1.9890051 
18665000     1.071016 2.9612644e-05   0.46638393  0.027364089            0   0.43901984    1.5663609    2.0327448    5.0650795 
18670000    1.0664853 -5.7983841e-06   0.46380789  0.040091867            0   0.42371603    1.5597348    2.0235427    1.4297882 
18675000   0.97150633 -2.4915113e-05    0.6096865 0.0084152743            0   0.60127122     1.420828    2.0305145  -0.52079309 
18680000    1.0370376 -2.4787117e-05   0.47532508 0.00059235639            0   0.47473272    1.5166675    1.9919926   -0.5462082 
18685000    1.0407015 1.3057986e-05   0.47076209  0.029760745            0   0.44100134     1.522026    1.9927881    3.3299258 
18690000   0.94232154 5.7440787e-05   0.60240154  0.066867347            0   0.53553419    1.3781452    1.9805468    7.8624833 
18695000   0.91758524 -2.4368407e-05   0.62792842  0.037077506            0   0.59085092    1.3419684    1.9698968  -0.52542799 
18700000    1.0015144 -2.1038007e-05   0.44904437  0.011692619            0   0.43735175    1.4647147    1.9137591  -0.24053277 
18705000     1.071623 -5.5718572e-07   0.38011169 0.0082589716            0   0.37185272    1.5672487    1.9473604    1.8903046 
18710000   0.98074845 8.6668079e-05   0.52101556 0.0048386507            0   0.51617691    1.4343446    1.9553602    10.830171 
18715000    1.0100645 5.8707166e-05   0.48595998 0.0026545197            0   0.48330546    1.4772193    1.9631793     7.974793 
18720000    1.0597243 -2.0002496e-05   0.42859869 0.00048923065            0   0.42810946    1.5498468    1.9784455 -0.069810082 
18725000   0.98627297 -1.1905913e-05   0.53419628 0.0064110078            0   0.52778527    1.4424242    1.9766205   0.75745503 
18730000   0.94050839 5.9721632e-06   0.63205982  0.015123193            0   0.61693662    1.3754935    2.0075533    2.6191029 
18735000    1.0195739 6.4115601e-05   0.53327527 0.0073808475            0   0.52589443    1.4911268    2.0244021    8.5898396 
18740000    1.0711201 7.9291328e-05   0.45816884 0.0017019732            0   0.45646687    1.5665131    2.0246819    10.144114 
18745000    1.0424664 3.7570653e-05   0.51387626 0.0013142165            0   0.51256205    1.5246071    2.0384833    5.8857182 
18750000   0.99755978 5.2700081e-05   0.57749019 0.0068792073            0   0.57061098    1.4589312    2.0364214    7.4329097 
18755000    1.0778919 4.5306582e-05   0.45490114   0.01024341            0   0.44465773    1.5764169     2.031318     6.670712 
18760000    1.1499078 -5.4720981e-07   0.36077208 0.0068786767            0    0.3538934    1.6817402    2.0425123     1.986478 
18765000   0.97745622 1.6383053e-06   0.63993941  0.043660067            0   0.59627934    1.4295297    2.0694691    2.2372316 
18770000     1.144024 -1.9928754e-05   0.46144929 0.0094873853            0   0.45196191    1.6731352    2.1345844  0.093880036 
18775000    1.1147176 -1.8941718e-05   0.45107162            0            0   0.45107162    1.6302745    2.0813461   0.14171422 
18780000    1.0329319 6.5635646e-06   0.55261895            0            0   0.55261895    1.5106629    2.0632818    2.7353908 
18785000    1.1225838 1.9585597e-05    0.4105361            0            0    0.4105361    1.6417788    2.0523149      4.05788 
18790000    1.1099716 -5.268468e-05   0.43956255            0            0   0.43956255    1.6233335     2.062896   -3.3320153 
18795000    1.0597246 -7.5546076e-05   0.53352054  0.021983279            0   0.51153726    1.5498473    2.0833678   -5.6525503 
18800000   0.99200397 -3.827748e-05   0.62343256  0.077037347            0   0.54639521    1.4508058    2.0742384   -1.8453755 
18805000   0.97625105 -7.8451528e-06   0.66791005  0.026456049            0     0.641454    1.4277672    2.0956772    1.2923336 
18810000    1.1149936 2.7578028e-05   0.44003602  0.008451459            0   0.43158456    1.6306781    2.0707141    4.8947042 
18815000    1.1169673 -5.4254585e-06   0.42712606 0.0046215535            0    0.4225045    1.6335647    2.0606908    1.5051238 
18820000     1.074143 -1.1358233e-05   0.47980412    0.0553838            0   0.42442032    1.5709342    2.0507383   0.88765523 
18825000    1.0387736 -6.7631926e-05   0.55670229  0.051680806            0   0.50502149    1.5192064    2.0759087   -4.8496005 
18830000    1.1920631 -1.9147609e-05   0.34280071 0.0088566358            0   0.33394407    1.7433922    2.0861929   0.12547779 
18835000      1.03507 7.6572925e-06   0.61721571  0.055133523            0   0.56208219    1.5137898    2.1310056    2.9151123 
18840000     1.169953 5.3213524e-05   0.43825904  0.010104512            0   0.42815453    1.7110563    2.1493153    7.5983802 
18845000    1.1930785 -5.234344e-05   0.43534252 0.0033311197            0    0.4320114    1.7448773    2.1802198   -3.1797484 
18850000    1.1710717 6.8168186e-06   0.45825342  0.024616521            0    0.4336369    1.7126923    2.1709458     2.868988 
18855000    1.1152342 -3.523987e-05   0.53524075   0.01539463            0   0.51984612      1.63103    2.1662707   -1.4422919 
18860000    1.1113928 -7.7686018e-06   0.52050224 0.0035440527            0   0.51695819     1.625412    2.1459142    1.3504094 
18865000    1.1054788 -1.5507795e-06    0.5473644 0.0035693324            0   0.54379507    1.6167628    2.1641272    2.0053273 
18870000     1.169596 1.5582145e-05   0.45881778 0.00080264668            0   0.45801514    1.7105341    2.1693519    3.7649636 
18875000    1.1324234 -3.235215e-05    0.4833415            0            0    0.4833415    1.6561692    2.1395107   -1.1733494 
18880000    1.2557565 -4.5490122e-05   0.33445237            0            0   0.33445237     1.836544    2.1709963   -2.4871922 
18885000    1.1503234 3.6326754e-05   0.45999476 3.0206359e-06            0   0.45999173     1.682348    2.1423428    5.8622024 
18890000    1.1799921 -2.1243384e-05   0.41172387 0.0051940056            0   0.40652987    1.7257384    2.1374623 -0.037860287 
18895000    1.1178179 -8.8495427e-05   0.51598227  0.027632503            0   0.48834977    1.6348086    2.1507909   -6.9111408 
18900000    1.1599201 -2.2493502e-05   0.44429012  0.029965847            0   0.41432427    1.6963832    2.1406733  -0.16266125 
18905000    1.1050528 1.7947341e-05   0.56157567   0.02108068            0   0.54049499    1.6161398    2.1777154    4.0155231 
18910000   0.99496717 -2.8383249e-05   0.72730588  0.014653333            0   0.71265254    1.4551395    2.1824454  -0.72399937 
18915000    1.0477603 -9.7099458e-06   0.67045176 0.0028276541            0   0.66762411    1.5323495    2.2028012    1.2085028 
18920000    1.1814139 4.9589415e-05   0.48939145 0.0058224583            0   0.48356899    1.7278178    2.2172092    7.2951653 
18925000    1.1142076 8.4291634e-06    0.6406896   0.01093158            0   0.62975802    1.6295286    2.2702182    3.1333645 
18930000     1.176925 -9.6080699e-05   0.57259646  0.003534796            0   0.56906166    1.7212528    2.2938493   -7.5448143 
18935000    1.2218782 -0.00010782007    0.5419817  0.020261343            0   0.52172036    1.7869969    2.3289786   -8.7117969 
18940000    1.1042867 -7.3261741e-05   0.68366538  0.027335214            0   0.65633017    1.6150193    2.2986847   -5.2033176 
18945000    1.1647796 -3.3085569e-05   0.61207684  0.039444768            0   0.57263207    1.7034902    2.3155671   -1.0723952 
18950000    1.1505743 -9.3629903e-06   0.63761912  0.033404075            0   0.60421505    1.6827149     2.320334    1.3615638 
18955000    1.1087815 2.0905544e-05   0.68557708 0.0051436259            0   0.68043346    1.6215929      2.30717    4.4478978 
18960000    1.2191932 7.6982558e-05   0.47633565 0.0079108548            0   0.46842479      1.78307    2.2594057     10.14242 
18965000    1.1194775 0.00011129152   0.59684245  0.011829985            0   0.58501246    1.6372359    2.2340783     13.63033 
18970000    1.2484149 2.410488e-05   0.41905223  0.019152792            0   0.39989944    1.8258068    2.2448591    4.7131988 
18975000    1.0719478 -0.0001334339   0.69318365  0.056005565            0   0.63717809    1.5677237    2.2609074   -11.402724 
18980000    1.1861135 -3.9648516e-05   0.49963673  0.078704263            0   0.42093246    1.7346909    2.2343276   -1.8256804 
18985000    1.0945172 7.3909032e-05   0.65220438  0.064009702            0   0.58819468    1.6007315    2.2529358    9.8212208 
18990000    1.1389076 -8.0854366e-06   0.61076886  0.028224484            0   0.58254438    1.6656524    2.2764213    1.4484726 
18995000    1.0658075 -3.2131054e-05   0.72970796  0.019822578            0   0.70988539    1.5587434    2.2884514   -1.0017685 
19000000    1.1906572 9.6916091e-06   0.57384924  0.021305896            0   0.55254334    1.7413362    2.3151855    3.3076062 
19005000    1.2350833 -1.5476386e-05   0.52670258 0.0060178716            0   0.52068471    1.8063094     2.333012   0.74823002 
19010000    1.1149192 -5.000268e-05   0.71469423  0.022766066            0   0.69192816    1.6305693    2.3452635   -2.7750109 
19015000    1.1443335 1.5026894e-05   0.63156357  0.071245636            0   0.56031793    1.6735878    2.3051514    3.8439053 
19020000    1.1397097 6.1577327e-05   0.59201868  0.010749198            0   0.58126948    1.6668254     2.258844    8.5643623 
19025000    1.2062359 9.4042539e-06    0.5181906 0.0099422368            0   0.50824836      1.76412    2.2823106    3.2453062 
19030000    1.1372251 -5.2527921e-05   0.61269645  0.020034336            0   0.59266212    1.6631918    2.2758882   -3.1029709 
19035000    1.1835784 2.3206875e-06   0.58184143  0.040889392            0   0.54095204    1.7309834    2.3128248    2.5504632 
19040000    1.2044227 1.0058913e-05    0.6031566  0.042934955            0   0.56022164    1.7614682    2.3646248    3.3946575 
19045000    1.2084333 -1.2371668e-05   0.59834446  0.013010429            0   0.58533403    1.7673338    2.3656782    1.0988194 
19050000    1.1913385 1.2217737e-05    0.5921409  0.015294484            0   0.57684641    1.7423325    2.3344734    3.5855696 
19055000      1.16796 7.2437372e-05   0.60016918 0.0080155425            0   0.59215364    1.7081415    2.3083107    9.7258976 
19060000    1.2005139 6.667029e-05   0.53470266 0.00043858917            0   0.53426407    1.7557515    2.2904542    9.1174919 
19065000    1.3120664 1.3366023e-07   0.37676073 0.0084147712            0   0.36834595    1.9188972    2.2956579    2.3093447 
19070000    1.1109913 1.495314e-07   0.69936278  0.018100285            0   0.68126249    1.6248248    2.3241875    2.3394996 
19075000    1.2794999 6.256538e-05   0.47150505  0.010585538            0   0.46091951    1.8712686    2.3427736    8.7494686 
19080000    1.0892136 6.692455e-05   0.73739959 0.0026150585            0   0.73478453    1.5929749    2.3303745    9.1834484 
19085000    1.1816368 -6.505239e-06    0.5881442  0.010131543            0   0.57801266    1.7281439    2.3162881    1.6501516 
19090000    1.2018202 -6.5498345e-05   0.61030501  0.067752736            0   0.54255228    1.7576621    2.3679671   -4.3390634 
19095000    1.2604907 -3.1039527e-05   0.51568456  0.055027354            0    0.4606572    1.8434677    2.3591522  -0.81929534 
19100000    1.1389935 3.9444446e-05   0.70021616  0.031684835            0   0.66853132     1.665778    2.3659942    6.4051054 
19105000     1.195763 1.8198097e-06   0.58206523 0.0070551827            0   0.57501005    1.7488034    2.3308686    2.5172171 
19110000    1.2247757 -5.52068e-05   0.57425895            0            0   0.57425895    1.7912345    2.3654934   -3.2876829 
19115000    1.2119227 -5.0409321e-05   0.57719235            0            0   0.57719235    1.7724369    2.3496292   -2.8122852 
19120000    1.2336999 -2.2628417e-05   0.54089911 0.0012618895            0   0.53963722    1.8042861    2.3451852  0.028035388 
19125000    1.1938419 -2.6826395e-06   0.58127107  0.018292681            0   0.56297839    1.7459938    2.3272648    2.0525626 
19130000    1.0874951 3.4405211e-05   0.70580863   0.03447298            0   0.67133565    1.5904616    2.2962702    5.8193638 
19135000    1.1150896 -5.2008597e-06    0.6200817  0.045673598            0    0.5744081    1.6308185    2.2509002    1.7183321 
19140000    1.1759915 5.0024821e-06   0.51880152 0.0081150123            0   0.51068651    1.7198875     2.238689    2.7509432 
19145000    1.1639883 8.9663446e-05   0.55654185  0.014010812            0   0.54253104    1.7023329    2.2588748    11.440412 
19150000    1.1007153 -8.8046706e-06   0.70336208  0.045086923            0   0.65827516    1.6097962    2.3131583      1.41156 
19155000    1.1710883 2.6274607e-05   0.64068641  0.024268534            0   0.61641788    1.7127166     2.353403    5.0439227 
19160000    1.2104698 6.2853793e-05   0.58387277    0.1294563            0   0.45441647    1.7703121    2.3541848    8.7904132 
19165000    1.2325521 -3.1478285e-05   0.52492256  0.046448046            0   0.47847452    1.8026074    2.3275299  -0.89584642 
19170000    1.1545094 -9.911049e-06   0.64247658  0.034395828            0   0.60808075      1.68847    2.3309466    1.3160552 
19175000    1.2326898 1.0916939e-05   0.52550933  0.029039764            0   0.49646957    1.8028088    2.3283181    3.4462127 
19180000    1.0974465 1.7988331e-06   0.70488614  0.065892733            0   0.63899341    1.6050154    2.3099016    2.4941021 
19185000    1.2303593 -1.0219038e-05   0.51920413 0.0045229089            0   0.51468122    1.7994005    2.3186046    1.2721751 
19190000    1.2718226 -0.00010088705   0.51004487 4.4529372e-05            0   0.51000034    1.8600405    2.3700854   -7.9607483 
19195000    1.1286503 -0.00014343743   0.74242821  0.034702418            0    0.7077258     1.650651    2.3930792   -12.294914 
19200000    1.2476918 -3.8405304e-06   0.55616727   0.07833934            0   0.47782793    1.8247493    2.3809165    1.9876462 
19205000    1.0975706 1.2247288e-05   0.70730476  0.044894499            0   0.66241026     1.605197    2.3125018    3.5666241 
19210000    1.1085228 -3.4548819e-05   0.58013565  0.024037987            0   0.55609767    1.6212146    2.2013502   -1.3364488 
19215000    1.1689206 -3.9548269e-05   0.54436058 0.0036034296            0   0.54075715    1.7095464     2.253907   -1.7958358 
19220000    1.1229409 -1.2788701e-05   0.60028788  0.012308993            0   0.58797889     1.642301    2.2425889   0.93302598 
19225000    1.1833559 8.4523399e-05   0.51241429 0.0098934717            0   0.50252081     1.730658    2.2430723    10.898268 
19230000    1.0837452 0.00013598279   0.61840638 2.8780762e-06            0   0.61840351    1.5849774    2.2033838    16.128021 
19235000    1.1133763 1.6989278e-05   0.54622138  0.004923487            0    0.5412979    1.6283129    2.1745343    3.9142363 
19240000    1.0950298 -0.0001059233   0.58781107  0.038813643            0   0.54899742    1.6014811    2.1892922   -8.6572541 
19245000    1.0450356 -4.7413396e-05   0.66260931  0.045388418            0    0.6172209    1.5283645    2.1909739   -2.6641579 
19250000    1.2005126 1.6602303e-05   0.37489059  0.007944886            0   0.36694571    1.7557497    2.1306403    3.8307161 
19255000    1.0362075 3.8257883e-06   0.60560106 0.0016075203            0   0.60399354    1.5154535    2.1210545    2.5128153 
19260000    1.1558322 4.0113846e-05   0.44169506  0.004147309            0   0.43754775    1.6904046    2.1320997    6.2397575 
19265000    1.1449253 4.7362794e-05   0.45471043 0.0062726708            0   0.44843776    1.6744533    2.1291637    6.9791138 
19270000    1.1424454 -5.4324825e-05   0.42684131 0.0076580528            0   0.41918325    1.6708264    2.0976677   -3.4651944 
19275000    1.1127664 -9.5634488e-05   0.47818296 0.00025966401            0   0.47792329    1.6274209    2.1056038   -7.6873678 
19280000    1.0704179 2.0190233e-05   0.55568977  0.059744105            0   0.49594567    1.5654861    2.1211759    4.1886558 
19285000    1.0162295 -9.6573406e-06   0.63341325  0.065322389            0   0.56809086    1.4862356    2.1196489    1.1307372 
19290000   0.94750188 4.5944045e-05   0.72776735     0.100861            0   0.62690635    1.3857215    2.1134888    6.8181591 
19295000    1.0701429 -3.2793406e-05   0.57421718  0.059618447            0   0.51459873     1.565084    2.1393012   -1.2187436 
19300000    1.0412975 -9.2657657e-05   0.60494965   0.01655137            0   0.58839828    1.5228975    2.1278472   -7.3602969 
19305000    1.0721233 5.9250001e-05   0.59987307            0            0   0.59987307    1.5679804    2.1678535    8.2350535 
19310000    1.1435109 -2.0132143e-05   0.45665815 0.00064029745            0   0.45601785    1.6723847    2.1290428  0.067511413 
19315000    1.0440499 -6.4548439e-05   0.63337741 0.0040223507            0   0.62935506     1.526923    2.1603004   -4.4494598 
19320000    1.0140248 -2.7107665e-05   0.70528949 0.0028219871            0    0.7024675    1.4830113    2.1883008  -0.58752411 
19325000    1.1464414 -0.00015680643   0.49126591 0.0065564353            0   0.48470947    1.6766706    2.1679365   -13.889042 
19330000    1.1768169 8.7901609e-06   0.45020063 0.0014402063            0   0.44876042    1.7210947    2.1712954    3.0714078 
19335000    1.0464967 4.4189569e-05   0.59863288 0.00086535773            0   0.59776752    1.5305014    2.1291343    6.6541461 
19340000    1.0839913 -2.3525879e-05   0.54045294  0.016912603            0   0.52354033    1.5853372    2.1257901  -0.28325981 
19345000    1.1186594 5.138729e-05   0.47884013  0.018797674            0   0.46004246    1.6360393    2.1148795    7.3769379 
19350000    1.0842027 1.7840089e-05   0.49486035 0.0071049267            0   0.48775542    1.5856464    2.0805068    3.9073319 
19355000   0.97763462 2.9871909e-05   0.67306744  0.048349433            0   0.62471801    1.4297906    2.1028581    5.1617416 
19360000   0.94435461 -6.4246571e-05   0.70956361  0.068260534            0   0.64130307    1.3811186    2.0906822   -4.4881666 
19365000    1.0102303 7.3221003e-05   0.61173578  0.057786977            0    0.5539488    1.4774618    2.0891976    9.5870283 
19370000   0.99002842 2.4159322e-06   0.64693678  0.019786242            0   0.62715053    1.4479166    2.0948533    2.3422448 
19375000    1.0730268 7.8909529e-06   0.53334034  0.020881577            0   0.51245876    1.5693017     2.102642    2.9106756 
19380000    1.0672378 -9.3257851e-05   0.59641331  0.015524124            0   0.58088919    1.5608353    2.1572487   -7.3923553 
19385000    1.1072506 4.8486614e-05   0.55304915 0.0011118685            0   0.55193728     1.619354    2.1724032    7.1374325 
19390000    1.1129076 -4.4753173e-05   0.56463948 0.00096212813            0   0.56367735    1.6276273    2.1922668   -2.3904582 
19395000    1.1165057 -3.1698257e-05    0.5967983 0.0078258161            0   0.58897248    1.6328895    2.2296878   -1.0162137 
19400000    1.1715629 -3.7248375e-05   0.53956208  0.014198968            0   0.52536311    1.7134107    2.2529728   -1.5612608 
19405000    1.0489571 5.8480446e-05   0.70578671  0.019217946            0   0.68656876    1.5340997    2.2398864    8.2282841 
19410000     1.057778 0.00010729811   0.68703916  0.044208948            0   0.64283022    1.5470004    2.2340395    13.221366 
19415000    1.0111661 -8.6993491e-05   0.75971059  0.067420512            0   0.69229007    1.4788304    2.2385409   -6.6695925 
19420000    1.0366194 3.9478724e-05   0.68403304  0.052859004            0   0.63117404    1.5160559     2.200089    6.2427103 
19425000    1.0379776 0.00017804559   0.62997965  0.026572609            0   0.60340704    1.5180422    2.1480219    20.379891 
19430000    1.1139799 3.3633442e-05   0.49978405 0.0028061356            0   0.49697791    1.6291956    2.1289797    5.5730442 
19435000    1.0141157 -7.1909243e-05   0.64874952            0            0   0.64874952    1.4831442    2.1318938   -5.2316127 
19440000    1.0000257 -0.00013769952   0.66798922 0.00016878143            0   0.66782044    1.4625376    2.1305268   -11.969904 
19445000   0.96727333 5.1036276e-05   0.69684704  0.012233772            0   0.68461326    1.4146372    2.1114843     7.337599 
19450000    1.1065044 9.1152636e-05   0.51952621  0.025967822            0   0.49355839    1.6182627     2.137789    11.471819 
19455000    1.0665261 -3.2584893e-05   0.57759268  0.039962392            0   0.53763029    1.5597944     2.137387    -1.199306 
19460000    1.1369916 3.8416376e-05   0.50638347   0.11825338            0   0.38813009    1.6628502    2.1692337    6.1030706 
19465000    1.1795693 2.0754724e-05   0.46158041  0.010724224            0   0.45085618    1.7251201    2.1867005    4.3119843 
19470000     1.118504 -8.5261422e-05   0.56278125 0.0017748454            0   0.56100641     1.635812    2.1985933   -6.5321763 
19475000    1.1128659 7.5524129e-06   0.56994946  0.013505721            0   0.55644374    1.6275663    2.1975158    2.9708829 
19480000    1.1430837 6.6074706e-07   0.55302829  0.037367893            0    0.5156604    1.6717599    2.2247882    2.2924487 
19485000    1.1738274 -2.2709725e-05   0.50584169 0.0094185854            0    0.4964231    1.7167225    2.2225642  -0.10291163 
19490000    1.1504497 0.00010321316   0.50966839            0            0   0.50966839    1.6825326     2.192201    12.761228 
19495000    1.1331593 -1.6929156e-05   0.55406185 0.00036357908            0   0.55369827    1.6572455    2.2113074   0.47776176 
19500000    1.1296237 3.9979968e-05   0.56347924 0.0037116755            0   0.55976757    1.6520746    2.2155539    6.3095026 
19505000    1.1695512 3.7522286e-05   0.52507298 0.0077601972            0   0.51731278    1.7104687    2.2355417    6.0778237 
19510000    1.1539633 -1.3053198e-05   0.55386803 0.0098726158            0   0.54399542    1.6876713    2.2415394   0.90489192 
19515000    1.1308957 4.8748088e-05   0.62081391 0.0085867621            0   0.61222715     1.653935    2.2747489    7.2665531 
19520000    1.1824223 -2.9635915e-05   0.53800541  0.016295688            0   0.52170972    1.7292926     2.267298   -0.7674197 
19525000    1.1495461 -6.0609373e-05   0.56291102  0.023404424            0    0.5395066    1.6812112    2.2441222   -3.9622776 
19530000    1.0366088 2.8318239e-05   0.75368589 0.0097520736            0   0.74393382    1.5160404    2.2697263     5.169514 
19535000    1.1327023 -1.024799e-05   0.60105558 0.00026166772            0   0.60079391    1.6565771    2.2576326    1.2082385 
19540000    1.1856725 -8.9272933e-05   0.53537132 0.0012485909            0   0.53412273    1.7340461    2.2694174    -6.872131 
19545000    1.1414732 -3.8471435e-05   0.59587812 0.0080200877            0   0.58785803    1.6694046    2.2652827   -1.6741922 
19550000    1.0838796 1.559817e-05   0.66154009  0.075809426            0   0.58573067    1.5851739     2.246714    3.8439666 
19555000    1.0693401 -8.5499602e-05   0.65434365   0.03833246            0   0.61601119    1.5639099    2.2182536   -6.5369057 
19560000    1.2617556 -8.0188606e-05   0.38701064 0.0043268983            0   0.38268374    1.8453176    2.2323283    -5.978985 
19565000    1.1173752 -3.1035637e-05   0.53165626            0            0   0.53165626    1.6341612    2.1658175   -1.0122317 
19570000    1.0335915 -6.0701067e-05   0.64558749 0.00075095607            0   0.64483653    1.5116275     2.157215   -4.0585742 
19575000    1.0983941 -5.0748612e-05   0.59629465 0.0053460115            0   0.59094864    1.6064014     2.202696   -2.9939618 
19580000    1.0743629 -4.4550122e-05   0.60624335 0.0053980683            0   0.60084528    1.5712557     2.177499   -2.3844335 
19585000     1.022532 0.00016088753   0.69588068 0.0046976976            0   0.69118298     1.495453    2.1913337    18.666217 
19590000    1.0635219 -1.9507068e-05   0.59793894  0.084721792            0   0.51321715    1.5554008    2.1533397   0.15581595 
19595000    1.0719707 -3.5226177e-05   0.54557713  0.059421049            0   0.48615608    1.5677571    2.1133342   -1.4938263 
19600000    1.0845472 0.00010818987   0.50863842 0.0023302367            0   0.50630819    1.5861503    2.0947887    13.173432 
19605000    1.1037543 -4.3990614e-05   0.48754627  0.053455133            0   0.43409114    1.6142407     2.101787   -2.4028519 
19610000    1.1169945 -6.9146342e-05   0.43227573  0.050981793            0   0.38129394    1.6336045    2.0658802   -5.0147052 
19615000    1.0021397 -4.070461e-05   0.62986659 0.0092319446            0   0.62063465    1.4656293    2.0954959   -2.0726561 
19620000    1.0884926 -6.6570994e-05   0.45374638 0.0079708693            0   0.44577551    1.5919204    2.0456668    -4.771203 
19625000    1.0195492 2.0789229e-05   0.54804781  0.025258813            0     0.522789    1.4910907    2.0391385    4.1679555 
19630000   0.99654702 5.1021753e-05   0.60343066 0.0083535588            0    0.5950771      1.45745    2.0608807    7.2855081 
19635000    1.0378825 -6.5334137e-05   0.53267242            0            0   0.53267242    1.5179032    2.0505756     -4.63964 
19640000    1.0863692 -2.2080033e-06   0.44158229 0.00035442845            0   0.44122786     1.588815    2.0303973    1.8042977 
19645000   0.97664072 0.00013923598   0.58737548  0.012586794            0   0.57478869    1.4283371    2.0157125    16.273477 
19650000   0.87527322 -6.2526418e-05   0.69971715  0.035928358            0    0.6637888    1.2800871    1.9798042    -4.422901 
19655000    1.0149522 0.00012086137   0.50361856 0.00011770527            0   0.50350085    1.4843676    1.9879862     14.36419 
19660000     1.006995 6.4816307e-05   0.49852485 0.0019047172            0   0.49662013    1.4727302     1.971255    8.6084449 
19665000    1.0430862 1.0691037e-05   0.44628786  0.020540015            0   0.42574785    1.5255136    1.9718015    3.0665637 
19670000   0.97482071 -9.7685096e-05   0.54254815  0.018206461            0   0.52434169    1.4256753    1.9682234   -8.0347304 
19675000   0.92384354 -7.829995e-05   0.59276095            0            0   0.59276095    1.3511212    1.9438821   -6.0740328 
19680000    1.0504735 2.9293077e-05   0.40382783            0            0   0.40382783    1.5363175    1.9401453    4.9397565 
19685000    0.9492716 -8.8655419e-05   0.55464201  0.039517976            0   0.51512404    1.3883097    1.9429517   -7.1353632 
19690000   0.93947215 -5.4782807e-05   0.55808636  0.055817546            0   0.50226882     1.373978    1.9320644   -3.6776951 
19695000   0.92200879 5.1310253e-05   0.56512198            0            0   0.56512198    1.3484378    1.9135598    7.1677297 
19700000    1.0290903 -0.00010522704   0.44417698 0.0011191581            0   0.44305782    1.5050446    1.9492216   -8.8260268 
19705000   0.97116905 -9.632066e-06   0.48674204 0.0041810021            0   0.48256104    1.4203347    1.9070768   0.92075323 
19710000   0.92534726 8.2097965e-05   0.53082892 0.0018272928            0   0.52900163    1.3533204    1.8841493    10.290981 
19715000    1.0246147 -5.7401729e-05   0.41534176            0            0   0.41534176    1.4984991    1.9138408   -3.9640963 
19720000   0.98987588 5.1202574e-05   0.48610398 2.8343336e-05            0   0.48607564    1.4476935    1.9337975    7.1769411 
19725000   0.88031928 -7.9820369e-05    0.6731421  0.017521825            0   0.65562027    1.2874669     1.960609   -6.2129967 
19730000   0.95741872 -9.5416815e-05   0.59137142   0.01940217            0   0.57196925    1.4002249    1.9915963   -7.7790855 
19735000    1.1154317 7.1182192e-05   0.35826792 0.0045403252            0    0.3537276    1.6313188    1.9895868    9.2786433 
19740000     1.036534 -4.7837515e-08   0.45815014 7.5483625e-06            0   0.45814259    1.5159309     1.974081    1.9691825 
19745000   0.94754862 -2.8971148e-05   0.56182357            0            0   0.56182357    1.3857899    1.9476134   -1.0190321 
19750000   0.90901972 -0.00012100139   0.64026218            0            0   0.64026218    1.3294413    1.9697035   -10.420839 
19755000   0.98647723 -0.00012095688   0.56053959            0            0   0.56053959     1.442723    2.0032625   -10.382722 
19760000    1.0429157 8.4931617e-05   0.49887914            0            0   0.49887914    1.5252642    2.0241434    10.721141 
19765000    1.0720813 2.4595283e-05   0.49350452            0            0   0.49350452    1.5679189    2.0614235    4.5799805 
19770000    1.0193501 -7.3891619e-05   0.62734655            0            0   0.62734655    1.4907995     2.118146   -5.4483557 
19775000    1.1419967 -0.00010586545    0.4733852  0.018439316            0   0.45494588    1.6701701    2.1435553   -8.6970671 
19780000    1.0354122 6.721687e-05   0.63678491  0.098491665            0   0.53829324    1.5142903    2.1510752    9.0340827 
19785000     1.265455 -1.3345287e-05   0.31554331    0.0305339            0   0.28500941    1.8507279    2.1662712   0.79971382 
19790000    1.0043234 2.2430525e-05   0.68733517  0.015528449            0   0.67180672     1.468823    2.1561582    4.4530439 
19795000    1.0180597 8.6061848e-05   0.70011854  0.023489824            0   0.67662871    1.4889123    2.1890309    11.001764 
19800000    1.0587924 5.9291973e-05   0.60152646   0.03725475            0   0.56427171    1.5484839    2.1500104    8.2215085 
19805000    1.0259625 -0.00011659509   0.64254125   0.01450248            0   0.62803877    1.5004701    2.1430114   -9.7963262 
19810000    1.0604199 -4.5433806e-05   0.58477666 0.00090408252            0   0.58387258    1.5508641    2.1356407    -2.516781 
19815000    1.1436185 3.4438958e-05   0.49705984  0.024350709            0   0.47270913     1.672542    2.1696018    5.6961511 
19820000   0.99007052 9.2961454e-05   0.76062851  0.064739066            0   0.69588944    1.4479781    2.2086066     11.72786 
19825000     1.042539 9.0581968e-05   0.69271782 0.00015849393            0   0.69255932    1.5247133    2.2174312    11.493025 
19830000    1.1209749 8.0073935e-05   0.65372254            0            0   0.65372254    1.6394258    2.2931484    10.492719 
19835000    1.1576978 -1.367602e-05   0.58550282            0            0   0.58550282     1.693133    2.2786358   0.87821137 
19840000    1.1544002 -5.5637977e-06   0.58869354  0.026842342            0    0.5618512    1.6883103    2.2770038     1.707271 
19845000    1.0452514 -3.5352935e-05   0.71532076   0.18600021            0   0.52932054    1.5286802    2.2440009   -1.3761396 
19850000    1.1118085 4.3347805e-05   0.61557789   0.05524823            0   0.56032966      1.62602    2.2415979    6.6804131 
19855000    1.0400582 -1.6626985e-06    0.6677063 0.0092479114            0   0.65845838    1.5210852    2.1887915    2.0185311 
19860000    1.0852885 -5.6331987e-06   0.59496138  0.021001152            0   0.57396023    1.5872345    2.1821959    1.6053563 
19865000    1.2009218 -3.6458687e-05   0.46007706 0.0060915679            0   0.45398549    1.7563481    2.2164252   -1.5169444 
19870000    1.0546747 5.0064322e-06    0.6382711 0.0050352941            0   0.63323581    1.5424618    2.1807329    2.6933915 
19875000    1.1308482 -4.7254573e-06   0.54687826  0.063897347            0   0.48298091    1.6538654    2.2007437    1.7168569 
19880000    1.1014584 -5.9453823e-05   0.58273589  0.034015194            0   0.54872069    1.6108829    2.1936188   -3.8944527 
19885000    1.1035947 -5.4652049e-05   0.58082826 0.0049523819            0   0.57587588    1.6140072    2.1948355   -3.4015343 
19890000   0.97780608 2.0843897e-05   0.74887485 0.0020400493            0    0.7468348    1.4300414    2.1789162    4.3133313 
19895000    1.1883623 8.7354955e-05   0.48320723 0.00097666026            0   0.48223057    1.7379798    2.2211871    11.166334 
19900000    1.1143029 7.8204185e-06   0.60341003  0.035304308            0   0.56810572     1.629668    2.2330781    3.0338889 
19905000    1.0084995 -4.1722928e-07   0.76176931  0.043995923            0   0.71777339    1.4749306    2.2366999    2.1939756 
19910000   0.99440111  4.81842e-05   0.76732228  0.012116498            0   0.75520578    1.4543116    2.2216339     7.155696 
19915000     1.181832 -8.3749341e-06   0.49442567  0.023521923            0   0.47090375    1.7284293     2.222855    1.3652617 
19920000    1.1203947 -1.2009729e-05   0.56205152  0.058072901            0   0.50397862    1.6385773    2.2006288   0.97083261 
19925000   0.95981976 -2.3132568e-05   0.80831653  0.033308325            0   0.77500821    1.4037364    2.2120529    -0.156722 
19930000    1.1579057 -8.348132e-05   0.51872946  0.045825934            0   0.47290352     1.693437    2.2121665   -6.3363207 
19935000    1.1428009 -6.9048983e-05   0.54351509  0.020831708            0   0.52268339    1.6713463    2.2148614   -4.8557545 
19940000   0.92392078 1.5673294e-05   0.86129184 0.0046716127            0   0.85662022    1.3512341     2.212526    3.8174713 
19945000    1.1510418 8.1559256e-05   0.50403865  0.029876267            0   0.47416238    1.6833986    2.1874373    10.539105 
19950000    1.0297524 5.2225963e-05   0.70026502  0.057594512            0   0.64267051     1.506013     2.206278    7.5542165 
19955000    1.0119725 3.6877531e-05    0.7665542  0.038494911            0   0.72805929    1.4800098     2.246564    6.0228232 
19960000     1.107116 -3.3091161e-05   0.62759524  0.041688428            0   0.58590681    1.6191571    2.2467524   -1.1417825 
19965000     1.136596 -7.908555e-05   0.58061243 0.0060557596            0   0.57455667    1.6622717    2.2428841   -5.8554762 
19970000    1.2387705 -6.9338438e-05   0.45591452            0            0   0.45591452    1.8117019    2.2676164   -4.8326397 
19975000    1.0530476 2.2830798e-05   0.73269603 0.00092586325            0   0.73177016    1.5400821    2.2727781    4.6106518 
19980000    1.1051057 0.00018380497   0.64649026  0.029603951            0   0.61688631     1.616217    2.2627073    21.084336 
19985000    1.1408177 4.0392116e-05   0.57185298  0.039640031            0   0.53221295    1.6684458    2.2402988    6.3764515 
19990000    1.1141867 -4.5831359e-05   0.65466072  0.036223215            0   0.61843751     1.629498    2.2841587   -2.4089725 
19995000    1.1911348 -1.5868876e-05    0.5394687 0.0055313261            0   0.53393737    1.7420346    2.2815033    0.6565304 
20000000     1.158273 -5.1400592e-06    0.6044783  0.000797069            0   0.60368123    1.6939742    2.2984525    1.7721105 
Loop time of 135.536 on 1 procs for 20000000 steps with 40 atoms

Performance: 127493.630 tau/day, 147562.072 timesteps/s
99.4% CPU use with 1 MPI tasks x no OpenMP threads

MPI task timing breakdown:
Section |  min time  |  avg time  |  max time  |%varavg| %total
---------------------------------------------------------------
Pair    | 5.4448     | 5.4448     | 5.4448     |   0.0 |  4.02
Bond    | 14.42      | 14.42      | 14.42      |   0.0 | 10.64
Neigh   | 19.602     | 19.602     | 19.602     |   0.0 | 14.46
Comm    | 49.511     | 49.511     | 49.511     |   0.0 | 36.53
Output  | 0.33044    | 0.33044    | 0.33044    |   0.0 |  0.24
Modify  | 40.944     | 40.944     | 40.944     |   0.0 | 30.21
Other   |            | 5.285      |            |       |  3.90

Nlocal:        40.0000 ave          40 max          40 min
Histogram: 1 0 0 0 0 0 0 0 0 0
Nghost:        0.00000 ave           0 max           0 min
Histogram: 1 0 0 0 0 0 0 0 0 0
Neighs:        12.0000 ave          12 max          12 min
Histogram: 1 0 0 0 0 0 0 0 0 0

Total # of neighbors = 12
Ave neighs/atom = 0.3
Ave special neighs/atom = 5.7000000
Neighbor list builds = 3766
Dangerous builds = 0
write_restart restart.equil
System init for write_restart ...
WARNING: Communication cutoff 1.4200000000000002 is shorter than a bond length based estimate of 1.8. This may lead to errors. (../comm.cpp:667)
#--------------End of Input file ------------------
Total wall time: 0:02:15
