LAMMPS (29 Oct 2020)
###################### polyelectrolyte complexation ######################
clear

#Initialization
#------------------------------------
units				lj
dimension			3
atom_style			full
boundary			p p p

#Atom Definition
#-------------------------------------
read_data			data.complexation
Reading data file ...
  orthogonal box = (-80.000000 -80.000000 -80.000000) to (80.000000 80.000000 80.000000)
  1 by 1 by 1 MPI processor grid
  reading atoms ...
  120 atoms
  scanning bonds ...
  1 = max bonds/atom
  reading bonds ...
  119 bonds
Finding 1-2 1-3 1-4 neighbors ...
  special bond factors lj:    0.0      0.0      0.0     
  special bond factors coul:  0.0      0.0      0.0     
     2 = max # of 1-2 neighbors
     2 = max # of 1-3 neighbors
     4 = max # of 1-4 neighbors
     6 = max # of special neighbors
  special bonds CPU = 0.000 seconds
  read_data CPU = 0.002 seconds

#Force definition
#----------------------------------------------
#Bond definition
bond_style			harmonic
bond_coeff			1 5000 1
#Pair definition
special_bonds	lj 0 1 1
Finding 1-2 1-3 1-4 neighbors ...
  special bond factors lj:    0.0      1.0      1.0     
  special bond factors coul:  0.0      0.0      0.0     
     2 = max # of 1-2 neighbors
     2 = max # of 1-3 neighbors
     4 = max # of 1-4 neighbors
     6 = max # of special neighbors
  special bonds CPU = 0.000 seconds
pair_style		 lj/cut 1.12
pair_modify 		 shift yes
pair_coeff	1 1 1 1 1.12

#Timestep etc
#--------------------------------------------
timestep		1e-05
run_style		verlet
velocity		all	create	1	14

#Fix
#---------------------------------------
group polymers type 1
120 atoms in group polymers
fix 1 all nve
fix 2 all langevin 1	1	10	14
fix 3 polymers recenter INIT INIT INIT units box

#Dump
#------------------------------------------------
compute  1 all gyration
variable  myRg2 equal c_1
variable  i equal step
fix  mythermofile all print 5000 "$i ${myRg2}" file radius_of_gyration.dat screen no

thermo_style		 custom step temp press pe evdwl ecoul ebond ke etotal enthalpy
thermo 	5000
dump	3 all custom 5000 dump.lammpstrj id mol type xu yu zu
run		20000000
Neighbor list info ...
  update every 1 steps, delay 10 steps, check yes
  max neighbors/atom: 2000, page size: 100000
  master list distance cutoff = 1.42
  ghost atom cutoff = 1.42
  binsize = 0.71, bins = 226 226 226
  1 neighbor lists, perpetual/occasional/extra = 1 0 0
  (1) pair lj/cut, perpetual
      attributes: half, newton on
      pair build: half/bin/newton
      stencil: half/bin/3d/newton
      bin: standard
WARNING: Communication cutoff 1.4200000000000002 is shorter than a bond length based estimate of 1.8. This may lead to errors. (../comm.cpp:667)
Per MPI rank memory allocation (min/avg/max) = 54.72 | 54.72 | 54.72 Mbytes
Step Temp Press PotEng E_vdwl E_coul E_bond KinEng TotEng Enthalpy 
       0            1 2.9052734e-05            0            0            0            0       1.4875       1.4875    2.4791667 
    5000   0.78321272 -0.00040403284   0.32324387            0            0   0.32324387    1.1650289    1.4882728   -12.302715 
   10000   0.48379887 -0.00098455463   0.78345276            0            0   0.78345276   0.71965082    1.5031036   -32.103028 
   15000   0.65529546 -0.00062538419   0.53817995            0            0   0.53817995     0.974752     1.512932   -19.833515 
   20000   0.66685839 -0.00049698068   0.53007665            0            0   0.53007665   0.99195186    1.5220285   -15.441579 
   25000   0.54670977 -0.00088848601   0.71746253            0            0   0.71746253   0.81323078    1.5306933   -28.796296 
   30000   0.63884274 -0.00073083056   0.57701824            0            0   0.57701824   0.95027858    1.5272968   -23.418386 
   35000   0.79027522 -0.00029923528    0.3607429            0            0    0.3607429    1.1755344    1.5362773   -8.6776201 
   40000   0.69637998 -0.0004209077   0.48155201            0            0   0.48155201    1.0358652    1.5174172   -12.849566 
   45000   0.68985571 -0.00068700118   0.50638332            0            0   0.50638332    1.0261604    1.5325437   -21.917097 
   50000   0.79690296 -0.00046868371   0.34100242            0            0   0.34100242    1.1853932    1.5263956   -14.471342 
   55000   0.72783536 -0.00023762369   0.46049512            0            0   0.46049512    1.0826551    1.5431502   -6.5677384 
   60000   0.73483728 -0.00037812859   0.45322162            0            0   0.45322162    1.0930705    1.5462921   -11.360497 
   65000   0.74526933 -0.00055763209   0.46846734            0            0   0.46846734    1.1085881    1.5770555   -17.456787 
   70000   0.76993881 -0.00049465446   0.42030963            0            0   0.42030963     1.145284    1.5655936   -15.318612 
   75000   0.80343109 -0.00021772312   0.37800539            0            0   0.37800539    1.1951037    1.5731091   -5.8585065 
   80000   0.80879595 -0.00019067872    0.3693883            0            0    0.3693883     1.203084    1.5724723    -4.936028 
   85000   0.80822765 -0.00035652815   0.37665718            0            0   0.37665718    1.2022386    1.5788958   -10.590599 
   90000   0.83178479 -0.00014680623   0.34121848            0            0   0.34121848    1.2372799    1.5784984   -3.4324875 
   95000   0.87348041 0.00014812771   0.27844857            0            0   0.27844857    1.2993021    1.5777507    6.6338431 
  100000   0.83752967 -4.9971137e-05   0.34324232            0            0   0.34324232    1.2458254    1.5890677  -0.11661378 
  105000   0.83547704 -0.00027645126   0.36602767            0            0   0.36602767    1.2427721    1.6087998   -7.8274032 
  110000   0.85013045 -0.00015818386   0.33623869            0            0   0.33623869     1.264569    1.6008077   -3.7985347 
  115000   0.87506473 0.0001065694   0.30525569            0            0   0.30525569    1.3016588    1.6069145    5.2444834 
  120000   0.88147655 -5.2963942e-05   0.28777345            0            0   0.28777345    1.3111964    1.5989698  -0.20886608 
  125000   0.81527133 -0.00023877911   0.37188622            0            0   0.37188622    1.2127161    1.5846023   -6.5657245 
  130000   0.88189688 -6.1747604e-05   0.27517448            0            0   0.27517448    1.3118216    1.5869961  -0.52065547 
  135000   0.88606822 0.0001554127   0.28298013            0            0   0.28298013    1.3180265    1.6010066      6.90576 
  140000   0.87830427 4.9665562e-06   0.28743644            0            0   0.28743644    1.3064776     1.593914    1.7634392 
  145000   0.84593885 -0.00028672054    0.3219262            0            0    0.3219262     1.258334    1.5802602   -8.2064677 
  150000   0.85353182 -6.9310527e-06   0.31130959            0            0   0.31130959    1.2696286    1.5809382    1.3443582 
  155000   0.82178788 0.00017535454   0.34942373            0            0   0.34942373    1.2224095    1.5718332     7.557268 
  160000   0.80302095 -0.00015640327   0.38506998            0            0   0.38506998    1.1944937    1.5795636   -3.7590014 
  165000   0.80948202 -0.00022787975   0.37987399            0            0   0.37987399    1.2041045    1.5839785   -6.1943171 
  170000   0.87348198 0.00012905238   0.25944763            0            0   0.25944763    1.2993044    1.5587521    5.9637399 
  175000   0.83218702 3.4412344e-05   0.30332493            0            0   0.30332493    1.2378782    1.5412031    2.7158111 
  180000   0.84285058 -0.00020650209   0.29791624            0            0   0.29791624    1.2537402    1.5516565   -5.4969483 
  185000   0.86104991 6.3113944e-06    0.2908016            0            0    0.2908016    1.2808117    1.5716133    1.7870423 
  190000   0.83025832 0.00010447711    0.3284651            0            0    0.3284651    1.2350092    1.5634743    5.1296263 
  195000    0.8411634 -0.00010792533   0.33638709            0            0   0.33638709    1.2512306    1.5876176   -2.0962336 
  200000   0.84354858 -2.7463834e-05   0.35009226            0            0   0.35009226    1.2547785    1.6048708   0.66743855 
  205000   0.84370051 -3.5763206e-05   0.34593823            0            0   0.34593823    1.2550045    1.6009427    0.3802253 
  210000   0.80024922 1.2452059e-06     0.392803            0            0     0.392803    1.1903707    1.5831737    1.6256767 
  215000    0.8632724 5.0276723e-05   0.30998712            0            0   0.30998712    1.2841177    1.5941048     3.310217 
  220000   0.85643851 -4.4451643e-05   0.35211047            0            0   0.35211047    1.2739523    1.6260627      0.10878 
  225000   0.87213805 -0.00015922299   0.36434338            0            0   0.36434338    1.2973053    1.6616487   -3.7731628 
  230000   0.93951938 0.00015188813   0.28760039 0.0004649725            0   0.28713541    1.3975351    1.6851355    6.8695837 
  235000   0.90637403 -0.00010056526   0.35190228 0.0028116608            0   0.34909062    1.3482314    1.7001337   -1.7324939 
  240000    0.9031104 -1.7564517e-05   0.35202835 0.0022420808            0   0.34978627    1.3433767    1.6954051    1.0958696 
  245000     0.929484 -5.7530607e-06   0.32236578 0.00039270097            0   0.32197308    1.3826074    1.7049732    1.5086021 
  250000   0.88553454 1.1316647e-05   0.38726933            0            0   0.38726933    1.3172326     1.704502    2.0907768 
  255000    0.8691937 7.2686986e-05   0.40054503            0            0   0.40054503    1.2929256    1.6934707    4.1745198 
  260000   0.88380726 -0.00011892623   0.38960643            0            0   0.38960643    1.3146633    1.7042697   -2.3550788 
  265000   0.88324802 4.2317901e-05   0.36900251            0            0   0.36900251    1.3138314    1.6828339     3.127285 
  270000     0.898428 -2.0497792e-05   0.36202552            0            0   0.36202552    1.3364117    1.6984372   0.99877921 
  275000     0.929542 3.0573326e-05   0.30954897            0            0   0.30954897    1.3826937    1.6922427    2.7358122 
  280000   0.86086869 -0.00010582065   0.41422399            0            0   0.41422399    1.2805422    1.6947662   -1.9172455 
  285000   0.86172642 0.00012676759   0.40985534            0            0   0.40985534     1.281818    1.6916734    6.0186736 
  290000    0.9018217 -3.5715259e-06     0.346418            0            0     0.346418    1.3414598    1.6878778    1.5659697 
  295000   0.91436879 -0.00013707217   0.32892531            0            0   0.32892531    1.3601236    1.6890489   -2.9896812 
  300000    0.8698564 4.6063557e-05   0.40270643            0            0   0.40270643    1.2939114    1.6966178    3.2689206 
  305000   0.90856213 2.4311337e-05   0.34324206            0            0   0.34324206    1.3514862    1.6947282    2.5245552 
  310000   0.93748071 -0.00017677928   0.32788535 0.00050391128            0   0.32738144    1.3945026    1.7223879   -4.3116781 
  315000   0.93702185 8.1992014e-05   0.33753969 0.0036682468            0   0.33387144      1.39382    1.7313597    4.5300204 
  320000   0.89362117 6.5236785e-05   0.40293373 0.0042469589            0   0.39868677    1.3292615    1.7321952    3.9589442 
  325000   0.89515252 -0.00026840717   0.39880305  0.002133407            0   0.39666964    1.3315394    1.7303424   -7.4312891 
  330000   0.90056336 0.00021926934   0.38316527 0.00042737683            0    0.3827379     1.339588    1.7227533    9.2071467 
  335000   0.92928316 -0.00011250112   0.34437084            0            0   0.34437084    1.3823087    1.7266795   -2.1133587 
  340000   0.91378905 -0.00011849324   0.36735025            0            0   0.36735025    1.3592612    1.7266115   -2.3179578 
  345000   0.89826945 0.00015554465   0.36430888            0            0   0.36430888    1.3361758    1.7004847    7.0097422 
  350000   0.89552348 -0.00014274096   0.36200071            0            0   0.36200071    1.3320912    1.6940919   -3.1781329 
  355000   0.88244027 0.00010849248   0.38018664            0            0   0.38018664    1.3126299    1.6928165    5.3960267 
  360000    0.9033008 7.5331589e-05   0.36440941            0            0   0.36440941    1.3436599    1.7080693    4.2793876 
  365000   0.83842302 -0.00022242727   0.45001676            0            0   0.45001676    1.2471542     1.697171   -5.8950132 
  370000   0.89814165 0.0001438387   0.36654779            0            0   0.36654779    1.3359857    1.7025335     6.612228 
  375000   0.86604987 -0.00010651632   0.41939243            0            0   0.41939243    1.2882492    1.7076416   -1.9281154 
  380000    0.9075586 3.9241477e-05   0.37381184            0            0   0.37381184    1.3499934    1.7238053    3.0632477 
  385000   0.88220568 8.5137697e-05   0.43790434            0            0   0.43790434    1.3122809    1.7501853    4.6562187 
  390000   0.91179576 -3.1082405e-05   0.40181816            0            0   0.40181816    1.3562962    1.7581144   0.69716826 
  395000   0.95517702 1.4000496e-05   0.36088844            0            0   0.36088844    1.4208258    1.7817143    2.2595978 
  400000   0.88055345 4.3488584e-05   0.47563723            0            0   0.47563723    1.3098233    1.7854605    3.2698708 
  405000   0.91580398 -5.5691342e-05   0.43362295            0            0   0.43362295    1.3622584    1.7958814  -0.10504977 
  410000   0.95032598 7.4155981e-05    0.3744767            0            0    0.3744767    1.4136099    1.7880866    4.3192774 
  415000   0.96498464 -6.4290388e-05   0.36488625            0            0   0.36488625    1.4354147    1.8003009  -0.39414434 
  420000   0.95687458 -3.7350922e-06   0.38387519            0            0   0.38387519    1.4233509    1.8072261     1.679735 
  425000   0.97060791 1.3167209e-05   0.37138732            0            0   0.37138732    1.4437793    1.8151666    2.2646073 
  430000     0.960614 -2.3903783e-05   0.42304663            0            0   0.42304663    1.4289133      1.85196    1.0360442 
  435000   0.95792009 -1.0003019e-05    0.4304555            0            0    0.4304555    1.4249061    1.8553616    1.5139253 
  440000   0.98780303 2.223922e-05   0.37223326            0            0   0.37223326     1.469357    1.8415903     2.600689 
  445000   0.92163995 3.5795967e-05    0.4687649            0            0    0.4687649    1.3709394    1.8397043      3.06154 
  450000   0.91966926 6.0646836e-05   0.48431051            0            0   0.48431051     1.368008    1.8523185    3.9223972 
  455000   0.94096436 5.2730034e-05   0.45566801            0            0   0.45566801    1.3996845    1.8553525    3.6552043 
  460000   0.94322339 -2.6443147e-07   0.44951895            0            0   0.44951895    1.4030448    1.8525637    1.8435378 
  465000   0.93808655 -0.00014089742   0.44836615            0            0   0.44836615    1.3954037    1.8437699   -2.9655289 
  470000   0.96024342 0.00014400133   0.40108713            0            0   0.40108713    1.4283621    1.8294492    6.7446948 
  475000   0.93974826 -2.7107065e-05   0.42956867            0            0   0.42956867    1.3978755    1.8274442    0.9021897 
  480000   0.90388959 9.1646187e-06   0.47105688            0            0   0.47105688    1.3445358    1.8155927    2.1284116 
  485000   0.91720213 -0.00010063975   0.42986347            0            0   0.42986347    1.3643382    1.7942016   -1.6409684 
  490000   0.92990618 2.0600513e-05   0.41603777            0            0   0.41603777    1.3832354    1.7992732    2.5024374 
  495000   0.92068165 -1.4053709e-05   0.42410434            0            0   0.42410434    1.3695139    1.7936183    1.3139184 
  500000   0.93743269 -6.0502974e-05   0.42324678            0            0   0.42324678    1.3944311    1.8176779  -0.24749027 
  505000   0.98202397 5.8152947e-05   0.36633648            0            0   0.36633648    1.4607607    1.8270971    3.8120511 
  510000   0.97231142 -0.00012515416   0.37085621            0            0   0.37085621    1.4463132    1.8171694   -2.4547593 
  515000   0.96455127 2.6899436e-06   0.37590813            0            0   0.37590813      1.43477    1.8106781    1.9024949 
  520000   0.92285399 4.2094718e-05   0.41331118            0            0   0.41331118    1.3727453    1.7860565    3.2228895 
  525000   0.96903665 -5.3320964e-05   0.38509904            0            0   0.38509904     1.441442    1.8265411 0.0065188325 
  530000   0.93800548 0.00014857826   0.44390193            0            0   0.44390193    1.3952832    1.8391851    6.9106562 
  535000    0.9581102 -0.00011734261   0.40984143            0            0   0.40984143    1.4251889    1.8350304   -2.1702642 
  540000   0.91575214 0.00018277758   0.48748595            0            0   0.48748595    1.3621813    1.8496673    8.0884753 
  545000   0.93202391 -0.00030465463   0.47108001 4.5371988e-07            0   0.47107956    1.3863856    1.8574656   -8.5414125 
  550000   0.93404498 0.00017567129   0.48043062 0.00067313839            0   0.47975748    1.3893919    1.8698225    7.8660692 
  555000   0.95069955 -0.00010156637   0.44775861 0.0013156431            0   0.44644297    1.4141656    1.8619242   -1.6048746 
  560000   0.94898941 0.00021724847   0.46750864 0.00075413521            0   0.46675451    1.4116217    1.8791304    9.2945449 
  565000   0.96990528 -0.0001022148   0.45459856 0.00061175908            0    0.4539868    1.4427341    1.8973327    -1.591599 
  570000    1.0375084 0.00013539415   0.35968452 1.3888194e-05            0   0.35967063    1.5432938    1.9029783    6.5244319 
  575000    1.0022592 -0.000139542   0.44179641  0.001324532            0   0.44047188    1.4908606     1.932657   -2.8303768 
  580000    1.0755859 0.00011813398   0.33712288   0.00291305            0   0.33420983     1.599934    1.9370569    5.9693635 
  585000    0.9957133 -0.00010651054   0.41875244 0.0059493309            0   0.41280311    1.4811235     1.899876   -1.7356837 
  590000    1.0398529 7.4338622e-05    0.3898075 0.00034753835            0   0.38945996    1.5467812    1.9365887    4.4740136 
  595000    1.0086429 -4.0591057e-06   0.43534474 4.905572e-06            0   0.43533983    1.5003563    1.9357011    1.7971503 
  600000   0.98964267 0.00011154504   0.46777681 0.00016505614            0   0.46761176    1.4720935    1.9398703    5.7472745 
  605000    1.0668009 -1.5771518e-05   0.34229045 0.00021313766            0   0.34207731    1.5868664    1.9291568    1.3908223 
  610000    1.1007545 -3.2042255e-05   0.30264867 4.1265208e-05            0   0.30260741    1.6373724    1.9400211   0.84631208 
  615000    1.0408052 3.8517367e-05   0.38113504 0.00087077751            0   0.38026427    1.5481977    1.9293328    3.2440589 
  620000   0.95172511 -0.0001382511   0.50380892 0.0015336394            0   0.50227528    1.4156911       1.9195    -2.799471 
  625000   0.95694015 2.0922561e-05   0.49810933 0.00098346109            0   0.49712587    1.4234485    1.9215578    2.6357146 
  630000   0.96319966 -2.7801722e-05   0.47404037 0.00041162387            0   0.47362875    1.4327595    1.9067999   0.95783441 
  635000   0.97482247 8.6106217e-05   0.44125666 9.8725048e-05            0   0.44115793    1.4500484    1.8913051    4.8303973 
  640000   0.94673963 -9.2427518e-05   0.47301155 1.5464303e-06            0      0.47301    1.4082752    1.8812868   -1.2735725 
  645000   0.94840445 3.7498745e-05   0.46252365            0            0   0.46252365    1.4107516    1.8732753    3.1532324 
  650000   0.99018145 -0.00016755642   0.40865886            0            0   0.40865886    1.4728949    1.8815538   -3.8377055 
  655000   0.99215794 0.00019494223   0.38232472            0            0   0.38232472    1.4758349    1.8581596    8.5121879 
  660000   0.99224358 -4.1081671e-05   0.38003857            0            0   0.38003857    1.4759623    1.8560009    0.4537465 
  665000   0.99997686 2.6046429e-05   0.36939958            0            0   0.36939958    1.4874656    1.8568652    2.7459166 
  670000   0.95414324 5.432332e-05   0.43210112 2.7831602e-05            0   0.43207328    1.4192881    1.8513892    3.7056252 
  675000   0.89098527 -0.00020474934   0.55277164 0.00096753169            0   0.55180411    1.3253406    1.8781122   -5.1106651 
  680000   0.91418626 8.4697886e-05   0.51522821 0.0022259756            0   0.51300224    1.3598521    1.8750803    4.7661015 
  685000   0.98303849 0.00012936669   0.39510265 0.0023711784            0   0.39273147    1.4622698    1.8573724    6.2730886 
  690000   0.95977118 -9.2964325e-05   0.41916573 0.00027167686            0   0.41889405    1.4276596    1.8468254   -1.3263569 
  695000   0.91023908 8.9098086e-05   0.49410371            0            0   0.49410371    1.3539806    1.8480843     4.889299 
  700000   0.90043585 -0.00022853137   0.51197779 0.00010904389            0   0.51186875    1.3393983    1.8513761   -5.9491612 
  705000   0.96280285 0.00034917823   0.41501191 0.0018539341            0   0.41315797    1.4321692    1.8471811    13.765798 
  710000   0.92815669 -0.00028735548   0.45577329 0.0029516706            0   0.45282162    1.3806331    1.8364064    -7.971994 
  715000   0.96683462 9.0724863e-05   0.40779027 0.0011538885            0   0.40663638    1.4381665    1.8459568    4.9426988 
  720000   0.93668237 -0.00010092074   0.45281691 3.4096584e-06            0    0.4528135     1.393315    1.8461319   -1.5986295 
  725000   0.92064396 -0.00010817422   0.47388783            0            0   0.47388783    1.3694579    1.8433457   -1.8490011 
  730000   0.94588157 -2.3495266e-05   0.45589422 2.9970005e-05            0   0.45586425    1.4069988     1.862893    1.0609213 
  735000   0.98064866 -7.9977799e-05   0.40537353 0.0019295789            0   0.40344395    1.4587149    1.8640884  -0.86582045 
  740000   0.96440653 -5.0535007e-05   0.43569329 0.0062826332            0   0.42941066    1.4345547     1.870248   0.14531976 
  745000   0.96629028 7.4955893e-05   0.44814076  0.005099479            0   0.44304128    1.4373568    1.8854976     4.443992 
  750000   0.99252678 9.479862e-05   0.44095837 0.0013314641            0    0.4396269    1.4763836     1.917342    5.1531348 
  755000    0.9752826 5.0120697e-05   0.48201469 0.0049671232            0   0.47704757    1.4507329    1.9327476     3.643534 
  760000    1.0061751 1.3987371e-05   0.43182253 0.0053569309            0    0.4264656    1.4966854    1.9285079    2.4059435 
  765000    1.0095606 1.1147347e-05   0.40053794 0.0035235269            0   0.39701441    1.5017213    1.9022593    2.2827554 
  770000   0.93630179 -0.00013286407   0.45449836 0.0041627276            0   0.45033564    1.3927489    1.8472473   -2.6878463 
  775000   0.92216576 0.00026199492   0.46252448  0.014120519            0   0.44840396    1.3717216    1.8342461    10.777006 
  780000   0.92840138 -0.00025582328    0.4745651 0.0039183998            0    0.4706467    1.3809971    1.8555622   -6.8765393 
  785000   0.94845328 0.0001274654   0.46145433 0.00079165622            0   0.46066268    1.4108242    1.8722786    6.2230974 
  790000   0.94698462 -8.5173534e-05   0.45867164 0.00023468807            0   0.45843695    1.4086396    1.8673113   -1.0399454 
  795000   0.95152517 -3.4695801e-05   0.45962793 0.00098195176            0   0.45864598    1.4153937    1.8750216   0.69073829 
  800000   0.92205611 -5.2681211e-05   0.50615327  0.019371109            0   0.48678217    1.3715585    1.8777117  0.079526423 
  805000   0.95200614 6.4911279e-05   0.46617787  0.006586249            0   0.45959162    1.4161091     1.882287    4.0979253 
  810000   0.96074709 -0.00011059331   0.43519337 0.0049232715            0    0.4302701    1.4291113    1.8643047   -1.9106138 
  815000   0.95187138 0.00016623711   0.44791586  0.001145335            0   0.44677053    1.4159087    1.8638245    7.5380514 
  820000    0.9592712 0.00013988731   0.43178992 0.0013464261            0    0.4304435    1.4269159    1.8587058    6.6335258 
  825000   0.93758518 -5.9765573e-06   0.46556031  0.010341146            0   0.45521916     1.394658    1.8602183    1.6562184 
  830000   0.92712175 6.0448087e-05   0.48371407 0.0063130349            0   0.47740104    1.3790936    1.8628077    3.9261024 
  835000   0.89435946 -0.00011834413   0.47993327 0.00082051794            0   0.47911275    1.3303597     1.810293   -2.2291867 
  840000   0.91638832 0.00011178451   0.43168337            0            0   0.43168337    1.3631276     1.794811    5.6103889 
  845000   0.95657267 1.8995783e-05   0.36510555 1.1566488e-05            0   0.36509398    1.4229018    1.7880074    2.4363968 
  850000   0.89804203 -2.1198965e-05    0.4510234 0.0019114193            0   0.44911198    1.3358375    1.7868609    1.0632696 
  855000   0.90655059 3.6195316e-05   0.42897728 0.0047265826            0   0.42425069     1.348494    1.7774713    3.0129381 
  860000   0.95841799 -5.3623014e-05   0.36169587 0.0080644824            0   0.35363139    1.4256468    1.7873426 -0.042989581 
  865000   0.97022053 0.00011808599   0.37405897 0.0017461389            0   0.37231284     1.443203     1.817262    5.8479304 
  870000   0.96440761 -5.1801599e-05   0.39608651 0.00050033318            0   0.39558618    1.4345563    1.8306428   0.06248159 
  875000   0.91534366 -3.7475407e-05    0.4583463 0.0019005366            0   0.45644576    1.3615737      1.81992   0.54075944 
  880000   0.93239389 -7.1128725e-05   0.42537667 0.0025313924            0   0.42284528    1.3869359    1.8123126   -0.6155479 
  885000    0.9088652 -6.5506351e-05   0.45865138 0.00075157375            0   0.45789981     1.351937    1.8105884  -0.42536173 
  890000   0.92488269 -2.0825587e-05   0.45011831            0            0   0.45011831     1.375763    1.8258813    1.1150346 
  895000   0.98827944 8.5580787e-05   0.34943686 0.0001166931            0   0.34932017    1.4700657    1.8195025    4.7406601 
  900000   0.93303218 6.2782797e-05    0.4327621 0.00048808956            0   0.43227401    1.3878854    1.8206475    3.9636336 
  905000   0.85024893 -1.0282367e-05   0.55078384 0.00058433789            0    0.5501995    1.2647453    1.8155291    1.4645577 
  910000   0.88686322 -5.366147e-05   0.48017751 0.0014342717            0   0.47874323     1.319209    1.7993865 -0.032258283 
  915000   0.90668993 -6.782626e-05   0.43676764 0.0029423715            0   0.43382527    1.3487013    1.7854689  -0.52966744 
  920000   0.87147287 2.2952019e-05   0.47291491 0.0023487599            0   0.47056615    1.2963159    1.7692308    2.5526597 
  925000   0.91722244 -6.5742475e-06   0.42535545  0.002075473            0   0.42327998    1.3643684    1.7897238    1.5653228 
  930000   0.90705864 6.9696315e-05   0.44056216  0.015479045            0   0.42508311    1.3492497    1.7898119    4.1687794 
  935000   0.89089605 -4.0298378e-05   0.44398513 0.0040744681            0   0.43991067    1.3252079     1.769193   0.39367504 
  940000    0.8701563 -1.355476e-05   0.46668632            0            0   0.46668632    1.2943575    1.7610438    1.2983747 
  945000   0.88343332 -5.8027717e-05   0.44097946            0            0   0.44097946    1.3141071    1.7550865  -0.22559286 
  950000   0.89584634 7.0845865e-05   0.41792875            0            0   0.41792875    1.3325714    1.7505002    4.1687057 
  955000   0.83915861 -0.00010848453   0.49294006            0            0   0.49294006    1.2482484    1.7411885   -1.9617503 
  960000   0.84419156 -3.4810823e-05   0.46611338            0            0   0.46611338    1.2557349    1.7218483   0.53363889 
  965000   0.88759105 -0.00018878462   0.41874673            0            0   0.41874673    1.3202917    1.7390384     -4.70481 
  970000   0.86270005 0.00010240426   0.45087178            0            0   0.45087178    1.2832663    1.7341381    5.2295369 
  975000   0.89878794 -5.4833945e-05   0.38926231            0            0   0.38926231    1.3369471    1.7262094  -0.14545595 
  980000   0.86104546 -3.1694282e-05   0.44045156 0.0054906775            0   0.43496089    1.2808051    1.7212567   0.63942518 
  985000   0.86168239 -2.7154185e-05   0.43988685  0.014136495            0   0.42575036    1.2817526    1.7216394   0.79477655 
  990000   0.95319174 -8.4720326e-05   0.33101111 0.00049992692            0   0.33051118    1.4178727    1.7488838   -1.1429033 
  995000   0.91391122 2.5867959e-06   0.37232016 5.3369772e-07            0   0.37231962    1.3594429    1.7317631    1.8200591 
 1000000   0.87643679 0.00010307664   0.43180908 0.0011577246            0   0.43065136    1.3036997    1.7355088     5.253858 
 1005000   0.81280073 3.9246129e-05   0.53746925 0.0041227538            0    0.5333465    1.2090411    1.7465103    3.0861115 
 1010000   0.86478175 3.1441632e-05   0.45852538  0.002598776            0    0.4559266    1.2863629    1.7448882    2.8180959 
 1015000   0.94075867 -3.357536e-05    0.3491875 0.0005542971            0    0.3486332    1.3993785     1.748566   0.60252706 
 1020000   0.88247729 -3.5613305e-05   0.44234561 1.9201374e-05            0   0.44232641     1.312685    1.7550306   0.53942977 
 1025000   0.87714788 -1.5069353e-05   0.44045224 0.0003292804            0   0.44012296    1.3047575    1.7452097    1.2308425 
 1030000   0.87647883 9.121955e-05   0.43603784  0.010739698            0   0.42529814    1.3037623    1.7398001    4.8534274 
 1035000   0.92735703 1.1192591e-05   0.37546936  0.017203144            0   0.35826622    1.3794436    1.7549129    2.1369534 
 1040000   0.86970913 -0.00015791412   0.46336514  0.008187673            0   0.45517746    1.2936923    1.7570575   -3.6330778 
 1045000   0.87076141 1.9719659e-06   0.45750798 0.0066402375            0   0.45086775    1.2952576    1.7527656    1.8200754 
 1050000   0.88323276 -6.5629768e-06   0.45084268 0.0025715879            0   0.44827109    1.3138087    1.7646514    1.5406351 
 1055000   0.91313978 6.3177326e-05   0.39867564  0.001602451            0   0.39707319    1.3582954    1.7569711    3.9134238 
 1060000   0.91582763 -4.8447319e-06   0.39700269 0.0067786694            0   0.39022402    1.3622936    1.7592963    1.5939294 
 1065000   0.82476605 8.6483813e-05   0.52642353 0.0070978535            0   0.51932567    1.2268395     1.753263    4.7052438 
 1070000   0.84397802 -5.8038409e-05   0.50328185 0.0080076203            0   0.49527423    1.2554173    1.7586992  -0.22234521 
 1075000   0.87211594 -2.4129679e-05   0.46468231 0.0093629004            0   0.45531941    1.2972725    1.7619548   0.93832837 
 1080000   0.88343908 -1.2477036e-05   0.46207411  0.010731771            0   0.45134234    1.3141156    1.7761897    1.3503069 
 1085000   0.83598888 -5.9050833e-05   0.51620854 0.0061310569            0   0.51007749    1.2435335     1.759742  -0.25585977 
 1090000   0.83299921 -3.9596101e-05   0.51157611  0.010676743            0   0.50089937    1.2390863    1.7506624   0.39911554 
 1095000   0.86914743 0.00011408544   0.45031696  0.014005515            0   0.43631145    1.2928568    1.7431738    5.6372902 
 1100000    0.8453521 -0.00016377823   0.51098161 0.0089360325            0   0.50204558    1.2574612    1.7684429    -3.821854 
 1105000   0.88616444 -9.7956116e-05    0.4342386 0.0050053963            0   0.42923321    1.3181696    1.7524082   -1.5911605 
 1110000   0.85633768 -0.0001314262   0.46886843 0.0021625742            0   0.46670586    1.2738023    1.7426707   -2.7433435 
 1115000   0.81783591 6.8929441e-05   0.50746922 0.0026064249            0   0.50486279    1.2165309    1.7240001    4.0767917 
 1120000   0.79871889 -0.00016257236   0.55522913  0.017504886            0   0.53772425    1.1880944    1.7433235   -3.8058131 
 1125000    0.8652028 6.8108558e-05   0.47418976  0.011818105            0   0.46237166    1.2869892    1.7611789     4.085951 
 1130000   0.89037044 4.7023472e-05   0.43030826 0.0049138965            0   0.42539436     1.324426    1.7547343    3.3598021 
 1135000   0.86326698 -7.3600092e-05   0.45828345 0.0044432359            0   0.45384022    1.2841096    1.7423931   -0.7698234 
 1140000   0.90108629 0.00010154398   0.42072136 0.0051148854            0   0.41560648    1.3403659    1.7610872    5.2271216 
 1145000   0.86682838 9.0184782e-06   0.44760503 0.0025554534            0   0.44504958    1.2894072    1.7370122     2.044843 
 1150000   0.87926096 8.854117e-05   0.43555418 0.0047772788            0    0.4307769    1.3079007    1.7434549    4.7656601 
 1155000   0.78328788 -7.0107024e-05   0.58328557 0.0054247919            0   0.57786078    1.1651407    1.7484263  -0.64456013 
 1160000   0.80426235 0.00015874333   0.55972267 0.0016147324            0   0.55810794    1.1963403    1.7560629    7.1745018 
 1165000   0.84249062 -0.00016669618    0.5037031 0.00030165251            0   0.50340145    1.2532048    1.7569079   -3.9329884 
 1170000   0.90673711 -5.0784545e-05   0.40723222            0            0   0.40723222    1.3487715    1.7560037  0.022557858 
 1175000   0.87495785 4.7131473e-05   0.48194125 6.2895255e-05            0   0.48187836    1.3014998    1.7834411    3.3921953 
 1180000   0.90456039 -3.2207367e-05   0.44085478 0.0033755086            0   0.43747927    1.3455336    1.7863884   0.68704357 
 1185000   0.87470504 -9.757279e-06   0.48097096  0.015944618            0   0.46502635    1.3011237    1.7820947    1.4490463 
 1190000   0.91198422 -0.00010897659    0.4396862 0.0098622454            0   0.42982395    1.3565765    1.7962627   -1.9234716 
 1195000   0.88457962 5.113133e-05   0.47634723 0.0014657989            0   0.47488143    1.3158122    1.7921594    3.5374421 
 1200000    0.8979675 -2.096445e-05   0.44436189 0.0017162956            0   0.44264559    1.3357267    1.7800885     1.064502 
 1205000   0.89049244 -2.5165928e-05     0.434517 0.0021770679            0   0.43233993    1.3246075    1.7591245   0.90012749 
 1210000   0.91831471 6.4610473e-05   0.40169217 0.00084503977            0   0.40084713    1.3659931    1.7676853    3.9730561 
 1215000   0.85606804 8.416856e-05   0.50367847 0.0014134663            0     0.502265    1.2734012    1.7770797    4.6500332 
 1220000   0.92930727 7.4062105e-05   0.38362811  0.015279553            0   0.36834855    1.3823446    1.7659727    4.2939592 
 1225000   0.87312494 6.2596474e-05   0.47715251  0.022361434            0   0.45479107    1.2987733    1.7759258    3.9125522 
 1230000   0.86799226 5.4854624e-05   0.49191311 0.0066719096            0    0.4852412    1.2911385    1.7830516    3.6554228 
 1235000   0.88706238 2.6160995e-05   0.43311649 0.0029574003            0   0.43015909    1.3195053    1.7526218    2.6455838 
 1240000   0.87307798 6.6787077e-05   0.41792184  0.012876048            0   0.40504579    1.2987035    1.7166253    3.9962909 
 1245000   0.81879289 -8.8055507e-05   0.49473121  0.012150911            0    0.4825803    1.2179544    1.7126856   -1.2929423 
 1250000   0.87492184 -4.1765932e-06   0.40642547 0.0078404517            0   0.39858502    1.3014462    1.7078717    1.5653107 
 1255000   0.85591613 -3.1484068e-05   0.45636109  0.019618127            0   0.43674296    1.2731752    1.7295363   0.65488015 
 1260000   0.88495427 0.00014229634   0.42288905  0.010073591            0   0.41281545    1.3163695    1.7392585     6.596307 
 1265000   0.90642196 -6.082734e-05   0.39610541 0.0077162318            0   0.38838917    1.3483027    1.7444081  -0.33183181 
 1270000   0.87465481 1.5970693e-05   0.44786102  0.014203613            0   0.43365741     1.301049    1.7489101    2.2940431 
 1275000   0.91126939 8.771669e-05   0.39274206 0.0090696996            0   0.38367236    1.3555132    1.7482553    4.7423183 
 1280000   0.89746448 -3.8275443e-05   0.42642632 0.0051556211            0    0.4212707    1.3349784    1.7614047   0.45493629 
 1285000   0.87809818 1.1862504e-05   0.45451534 0.0020275465            0    0.4524878     1.306171    1.7606864    2.1655932 
 1290000   0.92519066 9.1663718e-05   0.39100582 0.0028683824            0   0.38813744    1.3762211    1.7672269    4.8960152 
 1295000   0.87793516 -5.7746463e-05   0.47297394 0.0090510041            0   0.46392293    1.3059285    1.7789025   -0.1921768 
 1300000   0.86370236 -5.258102e-05   0.48809152  0.018353495            0   0.46973802    1.2847573    1.7728488 -0.021916695 
 1305000   0.88491216 3.3836824e-05   0.46373641  0.014171759            0   0.44956465    1.3163068    1.7800433    2.9350068 
 1310000   0.85179459 -3.2228809e-05    0.5118475  0.015065998            0    0.4967815    1.2670445     1.778892   0.67881527 
 1315000   0.89432583 0.00010828316   0.46032729  0.023329587            0    0.4369977    1.3303097     1.790637    5.4867021 
 1320000   0.88408917 -7.9968883e-05   0.45475242  0.014250782            0   0.44050164    1.3150826    1.7698351  -0.95976948 
 1325000   0.86391003 -0.00015738597   0.49656468  0.015806946            0   0.48075774    1.2850662    1.7816308   -3.5904771 
 1330000   0.89370819 -1.3898799e-05   0.44874419  0.016062028            0   0.43268217    1.3293909    1.7781351    1.3037228 
 1335000   0.87353083 0.00012712985   0.47991111  0.006983052            0   0.47292806    1.2993771    1.7792882    6.1186536 
 1340000   0.88129067 -6.9460242e-05   0.45301721  0.012045681            0   0.44097153    1.3109199    1.7639371  -0.60697252 
 1345000   0.88373431 -1.1863682e-05   0.43805458 0.0020637826            0    0.4359908    1.3145548    1.7526094    1.3476624 
 1350000   0.91814554 8.0673555e-05   0.36934607            0            0   0.36934607    1.3657415    1.7350876    4.4887449 
 1355000   0.82183583 8.916565e-05   0.52325637            0            0   0.52325637    1.2224808    1.7457372     4.789258 
 1360000   0.86587565 3.4705199e-05   0.47081063 0.0095340575            0   0.46127657      1.28799    1.7588007    2.9434048 
 1365000   0.87423596 1.4918509e-05   0.47312822  0.016054795            0   0.45707342     1.300426    1.7735542    2.2827727 
 1370000   0.93758572 -5.4782177e-05   0.36891573 0.00086999789            0   0.36804573    1.3946588    1.7635745   -0.1063238 
 1375000   0.90713648 -6.9845279e-06    0.4119343 0.0051700293            0   0.40676427    1.3493655    1.7612998    1.5228946 
 1380000   0.86306457 -3.6959155e-05    0.4971637  0.012235655            0   0.48492805    1.2838085    1.7809723   0.51943311 
 1385000   0.93045886 6.6740368e-05   0.40496301 0.0054298387            0   0.39953317    1.3840576    1.7890206    4.0670918 
 1390000   0.93693544 -1.585067e-06   0.40781622 0.0012704395            0   0.40654578    1.3936915    1.8015077    1.7474041 
 1395000   0.90937553 3.2602861e-05   0.44965065 0.00094158929            0   0.44870906    1.3526961    1.8023468    2.9151911 
 1400000   0.95832362 7.9091227e-06   0.40782474 0.0023751079            0   0.40544964    1.4255064    1.8333311    2.1032959 
 1405000   0.97205229 -2.8788694e-05   0.38648384 0.0082666909            0   0.37821715    1.4459278    1.8324116   0.84975752 
 1410000   0.94943455 -0.00010191857    0.4206417 0.0092931087            0   0.41134859    1.4122839    1.8329256    -1.645895 
 1415000   0.89689269 -0.00012476763   0.48522259 0.0076938728            0   0.47752872    1.3341279    1.8193505   -2.4393846 
 1420000   0.94008342 -8.3592218e-05   0.44457699 0.0064107666            0   0.43816622    1.3983741    1.8429511     -1.01033 
 1425000   0.93381462 0.00017823543   0.44683017  0.002616928            0   0.44421324    1.3890492    1.8358794    7.9196486 
 1430000   0.96484725 -3.1976159e-05   0.40358035 6.5047195e-05            0    0.4035153    1.4352103    1.8387906   0.74733776 
 1435000   0.90623902 1.4226928e-05   0.47472973 0.0029845754            0   0.47174516    1.3480305    1.8227603    2.3083727 
 1440000   0.92117953 -1.741776e-05   0.45770401 0.0077900352            0   0.44991398    1.3702545    1.8279586    1.2334324 
 1445000   0.91065842 -0.00013759324   0.48564424 0.0043538636            0   0.48129038    1.3546044    1.8402486   -2.8562673 
 1450000   0.94441462 7.1392426e-05   0.40834556 0.0024913117            0   0.40585424    1.4048167    1.8131623    4.2500238 
 1455000   0.98045632 2.7337859e-05   0.39647419 0.0016834646            0   0.39479072    1.4584288     1.854903    2.7880352 
 1460000   0.92985904 -0.00012204029   0.47353985 0.0027075112            0   0.47083234    1.3831653    1.8567052   -2.3089368 
 1465000   0.94030987 8.7456863e-05   0.45742979 0.0044711335            0   0.45295865    1.3987109    1.8561407     4.841335 
 1470000    0.9315487 4.6901588e-05   0.45705419 0.0041935455            0   0.45286065    1.3856787    1.8427329    3.4436404 
 1475000    0.9396397 -0.00014284804   0.46361792  0.001827857            0   0.46179006    1.3977141     1.861332   -3.0145477 
 1480000   0.95343687 0.00014803782   0.44602173 0.0090535465            0   0.43696818    1.4182373    1.8642591    6.9172835 
 1485000    1.0245539 -7.2078285e-06   0.36118025 0.0029089443            0    0.3582713    1.5240239    1.8852041    1.6391769 
 1490000   0.95954488 -0.00019085894    0.4489092 0.0019878306            0   0.44692137     1.427323    1.8762322   -4.6384195 
 1495000   0.94595153 -2.3962966e-05   0.48160285 0.0061462488            0    0.4754566    1.4071029    1.8887057    1.0707698 
 1500000   0.90354708 -0.00010781006   0.53364846 0.0045692269            0   0.52907923    1.3440263    1.8776747   -1.8022421 
 1505000   0.95277777 9.6710974e-05   0.46775325   0.00792136            0   0.45983189    1.4172569    1.8850102    5.1860781 
 1510000   0.95448601 0.00014581392   0.44531338  0.019059976            0   0.42625341    1.4197979    1.8651113    6.8422265 
 1515000    0.9344144 -0.00016491187   0.49884429  0.033513542            0   0.46533074    1.3899414    1.8887857   -3.7402062 
 1520000   0.94213346 -8.5539115e-05   0.47480882  0.010025524            0    0.4647833    1.4014235    1.8762324   -1.0435028 
 1525000   0.91341851 -4.6588772e-05   0.49486834 0.0011347553            0   0.49373358      1.35871    1.8535784   0.26334829 
 1530000   0.94227487 5.1555905e-05   0.44912411 0.00043748414            0   0.44868663    1.4016339     1.850758    3.6105329 
 1535000   0.97589602 -6.5511953e-06   0.40196721 0.0043609696            0   0.39760624    1.4516453    1.8536125    1.6299984 
 1540000   0.96259396 0.00012957855   0.41527648  0.021254293            0   0.39402219    1.4318585     1.847135     6.270083 
 1545000   0.95263151 -0.00011630928   0.45631482  0.017924466            0   0.43839036    1.4170394    1.8733542   -2.0966693 
 1550000   0.96083874 -1.4952157e-05   0.45436595   0.01334145            0    0.4410245    1.4292476    1.8836136    1.3732466 
 1555000   0.95618998 -3.1793284e-05   0.46145715 0.0072652145            0   0.45419193    1.4223326    1.8837897   0.79857899 
 1560000   0.98045204 -0.0001489223    0.4277384  0.020061346            0   0.40767705    1.4584224    1.8861608   -3.1970537 
 1565000   0.93389741 -9.5712554e-05   0.48577073   0.02011918            0   0.46565155    1.3891724    1.8749431   -1.3920454 
 1570000    0.9546713 6.8982473e-05   0.43830613 0.0081596691            0   0.43014646    1.4200736    1.8583797    4.2129814 
 1575000   0.93284318 7.2823821e-05    0.4538338 0.0021754815            0   0.45165832    1.3876042     1.841438    4.3271578 
 1580000   0.95236374 -1.7905772e-05   0.46222762 0.0029799744            0   0.45924764    1.4166411    1.8788687     1.267685 
 1585000   0.95788259 0.0002484408   0.44586532 0.0066156622            0   0.43924966    1.4248503    1.8707157    10.350828 
 1590000   0.95960853 -9.2800767e-05    0.4271953 0.0057888727            0   0.42140643    1.4274177     1.854613   -1.3129865 
 1595000    0.9479258 2.8958981e-05   0.45561691 0.0042248637            0   0.45139205    1.4100396    1.8656565    2.8541231 
 1600000   0.99029163 -3.2850235e-05   0.39434172 0.0043521501            0   0.38998957    1.4730588    1.8674005    0.7461125 
 1605000   0.98303628 8.938287e-05   0.41007016 0.0043437851            0   0.40572637    1.4622665    1.8723366    4.9232719 
 1610000   0.95513994 0.00011671156   0.42531683  0.020898356            0   0.40441847    1.4207707    1.8460875    5.8298421 
 1615000   0.93204075 -5.4446709e-05   0.46316408  0.036151816            0   0.42701227    1.3864106    1.8495747 -0.008872991 
 1620000    0.8898461 5.8464899e-05   0.51327677  0.020535081            0   0.49274169    1.3236461    1.8369228    3.8325247 
 1625000   0.95858981 -4.3780355e-05   0.38811577  0.012750667            0    0.3753651    1.4259023    1.8140181   0.31964865 
 1630000   0.90655315 -2.9881565e-05   0.47492274 0.0031026985            0   0.47182004    1.3484978    1.8234205   0.80346311 
 1635000   0.91195782 -0.00010739036   0.47579217 0.0088768486            0   0.46691533    1.3565373    1.8323294   -1.8332616 
 1640000   0.90986469 -5.6592892e-05   0.48943119  0.015758152            0   0.47367304    1.3534237    1.8428549 -0.088849121 
 1645000   0.91781822 1.416689e-05   0.48762261   0.01491248            0   0.47271013    1.3652546    1.8528772    2.3364404 
 1650000   0.92004134 0.00016978025   0.47102435 0.0042145594            0   0.46680979    1.3685615    1.8395858    7.6347516 
 1655000   0.95665929 8.127747e-05   0.40428374  0.013677161            0   0.39060658    1.4230307    1.8273144    4.6015854 
 1660000   0.86290141 0.00016236397   0.52414328  0.015211542            0   0.50893174    1.2835659    1.8077091    7.3497325 
 1665000   0.91116534 -2.2603292e-05   0.46229875 0.0059267673            0   0.45637198    1.3553584    1.8176572    1.0461315 
 1670000   0.91764156 -0.00015384512   0.43404607 0.0037017292            0   0.43034434    1.3649918    1.7990379    -3.452209 
 1675000   0.92357848 -8.8021459e-05   0.42931731 0.0048248208            0   0.42449249     1.373823    1.8031403   -1.2013255 
 1680000   0.89469689 -4.5918139e-05   0.43921199 0.0033904111            0   0.43582158    1.3308616    1.7700736   0.20273447 
 1685000   0.89347665 -4.354191e-06    0.4425078   0.01163543            0   0.43087237    1.3290465    1.7715543    1.6229313 
 1690000   0.87813204 -9.3357625e-05   0.47357738  0.015731587            0   0.45784579    1.3062214    1.7797988   -1.4068082 
 1695000   0.89291824 -1.6782183e-05    0.4847957 0.0049340437            0   0.47986166    1.3282159    1.8130116    1.2401797 
 1700000   0.92196771 -3.7539646e-05   0.43709178 0.0083040786            0    0.4287877     1.371427    1.8085187    0.5271655 
 1705000   0.89730091 8.1471389e-05   0.49197945  0.045807601            0   0.44617185    1.3347351    1.8267146    4.6076046 
 1710000   0.91681736 1.314435e-05   0.47055298  0.019259207            0   0.45129377    1.3637658    1.8343188    2.2829793 
 1715000   0.88742922 -0.00012103673   0.50964258 0.0014675301            0   0.50817505     1.320051    1.8296936   -2.3016936 
 1720000   0.91668179 -0.00018809569   0.47067033 0.0025028389            0   0.46816749    1.3635642    1.8342345   -4.5860984 
 1725000   0.93269571 -2.7241092e-05   0.44335927 0.0051584757            0    0.4382008    1.3873849    1.8307441   0.90091486 
 1730000   0.98690215 2.9100948e-05   0.38866915 0.0084245996            0   0.38024455     1.468017    1.8566861    2.8499985 
 1735000   0.93438992 4.5119909e-05   0.46428197  0.015883677            0   0.44839829     1.389905     1.854187    3.3942799 
 1740000   0.87617046 0.00018769681   0.53927365 0.0062201516            0    0.5330535    1.3033036    1.8425772    8.2492951 
 1745000   0.91925349 -0.00013748559   0.49321481 0.0012962896            0   0.49191852    1.3673896    1.8606044    -2.832237 
 1750000   0.92024636 -9.5407091e-05   0.48997832 0.0013527317            0   0.48862559    1.3688665    1.8588448   -1.3977173 
 1755000   0.94339599 -6.233175e-05   0.46373666 0.00056922045            0   0.46316744    1.4033015    1.8670382  -0.26055219 
 1760000   0.94926761 -4.2747607e-05   0.45943743 7.4108958e-05            0   0.45936332    1.4120356     1.871473   0.41235467 
 1765000   0.87890663 2.6566576e-05   0.54668225            0            0   0.54668225    1.3073736    1.8540559    2.7608617 
 1770000   0.92637776 0.00016694608   0.48692898 1.8130738e-05            0   0.48691085    1.3779869    1.8649159    7.5633421 
 1775000   0.90410012 -9.1036174e-05    0.5062819 0.0015663417            0   0.50471556    1.3448489    1.8511308   -1.2562373 
 1780000   0.93666898 -9.3083945e-05   0.46152215  0.019146934            0   0.44237521    1.3932951    1.8548172   -1.3224481 
 1785000   0.88100065 -2.6198689e-05   0.53780079  0.026198512            0   0.51160228    1.3104885    1.8482893   0.95404067 
 1790000   0.94526721 -0.00018941191   0.45992885  0.011116438            0   0.44881241     1.406085    1.8660138   -4.5992462 
 1795000   0.96602031 -6.5753535e-05   0.44069399 0.00073785398            0   0.43995613    1.4369552    1.8776492  -0.36673811 
 1800000   0.97881721 1.5740861e-05   0.44307726 0.0027167906            0   0.44036047    1.4559906    1.8990679    2.4363559 
 1805000   0.94416641 -4.3891552e-05   0.48079465  0.016361914            0   0.46443273    1.4044475    1.8852422   0.38707721 
 1810000   0.90224267 0.00013702665   0.51587637  0.028091148            0   0.48778522     1.342086    1.8579623    6.5351387 
 1815000   0.88057324 -0.00014805067   0.54335478 0.0066108485            0   0.53674393    1.3098527    1.8532075   -3.2002553 
 1820000   0.90620994 -4.8069417e-05   0.51518161 0.0099790093            0    0.5052026    1.3479873    1.8631689   0.22239947 
 1825000   0.90957033 0.00013169095   0.53172815  0.023832737            0   0.50789541    1.3529859     1.884714    6.3797652 
 1830000   0.91807406 -4.1962046e-05   0.51050514 0.0064581145            0   0.50404703    1.3656352    1.8761403   0.44383579 
 1835000   0.95852927 -0.00010549363   0.48936082 0.0017102859            0   0.48765053    1.4258123    1.9151731   -1.6856762 
 1840000   0.96481921 -7.2696396e-05   0.45914238 0.0021046993            0   0.45703769    1.4351686     1.894311  -0.58705935 
 1845000   0.98243783 -0.00012523684   0.43406046 0.0023727511            0   0.43168771    1.4613763    1.8954367    -2.379314 
 1850000   0.94272299 1.0168716e-05   0.50155542 0.00069727727            0   0.50085814    1.4023005    1.9038559     2.250948 
 1855000   0.97063135 -2.9979442e-06   0.46784708 0.0006278619            0   0.46721922    1.4438141    1.9116612    1.8093314 
 1860000   0.96415435 -6.3069243e-06    0.4865996 0.0022692101            0   0.48433039    1.4341796    1.9207792    1.7055028 
 1865000   0.88410432 -0.00011577805   0.62289411   0.02219945            0   0.60069466    1.3151052    1.9379993   -2.0138916 
 1870000    1.0119632 2.4323262e-05   0.43923806  0.013294689            0   0.42594338    1.5052953    1.9445333    2.7747674 
 1875000    1.0311786 -3.9774045e-05   0.42592608 0.0056524832            0    0.4202736    1.5338781    1.9598042   0.60218349 
 1880000    0.9749969 -6.5953067e-05   0.49742654 0.00024974449            0    0.4971768    1.4503079    1.9477344   -0.3034636 
 1885000   0.99927228 7.7133588e-05   0.47126461  0.008147435            0   0.46311717    1.4864175    1.9576821    4.5905086 
 1890000    1.0347123 -0.00011661638   0.45153632   0.01763982            0    0.4338965    1.5391346    1.9906709   -1.9898348 
 1895000    1.0391097 -6.5310391e-05   0.44229532  0.019422269            0   0.42287305    1.5456757     1.987971  -0.24129034 
 1900000    1.0157121 -7.3195428e-05   0.49219719  0.017495701            0   0.47470149    1.5108718     2.003069  -0.49533499 
 1905000    1.0322646 -1.68583e-05   0.45978452 0.0089265203            0     0.450858    1.5354937    1.9952782    1.4198482 
 1910000    1.0004374 -4.2499708e-05    0.5142713 0.0077348314            0   0.50653647    1.4881507     2.002422   0.55176528 
 1915000    1.0215918 0.0001042362   0.47908279 0.0050925721            0   0.47399021    1.5196178    1.9987006    5.5566294 
 1920000    1.0062219 -0.00010672569   0.50521848  0.015009685            0    0.4902088     1.496755    2.0019735   -1.6409302 
 1925000    1.0171596 -5.6787713e-05   0.47966505  0.011108029            0   0.46855702    1.5130249    1.9926899  0.054336002 
 1930000    1.0050295 8.1232055e-05   0.49569871 0.0039029906            0   0.49179572    1.4949814    1.9906801    4.7634009 
 1935000    1.0173262 -6.8931946e-05   0.45696319  0.002705285            0    0.4542579    1.5132727    1.9702359  -0.38264118 
 1940000   0.93437359 0.00013573762   0.58322128 0.0066332416            0   0.57658803    1.3898807     1.973102    6.6062796 
 1945000   0.99151411 9.0617754e-05   0.47654449 0.0045052698            0   0.47203922    1.4748772    1.9514217    5.0445077 
 1950000    1.0024212 -0.00018540372   0.45547648  0.014842412            0   0.44063407    1.4911015     1.946578    -4.381869 
 1955000   0.98621241 8.1287341e-06     0.454793  0.021202984            0   0.43359001     1.466991     1.921784    2.1992447 
 1960000     0.962285 7.0083495e-05   0.50601209 0.0044924296            0   0.50151966    1.4313989     1.937411    4.3295943 
 1965000    0.9519582 -5.0126766e-05   0.53064933 0.0043607322            0    0.5262886    1.4160378    1.9466871   0.23569352 
 1970000   0.94607327 -0.00013140262   0.54863824 0.0062710614            0   0.54236718     1.407284    1.9559222   -2.5292874 
 1975000   0.97415898 2.6621069e-05   0.47622098 0.0091896527            0   0.46703133    1.4490615    1.9252825    2.8339483 
 1980000    1.0103957 7.5399861e-05   0.42012657 0.0083024179            0   0.41182416    1.5029635    1.9230901    4.4967387 
 1985000    0.9849783 0.00010993674   0.47037674 0.0030947366            0     0.467282    1.4651552    1.9355319    5.6880394 
 1990000    0.9794952 0.00011649295   0.46463433  0.006782277            0   0.45785205    1.4569991    1.9216334     5.897926 
 1995000    0.9255334 -5.192313e-05    0.5330083 0.0095421195            0   0.52346618    1.3767309    1.9097392   0.13742972 
 2000000   0.96044311 -0.00013428862    0.4870554 0.0097427543            0   0.47731265    1.4286591    1.9157145   -2.6680038 
 2005000   0.98224602 5.5382899e-05   0.45824144 0.0022304955            0   0.45601094     1.461091    1.9193324    3.8097354 
 2010000    1.0302376 0.00011387305   0.38971844 0.0071041538            0   0.38261428    1.5324785    1.9221969    5.8090637 
 2015000   0.98096642 -6.0426482e-06   0.46846413  0.017325923            0    0.4511382    1.4591875    1.9276517    1.7213959 
 2020000   0.98040382 0.00011821064   0.46078921  0.011052474            0   0.44973674    1.4583507    1.9191399    5.9540629 
 2025000   0.98710651 0.00012997314   0.44389638  0.011658603            0   0.43223778    1.4683209    1.9122173    6.3486337 
 2030000   0.92071472 9.9197848e-07   0.55355967  0.013256007            0   0.54030366    1.3695631    1.9231228    1.9569823 
 2035000   0.99554332 9.3895381e-05   0.43601857 0.0059451848            0   0.43007338    1.4808707    1.9168893    5.1218516 
 2040000   0.99073793 -3.4312785e-05    0.4501292  0.011545514            0   0.43858369    1.4737227    1.9238519   0.75264215 
 2045000   0.95881945 -7.5155549e-05   0.51492288   0.02406699            0   0.49085589    1.4262439    1.9411668  -0.62414257 
 2050000    1.0060117 -6.6988297e-05   0.44118471  0.002550569            0   0.43863414    1.4964424    1.9376271  -0.34890679 
 2055000   0.96935161 -0.00014904289   0.48658425 0.00073329781            0   0.48585095    1.4419105    1.9284948   -3.1588358 
 2060000    1.0103761 -9.2097429e-06   0.39042488 0.0099767685            0   0.38044812    1.5029345    1.8933593    1.5790001 
 2065000   0.96933134 7.6409634e-06   0.45031639  0.011537028            0   0.43877936    1.4418804    1.8921968    2.1530083 
 2070000   0.92368179 1.7764599e-06   0.52956015  0.025535808            0   0.50402434    1.3739767    1.9035368    1.9641733 
 2075000   0.90588108 1.1582798e-05   0.54299256  0.031740833            0   0.51125172    1.3474981    1.8904907    2.2858502 
 2080000   0.98476237 -4.8781933e-05   0.40519299  0.010842038            0   0.39435095     1.464834     1.870027   0.20493701 
 2085000   0.97194614 4.7819905e-05   0.43677232 0.0016314518            0   0.43514087    1.4457699    1.8825422     3.514795 
 2090000   0.91496813 -7.7746944e-07   0.52646156  0.005875734            0   0.52058582    1.3610151    1.8874766     1.860939 
 2095000   0.97431893 -5.1319312e-05   0.45207277  0.011058663            0   0.44101411    1.4492994    1.9013722   0.14967301 
 2100000   0.92651714 -6.0907759e-05   0.52577801  0.013938393            0   0.51183962    1.3781942    1.9039723   -0.1750126 
 2105000   0.99920621 7.8337495e-06    0.4064054  0.017044749            0   0.38936065    1.4863192    1.8927246    2.1601166 
 2110000   0.97378639 -6.2653499e-05   0.43910427  0.003755672            0    0.4353486    1.4485073    1.8876115  -0.25096123 
 2115000   0.95199024 -0.0001013822   0.47980913 0.0024901506            0   0.47731898    1.4160855    1.8958946   -1.5646178 
 2120000   0.94333518 -1.8501421e-05   0.48639869 0.0027394102            0   0.48365928    1.4032111    1.8896098    1.2580946 
 2125000    1.0044985 -4.9200566e-05    0.3919336   0.01605097            0   0.37588263    1.4941916    1.8861252   0.20674583 
 2130000   0.98676201 -1.0774297e-05   0.42154857 0.0072333666            0   0.41431521    1.4678085    1.8893571    1.5215944 
 2135000   0.93340802 -0.00014760319   0.51634019 0.0012210592            0   0.51511914    1.3884444    1.9047846   -3.1334042 
 2140000   0.98023476 -3.1417294e-06   0.45412335  0.013947519            0   0.44017583    1.4580992    1.9122226    1.8049849 
 2145000   0.96316128 -8.3629679e-05   0.48404549  0.036041964            0   0.44800353    1.4327024    1.9167479  -0.93781179 
 2150000   0.98467028 -1.7927615e-05   0.46288709   0.02466624            0   0.43822085     1.464697    1.9275841    1.3156549 
 2155000   0.98853304 4.8028142e-06   0.44718724 0.0051587598            0   0.44202848    1.4704429    1.9176301    2.0815662 
 2160000   0.95780644 5.9802296e-05   0.49791173 0.0036286361            0    0.4942831    1.4247371    1.9226488    3.9639005 
 2165000   0.96449862 0.00017190948   0.48401456  0.010027876            0   0.47398669    1.4346917    1.9187063      7.78655 
 2170000   0.98154603 -3.2048485e-05   0.44260158   0.00692215            0   0.43567943    1.4600497    1.9026513   0.80872968 
 2175000   0.96482747 2.3707267e-05   0.46837671 0.0032613752            0   0.46511533    1.4351809    1.9035576    2.7127656 
 2180000   0.96108763 0.0001661724   0.51038439  0.010071986            0    0.5003124    1.4296179    1.9400022    7.6120201 
 2185000    0.9354311 7.3898833e-05   0.54961139  0.018994293            0    0.5306171    1.3914538    1.9410652    4.4634786 
 2190000    1.0046573 -8.9070599e-05   0.46525087  0.025693418            0   0.43955745    1.4944277    1.9596786   -1.0805979 
 2195000    1.0470755 0.00011296361   0.40733273  0.016986917            0   0.39034581    1.5575248    1.9648575    5.8206819 
 2200000   0.97745739 3.6280638e-05   0.52367879  0.035826633            0   0.48785215    1.4539679    1.9776466    3.2160258 
 2205000     1.006559 -1.2680555e-06   0.48076169  0.024347559            0   0.45641413    1.4972565    1.9780182    1.9347352 
 2210000    1.0464039 3.6981318e-05   0.44429634  0.015538622            0   0.42875772    1.5565258    2.0008222    3.2631178 
 2215000   0.98726364 -9.0988268e-05   0.52917137  0.012967407            0   0.51620396    1.4685547     1.997726   -1.1080068 
 2220000    1.0124638 6.8770698e-05   0.49457286 0.0099223944            0   0.48465047      1.50604    2.0006128     4.347986 
 2225000    1.0209491 0.00010688299   0.46717902  0.017447777            0   0.44973125    1.5186618    1.9858409    5.6341135 
 2230000    1.0205478 -8.587986e-05   0.46920804   0.00767439            0   0.46153365    1.5180648    1.9872729  -0.94409302 
 2235000   0.98602487 -2.9911915e-06   0.51015899  0.016581297            0   0.49357769     1.466712     1.976871    1.8747716 
 2240000   0.98699273 4.3139846e-05   0.49934366  0.029865201            0   0.46947846    1.4681517    1.9674953    3.4400021 
 2245000    1.0261224 7.8560432e-05   0.44275658  0.016671706            0   0.42608487     1.526357    1.9691136     4.650643 
 2250000   0.98457834 1.2994495e-05    0.5006537 0.0053895664            0   0.49526414    1.4645603     1.965214    2.4087594 
 2255000   0.97173652 -8.6981551e-05   0.50740021 0.0042440763            0   0.50315614    1.4454581    1.9528583    -1.016112 
 2260000   0.95508735 4.9027086e-05   0.54459797  0.029730896            0   0.51486708    1.4206924    1.9652904    3.6387483 
 2265000   0.98367983 9.7198412e-06   0.50253066  0.013723012            0   0.48880764    1.4632237    1.9657544     2.297525 
 2270000    1.0182101 8.9042586e-06   0.44495704 0.00024060802            0   0.44471643    1.5145875    1.9595446    2.2634766 
 2275000    1.0069411 0.00011364039   0.46800517 0.00070123998            0   0.46730393     1.497825    1.9658301    5.8447554 
 2280000    1.0341268 0.00013508398    0.4267916 0.0044556039            0     0.422336    1.5382636    1.9650552    6.5759217 
 2285000   0.97574763 -5.2547582e-05   0.49735832   0.01328246            0   0.48407586    1.4514246    1.9487829   0.15515879 
 2290000   0.97003941 -6.2143318e-05   0.47852245  0.015809852            0   0.46271259    1.4429336    1.9214561  -0.19970252 
 2295000   0.93894477 6.9769403e-05     0.518325  0.021293704            0   0.49703129    1.3966803    1.9150053    4.2964676 
 2300000   0.97656349 2.7221971e-05   0.42626071  0.012178824            0   0.41408188    1.4526382    1.8788989    2.8080755 
 2305000    1.0154365 -4.0366878e-05   0.36963337 0.0081283377            0   0.36150503    1.5104618    1.8800951   0.50223904 
 2310000   0.94992395 5.2570958e-05   0.48026956 0.0059044908            0   0.47436507    1.4130119    1.8932814    3.6877035 
 2315000   0.96407836 6.5382512e-05   0.46576694  0.014423832            0    0.4513431    1.4340666    1.8998335    4.1315566 
 2320000   0.98402278 -4.6962928e-05   0.41252976  0.026131209            0   0.38639855    1.4637339    1.8762636   0.27326236 
 2325000   0.96642637 4.766296e-05   0.46189511  0.019602892            0   0.44229221    1.4375592    1.8994543      3.52635 
 2330000   0.97994682 0.00014288565   0.44895957  0.020210237            0   0.42874933    1.4576709    1.9066305    6.7837939 
 2335000   0.98756199 -5.7132417e-05   0.42522517  0.007995357            0   0.41722981    1.4689985    1.8942236 -0.055896214 
 2340000   0.97044886 -7.3633329e-05   0.45209123   0.01930398            0   0.43278725    1.4435427    1.8956339  -0.61771705 
 2345000   0.95612369 -4.9440272e-05   0.47333768  0.007446687            0   0.46589099     1.422234    1.8955717   0.20801037 
 2350000   0.97880495 -7.4121187e-05   0.40613421  0.013424342            0   0.39270987    1.4559724    1.8621066  -0.66789661 
 2355000   0.95216873 -5.3035972e-06   0.47964471 0.0082132183            0    0.4714315     1.416351    1.8959957    1.7149663 
 2360000   0.92058515 -7.2558567e-05   0.53781981  0.017446343            0   0.52037346    1.3693704    1.9071902  -0.56947554 
 2365000    0.9767812 -1.9615155e-05   0.47510892  0.020733902            0   0.45437501     1.452962    1.9280709    1.2585403 
 2370000   0.96188335 6.5671052e-05   0.49713101   0.01432566            0   0.48280535    1.4308015    1.9279325    4.1695044 
 2375000    0.9873653 1.8947069e-05   0.46218591  0.035655329            0   0.42653058    1.4687059    1.9308918    2.5776184 
 2380000   0.93295971 -8.2062155e-05   0.54308294  0.029730784            0   0.51335215    1.3877776    1.9308605  -0.87019437 
 2385000   0.94984566 -0.00012533712   0.54530364  0.021366304            0   0.52393733    1.4128954    1.9581991   -2.3199746 
 2390000    1.0360469 -8.6316289e-05   0.41776294  0.012843509            0   0.40491943    1.5411198    1.9588828  -0.98737991 
 2395000    1.0116012 -5.76175e-06   0.45420189  0.030578511            0   0.42362338    1.5047568    1.9589587    1.7622909 
 2400000    1.0500198 6.9590914e-05   0.40751737  0.028014504            0   0.37950286    1.5619045    1.9694218    4.3447917 
 2405000    1.0528245 6.9373863e-05   0.41918996 0.0097501606            0    0.4094398    1.5660764    1.9852663    4.3532275 
 2410000    1.0122345 4.6105362e-06   0.47768286  0.017693812            0   0.45998905    1.5056988    1.9833817    2.1407546 
 2415000    1.0033056 0.00014482046   0.50130016  0.029525511            0   0.47177465    1.4924171    1.9937173    6.9369224 
 2420000    1.0298865 5.7598834e-05   0.44584408 0.0065803421            0   0.43926374    1.5319562    1.9778003    3.9438405 
 2425000    1.0202143 2.8226691e-05   0.45464252  0.011803212            0   0.44283931    1.5175687    1.9722112    2.9356823 
 2430000   0.97099015 3.579887e-05   0.53247968  0.037804506            0   0.49467517    1.4443479    1.9768275    3.1987623 
 2435000     1.008086 0.00011827203   0.47696172  0.043734623            0    0.4332271    1.4995279    1.9764897    6.0135084 
 2440000    1.0613689 2.5386114e-06   0.38705396  0.017281937            0   0.36977203    1.5787862    1.9658402    2.0524915 
 2445000    0.9867128 -0.00027823425   0.48604599 0.0024956354            0   0.48355036    1.4677353    1.9537813    -7.543281 
 2450000   0.97348816 -0.0001169576   0.51245155            0            0   0.51245155    1.4480636    1.9605152   -2.0316374 
 2455000   0.99322921 -1.1099918e-05   0.46781791 0.0097741437            0   0.45804376    1.4774284    1.9452464    1.5663692 
 2460000    1.0419153 5.3717444e-05   0.38887871  0.013767448            0   0.37511126     1.549849    1.9387277    3.7722831 
 2465000   0.97669265 8.3860231e-05   0.49323354 0.0025017152            0   0.49073182    1.4528303    1.9460638    4.8084931 
 2470000    1.0448637 0.00010092221   0.39200802 0.0018801527            0   0.39012787    1.5542348    1.9462428    5.3910544 
 2475000    1.0036909 7.5641313e-05   0.45338798 0.0045621301            0   0.44882585    1.4929902    1.9463782    4.5282683 
 2480000    0.9940704 -5.9881459e-05   0.46255754 0.0034603327            0   0.45909721    1.4786797    1.9412373  -0.10271654 
 2485000    1.0269157 3.1793561e-05   0.44486226 0.0095698744            0   0.43529239    1.5275371    1.9723994    3.0576196 
 2490000   0.99763822 1.1000824e-05   0.49997973  0.026650727            0     0.473329    1.4839869    1.9839666    2.3594614 
 2495000    1.0113117 -4.806392e-05   0.46722376  0.014080827            0   0.45314294    1.5043262      1.97155   0.33096814 
 2500000    1.0353165 9.9598646e-06   0.44868471  0.016686154            0   0.43199856    1.5400333     1.988718    2.3286814 
 2505000    1.0114687 4.6507434e-05   0.46706227  0.010703505            0   0.45635877    1.5045597    1.9716219    3.5590757 
 2510000    1.0370967 -6.2625294e-05   0.42463039  0.016396429            0   0.40823396    1.5426813    1.9673117  -0.17029831 
 2515000   0.98017507 6.9041267e-07   0.50264056  0.027515681            0   0.47512488    1.4580104     1.960651    1.9842171 
 2520000    1.0487655 0.00010351127   0.42578524  0.012409267            0   0.41337597    1.5600387    1.9858239    5.5190085 
 2525000   0.98329178 -2.6104716e-05   0.53018277  0.055867368            0    0.4743154    1.4626465    1.9928293    1.1017883 
 2530000    1.0326018 -1.108636e-05   0.45051052 0.0097513274            0   0.44075919    1.5359952    1.9865057    1.6080913 
 2535000    1.0114172 -0.0001186242    0.5196515  0.037382739            0   0.48226876    1.5044831    2.0241346   -2.0249047 
 2540000   0.99804456 -0.00017531591   0.55392988  0.047045527            0   0.50688436    1.4845913    2.0385212   -3.9455953 
 2545000     1.061993 6.9725235e-05   0.47060866  0.030531284            0   0.44007737    1.5797146    2.0503232    4.4302779 
 2550000    1.0627372 -1.143172e-06   0.47561341 0.0074396529            0   0.46817376    1.5808216     2.056435    2.0174147 
 2555000    1.0329066 0.00011669835   0.51528205  0.010999919            0   0.50428214    1.5364486    2.0517306    6.0350342 
 2560000    1.0093787 -0.00020487022   0.51052681  0.028916608            0    0.4816102    1.5014508    2.0119776   -4.9809259 
 2565000    1.0573971 -0.00011631304   0.41269613  0.019031712            0   0.39366442    1.5728782    1.9855744   -1.9845773 
 2570000    1.0343403 4.337634e-05   0.43636926  0.037317922            0   0.39905134    1.5385812    1.9749504    3.4555295 
 2575000   0.99501099 -1.6520745e-05   0.49350433  0.020184808            0   0.47331952    1.4800788    1.9735832    1.4096751 
 2580000    1.0014717 -2.7737825e-05   0.44203042  0.012661011            0    0.4293694    1.4896891    1.9317196   0.98493514 
 2585000   0.99876998 -1.8252504e-05   0.44707257  0.016278226            0   0.43079435    1.4856703    1.9327429    1.3097241 
 2590000    1.0123777 -3.5994769e-05   0.43546042   0.01091149            0   0.42454893    1.5059119    1.9413723   0.71275083 
 2595000    1.0055424 6.3766908e-05   0.44264991  0.019861045            0   0.42278887    1.4957444    1.9383943    4.1149714 
 2600000    1.0022448 -0.00013241457   0.45652944 0.0034894987            0   0.45303995    1.4908391    1.9473686    -2.572382 
 2605000   0.96708814 1.4667453e-05   0.51296731  0.012386465            0   0.50058084    1.4385436    1.9515109      2.45216 
 2610000   0.97778611 2.8880725e-05     0.478295  0.015371856            0   0.46292315    1.4544568    1.9327518    2.9185473 
 2615000    1.0180673 -0.00010279583   0.40758012 0.0069593923            0   0.40062072    1.5143751    1.9219553    -1.586809 
 2620000   0.97835419 -0.00014906869   0.47573587 0.0097737555            0   0.46596212    1.4553019    1.9310377   -3.1571734 
 2625000   0.99332869 9.7458622e-05   0.47013735   0.02502677            0   0.44511058    1.4775764    1.9477138    5.2743014 
 2630000   0.98018172 -1.9340979e-05   0.48934308  0.017147813            0   0.47219526    1.4580203    1.9473634    1.2871913 
 2635000    1.0338107 -0.00019155594    0.4105682  0.009317041            0   0.40125116    1.5377934    1.9483616    -4.590081 
 2640000   0.95935568 -9.2262036e-05   0.50852656  0.010030507            0   0.49849606    1.4270416    1.9355681   -1.2136427 
 2645000   0.95924306 7.5834223e-06   0.48770234 0.0095506558            0   0.47815168    1.4268741    1.9145764    2.1734239 
 2650000    1.0038029 -1.0216749e-05   0.41100469  0.012748107            0   0.39825659    1.4931568    1.9041615    1.5554298 
 2655000   0.96750823 -0.00014847927   0.44541149  0.010210508            0   0.43520098    1.4391685      1.88458   -3.1835125 
 2660000    1.0209649 4.3050988e-07   0.37828585  0.017425716            0   0.36086013    1.5186853    1.8969711    1.9116659 
 2665000   0.94184053 -5.8426025e-05   0.49255509  0.011927657            0   0.48062743    1.4009878    1.8935429  -0.10073211 
 2670000    1.0007248 -4.7430087e-05   0.39199864  0.004244802            0   0.38775383    1.4885781    1.8805767   0.26162978 
 2675000   0.99105311 7.4741818e-06   0.40502155  0.011197174            0   0.39382438    1.4741915    1.8792131    2.1343318 
 2680000   0.94454808 -0.00012792578   0.45819318  0.011712714            0   0.44648047    1.4050153    1.8632085   -2.5033249 
 2685000   0.93152855 -3.44506e-05   0.49898961  0.018142353            0   0.48084725    1.3856487    1.8846383   0.70872452 
 2690000   0.99303372 6.3137018e-05   0.44643265  0.009842413            0   0.43659024    1.4771377    1.9235703    4.0786472 
 2695000   0.94705452 6.5780662e-05   0.53968859 0.0035401125            0   0.53614848    1.4087436    1.9484322    4.1937455 
 2700000    1.0033417 0.00010434344   0.46242504  0.003406518            0   0.45901853    1.4924708    1.9548958    5.5164852 
 2705000    1.0095573 -0.00013918171   0.44790797  0.017387127            0   0.43052084    1.5017165    1.9496245   -2.8011113 
 2710000   0.96846938 -0.00013704021   0.51610886  0.038377686            0   0.47773118    1.4405982    1.9567071   -2.7209321 
 2715000   0.94725125 -2.0675638e-05   0.51787735 0.0090496187            0   0.50882773    1.4090362    1.9269136    1.2211851 
 2720000   0.96509641 -5.740963e-05   0.50682235  0.015256828            0   0.49156552    1.4355809    1.9424033 -0.017178797 
 2725000   0.97756992 -9.4684278e-05    0.4939267  0.036087695            0   0.45783901    1.4541353     1.948062    -1.283828 
 2730000    1.0297287 3.6285441e-05    0.4152243  0.018342178            0   0.39688212    1.5317215    1.9469458    3.1854889 
 2735000    1.0316249 0.00021367379   0.37847437 0.0019555543            0   0.37651882     1.534542    1.9130164    9.2064149 
 2740000   0.98822273 8.1784982e-05    0.4695995 0.0077070322            0   0.46189246    1.4699813    1.9395808    4.7311749 
 2745000    1.0155328 -0.00011923318   0.41255345  0.011593275            0   0.40096017     1.510605    1.9231584   -2.1466675 
 2750000   0.98179063 -8.8347192e-05   0.44616885  0.014971006            0   0.43119784    1.4604136    1.9065824   -1.1090017 
 2755000   0.97359804 -2.8068958e-05   0.45025342   0.02142199            0   0.42883143    1.4482271    1.8984805   0.94039339 
 2760000   0.93817689 8.2127746e-05    0.5017037  0.041607186            0   0.46009651    1.3955381    1.8972418    4.7005356 
 2765000   0.98245636 8.2305017e-05   0.43521292  0.034929506            0   0.40028341    1.4614038    1.8966167    4.7059613 
 2770000   0.94461143 6.1003226e-05   0.49619366   0.01989941            0   0.47629425    1.4051095    1.9013032    3.9835466 
 2775000    1.0096723 -1.0593827e-05   0.38905646  0.023553781            0   0.36550268    1.5018875    1.8909439    1.5293413 
 2780000   0.98643674 6.9504319e-05   0.43216926  0.022646457            0    0.4095228    1.4673246    1.8994939     4.271908 
 2785000   0.96936037 6.1473532e-05   0.45741941  0.011581622            0   0.44583778    1.4419236     1.899343    3.9976395 
 2790000   0.97038545 -6.7088369e-05   0.44813584 0.0029664281            0   0.44516942    1.4434484    1.8915842  -0.39836546 
 2795000   0.93825351 0.00010581524   0.47866238 0.00043620047            0   0.47822618    1.3956521    1.8743145    5.4861413 
 2800000   0.96681608 4.7196181e-05   0.40942835 0.0020601964            0   0.40736815    1.4381389    1.8475673    3.4585302 
 2805000   0.97038248 -9.0730487e-05   0.42170008 0.0060050538            0   0.41569502    1.4434439     1.865144   -1.2317899 
 2810000   0.89792729 -8.3775564e-05   0.51238321  0.021484573            0   0.49089864    1.3356668      1.84805   -1.0114892 
 2815000   0.99099085 -4.7262371e-05   0.39877876  0.010296895            0   0.38848187    1.4740989    1.8728776   0.25965539 
 2820000     1.038668 2.8387784e-05   0.35473938  0.011745383            0     0.342994    1.5450186     1.899758    2.8687277 
 2825000    1.0008508 0.00010351295   0.43715402  0.032462732            0   0.40469129    1.4887656    1.9259196    5.4591617 
 2830000   0.95343516 0.00010912724   0.50039863  0.010702657            0   0.48969598    1.4182348    1.9186334    5.6435098 
 2835000   0.98098055 0.00012697287   0.45865757  0.017222398            0   0.44143517    1.4592086    1.9178661    6.2518733 
 2840000   0.99938495 0.00018675084   0.40549736  0.024359831            0   0.38113752    1.4865851    1.8920825    8.2665111 
 2845000   0.94594023 -0.00010055323   0.47082224   0.01047718            0   0.46034506    1.4070861    1.8779083   -1.5543087 
 2850000   0.93564476 -0.00013761533    0.4771547 0.0048305566            0   0.47232415    1.3917716    1.8689263   -2.8283437 
 2855000   0.99572404 9.9869279e-05   0.36581838  0.016244037            0   0.34957434    1.4811395    1.8469579    5.2558293 
 2860000   0.93877709 0.0001531827   0.46855694  0.013885508            0   0.45467143    1.3964309    1.8649879    7.0936239 
 2865000   0.95177206 1.7694349e-05   0.47190562 0.0017659665            0   0.47013965    1.4157609    1.8876666    2.4916337 
 2870000   0.94004451 -5.5230445e-05   0.47971251 0.0053798577            0   0.47433265    1.3983162    1.8780287 -0.0071704684 
 2875000   0.97960313 7.0570339e-05   0.39543857 0.0052310292            0   0.39020754    1.4571597    1.8525982    4.2613991 
 2880000    0.9724563 -0.00011651981   0.43316111  0.012938245            0   0.42022286    1.4465287    1.8796898   -2.0975198 
 2885000   0.93403681 -6.8088177e-05    0.4838326  0.039823597            0     0.444009    1.3893798    1.8732124  -0.45086408 
 2890000   0.94464611 8.2871608e-06    0.4654825  0.031865175            0   0.43361733    1.4051611    1.8706436     2.153512 
 2895000   0.95096554 6.7948451e-05   0.46152565  0.034964958            0   0.42656069    1.4145612    1.8760869     4.195394 
 2900000   0.98447387 0.00015190249   0.41382994  0.015555365            0   0.39827457    1.4644049    1.8782348    7.0631733 
 2905000   0.95005361 -4.7457805e-05   0.45937303  0.012740818            0   0.44663221    1.4132048    1.8725778   0.25268471 
 2910000   0.92699677 -6.5225584e-05   0.50053007  0.065903883            0   0.43462619    1.3789077    1.8794378  -0.34692884 
 2915000   0.96474624 5.5673387e-05    0.4171728  0.015501282            0   0.40167152      1.43506    1.8522328    3.7525511 
 2920000   0.97375323 3.6796779e-05   0.40285365  0.019502712            0   0.38335094    1.4484579    1.8513116    3.1073083 
 2925000   0.87180437 -9.2606166e-05   0.51824985  0.018579949            0   0.49966991     1.296809    1.8150589   -1.3458983 
 2930000   0.91267738 -0.00010531763   0.44848306  0.005442729            0   0.44304033    1.3576076    1.8060907    -1.788751 
 2935000   0.90239064 -9.938021e-06   0.45650921  0.003855801            0   0.45265341    1.3423061    1.7988153    1.4595975 
 2940000   0.91618467 7.7116112e-05    0.4287844  0.027227002            0    0.4015574    1.3628247    1.7916091     4.423839 
 2945000    0.8760536 2.1281704e-05   0.47427524  0.041885718            0   0.43238953    1.3031297     1.777405    2.5038205 
 2950000   0.91918821 -1.0150368e-05   0.42742321  0.024487878            0   0.40293533    1.3672925    1.7947157    1.4482498 
 2955000   0.90582321 -0.00010494772   0.45497838  0.018734335            0   0.43624405     1.347412    1.8023904   -1.7798252 
 2960000   0.93781151 2.3751289e-05   0.41615905 0.0069990139            0   0.40916004    1.3949946    1.8111537    2.6218643 
 2965000   0.90719422 0.00017353477   0.43820926 0.0020410651            0   0.43616819    1.3494514    1.7876607    7.7109808 
 2970000   0.87197947 5.9401164e-05   0.47615229   0.01198555            0   0.46416674    1.2970695    1.7732218    3.8007815 
 2975000   0.90586674 -2.9422142e-05   0.41161437  0.016900728            0   0.39471365    1.3474768    1.7590912   0.75481537 
 2980000   0.87315041 3.1078599e-05   0.46226389  0.049983016            0   0.41228087    1.2988112    1.7610751    2.8218913 
 2985000   0.84553875 0.00015631359   0.50463155  0.031755731            0   0.47287581    1.2577389    1.7623704    7.0978744 
 2990000   0.83024521 4.243641e-05   0.51837852  0.023058448            0   0.49532007    1.2349897    1.7533683    3.2018644 
 2995000   0.85855792 -3.8661645e-05    0.4844772  0.011570022            0   0.47290718    1.2771049    1.7615821   0.44193131 
 3000000   0.90079389 -1.2460289e-05   0.42791195 0.0087622047            0   0.41914975    1.3399309    1.7678429    1.3425317 
 3005000    0.9782571 -7.7138227e-05   0.32887987 0.0042498459            0   0.32463003    1.4551574    1.7840373  -0.84894753 
 3010000   0.92529878 1.8502127e-05   0.39917957 0.0028925672            0   0.39628701    1.3763819    1.7755615    2.4071008 
 3015000   0.87382569 2.0492715e-06   0.47075705  0.023195932            0   0.44756112    1.2998157    1.7705728    1.8405212 
 3020000   0.88812061 -0.00022887407   0.46160423  0.025526313            0   0.43607791    1.3210794    1.7826836   -6.0295512 
 3025000   0.91356838 -0.00010557705   0.42547553  0.019592598            0   0.40588293     1.358933    1.7844085   -1.8192882 
 3030000   0.90023527 1.0993488e-05   0.43379984  0.020279206            0   0.41352064       1.3391    1.7728998    2.1481442 
 3035000   0.90983163 -0.00019460313   0.43302497  0.013712228            0   0.41931274    1.3533746    1.7863995    -4.856054 
 3040000   0.87132387 -0.00012106107   0.47381488 0.0066504815            0    0.4671644    1.2960943    1.7699091   -2.3623088 
 3045000   0.85062154 3.7737245e-05    0.5048608 0.0064221413            0   0.49843866    1.2652995    1.7701603    3.0582583 
 3050000   0.88569945 2.4073096e-05   0.43087781  0.022628965            0   0.40824884    1.3174779    1.7483557    2.5700507 
 3055000   0.87155159 5.2645035e-05   0.44833887  0.013944924            0   0.43439395     1.296433    1.7447719    3.5417224 
 3060000   0.85822998 7.8213481e-05   0.45880851  0.033680011            0    0.4251285    1.2766171    1.7354256    4.4051124 
 3065000   0.84548841 -7.8368343e-05   0.47372124  0.026601594            0   0.44711965     1.257664    1.7313853  -0.94358753 
 3070000    0.8440244 -0.00010219313   0.49364216  0.011877727            0   0.48176443    1.2554863    1.7491284   -1.7390636 
 3075000   0.91794465 -0.00010263938   0.38629506 0.0068967237            0   0.37939833    1.3654427    1.7517377   -1.7516866 
 3080000   0.91041277 -0.0001048981    0.4112474 0.0093587042            0   0.40188869     1.354239    1.7654864   -1.8150356 
 3085000   0.89008437 2.1282884e-05   0.42498194 0.0073606713            0   0.41762126    1.3240005    1.7489824    2.4754382 
 3090000   0.93615925 -1.0221995e-05   0.34001267 0.0061309361            0   0.33388174    1.3925369    1.7325496    1.3836388 
 3095000   0.85879801 -3.5053615e-05   0.45673953 0.0040758087            0   0.45266372     1.277462    1.7342016   0.53770485 
 3100000   0.87411388 2.5357986e-05   0.44981832 0.0079881801            0   0.44183014    1.3002444    1.7500627    2.6156153 
 3105000   0.87197327 5.7297158e-05   0.45231354  0.018168318            0   0.43414522    1.2970602    1.7493738    3.7051168 
 3110000    0.8389742 6.5703529e-05   0.47890907 0.0093506024            0   0.46955846    1.2479741    1.7268832    3.9695636 
 3115000   0.90773315 3.2863669e-06   0.39690005 0.0047692443            0   0.39213081    1.3502531    1.7471531    1.8593278 
 3120000   0.88002493 -9.8118479e-05   0.46080758  0.026649103            0   0.43415847    1.3090371    1.7698447   -1.5792661 
 3125000   0.89700294 -1.7782787e-05   0.45466079  0.028211957            0   0.42644883    1.3342919    1.7889527    1.1819669 
 3130000    0.8882516 7.2778042e-05   0.49749259 0.0065884247            0   0.49090416    1.3212743    1.8187668     4.302924 
 3135000   0.93568744 -0.000101629   0.43591859  0.012107357            0   0.42381123    1.3918351    1.8277536   -1.6411828 
 3140000   0.90549506 -0.00016104634   0.49264212  0.032383094            0   0.46025902    1.3469239     1.839566   -3.6574824 
 3145000   0.84620265 1.7514708e-05   0.55832068  0.025723886            0   0.53259679    1.2587264    1.8170471    2.4148825 
 3150000   0.92778241 0.00013023598   0.41158856  0.031098974            0   0.38048959    1.3800763    1.7916649     6.237053 
 3155000   0.93641913 2.1080714e-05   0.41968006  0.047398831            0   0.37228122    1.3929234    1.8126035    2.5321585 
 3160000   0.93517586 8.5658041e-06   0.42618831   0.01195939            0   0.41422892    1.3910741    1.8172624    2.1096418 
 3165000   0.92353097 9.4339836e-05    0.4561889 0.0087477327            0   0.44744117    1.3737523    1.8299412    5.0500743 
 3170000   0.86917786  1.04633e-05   0.51843353  0.050804438            0    0.4676291    1.2929021    1.8113356    2.1684829 
 3175000   0.93170025 -1.9212516e-05   0.46429176  0.066007989            0   0.39828377    1.3859041    1.8501959    1.1944087 
 3180000   0.89924007 -6.6911789e-05   0.50486298  0.062188197            0   0.44267479    1.3376196    1.8424826  -0.44143981 
 3185000   0.92193987 0.00014235021   0.47956983   0.06610331            0   0.41346652    1.3713856    1.8509554    6.7098425 
 3190000   0.94676386 0.00010174062   0.42394463  0.012856719            0   0.41108791    1.4083112    1.8322559    5.3050024 
 3195000   0.93370448 -8.6197227e-05   0.46180609    0.0472902            0   0.41451589    1.3888854    1.8506915   -1.0915072 
 3200000   0.95809695 -8.1406927e-05   0.43857482  0.008247687            0   0.43032714    1.4251692     1.863744  -0.91494574 
 3205000   0.95158097 -0.00013534356   0.45987786  0.017892344            0   0.44198552    1.4154767    1.8753546   -2.7443723 
 3210000   0.92966172 -8.6638287e-05   0.49651968  0.039081751            0   0.45743793    1.3828718    1.8793915   -1.0778621 
 3215000   0.98999251 -6.7728854e-06   0.39675369  0.031178613            0   0.36557508    1.4726139    1.8693675    1.6381864 
 3220000   0.95517112 -7.1143938e-05   0.46092211  0.033861249            0   0.42706086     1.420817    1.8817392  -0.54664058 
 3225000   0.91655397 -0.00010210927   0.52284668  0.046954991            0   0.47589169     1.363374    1.8862207    -1.599109 
 3230000   0.97464437 6.6732355e-05    0.4253636   0.02324678            0   0.40211682    1.4497835    1.8751471    4.1529448 
 3235000   0.96539015 0.00012761636   0.43721878  0.023507098            0   0.41371168    1.4360178    1.8732366    6.2292084 
 3240000   0.99075851 0.00010657917   0.41538263 0.0020164375            0    0.4133662    1.4737533    1.8891359    5.5270382 
 3245000   0.94248092 -2.3759393e-05   0.45961975 0.0039111083            0   0.45570864    1.4019404    1.8615601    1.0505728 
 3250000   0.94049053 -1.7281169e-05   0.47595917 0.0074722264            0   0.46848695    1.3989797    1.8749388    1.2850749 
 3255000   0.94809167 -1.6558519e-05   0.44188843 0.0088357344            0   0.43305269    1.4102864    1.8521748    1.2869774 
 3260000    0.9259871 2.5953415e-05   0.46921552  0.047645677            0   0.42156984    1.3774058    1.8466213    2.7324979 
 3265000   0.90892306 -3.368191e-05   0.49320124  0.042893887            0   0.45030736     1.352023    1.8452243   0.69554845 
 3270000   0.95909499 -8.0528767e-05   0.40451258 0.0075070306            0   0.39700555    1.4266538    1.8311664  -0.91754889 
 3275000   0.94349141 -0.00015958891   0.42190076 0.0050038378            0   0.41689692    1.4034435    1.8253442   -3.6219573 
 3280000   0.93145742 -8.4867796e-05   0.45057493 0.0059132057            0   0.44466173    1.3855429    1.8361178   -1.0607029 
 3285000   0.98699241 -2.668168e-05    0.3709722 0.0094540607            0   0.36151814    1.4681512    1.8391234   0.92838875 
 3290000   0.95644657 7.8343951e-05    0.4267978  0.008453181            0   0.41834462    1.4227143    1.8495121    4.5236522 
 3295000   0.95306085 0.00012010774   0.42049817 0.0034789883            0   0.41701918     1.417678    1.8381762    5.9378539 
 3300000   0.95485977 -1.5195458e-05   0.40880988 0.0016161276            0   0.40719375    1.4203539    1.8291638    1.3104922 
 3305000   0.95745593 -0.00010063726   0.38821368 0.0025322242            0   0.38568146    1.4242157    1.8124294   -1.6226559 
 3310000   0.92410319 8.8550042e-05   0.43877361 0.0026018283            0   0.43617178    1.3746035    1.8133771    4.8358852 
 3315000   0.91172778 -4.7570901e-05   0.44608722 0.0094546176            0    0.4366326    1.3561951    1.8022823   0.17852887 
 3320000   0.89261952 -7.7834147e-05   0.48514612  0.035939892            0   0.44920623    1.3277715    1.8129177  -0.84382122 
 3325000   0.88769277 3.4201288e-05   0.49830982  0.010901127            0    0.4874087     1.320443    1.8187528    2.9861568 
 3330000   0.93524444 -3.8162466e-05   0.40971688  0.015937096            0   0.39377979    1.3911761     1.800893    0.4982808 
 3335000   0.91581758 -9.3802168e-05   0.43808108  0.033444827            0   0.40463626    1.3622786    1.8003597   -1.4014209 
 3340000   0.95707355 5.0821961e-05   0.37719561 0.0072912435            0   0.36990437    1.4236469    1.8008425    3.5355655 
 3345000   0.91719804 0.00010877917   0.42081576 0.0037752628            0    0.4170405    1.3643321    1.7851478    5.4981436 
 3350000   0.92704977 0.00013985951   0.40829552  0.013195938            0   0.39509958    1.3789865    1.7872821    6.5611533 
 3355000   0.92646007 1.4209865e-05   0.41767123  0.040498939            0   0.37717229    1.3781094    1.7957806    2.2808106 
 3360000   0.89667434 3.8703087e-06   0.46122072  0.011862451            0   0.44935826    1.3338031    1.7950238    1.9271303 
 3365000   0.92867565 6.5120462e-05   0.40981704 0.0070545081            0   0.40276253     1.381405    1.7912221    4.0140005 
 3370000   0.85671351 -4.1496646e-06   0.51593715  0.011202439            0   0.50473471    1.2743613    1.7902985    1.6486566 
 3375000   0.91557642 1.5734235e-05   0.43051802  0.030971049            0   0.39954697    1.3619199    1.7924379    2.3294998 
 3380000   0.94721645 0.00011485982   0.40242512  0.027446815            0    0.3749783    1.4089845    1.8114096     5.731958 
 3385000     0.944353 -0.00010337961   0.39091034  0.027818876            0   0.36309146    1.4047251    1.7956354   -1.7330551 
 3390000   0.91462983 7.5560224e-06   0.45236285  0.016564727            0   0.43579812    1.3605119    1.8128747    2.0707869 
 3395000   0.89625841 0.0001108237   0.48164814  0.022805783            0   0.45884236    1.3331844    1.8148325    5.5976149 
 3400000   0.88619644 -0.00016172063   0.49605363  0.037020678            0   0.45903295    1.3182172    1.8142708   -3.7057933 
 3405000   0.91370615 -0.00016104626   0.44483259   0.01743998            0   0.42739261    1.3591379    1.8039705   -3.6930753 
 3410000   0.90430614 9.9948738e-05   0.44730533  0.021200293            0   0.42610504    1.3451554    1.7924607    5.2040443 
 3415000   0.86870995 3.1761322e-05   0.54203523  0.048474286            0   0.49356095     1.292206    1.8342413    2.9183611 
 3420000   0.93542629 4.2088379e-05   0.44641155  0.021269635            0   0.42514191    1.3914466    1.8378581    3.2744748 
 3425000   0.96245714 -8.7939366e-06   0.40158743  0.012032391            0   0.38955503     1.431655    1.8332424    1.5330761 
 3430000   0.92648672 -0.0002062333   0.47169614  0.021019381            0   0.45067676     1.378149    1.8498451   -5.1895849 
 3435000   0.95678613 6.6846858e-05   0.42404331  0.011721703            0   0.41232161    1.4232194    1.8472627    4.1289688 
 3440000   0.92319711 1.8555177e-05   0.45927157 0.0052559585            0   0.45401561    1.3732557    1.8325273    2.4658773 
 3445000   0.92430153 -0.00012816501   0.45157015 0.0089721274            0   0.44259803    1.3748985    1.8264687   -2.5482304 
 3450000   0.88615286 5.086603e-05   0.52092719  0.057967796            0    0.4629594    1.3181524    1.8390796    3.5753067 
 3455000   0.93175237 -0.00012132249   0.44283187  0.038251903            0   0.40457996    1.3859816    1.8288135   -2.3123273 
 3460000   0.94677204 -0.00017220984   0.41261565  0.027742845            0   0.38487281    1.4083234    1.8209391   -4.0571568 
 3465000   0.92656331 0.00017236747   0.43484554  0.025605148            0   0.40924039    1.3782629    1.8131085    7.6965849 
 3470000   0.88407072 4.8211225e-06   0.48287564  0.014893994            0   0.46798165    1.3150552    1.7979308    1.9624918 
 3475000   0.94141565 0.00013717124   0.40926676  0.047234603            0   0.36203215    1.4003558    1.8096225    6.4917343 
 3480000   0.89418133 0.00016018901   0.47043815  0.016471082            0   0.45396707    1.3300947    1.8005329    7.2683178 
 3485000   0.93486489 -3.1564978e-06    0.3955651  0.023555804            0    0.3720093    1.3906115    1.7861766    1.6784348 
 3490000   0.87776531 2.9111023e-05    0.4583705    0.0181714            0    0.4401991    1.3056759    1.7640464    2.7577026 
 3495000   0.92047042 7.8281276e-05    0.3894643   0.00849035            0   0.38097395    1.3691997     1.758664    4.4306649 
 3500000   0.87679686 -8.8841196e-05   0.45783906  0.015370908            0   0.44246815    1.3042353    1.7620744   -1.2703718 
 3505000   0.87814668 -2.9739569e-05   0.46595173  0.023978458            0   0.44197327    1.3062432    1.7721949   0.75708431 
 3510000   0.94998996 0.00016211477    0.3670647  0.022440212            0   0.34462449    1.4131101    1.7801748    7.3136921 
 3515000   0.91203463 4.958154e-05   0.44263255  0.015788155            0   0.42684439    1.3566515    1.7992841    3.4916673 
 3520000   0.93062723 4.0952019e-05   0.42037134  0.013047955            0   0.40732338     1.384308    1.8046793    3.2025083 
 3525000   0.90792215 3.4224274e-05   0.45276928  0.036734459            0   0.41603482    1.3505342    1.8033035     2.971492 
 3530000   0.93591213 2.4893683e-05   0.42795262  0.018446466            0   0.40950615    1.3921693    1.8201219    2.6698263 
 3535000   0.91317108 -2.1355017e-05   0.44018943 0.0087504431            0   0.43143898     1.358342    1.7985314    1.0696135 
 3540000    0.8772031 6.8126581e-05   0.49146547 0.0056815007            0   0.48578397    1.3048396    1.7963051    4.1216924 
 3545000   0.92042567 -1.1213779e-05   0.42306631 0.0093540121            0    0.4137123    1.3691332    1.7921995    1.4094358 
 3550000    0.9514167 -3.7287036e-05   0.37632671   0.01002401            0    0.3663027    1.4152323     1.791559   0.51882823 
 3555000   0.94635597 1.2858903e-05   0.38561623  0.011399801            0   0.37421643    1.4077045    1.7933207    2.2322379 
 3560000   0.88430381 4.9482944e-05   0.47332682 0.0091680736            0   0.46415875    1.3154019    1.7887287    3.4777466 
 3565000   0.93550088 2.1949005e-05   0.38245643  0.011921881            0   0.37053455    1.3915576     1.774014    2.5232067 
 3570000   0.88450716 -0.00011361408   0.45610371   0.03247178            0   0.42363193    1.3157044    1.7718081   -2.1062191 
 3575000   0.86162977 -0.00017975866   0.50229056  0.023241303            0   0.47904926    1.2816743    1.7839648   -4.3517976 
 3580000   0.94139774 -4.2229819e-05   0.38636796  0.022212538            0   0.36415542    1.4003291    1.7866971   0.34525262 
 3585000   0.92975635 5.8892792e-05   0.39573359  0.013635674            0   0.38209791    1.3830126    1.7787462    3.7889535 
 3590000   0.90751771 3.205747e-05   0.42498054 0.0087309291            0   0.41624961    1.3499326    1.7749131    2.8691415 
 3595000   0.96443963 0.00011248737    0.3316552 0.0048303085            0    0.3268249     1.434604    1.7662592     5.605828 
 3600000   0.94314283 5.391424e-05   0.37185212 0.0018406269            0    0.3700115     1.402925    1.7747771    3.6150498 
 3605000   0.89401528 -0.00010672987   0.44915171  0.011186603            0   0.43796511    1.3298477    1.7789994   -1.8640468 
 3610000    0.9005257 -1.1532286e-05   0.42629489  0.011432166            0   0.41486272     1.339532    1.7658269    1.3721915 
 3615000   0.87155872 -1.1782096e-05   0.47903888 0.0057232793            0    0.4733156    1.2964436    1.7754825    1.3733203 
 3620000   0.96426224 -3.3139183e-05   0.32955915  0.004146649            0    0.3254125    1.4343401    1.7638992   0.63274844 
 3625000   0.90365877 8.9342532e-05   0.41779576 0.0048923062            0   0.41290345    1.3441924    1.7619882    4.8115466 
 3630000    0.8849917 -6.2167593e-06   0.46096159 0.0042141698            0   0.45674742    1.3164252    1.7773867     1.565188 
 3635000   0.90620531 4.9294436e-06   0.45320695  0.013564274            0   0.43964267    1.3479804    1.8011873    1.9694457 
 3640000    1.0008794 4.4107418e-05   0.32568068  0.024239505            0   0.30144117    1.4888081    1.8144888     3.320022 
 3645000   0.94355548 -0.00013645366   0.43787991  0.016388494            0   0.42149142    1.4035388    1.8414187   -2.8161994 
 3650000   0.93488582 -9.4461751e-05   0.46000619 0.0014935632            0   0.45851262    1.3906427    1.8506488   -1.3736456 
 3655000    1.0322344 -1.0640553e-05   0.32009248 0.0012582864            0    0.3188342    1.5354486    1.8555411    1.4923436 
 3660000    0.9964816 2.890665e-05   0.39454248  0.022988044            0   0.37155444    1.4822664    1.8768089    2.8634892 
 3665000   0.93475004 3.2755634e-05   0.48087748  0.029920076            0   0.45095741    1.3904407    1.8713182    2.9893771 
 3670000   0.97326581 9.5618512e-05   0.40725237  0.012366696            0   0.39488568    1.4477329    1.8549853    5.1187638 
 3675000    0.9768709 -1.7970381e-05   0.37506875  0.013398167            0   0.36167058    1.4530955    1.8281642    1.2147752 
 3680000   0.93911545 -2.576723e-05   0.42852423  0.011985881            0   0.41653835    1.3969342    1.8254585   0.94593701 
 3685000    0.9540678 4.3270678e-05   0.42668675 0.0083561529            0    0.4183306    1.4191758    1.8458626    3.3228351 
 3690000    0.9542947 -4.7824131e-05    0.4117698   0.04028347            0   0.37148633    1.4195134    1.8312832   0.19888617 
 3695000   0.96265132 3.4477992e-05   0.40852578  0.026247505            0   0.38227827    1.4319438    1.8404696    3.0173184 
 3700000   0.97065556 3.4577794e-05   0.38827409  0.013194164            0   0.37507992    1.4438501    1.8321242    3.0123796 
 3705000   0.91441734 -0.00020583223   0.45375768  0.012162306            0   0.44159538    1.3601958    1.8139535   -5.2117866 
 3710000   0.94758501 -8.802655e-05   0.42850497   0.01957644            0   0.40892853    1.4095327    1.8380377   -1.1666019 
 3715000   0.94395098 9.8584796e-05   0.41794676 0.0074308856            0   0.41051588    1.4041271    1.8220738    5.1871016 
 3720000   0.97164492 0.00010688596   0.38816845 0.0036057975            0   0.38456266    1.4453218    1.8334903    5.4818644 
 3725000   0.94036233 7.7948016e-05   0.43067247   0.01226898            0   0.41840349     1.398789    1.8294614     4.490087 
 3730000   0.87188226 -6.921713e-05   0.52374724  0.037868101            0   0.48587914    1.2969249    1.8206721  -0.54193927 
 3735000   0.89912607 -8.4425504e-05   0.50274872  0.051511894            0   0.45123683      1.33745    1.8401987   -1.0415251 
 3740000   0.95131094 1.9668436e-05   0.39758448  0.020395663            0   0.37718881     1.415075    1.8126595    2.4840088 
 3745000   0.88878568 8.4194145e-05   0.48360998  0.044923347            0   0.43868663    1.3220687    1.8056787    4.6795055 
 3750000   0.90526786 -7.1132078e-05   0.46743387  0.027722665            0   0.43971121    1.3465859    1.8140198  -0.61395512 
 3755000   0.91496901 -0.0001210552   0.41404497 0.0090111017            0   0.40503386    1.3610164    1.7750614   -2.3569561 
 3760000   0.87223157 -3.0242125e-05   0.48146021  0.012276805            0   0.46918341    1.2974445    1.7789047   0.74664016 
 3765000   0.91967382 -2.2165697e-05   0.41609826  0.014046282            0   0.40205197    1.3680148    1.7841131    1.0275239 
 3770000   0.88997687 6.5282636e-05   0.48576141  0.021133504            0    0.4646279    1.3238406     1.809602     4.037916 
 3775000   0.90382046 -8.6826509e-05   0.47432257  0.068565605            0   0.40575697    1.3444329    1.8187555   -1.1449227 
 3780000   0.92703358 -5.4532947e-05    0.4356866  0.029226795            0    0.4064598    1.3789624     1.814649 -0.046742219 
 3785000   0.93715569 -4.5964336e-05    0.4105633  0.018967023            0   0.39159627    1.3940191    1.8045824   0.23566639 
 3790000   0.89304829 -0.00014364254   0.47331477  0.022612651            0   0.45070212    1.3284093    1.8017241   -3.1012746 
 3795000   0.89881025 -5.7323524e-05   0.47706274  0.020978684            0   0.45608405    1.3369802     1.814043  -0.14259997 
 3800000   0.95981546 -7.2735278e-05   0.39069783   0.00458164            0   0.38611619    1.4277255    1.8184233  -0.66427416 
 3805000   0.90085822 3.2182304e-05    0.4796409 0.0027038835            0   0.47693702    1.3400266    1.8196675    2.9181568 
 3810000   0.91072167 0.00012278801   0.47418826  0.012694951            0   0.46149331    1.3546985    1.8288867    6.0200509 
 3815000   0.93736375 0.00018873757   0.42255611  0.041170518            0   0.38138559    1.3943286    1.8168847     8.259127 
 3820000   0.86874388 0.0001514889   0.52356366  0.038381979            0   0.48518168    1.2922565    1.8158202    6.9866413 
 3825000   0.91945532 1.5964614e-05   0.42857171  0.019627079            0   0.40894463    1.3676898    1.7962615     2.341187 
 3830000   0.91022769 -3.778921e-05   0.44623567  0.017083586            0   0.42915209    1.3539637    1.8001994   0.51032767 
 3835000    0.9023707 -0.00016665051   0.45255668  0.016003005            0   0.43655367    1.3422764    1.7948331   -3.8935042 
 3840000   0.86906244 -0.00024038138    0.4981216  0.017769832            0   0.48035177    1.2927304     1.790852   -6.4141659 
 3845000   0.91132041 -8.1365446e-05   0.44740584  0.019063024            0   0.42834281    1.3555891    1.8029949  -0.97427894 
 3850000   0.92643745 7.7434607e-05   0.40909916  0.013728095            0   0.39537107    1.3780757    1.7871749    4.4302761 
 3855000   0.93794178 0.00017205797   0.40593777  0.010581375            0    0.3953564    1.3951884    1.8011262    7.6740382 
 3860000   0.88456269 0.00013874816   0.46372853 0.0052145197            0   0.45851401     1.315787    1.7795155    6.5154526 
 3865000   0.85762994 9.4398667e-05   0.54102885  0.010282357            0    0.5307465    1.2757245    1.8167534    5.0388946 
 3870000   0.94389606 0.00012216613   0.41432319  0.023820357            0   0.39050284    1.4040454    1.8183686    5.9883058 
 3875000   0.92307221 -6.9070661e-06   0.43432115   0.03756539            0   0.39675576    1.3730699    1.8073911    1.5716299 
 3880000   0.88503486 4.1830828e-05   0.47955279  0.030053016            0   0.44949978    1.3164894    1.7960422    3.2238677 
 3885000   0.88751283 2.9248381e-05   0.49267971  0.024028839            0   0.46865087    1.3201753     1.812855    2.8111998 
 3890000   0.95058367 -6.6255655e-05   0.42078119  0.027510287            0    0.3932709    1.4139932    1.8347744  -0.42675197 
 3895000   0.96275365 8.3084415e-05   0.39010994 0.0094231904            0   0.38068675     1.432096     1.822206     4.658154 
 3900000   0.94514745 3.8796993e-05    0.4281748  0.016104977            0   0.41206983    1.4059068    1.8340816    3.1583523 
 3905000   0.88688608 -4.6623299e-05   0.52986337  0.019186146            0   0.51067723     1.319243    1.8491064   0.25769781 
 3910000   0.91731407 2.0905649e-05   0.48475211  0.011553364            0   0.47319875    1.3645047    1.8492568    2.5628363 
 3915000   0.91865018 -0.00011252043   0.50318689 0.0075329346            0   0.49565395    1.3664921     1.869679   -1.9710184 
 3920000   0.94401088 -0.00013937295    0.4684004   0.01106135            0   0.45733905    1.4042162    1.8726166   -2.8846469 
 3925000   0.97790198 9.0634649e-06   0.42330289  0.020250758            0   0.40305213    1.4546292    1.8779321    2.1872984 
 3930000   0.94215973 2.3562379e-05   0.47306181  0.014142782            0   0.45891903    1.4014626    1.8745244    2.6787869 
 3935000   0.91025229 -6.8914329e-05   0.51799942  0.042209928            0   0.47578949    1.3540003    1.8719997  -0.48027608 
 3940000   0.91411474 -6.5027716e-05   0.51147617  0.048001428            0   0.46347474    1.3597457    1.8712218  -0.34839087 
 3945000   0.90698581 -1.188624e-06     0.505821  0.022757185            0   0.48306381    1.3491414    1.8549624    1.8143907 
 3950000   0.94983844 8.7974863e-05   0.47891476  0.023221215            0   0.45569355    1.4128847    1.8917994    4.8946748 
 3955000   0.91455329 -8.7909706e-05   0.53168015  0.035881261            0   0.49579889     1.360398    1.8920782   -1.1085731 
 3960000   0.96732488 3.8234259e-05   0.46147709  0.028379868            0   0.43309722    1.4388958    1.9003728    3.2054356 
 3965000   0.95980604 7.0979011e-05   0.45309634   0.03642688            0   0.41666946    1.4277115    1.8808078    4.3035581 
 3970000   0.93615508 -1.3266581e-05    0.4906502  0.038179144            0   0.45247105    1.3925307    1.8831809    1.4303482 
 3975000   0.92876069 -4.4766074e-06   0.50955383  0.018825364            0   0.49072846    1.3815315    1.8910854    1.7382838 
 3980000   0.91096899 -6.1261757e-06   0.53401541  0.016468505            0   0.51754691    1.3550664    1.8890818     1.679975 
 3985000    0.9780753 0.00010693831   0.43252058  0.011456832            0   0.42106375     1.454887    1.8874076    5.5375686 
 3990000   0.95879116 8.1911853e-06   0.45701769 0.0018378837            0    0.4551798    1.4262018    1.8832195     2.162812 
 3995000   0.94117307 -2.614623e-06   0.47450314 0.0047382029            0   0.46976494    1.3999949    1.8744981    1.7852523 
 4000000   0.86978822 -7.7331123e-05   0.58362134  0.023840598            0   0.55978074      1.29381    1.8774313  -0.76213768 
 4005000   0.94238159 -1.5482137e-05   0.48802148  0.032877761            0   0.45514372    1.4017926    1.8898141    1.3613571 
 4010000   0.95773892 -4.085042e-05   0.44983747 0.0071831278            0   0.44265434    1.4246366    1.8744741   0.48011311 
 4015000   0.93404935 -1.9968855e-05   0.49552998   0.01103292            0   0.48449706    1.3893984    1.8849284    1.2033248 
 4020000   0.90317901 9.8960252e-05   0.53093258  0.010364193            0   0.52056839    1.3434788    1.8744114    5.2522546 
 4025000   0.91732059 2.3587081e-05   0.51962152 0.0047506702            0   0.51487085    1.3645144    1.8841359    2.6892416 
 4030000    1.0228746 7.6835888e-05   0.36788019 0.0081685667            0   0.35971163    1.5215259    1.8894061    4.5120711 
 4035000   0.94254465 1.9866302e-05   0.46034689  0.036997897            0   0.42334899    1.4020352    1.8623821    2.5404851 
 4040000   0.88141001 -0.00012769018   0.53992427  0.031949379            0   0.50797489    1.3110974    1.8510217   -2.5074698 
 4045000   0.95047898 4.8849955e-05   0.40463424 0.0090882655            0   0.39554598    1.4138375    1.8184717    3.4858835 
 4050000   0.93740226 -7.565292e-05   0.39588378  0.017256701            0   0.37862708    1.3943859    1.7902696  -0.79201669 
 4055000   0.85580156 -2.9361773e-05   0.52426617  0.021733881            0   0.50253229    1.2730048     1.797271    0.7950558 
 4060000   0.87888865 7.4469864e-05   0.49181145  0.026408622            0   0.46540283    1.3073469    1.7991583     4.341063 
 4065000   0.90546846 -4.9161074e-05   0.44305471 0.0052287098            0     0.437826    1.3468843    1.7899391   0.11190772 
 4070000   0.93497121 0.00011611793   0.40592397 0.0030422668            0    0.4028817    1.3907697    1.7966936    5.7601857 
 4075000   0.92301052 0.00011317078   0.43696469   0.03507088            0   0.40189381    1.3729781    1.8099428    5.6728387 
 4080000    0.8657581 -2.8630919e-05   0.50438823  0.060272277            0   0.44411595    1.2878152    1.7922034   0.81493471 
 4085000   0.90358511 4.0841604e-05   0.45552987  0.037141886            0   0.41838799    1.3440829    1.7996127    3.1936728 
 4090000   0.87622967 7.8664798e-05    0.5049744  0.032671355            0   0.47230305    1.3033916     1.808366    4.4934578 
 4095000   0.90501742 0.00013740142   0.46128639  0.020894367            0   0.44039203    1.3462134    1.8074998    6.4974682 
 4100000   0.89551064 0.00014430095   0.48156309  0.023152681            0    0.4584104    1.3320721    1.8136352    6.7391078 
 4105000   0.88824661 0.00010331141   0.47811424 0.0091562117            0   0.46895803    1.3212668    1.7993811    5.3257439 
 4110000   0.90818038 6.1474846e-05    0.4426526 0.0022972124            0   0.44035539    1.3509183    1.7935709    3.8919123 
 4115000   0.95443025 -0.00011986541    0.3751706  0.004114944            0   0.37105565     1.419715    1.7948856   -2.2965202 
 4120000   0.91618685 -0.0001166037   0.43438003  0.019576843            0   0.41480319    1.3628279     1.797208   -2.1828651 
 4125000   0.90414844 9.3269427e-05   0.46943483  0.029216046            0   0.44021878    1.3449208    1.8143556    4.9979521 
 4130000   0.95340755 3.3068234e-06   0.40647118  0.044409001            0   0.36206218    1.4181937    1.8246649    1.9375378 
 4135000   0.91153205 3.0251876e-05   0.47723611  0.045745081            0   0.43149103    1.3559039      1.83314    2.8657374 
 4140000   0.94481294 0.00019741148   0.45436455  0.007598314            0   0.44676623    1.4054092    1.8597738    8.5980856 
 4145000   0.89626727 5.3248919e-05   0.54667398  0.014104144            0   0.53256983    1.3331976    1.8798715    3.6974346 
 4150000   0.92823362 4.7787794e-05   0.49811932  0.036426673            0   0.46169265    1.3807475    1.8788668    3.5100235 
 4155000    0.9102726 -9.8765977e-06   0.52791149  0.019193937            0   0.50871756    1.3540305     1.881942    1.5448208 
 4160000   0.93042835 5.9191643e-05   0.47523837  0.017859567            0    0.4573788    1.3840122    1.8592505    3.8796586 
 4165000   0.94238745 5.2862659e-05   0.44855967  0.014475058            0   0.43408461    1.4018013     1.850361    3.6547398 
 4170000   0.93616849 -0.00010744477   0.47050911  0.010002954            0   0.46050615    1.3925506    1.8630597   -1.8043884 
 4175000   0.91425268 1.7863529e-05   0.50695718 0.0072501139            0   0.49970707    1.3599509     1.866908    2.4766498 
 4180000   0.93677247 2.7974034e-05   0.48178753  0.021615795            0   0.46017174     1.393449    1.8752366    2.8300836 
 4185000    1.0152942 0.00015714504   0.33960599  0.010168712            0   0.32943728    1.5102501    1.8498561      7.21374 
 4190000   0.89605795 7.7620812e-05   0.51605928 0.0041221416            0   0.51193714    1.3328862    1.8489455    4.4984025 
 4195000   0.88462953 -0.0001515235   0.53419696 0.0086602236            0   0.52553673    1.3158864    1.8500834   -3.3219188 
 4200000   0.95555266 -6.0560132e-05    0.4217869 0.0065829077            0     0.415204    1.4213846    1.8431715  -0.22394769 
 4205000   0.95207853 9.2089776e-05   0.43491092 0.0034814762            0   0.43142944    1.4162168    1.8511277    4.9944587 
 4210000   0.94260258 0.0001461241   0.43218826 0.0087879816            0   0.42340028    1.4021213    1.8343096    6.8220123 
 4215000   0.89569562 5.7637728e-05   0.49502292  0.018366572            0   0.47665635    1.3323472    1.8273702    3.7947379 
 4220000   0.96876869 -2.8648017e-05   0.39863077  0.012418428            0   0.38621234    1.4410434    1.8396742    0.8618219 
 4225000   0.94628487 -3.0961449e-05   0.43591573  0.016868664            0   0.41904706    1.4075987    1.8435145     0.786697 
 4230000   0.92188263 2.6344973e-06   0.46757564  0.014719497            0   0.45285615    1.3713004    1.8388761    1.9288002 
 4235000   0.94036752 0.00011151111   0.43619197 0.0042314469            0   0.43196052    1.3987967    1.8349886    5.6412346 
 4240000   0.89805353 7.6774448e-05   0.49559894 0.0049887358            0    0.4906102    1.3358546    1.8314536    4.4520214 
 4245000   0.93998241 7.5488412e-07   0.43915207   0.01593148            0   0.42322059    1.3982238    1.8373759    1.8631426 
 4250000   0.90261307 -0.00017240824   0.51369796  0.022899711            0   0.49079825    1.3426369    1.8563349   -4.0285331 
 4255000   0.90645161 -0.00011317345   0.49001699  0.019680025            0   0.47033697    1.3483468    1.8383638   -2.0246233 
 4260000   0.95767665 0.00010363904   0.40538315  0.014289868            0   0.39109328     1.424544    1.8299272    5.3674731 
 4265000   0.92157845 5.8604788e-06   0.44836881  0.011988945            0   0.43637986     1.370848    1.8192168    2.0192544 
 4270000   0.83008595 -0.00011386067   0.56107685  0.040966524            0   0.52011032    1.2347528    1.7958297   -2.0906147 
 4275000   0.86639295 -3.8137311e-05   0.51652623  0.013123921            0   0.50340231    1.2887595    1.8052858   0.50353221 
 4280000   0.89610638 3.8105771e-05   0.47114497  0.011632106            0   0.45951286    1.3329582    1.8041032    3.1047802 
 4285000    0.9136645  1.25759e-05   0.47548478 0.0053442661            0   0.47014052    1.3590759    1.8345607    2.2638181 
 4290000   0.96725654 -0.00014270827   0.40593627  0.004644209            0   0.40129207    1.4387941    1.8447304   -3.0263787 
 4295000   0.91084638 -0.00033600604   0.47195408 0.0091911752            0   0.46276291     1.354884    1.8268381   -9.6421682 
 4300000   0.95027911 -0.0001164065   0.42122887  0.018702558            0   0.40252631    1.4135402     1.834769   -2.1385728 
 4305000    0.9002894 0.00012219971   0.48734632  0.019668762            0   0.46767756    1.3391805    1.8265268    5.9976104 
 4310000   0.94859845 -8.7617315e-05     0.417631  0.016966342            0   0.40066466    1.4110402    1.8286712   -1.1619998 
 4315000   0.94304392 -6.3779839e-06   0.43434518  0.021099383            0    0.4132458    1.4027778     1.837123    1.6194212 
 4320000     0.915093 0.0001695476   0.49148109  0.019076643            0   0.47240445    1.3612008    1.8526819    7.6399066 
 4325000   0.87534806 -2.8894078e-05   0.54267486  0.018764539            0   0.52391032    1.3020802    1.8447551   0.85850388 
 4330000   0.93546802 -1.2802362e-05   0.47020137 0.0042455751            0    0.4659558    1.3915087    1.8617101    1.4247228 
 4335000   0.96246435 -6.021223e-06   0.44272317 0.0029532493            0   0.43976992    1.4316657    1.8743889    1.6688645 
 4340000   0.91211868 5.2686723e-05   0.51033665 0.0035708598            0   0.50676579    1.3567765    1.8671132    3.6654867 
 4345000   0.98530517 3.6124112e-05   0.40230565 0.0044004126            0   0.39790524    1.4656414    1.8679471    3.1009834 
 4350000   0.98828084 1.5538026e-05   0.40783003  0.014893717            0   0.39293631    1.4700678    1.8778978    2.4082624 
 4355000   0.90101842 0.0001278481   0.52328808  0.015155861            0   0.50813222    1.3402649     1.863553    6.2274349 
 4360000   0.98298817 5.3532027e-05   0.41116382 0.0049078429            0   0.40625598    1.4621949    1.8733587    3.7005852 
 4365000   0.93802005 -9.2657088e-05   0.48680522  0.021020679            0   0.46578454    1.3953048      1.88211   -1.2805852 
 4370000   0.89442348 -3.3086066e-05    0.5474447  0.015937069            0   0.53150763    1.3304549    1.8778996    0.7485619 
 4375000   0.93973316 9.875079e-05   0.52234423  0.017976677            0   0.50436755    1.3978531    1.9201973     5.290891 
 4380000   0.86527065 -6.8252886e-05   0.62157848  0.042912869            0   0.57866561    1.2870901    1.9086686  -0.42102993 
 4385000   0.96298829 4.3353148e-05   0.47272925  0.012820306            0   0.45990895    1.4324451    1.9051743    3.3849618 
 4390000   0.96606489 1.7000018e-05   0.49181936 0.0088996637            0    0.4829197    1.4370215    1.9288409    2.5091082 
 4395000    0.9457583 -7.4466772e-05   0.53982812 0.0060483734            0   0.53377974    1.4068155    1.9466436  -0.59515555 
 4400000   0.97907452 9.263375e-05   0.48578741   0.01277089            0   0.47301652    1.4563734    1.9421608    5.1040594 
 4405000   0.95833267 9.2840073e-05   0.53046979  0.002282068            0   0.52818772    1.4255198    1.9559896    5.1249308 
 4410000    1.0293054 -0.00013570404   0.43224384 0.0079622431            0   0.42428159    1.5310917    1.9633356   -2.6686957 
 4415000   0.96872397 -0.00013321408   0.52062426  0.026818899            0   0.49380536    1.4409769    1.9616012   -2.5854395 
 4420000   0.92353997 0.00010244598   0.58495131  0.018451119            0   0.56650019    1.3737657     1.958717    5.4555398 
 4425000    1.0417121 5.1823412e-05   0.40382068 0.0058414323            0   0.39797925    1.5495467    1.9533674    3.7222732 
 4430000   0.98278696 -4.815868e-05   0.47598943 0.0025469611            0   0.47344247    1.4618956     1.937885   0.29406874 
 4435000   0.99907811 7.0272925e-05   0.47290478 0.0048663943            0   0.46803839    1.4861287    1.9590335    4.3576827 
 4440000    1.0040105 1.3886356e-05   0.47376419  0.014775329            0   0.45898886    1.4934657    1.9672299    2.4412175 
 4445000    1.0166617 -6.4966754e-05   0.47363371  0.015067133            0   0.45856658    1.5122843     1.985918  -0.23161385 
 4450000   0.97343156 -4.2141765e-05   0.54565121 0.0073101832            0   0.53834102    1.4479794    1.9936307   0.55519175 
 4455000   0.97125206 -0.00012506876   0.55055728  0.023861357            0   0.52669592    1.4447374    1.9952947    -2.273719 
 4460000    1.0004035 -3.4914311e-05   0.52857826  0.050846842            0   0.47773142    1.4881002    2.0166784    0.8249366 
 4465000   0.99139545 3.2783822e-05   0.53727761  0.027484462            0   0.50979315    1.4747007    2.0119783    3.1309995 
 4470000   0.92693682 0.0002004454   0.62233643  0.044000614            0   0.57833582    1.3788185     2.001155    8.8430247 
 4475000    1.0682343 -1.724489e-05   0.43388875  0.029776326            0   0.40411243    1.5889985    2.0228873    1.4342617 
 4480000    1.0394255 -5.8596229e-05   0.48991295  0.012816292            0   0.47709666    1.5461454    2.0360583  0.035973705 
 4485000    1.0319236 -0.00011715027   0.50305804  0.023767207            0   0.47929083    1.5349864    2.0380445   -1.9606849 
 4490000    1.0435434 -8.2040886e-05    0.4957482  0.029100276            0   0.46664792    1.5522708     2.048019  -0.75230993 
 4495000   0.97865038 -2.0976506e-05   0.56849603  0.033542981            0   0.53495305    1.4557424    2.0242385    1.3082404 
 4500000   0.94269134 -2.5576285e-05   0.62930008  0.025120702            0   0.60417937    1.4022534    2.0315534    1.1585496 
 4505000    1.0361881 3.2233999e-05    0.4835606  0.014429549            0   0.46913105    1.5413299    2.0248905    3.1251443 
 4510000    1.0268355 1.9107635e-05   0.48475192  0.010995784            0   0.47375614    1.5274179    2.0121698    2.6643771 
 4515000   0.98018739 7.9198806e-08   0.53247797  0.060053197            0   0.47242478    1.4580287    1.9905067      1.99321 
 4520000    1.0551492 -6.8218184e-05   0.43848887   0.01452518            0   0.42396369    1.5695345    2.0080233  -0.32049066 
 4525000   0.99682591 1.6644019e-05   0.53472532 0.0016100077            0   0.53311532    1.4827785    2.0175039    2.5856197 
 4530000    1.0382718 0.00014364699   0.49538739 0.00064171649            0   0.49474567    1.5444293    2.0398167    6.9429672 
 4535000    1.1058879 -7.8554439e-06   0.43208099 0.0021662704            0   0.42991472    1.6450082    2.0770892    1.8089567 
 4540000    1.0138687 -4.6945682e-05   0.57529437  0.040947726            0   0.53434664    1.5081297    2.0834241   0.48101146 
 4545000    1.1062226 2.3726203e-05   0.43069504  0.022566496            0   0.40812854     1.645506    2.0762011    2.8860555 
 4550000   0.99079337 -1.1873255e-05   0.59337538  0.045588357            0   0.54778702    1.4738051    2.0671805    1.6619067 
 4555000   0.95656445 -5.4840444e-05   0.64985814  0.025797278            0   0.62406086    1.4228896    2.0727478    0.2008606 
 4560000    1.0712257 -0.00014085654    0.5006763   0.01690579            0   0.48377051    1.5934483    2.0941246   -2.7137786 
 4565000    1.0251757 8.4203406e-05   0.54171257 0.0091846637            0    0.5325279    1.5249488    2.0666614    4.9408043 
 4570000    1.0764942 -4.0370545e-05   0.46946545 0.0022093769            0   0.46725608    1.6012851    2.0707506   0.69276929 
 4575000      1.01896 3.1951157e-06    0.5746379 0.0040413189            0   0.57059658    1.5157031     2.090341    2.1994009 
 4580000    1.0503613 0.00010183471   0.55271285 0.0072061543            0   0.54550669    1.5624124    2.1151252    5.5910833 
 4585000    1.0545093 0.00023123309   0.52010925 0.0083144335            0   0.51179482    1.5685826    2.0886919     9.981448 
 4590000    1.0627151 -4.6834407e-05   0.52241241  0.033032388            0   0.48938002    1.5807887    2.1032011   0.50458668 
 4595000    1.0118645 -0.00018356115   0.58661678  0.047590147            0   0.53902663    1.5051484    2.0917652   -4.1737888 
 4600000    1.0849062 -2.9077576e-05   0.47533945  0.028054673            0   0.44728478     1.613798    2.0891374    1.0966229 
 4605000    1.0651026 5.4850714e-05   0.50970955 0.0041073992            0   0.50560215    1.5843402    2.0940497    3.9662874 
 4610000     1.060374 0.00010926718   0.52956769 0.0043460575            0   0.52522163    1.5773064    2.1068741    5.8365272 
 4615000    1.0794294 7.3816284e-05   0.48513247   0.02175158            0   0.46338089    1.6056513    2.0907837    4.6103795 
 4620000    1.0073115 -3.5805872e-05   0.56260318  0.047926201            0   0.51467698    1.4983759     2.060979   0.83880527 
 4625000    1.0090229 -6.9055506e-05   0.54522391  0.021371804            0    0.5238521    1.5009216    2.0461455  -0.31094909 
 4630000   0.99219924 -9.3240018e-06   0.55229765  0.026498062            0   0.52579958    1.4758964     2.028194    1.7099348 
 4635000   0.92356822 -0.00012400994    0.6564981  0.056035009            0   0.60046309    1.3738077    2.0303058   -2.2025668 
 4640000    1.0625448 -0.0001306631   0.47493326  0.025387805            0   0.44954545    1.5805354    2.0554687   -2.4044985 
 4645000    1.0418774 -1.6594333e-05    0.5231504 0.0069911899            0   0.51615921    1.5497926     2.072943    1.5065231 
 4650000    1.0772014 6.514873e-05   0.49818247   0.00440386            0   0.49377861    1.6023371    2.1005196    4.3242629 
 4655000    1.0834652 6.4395282e-05   0.46522192  0.017360366            0   0.44786155    1.6116545    2.0768764    4.2749021 
 4660000   0.99325338 -4.0574778e-05   0.57513846  0.053949405            0   0.52118906    1.4774644    2.0526029   0.66765044 
 4665000    1.0267409 -0.00010922156   0.50785441  0.035901906            0    0.4719525    1.5272771    2.0351315   -1.6929646 
 4670000    1.0861192 1.1741044e-05   0.44911638  0.018386464            0   0.43072992    1.6156023    2.0647187    2.4654797 
 4675000   0.98007536 -9.4692972e-05   0.61797211  0.027893446            0   0.59007866    1.4578621    2.0758342   -1.1563526 
 4680000    1.0194692 -0.00016590315   0.56342017  0.034461455            0   0.52895872    1.5164604    2.0798806   -3.5829469 
 4685000    1.0062324 -0.00015765693   0.56182959  0.027666777            0   0.53416282    1.4967706    2.0586002   -3.3227564 
 4690000    1.0412042 -0.00017504259   0.51507782  0.016062543            0   0.49901528    1.5487912     2.063869   -3.9109181 
 4695000    1.0687305 3.2064795e-05   0.48377009  0.034420967            0   0.44934913    1.5897367    2.0735068    3.1679851 
 4700000   0.97309208 9.8376975e-05   0.63464291  0.012971909            0     0.621671    1.4474745    2.0821174    5.4400515 
 4705000    1.0491593 1.4259833e-06   0.50790376  0.011870111            0   0.49603365    1.5606245    2.0685283    2.1172019 
 4710000    1.0811758 -5.4642181e-05   0.44090551 0.0086505219            0   0.43225499     1.608249    2.0491545   0.18403474 
 4715000    1.0230007 -6.474447e-05    0.5395537 0.0024577407            0   0.53709596    1.5217135    2.0612672  -0.14867737 
 4720000     1.040549 -5.9870954e-05   0.50619808   0.01277468            0    0.4934234    1.5478166    2.0540147  0.010419444 
 4725000    1.1001851 6.2275274e-05   0.43720083  0.019850757            0   0.41735007    1.6365253    2.0737261    4.1993888 
 4730000     1.061336 -1.9585553e-05   0.50843013 0.0071159537            0   0.50131418    1.5787373    2.0871674    1.4186472 
 4735000     1.076467 -8.7346856e-05   0.48870086  0.012853595            0   0.47584726    1.6012446    2.0899455  -0.89149384 
 4740000    1.0556197 2.2080445e-05   0.53474236  0.021575059            0    0.5131673    1.5702342    2.1049766    2.8586558 
 4745000    1.0778735 1.3206618e-05   0.52168793  0.012551854            0   0.50913607    1.6033369    2.1250248    2.5758107 
 4750000    1.1035185 -9.7507521e-05   0.50592113 0.0062919272            0    0.4996292    1.6414837    2.1474048   -1.1808519 
 4755000    1.1659974 -0.00012151233   0.41576457   0.01290299            0   0.40286158    1.7344211    2.1501856   -1.9974353 
 4760000    1.1325343 -4.4594764e-06   0.47974201  0.027709139            0   0.45203287    1.6846448    2.1643868      2.01217 
 4765000    1.0497435 0.00015849675    0.5959087  0.048148905            0    0.5477598    1.5614935    2.1574022    7.5674244 
 4770000    1.0931667 0.00023626462   0.54570669  0.028285823            0   0.51742087    1.6260855    2.1717922    10.236291 
 4775000    1.1044822 0.00011788552   0.49697559  0.026571798            0   0.47040379    1.6429173    2.1398929    6.1637187 
 4780000     1.070411 3.6410933e-05   0.55121217  0.046227423            0   0.50498475    1.5922363    2.1434485     3.386275 
 4785000    1.0457474 -6.2995331e-05   0.57489451  0.012177572            0   0.56271694    1.5555493    2.1304438 -0.019796813 
 4790000    1.0923183 -1.8240622e-05   0.49123056 0.0062146395            0   0.48501592    1.6248234     2.116054    1.4934408 
 4795000    1.0988512 2.8067869e-05   0.46968672 0.0081129509            0   0.46157377    1.6345412    2.1042279    3.0622778 
 4800000    1.0520217 -4.9233559e-05   0.54491119   0.01097487            0   0.53393632    1.5648823    2.1097935   0.42928806 
 4805000    1.0555561 6.520051e-05   0.54961996  0.010348142            0   0.53927182    1.5701396    2.1197596    4.3452704 
 4810000    1.1090684 2.2725814e-05   0.49250846  0.013101125            0   0.47940733    1.6497393    2.1422478    2.9179556 
 4815000    1.1354707 -6.992526e-05    0.4472977 0.0089859645            0   0.43831174    1.6890127    2.1363104  -0.25047184 
 4820000     1.025516 3.1473289e-05   0.59421135 0.0035051898            0   0.59070616    1.5254551    2.1196664    3.1939547 
 4825000    1.0556788 3.4218547e-05    0.5462796  0.031442366            0   0.51483724    1.5703222    2.1166018    3.2845949 
 4830000    1.0333851 -0.00013585205   0.57595082  0.042422422            0    0.5335284    1.5371603    2.1131111   -2.5239723 
 4835000    1.0729654 -0.00011076221   0.52140226  0.014033411            0   0.50736885     1.596036    2.1174383    -1.663245 
 4840000    1.0525179 5.5717451e-05   0.55102864  0.015703733            0    0.5353249    1.5656204     2.116649    4.0184713 
 4845000    1.0797862 0.00010522696    0.5325998  0.027340042            0   0.50525976     1.606182    2.1387818    5.7305286 
 4850000    1.0650864 -2.3419126e-05   0.51613471  0.025010171            0   0.49112454     1.584316    2.1004508    1.3010779 
 4855000    1.1318045 -5.57893e-05   0.41489804  0.022114922            0   0.39278312    1.6835592    2.0984572   0.19418246 
 4860000    1.0450335 0.00019998509   0.53893079  0.053483541            0   0.48544724    1.5544874    2.0934182    8.9195759 
 4865000    1.0524782 8.673886e-05   0.50483345  0.022065782            0   0.48276767    1.5655613    2.0703948    5.0310812 
 4870000    1.0434094 -1.4015784e-05   0.50858901  0.025988043            0   0.48260097    1.5520715    2.0606605    1.5822551 
 4875000   0.99932676 8.6311188e-05   0.55296505  0.030483494            0   0.52248156    1.4864986    2.0394636    4.9855522 
 4880000    1.0220339 -3.459323e-05   0.50125679 0.0084835517            0   0.49277324    1.5202755    2.0215323   0.84075001 
 4885000    1.0493842 -5.0251963e-05   0.44821366 0.0070410069            0   0.44117265     1.560959    2.0091726   0.29390564 
 4890000   0.99210521 3.781593e-05   0.51223235  0.019946746            0   0.49228561    1.4757565    1.9879888    3.2787726 
 4895000   0.99534578 -2.6637943e-05   0.50217592  0.034921947            0   0.46725398    1.4805769    1.9827528     1.073511 
 4900000   0.94082548 -0.00011344904   0.56375136  0.017227517            0   0.54652385    1.3994779    1.9632293   -1.9091647 
 4905000    1.0115262 2.9630041e-05   0.47272302 0.0012215943            0   0.47150142    1.5046453    1.9773683    2.9887403 
 4910000   0.99112087 0.00020962087   0.49791797 0.0036989527            0   0.49421902    1.4742923    1.9722103    9.1272693 
 4915000    1.0180519 4.8783784e-05   0.44489264 0.0046635625            0   0.44022908    1.5143522    1.9592449     3.624398 
 4920000   0.97072184 -6.4456123e-05   0.51822405 0.0047958223            0   0.51342822    1.4439487    1.9621728  -0.23792954 
 4925000    0.9973897 8.6442478e-06   0.47630952 0.0073514697            0   0.46895805    1.4836172    1.9599267    2.2549837 
 4930000   0.98424329 2.6574677e-05   0.50550664  0.024689478            0   0.48081716    1.4640619    1.9695685    2.8766508 
 4935000   0.92229461 7.4604514e-06   0.57653317  0.011045255            0   0.56548791    1.3719132    1.9484464    2.2030965 
 4940000   0.90520112 4.7742468e-05   0.59086575 0.00051600023            0   0.59034975    1.3464867    1.9373524     3.566962 
 4945000    1.0004493 5.3292509e-05     0.451812  0.010051637            0   0.44176036    1.4881683    1.9399803    3.7590313 
 4950000    0.9568109 -1.4750375e-05   0.52488514  0.037349233            0   0.48753591    1.4232562    1.9481413    1.4446619 
 4955000    1.0148133 7.6016024e-06   0.42815669 0.0086681625            0   0.41948853    1.5095347    1.9376914    2.1971595 
 4960000    0.9392953 3.2854863e-05    0.5128928  0.012618289            0   0.50027451    1.3972018    1.9100946    3.0315405 
 4965000   0.97076282 5.1279276e-05   0.47172725  0.004810515            0   0.46691674    1.4440097    1.9157369    3.6660696 
 4970000   0.97410079 4.6002837e-06   0.46481671 0.0031666782            0   0.46165003    1.4489749    1.9137916    2.0708146 
 4975000   0.91559999 3.7843476e-06   0.55949278  0.012291322            0   0.54720146     1.361955    1.9214478    2.0506202 
 4980000   0.97024961 0.00014157439   0.46968679  0.021151248            0   0.44853554    1.4432463    1.9129331    6.7453388 
 4985000   0.95574641 0.00012579323   0.51252691  0.034274088            0   0.47825282    1.4216728    1.9341997     6.227942 
 4990000    1.0062081 7.0437089e-05   0.43921962  0.028294688            0   0.41092494    1.4967346    1.9359542    4.3402068 
 4995000   0.92416965 1.5695996e-05   0.55622952  0.046871354            0   0.50935816    1.3747024    1.9309319    2.4666885 
 5000000   0.95235649 -7.5942995e-05   0.51081653  0.040380625            0   0.47043591    1.4166303    1.9274468  -0.66474076 
 5005000   0.94145118 -4.970377e-05   0.52305882  0.021694696            0   0.50136413    1.4004086    1.9234675   0.22691211 
 5010000   0.91831909 -2.8783494e-05   0.56302743  0.018147622            0   0.54487981    1.3659996    1.9290271   0.94655049 
 5015000   0.96037549 -5.10298e-05   0.47016813   0.01450729            0   0.45566084    1.4285585    1.8987267    0.1569095 
 5020000   0.89782253 -3.6885492e-05   0.54672114  0.017407765            0   0.52931338     1.335511    1.8822322   0.62320735 
 5025000   0.93682159 -8.5301867e-05   0.51559232  0.025120827            0    0.4904715    1.3935221    1.9091144   -1.0025226 
 5030000   0.99174775 -0.00010175448   0.42898076   0.01792353            0   0.41105723    1.4752248    1.9042055   -1.5690142 
 5035000   0.97102859 -4.1307155e-05   0.46035388 0.0097860392            0   0.45056784     1.444405    1.9047589   0.49480802 
 5040000   0.98481609 -7.4160375e-05   0.44361772  0.018569098            0   0.42504862    1.4649139    1.9085317  -0.62280914 
 5045000   0.98056076 -3.9160845e-05   0.44839374  0.024347753            0   0.42404599    1.4585841    1.9069779   0.57028771 
 5050000   0.95856641 1.6179822e-05   0.50434253  0.023015401            0   0.48132712    1.4258675    1.9302101    2.4824813 
 5055000   0.91821843 3.0220286e-05   0.57982849   0.01891856            0   0.56090993    1.3658499    1.9456784    2.9771975 
 5060000   0.93496123 0.00014269971   0.53797674  0.022952696            0   0.51502404    1.3907548    1.9287316    6.7995483 
 5065000   0.91922054 0.00011712258   0.55520517  0.051492151            0   0.50371302    1.3673406    1.9225457    5.9203297 
 5070000   0.95846039 8.5609142e-06   0.52156997  0.044729976            0   0.47683999    1.4257098    1.9472798    2.2394923 
 5075000   0.99196043 2.6905864e-05   0.47569781  0.023657391            0   0.45204042    1.4755411    1.9512389    2.8696258 
 5080000   0.95939266 1.0944607e-05   0.50365654  0.082181662            0   0.42147488    1.4270966    1.9307531     2.304329 
 5085000    1.0077654 -0.00010003339   0.42957694  0.022856096            0   0.40672085    1.4990511     1.928628   -1.4858449 
 5090000   0.96854895 -7.2202484e-05    0.4835529  0.018532023            0   0.46502088    1.4407166    1.9242695  -0.54024199 
 5095000   0.92887949 -4.6044615e-05   0.53109467   0.03016868            0   0.50092599    1.3817082    1.9128029   0.34114672 
 5100000   0.96886436 8.8612336e-06    0.4862942 0.0065076922            0   0.47978651    1.4411857    1.9274799    2.2299434 
 5105000   0.98653717 1.6869736e-06   0.47055499  0.047145661            0   0.42340933     1.467474     1.938029    1.9956111 
 5110000   0.96267966 8.3070735e-06    0.4994924    0.0315726            0    0.4679198     1.431986    1.9314784    2.2150265 
 5115000   0.96981188 9.8071367e-05   0.47706702  0.015231914            0    0.4618351    1.4425952    1.9196622    5.2671648 
 5120000   0.94936231 0.00012341349   0.52964612  0.031807519            0    0.4978386    1.4121764    1.9418226    6.1543363 
 5125000   0.94763616 -2.9804588e-06   0.52071794  0.025352651            0   0.49536529    1.4096088    1.9303267    1.8285937 
 5130000    1.0264304 -3.7922457e-05   0.41166902   0.01587059            0   0.39579843    1.5268152    1.9384842   0.64406434 
 5135000   0.94702172 -3.2283288e-06    0.5454646  0.040995497            0    0.5044691    1.4086948    1.9541594    1.8439658 
 5140000   0.99025348 0.00010397936   0.46625558  0.040901038            0   0.42535455    1.4730021    1.9392576    5.4884198 
 5145000   0.96227566 3.8484478e-05   0.48978133  0.023584922            0    0.4661964     1.431385    1.9211664    3.2347699 
 5150000   0.98262386 8.2657264e-05   0.48882903 0.0084293829            0   0.48039965     1.461653     1.950482      4.77185 
 5155000    1.0289362 9.8135872e-05   0.46056115 0.0040311358            0   0.45653001    1.5305425    1.9911037    5.3408081 
 5160000   0.95959485 -0.00014535154   0.57912318  0.039786997            0   0.53933618    1.4273973    2.0065205    -2.954812 
 5165000   0.99741461 -0.00011698085   0.54390722  0.038787359            0   0.50511986    1.4836542    2.0275615   -1.9653848 
 5170000   0.95624033 -0.00011041475   0.59130341  0.037779451            0   0.55352396    1.4224075    2.0137109   -1.7551127 
 5175000    1.0293128 -1.5456933e-05     0.502577  0.026162617            0   0.47641439    1.5311029    2.0336799    1.5060832 
 5180000   0.99162833 -5.13216e-05    0.5582206  0.022701321            0   0.53551928    1.4750471    2.0332677   0.28149048 
 5185000    1.0448981 -8.0262651e-05   0.48054444 0.0060348112            0   0.47450963    1.5542859    2.0348303  -0.70480149 
 5190000    1.0064036 -6.080769e-06   0.50269661  0.021144117            0   0.48155249    1.4970254     1.999722    1.7921651 
 5195000   0.93362044 -0.00018781144    0.5874627 0.0083875478            0   0.57907515    1.3887604    1.9762231   -4.4344074 
 5200000   0.95619516 -0.00016546147   0.52061395  0.001242521            0   0.51937143    1.4223403    1.9429543   -3.7047974 
 5205000   0.99763936 -7.251031e-05   0.46989673  0.001414429            0    0.4684823    1.4839885    1.9538853  -0.52113331 
 5210000   0.99895519 1.8194521e-05   0.46481952 0.0093099221            0    0.4555096    1.4859459    1.9507654     2.571805 
 5215000    1.0068314 0.00016188279   0.45306057  0.028937967            0   0.42412261    1.4976617    1.9507223    7.4763216 
 5220000   0.92976379 0.00011420464   0.56614362  0.045990392            0   0.52015323    1.3830236    1.9491672    5.8473523 
 5225000   0.93783046 -0.00010665732   0.58042734  0.066805196            0   0.51362215    1.3950228    1.9754501   -1.6651196 
 5230000   0.98608203 -0.00012014498   0.51379468  0.025307988            0   0.48848669     1.466797    1.9805917   -2.1203569 
 5235000    1.0363919 -6.4011494e-05   0.43911208  0.021398352            0   0.41771373     1.541633     1.980745  -0.20418061 
 5240000    1.0247964 -1.4542102e-05   0.47883892  0.034337565            0   0.44450135    1.5243846    2.0032236    1.5068532 
 5245000   0.99075072 -3.1715806e-05   0.48552884   0.05194099            0   0.43358785    1.4737417    1.9592705   0.87670436 
 5250000    1.0096147 -4.9042458e-05   0.43896055   0.01885917            0   0.42010138    1.5018019    1.9407625   0.26677991 
 5255000     1.014739 -6.2914081e-06   0.39330066  0.012357363            0   0.38094329    1.5094243    1.9027249    1.6879782 
 5260000   0.95806133 -5.8063461e-05   0.48020635  0.032160485            0   0.44804586    1.4251162    1.9053226 -0.076576881 
 5265000   0.93384897 -0.0001292599   0.49535787  0.044670887            0   0.45068699    1.3891003    1.8844582   -2.5276131 
 5270000   0.94368571 -8.7871261e-05   0.50707886  0.050235066            0   0.45684379    1.4037325    1.9108114   -1.0885277 
 5275000   0.92731403 7.5097084e-05   0.54468678  0.027278164            0   0.51740861    1.3793796    1.9240664    4.4873802 
 5280000   0.98104961 0.00014782079   0.47705486 0.0074487525            0   0.46960611    1.4593113    1.9363662    6.9819825 
 5285000    1.0104916 7.5098173e-05   0.43319052 0.0097444804            0   0.42344604    1.5031063    1.9362968    4.4996478 
 5290000   0.93982933 5.5994219e-05   0.53395258  0.045276223            0   0.48867636    1.3979961    1.9319487    3.8432181 
 5295000   0.98001138 0.00011508058   0.46276581  0.034897906            0   0.42786791    1.4577669    1.9205327    5.8486164 
 5300000   0.91636318 3.6518443e-05   0.55859231  0.022360854            0   0.53623146    1.3630902    1.9216826    3.1681787 
 5305000    1.0007455 3.5353262e-05   0.43874925  0.039447783            0   0.39930146     1.488609    1.9273582    3.1340829 
 5310000   0.94347384 -5.0921082e-05   0.53407113  0.048263743            0   0.48580738    1.4034173    1.9374885   0.19938219 
 5315000    1.0073316 7.8814104e-05   0.48927042  0.041620765            0   0.44764965    1.4984058    1.9876762    4.6778643 
 5320000    1.0165046 0.00010940517   0.48060125  0.034318288            0   0.44628296    1.5120506    1.9926519    5.7270151 
 5325000    1.0490825 -6.9053449e-05   0.41887959   0.01629763            0   0.40258196    1.5605103    1.9793899   -0.3776345 
 5330000   0.97672796 -0.0001634388   0.49802441  0.027286829            0   0.47073758    1.4528828    1.9509073   -3.6278037 
 5335000   0.94789716 -7.608213e-05   0.53168792   0.05831689            0   0.47337103     1.409997    1.9416849  -0.65525176 
 5340000    1.0255706 2.3712444e-05   0.43525027  0.020330524            0   0.41491975    1.5255362    1.9607865    2.7701713 
 5345000   0.98118942 3.8619168e-05   0.51752067  0.011436135            0   0.50608453    1.4595193    1.9770399    3.2952409 
 5350000    1.0226056 7.3141289e-05   0.43364741  0.025142293            0   0.40850512    1.5211258    1.9547732    4.4513292 
 5355000    1.0399193 6.4833684e-05   0.42916703  0.040343922            0   0.38882311      1.54688     1.976047    4.1890368 
 5360000    1.0036215 -3.4240007e-05   0.49202719  0.020325455            0   0.47170173    1.4928869    1.9849141   0.81618853 
 5365000    0.9690877 -5.0335251e-05   0.53130669  0.018382571            0   0.51292412     1.441518    1.9728246   0.25471476 
 5370000    1.0401278 4.2278284e-05   0.43179866  0.073679247            0   0.35811942      1.54719    1.9789887    3.4220875 
 5375000    1.0763825 -9.4059168e-05   0.38483848  0.063103005            0   0.32173547    1.6011189    1.9859574   -1.2245955 
 5380000   0.98776172 -0.00019402533   0.48493943  0.021055583            0   0.46388384    1.4692956     1.954235   -4.6684962 
 5385000    1.0413892 0.00010728229   0.43617071  0.013862002            0   0.42230871    1.5490664    1.9852372    5.6471394 
 5390000    1.0232336 9.2357094e-05   0.46889437  0.032308885            0   0.43658548      1.52206    1.9909544    5.1434098 
 5395000    1.0629932 -9.8388754e-05   0.41465184 0.0084798352            0     0.406172    1.5812023    1.9958542    -1.362482 
 5400000     1.001903 -0.00011347052   0.47146101  0.013431925            0   0.45802908    1.4903307    1.9617918   -1.9113354 
 5405000     1.048878 -0.00012146162    0.4105371 0.0038525096            0   0.40668459     1.560206    1.9707431   -2.1751469 
 5410000     1.046022 0.00010109527   0.40761709 0.0067745195            0   0.40084257    1.5559577    1.9635748    5.4142934 
 5415000    1.0078009 0.00014900294   0.43646348  0.036748311            0   0.39971517    1.4991039    1.9355674    7.0215344 
 5420000   0.95064178 4.0699816e-05   0.50522234  0.038134568            0   0.46708777    1.4140796     1.919302    3.3085224 
 5425000    0.9416524 -3.5577124e-05   0.51153807  0.020905284            0   0.49063278    1.4007079     1.912246   0.69788018 
 5430000   0.98518209 5.2552306e-05   0.43517951  0.021386837            0   0.41379267    1.4654584    1.9006379    3.6944232 
 5435000    1.0147669 4.0728461e-05   0.39493916   0.03676329            0   0.35817587    1.5094657    1.9044049     3.294603 
 5440000   0.94194402 -8.9779615e-05   0.51682255  0.028683233            0   0.48813931    1.4011417    1.9179643   -1.1465132 
 5445000   0.93192473 -4.2623866e-05   0.52281082  0.043260466            0   0.47955035     1.386238    1.9090489   0.45415424 
 5450000   0.95039644 -4.4034545e-06    0.4671192  0.048003796            0   0.41911541    1.4137147    1.8808339    1.7305293 
 5455000    0.9153477 7.0180183e-05   0.49330949  0.028780265            0   0.46452923    1.3615797    1.8548892    4.2503728 
 5460000   0.93231885 0.00013969264   0.48123377  0.041449932            0   0.43978384    1.3868243    1.8680581    6.6362334 
 5465000   0.91895385 0.00015316079   0.47959514  0.066261298            0   0.41333384    1.3669439     1.846539    7.0744273 
 5470000   0.92058892 0.00011252343   0.46654859  0.019525131            0   0.44702346     1.369376    1.8359246    5.6767244 
 5475000   0.94533194 6.0734898e-06   0.44145871 0.0052478034            0   0.43621091    1.4061813      1.84764    2.0549484 
 5480000   0.95362054 -4.6725098e-05   0.43687898  0.018565844            0   0.41831313    1.4185106    1.8553895   0.26050619 
 5485000   0.93260839 5.6736851e-05   0.47149715  0.032541693            0   0.43895545     1.387255    1.8587521      3.79537 
 5490000   0.92236211 9.885975e-05    0.4754048  0.034125512            0   0.44127928    1.3720136    1.8474184    5.2218312 
 5495000   0.98385036 1.4897117e-06   0.40702338 0.0053559907            0   0.40166739    1.4634774    1.8705008    1.9213496 
 5500000   0.94785346 -3.203531e-05   0.46413854 0.0056136562            0   0.45852488     1.409932    1.8740706   0.78059865 
 5505000   0.96742948 -7.2908542e-05    0.4287412 0.0070987646            0   0.42164244    1.4390513    1.8677926  -0.62081901 
 5510000   0.96845996 5.1118032e-05   0.45064919  0.024486749            0   0.42616244    1.4405842    1.8912334    3.6360622 
 5515000   0.94045033 2.2951475e-05   0.47775082  0.055596789            0   0.42215403    1.3989199    1.8766707     2.660081 
 5520000   0.93585954 5.451281e-05   0.49139498   0.03901704            0   0.45237794    1.3920911     1.883486    3.7441899 
 5525000   0.95753248 4.1833246e-05   0.47945505  0.034813656            0    0.4446414    1.4243296    1.9037846    3.3316927 
 5530000   0.95056403 -0.0001007059   0.47869318  0.017307586            0    0.4613856     1.413964    1.8926572   -1.5447709 
 5535000   0.92781853 9.1244601e-06    0.5241808  0.013016034            0   0.51116476    1.3801301    1.9043109    2.2157591 
 5540000   0.95718974 0.0001885147   0.48564683  0.018452163            0   0.46719467    1.4238197    1.9094666    8.3441016 
 5545000   0.98972857 0.00012279315   0.43113394  0.010238595            0   0.42089534    1.4722212    1.9033552    6.0946947 
 5550000   0.98926305 -0.00013867367   0.44093285 0.0013268169            0   0.43960603    1.4715288    1.9124616   -2.8209328 
 5555000   0.97848571 -0.00015366995   0.45896059 0.00024592501            0   0.45871467    1.4554975    1.9144581   -3.3308095 
 5560000    1.0187499 -0.00012036173   0.41989131 0.0030469304            0   0.41684438    1.5153905    1.9352818   -2.1730653 
 5565000   0.99464191 -9.3668294e-05   0.45188891 0.0091722197            0   0.44271669    1.4795298    1.9314187   -1.2657924 
 5570000    1.0013821 0.00015691342   0.45827861 0.0078262708            0   0.45045234    1.4895559    1.9478345    7.3038127 
 5575000     0.974812 0.00010134457   0.52915264 0.0045281165            0   0.52462452    1.4500329    1.9791855    5.4384136 
 5580000    1.0221737 0.00012087565   0.47888707  0.014826415            0   0.46406066    1.5204833    1.9993704    6.1252592 
 5585000    1.0387632 0.00011713983   0.45288238   0.01568416            0   0.43719822    1.5451603    1.9980427    5.9964156 
 5590000    1.0400555 -2.0352218e-05   0.45593525 0.0041812111            0   0.45175403    1.5470826    2.0030178    1.3083288 
 5595000    1.0904645 2.5444643e-05   0.39352959 0.0077567208            0   0.38577287    1.6220659    2.0155955    2.8841059 
 5600000    1.0174487 -6.6038295e-05    0.5133729  0.019388352            0   0.49398455    1.5134549    2.0268278  -0.22727929 
 5605000    1.0821801 2.7500042e-05   0.42484401  0.009462288            0   0.41538172     1.609743     2.034587     2.973255 
 5610000    1.0449416 -7.2365677e-06   0.45573358 0.0062142008            0   0.44951938    1.5543506    2.0100842     1.763076 
 5615000    1.0492288 -0.0001352857   0.45216872  0.016670282            0   0.43549844    1.5607279    2.0128966   -2.6048552 
 5620000    1.0648683 -3.2051509e-05   0.44346685  0.016504269            0   0.42696258    1.5839916    2.0274584   0.93343356 
 5625000    1.0424598 -3.0198648e-05   0.48150072    0.0219767            0   0.45952402    1.5506589    2.0321596    1.0013791 
 5630000    1.0374081 -1.0168027e-05   0.52207205   0.04552757            0   0.47654448    1.5431445    2.0652166    1.7181479 
 5635000    1.0670306 7.964153e-05   0.48703723  0.025698004            0   0.46133922    1.5872081    2.0742453    4.7926762 
 5640000    1.0683622 9.4110069e-05   0.49447667  0.020685023            0   0.47379165    1.5891887    2.0836654    5.2959558 
 5645000    1.0759218 5.7451859e-05    0.4565976 0.0064102473            0   0.45018736    1.6004336    2.0570312    4.0180547 
 5650000    1.0761572 -4.1874147e-06   0.46052768 0.0010455222            0   0.45948216    1.6007838    2.0613115     1.918381 
 5655000    1.0787467 5.9367823e-05   0.43300675 3.6856906e-05            0   0.43296989    1.6046357    2.0376424    4.0640641 
 5660000   0.98399495 3.4745993e-05    0.5676796 0.0018505852            0   0.56582901    1.4636925    2.0313721    3.2173686 
 5665000    1.0489293 -0.00010792469   0.48918324 0.0033097079            0   0.48587353    1.5602824    2.0494656   -1.6343639 
 5670000    1.0465393 -9.1993233e-05   0.51243512 0.0013356454            0   0.51109947    1.5567272    2.0691623   -1.0708734 
 5675000    1.1116065 7.8067052e-05   0.40853404  0.020418531            0   0.38811551    1.6535146    2.0620487    4.7267374 
 5680000     1.026121 4.5055353e-05   0.51070597  0.020150362            0   0.49055561     1.526355     2.037061    3.5749504 
 5685000   0.99634167 5.2972783e-05   0.55331576  0.013049573            0   0.54026619    1.4820582     2.035374    3.8435117 
 5690000    1.0474233 4.3698499e-05   0.45522169  0.025695587            0   0.42952611    1.5580422    2.0132639    3.5048393 
 5695000   0.98783641 2.7751171e-05   0.54275828  0.048303252            0   0.49445503    1.4694067    2.0121649    2.9594049 
 5700000    1.0177028 -2.3857285e-05   0.48675124  0.036857633            0   0.44989361     1.513833    2.0005842    1.1862556 
 5705000   0.96323823  3.26674e-05   0.58917547  0.024667901            0   0.56450757    1.4328169    2.0219923    3.1370396 
 5710000    1.0131124 0.00013950562   0.49916953  0.032645474            0   0.46652406    1.5070047    2.0061742    6.7679662 
 5715000   0.99633438 8.5800011e-06   0.49134347  0.036609998            0   0.45473347    1.4820474    1.9733909    2.2662549 
 5720000    1.0071655 2.7557593e-05   0.47829128  0.015203227            0   0.46308806    1.4981587      1.97645    2.9170825 
 5725000   0.97112497 -5.0714239e-05   0.50594006  0.014834907            0   0.49110515    1.4445484    1.9504884    0.2194424 
 5730000   0.91941779 9.5070848e-07   0.58877221  0.011843017            0   0.57692919     1.367634    1.9564062     1.988857 
 5735000   0.95956967 4.694462e-06    0.5137156 0.0035751847            0   0.51014042    1.4273599    1.9410755    2.1013131 
 5740000    1.0239673 -9.539098e-05   0.41992702 0.00072575306            0   0.41920126    1.5231513    1.9430783   -1.3129338 
 5745000   0.98479508 -6.5392925e-05     0.457877 0.0059818711            0   0.45189512    1.4648827    1.9227597  -0.30931882 
 5750000   0.95397556 9.4716052e-05   0.50663756   0.02958313            0   0.47705443    1.4190386    1.9256762    5.1586508 
 5755000   0.97643135 -3.0547149e-05   0.45854877  0.045334231            0   0.41321454    1.4524416    1.9109904   0.86831438 
 5760000   0.93949214 -6.1468066e-05   0.50538118  0.010774847            0   0.49460633    1.3974946    1.9028757  -0.19523426 
 5765000   0.98471983 -4.9682278e-06   0.44855273 0.0053951426            0   0.44315759    1.4647707    1.9133235    1.7437413 
 5770000   0.99282336 -8.4599557e-05   0.45018821 0.0087498867            0   0.44143833    1.4768248     1.927013  -0.96065191 
 5775000   0.99468995 -8.2808879e-06   0.45155643 0.0071370619            0   0.44441937    1.4796013    1.9311577    1.6485034 
 5780000   0.93724887 -2.4079907e-05   0.54091384   0.03337384            0      0.50754    1.3941577    1.9350715     1.113144 
 5785000   0.98350095 -8.2718578e-05   0.47361997  0.014470519            0   0.45914945    1.4629577    1.9365776  -0.88688317 
 5790000   0.96731308 -0.00015119263   0.50235476 0.0057873786            0   0.49656738    1.4388782     1.941233   -3.2194754 
 5795000    1.0001262 -2.4264714e-05   0.44959268 0.0093394637            0   0.44025322    1.4876877    1.9372803    1.1090448 
 5800000   0.99955222 -2.0112911e-05    0.4413825  0.012633796            0    0.4287487    1.4868339    1.9282164    1.2416957 
 5805000   0.98149628 0.00011290754   0.48241048  0.029663367            0   0.45274711    1.4599757    1.9423862    5.7962968 
 5810000     1.003683 4.1577302e-05    0.4693161  0.046688662            0   0.42262744    1.4929784    1.9622945    3.3814664 
 5815000   0.98304067 -8.6009993e-05   0.48821825  0.048855758            0   0.43936249     1.462273    1.9504912  -0.98531651 
 5820000    1.0225786 -9.3346112e-05   0.46155532  0.011808482            0   0.44974684    1.5210857     1.982641    -1.203573 
 5825000    1.0536692 -7.188158e-05     0.437411 0.0088466376            0   0.42856437     1.567333     2.004744  -0.44881397 
 5830000     1.053748 -0.00015256556   0.41848938  0.018333649            0   0.40015573    1.5674501    1.9859395   -3.2216317 
 5835000     1.009312 2.8774089e-05   0.47626876 0.0069269871            0   0.46934177    1.5013516    1.9776204     2.959776 
 5840000    1.0175063 9.4824734e-06   0.43507231 0.0034033336            0   0.43166897    1.5135407     1.948613    2.2722814 
 5845000    1.0054488 -0.00011328705   0.44562817 0.0065256779            0   0.43910249     1.495605    1.9412332   -1.9256313 
 5850000    1.0629702 -2.4009952e-05   0.38701932 0.0017439179            0    0.3852754    1.5811682    1.9681875    1.1486478 
 5855000   0.99186539 1.6145209e-05   0.48358824 0.0064876933            0   0.47710054    1.4753998     1.958988    2.5100778 
 5860000    1.0480184 5.7092934e-05   0.42765071  0.018595607            0   0.40905511    1.5589273     1.986578    3.9353502 
 5865000    1.0380961 -6.0350018e-05   0.42516927  0.024750405            0   0.40041886     1.544168    1.9693372 -0.090610031 
 5870000    1.0165175 -3.9939808e-05   0.45662017  0.022595616            0   0.43402455    1.5120698    1.9686899   0.60541116 
 5875000    1.0495289 0.00011663567   0.40861888  0.017736849            0   0.39088203    1.5611742    1.9697931    5.9509574 
 5880000    1.0261322 6.6429613e-05   0.45858908   0.03620605            0   0.42238303    1.5263717    1.9849608    4.2524249 
 5885000    1.0365709 9.6867785e-05    0.4192275  0.019719739            0   0.39950776    1.5418992    1.9611267    5.2675471 
 5890000   0.97141707 -0.00012828734   0.52045403  0.015528187            0   0.50492584    1.4449829    1.9654369   -2.4134376 
 5895000    1.0230613 -6.12364e-05   0.44276425  0.050640577            0   0.39212367    1.5218037    1.9645679  -0.12563456 
 5900000   0.99058547 -6.6425216e-05   0.47261525  0.025344689            0   0.44727056    1.4734959    1.9461111  -0.32120291 
 5905000   0.98542617 -8.8864885e-05    0.4696878 0.0089899742            0   0.46069782    1.4658214    1.9355092   -1.0977455 
 5910000    1.0182271 5.0621399e-05   0.40693753 0.0040678895            0   0.40286964    1.5146128    1.9215503    3.6494274 
 5915000    1.0334938 2.4515521e-05   0.39274222  0.004960822            0    0.3877814     1.537322    1.9300642    2.7668607 
 5920000    1.0163622 1.9306531e-06   0.40491387  0.013537899            0   0.39137597    1.5118387    1.9167526    1.9826522 
 5925000   0.99060115 9.1131515e-05   0.44888746   0.01653124            0   0.43235622    1.4735192    1.9224067    5.0330291 
 5930000   0.99108621 3.8095713e-05    0.4527776 0.0049688588            0   0.44780874    1.4742407    1.9270183     3.227352 
 5935000    1.0347622 -1.4958371e-05   0.39418715 0.0072313351            0   0.38695581    1.5392088    1.9333959    1.4228169 
 5940000    1.0112655 1.7916361e-05   0.40709639  0.011539565            0   0.39555682    1.5042574    1.9113538     2.522899 
 5945000   0.96969918 1.5424454e-05   0.46353084  0.010482198            0   0.45304864    1.4424275    1.9059584    2.4324464 
 5950000    1.0089728 2.7567373e-05   0.40257529  0.010728295            0     0.391847     1.500847    1.9034223    2.8443886 
 5955000   0.93800117 4.3943262e-05   0.49545753  0.016170874            0   0.47928666    1.3952767    1.8907343    3.3906643 
 5960000   0.93409754 -4.1155735e-05    0.5025049  0.020651933            0   0.48185297    1.3894701     1.891975   0.48719258 
 5965000   0.97915791 0.00012075527   0.43444404  0.029982599            0   0.40446144    1.4564974    1.8909414    6.0127212 
 5970000   0.96762082 1.075201e-05   0.46334619  0.013771813            0   0.44957437     1.439336    1.9026822    2.2696841 
 5975000   0.97285705 -3.4534821e-05   0.45398741 0.0032459905            0   0.45074142    1.4471249    1.9011123    0.7223237 
 5980000    1.0060537 2.7217889e-05    0.4046982 0.0084356063            0   0.39626259    1.4965049    1.9012031    2.8302404 
 5985000   0.99356261 9.2599581e-06   0.41660069  0.015037926            0   0.40156277    1.4779244    1.8945251    2.2105983 
 5990000   0.92314888 0.00010912111    0.5132835  0.012303755            0   0.50097975     1.373184    1.8864675    5.6111348 
 5995000   0.95079763 0.00012806471   0.51003436  0.018103254            0   0.49193111    1.4143115    1.9243458    6.2956214 
 6000000    1.0351533 3.4651029e-05   0.38788608  0.039243391            0   0.34864269    1.5397906    1.9276767    3.1104318 
 6005000   0.96661759 -4.4694597e-05   0.50905099  0.025333865            0   0.48371713    1.4378437    1.9468947   0.42131907 
 6010000   0.93397305 -6.2776354e-05   0.56202545  0.021055149            0    0.5409703    1.3892849    1.9513104  -0.19145584 
 6015000    1.0385719 1.3509696e-05   0.40478956  0.017671038            0   0.38711853    1.5448758    1.9496653    2.4107963 
 6020000    0.9952869 0.00010259927   0.44594522  0.024676867            0   0.42126836    1.4804893    1.9264345    5.4284897 
 6025000     0.969988 8.5128596e-05   0.49994058  0.021565027            0   0.47837556    1.4428572    1.9427977    4.8485205 
 6030000    1.0431638 7.9556623e-07    0.4008956  0.018726346            0   0.38216925    1.5517061    1.9526017     1.979757 
 6035000   0.97996849 4.2109262e-05   0.51061767  0.028194853            0   0.48242281    1.4577031    1.9683208    3.4056503 
 6040000    1.0097991 0.00011057761   0.47895235  0.037016394            0   0.44193595    1.5020762    1.9810286    5.7554108 
 6045000    1.0234748 -1.2471122e-05   0.50295367      0.01998            0   0.48297368    1.5224187    2.0253724    1.5996914 
 6050000   0.98617531 1.8105246e-05   0.55259611  0.019611977            0   0.53298413    1.4669358    2.0195319    2.6375243 
 6055000    1.0830035 3.6355131e-05   0.40816957  0.010232467            0    0.3979371    1.6109677    2.0191372    3.2600591 
 6060000     1.120012 -1.8893265e-05   0.36468115 0.0010869546            0   0.36359419    1.6660179     2.030699    1.3858089 
 6065000    1.0276333 -8.9726753e-05   0.49302215 0.0056137115            0   0.48740844    1.5286045    2.0216266   -1.0410465 
 6070000   0.94218907 -5.1372366e-05   0.61705262  0.048958877            0   0.56809375    1.4015062    2.0185589   0.26504879 
 6075000   0.96250554 -0.00011434944   0.60976339   0.05815184            0   0.55161155     1.431727    2.0414904   -1.8616371 
 6080000    1.0494774 -3.0934352e-05   0.48882623  0.043979597            0   0.44484663    1.5610976    2.0499238   0.99403123 
 6085000    1.0530681 0.00015408347   0.47563753  0.039293031            0    0.4363445    1.5664388    2.0420763    7.3014589 
 6090000    1.0376571 4.2945648e-05   0.49494632  0.018666213            0   0.47628011     1.543515    2.0384613    3.5043394 
 6095000    1.1359533 -3.4605749e-05   0.37867362  0.023488398            0   0.35518522    1.6897306    2.0684042   0.88719466 
 6100000    1.0591855 3.859155e-06   0.48349336  0.029717767            0    0.4537756    1.5755385    2.0590318    2.1907576 
 6105000    1.0654172 -2.6575827e-05   0.47595188 0.0099216981            0   0.46603018    1.5848081      2.06076    1.1536384 
 6110000    1.1037179 -3.9709314e-05   0.42649812  0.016779499            0   0.40971862    1.6417804    2.0682785   0.71286727 
 6115000    1.1001191 3.1768618e-05   0.40899639 0.0099106161            0   0.39908577    1.6364272    2.0454236    3.1297924 
 6120000    1.0100144 -7.0807404e-05   0.50811628 0.0055066143            0   0.50260967    1.5023965    2.0105128  -0.40637993 
 6125000    1.0305771 -0.00014355291   0.47132183  0.004155339            0   0.46716649    1.5329834    2.0043052   -2.8956341 
 6130000    1.0425394 6.2756545e-05   0.45124079  0.019734307            0   0.43150648    1.5507774    2.0020182    4.1441082 
 6135000    1.0018633 4.0467658e-05    0.5137781   0.03503434            0   0.47874376    1.4902716    2.0040497    3.3853458 
 6140000    1.0303569 1.5464954e-06   0.45098223  0.043435101            0   0.40754713    1.5326559    1.9836381    2.0364252 
 6145000    1.0232168 2.6463729e-05   0.43745514  0.014831266            0   0.42262387     1.522035    1.9594901    2.8627854 
 6150000   0.96647215 -1.5302459e-05   0.52543558  0.024744586            0   0.50069099    1.4376273    1.9630629     1.440739 
 6155000    1.0248168 -8.8175432e-05   0.45862032  0.028454622            0    0.4301657    1.5244149    1.9830352   -1.0266862 
 6160000     1.040499 5.7261304e-06   0.41819745 0.0044372682            0   0.41376018    1.5477423    1.9659398    2.1613917 
 6165000    1.0138375 9.5017457e-05   0.46201627  0.011431086            0   0.45058519    1.5080833    1.9700996    5.2133621 
 6170000   0.93312386 1.4966617e-06   0.57594785  0.036429108            0   0.53951874    1.3880217    1.9639696    2.0150556 
 6175000    1.0362438 6.3000784e-05   0.43142089   0.01401284            0   0.41740805    1.5414127    1.9728336    4.1232604 
 6180000   0.97874107 0.00014541566   0.53193522 0.0014740099            0   0.53046121    1.4558773    1.9878126    6.9513339 
 6185000    1.0159489 -1.5083572e-05   0.46089146  0.013469701            0   0.44742176     1.511224    1.9721155    1.4572629 
 6190000    1.0027478 -0.00013243645   0.47303078  0.029004503            0   0.44402628    1.4915873    1.9646181   -2.5558795 
 6195000     1.037538 -4.3303692e-05   0.44607821  0.035769168            0   0.41030904    1.5433377    1.9894159   0.51131658 
 6200000   0.97628364 2.6910109e-05   0.52707408  0.012612095            0   0.51446198    1.4522219     1.979296    2.8978277 
 6205000    1.0724674 0.00016822772   0.39213269  0.018223781            0   0.37390891    1.5952952    1.9874279    7.7296007 
 6210000   0.97783896 0.00010944457   0.51977744  0.056843383            0   0.46293405    1.4545354    1.9743129    5.7100208 
 6215000   0.99597385 -3.7479328e-05   0.48904696  0.033715323            0   0.45533163    1.4815111    1.9705581   0.69126368 
 6220000   0.96916226 4.1113481e-05   0.51078982  0.017252647            0   0.49353717    1.4416289    1.9524187    3.3557588 
 6225000   0.93964248 8.6776551e-05    0.5500819  0.015978441            0   0.53410346    1.3977182    1.9478001     4.909773 
 6230000   0.95239221 3.3704193e-05   0.53121414  0.029996813            0   0.50121733    1.4166834    1.9478976     3.098334 
 6235000   0.99466246 1.6601868e-05   0.47180692  0.032828282            0   0.43897864    1.4795604    1.9513673    2.5180444 
 6240000     1.013245 -5.6929359e-05   0.41508672  0.013476345            0   0.40161038    1.5072019    1.9222887 -0.020900134 
 6245000    0.9470487 -0.00010649982   0.51913916  0.025523838            0   0.49361532    1.4087349    1.9278741   -1.7073198 
 6250000   0.89169201 -4.3662177e-05   0.63451921  0.025976116            0   0.60854309    1.3263919    1.9609111   0.47057543 
 6255000   0.98808786 -0.00010165485   0.50608037  0.010517419            0   0.49556295    1.4697807    1.9758611   -1.4939578 
 6260000    0.9018082 -0.0001831905   0.64103971  0.028643978            0   0.61239573    1.3414397    1.9824794   -4.2704231 
 6265000   0.99412381 -0.00016673638   0.49422714  0.042272621            0   0.45195451    1.4787592    1.9729863   -3.7182821 
 6270000   0.98649992 -1.129871e-06   0.52202788  0.051284043            0   0.47074384    1.4674186    1.9894465    1.9508802 
 6275000    1.0004741 0.00019259585   0.48389002  0.017589124            0    0.4663009    1.4882052    1.9720952    8.5460334 
 6280000    1.0147065 0.00011261594   0.47884465  0.025654324            0   0.45319033    1.5093759    1.9882205     5.832178 
 6285000    1.0091461 -3.7415378e-05   0.51339053  0.023728238            0    0.4896623    1.5011048    2.0144954    0.7373838 
 6290000   0.99968454 -5.6828742e-05   0.51935825  0.020843261            0   0.49851498    1.4870307     2.006389  0.066634613 
 6295000    1.0186492 7.0581099e-05   0.47251211  0.020954536            0   0.45155758    1.5152407    1.9877528     4.396921 
 6300000     1.053466 8.0602829e-05   0.42945625  0.025375184            0   0.40408107    1.5670306    1.9964869    4.7477301 
 6305000   0.92854852 1.4378678e-06    0.6177532  0.037926096            0   0.57982711    1.3812159    1.9989691    2.0480483 
 6310000    1.0163393 3.575904e-05   0.47828503  0.025735939            0   0.45254909    1.5118047    1.9900898     3.210665 
 6315000    1.0464341 -0.00017157313   0.40836723   0.00601086            0   0.40235637    1.5565708     1.964938   -3.8914249 
 6320000     1.027726 -7.5460164e-05   0.43967029 0.0040146108            0   0.43565568    1.5287424    1.9684127  -0.60729424 
 6325000    0.9491675 0.00013783838   0.54035302 0.0012293762            0   0.53912364    1.4118867    1.9522397    6.6571229 
 6330000   0.96220808 4.6374163e-05   0.50422856  0.012814684            0   0.49141388    1.4312845    1.9355131    3.5184178 
 6335000    1.0009785 9.6385515e-05   0.45659223  0.031791539            0   0.42480069    1.4889555    1.9455477    5.2355066 
 6340000   0.97900585 -1.0486351e-05   0.50645981  0.013639079            0   0.49282073    1.4562712     1.962731    1.6047969 
 6345000   0.96125565 -0.00015347859   0.52599804 0.0023087402            0    0.5236893    1.4298678    1.9558658   -3.2828702 
 6350000    1.0322555 -4.9166701e-05   0.43235155  0.005359819            0   0.42699173      1.53548    1.9678316   0.28960816 
 6355000    1.0148637 6.4484246e-05   0.46197211  0.011397678            0   0.45057444    1.5096097    1.9715819    4.1726441 
 6360000    1.0170724 0.00015065093   0.45683187  0.026224861            0   0.43060701    1.5128953    1.9697271    7.1119457 
 6365000   0.99719878 0.00010433596   0.47479227  0.037886782            0   0.43690548    1.4833332    1.9581255    5.5194595 
 6370000    1.0597631 -6.2911884e-05   0.41730185  0.023876815            0   0.39342503    1.5763975    1.9936994  -0.15369289 
 6375000   0.99243016 -4.808424e-05   0.51755898  0.051990087            0    0.4655689    1.4762399    1.9937988   0.35252346 
 6380000    1.0286394 -5.7992524e-06   0.47784501  0.043901724            0   0.43394328    1.5301011    2.0079461    1.8099983 
 6385000    1.0087654 4.2320361e-05   0.51814165  0.018633315            0   0.49950833    1.5005385    2.0186801    3.4632151 
 6390000    1.0321663 -5.5947654e-05   0.48162518  0.021159639            0   0.46046554    1.5353474    2.0169726   0.10729262 
 6395000   0.99769265  3.56604e-05   0.50977517  0.020633436            0   0.48914173    1.4840678     1.993843    3.2110513 
 6400000    1.0037091 0.00010382523   0.48894423  0.051177745            0   0.43776649    1.4930173    1.9819615    5.5258627 
 6405000    1.0100755 8.7354676e-05   0.46658556   0.04472987            0   0.42185569    1.5024873    1.9690729    4.9507792 
 6410000    1.0192622 -2.7887728e-05   0.46429607  0.017878664            0   0.44641741    1.5161525    1.9804486    1.0285474 
 6415000   0.93632441 -0.00013111432   0.59551586 0.0074747641            0   0.58804109    1.3927826    1.9882984   -2.4870705 
 6420000    1.0304704 0.00010169648   0.44301902 0.0088704387            0   0.43414858    1.5328247    1.9758437    5.4470836 
 6425000    1.0110127 5.2213701e-05   0.49621375  0.032713996            0   0.46349975    1.5038814    2.0000951    3.7823228 
 6430000   0.98520681 0.00012429377   0.56588287  0.050319324            0   0.51556355    1.4654951     2.031378    6.2739386 
 6435000    1.0165797 -4.1013996e-05   0.52165031  0.039019465            0   0.48263085    1.5121623    2.0338126   0.63386825 
 6440000      1.00082 -0.0001794727   0.52347044  0.035268018            0   0.48820243    1.4887197    2.0121901   -4.1138112 
 6445000   0.99687587 2.9631029e-05   0.51314132  0.017211521            0    0.4959298    1.4828529    1.9959942       3.0074 
 6450000    1.0143696 5.8116801e-05   0.49424115  0.020786688            0   0.47345447    1.5088748     2.003116    3.9868361 
 6455000   0.94827163 9.2401328e-05   0.58873952  0.050965227            0   0.53777429     1.410554    1.9992936    5.1532589 
 6460000    1.0496648 5.1830676e-05   0.45354038   0.03632698            0    0.4172134    1.5613763    2.0149167    3.7840705 
 6465000     1.040625 2.9368614e-05   0.47758749  0.028516013            0   0.44907148    1.5479296    2.0255171    3.0279658 
 6470000    0.9596902 5.2364796e-05   0.57105487  0.047427467            0    0.5236274    1.4275392     1.998594    3.7859791 
 6475000    1.0155441 2.8323386e-05   0.48815628  0.030874546            0   0.45728173    1.5106219    1.9987782    2.9655498 
 6480000    1.0323336 0.00010165141   0.46210142  0.041241754            0   0.42085966    1.5355962    1.9976976    5.4673992 
 6485000    1.0448303 5.294487e-05    0.4474097  0.037124409            0   0.41028529     1.554185    2.0015947    3.8087796 
 6490000    1.0387231 -3.982995e-05   0.46250497  0.017925898            0   0.44457908    1.5451006    2.0076056    0.6480766 
 6495000    1.0549853 -1.2126341e-05   0.44984974  0.018996927            0   0.43085282    1.5692906    2.0191404    1.6052279 
 6500000    1.0273831 1.8797264e-05   0.47707034  0.017956582            0   0.45911376    1.5282324    2.0053027     2.646916 
 6505000    1.0486583 -4.8310862e-05   0.46122331 0.0064372999            0   0.45478601    1.5598792    2.0211026   0.37209181 
 6510000    1.0134949 3.2706364e-05   0.51215594 0.0088001129            0   0.50335583    1.5075737    2.0197296    3.1361069 
 6515000    0.9909804 -3.7989784e-05   0.54705425  0.018472728            0   0.52858152    1.4740833    2.0211376   0.72441961 
 6520000    1.0356691 -8.9182388e-05   0.45200763 0.0095936882            0   0.44241395    1.5405577    1.9925654   -1.0515268 
 6525000    1.0513709 -4.6169814e-05   0.45775584  0.029561217            0   0.42819462    1.5639142      2.02167   0.44574034 
 6530000    1.0542361 -5.9505277e-05   0.48231025  0.018917899            0   0.46339235    1.5681762    2.0504864  0.019372976 
 6535000    1.0758642 -4.2686931e-06   0.43060864  0.024431831            0   0.40617681     1.600348    2.0309567    1.8852519 
 6540000    1.0501949 3.1420991e-05    0.4698064  0.046391889            0   0.42341452    1.5621649    2.0319713    3.1044745 
 6545000    1.0644485 2.6235767e-06   0.45868853  0.022642042            0   0.43604649    1.5833672    2.0420557    2.1316072 
 6550000    1.0128684 0.00010756863    0.5520782  0.017401901            0    0.5346763    1.5066418      2.05872     5.730396 
 6555000      1.09015 8.8659019e-06   0.44591868  0.022804716            0   0.42311396    1.6215981    2.0675168    2.3701396 
 6560000    1.0824251 -8.3162096e-05   0.46810447  0.026020866            0    0.4420836    1.6101073    2.0782118  -0.76038776 
 6565000      1.06961 1.4456176e-05    0.5271108  0.038229986            0   0.48888081    1.5910448    2.1181556    2.6115931 
 6570000    1.1470729 -6.3134142e-05   0.42588035  0.010231427            0   0.41564893     1.706271    2.1321513 -0.022827411 
 6575000    1.0655657 3.6696356e-05   0.53027295  0.023002915            0   0.50727004    1.5850291     2.115302    3.3678709 
 6580000    1.1098893 4.1444276e-06   0.44926333  0.017912624            0    0.4313507    1.6509603    2.1002237    2.2416868 
 6585000    1.0957015 -1.9374807e-05   0.44947202  0.012746022            0   0.43672599    1.6298559     2.079328    1.4180012 
 6590000    1.1004254 4.5025398e-05   0.42499287  0.029443322            0   0.39554955    1.6368828    2.0618757    3.5987426 
 6595000    1.0648261 -4.0181797e-05   0.48393564 0.0070899641            0   0.47684567    1.5839289    2.0678645   0.69632583 
 6600000    1.0648799 -1.7057804e-05   0.47603303 0.0042471413            0   0.47178588    1.5840088    2.0600419    1.4778021 
 6605000    1.0559732 8.2947969e-06   0.47348176  0.046671011            0   0.42681075    1.5707601    2.0442419     2.327371 
 6610000    1.0922097 8.4803559e-06   0.42256405  0.030386229            0   0.39217783     1.624662     2.047226    2.3366888 
 6615000    1.0060329 -4.7874605e-05   0.51724374  0.013341616            0   0.50390212    1.4964739    2.0137177   0.37959781 
 6620000    1.0446231 -0.00012961742   0.46552285  0.001549209            0   0.46397364    1.5538769    2.0193997   -2.4048749 
 6625000    1.0427429 3.3756803e-05    0.4736052 0.0043366339            0   0.46926857      1.55108    2.0246852    3.1769174 
 6630000    1.0564611 6.943059e-05   0.45610361  0.021501827            0   0.43460178    1.5714858    2.0275894    4.3974869 
 6635000     1.046964 5.6496568e-05   0.47693136  0.011676162            0    0.4652552     1.557359    2.0342904    3.9627066 
 6640000    1.0663709 -2.910704e-05   0.44239418 0.0016363052            0   0.44075787    1.5862267    2.0286209    1.0351006 
 6645000    1.0396493 1.180852e-05   0.50844033  0.010229253            0   0.49821107    1.5464784    2.0549187    2.4579829 
 6650000    1.0293542 0.00020544184   0.51034071  0.028031414            0    0.4823093    1.5311644    2.0415051    9.0539198 
 6655000     1.097491 7.5523375e-05   0.41305917  0.031137396            0   0.38192177    1.6325178     2.045577    4.6234415 
 6660000    1.0453005 1.9200147e-05   0.47440781  0.022433363            0   0.45197445    1.5548845    2.0292923    2.6846573 
 6665000    1.0692635 -3.4208611e-05   0.44792433 0.0058883857            0   0.44203594    1.5905295    2.0384538   0.87079992 
 6670000   0.99555919 -0.00016428547   0.56729247 0.0051910968            0   0.56210137    1.4808943    2.0481868    -3.559424 
 6675000    1.0149248 -4.1957518e-05   0.52871638  0.033731818            0   0.49498457    1.5097006     2.038417   0.60626702 
 6680000    1.0262502 0.00011588411   0.49098454  0.069822163            0   0.42116238    1.5265472    2.0175317    5.9730427 
 6685000    1.0647172 0.00010832993   0.41661355  0.033863052            0    0.3827505    1.5837668    2.0003804     5.698042 
 6690000     1.044367 -6.9139865e-05   0.43748381  0.005446487            0   0.43203733    1.5534959    1.9909797  -0.36899432 
 6695000    1.0576052 -6.2695788e-06   0.43984425 0.0053028153            0   0.43454143    1.5731877     2.013032    1.7990303 
 6700000    1.0342057 0.00014691479   0.46471277 0.0025333778            0   0.46217939     1.538381    2.0030938    7.0177852 
 6705000    1.0241745 5.1056234e-05   0.49817705  0.010218418            0   0.48795863    1.5234596    2.0216367    3.7643561 
 6710000    1.0207271 -3.5957815e-05   0.49236934  0.035264905            0   0.45710444    1.5183315    2.0107008   0.78334075 
 6715000    1.0431019 4.8608461e-06   0.43882568  0.010230215            0   0.42859546    1.5516141    1.9904398    2.1563567 
 6720000    1.0092576 1.1408668e-06    0.4877592   0.01255326            0   0.47520594    1.5012707    1.9890299    2.0279715 
 6725000    1.0354041 -1.256091e-05   0.46917548  0.015235485            0   0.45393999    1.5401636    2.0093391    1.5805934 
 6730000    1.0111108 1.7289114e-05   0.53216208 0.0087039598            0   0.52345812    1.5040273    2.0361893    2.6263244 
 6735000    1.0238543 -4.9756827e-05   0.48910329  0.029189819            0   0.45991348    1.5229833    2.0120866    0.3137202 
 6740000   0.93918256 3.4865281e-05   0.60357249  0.046906807            0   0.55666568    1.3970341    2.0006065    3.1906748 
 6745000    1.0483273 0.00013596701   0.42514756  0.018906175            0   0.40624138    1.5593868    1.9845344    6.6255418 
 6750000    1.0351016 6.2598177e-05   0.45551184  0.012955242            0    0.4425566    1.5397136    1.9952254    4.1319099 
 6755000   0.99907316 -0.00011908825   0.51638975 0.0093685296            0   0.50702122    1.4861213    2.0025111   -2.0623677 
 6760000     1.048313 -1.0588987e-06   0.44879692 0.0029077091            0   0.44588921    1.5593657    2.0081626    1.9720188 
 6765000    1.0529916 8.443041e-05   0.45828649 0.0023106179            0   0.45597587     1.566325    2.0246114    4.9065028 
 6770000    1.0427699 -7.7312608e-05   0.48231313  0.013644614            0   0.46866851    1.5511202    2.0334334  -0.60550366 
 6775000    1.0299558 -8.5064938e-05   0.47781671  0.026874223            0   0.45094248    1.5320592    2.0098759  -0.89367393 
 6780000    1.0411988 7.7768487e-05   0.46900368  0.016110874            0   0.45289281    1.5487833     2.017787    4.6722847 
 6785000    1.0097642 3.0528271e-05   0.51472845  0.011909554            0   0.50281889    1.5020242    2.0167526    3.0587843 
 6790000    1.0622838 -8.3648297e-06   0.41778451  0.014872705            0    0.4029118    1.5801471    1.9979317    1.7124121 
 6795000    1.0203213 2.7203437e-05   0.49765942  0.013320671            0   0.48433875     1.517728    2.0153874    2.9439314 
 6800000    1.0392786 7.1622767e-05   0.46586468 0.0097245996            0   0.45614008    1.5459269    2.0117916    4.4565154 
 6805000    1.0233743 6.0940048e-06    0.4807536 0.0063575581            0   0.47439605    1.5222693    2.0030229    2.2110316 
 6810000     1.020386 1.2279672e-05   0.48758733  0.014721743            0   0.47286559    1.5178241    2.0054114    2.4245576 
 6815000     1.032143 -3.8236061e-06   0.46016526  0.023256483            0   0.43690877    1.5353126    1.9954779    1.8649655 
 6820000    1.0272463 0.0001223769    0.4699071  0.018579163            0   0.45132794    1.5280288    1.9979359    6.1750673 
 6825000   0.97626662 0.00018230248   0.55782261  0.031071971            0   0.52675064    1.4521966    2.0100192    8.2326105 
 6830000   0.98432379 -1.6017473e-05    0.5564238  0.019413873            0   0.53700993    1.4641816    2.0206054    1.4738757 
 6835000    1.0574332 -9.1730708e-05   0.43988737  0.013007084            0   0.42688029    1.5729318    2.0128192   -1.1182556 
 6840000    1.0031415 0.00010833375   0.49425303 0.0090008833            0   0.48525214     1.492173     1.986426    5.6842179 
 6845000   0.99107986 0.00013270085   0.51832501 0.0040196623            0   0.51430535    1.4742313    1.9925563    6.5220787 
 6850000    1.0190796 7.1598792e-05   0.47433253  0.010460174            0   0.46387236     1.515881    1.9902135    4.4341189 
 6855000    1.0127254 0.00015344681   0.48834292  0.014390965            0   0.47395196     1.506429    1.9947719    7.2324229 
 6860000    1.0076176 0.0001366756   0.48749791 0.0032600068            0    0.4842379    1.4988311    1.9863291    6.6515228 
 6865000   0.98135742 -6.7111488e-05   0.52538585 0.0087502015            0   0.51663565    1.4597692     1.985155  -0.30558379 
 6870000    0.9980985 -0.00020620914    0.5103429 0.0071439523            0   0.50319895    1.4846715    1.9950144   -5.0435911 
 6875000    1.0465462 -8.5478684e-05   0.45693019  0.001255004            0   0.45567518    1.5567374    2.0136676  -0.90400478 
 6880000    1.0085476 -5.4246308e-05   0.51168192 0.00013603464            0   0.51154589    1.5002145    2.0118964    0.1602891 
 6885000     1.028373 -0.00016083587   0.47984663 0.00094357048            0   0.47890306    1.5297048    2.0095515   -3.4803129 
 6890000    0.9575463 -0.00018535915   0.55237562  0.007272555            0   0.54510307    1.4243501    1.9767257      -4.3502 
 6895000    1.0104677 -1.432457e-06   0.46129856  0.012456645            0   0.44884192    1.5030708    1.9643693    1.9154748 
 6900000    0.9916275 0.00015289727   0.48696134   0.02924883            0   0.45771251    1.4750459    1.9620072    7.1809008 
 6905000   0.93737938 8.3932088e-05    0.5230012  0.035994517            0   0.48700668    1.3943518     1.917353     4.782235 
 6910000   0.92121187 -0.00013072317   0.55205819  0.030108434            0   0.52194976    1.3703027    1.9223608   -2.5396567 
 6915000   0.97556444 -0.00011374885   0.47177371  0.015524744            0   0.45624896    1.4511521    1.9229258   -1.9597017 
 6920000   0.94152462 4.2664985e-05   0.52040558  0.042449146            0   0.47795644    1.4005179    1.9209235    3.3772216 
 6925000    1.0230644 -2.0544501e-05   0.43629978  0.020719475            0   0.41558031    1.5218084    1.9581081    1.2568558 
 6930000   0.96106316 -0.00010956577   0.55479381  0.037382863            0   0.51741095    1.4295814    1.9843753   -1.7554698 
 6935000    1.0591736 -0.00016902287   0.39762739  0.010988432            0   0.38663896    1.5755207    1.9731481   -3.7961658 
 6940000   0.95347751 -5.6968442e-05   0.54774719 0.00046910952            0   0.54727808    1.4182978     1.966045  0.021522169 
 6945000    1.0471423 -6.863916e-05   0.41445831  0.010046184            0   0.40441212    1.5576241    1.9720824  -0.37080091 
 6950000    1.0452925 -0.00012964346   0.45021591  0.013695131            0   0.43652078    1.5548726    2.0050885    -2.420075 
 6955000    1.0407542 -8.2185769e-06   0.46687177 0.0045367992            0   0.46233497    1.5481219    2.0149937    1.7344663 
 6960000   0.99329455 1.0107922e-05   0.53323125 0.0083236586            0   0.52490759    1.4775256    2.0107569     2.355774 
 6965000    1.0408619 0.00012138617   0.47134503  0.013779642            0   0.45756539    1.5482821    2.0196272    6.1629419 
 6970000    1.0437771 0.00012158096   0.48448144 0.0098029084            0   0.47467853    1.5526184    2.0370999    6.1870632 
 6975000   0.99246008 -0.00012976261   0.54563774  0.019429557            0   0.52620819    1.4762844    2.0219221   -2.4073085 
 6980000    1.0338716 -0.00015346744   0.47682792 0.0099045616            0   0.46692336     1.537884    2.0147119   -3.2236435 
 6985000    1.0625711 7.4601764e-05   0.44923658  0.028990308            0   0.42024627    1.5805745    2.0298111     4.576218 
 6990000    1.0448566 -3.6388603e-05   0.49968476  0.028347951            0   0.47133681    1.5542242    2.0539089    0.8118446 
 6995000   0.99731112 -0.00015799554   0.56639651 0.0091376866            0   0.55725882    1.4835003    2.0498968   -3.3430175 
 7000000    1.0646063 -0.00011223302   0.49414363  0.012423838            0   0.48171979    1.5836018    2.0777454   -1.7531418 
 7005000    1.0473289 5.3716243e-06   0.51894166   0.01710326            0    0.5018384    1.5579018    2.0768435    2.2601949 
 7010000   0.99014249 -2.456641e-05   0.59632488  0.023136901            0   0.57318798     1.472837    2.0691618    1.2306284 
 7015000   0.99337409 -3.6323354e-05   0.60463865  0.014773538            0   0.58986511     1.477644    2.0822826   0.84244546 
 7020000    1.0503878 -1.3556146e-05   0.49300021  0.010413317            0   0.48258689    1.5624519    2.0554521    1.5927357 
 7025000    1.0968626 1.0485587e-05   0.41146856  0.010516684            0   0.40095188    1.6315832    2.0430517    2.4009598 
 7030000    1.0048373 0.00013498865   0.53344587  0.054637274            0    0.4788086    1.4946954    2.0281413     6.635754 
 7035000    1.0253993 6.456085e-05   0.51892375  0.084583177            0   0.43434057    1.5252815    2.0442052    4.2478822 
 7040000   0.98303743 -5.9803003e-05   0.56652797  0.035808751            0   0.53071922    1.4622682    2.0287961 -0.012479683 
 7045000    1.0596071 6.3661588e-05   0.47270707  0.016103778            0   0.45660329    1.5761655    2.0488726    4.2218548 
 7050000    1.0216217 6.959536e-05   0.54675662  0.012030823            0   0.53472579    1.5196622    2.0664188    4.4419404 
 7055000    1.0256764 -6.329802e-05   0.55234493 0.0090980416            0   0.54324689    1.5256937    2.0780386 -0.082533807 
 7060000    1.0688709 -7.7185611e-06   0.46805524 0.0076323512            0   0.46042289    1.5899454    2.0580007    1.7945404 
 7065000    1.0543484 -7.3933475e-05   0.49796521  0.011842851            0   0.48612236    1.5683433    2.0663085  -0.45728746 
 7070000     1.060321 -8.8166203e-05   0.48967848  0.020787566            0   0.46889091    1.5772275    2.0669059  -0.94250046 
 7075000    1.0605006 2.1418664e-05   0.48350569  0.034182448            0   0.44932324    1.5774947    2.0610004    2.7920908 
 7080000    1.0088217 -8.9984862e-05   0.53727396  0.024338099            0   0.51293586    1.5006223    2.0378963    -1.033587 
 7085000    1.0186575 -2.1270821e-05   0.52096728  0.013307295            0   0.50765998    1.5152531    2.0362204    1.3101763 
 7090000    1.0132659 0.00011257582   0.52223483  0.043788127            0    0.4784467     1.507233    2.0294678     5.872056 
 7095000    1.0295233 4.4556911e-05   0.46926999  0.030347164            0   0.43892283    1.5314159    2.0006859    3.5215618 
 7100000   0.98766716 -5.1923869e-05   0.51250943  0.043156833            0    0.4693526    1.4691549    1.9816643   0.20932959 
 7105000   0.98212543 -6.178639e-05   0.53793474  0.045894481            0   0.49204026    1.4609116    1.9988463  -0.11012911 
 7110000   0.99974648 5.0217391e-05    0.4977891  0.016428491            0   0.48136061    1.4871229     1.984912    3.6989989 
 7115000    1.0558942 -9.9568227e-05   0.42281496 0.0057564799            0   0.41705848    1.5706427    1.9934576   -1.4051379 
 7120000     1.034408 -2.3790174e-05   0.46488863  0.014461219            0   0.45042741    1.5386818    2.0035705    1.1915325 
 7125000   0.97085844 3.3924664e-05   0.56629612  0.053719017            0    0.5125771    1.4441519    2.0104481    3.1684099 
 7130000    1.0524621 -8.3175465e-05   0.45742987  0.036951057            0   0.42047881    1.5655373    2.0229672  -0.81608865 
 7135000    1.0420352 5.1045631e-05   0.49382698  0.026082504            0   0.46774447    1.5500274    2.0438544    3.7862119 
 7140000    1.1086116 0.00018151156   0.39995375  0.014252468            0   0.38570128    1.6490598    2.0490136    8.2446083 
 7145000    1.0773065 -3.7461387e-06   0.46997221  0.018602031            0   0.45137018    1.6024934    2.0724656    1.9445974 
 7150000    1.0683548 -1.4073057e-05   0.50504806  0.031881603            0   0.47316646    1.5891777    2.0942258    1.6138655 
 7155000    1.1051521 -3.3973355e-05   0.43815889  0.029219422            0   0.40893947    1.6439138    2.0820727   0.92244884 
 7160000    1.0882066 -0.00011463221   0.44806395   0.01514362            0   0.43292033    1.6187073    2.0667713   -1.8460083 
 7165000    1.0935709 -8.1791333e-06   0.46222744 0.0095556043            0   0.45267184    1.6266867    2.0889141     1.809733 
 7170000    1.0434879 -0.00010819685    0.5267764  0.023399525            0   0.50337687    1.5521883    2.0789647   -1.6141544 
 7175000    1.0341031 -3.1909527e-05   0.51326036  0.040994115            0   0.47226624    1.5382283    2.0514887   0.96231015 
 7180000    1.0077427 -4.6640312e-06   0.53993361  0.030218195            0   0.50971542    1.4990172    2.0389508    1.8797519 
 7185000   0.96742002 -7.4044097e-05    0.5901994  0.023235471            0   0.56696393    1.4390373    2.0292367  -0.49813518 
 7190000    1.0736122 3.0458821e-05   0.42682846  0.017375829            0   0.40945264    1.5969981    2.0238266    3.0634877 
 7195000    1.0589576 3.0529235e-05   0.44656433  0.014647768            0   0.43191656    1.5751995    2.0217638    3.0638284 
 7200000    1.0128469 -5.7230124e-05   0.48630184  0.019543565            0   0.46675828    1.5066097    1.9929116  0.039456683 
 7205000     1.029369 -5.9839616e-05   0.47273187  0.014444407            0   0.45828746    1.5311864    2.0039182 -0.038607316 
 7210000    1.0150945 -3.2849196e-05   0.49463868  0.049650284            0   0.44498839     1.509953    2.0045917   0.88333914 
 7215000    1.0185259 4.2137489e-05   0.49076217  0.037753962            0   0.45300821    1.5150573    2.0058195    3.4441125 
 7220000   0.99618926 3.1506926e-06   0.49543802  0.040583243            0   0.45485477    1.4818315    1.9772695    2.0848132 
 7225000    1.0043156 -6.4316328e-05   0.49191551  0.036876345            0   0.45503917    1.4939194    1.9858349  -0.20949572 
 7230000   0.99811334 -6.9702936e-05   0.52474431  0.042232825            0   0.48251149    1.4846936    2.0094379  -0.36975565 
 7235000    1.0253061 8.9035975e-05   0.49555681  0.024012918            0   0.47154389    1.5251429    2.0206997    5.0597943 
 7240000    1.0402982 0.00013389143   0.49967657  0.034912512            0   0.46476406    1.5474436    2.0471201    6.6172809 
 7245000    1.0100877 -5.638543e-07   0.55304474  0.024523263            0   0.52852148    1.5025054    2.0555502    2.0363039 
 7250000    1.0533933 -0.00017827015   0.49171984  0.024879645            0    0.4668402    1.5669225    2.0586423    -4.026312 
 7255000     1.069569 1.2891012e-05    0.4786857  0.027477034            0   0.45120867    1.5909839    2.0696696    2.5096828 
 7260000    1.0235601 -6.9063115e-06   0.53571755  0.025847417            0   0.50987013    1.5225457    2.0582632    1.8225278 
 7265000    1.0241046 -0.00015982544   0.52859513  0.041335809            0   0.48725932    1.5233556    2.0519507   -3.4034242 
 7270000     1.080072 -5.2070429e-05   0.47207355  0.017837606            0   0.45423595    1.6066071    2.0786806   0.30134332 
 7275000    1.0982931 8.1782381e-05   0.45105318  0.010548351            0   0.44050483     1.633711    2.0847642    4.8762695 
 7280000    1.0410246 3.4976121e-06   0.51690426 0.0083599651            0   0.50854429    1.5485241    2.0654284    2.1848135 
 7285000   0.98763076 5.4337161e-05   0.57950871 0.0074080705            0   0.57210064    1.4691008    2.0486095    3.9033179 
 7290000    1.0252083 0.00012141659   0.52095207  0.038734845            0   0.48221722    1.5249974    2.0459495    6.1903024 
 7295000    1.0492451 0.00022067341   0.49221508   0.03497017            0   0.45724491    1.5607521    2.0529672    9.5852862 
 7300000   0.98097886 0.00014461614   0.60761028  0.048638138            0   0.55897214    1.4592061    2.0668163    7.0030473 
 7305000    1.0197388 5.3002986e-05   0.56378686  0.051563571            0   0.51222329    1.5168615    2.0806483    3.8898169 
 7310000    1.0308568 6.8663292e-05   0.53884174  0.040431344            0    0.4984104    1.5333995    2.0722412    4.4159482 
 7315000    1.0481003 5.9599426e-05   0.51414729  0.029953104            0   0.48419419    1.5590492    2.0731965    4.1075236 
 7320000    1.0312639 -3.3844309e-05   0.52554601 0.0060575994            0   0.51948841     1.534005    2.0595511   0.90433198 
 7325000    1.1013316 -5.133958e-05   0.39894288 0.0074373429            0   0.39150553    1.6382308    2.0371737   0.28478267 
 7330000   0.98165106 -7.2561135e-05   0.55832388  0.051182951            0   0.50714093    1.4602059    2.0185298  -0.45822358 
 7335000    1.0239822 -0.00011631534   0.49794714  0.014165969            0   0.48378117    1.5231735    2.0211206   -1.9491098 
 7340000   0.95621921 -0.00016985467   0.59837812 0.0055094159            0   0.59286871    1.4223761    2.0207542   -3.7769518 
 7345000    1.0221714 7.6613364e-05   0.48831761 0.0077925741            0   0.48052504      1.52048    2.0087976    4.6238671 
 7350000    1.0657341 -1.0003837e-05   0.43378787 0.0064310453            0   0.42735682    1.5852795    2.0190674    1.6776031 
 7355000    1.0354298 -5.1723278e-06   0.48101864  0.016696919            0   0.46432172    1.5402018    2.0212204    1.8446716 
 7360000    1.0115954 -1.6836901e-05   0.50258689   0.02967263            0   0.47291426    1.5047481     2.007335    1.4326354 
 7365000    1.0323995 -6.5081562e-05   0.48604322  0.024533401            0   0.46150982    1.5356943    2.0217375  -0.19971314 
 7370000    1.0280558 9.798153e-05   0.47077634  0.009005593            0   0.46177075     1.529233    2.0000093    5.3444455 
 7375000    1.0187318 3.9953167e-05   0.47775161 0.0019978405            0   0.47575377    1.5153635    1.9931151    3.3568499 
 7380000    1.0277359 -4.3567015e-05   0.47248753 0.0044106895            0   0.46807684    1.5287571    2.0012446   0.51415716 
 7385000    1.0226391 -0.00010834412   0.49181506  0.026579117            0   0.46523594    1.5211757    2.0129907   -1.6851553 
 7390000    1.0219426 -9.5202797e-05   0.48431767   0.02205922            0   0.46225845    1.5201396    2.0044573   -1.2451315 
 7395000   0.98171885 -8.384261e-05   0.52815695   0.03079507            0   0.49736188    1.4603068    1.9884637  -0.87336404 
 7400000    1.0294861 8.3967248e-05   0.45308299  0.031452171            0   0.42163082    1.5313606    1.9844436    4.8505257 
 7405000   0.98439927 3.1101389e-05   0.52520646  0.036073584            0   0.48913287    1.4642939    1.9895004    3.0510944 
 7410000     1.078733 -2.261332e-05   0.39627831  0.011982731            0   0.38429558    1.6046153    2.0008936    1.2290256 
 7415000     1.076418 0.00010026126   0.43270148  0.027059207            0   0.40564227    1.6011718    2.0338732    5.4561243 
 7420000   0.92964167 -4.0304803e-05   0.64013141  0.057880272            0   0.58225114     1.382842    2.0229734   0.64723613 
 7425000   0.96002687 4.384152e-05    0.5987336  0.050458891            0    0.5482747      1.42804    2.0267736    3.5232308 
 7430000    1.0515835 0.00012475124   0.48592552  0.036307334            0   0.44961819    1.5642305     2.050156    6.3083316 
 7435000    1.0206538 -5.7102895e-05   0.54548277 0.0083251312            0   0.53715764    1.5182226    2.0637054   0.11459323 
 7440000    1.1207936 8.6263883e-05   0.40292598  0.021804583            0    0.3811214    1.6671805    2.0701065    5.0145804 
 7445000    1.1519426 2.0179885e-05   0.37457987 0.0017237006            0   0.37285617    1.7135146    2.0880945    2.7769012 
 7450000    1.1505226 -2.4576075e-05   0.42368908 0.0038050017            0   0.41988408    1.7114024    2.1350915    1.2962281 
 7455000    1.1052423 6.0234055e-05   0.50183566   0.01058894            0   0.49124672    1.6440479    2.1458836    4.2018727 
 7460000    1.1138787 6.3323529e-05   0.51489051  0.021221707            0    0.4936688    1.6568946    2.1717851    4.3332282 
 7465000    1.0787089 7.6480734e-05   0.55941549  0.028764766            0   0.53065072    1.6045794    2.1639949    4.7745373 
 7470000    1.1880714 0.00013612703   0.40590341  0.013505679            0   0.39239773    1.7672562    2.1731596    6.8196288 
 7475000    1.1002393 9.2991375e-06   0.52475227  0.036136009            0   0.48861626     1.636606    2.1613583    2.4787688 
 7480000    1.0680036 0.00010994327   0.57105051  0.049454151            0   0.52159636    1.5886554    2.1597059    5.9124363 
 7485000    1.1132861 0.00014975156    0.5169999  0.019367014            0   0.49763288    1.6560131     2.173013    7.2845328 
 7490000    1.1183188 -0.00013184358   0.50547734   0.03864448            0   0.46683286    1.6634992    2.1689766   -2.3312843 
 7495000    1.1394534 -0.00020782619   0.49386369  0.030337729            0   0.46352597    1.6949369    2.1888006   -4.9049999 
 7500000    1.1403401 -9.1213217e-05   0.46801951  0.019263271            0   0.44875624    1.6962559    2.1642754  -0.94913572 
 7505000    1.0631445 -2.1877318e-05   0.57731324  0.035413859            0   0.54189938    1.5814275    2.1587408     1.411995 
 7510000    1.0835889 0.00016303519   0.54374529  0.023462516            0   0.52028278    1.6118385    2.1555838    7.7205184 
 7515000      1.14613 0.00013674627   0.44365617 0.0075902219            0   0.43606594    1.7048683    2.1485245    6.8161306 
 7520000    1.1270373 -7.7516045e-05   0.51829451  0.027392184            0   0.49090233     1.676468    2.1947625  -0.45111846 
 7525000    1.1226961 6.3386389e-05   0.48275841  0.031557634            0   0.45120078    1.6700104    2.1527688    4.3163576 
 7530000    1.1106763 0.00014464492   0.48774795   0.01273436            0   0.47501359    1.6521311     2.139879    7.0770922 
 7535000    1.1050813 -6.1158962e-05   0.50484047  0.010317843            0   0.49452263    1.6438084    2.1486489  0.061089629 
 7540000    1.1139366 -8.9155032e-05   0.49640149   0.01005827            0   0.48634322    1.6569806    2.1533821  -0.88977634 
 7545000    1.1816358 -5.7837753e-05   0.40937501 0.0093174073            0   0.40005761    1.7576832    2.1670582   0.19286288 
 7550000    1.1284647 -1.5238514e-05   0.47196083 0.0057144064            0   0.46624642    1.6785912     2.150552    1.6304107 
 7555000    1.1198925 2.2395437e-05   0.48172682  0.014221976            0   0.46750484    1.6658402     2.147567    2.9119979 
 7560000    1.1519453 -6.2702463e-05   0.44622019    0.0307231            0   0.41549709    1.7135186    2.1597388  0.019494758 
 7565000    1.0912967 -7.1489326e-05   0.50835623 0.0069277408            0   0.50142849    1.6233039    2.1316601  -0.30850887 
 7570000    1.0908491 -0.00017144067    0.5247489   0.01633156            0   0.50841734    1.6226381     2.147387   -3.7044546 
 7575000    1.1219223 -1.4252725e-05   0.44555367  0.013161539            0   0.43239213    1.6688594    2.1144131      1.62792 
 7580000    1.0833447 3.9539214e-05   0.48410856  0.027867995            0   0.45624057    1.6114753    2.0955838     3.445189 
 7585000    1.1010476 0.0001551752   0.47335246  0.015405095            0   0.45794737    1.6378083    2.1111607    7.4078076 
 7590000    1.0677793 2.1112623e-05    0.5438284  0.010764217            0   0.53306419    1.5883216      2.13215    2.8527942 
 7595000    1.1425464 -2.8545721e-05   0.44747896  0.020192802            0   0.42728616    1.6995378    2.1470167    1.1726561 
 7600000    1.1374722 0.00020376877   0.46015181  0.011021876            0   0.44912993    1.6919899    2.1521417     9.107449 
 7605000    1.1789464 -2.1561242e-05   0.39256542 0.0095466117            0   0.38301881    1.7536827    2.1462481    1.4102911 
 7610000    1.1437519 -2.7784851e-05   0.43685444 0.0071931404            0    0.4296613     1.701331    2.1381854    1.1897958 
 7615000    1.1159724 5.204646e-05   0.48586689  0.004823515            0   0.48104338     1.660009    2.1458759     3.922395 
 7620000    1.0683412 0.00012770876   0.55187356 0.0045962595            0    0.5472773    1.5891575    2.1410311    6.5001568 
 7625000     1.127662 -6.1061079e-06   0.47609342  0.019728998            0   0.45636442    1.6773972    2.1534907    1.9450688 
 7630000    1.1012303 -0.00014328646   0.51320098  0.045815959            0   0.46738502    1.6380801    2.1512811   -2.7395635 
 7635000    1.1336793 -6.5300614e-06   0.47123333  0.023951129            0    0.4472822     1.686348    2.1575814    1.9346886 
 7640000    1.0824226 7.8081104e-05   0.54560577  0.009753998            0   0.53585177    1.6101036    2.1557094    4.8208778 
 7645000    1.1258311 0.00020273731   0.46839339  0.023049902            0   0.44534349    1.6746737    2.1430671    9.0631673 
 7650000    1.1102674 4.1595828e-05   0.50156293  0.030415219            0   0.47114772    1.6515228    2.1530857      3.57289 
 7655000    1.1159911 -0.00012069014   0.48484403  0.013875872            0   0.47096816    1.6600367    2.1448807    -1.974676 
 7660000    1.1381485 -0.00023068312   0.47313536  0.013195878            0   0.45993948    1.6929959    2.1661312   -5.7078526 
 7665000    1.0841307 -9.8977823e-05   0.53116316  0.032212201            0   0.49895096    1.6126444    2.1438076   -1.2346354 
 7670000    1.1216224 5.5929624e-05   0.49518212 0.0087407346            0   0.48644139    1.6684133    2.1635954    4.0726599 
 7675000    1.0918328 2.4640634e-05   0.55534285  0.012976039            0   0.54236681    1.6241013    2.1794442    3.0205111 
 7680000     1.186892 0.00010175715    0.4264189 0.0085266832            0   0.41789222    1.7655019    2.1919208    5.6652316 
 7685000    1.1056456 5.5284722e-05   0.52131947 0.0042480654            0   0.51707141    1.6446479    2.1659674    4.0530192 
 7690000    1.1615017 -1.4920601e-05   0.46301473  0.015539304            0   0.44747543    1.7277337    2.1907485    1.6814586 
 7695000    1.0701509 -6.2337983e-06   0.58657224  0.031022406            0   0.55554983    1.5918495    2.1784218    1.9656414 
 7700000    1.1494144 -7.3864395e-05   0.50447161  0.028899469            0   0.47557214    1.7097539    2.2142255   -0.3070125 
 7705000    1.1272293 -0.00017967441   0.54097007  0.026896913            0   0.51407316    1.6767535    2.2177236   -3.9151629 
 7710000    1.1345912 -0.00010159011   0.49651047 0.0092844625            0     0.487226    1.6877044    2.1842148   -1.2833943 
 7715000    1.0935298 -0.0001487397    0.5630021  0.014375821            0   0.54862628    1.6266256    2.1896277    -2.887354 
 7720000    1.0680247 -5.0557264e-05   0.56922986  0.047618148            0   0.52161171    1.5886867    2.1579166   0.43222865 
 7725000     1.135672 -6.1392438e-05   0.45385603  0.028375025            0   0.42548101    1.6893121    2.1431681  0.047639544 
 7730000    1.1088304 -6.6315975e-06     0.470865 0.0084857384            0   0.46237926    1.6493852    2.1202502    1.8938916 
 7735000    1.1131759 1.5276917e-05   0.48109709  0.012725646            0   0.46837145    1.6558492    2.1369463    2.6583984 
 7740000    1.0773534 -6.6895129e-05   0.54793969  0.036785956            0   0.51115374    1.6025632    2.1505029  -0.13285085 
 7745000    1.1085549 6.1938422e-05   0.50012579  0.023484008            0   0.47664178    1.6489754    2.1491012     4.263266 
 7750000    1.0945518 4.2647184e-05   0.52068583 0.0091253713            0   0.51156046    1.6281459    2.1488317    3.6045222 
 7755000    1.1001882 0.00017465174    0.4732116  0.013974034            0   0.45923756      1.63653    2.1097416    8.0711878 
 7760000    1.0692748 0.00022818628   0.51805202  0.055100189            0   0.46295183    1.5905463    2.1085983    9.8973567 
 7765000    1.0635828 -5.3484188e-05   0.52673041  0.029317941            0   0.49741247    1.5820795    2.1088099   0.28321627 
 7770000    1.0425219 -0.00011695402   0.53520755  0.033413821            0   0.50179373    1.5507513    2.0859589   -1.9060718 
 7775000     1.015948 7.4599832e-05   0.58386225  0.032185605            0   0.55167665    1.5112227     2.095085    4.6414259 
 7780000    1.0318807 0.00014695781   0.59097612  0.041707901            0   0.54926822    1.5349226    2.1258987    7.1420586 
 7785000    1.0275088 0.0001342255   0.59881198  0.063459428            0   0.53535255    1.5284194    2.1272314    6.7087952 
 7790000    1.1409509 -1.9299216e-05   0.44720266  0.015410472            0   0.43179219    1.6971644    2.1443671    1.4856205 
 7795000    1.1216347 -6.7559489e-05   0.46828631  0.050702557            0   0.41758376    1.6684316    2.1367179  -0.16931263 
 7800000    1.1326659 -4.5321621e-05   0.42637406  0.023882038            0   0.40249202    1.6848406    2.1112147   0.56423665 
 7805000    1.0322837 -9.6396249e-05    0.5700834  0.022150827            0   0.54793258     1.535522    2.1056054   -1.1847199 
 7810000    1.0619456 1.1381399e-05   0.54629621  0.035872279            0   0.51042393    1.5796441    2.1259404    2.5144255 
 7815000    1.1156569 -0.00019872725   0.45344395  0.039291567            0   0.41415239    1.6595396    2.1129836     -4.67024 
 7820000    1.0628081 -6.7249518e-05   0.55046682  0.014889634            0   0.53557719    1.5809271    2.1313939   -0.1640563 
 7825000    1.0231681 6.3573458e-05   0.57587626  0.036238697            0   0.53963757    1.5219625    2.0978387    4.2678128 
 7830000    1.1065913 2.340203e-05   0.42688717  0.037149636            0   0.38973754    1.6460546    2.0729417     2.871731 
 7835000     1.019664 0.00018025639    0.5244832  0.016147302            0    0.5083359    1.5167501    2.0412333    8.1939847 
 7840000    1.0008048 0.00012995748   0.53641905  0.022636926            0   0.51378213    1.4886972    2.0251162    6.4609981 
 7845000    1.0515703 -0.00010200592   0.45622013 0.0085982543            0   0.44762188    1.5642109     2.020431   -1.4613709 
 7850000    1.0293481 -4.4449228e-05   0.45991465  0.010450873            0   0.44946377    1.5311553    1.9910699   0.47386961 
 7855000    1.0525223 0.00011120683    0.4441609  0.022693976            0   0.42146692    1.5656269    2.0097878    5.8056476 
 7860000   0.99039431 8.8706537e-05   0.53500742  0.022784625            0   0.51222279    1.4732115     2.008219    5.0360687 
 7865000    1.0970857 9.0633587e-05   0.39587383 0.0096541593            0   0.38621967     1.631915    2.0277889    5.1214153 
 7870000    1.0765745 -4.6042682e-05   0.42637426 0.0024568651            0   0.42391739    1.6014046    2.0277788   0.45618859 
 7875000    1.0984264 6.8888242e-05   0.38904723 0.0032166577            0   0.38583057    1.6339092    2.0229565    4.3743418 
 7880000    1.0403864 2.5977938e-05   0.46869964   0.01470482            0   0.45399482    1.5475747    2.0162743     2.902988 
 7885000    1.0113933 -0.00022951182   0.50446486  0.029224932            0   0.47523993    1.5044476    2.0089124   -5.8250911 
 7890000    1.0376914 -0.0001124782   0.47880388   0.02384393            0   0.45495995    1.5435659    2.0223698    -1.816886 
 7895000    1.0652736 0.00012226161    0.4220051  0.017786345            0   0.40421876    1.5845945    2.0065996    6.1797959 
 7900000    1.0126514 5.9130459e-05   0.47707441  0.029744266            0   0.44733014    1.5063189    1.9833933     4.001713 
 7905000    1.0242521 -4.9766617e-05   0.47375766  0.022638783            0   0.45111887     1.523575    1.9973327   0.29863217 
 7910000     1.047132 -5.8605707e-05   0.45720102  0.030324703            0   0.42687632    1.5576089    2.0148099  0.014401763 
 7915000    1.0367054 1.5542048e-05    0.4738919  0.053216698            0    0.4206752    1.5420993    2.0159912    2.5464932 
 7920000    1.0053919 -6.9577973e-05   0.50663158  0.032301462            0   0.47433011    1.4955204     2.002152  -0.37277618 
 7925000    1.0927216 1.3167507e-05   0.38507158  0.015212337            0   0.36985924    1.6254233    2.0104949    2.4599458 
 7930000     1.035805 8.4656872e-05   0.49931222  0.004391431            0   0.49492079      1.54076    2.0400722    4.9296934 
 7935000    1.0581194 -0.00010218369    0.4636421  0.010129529            0   0.45351257    1.5739525    2.0375946   -1.4502754 
 7940000    1.0665192 8.4216319e-05   0.47485581  0.016006012            0    0.4588498    1.5864473    2.0613031    4.9358868 
 7945000    1.0747766 8.8040313e-05   0.45168139 0.0058180497            0   0.44586334    1.5987302    2.0504116    5.0555209 
 7950000    1.0799613 -0.00010889529   0.41575535 0.0020780486            0    0.4136773    1.6064424    2.0221978   -1.6947616 
 7955000    1.0432599 -7.407028e-05   0.47195272 0.0062898346            0   0.46566289    1.5518491    2.0238018  -0.50446374 
 7960000    1.0368471 -2.456353e-05   0.48276648  0.018889893            0   0.46387659    1.5423101    2.0250765    1.1866414 
 7965000   0.99383714 -9.2221093e-05   0.53274593 0.0056043344            0    0.5271416    1.4783327    2.0110787   -1.1367346 
 7970000     1.025152 -3.0850788e-06   0.47147409 2.2166916e-05            0   0.47145192    1.5249136    1.9963877    1.8910836 
 7975000    1.0354182 4.1616024e-05   0.46226249            0            0   0.46226249    1.5401846    2.0024471    3.4229407 
 7980000    1.0728178 1.4986817e-05    0.4239743            0            0    0.4239743    1.5958164    2.0197907    2.5313407 
 7985000    1.0736925 -0.00011496808   0.44380143 0.00014576349            0   0.44365567    1.5971176     2.040919   -1.8833249 
 7990000    1.0392864  1.49291e-05    0.4916346 0.0016467498            0   0.48998785    1.5459385    2.0375731     2.547153 
 7995000    1.0340527 6.4858986e-05   0.50521417    0.0112937            0   0.49392047    1.5381534    2.0433676     4.257221 
 8000000    1.0468934 -9.7977353e-05   0.48631242  0.026526701            0   0.45978572    1.5572539    2.0435663   -1.3007273 
 8005000   0.97512684 4.5130767e-05   0.56158397  0.032554774            0    0.5290292    1.4505012    2.0120852    3.5525487 
 8010000    1.0257737 -0.00011704438   0.49344359  0.030523738            0   0.46291985    1.5258384     2.019282   -1.9758328 
 8015000    1.0358528 5.7331725e-05   0.48842102 0.0067378806            0   0.48168314     1.540831     2.029252    3.9861749 
 8020000    1.0272358 -3.1510656e-05   0.48710843 0.0010715875            0   0.48603685    1.5280133    2.0151217   0.93955803 
 8025000    1.0718935 -0.00012078451   0.43568276 0.0082216737            0   0.42746108    1.5944416    2.0301244   -2.0926536 
 8030000    1.0229042 -6.316187e-05   0.50557455   0.01832896            0   0.48724559      1.52157    2.0271445  -0.12878063 
 8035000    1.0269371 -6.839123e-05   0.50331865 0.0048510624            0   0.49846759    1.5275689    2.0308875  -0.30353312 
 8040000    1.0382015 -5.7602998e-05   0.48948173  0.020021438            0   0.46946029    1.5443248    2.0338065  0.067624154 
 8045000    1.0462731 -3.9910041e-05    0.4725252   0.02358448            0   0.44894072    1.5563313    2.0288565   0.66659371 
 8050000    1.0127934 8.7385391e-05   0.51688314  0.052848301            0   0.46403484    1.5065302    2.0234134    5.0061681 
 8055000    1.0173891 -8.4476187e-05   0.47284587  0.019847399            0   0.45299847    1.5133662    1.9862121  -0.89724175 
 8060000   0.95158826 -0.00015211042    0.5514459 0.0050125846            0   0.54643331    1.4154875    1.9669334   -3.2251021 
 8065000   0.93451328 -8.0553572e-05   0.57078233  0.020730941            0   0.55005139    1.3900885    1.9608708   -0.7886911 
 8070000   0.99793227 -5.1120112e-05   0.50113914   0.03009722            0   0.47104192    1.4844242    1.9855634   0.24066356 
 8075000   0.94009346 0.00013430101   0.59412697  0.016160375            0   0.57796659     1.398389     1.992516     6.576657 
 8080000    1.0138684 2.6254442e-05   0.48613864  0.012152145            0   0.47398649    1.5081292    1.9942678    2.8904195 
 8085000   0.97518334 -0.00020582056   0.53488547  0.013177709            0   0.52170776    1.4505852    1.9854707   -5.0398711 
 8090000    1.0240112 -0.00011657457   0.45172724  0.011857021            0   0.43987022    1.5232167    1.9749439   -2.0041347 
 8095000   0.99886552 -5.7368639e-05    0.5111901  0.016561247            0   0.49462885    1.4858125    1.9970026  0.038819695 
 8100000    1.0160678 -5.9149404e-06   0.47986472 0.0075896999            0   0.47227502    1.5114009    1.9912656     1.789369 
 8105000    1.0061943 7.4299297e-05   0.51192878  0.006820567            0   0.50510821     1.496714    2.0086428    4.5447255 
 8110000   0.99448128 8.8613943e-05   0.52701466  0.013739364            0    0.5132753    1.4792909    2.0063056    5.0309948 
 8115000     1.066555 2.5622683e-05   0.42488464 0.0048631027            0   0.42002154    1.5865005    2.0113851    2.8859727 
 8120000    1.0107053 -5.9471338e-05    0.5127241 0.0060737752            0   0.50665032    1.5034242    2.0161483  -0.01380675 
 8125000   0.97570582 -2.911344e-05   0.55998994 0.0054336408            0    0.5545563    1.4513624    2.0113524    1.0176136 
 8130000    1.0534862 7.562458e-05   0.45881971 0.0094132486            0   0.44940646    1.5670607    2.0258804    4.6071994 
 8135000    1.0018352 -6.4520182e-05   0.51902987  0.020794085            0   0.49823578    1.4902298    2.0092597  -0.19302916 
 8140000   0.96572353 -4.4955994e-05   0.57015263 0.0046168694            0   0.56553576    1.4365137    2.0066664   0.47216846 
 8145000    1.0010398 0.00016864049   0.51678187  0.012190264            0    0.5045916    1.4890468    2.0058286    7.7620906 
 8150000    1.0090755 0.00013398705   0.50316743  0.015480651            0   0.48768678    1.5009999    2.0041673    6.5775918 
 8155000    1.0019831 -6.5750462e-05   0.52874229 0.0061293954            0   0.52261289    1.4904499    2.0191922  -0.22509028 
 8160000    1.0386199 -9.9671968e-05   0.48851615  0.018112422            0   0.47040373     1.544947    2.0334632   -1.3686733 
 8165000    1.0578501 -9.1587026e-05   0.45493835  0.025771603            0   0.42916674    1.5735521    2.0284904   -1.0976801 
 8170000    0.9630083 2.2096376e-05   0.61121981  0.029130887            0   0.58208893    1.4324749    2.0436947    2.7979176 
 8175000   0.96943872 0.00017231004   0.61823194  0.031647873            0   0.58658407    1.4420401     2.060272     7.941788 
 8180000    1.0567267 5.4839941e-05   0.48631617  0.032427684            0   0.45388849    1.5718809    2.0581971    3.9300671 
 8185000   0.98841199 1.9303357e-05   0.54614395    0.0423004            0   0.50384355    1.4702628    2.0164068    2.6752947 
 8190000    1.0120642 1.4449029e-05   0.54114616  0.019556247            0   0.52158991    1.5054455    2.0465916    2.5397852 
 8195000    1.0087273 -7.9372894e-05   0.53395163  0.056308169            0   0.47764346    1.5004819    2.0344335   -0.6748279 
 8200000   0.99001496 -9.8919899e-05   0.56749091  0.052146733            0   0.51534418    1.4726473    2.0401382   -1.3363277 
 8205000    1.0066323 -1.0452992e-05   0.55771324   0.04644772            0   0.51126552    1.4973656    2.0550788    1.6982834 
 8210000    1.0293269 0.0001360451   0.53589471  0.020778568            0   0.51511614    1.5311238    2.0670185    6.7106913 
 8215000   0.97447561 -3.4235913e-05    0.6327287  0.037683383            0   0.59504532    1.4495325    2.0822612   0.91367532 
 8220000     1.030083 -0.00010092512   0.56583066  0.031296285            0   0.53453438    1.5322485    2.0980791   -1.3468318 
 8225000    1.0812207 2.8655288e-05   0.49834747 0.0017732473            0   0.49657422    1.6083158    2.1066633    3.0847638 
 8230000    1.0826477 4.289364e-05   0.49488114  0.010043629            0   0.48483751    1.6104385    2.1053196    3.5694225 
 8235000   0.95863565 0.00022312877   0.67956879 0.0084114282            0   0.67115737    1.4259705    2.1055393    9.7216681 
 8240000    1.0561751 0.00013108559   0.53436341 0.0080864339            0   0.52627698    1.5710604    2.1054239     6.579812 
 8245000    1.1344268 5.2244823e-05   0.40675207 0.0019293743            0   0.40482269    1.6874599     2.094212    3.8775019 
 8250000    1.0697706 -7.3961137e-06   0.50422616 0.0041240847            0   0.50010208    1.5912837    2.0955099    1.8430559 
 8255000    1.0154923 -4.4750333e-07   0.56851504  0.028373053            0   0.54014198    1.5105447    2.0790598     2.063785 
 8260000    1.0451268 -8.5077634e-05   0.50416179  0.021977589            0   0.48218421    1.5546261    2.0587879  -0.84519535 
 8265000    1.0036961 -0.00012492678   0.56242468 0.0051246681            0   0.55730002    1.4929979    2.0554226    -2.208745 
 8270000    1.0630061 4.1906165e-05   0.44982714  0.006118679            0   0.44370846    1.5812215    2.0310487    3.4614458 
 8275000    1.0333147 1.5289141e-05   0.47383438  0.013700527            0   0.46013386    1.5370556      2.01089    2.5327594 
 8280000     1.034939 6.4881268e-05   0.45570472 0.0037091178            0   0.45199561    1.5394718    1.9951765    4.2097905 
 8285000   0.98024137 3.3079341e-05   0.53833156 0.0050289147            0   0.53330265     1.458109    1.9964406    3.1255488 
 8290000    1.0044553 8.4148846e-05   0.50358304  0.010596412            0   0.49298662    1.4941272    1.9977102    4.8699908 
 8295000    1.0419613 0.00010534633    0.4576263  0.027217494            0   0.43040881    1.5499174    2.0075437    5.6033652 
 8300000   0.96529366 -5.5607176e-05   0.55657234  0.041201413            0   0.51537093    1.4358743    1.9924467  0.094388409 
 8305000   0.94156947 9.1425101e-05   0.60436517  0.055809248            0   0.54855593    1.4005846    2.0049498    5.1255932 
 8310000   0.96913033 4.6027386e-05    0.5508646  0.068198317            0   0.48266629    1.4415814     1.992446    3.5635141 
 8315000   0.98860619 -1.4154651e-05   0.52157037  0.036390269            0    0.4851801    1.4705517    1.9921221    1.5089767 
 8320000   0.97951455 1.359494e-05   0.53174753 0.0073032983            0   0.52444424    1.4570279    1.9887754     2.452816 
 8325000    1.0302175 0.00012389843   0.48505708  0.010220023            0   0.47483706    1.5324485    2.0175056    6.2465719 
 8330000    1.0070421 0.00017054865    0.5363792  0.010954308            0   0.52542489    1.4979752    2.0343544    7.8557481 
 8335000    1.0406677 7.3205829e-06   0.49774232  0.012934523            0    0.4848078    1.5479932    2.0457356    2.2956115 
 8340000    0.9956489 9.5827668e-05   0.54048445  0.011547554            0    0.5289369    1.4810277    2.0215122    5.2924299 
 8345000    1.0167942 9.8270385e-05    0.5070182  0.023325626            0   0.48369258    1.5124814    2.0194996    5.3737954 
 8350000    1.0667341 -1.0698517e-05   0.46553649  0.011537066            0   0.45399943     1.586767    2.0523035    1.6871274 
 8355000    1.0354342 -6.383278e-05   0.51959547  0.014288805            0   0.50530667    1.5402084    2.0598039  -0.11902168 
 8360000    1.0364263 -1.9681863e-05   0.53808049  0.018150535            0   0.51992995    1.5416842    2.0797646     1.407957 
 8365000   0.96578049 6.2226057e-06   0.62611501 0.0083191465            0   0.61779586    1.4365985    2.0627135    2.2751118 
 8370000    1.0594338 -4.8516965e-05    0.4577446 0.0046970692            0   0.45304753    1.5759078    2.0336524   0.37760664 
 8375000    1.0334168 7.9798115e-05   0.49441703  0.015390108            0   0.47902692    1.5372075    2.0316245    4.7554001 
 8380000   0.93565556 7.5082494e-05   0.64232332  0.060556149            0   0.58176717    1.3917876     2.034111    4.5969267 
 8385000    1.0468629 0.00017070846   0.46236923  0.010760686            0   0.45160855    1.5572085    2.0195778    7.8464267 
 8390000    1.0186753 -4.2350684e-05    0.5191267 0.0043382474            0   0.51478845    1.5152795    2.0344062    0.5888362 
 8395000    1.0006818 -4.7898484e-05   0.54312854  0.016426915            0   0.52670163    1.4885141    2.0316427   0.39670773 
 8400000    1.0002708 -9.7297502e-06   0.54128578  0.016817271            0   0.52446851    1.4879028    2.0291886    1.6970798 
 8405000   0.97818085 -0.00015777933   0.58800617  0.010659578            0   0.57734659     1.455044    2.0430502   -3.3424843 
 8410000    1.0066641 -0.00010269501   0.55032981  0.026647388            0   0.52368242    1.4974128    2.0477427   -1.4575804 
 8415000    1.0457959 -1.1255833e-05   0.50432808  0.024485219            0   0.47984286    1.5556213    2.0599494    1.6757503 
 8420000    1.0404097 5.9531858e-05   0.53034395  0.015666306            0   0.51467765    1.5476094    2.0779534    4.1099741 
 8425000    1.0256952 2.4422804e-05   0.55329932 0.0083533821            0   0.54494594    1.5257216    2.0790209    2.9126526 
 8430000    1.0495237 -2.6891374e-05   0.52904428  0.009551516            0   0.51949276    1.5611665    2.0902108    1.1723186 
 8435000    1.0609153 2.8331135e-05   0.49013765   0.00849936            0   0.48163829    1.5781115    2.0682491    3.0352852 
 8440000    1.0423721 8.8494681e-05   0.49203804 0.0086304236            0   0.48340761    1.5505285    2.0425665    5.0631849 
 8445000   0.91969596 -3.5029386e-05   0.68175567  0.049341795            0   0.63241387    1.3680477    2.0498034   0.85413369 
 8450000   0.99298497 8.6986743e-05   0.56559652  0.016580428            0   0.54901609    1.4770651    2.0426617    5.0118092 
 8455000   0.99504844 2.0816008e-06   0.58806399  0.035032627            0   0.55303136    1.4801346    2.0681985    2.1392505 
 8460000     1.008605 -0.00014397254   0.56158597  0.029858428            0   0.53172754       1.5003     2.061886   -2.8523769 
 8465000    1.0622603 -6.2539983e-05   0.47078587 0.0073701791            0   0.46341569    1.5801122    2.0508981  -0.08379996 
 8470000    1.0543296 0.00014111377   0.49352303  0.001917209            0   0.49160582    1.5683152    2.0618383    6.8785215 
 8475000    1.1075903 -7.1101499e-06   0.39776706 0.0055659048            0   0.39220116    1.6475405    2.0453076    1.8026144 
 8480000    1.0056313 -0.0001652765   0.53442949  0.010950795            0   0.52347869    1.4958765     2.030306   -3.6111319 
 8485000    1.0351238 2.2797029e-05   0.50423193  0.011059844            0   0.49317208    1.5397466    2.0439786    2.8221171 
 8490000    1.0304384 4.3738162e-06   0.52368253 0.0072923291            0    0.5163902    1.5327771    2.0564596    2.2057525 
 8495000    1.0709507 1.2377149e-05   0.47132409 0.0017051949            0   0.46961889    1.5930392    2.0643633    2.4868366 
 8500000    1.0016172 4.392108e-05   0.60760734 0.0061385346            0    0.6014688    1.4899056    2.0975129    3.5966858 
 8505000    1.0476147 2.0949367e-06   0.51981628  0.030128292            0   0.48968799    1.5583269    2.0781432    2.1496504 
 8510000    1.0709561 -2.4958966e-05    0.5127982  0.020333447            0   0.49246475    1.5930472    2.1058454    1.2539127 
 8515000    1.0516566 -6.1200382e-05   0.55505297 0.0063672787            0   0.54868569    1.5643391    2.1193921  0.030419052 
 8520000    1.0952508 -3.072209e-05   0.51508779  0.009070552            0   0.50601724    1.6291856    2.1442734    1.0956261 
 8525000    1.0325799 -1.6037071e-05   0.60672503 0.0041006841            0   0.60262435    1.5359626    2.1426876    1.5952889 
 8530000    1.1032958 3.0588461e-05   0.53188554  0.013097489            0   0.51878805    1.6411525    2.1730381    3.2171242 
 8535000    1.0743643 0.0001804539   0.58841154   0.02939761            0   0.55901393     1.598117    2.1865285    8.3460215 
 8540000    1.0524291 4.6573092e-05   0.61302296  0.022923591            0   0.59009937    1.5654882    2.1785112    3.7682061 
 8545000    1.0586525 -5.1463294e-05   0.63226897  0.044289626            0   0.58797935    1.5747457    2.2070146   0.45040084 
 8550000    1.1112919 9.9189968e-05   0.54629576  0.022770757            0   0.52352501    1.6530466    2.1993424    5.5850266 
 8555000    1.0803011 0.00010732485   0.59613477  0.025102427            0   0.57103234    1.6069478    2.2030826    5.8664376 
 8560000    1.1241068 3.3063027e-05   0.53212683  0.029134609            0   0.50299222    1.6721089    2.2042358    3.3327871 
 8565000    1.0775186 -1.1090299e-05   0.61288216  0.033351165            0   0.57953099     1.602809    2.2156911    1.8371422 
 8570000    1.0804125 8.8567645e-05   0.59819889   0.06262125            0   0.53557764    1.6071136    2.2053125    5.2284214 
 8575000     1.131418 0.00015242934   0.52184193   0.03939677            0   0.48244516    1.6829843    2.2048263    7.4077477 
 8580000    1.1662939 0.00018319572   0.47334373 0.0083082069            0   0.46503552    1.7348622    2.2082059    8.4612866 
 8585000    1.0499602 5.5771732e-05   0.63700807  0.021779159            0   0.61522891    1.5618158    2.1988239     4.102499 
 8590000    1.0836842 -0.00016108659   0.60288277  0.026019055            0   0.57686372    1.6119802     2.214863   -3.2835592 
 8595000    1.2085807 -6.3598107e-05   0.41045939  0.019507561            0   0.39095182    1.7977638    2.2082232  0.037407852 
 8600000    1.1192808 0.00011924036   0.51279134  0.017451993            0   0.49533934    1.6649303    2.1777216    6.2477924 
 8605000    1.0325977 -2.953116e-05   0.62205661   0.01944337            0   0.60261324    1.5359891    2.1580457    1.1500488 
 8610000    1.0767625 -3.1197093e-05   0.56431117  0.022140469            0    0.5421707    1.6016842    2.1659953    1.1011346 
 8615000    1.1364476 3.5346741e-05    0.5155707  0.038797109            0   0.47677359    1.6904658    2.2060365    3.4125386 
 8620000    1.1099704 -0.00011304994   0.53324738  0.056413714            0   0.47683367     1.651081    2.1843284   -1.6744429 
 8625000     1.081883 3.6146831e-05   0.57575971  0.010892778            0   0.56486693    1.6093009    2.1850606    3.4188725 
 8630000     1.104892 0.00019898268   0.53268072 0.0067181197            0    0.5259626    1.6435268    2.1762075    8.9681498 
 8635000    1.0850574 -6.7386981e-05   0.54444356  0.013851138            0   0.53059242    1.6140228    2.1584664   -0.1416759 
 8640000    1.0775498 -4.9373063e-05   0.57734535  0.012773426            0   0.56457192    1.6028554    2.1802007   0.49493349 
 8645000    1.0600968 8.3301837e-05    0.5754617  0.011895918            0   0.56356578     1.576894    2.1523557     4.995725 
 8650000    1.1406349 -6.026455e-05   0.47805312 0.0054723719            0   0.47258074    1.6966944    2.1747475   0.11771754 
 8655000    1.1774027 -8.202047e-05   0.42883934 0.0057532187            0   0.42308612    1.7513865    2.1802258  -0.61940623 
 8660000    1.1008875 0.00012158778   0.56116917 0.0057150016            0   0.55545417    1.6375701    2.1987393    6.3489356 
 8665000    1.1698916 2.396881e-05   0.46335346 0.0064058028            0   0.45694766    1.7402138    2.2035672    3.0217026 
 8670000    1.1064664 -0.00016143304   0.55006636  0.041330439            0   0.50873592    1.6458688    2.1959351   -3.3143126 
 8675000    1.0393035 -3.4009958e-05   0.64853363 0.0083329728            0   0.64020065    1.5459639    2.1944975    1.0336243 
 8680000     1.167989 9.7889741e-05    0.4543712 0.0017823552            0   0.45258884    1.7373836    2.1917548    5.5330579 
 8685000    1.1441334 3.7920684e-05   0.50012402  0.015597653            0   0.48452637    1.7018984    2.2020224    3.4963818 
 8690000    1.1288543 -7.9540737e-05   0.53382019 0.0070382764            0   0.52678191    1.6791707    2.2129909   -0.5019996 
 8695000    1.1362024 -0.00021793065   0.48266875 0.0070218091            0   0.47564694    1.6901011    2.1727698   -5.2659296 
 8700000    1.0736719 4.7812116e-07    0.5495519  0.022755689            0   0.52679621     1.597087    2.1466389    2.1629588 
 8705000    1.0993156 1.2075258e-06   0.50327928  0.021604132            0   0.48167515    1.6352319    2.1385112    2.1797281 
 8710000     1.087135 0.0001306228   0.52744331  0.011238669            0   0.51620464    1.6171133    2.1445566    6.6031482 
 8715000    1.1375526 0.00012590979   0.42979263  0.017633563            0   0.41215907    1.6921095    2.1219021    6.4196231 
 8720000     1.079289 -9.859901e-05   0.51351748  0.019830696            0   0.49368678    1.6054423    2.1189598   -1.2465531 
 8725000    1.0873816 4.4947857e-05   0.53033332 0.0088997043            0   0.52143361    1.6174801    2.1478134    3.6820336 
 8730000    1.1424055 0.00011270695   0.44208298  0.012559771            0   0.42952321    1.6993282    2.1414111     5.988475 
 8735000    1.0507408 -0.00019906275   0.57135631  0.017965642            0   0.55339066     1.562977    2.1343333    -4.660342 
 8740000    1.0852406 -0.00013687617   0.51008174  0.012189287            0   0.49789245    1.6142954    2.1243771   -2.5476628 
 8745000    1.0616269 -2.4458203e-05   0.54832351  0.018783297            0   0.52954021      1.57917    2.1274935    1.2926535 
 8750000     1.050336 -2.4412808e-05   0.57057442  0.041727584            0   0.52884683    1.5623747    2.1329492    1.2996586 
 8755000    1.1084513 5.5745555e-05   0.49251659  0.013065583            0   0.47945101    1.6488213    2.1413379    4.0441195 
 8760000    1.1315148 9.6607355e-06   0.46160492 0.0023214693            0   0.45928345    1.6831283    2.1447332    2.4744863 
 8765000    1.0660047 0.00012354144   0.55469338 0.0018635279            0   0.55282985    1.5856819    2.1403753    6.3572564 
 8770000    1.1204883 0.00010316197    0.4456602 0.0048743598            0   0.44078584    1.6667263    2.1123865    5.6336484 
 8775000    1.0629746 0.00012515056   0.50978568  0.021349726            0   0.48843596    1.5811748    2.0909605    6.3627661 
 8780000    1.0439742 -6.931887e-05   0.54887106  0.015156836            0   0.53371422    1.5529116    2.1017827  -0.26430143 
 8785000    1.0302531 -4.7058167e-05   0.56641999  0.042929961            0   0.52349003    1.5325015    2.0989215   0.49266938 
 8790000    1.0900757 -1.5794127e-05    0.4853932  0.022193086            0   0.46320011    1.6214877    2.1068809    1.5677747 
 8795000     1.126488 1.0881269e-05   0.44128142  0.036574678            0   0.40470674    1.6756509    2.1169323    2.4883463 
 8800000    1.0427326 1.9217713e-05   0.57125226  0.019390177            0   0.55186208    1.5510648    2.1223171    2.7782817 
 8805000    1.0486993 4.511449e-05    0.5600099  0.024289208            0   0.53572069    1.5599403    2.1199502    3.6598581 
 8810000    1.1423168 7.3070846e-05    0.4393765  0.026600374            0   0.41277613    1.6991963    2.1385728    4.6327244 
 8815000    1.0525046 -0.00012164887   0.56208472 0.0045394001            0   0.55754532    1.5656005    2.1276852   -2.0245961 
 8820000    1.1151871 0.00010550101   0.49944136 0.0011776968            0   0.49826366    1.6588408    2.1582821    5.7593834 
 8825000    1.1624402 2.959216e-05   0.42613927 0.0018267623            0   0.42431251    1.7291299    2.1552691    3.1653482 
 8830000    1.1006424 -8.0803426e-05   0.50470488  0.018297945            0   0.48640694    1.6372056    2.1419105  -0.61617981 
 8835000    1.1106475 1.8920394e-05   0.46385453  0.029610966            0   0.43424356    1.6520881    2.1159426    2.7617587 
 8840000    1.0959207 -3.0558534e-05   0.47682945  0.018804865            0   0.45802458     1.630182    2.1070115    1.0639468 
 8845000   0.94731883 8.684687e-05   0.68190067  0.018764432            0   0.66313624    1.4091368    2.0910374    5.0554106 
 8850000    1.0833132 1.3523156e-05    0.4695538  0.013234454            0   0.45631935    1.6114283    2.0809821    2.5425725 
 8855000    1.0724916 3.2751637e-05   0.48650215   0.01210718            0   0.47439497    1.5953313    2.0818334     3.199756 
 8860000    1.0440841 4.5898871e-05   0.53913273  0.020560806            0   0.51857192    1.5530751    2.0922078    3.6588893 
 8865000    1.0510008 8.5665452e-05   0.51832474  0.024346361            0   0.49397838    1.5633637    2.0816884    5.0057358 
 8870000     1.012264 -7.2676444e-05   0.57125007  0.022747572            0    0.5485025    1.5057427    2.0769928  -0.40369649 
 8875000     1.100985 -4.9052483e-05   0.44240695  0.017919949            0     0.424487    1.6377151    2.0801221   0.40579731 
 8880000    1.0163938 9.5111745e-05   0.55743174  0.044957634            0    0.5124741    1.5118857    2.0693175    5.3157984 
 8885000    1.0385086 -9.1966924e-05   0.52531418  0.012356462            0   0.51295772    1.5447815    2.0700957   -1.0690419 
 8890000    1.0218674 5.9508882e-05     0.555272 0.0059922137            0   0.54927978    1.5200278    2.0752998    4.1065363 
 8895000    1.1009188 6.2251645e-05   0.44330381  0.010220104            0   0.43308371    1.6376167    2.0809205    4.2057767 
 8900000    1.0388522 -0.0001645427   0.53567809   0.03338671            0   0.50229138    1.5452926    2.0809707   -3.5354201 
 8905000    1.0432655 -0.00021107044   0.53570827  0.038789926            0   0.49691834    1.5518575    2.0875658   -5.1169721 
 8910000   0.99619032 -0.00011319387   0.61137434  0.042560898            0   0.56881345    1.4818331    2.0932074   -1.7704766 
 8915000    1.0806971 -0.00011293347   0.47591804   0.01790043            0   0.45801761    1.6075369     2.083455   -1.7713409 
 8920000    1.0894537 2.6274378e-05   0.46110734 0.0078708384            0    0.4532365    1.6205624    2.0816698    2.9785019 
 8925000    1.0784108 -6.7066694e-05   0.47432056 0.0016685486            0   0.47265202     1.604136    2.0784566  -0.21075321 
 8930000    1.0346724 -0.00017705423   0.52350197   0.00658043            0   0.51692154    1.5390751    2.0625771   -3.9808739 
 8935000    1.0503085 1.0912747e-05   0.49303849 0.0069320123            0   0.48610648    1.5623339    2.0553724    2.4278609 
 8940000    1.0074473 2.4280875e-05   0.57598958  0.010048067            0   0.56594151    1.4985779    2.0745675    2.9033547 
 8945000    1.0198971 6.8376483e-05   0.54499364  0.030084079            0   0.51490956     1.517097    2.0620906    4.3960079 
 8950000    1.0025816 -4.1488042e-06   0.55053738   0.01230799            0   0.53822939    1.4913402    2.0418776    1.9002651 
 8955000    1.0650966 -7.2251891e-05   0.47350838 0.0077937366            0   0.46571464    1.5843313    2.0578396  -0.40835824 
 8960000    1.0373939 -5.0523136e-06   0.52906944  0.027553876            0   0.50151557    1.5431234    2.0721928    1.8997405 
 8965000    1.0569607 8.1940512e-06   0.47938697 0.0054600943            0   0.47392688     1.572229     2.051616    2.3313063 
 8970000    1.1115427 1.0730781e-05   0.41941181 0.0076584054            0   0.41175341    1.6534197    2.0728316    2.4391089 
 8975000    1.0273582 -8.9497192e-05   0.54112661  0.011795791            0   0.52933082    1.5281953    2.0693219  -0.98551558 
 8980000    1.0699452 7.0928197e-05   0.48716175 0.0033968939            0   0.48376486    1.5915435    2.0787053     4.499721 
 8985000    1.0310131 4.6959305e-05   0.52955751 0.0037159533            0   0.52584156     1.533632    2.0631895    3.6660671 
 8990000   0.96614892 -0.00015794866   0.62967361  0.011768603            0   0.61790501    1.4371465    2.0668201    -3.324494 
 8995000    1.0649249 3.2570162e-07   0.47850899  0.021436703            0   0.45707229    1.5840758    2.0625848     2.073702 
 9000000    1.0423027 3.7903171e-05   0.52024841  0.016482594            0   0.50376582    1.5504252    2.0706736    3.3644352 
 9005000    1.0372226 9.9230018e-05   0.52046495  0.024822201            0   0.49564275    1.5428686    2.0633335    5.4503848 
 9010000     1.049405 -4.5550299e-05   0.50344463  0.030687205            0   0.47275743    1.5609899    2.0644346   0.50965104 
 9015000     1.039557 -6.1801858e-05   0.51477193  0.024206813            0   0.49056511     1.546341    2.0611129 -0.048390536 
 9020000    1.0338095 -6.9865878e-05   0.49708357  0.018372758            0   0.47871081    1.5377917    2.0348752  -0.34988007 
 9025000    1.0193522 -0.00012314736     0.514925  0.004184189            0   0.51074081    1.5162864    2.0312114   -2.1722186 
 9030000    1.0006256 -8.0103547e-05   0.54977586 0.0078759195            0   0.54189994    1.4884305    2.0382064   -0.6959947 
 9035000    1.0277801 5.0142046e-06   0.49593223  0.029904868            0   0.46602736     1.528823    2.0247552    2.1959067 
 9040000   0.97657668 0.0001176976   0.56914013   0.02736065            0   0.54177948    1.4526578    2.0217979    6.0392093 
 9045000    1.0192287 6.3700668e-05   0.51413113   0.01087605            0   0.50325508    1.5161027    2.0302338      4.20455 
 9050000    1.0127205 0.00010603434   0.50107322 0.0093434989            0   0.49172972    1.5064218     2.007495    5.6268005 
 9055000   0.99974134 7.6619238e-05   0.51916242  0.012805907            0   0.50635651    1.4871152    2.0062777    4.6215476 
 9060000    1.0089352 -9.5531385e-05   0.50808971  0.030811149            0   0.47727856    1.5007911    2.0088808   -1.2519238 
 9065000   0.95046492 -0.00015985679   0.57919091  0.042324722            0   0.53686619    1.4138166    1.9930075   -3.4634377 
 9070000   0.98810505 -7.7897325e-05   0.53855732  0.017805742            0   0.52075158    1.4698063    2.0083636  -0.65053177 
 9075000   0.97591018 2.7109164e-05    0.5592899  0.046331045            0   0.51295886    1.4516664    2.0109563    2.9362824 
 9080000    1.0165378 0.0001188802   0.50761189  0.048341927            0   0.45926996       1.5121    2.0197119    6.0774894 
 9085000    1.0231072 0.00013022653   0.50514628  0.035208682            0   0.46993759     1.521872    2.0270183    6.4720839 
 9090000    0.9698659 0.00013154516   0.57905595  0.022043983            0   0.55701197    1.4426755    2.0217315    6.5118063 
 9095000   0.96422232 3.1708347e-05   0.60589511  0.027632695            0   0.57826242    1.4342807    2.0401758    3.1224874 
 9100000    1.0496216 -4.4233535e-05   0.48090432  0.031162403            0   0.44974192    1.5613122    2.0422165   0.53237853 
 9105000   0.97909536 4.5232309e-05   0.58145835  0.028690242            0   0.55276811    1.4564043    2.0378627    3.5817922 
 9110000    1.0242217 1.1376304e-05   0.52317893  0.035795521            0   0.48738341    1.5235298    2.0467087    2.4350199 
 9115000    1.0257776 -8.2880311e-05   0.53158121  0.011807762            0   0.51977345    1.5258442    2.0574254   -0.7715559 
 9120000     1.049189  1.67465e-05   0.47975706 0.0076251757            0   0.47213189    1.5606687    2.0404257    2.6120396 
 9125000    1.0383218 3.944963e-05   0.47812755  0.011008822            0   0.46711873    1.5445037    2.0226313    3.3691786 
 9130000     1.016733 6.188107e-05   0.54104086  0.028367768            0   0.51267309    1.5123903    2.0534312    4.1656384 
 9135000   0.99171803 1.8105282e-05    0.5675588  0.054131976            0   0.51342682    1.4751806    2.0427394     2.660733 
 9140000   0.94819094 -7.0114836e-05   0.62500055   0.03979776            0   0.58520279     1.410434    2.0354346  -0.35781851 
 9145000    1.0502129 -1.4150863e-05   0.48418426  0.030844474            0   0.45333979    1.5621917    2.0463759    1.5633598 
 9150000    1.0054404 -1.9429517e-05   0.55392957  0.033254025            0   0.52067554    1.4955926    2.0495221    1.3863279 
 9155000    1.0580783 -0.0001673863   0.44334582  0.032367071            0   0.41097875    1.5738914    2.0172372    -3.696215 
 9160000   0.93951131 -0.00010366117    0.6108456  0.019284415            0   0.59156118    1.3975231    2.0083687   -1.5299325 
 9165000    1.0151845 9.2888998e-05   0.48234557 0.0077679708            0   0.47457759     1.510087    1.9924325    5.1630436 
 9170000    1.0676171 6.9265133e-05   0.40414824 0.0035347516            0   0.40061349    1.5880804    1.9922286    4.3564785 
 9175000    1.0124962 1.8818129e-05   0.49264733 0.0090101312            0    0.4836372    1.5060882    1.9987355     2.641061 
 9180000    1.0072675 5.2101478e-05   0.50014953  0.013227865            0   0.48692167    1.4983104    1.9984599     3.776857 
 9185000    1.0045425 -6.6368275e-05   0.51101544  0.011645108            0   0.49937033    1.4942569    2.0052723  -0.26009811 
 9190000    1.0085459 -0.00010167041   0.50658838  0.036257452            0   0.47033093     1.500212    2.0068003   -1.4635498 
 9195000   0.97249034 -0.00011343053   0.53756402  0.054703872            0   0.48286015    1.4465794    1.9841434   -1.8876187 
 9200000    1.0097483 0.00024188619   0.48139186  0.025320535            0   0.45607133    1.5020005    1.9833924    10.239774 
 9205000   0.99829251 7.9380795e-06   0.47926786 0.0067947527            0   0.47247311    1.4849601     1.964228    2.2351811 
 9210000   0.99364028 -0.00026934335   0.50916493  0.015626798            0   0.49353813    1.4780399    1.9872049   -7.2063814 
 9215000    0.9734692 -3.2102363e-05   0.52600857  0.053180095            0   0.47282847    1.4480354     1.974044   0.87828334 
 9220000   0.98645156 -8.0508004e-05   0.50026861  0.013619182            0   0.48664943    1.4673467    1.9676153  -0.78039122 
 9225000   0.96832733 -1.0245216e-05   0.52277494 0.00068329226            0   0.52209165    1.4403869    1.9631618    1.6134585 
 9230000    1.0479567 4.3786994e-05   0.39320767 0.00055780833            0   0.39264986    1.5588355    1.9520432    3.4466393 
 9235000    1.0057478 -3.0022413e-05   0.46404246   0.01172109            0   0.45232137    1.4960499    1.9600924   0.93532732 
 9240000    1.0671577 3.9572105e-05   0.37040185  0.029235692            0   0.34116615    1.5873971     1.957799    3.3085268 
 9245000   0.99927759 6.1845013e-05   0.49897659  0.040515687            0    0.4584609    1.4864254     1.985402    4.0963784 
 9250000    1.0182609 4.0343322e-05   0.49492752  0.033503664            0   0.46142385    1.5146631    2.0095906    3.3866427 
 9255000    1.0625407 -1.0523353e-05   0.43437859  0.011923479            0   0.42245511    1.5805293    2.0149079    1.6557108 
 9260000    1.0000777 -3.0366199e-06   0.52460587  0.014693216            0   0.50991266    1.4876156    2.0122215    1.9085715 
 9265000   0.95299154 -1.6446264e-05   0.59483123 0.0069188496            0   0.58791238    1.4175749    2.0124061    1.4510403 
 9270000    1.1101232 -7.4064631e-05   0.35864294 0.0059071095            0   0.35273583    1.6513082    2.0099512  -0.51812156 
 9275000    1.0404624 -4.1351065e-05   0.45404304  0.015737094            0   0.43830595    1.5476879    2.0017309    0.5902812 
 9280000   0.95699883 -7.2109302e-06   0.57901099  0.030005327            0   0.54900566    1.4235358    2.0025468    1.7564137 
 9285000    1.0042627 -7.6156951e-05   0.51170916  0.039037897            0   0.47267126    1.4938408    2.0055499  -0.59394066 
 9290000    1.0076035 -0.00012506056   0.52350842  0.025055785            0   0.49845263    1.4988102    2.0223186   -2.2464151 
 9295000    1.0704195 -0.00011901198   0.43745569  0.018597273            0   0.41885841    1.5922489    2.0297046   -2.0325708 
 9300000    1.0156657 0.00010621417   0.51011865  0.029839687            0   0.48027897    1.5108027    2.0209213     5.646365 
 9305000    1.0621448 8.5226532e-05   0.43621991  0.010764233            0   0.42545568    1.5799404    2.0161603    4.9252259 
 9310000    1.0103507 -0.00010792989   0.50892809 0.0080609216            0   0.50086717    1.5028966    2.0118247   -1.6721823 
 9315000    1.0448968 -9.0951202e-05   0.48468387   0.01579255            0   0.46889132     1.554284    2.0389679   -1.0654998 
 9320000   0.98119468 -3.2722765e-05   0.57963439   0.01349789            0    0.5661365    1.4595271    2.0391615   0.92222443 
 9325000    1.0047897 -6.9664064e-05   0.55851551  0.020435434            0   0.53808008    1.4946246    2.0531402  -0.32472655 
 9330000    1.0487656 2.2348701e-08   0.51281403  0.017193539            0   0.49562049    1.5600388    2.0728529    2.0736157 
 9335000    1.0451026 8.6045974e-05   0.50874983 0.0099338695            0   0.49881596    1.5545901    2.0633399    5.0003758 
 9340000    1.1347764 2.9924821e-05   0.37515535  0.014055951            0    0.3610994    1.6879799    2.0631352    3.0845691 
 9345000    1.0851444 -4.7362236e-05   0.48775884  0.045443798            0   0.44231504    1.6141523    2.1019111   0.48528015 
 9350000   0.97841056 4.6858869e-05   0.64454171  0.057908001            0   0.58663371    1.4553857    2.0999274    3.6993768 
 9355000    1.0612939 5.4806455e-05    0.5266102   0.02983195            0   0.49677825    1.5786747    2.1052849    3.9760119 
 9360000    0.9928491 -8.4699508e-05   0.61224393  0.020408164            0   0.59183577     1.476863     2.089107  -0.80196956 
 9365000    1.0524384 5.9979771e-05   0.51440329  0.012782534            0   0.50162076    1.5655021    2.0799054    4.1272149 
 9370000    1.0447669 -4.1097817e-05   0.53093285 0.0090736996            0   0.52185915    1.5540908    2.0850236   0.68221815 
 9375000    1.0492248 -0.00014817165   0.51295917 0.0065703798            0   0.50638879    1.5607218     2.073681   -2.9839114 
 9380000    1.0510755 0.00011544791   0.48002202  0.019558604            0   0.46046341    1.5634747    2.0434968    5.9841187 
 9385000   0.94036316 0.00018538771   0.63646443  0.033999537            0   0.60246489    1.3987902    2.0352546    8.3631553 
 9390000   0.98882114 5.8658034e-06   0.54495257  0.028444817            0   0.51650775    1.4708714     2.015824    2.2160434 
 9395000    1.0007852 -0.00018142106   0.52238717  0.014484593            0   0.50790257     1.488668    2.0110552   -4.1814504 
 9400000   0.95392147 -0.00015245353   0.60423295  0.022639319            0   0.58159363    1.4189582    2.0231911   -3.1805559 
 9405000    1.0024864 -2.9455514e-05   0.54749518  0.043814454            0   0.50368072    1.4911986    2.0386937    1.0332788 
 9410000    1.0124521 -3.065984e-06   0.52476568   0.04379038            0    0.4809753    1.5060225    2.0307882     1.926136 
 9415000   0.94990432 -3.5842517e-05   0.61058886  0.028893809            0   0.58169505    1.4129827    2.0235715   0.80014694 
 9420000   0.92138866 4.1340075e-05   0.65379389   0.01296159            0    0.6408323    1.3705656    2.0243595    3.4354341 
 9425000    1.0380549 0.00010177633   0.47810603    0.0104002            0   0.46770583    1.5441067    2.0222127    5.4961782 
 9430000    1.0496418 -1.7291214e-05   0.44029226  0.015811971            0   0.42448029    1.5613421    2.0016344    1.4114276 
 9435000   0.96102533 -1.6982426e-05   0.56728609  0.012760962            0   0.55452513    1.4295252    1.9968113    1.4171445 
 9440000   0.99387152 6.6362341e-05   0.50651888   0.01246468            0    0.4940542    1.4783839    1.9849028    4.2500707 
 9445000    1.0356014 -8.1822258e-05   0.43146532  0.014208818            0   0.41725651    1.5404571    1.9719225  -0.82094394 
 9450000   0.94310042 -1.354929e-05   0.55085232  0.026270514            0   0.52458181    1.4028619    1.9537142    1.4912318 
 9455000    0.9727432 8.3287032e-05   0.53647729  0.020584124            0   0.51589316    1.4469555    1.9834328    4.8262968 
 9460000   0.92719117 -5.0739692e-05   0.62126057  0.034550272            0    0.5867103    1.3791969    2.0004574   0.26854261 
 9465000   0.96959006 -0.00010521348   0.56619032  0.060691931            0   0.50549839    1.4422652    2.0084555   -1.5828311 
 9470000   0.98269396 7.2181622e-06   0.55301219  0.029025822            0   0.52398637    1.4617573    2.0147695    2.2611494 
 9475000   0.97146218 -2.9432253e-05   0.56511103 0.0068647964            0   0.55824624      1.44505     2.010161    1.0055401 
 9480000   0.93312917 -4.0425668e-05   0.60861511  0.008548672            0   0.60006644    1.3880296    1.9966448   0.61678197 
 9485000    1.0248007 0.00013981094   0.46543874 0.0029228898            0   0.46251585     1.524391    1.9898297     6.762043 
 9490000   0.95866444 1.2453543e-05   0.55604833 0.0089716509            0   0.54707668    1.4260133    1.9820617    2.4071426 
 9495000   0.92665085 -5.5080436e-05   0.58441277  0.023397911            0   0.56101486    1.3783931    1.9628059  0.082727022 
 9500000    1.0132535 -6.1257427e-06   0.45576398  0.027232144            0   0.42853183    1.5072146    1.9629786    1.7538865 
 9505000   0.96213533 -4.9877306e-05   0.52200681 0.0029055578            0   0.51910125    1.4311763    1.9531831   0.25070439 
 9510000   0.96477347 7.0846584e-05    0.5043898  0.014550683            0   0.48983912    1.4351005    1.9394903    4.3577204 
 9515000   0.92328213 -4.2645262e-05   0.57211985  0.045796776            0   0.52632308    1.3733822     1.945502   0.48987707 
 9520000   0.93425489 -2.9962469e-05   0.53625541  0.011746202            0   0.52450921    1.3897041    1.9259596    0.9032406 
 9525000   0.96728078 0.00011630197   0.49100157 0.0066616632            0   0.48433991    1.4388302    1.9298317    5.8996058 
 9530000   0.95967968 0.00016164457   0.52140234  0.025304831            0   0.49609751    1.4275235    1.9489259    7.4663939 
 9535000   0.93057666 0.00011760489   0.58440295  0.030377099            0   0.55402585    1.3842328    1.9686357    5.9828825 
 9540000    0.9352406 0.00014263855   0.57021953  0.020002604            0   0.55021693    1.3911704    1.9613899    6.8301192 
 9545000   0.93335042 -7.1381276e-05   0.58250351  0.015678173            0   0.56682533    1.3883587    1.9708623  -0.46561862 
 9550000    0.9380522 -6.691044e-05   0.56999371  0.032724735            0   0.53726897    1.3953526    1.9653463  -0.31853001 
 9555000   0.93764022 -6.5124203e-05   0.55563999  0.021596293            0    0.5340437    1.3947398    1.9503798  -0.27252631 
 9560000    1.0164611 2.3857088e-05   0.43987494  0.015709891            0   0.42416505    1.5119859    1.9518608    2.7661828 
 9565000   0.97218332 0.00013351858   0.51706687  0.027169313            0   0.48989756    1.4461227    1.9631896    6.5206237 
 9570000   0.94898954 -4.3233626e-05   0.55362424  0.015144333            0   0.53847991    1.4116219    1.9652462    0.4895384 
 9575000   0.97117514 5.4617952e-07   0.51563411  0.016526999            0   0.49910711     1.444623    1.9602571    1.9789001 
 9580000   0.93367684 1.0299239e-05   0.58082208  0.021046252            0   0.55977583    1.3888443    1.9696664    2.3212138 
 9585000   0.99253613 0.00021228635    0.5222836  0.031927516            0   0.49035608    1.4763975    1.9986811    9.2447219 
 9590000   0.96752495 0.00013601579   0.55590723  0.025805175            0   0.53010205    1.4391934    1.9951006    6.6377728 
 9595000   0.93554707 -6.7498494e-05   0.59148275 0.0095732961            0   0.58190945    1.3916263     1.983109  -0.32083958 
 9600000    1.0029709 -4.8418909e-05   0.47971134  0.010474559            0   0.46923678    1.4919192    1.9716305   0.31893175 
 9605000   0.94374612 9.3143066e-05   0.58154191  0.014872167            0   0.56666974    1.4038223    1.9853643    5.1646476 
 9610000    1.0076879 5.9407316e-05   0.48535658  0.012922745            0   0.47243383    1.4989358    1.9842924    4.0120621 
 9615000   0.97636494 -7.6419822e-07   0.52782512  0.013631252            0   0.51419387    1.4523428     1.980168    1.9540833 
 9620000   0.98649221 0.00010505525   0.50709857  0.013989104            0   0.49310947    1.4674072    1.9745057    5.5603915 
 9625000   0.88955972 7.6612091e-05   0.64909528  0.016408355            0   0.63268693    1.3232201    1.9723154    4.5873414 
 9630000   0.99107754 -6.7634994e-05   0.50126426   0.02266696            0    0.4785973    1.4742278    1.9754921  -0.33311568 
 9635000    1.0198936 -4.2895019e-05    0.4710564  0.022175347            0   0.44888105    1.5170918    1.9881482   0.52399819 
 9640000   0.90013287 -4.5408719e-05    0.6400122    0.0511192            0     0.588893    1.3389476    1.9789598   0.42900888 
 9645000   0.93050512 -0.00012834517   0.60403352  0.019189927            0   0.58484359    1.3841264    1.9881599   -2.3926886 
 9650000   0.94806007 5.4917389e-05   0.57596629  0.012417389            0    0.5635489    1.4102394    1.9862056    3.8607192 
 9655000   0.94960223 1.1541087e-05   0.55281602  0.030602351            0   0.52221367    1.4125333    1.9653493    2.3592851 
 9660000   0.91189561 -6.486677e-05   0.59619396  0.023455297            0   0.57273867    1.3564447    1.9526387  -0.26148039 
 9665000   0.96879759 3.9077871e-05   0.47164293 0.0073595239            0   0.46428341    1.4410864    1.9127294    3.2465873 
 9670000   0.94272345 0.00010678625   0.50336482 0.0042979328            0   0.49906689    1.4023011     1.905666    5.5506365 
 9675000   0.95886265 4.1617482e-05   0.46744957 0.0050145819            0   0.46243499    1.4263082    1.8937578    3.3143012 
 9680000   0.97586271 1.5041015e-05   0.43788106  0.014542363            0    0.4233387    1.4515958    1.8894768    2.4028768 
 9685000   0.85714981 -0.00013244241   0.58914775  0.048482158            0   0.54066559    1.2750103    1.8641581   -2.6565429 
 9690000   0.92782868 -7.4679276e-05    0.4842031  0.010929156            0   0.47327394    1.3801452    1.8643483  -0.68470435 
 9695000   0.86553806 2.846426e-05   0.57688077  0.014600557            0   0.56228022    1.2874879    1.8643686    2.8359487 
 9700000   0.92782599 1.7566773e-06   0.46905923  0.018853169            0   0.45020607    1.3801412    1.8492004    1.9091616 
 9705000   0.96968489 -5.4503377e-06   0.43245313   0.02664837            0   0.40580476    1.4424063    1.8748594    1.6888212 
 9710000   0.90952803 0.00011553708   0.52620508  0.015318986            0   0.51088609    1.3529229     1.879128    5.8227937 
 9715000   0.86578128 0.00010184137   0.58800033  0.017690264            0   0.57031006    1.2878496      1.87585    5.3520354 
 9720000   0.95590153 -0.00011467266   0.45837267  0.012687999            0   0.44568468    1.4219035    1.8802762   -2.0338841 
 9725000   0.93769056 -2.6238136e-05   0.48728523  0.021713767            0   0.46557146    1.3948147    1.8820999   0.98650489 
 9730000   0.88854503 0.00010811454   0.56527155  0.049705213            0   0.51556634    1.3217107    1.8869823    5.5772919 
 9735000   0.93820883 -1.6570687e-05   0.49433411  0.016253622            0   0.47808049    1.3955856    1.8899197     1.324307 
 9740000   0.97292658 -2.1152635e-05    0.4524906  0.020457275            0   0.43203333    1.4472283    1.8997189     1.177709 
 9745000   0.92700402 -0.00011629375   0.49664034  0.023170913            0   0.47346943    1.3789185    1.8755588   -2.0939346 
 9750000   0.88866656 -2.9102656e-05   0.53450748  0.013299303            0   0.52120818    1.3218915     1.856399   0.86302834 
 9755000   0.89728276 3.929915e-05   0.51613711 0.0076819087            0    0.5084552    1.3347081    1.8508452    3.1922562 
 9760000   0.89338045 -5.6656191e-05   0.51706722  0.018060827            0    0.4990064    1.3289034    1.8459706 -0.087894012 
 9765000   0.76308752 1.5944764e-05   0.66887654  0.053934052            0   0.61494249    1.1350927    1.8039692    2.3482172 
 9770000   0.88316649 -1.3942273e-05   0.52623814  0.020493249            0   0.50574489    1.3137102    1.8399483     1.364052 
 9775000   0.92604209 0.00011589637     0.465071  0.031217443            0   0.43385355    1.3774876    1.8425586    5.7984882 
 9780000   0.85579716 7.0631326e-05   0.56691691  0.029326283            0   0.53759063    1.2729983    1.8399152    4.2507978 
 9785000   0.89691831 9.856643e-06   0.50983155  0.008232082            0   0.50159947     1.334166    1.8439975    2.1804376 
 9790000   0.91309046 -0.00011839628    0.4781642 0.0045508897            0   0.47361331    1.3582221    1.8363863   -2.2048734 
 9795000   0.86718495 -0.00019362988   0.54669183  0.017150026            0    0.5295418    1.2899376    1.8366294   -4.7726036 
 9800000   0.85353554 -2.2171886e-05   0.56800038  0.008390768            0   0.55960961    1.2696341    1.8376345    1.0808341 
 9805000    0.9553475 -0.00011885284    0.4151084  0.010862835            0   0.40424556    1.4210794    1.8361878   -2.2206557 
 9810000   0.91842315 -4.5734987e-07    0.4800347  0.011992029            0   0.46804268    1.3661544    1.8461891    1.8305783 
 9815000   0.93876664 0.00022885568   0.46133639  0.012381307            0   0.44895508    1.3964154    1.8577518     9.669359 
 9820000   0.88914031 3.0748598e-05   0.54434495  0.032429972            0   0.51191498    1.3225962    1.8669412    2.9164933 
 9825000   0.94863651 0.00017722566   0.43479415 0.0040983812            0   0.43069577    1.4110968     1.845891    7.8951936 
 9830000   0.95457297 2.3362695e-05   0.42415522 0.0010247841            0   0.42313044    1.4199273    1.8440825    2.6415292 
 9835000   0.94613104 -0.00020808316   0.47470103  0.011068947            0   0.46363208    1.4073699    1.8820709   -5.2205008 
 9840000   0.83363504 6.2870624e-06   0.61986079  0.038577192            0    0.5812836    1.2400321    1.8598929    2.0744913 
 9845000   0.91442115 7.7578041e-06   0.49505305  0.025690136            0   0.46936291    1.3602015    1.8552545    2.1200542 
 9850000   0.87867686 -6.240878e-05   0.56162108  0.011268997            0   0.55035208    1.3070318    1.8686529  -0.26156678 
 9855000   0.91579079 -7.4985127e-06   0.49028421 0.0099274955            0   0.48035671    1.3622388     1.852523    1.5965738 
 9860000   0.90254679 -0.00010455205    0.5121995 0.0061994123            0   0.50600009    1.3425383    1.8547379   -1.7139721 
 9865000   0.91320821 -1.3614601e-05    0.5064868  0.013619524            0   0.49286728    1.3583972     1.864884    1.4001723 
 9870000    0.9048574 6.6900135e-05   0.53983809  0.015490276            0   0.52434782    1.3459754    1.8858135    4.1693381 
 9875000   0.87917141 2.1502438e-05   0.57710085 0.0049143022            0   0.57218655    1.3077675    1.8848683    2.6188182 
 9880000   0.92680519 5.7648607e-05   0.48863303 0.0087165028            0   0.47991653    1.3786227    1.8672558    3.8349949 
 9885000    0.9213377 1.8736934e-05   0.48008044  0.015763541            0    0.4643169    1.3704898    1.8505703    2.4901243 
 9890000   0.92376716 -0.00010831339   0.48197487  0.018601378            0   0.46337349    1.3741036    1.8560785   -1.8410184 
 9895000   0.89248145 -8.4603484e-05   0.51335562  0.022353293            0   0.49100233    1.3275662    1.8409218   -1.0468771 
 9900000   0.89888879 -0.00013156431   0.51667855  0.022237934            0   0.49444061    1.3370971    1.8537756   -2.6369528 
 9905000   0.90823753 -3.6509243e-05   0.49391839 0.0060808939            0    0.4878375    1.3510033    1.8449217   0.59873955 
 9910000   0.93816664 0.00015357091   0.46346604  0.011388918            0   0.45207712    1.3955229    1.8589889    7.1008761 
 9915000   0.90843721 -4.5363865e-06   0.48891809  0.013077386            0   0.47584071    1.3513004    1.8402184    1.6853765 
 9920000   0.96014256 -0.00010477366   0.42795003  0.015219021            0   0.41273101    1.4282121    1.8561621   -1.7201123 
 9925000   0.85257539 -8.5558176e-05   0.59503375   0.05223821            0   0.54279554    1.2682059    1.8632396   -1.0571461 
 9930000   0.89828004 8.766172e-05   0.53208228  0.046868266            0   0.48521402    1.3361916    1.8682738    4.8604605 
 9935000   0.89660146 -3.6726853e-07   0.54416435  0.028038875            0   0.51612547    1.3336947     1.877859    1.8653229 
 9940000   0.88332992 -6.8372084e-05   0.57010529  0.014144233            0   0.55596106    1.3139533    1.8840586  -0.44970859 
 9945000   0.97192047 -9.8545685e-05   0.48534048  0.023061087            0   0.46227939    1.4457317    1.9310722   -1.4326205 
 9950000   0.92209488 -0.00024078583   0.57185029  0.019641208            0   0.55220908    1.3716161    1.9434664   -6.2753566 
 9955000   0.91535367 -0.0001693921    0.5999428  0.021851864            0   0.57809094    1.3615886    1.9615314   -3.8203856 
 9960000   0.97742061 -0.00012841239   0.53027349  0.011804658            0   0.51846884    1.4539132    1.9841866   -2.3989564 
 9965000   0.95961919 8.1481117e-05   0.56365915  0.020915044            0   0.54274411    1.4274335    1.9910927    4.7723148 
 9970000   0.95705259 0.00012289423    0.5649406  0.013424054            0   0.55151655    1.4236157    1.9885563    6.1833462 
 9975000   0.92891884 -4.5908278e-05     0.576143  0.021256384            0   0.55488662    1.3817668    1.9579098   0.39090721 
 9980000    1.0062449 -0.00013474084   0.47437287  0.015271485            0   0.45910138    1.4967893    1.9711622   -2.6279918 
 9985000   0.87895158 -9.3466413e-05    0.6503926  0.022581914            0   0.62781069    1.3074405    1.9578331   -1.2324872 
 9990000   0.96663755 6.2886012e-05   0.52291731  0.024892077            0   0.49802523    1.4378734    1.9607907    4.1072999 
 9995000   0.97847118 -1.4123085e-05   0.52098095  0.015315405            0   0.50566554    1.4554759    1.9764568    1.4943889 
10000000   0.96668469 -7.5476609e-05   0.53200176 0.0085574079            0   0.52344435    1.4379435    1.9699452  -0.60632302 
10005000   0.93214598 1.2776095e-06   0.58650563  0.014826556            0   0.57167908    1.3865671    1.9730728    2.0166818 
10010000   0.93696706 9.5270763e-05   0.60495464  0.073091145            0   0.53186349    1.3937385    1.9986931    5.2506019 
10015000   0.96729901 0.00021561376   0.57588608  0.039930665            0   0.53595542    1.4388573    2.0147434    9.3743597 
10020000   0.98209737 0.00015577224   0.55927878 0.0077267067            0   0.55155207    1.4608698    2.0201486    7.3371744 
10025000   0.96359226 -1.3697358e-05   0.57921095  0.035442118            0   0.54376883    1.4333435    2.0125544    1.5450179 
10030000    1.0206356 7.8122484e-06   0.51482714   0.02084557            0   0.49398157    1.5181954    2.0330226    2.2996807 
10035000    1.0210768 5.9266442e-05   0.51002656  0.014457273            0   0.49556929    1.5188518    2.0288783    4.0518395 
10040000   0.96168613 -0.00013193172   0.60456583 0.0033797036            0   0.60118612    1.4305081    2.0350739   -2.4681954 
10045000    1.0118926 -4.2516805e-05   0.53224903 0.0075373346            0    0.5247117    1.5051902    2.0374392   0.58619892 
10050000   0.99812834 3.5560562e-05   0.54643946   0.02530711            0   0.52113235    1.4847159    2.0311554    3.2449559 
10055000   0.93425902 -6.5908646e-05   0.65140456  0.014155722            0   0.63724884    1.3897103    2.0411149  -0.20856693 
10060000   0.99626431 7.7649356e-05   0.56525382  0.013690389            0   0.55156343    1.4819432     2.047197    4.6976283 
10065000   0.93252563 -1.4462804e-06   0.65768557  0.015093812            0   0.64259176    1.3871319    2.0448175    1.9954511 
10070000   0.96258359 -0.00013999358   0.63368453  0.015331804            0   0.61835272    1.4318431    2.0655276   -2.7129199 
10075000    1.0245832 7.0627979e-05   0.54912268 0.0073177029            0   0.54180498    1.5240675    2.0731902    4.4839585 
10080000   0.99185257 7.915229e-05   0.60476507  0.001560379            0   0.60320469    1.4753807    2.0801458    4.7818772 
10085000    1.0747996 -0.00013050265   0.49686241 0.00038342499            0   0.49647899    1.5987644    2.0956268   -2.3588637 
10090000    1.0022853 -0.0001843112   0.61155282 0.0061510035            0   0.60540182    1.4908994    2.1024522   -4.1887033 
10095000    1.0638821 -1.4740245e-05   0.54851551  0.020616263            0   0.52789924    1.5825247    2.1310402    1.6279065 
10100000   0.98573117 2.3904031e-06   0.67729927  0.026668561            0    0.6506307    1.4662751    2.1435744    2.2251668 
10105000    1.0593729 -1.550155e-05   0.59280118  0.069961824            0   0.52283936    1.5758172    2.1686184    1.6394988 
10110000    1.0772088 -9.8224249e-05   0.54815082   0.03630425            0   0.51184657    1.6023481     2.150499   -1.2022221 
10115000    1.0311709 -5.660069e-05    0.6070234  0.024644635            0   0.58237877    1.5338668    2.1408902   0.20891997 
10120000    1.0166535 -0.00019972617   0.64307525  0.040921753            0    0.6021535    1.5122722    2.1553474   -4.6619727 
10125000    1.0670275 -5.2467967e-05   0.58185002  0.026958461            0   0.55489156    1.5872034    2.1690535   0.37814686 
10130000    1.0496843 -7.6395408e-05   0.61038953  0.028575206            0   0.58181432    1.5614053    2.1717949  -0.43583504 
10135000    1.1077095 -1.3926787e-05   0.49366678  0.015120565            0   0.47854622    1.6477178    2.1413846     1.666017 
10140000   0.97616919 0.00016456155   0.66939525 0.0041603539            0    0.6652349    1.4520517    2.1214469    7.7384811 
10145000    1.0114182 -7.4690703e-06   0.63822827  0.009302474            0    0.6289258    1.5044846    2.1427128    1.8877686 
10150000    1.0240618 -2.4030699e-05   0.60318541  0.017703205            0    0.5854822     1.523292    2.1264774    1.3062295 
10155000    1.0257744 -1.2125691e-05   0.59585352   0.01941468            0   0.57643884    1.5258394     2.121693    1.7078027 
10160000    1.0559015 -5.5721492e-05   0.53912559  0.016154669            0   0.52297092    1.5706534     2.109779   0.20781875 
10165000    1.0558317 5.7836049e-05   0.55561165 0.0004457895            0   0.55516586    1.5705497    2.1261614    4.1002985 
10170000    1.0030592 -0.00010172418   0.62394182 0.0011787708            0   0.62276305    1.4920505    2.1159924   -1.3561931 
10175000    1.0340001 -0.00018121243   0.57747868  0.023348269            0   0.55413041    1.5380751    2.1155538   -4.0698303 
10180000   0.99285696 -0.00018020692   0.64025441  0.038291677            0   0.60196273    1.4768747    2.1171291   -4.0339336 
10185000    1.0366597 0.00012408819   0.58545239 0.0099067563            0   0.57554564    1.5420314    2.1274838    6.3630274 
10190000    1.0242167 0.0001310861   0.58848871  0.013536794            0   0.57495191    1.5235223    2.1120111    6.5864167 
10195000   0.96188764 0.00020727389    0.6684503  0.021453043            0   0.64699726    1.4308079    2.0992582    9.1742069 
10200000   0.98105254 0.00015895567   0.63482842  0.021581934            0   0.61324649    1.4593156    2.0941441    7.5198308 
10205000    1.0517407 0.00017202622   0.53021648  0.013273966            0   0.51694251    1.5644643    2.0946807     7.966509 
10210000   0.99840469 1.4847388e-05   0.60023339  0.020162038            0   0.58007135     1.485127    2.0853604    2.5921512 
10215000   0.93172158 -6.7167769e-05   0.70408228  0.047088823            0   0.65699346    1.3859359    2.0900181  -0.20264172 
10220000     1.011866 8.3694635e-05   0.56988548  0.019869138            0   0.55001634    1.5051507    2.0750362    4.9318131 
10225000     1.000333 3.2684702e-05     0.576267 0.0090014928            0   0.56726551    1.4879954    2.0642624    3.1799002 
10230000    1.0474427 -6.0971279e-05   0.50260574  0.013281602            0   0.48932414     1.558071    2.0606767 -0.020476261 
10235000   0.98877136 -3.4697571e-05   0.58067843  0.010660884            0   0.57001755    1.4707974    2.0514758   0.86713207 
10240000    1.0077208 -1.6943403e-05   0.56267198  0.024597955            0   0.53807403    1.4989847    2.0616567    1.4833218 
10245000     1.001501 2.1994031e-05   0.57702545  0.010536263            0   0.56648918    1.4897327    2.0667581    2.8174877 
10250000   0.96128619 -7.7910654e-05   0.64313588 0.0067490231            0   0.63638685    1.4299132    2.0730491  -0.58630124 
10255000    0.9681149 -0.00011969008   0.62557853 0.0089455725            0   0.61663296    1.4400709    2.0656494   -2.0197721 
10260000    1.0232832 -2.5755362e-05   0.53812571  0.018923053            0   0.51920265    1.5221338    2.0602595    1.1811431 
10265000   0.95087463 -5.2595425e-06   0.64768852  0.023497091            0   0.62419143     1.414426    2.0621145    1.8825888 
10270000    1.0119335 -4.3436732e-05   0.55573014   0.01195348            0   0.54377666    1.5052511    2.0609813   0.57834084 
10275000   0.95636067 -0.00014395059   0.64487644 0.0098887964            0   0.63498764    1.4225865    2.0674629   -2.8460506 
10280000    1.0247181 -0.00010139271   0.55005035  0.015536206            0   0.53451415    1.5242681    2.0743185   -1.3865528 
10285000    1.0171733 0.00010395223   0.55530427  0.040241344            0   0.51506293    1.5130452    2.0683495    5.6165855 
10290000   0.94408914 8.9824161e-05   0.67841831  0.048194712            0    0.6302236    1.4043326    2.0827509    5.1487489 
10295000   0.93112799 -1.9415432e-05   0.68998072  0.072111673            0   0.61786904    1.3850529    2.0750336    1.4123202 
10300000   0.97560635 -6.710491e-05   0.59382582  0.065751367            0   0.52807445    1.4512144    2.0450403  -0.24547401 
10305000   0.94552607 -0.00010649089   0.62318475  0.047983105            0   0.57520164      1.40647    2.0296548   -1.6052341 
10310000    1.0140271 -6.2812542e-05   0.53559404  0.019416129            0   0.51617791    1.5083652    2.0439593  -0.10004217 
10315000   0.98418858 0.00010937664   0.55785002   0.01380508            0   0.54404494    1.4639805    2.0218305    5.7552198 
10320000   0.96389206 0.00022670137   0.58312666  0.034442158            0    0.5486845    1.4337894    2.0169161    9.7549896 
10325000   0.91851636 8.7290129e-05   0.64184516  0.052006083            0   0.58983908    1.3662931    2.0081382    4.9876413 
10330000   0.99889628 6.2472012e-05   0.53048226  0.015830158            0    0.5146521    1.4858582    2.0163405    4.1487185 
10335000    0.9484199 8.3845978e-05   0.59735463  0.020395862            0   0.57695877    1.4107746    2.0081292    4.8700719 
10340000    0.9674307 1.8802025e-05   0.57058158  0.021744811            0   0.54883677    1.4390532    2.0096347    2.6514105 
10345000   0.97237863 9.6806072e-05   0.56355325  0.013537242            0   0.55001601    1.4464132    2.0099665    5.3142804 
10350000    1.0056407 0.00013819461   0.50543694  0.024295162            0   0.48114178    1.4958906    2.0013275    6.7183702 
10355000   0.97742558 4.130631e-05   0.54707897  0.026418224            0   0.52066075    1.4539206    2.0009995    3.4109216 
10360000   0.90313125 -6.3055847e-05   0.66461183   0.02183405            0   0.64277778    1.3434077    2.0080196  -0.14428668 
10365000    1.0384849 -0.00011004402   0.49348258  0.012870829            0   0.48061175    1.5447464    2.0382289   -1.7179402 
10370000    1.0254893  7.82022e-05   0.50052007 0.0057306116            0   0.49478946    1.5254154    2.0259354    4.6952372 
10375000   0.96954959 8.1544696e-05   0.59329507  0.017479725            0   0.57581534     1.442205    2.0355001    4.8188924 
10380000   0.96378222 -0.00016823888   0.59381843  0.056068948            0   0.53774948    1.4336261    2.0274445   -3.7151092 
10385000   0.93308722 -0.00012562245   0.63617336  0.057860618            0   0.57831274    1.3879672    2.0241406   -2.2637725 
10390000   0.98212282 -2.1548686e-05   0.57430172  0.032011375            0   0.54229034    1.4609077    2.0352094    1.2996809 
10395000   0.95123499 9.540134e-06   0.62708134  0.047800336            0   0.57928101     1.414962    2.0420434      2.36768 
10400000    1.0211924 -2.5453092e-05   0.53419345  0.025682616            0   0.50851083    1.5190237    2.0532171    1.1844182 
10405000      1.03329 -4.6143211e-07   0.52135243   0.01553863            0    0.5058138    1.5370189    2.0583713    2.0426211 
10410000   0.99676445 -3.5245164e-05   0.57620859  0.022020089            0    0.5541885    1.4826871    2.0588957   0.85586077 
10415000    1.0038933 -9.9999844e-06   0.56935506  0.020471879            0   0.54888318    1.4932913    2.0626463    1.7213135 
10420000    1.0316786 1.6143239e-05   0.54687541  0.017319895            0   0.52955552     1.534622    2.0814974    2.6325199 
10425000    1.0095324 -1.7639596e-05    0.6053803  0.012891444            0   0.59248886    1.5016795    2.1070598    1.5049616 
10430000    1.0689179 0.00012985187   0.55509759  0.016484239            0   0.53861335    1.5900154     2.145113    6.5773902 
10435000    1.0804842 6.9190712e-06   0.55298283  0.013839705            0   0.53914313    1.6072202     2.160203     2.396374 
10440000    1.0331472 -0.00022106044   0.58991421   0.01818478            0   0.57172943    1.5368065    2.1267207    -5.418809 
10445000    1.0770286 2.491331e-05   0.51652818 0.0043528258            0   0.51217536    1.6020801    2.1186082    2.9689825 
10450000    1.0370847 3.0773125e-05   0.59464802 0.00043515413            0   0.59421286    1.5426634    2.1373114    3.1877008 
10455000    1.0651738 -0.00014661133   0.57705283 0.0072604018            0   0.56979243    1.5844461    2.1614989   -2.8428343 
10460000     1.043685 -3.6570579e-05   0.62093708  0.034371858            0   0.58656523    1.5524814    2.1734185   0.92514275 
10465000    1.0566095 0.00018606493   0.60314088  0.059121115            0   0.54401977    1.5717067    2.1748476    8.5258637 
10470000    1.1045749 0.00013873048   0.53584686  0.083186059            0    0.4526608    1.6430551    2.1789019    6.9142356 
10475000    1.0495469  7.76662e-05   0.61431384   0.05362703            0   0.56068681    1.5612009    2.1755148    4.8265211 
10480000    1.0118117 2.7036405e-05   0.69493182  0.061162909            0   0.63376891    1.5050698    2.2000017    3.1228443 
10485000    1.0839537 -1.0466107e-05   0.57286654  0.046826028            0   0.52604051    1.6123811    2.1852476    1.8280045 
10490000    1.0840012 -0.00012264004   0.57927128  0.020154595            0   0.55911668    1.6124517     2.191723   -1.9943904 
10495000    1.1346329 -0.00016502554    0.4963061 0.0092547207            0   0.48705137    1.6877664    2.1840725   -3.4487992 
10500000    1.0376329 5.8771601e-05   0.62487491  0.016983912            0   0.60789099    1.5434789    2.1683538    4.1744245 
10505000    1.0426123 0.00017325686    0.6093678  0.049375167            0   0.55999264    1.5508858    2.1602536    8.0740877 
10510000    1.1000833 6.2692511e-05   0.53410222   0.04301301            0   0.49108921     1.636374    2.1704762    4.3103806 
10515000     1.080138 2.5171295e-05   0.56305223  0.017446043            0   0.54560619    1.6067053    2.1697575    3.0289377 
10520000    1.0462732 -4.5760209e-05   0.58294359  0.018630478            0   0.56431311    1.5563314    2.1392749   0.57732648 
10525000    1.0452673 -0.00018965569   0.56384668  0.039780995            0   0.52406568    1.5548351    2.1186818    -4.354899 
10530000    1.0849332 -6.081259e-05   0.49394709  0.022433723            0   0.47151337    1.6138381    2.1077852   0.03204879 
10535000    1.0535022 0.00012494799   0.52624727  0.035375898            0   0.49087137    1.5670846    2.0933318    6.3582232 
10540000    1.0109528 -1.2113291e-05   0.58100199  0.038758082            0   0.54224391    1.5037922    2.0847942    1.6713272 
10545000    0.9814086 -5.0162269e-05    0.6203536  0.031478699            0    0.5888749    1.4598453    2.0801989   0.36799346 
10550000    1.0429177 1.0502413e-05   0.52369224  0.012253066            0   0.51143918    1.5513401    2.0750324    2.4335147 
10555000     1.047819 5.9289236e-05   0.51886379  0.011923817            0   0.50693997    1.5586308    2.0774946    4.1012339 
10560000    1.0398385 8.1802977e-05   0.53911067 0.0034756585            0   0.53563501    1.5467598    2.0858704    4.8780787 
10565000    1.0235931 3.6045698e-05   0.57434127  0.026697617            0   0.54764365    1.5225948    2.0969361    3.3272959 
10570000    1.0250525 -0.00014201918   0.60732046  0.030750383            0   0.57657008    1.5247656    2.1320861   -2.7155019 
10575000    1.0612477 -0.00010741078   0.56538444  0.018018085            0   0.54736635    1.5786059    2.1439904   -1.5222977 
10580000    1.0155478 1.3792285e-05   0.63299733  0.051047888            0   0.58194944    1.5106274    2.1436247    2.6144014 
10585000    1.0489294 4.8929763e-05   0.55306977  0.032073398            0   0.52099637    1.5602825    2.1133523    3.7834882 
10590000    1.1131671 -1.5379173e-05   0.46691822  0.033008357            0   0.43390986     1.655836    2.1227542    1.5978118 
10595000     1.043253 -9.9930761e-05   0.57360467  0.025220903            0   0.54838377    1.5518389    2.1254436   -1.2855264 
10600000    1.0629379 -9.1892224e-05    0.5317906  0.015484892            0    0.5163057    1.5811202    2.1129108   -1.0236771 
10605000    1.0720511 -3.8759564e-05   0.51918841  0.024380653            0   0.49480776     1.594676    2.1138644   0.79087133 
10610000   0.99549802 -4.0521319e-05   0.64541549  0.053694675            0   0.59172081    1.4808033    2.1262188   0.74309113 
10615000    1.0757796 7.6636796e-05   0.50771988   0.02071235            0   0.48700753    1.6002221     2.107942    4.7238113 
10620000    1.0695161 0.00011615443   0.55060694  0.025572821            0   0.52503412    1.5909052    2.1415122      6.10625 
10625000    1.0702893 -7.6528091e-06   0.56540599  0.010292113            0   0.55511387    1.5920554    2.1574614    1.8962455 
10630000    1.0789603 8.1169695e-08    0.5457856  0.024873646            0   0.52091195    1.6049535    2.1507391    2.1535097 
10635000     1.096138 -7.9353355e-05   0.54043869  0.017929229            0   0.52250946    1.6305052    2.1709439   -0.5376506 
10640000      1.05804 -0.00020992436   0.59030657  0.015418386            0   0.57488818    1.5738346    2.1641411    -5.001277 
10645000    1.0549238 -0.00014383198   0.59892849  0.016419749            0   0.58250874    1.5691992    2.1681277   -2.7413374 
10650000    1.0651492 -2.2767887e-05    0.6016236  0.011081747            0   0.59054185    1.5844094     2.186033    1.4088891 
10655000    1.0902042 -6.2897321e-05   0.55985147  0.022787389            0   0.53706408    1.6216787    2.1815302  0.034634943 
10660000    1.0753663 -1.0411053e-05   0.58956717  0.015934728            0   0.57363244    1.5996073    2.1891745    1.8338105 
10665000    1.0573638 7.9201404e-05   0.60144246  0.018004085            0   0.58343838    1.5728287    2.1742712    4.8776791 
10670000    1.1021372 3.134203e-05   0.52568142  0.022681493            0   0.50299993    1.6394291    2.1651105    3.2349185 
10675000    1.0524549 -5.6867818e-05   0.58742312  0.014901598            0   0.57252152    1.5655267    2.1529498   0.21186165 
10680000    1.1059019 -0.00011772898   0.49934485 0.0088536927            0   0.49049116     1.645029    2.1443739   -1.8741087 
10685000    1.0868181 -6.2051539e-05   0.52231002  0.006290183            0   0.51601983    1.6166419    2.1389519  0.020926027 
10690000    1.0905429 4.9613654e-05   0.53099702 0.0094326643            0   0.52156436    1.6221825    2.1531795    3.8466589 
10695000    1.0429141 -0.00015251344   0.60709455  0.071618159            0   0.53547639    1.5513348    2.1584293   -3.0473628 
10700000    1.0948876 -2.1013426e-06   0.53464595  0.013734918            0   0.52091103    1.6286453    2.1632913    2.0915654 
10705000    1.0709372 0.0001448082   0.59101067  0.019701195            0   0.57130948     1.593019    2.1840297    7.1268163 
10710000    1.1216741 -4.3086089e-05   0.51342914  0.030258649            0   0.48317049    1.6684902    2.1819194    0.7112475 
10715000    1.0899197 -4.9259153e-05   0.56177111  0.016922376            0   0.54484873    1.6212556    2.1830267   0.50164762 
10720000    1.0677083 -5.1048057e-05   0.58575994  0.035699864            0   0.55006007    1.5882161     2.173976   0.43153569 
10725000    1.0994793 3.5110222e-05   0.55041156  0.024628761            0    0.5257828    1.6354754     2.185887    3.3843159 
10730000    1.0881241 2.7206628e-05   0.55809181 0.0083016102            0    0.5497902    1.6185846    2.1766765    3.1053294 
10735000    1.0861442 -2.7321693e-05   0.57203677 0.0058441786            0   0.56619259    1.6156395    2.1876763    1.2550959 
10740000    1.1146972 -4.0534633e-05   0.53632526 0.0060402531            0   0.53028501    1.6581121    2.1944374   0.81085523 
10745000    1.1975784 -6.1003509e-05   0.42820068  0.033922645            0   0.39427803    1.7813979    2.2095986   0.12734552 
10750000    1.0643526 -0.00012134499   0.61341554  0.040440442            0    0.5729751    1.5832244      2.19664    -1.945269 
10755000    1.1088218 -0.00017035106   0.54827057  0.039863791            0   0.50840678    1.6493724     2.197643   -3.6170066 
10760000    1.1187589 -3.6575388e-05   0.54774962  0.087818512            0   0.45993111    1.6641538    2.2119034   0.96346352 
10765000    1.1264306 0.00011176974   0.55107664   0.03595273            0   0.51512391    1.6755655    2.2266421    6.0417159 
10770000    1.1801944 -1.1174296e-05   0.48456098  0.032733468            0   0.45182751    1.7555392    2.2401001    1.8586842 
10775000    1.1083458 -0.00016660001   0.60626106  0.051592089            0   0.55466897    1.6486643    2.2549254   -3.4316884 
10780000    1.1110725 -8.6801313e-05   0.59941855  0.025715515            0   0.57370304    1.6527203    2.2521389  -0.71067927 
10785000    1.1814555 0.00012789336   0.48753599  0.026940567            0   0.46059543     1.757415     2.244951    6.6103776 
10790000    1.0872662 0.00014407905   0.61488028  0.051778749            0   0.56310153    1.6173085    2.2321887    7.1500869 
10795000    1.1103795 -3.7331257e-05   0.61714835  0.038804619            0   0.57834373    1.6516895    2.2688379   0.99459764 
10800000    1.1725128 -9.4159394e-05   0.52450661  0.026850206            0    0.4976564    1.7441127    2.2686193  -0.94535465 
10805000    1.1848489 -5.6051685e-05   0.50902837 0.0084399072            0   0.50058846    1.7624627    2.2714911   0.35826023 
10810000    1.1489237 -3.7439765e-06   0.56537049 0.0069266715            0   0.55844382    1.7090239    2.2743944       2.1466 
10815000    1.1957161 -2.4020535e-05   0.48808841  0.045601815            0   0.44248659    1.7786277    2.2667161    1.4468152 
10820000    1.1354023 0.00017065154    0.5765018  0.038224072            0   0.53827773    1.6889109    2.2654127    8.0903184 
10825000    1.0988764 0.00011321119   0.61157226  0.038221241            0   0.57335102    1.6345787     2.246151    6.1104262 
10830000     1.101199 6.5471478e-05   0.60987778  0.015057312            0   0.59482047    1.6380335    2.2479113     4.482671 
10835000    1.2062054 6.9641071e-05   0.46104909  0.018734474            0   0.44231462    1.7942306    2.2552797    4.6323615 
10840000    1.1589947 -5.7712131e-05   0.56529814  0.038821765            0   0.52647638    1.7240046    2.2893027   0.31939532 
10845000    1.1185028 -4.5148986e-05   0.60266598  0.058627967            0   0.54403801    1.6637729    2.2664389   0.72535352 
10850000    1.2028916 -5.8923543e-05   0.48697743  0.029305344            0   0.45767209    1.7893013    2.2762788   0.26502181 
10855000    1.1980582 3.3640917e-05   0.49024345  0.028179546            0    0.4620639    1.7821115    2.2723549    3.4206316 
10860000     1.142671 0.00011166379    0.5745636  0.016938843            0   0.55762476    1.6997231    2.2742867    6.0857441 
10865000     1.152856 -0.00011911789   0.57533915  0.028771569            0   0.54656758    1.7148733    2.2902125   -1.7756782 
10870000    1.1750457 -0.00025359482   0.52941253  0.028673771            0   0.50073876    1.7478805    2.2772931   -6.3787433 
10875000    1.1845379 -8.7448578e-06   0.50905269  0.039822565            0   0.46923012    1.7620001    2.2710528    1.9725617 
10880000    1.1372951 3.0274492e-05   0.60936415  0.054728828            0   0.55463532    1.6917264    2.3010906    3.3344599 
10885000    1.1617461 6.6523382e-05   0.57926243  0.053506613            0   0.52575582    1.7280974    2.3073598    4.5780246 
10890000    1.0885008 0.00013456582   0.65244249   0.02450472            0   0.62793777    1.6191449    2.2715874    6.8647673 
10895000    1.1400899 -6.4892538e-05   0.59157122  0.014280697            0   0.57729053    1.6958837    2.2874549  0.072456255 
10900000    1.1222328 -0.00010793622   0.62005078  0.060909418            0   0.55914136    1.6693213    2.2893721   -1.3948509 
10905000    1.1879184 -9.6774977e-05   0.51171626  0.035125761            0    0.4765905    1.7670286    2.2787449   -1.0245077 
10910000    1.1061861 -1.3657653e-05   0.62649473  0.018003241            0   0.60849149    1.6454518    2.2719465    1.8057653 
10915000    1.2033356 1.4394533e-05   0.49134991  0.025143345            0   0.46620656    1.7899617    2.2813116     2.772645 
10920000    1.2154787 1.7125813e-05   0.48475534  0.024079893            0   0.46067545    1.8080245    2.2927799     2.877341 
10925000     1.180106 7.9706855e-05    0.5223203 0.0079088244            0   0.51441148    1.7554077     2.277728    4.9983886 
10930000    1.1392133 -4.3659927e-05   0.60658174  0.011795421            0   0.59478632    1.6945798    2.3011616   0.81090274 
10935000    1.1754067 -4.6865048e-05   0.52976145   0.04865889            0   0.48110256    1.7484175    2.2781789   0.67851865 
10940000    1.0226607 -0.00013654443   0.74324633  0.079647691            0   0.66359864    1.5212079    2.2644542   -2.3962625 
10945000    1.1338611 -0.00017813395   0.57945119   0.03981015            0   0.53964104    1.6866184    2.2660696    -3.814236 
10950000    1.1877629 -7.6798889e-05   0.49646136 0.0050718675            0   0.49138949    1.7667973    2.2632587  -0.35814339 
10955000    1.1396793 -0.00013642704   0.56466877  0.024086434            0   0.54058234     1.695273    2.2599418   -2.3967678 
10960000    1.1393009 -8.0375409e-06   0.54885211  0.034891824            0   0.51396028      1.69471    2.2435621    1.9692141 
10965000    1.1163645 -5.4840018e-05    0.5956777  0.022675421            0   0.57300228    1.6605923    2.2562699   0.38439735 
10970000    1.1082942 -4.6696308e-06   0.60073357  0.018943889            0   0.58178968    1.6485877    2.2493212    2.0899312 
10975000    1.1626969 4.756004e-05   0.52141502  0.025312102            0   0.49610291    1.7295117    2.2509267    3.8743094 
10980000    1.1172283 1.0762204e-05   0.58944715  0.013015399            0   0.57643175    1.6618772    2.2513243    2.6186742 
10985000    1.0681823 -3.114795e-05   0.65235518  0.023400521            0   0.62895466    1.5889211    2.2412763     1.178093 
10990000    1.0986238 6.2766132e-05    0.5851756  0.022863635            0   0.56231197    1.6342029    2.2193785    4.3617958 
10995000    1.1537806 -6.2471672e-05   0.50921002  0.011155939            0   0.49805408    1.7162487    2.2254587  0.093092304 
11000000    1.1852999 -0.00010929507    0.4545693 0.0086215559            0   0.44594774    1.7631336    2.2177029   -1.5129023 
11005000    1.0205206 1.699828e-05   0.67673035  0.026278679            0   0.65045167    1.5180244    2.1947547    2.7749627 
11010000    1.0664931 -9.5387997e-05   0.61628414  0.026176436            0    0.5901077    1.5864085    2.2026927   -1.0532176 
11015000    1.1220855 -6.47409e-05   0.51369951  0.026556195            0   0.48714332    1.6691021    2.1828017 -0.027021074 
11020000    1.1565198 -0.00011032997   0.45987649   0.01227393            0   0.44760256    1.7203232    2.1801996   -1.5857301 
11025000    1.0787541 -3.1072439e-05   0.54726071  0.012579435            0   0.53468128    1.6046467    2.1519074    1.0913015 
11030000   0.99464138 -2.0307956e-05    0.6456724  0.021066248            0   0.62460615    1.4795291    2.1252014    1.4320232 
11035000    1.0515673 -3.3349509e-05   0.55912665 0.0087396315            0   0.55038702    1.5642064    2.1233331   0.98500314 
11040000    1.0412977 7.4834217e-05   0.59230737   0.01547996            0   0.57682741    1.5489303    2.1412377     4.695579 
11045000     1.105687 0.00010883426    0.5004626  0.029786245            0   0.47067636    1.6447094     2.145172     5.860048 
11050000    1.0553641 0.00020240649   0.55990526  0.014289439            0   0.54561582    1.5698542    2.1297594    9.0385677 
11055000   0.99253891 0.00021704753   0.63101353  0.018742547            0   0.61227098    1.4764016    2.1074152    9.5159709 
11060000    1.0006926 2.220414e-05   0.60487143  0.022201234            0   0.58267019    1.4885302    2.0934016    2.8513029 
11065000    1.0876277 -0.00010450104   0.46131775  0.021565587            0   0.43975216    1.6178462     2.079164    -1.487805 
11070000   0.99197815 -7.354022e-05   0.59748827  0.053093099            0   0.54439517    1.4755675    2.0730558  -0.43711709 
11075000    1.0467992 3.9477273e-05   0.53984138  0.025462087            0    0.5143793    1.5571138    2.0969552    3.4444461 
11080000    1.0095494 0.00010415301   0.60315645  0.017511388            0   0.58564506    1.5017048    2.1048612    5.6599507 
11085000    1.1066823 -3.4070592e-06   0.46421866  0.021086256            0   0.44313241    1.6461899    2.1104085    1.9941143 
11090000   0.98997482 -5.7885588e-05   0.65935815  0.056219962            0   0.60313819    1.4725875    2.1319457   0.15611763 
11095000    1.0824831 -8.4467209e-05   0.52285817  0.020953182            0   0.50190499    1.6101936    2.1330518  -0.75009556 
11100000    1.0080699 -5.5668942e-05   0.65167906  0.046254078            0   0.60542498     1.499504    2.1511831   0.25101655 
11105000     1.073489 1.0937669e-05   0.53445689  0.056291678            0   0.47816521     1.596815    2.1312718     2.504611 
11110000    1.0085526 -2.5399632e-05   0.58155588  0.033697362            0   0.54785851     1.500222    2.0817778    1.2148037 
11115000    1.0502303 3.6549289e-05   0.50825398  0.009251568            0   0.49900241    1.5622175    2.0704715    3.3180206 
11120000    1.0376219 1.087158e-05   0.51315863  0.016266335            0    0.4968923    1.5434626    2.0566213    2.4277045 
11125000   0.96894204 -0.00013588883   0.61789812  0.020565324            0    0.5973328    1.4413013    2.0591994   -2.5791394 
11130000    1.0107665 -4.9369641e-05   0.56167834  0.033450691            0   0.52822765    1.5035152    2.0651935   0.38004311 
11135000    1.0367199 -3.4604399e-05   0.54627439  0.043817267            0   0.50245712    1.5421209    2.0883953   0.90723179 
11140000    1.0299587 -0.00011143191   0.54456324  0.047673773            0   0.49688947    1.5320636    2.0766268   -1.7269157 
11145000   0.94809908 -0.00011118579   0.65280867  0.022823363            0   0.62998531    1.4102974    2.0631061   -1.7320357 
11150000    1.0084858 -1.8971655e-05   0.55569306  0.026609912            0   0.52908314    1.5001227    2.0558157    1.4082499 
11155000    0.9960387 0.00010834366   0.56420151  0.014627228            0   0.54957428    1.4816076    2.0458091    5.7439392 
11160000    1.0083885 -8.9538965e-06   0.54628634   0.01533037            0   0.53095597    1.4999779    2.0462642    1.7406379 
11165000    1.0223604 1.9912453e-05   0.52787117  0.012455433            0   0.51541573     1.520761    2.0486322    2.7283106 
11170000   0.98213493 3.6954353e-05   0.60212071  0.016354893            0   0.58576582    1.4609257    2.0630464    3.3244217 
11175000    0.9860578 3.1112998e-06   0.60003045  0.015703697            0   0.58432676     1.466761    2.0667914    2.1729905 
11180000    1.0351056 -4.2530092e-05    0.5434238  0.022086483            0   0.52133731    1.5397196    2.0831434   0.63144961 
11185000    1.0615234 7.3464163e-05   0.49659286   0.03764353            0   0.45894933    1.5790161    2.0756089    4.5831857 
11190000   0.99544621 0.00018830673   0.58599243  0.032627484            0   0.55336495    1.4807262    2.0667187     8.494255 
11195000    1.0205018 0.00017069912   0.53295596   0.01485046            0    0.5181055    1.5179964    2.0509524    7.8774822 
11200000    1.0406582 4.8644622e-05   0.52378275 0.0090381046            0   0.51474464     1.547979    2.0717618    3.7321648 
11205000     1.048549 3.199955e-05   0.53699677 0.0051484006            0   0.53184837    1.5597166    2.0967133    3.1889646 
11210000     1.020977 0.00013547412   0.54555681 0.0044525653            0   0.54110424    1.5187033    2.0642601    6.6884434 
11215000    1.0763249 0.00011093809   0.46769754  0.018886068            0   0.44881147    1.6010333    2.0687308    5.8554177 
11220000   0.99042548 3.1230407e-05   0.61072759  0.042155621            0   0.56857197    1.4732579    2.0839855    3.1499834 
11225000      1.03766 0.0001249185   0.54249807  0.034554638            0   0.50794343    1.5435193    2.0860173    6.3499021 
11230000    1.0678645 3.7940642e-05   0.51839624  0.028157183            0   0.49023905    1.5884484    2.1068447    3.4018853 
11235000     1.087555 -2.4130677e-05   0.48175131  0.016832222            0   0.46491909    1.6177381    2.0994894     1.275829 
11240000    1.0705131 8.2106084e-05   0.49676175  0.011448585            0   0.48531317    1.5923883      2.08915    4.8917043 
11245000    1.0009977 1.7265668e-05   0.58543361  0.024921453            0   0.56051216    1.4889841    2.0744177    2.6637525 
11250000    1.1162393 -1.6336164e-05   0.41684214  0.020237467            0   0.39660467     1.660406    2.0772482    1.5196404 
11255000    1.0471029 -1.0541565e-05   0.49300496  0.029912935            0   0.46309202    1.5575656    2.0505706    1.6907518 
11260000    1.0261541 -0.00011511937   0.50268334  0.022735285            0   0.47994805    1.5264042    2.0290875   -1.9003202 
11265000    1.0331713 1.2795159e-05   0.48950697  0.028270409            0   0.46123656    1.5368423    2.0263493    2.4630907 
11270000   0.97296946  9.24879e-05   0.57975118  0.046198259            0   0.53355292    1.4472921    2.0270432    5.1839636 
11275000   0.98441775 3.5204355e-05   0.56115591  0.044542009            0    0.5166139    1.4643214    2.0254773    3.2271193 
11280000    1.0483254 8.9568384e-05   0.44598061  0.040432146            0   0.40554846     1.559384    2.0053646    5.0626321 
11285000   0.91828274 0.00017130768   0.63140512  0.073335582            0   0.55806953    1.3659456    1.9973507    7.8446529 
11290000   0.99298362 0.00016080642   0.52980327  0.044325692            0   0.48547758    1.4770631    2.0068664    7.4957257 
11295000    1.0191045 6.8047922e-05   0.51449581  0.020484674            0   0.49401113     1.515918    2.0304138    4.3531162 
11300000    1.0158175 -1.5159875e-05   0.50745494  0.018839691            0   0.48861525    1.5110285    2.0184835    1.5010264 
11305000    1.0277908 -5.8183315e-05   0.50384379  0.022039711            0   0.48180408    1.5288388    2.0326825  0.046692059 
11310000    1.0576237 -9.7959544e-05   0.45871993 0.0042931185            0   0.45442681    1.5732153    2.0319352   -1.3117505 
11315000   0.99844091 6.9817765e-06   0.56520683  0.011592729            0    0.5536141    1.4851809    2.0503877     2.288699 
11320000    1.0245001 6.6843529e-05   0.52332797  0.033147555            0   0.49018042    1.5239439    2.0472719    4.3288643 
11325000    1.0495424 1.5664436e-05   0.47220384  0.012155556            0   0.46004828    1.5611942    2.0333981    2.5680775 
11330000    1.0192345 -3.6786834e-05   0.52999551  0.005927725            0   0.52406778    1.5161113    2.0461068   0.79044953 
11335000    1.0464414 4.0964102e-05   0.47619782  0.016770013            0   0.45942781    1.5565816    2.0327795    3.4310208 
11340000    1.0067438 8.3660042e-05   0.53805819  0.041684168            0   0.49637402    1.4975315    2.0355897    4.8911858 
11345000   0.98578958 -1.8423294e-05   0.57801427  0.025625537            0   0.55238873     1.466362    2.0443763    1.4155278 
11350000    1.0045316 -6.2757665e-05   0.56064165  0.018977083            0   0.54166457    1.4942407    2.0548824 -0.087245892 
11355000     1.003723 2.6100973e-05   0.56801806  0.052821974            0   0.51519608    1.4930379     2.061056    2.9519692 
11360000    1.0128953 -9.6441728e-05   0.53507394  0.038796552            0   0.49627739    1.5066818    2.0417557   -1.2501219 
11365000    1.0288317 3.6489606e-05   0.50792144  0.013444929            0   0.49447651    1.5303872    2.0383086    3.2838205 
11370000    1.0039921 8.092189e-05   0.53549187  0.011047429            0   0.52444444    1.4934383    2.0289302     4.791064 
11375000     1.033274 -0.00017343059   0.49003045  0.023843682            0   0.46618677     1.536995    2.0270255   -3.8927385 
11380000   0.99187562 -0.00014487019    0.5433034  0.015343789            0   0.52795961     1.475415    2.0187184    -2.926184 
11385000   0.99246447  1.43621e-05   0.54602067  0.011685633            0   0.53433504    1.4762909    2.0223116    2.5125379 
11390000    1.0050314 0.00014331009   0.54508859  0.028714002            0   0.51637459    1.4949842    2.0400728    6.9317237 
11395000    1.0336283 -7.1861334e-06   0.50596461  0.037261842            0   0.46870277    1.5375221    2.0434867       1.7982 
11400000    1.0292873 -9.5739468e-05   0.49680513  0.025696053            0   0.47110908    1.5310649      2.02787   -1.2400372 
11405000   0.98184246 -7.5576032e-05   0.58186423    0.0602163            0   0.52164793    1.4604907    2.0423549  -0.53730701 
11410000    1.0367564 -2.1397115e-05    0.4994794  0.021505254            0   0.47797415    1.5421752    2.0416546    1.3112997 
11415000    1.0200382 0.00011264144   0.50953593  0.028014086            0   0.48152185    1.5173068    2.0268428    5.8716707 
11420000    1.0237184 0.0001198027   0.49722493  0.031399288            0   0.46582564    1.5227811     2.020006    6.1092714 
11425000    1.0268194 -0.00010235301   0.49336981 0.0062546521            0   0.48711516    1.5273939    2.0207637   -1.4728858 
11430000   0.98776457 -0.0001088756   0.53115839 0.0047837505            0   0.52637464    1.4692998    2.0004582   -1.7158289 
11435000    1.0188273 -6.6268148e-05   0.48781712  0.015133054            0   0.47268407    1.5155056    2.0033227   -0.2586301 
11440000    1.0119534 -2.9793848e-05   0.50543674  0.035069539            0    0.4703672    1.5052807    2.0107174   0.99375409 
11445000   0.99613733 3.7625024e-05   0.50744748  0.025540074            0   0.48190741    1.4817543    1.9892018    3.2734692 
11450000    1.0061937 5.0187678e-05   0.48691946 0.0095114549            0     0.477408    1.4967131    1.9836326    3.6967053 
11455000    1.0498565 8.2871315e-05   0.42127927  0.013778334            0   0.40750094    1.5616615    1.9829408     4.811615 
11460000   0.97714972 3.0417017e-05   0.50858317  0.020021847            0   0.48856132    1.4535102    1.9620934    3.0003276 
11465000   0.98573274 0.00012041749   0.51648439  0.019507559            0   0.49697683    1.4662774    1.9827618     6.093012 
11470000   0.98314125 9.4954525e-05   0.49860951  0.024943867            0   0.47366565    1.4624226    1.9610321    5.2021466 
11475000    1.0017013 -0.00022827019   0.48999851  0.021358931            0   0.46863958    1.4900307    1.9800292   -5.8115931 
11480000    1.0328794 -9.2499338e-06   0.43938615   0.02693372            0   0.41245243    1.5364081    1.9757942    1.6600631 
11485000    1.0347054 0.00010301753   0.46223474  0.012870811            0   0.44936393    1.5391243     2.001359    5.5176908 
11490000   0.97580125 -5.9030116e-05   0.54796619  0.010892421            0   0.53707377    1.4515044    1.9994706  -0.01542407 
11495000    1.0535688 7.8711287e-05   0.45426587  0.015850672            0    0.4384152    1.5671837    2.0214495    4.7081281 
11500000    1.0652803 8.4695727e-05   0.42995075  0.030061727            0   0.39988902    1.5846044    2.0145552    4.9055027 
11505000     1.013796 -5.8017867e-05   0.51009172  0.026319186            0   0.48377253    1.5080215    2.0181132  0.037770048 
11510000     1.022171 -9.8888767e-05   0.49023154 0.0065134974            0   0.48371804    1.5204794    2.0107109   -1.3646923 
11515000    1.0413755 -7.8784301e-05   0.45712569  0.017565471            0   0.43956022    1.5490461    2.0061718    -0.682999 
11520000    1.0048172 -2.4439824e-05   0.52719009  0.020123505            0   0.50706659    1.4946656    2.0218557    1.1876431 
11525000     1.041523 4.5403986e-07   0.46678987   0.01371193            0   0.45307794    1.5492655    2.0160553    2.0315532 
11530000    1.0239185 -6.3142693e-06   0.50844188  0.017072645            0   0.49136923    1.5230788    2.0315206    1.8159936 
11535000    1.0213686 1.2792613e-05   0.51391895  0.026563714            0   0.48735523    1.5192858    2.0332047    2.4698592 
11540000    1.0389224 1.0544529e-05   0.50742597  0.067721152            0   0.43970482    1.5453971    2.0528231     2.412743 
11545000    1.0709219 -2.1700561e-05   0.45006845  0.030416285            0   0.41965216    1.5929963    2.0430648    1.3023523 
11550000    1.0242988 -4.1227029e-05   0.52904546  0.020580118            0   0.50846534    1.5236445      2.05269   0.64547405 
11555000    1.0473096 5.3339503e-05   0.47358726  0.016642158            0    0.4569451    1.5578731    2.0314603    3.8521154 
11560000    1.0418199 9.294313e-05   0.48246476  0.014806439            0   0.46765832    1.5497071    2.0321718    5.2046306 
11565000    1.0772863 1.2465154e-05   0.43371939 0.0031602704            0   0.43055912    1.6024634    2.0361828      2.46166 
11570000    1.0556352 -7.0449625e-05   0.44237929 0.0062867289            0   0.43609256    1.5702573    2.0126366  -0.39204391 
11575000     1.060395 -7.5042212e-05   0.45485024  0.036255878            0   0.41859436    1.5773375    2.0321878  -0.52925306 
11580000   0.99516647 -7.8490202e-05   0.54516858  0.005134495            0   0.54003408    1.4803101    2.0254787  -0.65365353 
11585000    0.9998039 8.0383384e-05   0.55206596   0.03485258            0   0.51721338    1.4872083    2.0392743    4.7830271 
11590000    1.0025646 0.0001367366   0.50577099  0.030527652            0   0.47524333    1.4913148    1.9970858    6.6643619 
11595000    1.0382483 -2.460521e-05   0.45686383 0.0087140614            0   0.44814977    1.5443943    2.0012582    1.1614003 
11600000     1.062985 -0.00013255952   0.44277445  0.006895614            0   0.43587883    1.5811902    2.0239646   -2.5007337 
11605000    0.9969581 1.1448665e-05   0.53420049  0.022106135            0   0.51209435    1.4829752    2.0171757    2.4079568 
11610000    1.0463188 2.6011163e-06   0.49796264  0.029257459            0   0.46870518    1.5563992    2.0543618    2.1431466 
11615000      1.03378 -7.4988686e-05   0.50979189  0.054744852            0   0.45504704    1.5377477    2.0475396  -0.51207423 
11620000    1.0521272 -0.00012818468   0.46513039 0.0082852518            0   0.45684514    1.5650392    2.0301696   -2.3452006 
11625000    1.0039186 4.4282034e-05   0.53252703    0.0226834            0   0.50984363     1.493329     2.025856    3.5373494 
11630000    1.0980372 0.00019714682   0.40468042  0.021251341            0   0.38342908    1.6333304    2.0380108    8.7672889 
11635000     1.042428 7.3549533e-05   0.48500458  0.011516661            0   0.47348792    1.5506116    2.0356162    4.5461069 
11640000    1.0501215 -7.4618508e-06   0.48981854  0.006002916            0   0.48381562    1.5620558    2.0518743    1.7971765 
11645000    1.0116593 -5.1050379e-05   0.52684913  0.015641436            0   0.51120769    1.5048433    2.0316924   0.28917278 
11650000   0.96759638 -2.8323268e-05   0.59171478  0.010085771            0     0.581629    1.4392996    2.0310144    1.0642468 
11655000    1.0660716 -6.3028064e-05   0.43656895 0.0094268382            0   0.42714212    1.5857816    2.0223505  -0.12900742 
11660000    1.0574095 -3.4137632e-05   0.45997232  0.018254514            0    0.4417178    1.5728966    2.0328689   0.86763774 
11665000     1.047046 -0.00019035165   0.49327406 0.0082358269            0   0.48503823    1.5574809    2.0507549   -4.4465815 
11670000    1.0967945  4.75211e-06   0.43812647 0.0069613064            0   0.43116516    1.6314819    2.0696083    2.2318137 
11675000    1.0185252 6.9193132e-05   0.54302582  0.027399043            0   0.51562678    1.5150563    2.0580821    4.4198744 
11680000    1.0318265 -3.6369618e-05   0.51766655  0.033149962            0   0.48451658    1.5348419    2.0525084   0.81109212 
11685000    1.0533512 0.00010590344   0.49718142  0.055608996            0   0.44157243      1.56686    2.0640414    5.6788788 
11690000    1.0492173 -6.4462975e-05    0.4975981  0.044584335            0   0.45301376    1.5607107    2.0583088  -0.14202743 
11695000    1.0274275 -0.00010726521   0.53185067  0.039825154            0   0.49202551    1.5282984    2.0601491   -1.6011699 
11700000   0.97964953 6.7962667e-05   0.61991341   0.06245334            0   0.55746007    1.4572287    2.0771421    4.3969345 
11705000    1.0413751 4.0571369e-05   0.54502178  0.077232646            0   0.46778914    1.5490455    2.0940673    3.4789033 
11710000    1.1130253 3.6776837e-05   0.46522985  0.029799971            0   0.43542988    1.6556252    2.1208551    3.3761711 
11715000    1.0813454 1.6783413e-06   0.45417695 0.0046590414            0   0.44951791    1.6085012    2.0626782    2.1199656 
11720000    1.0623096 -0.00011164014   0.47623318  0.022490517            0   0.45374266    1.5801855    2.0564186   -1.7542314 
11725000     1.045969 -1.1061807e-05   0.52045224  0.022670033            0   0.49778221    1.5558789    2.0763311    1.6987548 
11730000    1.0884729 0.00010435518   0.44946278 0.0075680549            0   0.44189472    1.6191035    2.0685663    5.6305563 
11735000     1.059746 -1.5518794e-05   0.48882173  0.018044178            0   0.47077755    1.5763721    2.0651938    1.5354857 
11740000    1.0187956 0.0001525976   0.55276361  0.031521406            0    0.5212422    1.5154584     2.068222    7.2768867 
11745000     1.039367 0.00012413926   0.51672988  0.028653983            0   0.48807589    1.5460584    2.0627882     6.300075 
11750000    0.9728639 -0.00014305892   0.61988401  0.056810234            0   0.56307377    1.4471351    2.0670191   -2.8160589 
11755000     1.093813 -3.3641638e-05   0.43238398   0.01905941            0   0.41332457    1.6270469    2.0594308    0.9111296 
11760000    1.0046297 1.1007897e-05   0.52321619  0.031386891            0    0.4918293    1.4943866    2.0176028     2.393339 
11765000    1.0124566 7.2557153e-05   0.52166931  0.025560499            0   0.49610882    1.5060292    2.0276986    4.5043161 
11770000    1.0478055 7.1715667e-05   0.47520016  0.016249475            0   0.45895068    1.5586107    2.0338109    4.4817056 
11775000    1.0012192 1.1401307e-05   0.53309121  0.019283889            0   0.51380732    1.4893135    2.0224047    2.4115693 
11780000    1.0542805 2.0434462e-05   0.42668816  0.019046026            0   0.40764214    1.5682423    1.9949305    2.6924268 
11785000   0.96756084 2.9911463e-05   0.53771346  0.011469927            0   0.52624353    1.4392467    1.9769602    2.9979381 
11790000    1.0515743 -8.282176e-06    0.4267734  0.010756536            0   0.41601687    1.5642168    1.9909902     1.708292 
11795000    1.0223049 -5.031725e-05   0.47090665 0.0062506958            0   0.46465595    1.5206786    1.9915852   0.27408974 
11800000   0.98958984 6.738684e-05   0.51251677 0.0011975081            0   0.51131926    1.4720149    1.9845317    4.2846691 
11805000   0.93583457 5.4052485e-05   0.57402004 0.0018753029            0   0.57214474    1.3920539     1.966074    3.8110655 
11810000    1.0287725 -6.4007379e-05   0.43185107  0.009185636            0   0.42266544    1.5302991    1.9621502  -0.22263499 
11815000   0.98468215 -4.4077774e-05   0.50521871  0.063101133            0   0.44211758    1.4647147    1.9699334   0.46541204 
11820000   0.93022744 5.7725077e-05   0.59227178  0.022795905            0   0.56947587    1.3837133    1.9759851    3.9463344 
11825000    1.0559314 0.00010572919   0.42624166  0.010325535            0   0.41591612    1.5706979    1.9969396    5.6058293 
11830000   0.97076221 0.00013899879   0.56391089  0.002919579            0   0.56099131    1.4440088    2.0079197    6.7524117 
11835000    1.0550675 0.00014162587    0.4408117 0.0099236796            0   0.43088802    1.5694129    2.0102246    6.8443876 
11840000   0.99727007 1.4655555e-05   0.54982477  0.025563763            0   0.52426101    1.4834392     2.033264    2.5335069 
11845000    1.0446336 -0.00012530032   0.48095816  0.038589807            0   0.44236836    1.5538925    2.0348507   -2.2420668 
11850000   0.98957962 6.1342636e-05   0.56626454  0.015937122            0   0.55032742    1.4719997    2.0382642    4.1320929 
11855000      1.00844 0.00011465304   0.53201845  0.010363086            0   0.52165536    1.5000546     2.032073    5.9455633 
11860000   0.99313059 -8.1748511e-05   0.57258878  0.022231547            0   0.55035723    1.4772818    2.0498705  -0.74047866 
11865000   0.96824766 -0.00012380727   0.62865168  0.020076991            0   0.60857469    1.4402684    2.0689201   -2.1570347 
11870000     1.125893 -0.00022928151   0.43106406  0.017713482            0   0.41335058    1.6747659    2.1058299   -5.7203121 
11875000    1.0497267 8.5414498e-05   0.53677937  0.028639584            0   0.50813979    1.5614685    2.0982479    5.0137294 
11880000    1.0592439 0.00022056959   0.54469843  0.036778443            0   0.50791998    1.5756253    2.1203238    9.6490991 
11885000    1.0372002 -3.4131953e-05   0.54594696  0.016370762            0   0.52957619    1.5428353    2.0887823   0.92374493 
11890000    1.0349528 -6.4842469e-05   0.54973368  0.014578721            0   0.53515496    1.5394923    2.0892259  -0.12406368 
11895000    1.0474847 -5.8644022e-05   0.54699196  0.010142819            0   0.53684914    1.5581334    2.1051254   0.10340943 
11900000    1.0385795 0.00014442206   0.57443915 0.0067567484            0    0.5676824     1.544887    2.1193261    7.0489326 
11905000    1.0062081 -4.1351788e-05   0.63462562  0.010194122            0    0.6244315    1.4967345    2.1313601   0.71988575 
11910000    1.0771739 -0.00016955772   0.52317821  0.011629171            0   0.51154904    1.6022962    2.1254744   -3.6620959 
11915000    1.0362489 4.5692126e-05    0.5616368  0.011000561            0   0.55063623    1.5414203    2.1030571    3.6626816 
11920000   0.99461995 4.1885829e-05   0.59965848  0.021179064            0   0.57847941    1.4794972    2.0791557    3.5088586 
11925000    1.0059377 1.0236011e-05   0.59406021  0.049311123            0   0.54474909    1.4963324    2.0903926    2.4397817 
11930000     1.018665 -0.00010248275   0.57590962  0.037220882            0   0.53868873    1.5152642    2.0911738    -1.406904 
11935000    0.9941679 9.4821743e-05   0.62629885  0.054571206            0   0.57172765    1.4788248    2.1051236    5.3417058 
11940000    1.0086159 -7.6892562e-05   0.59766029   0.03598679            0    0.5616735    1.5003161    2.0979764  -0.52662307 
11945000    1.0087414 0.00014548616   0.61799435  0.029892084            0   0.58810227    1.5005029    2.1184972    7.0844247 
11950000    1.0555933 0.00010679081   0.55360493  0.018411046            0   0.53519389     1.570195       2.1238    5.7689264 
11955000     1.031676 4.7232064e-05   0.58238309  0.016873461            0   0.56550963     1.534618    2.1170011    3.7291888 
11960000    1.0544619 5.4741792e-05   0.55164694  0.042631155            0   0.50901579    1.5685121     2.120159    3.9886788 
11965000    1.0807501 -0.0001405971    0.5016293   0.04069942            0   0.46092988    1.6076157     2.109245   -2.6898026 
11970000    1.0067556 -6.1849584e-05   0.59919302  0.027274333            0   0.57191868     1.497549     2.096742 -0.014390423 
11975000   0.99588054 -0.00012083962   0.62172029  0.013789952            0   0.60793033    1.4813723    2.1030926   -2.0215665 
11980000    1.0684458 6.2411752e-05   0.50996612 0.0090918201            0    0.5008743    1.5893132    2.0992793    4.2296004 
11985000    1.1007856 3.5614405e-05   0.46734716  0.025046643            0   0.44230052    1.6374186    2.1047657    3.3204041 
11990000   0.95928019 -5.085408e-05   0.67136336  0.067841673            0   0.60352168    1.4269293    2.0982926   0.36247338 
11995000   0.99700247 0.00010737222     0.618123  0.025485935            0   0.59263707    1.4830412    2.1011642    5.7661358 
12000000    1.0845682 -7.4326446e-05   0.49986686  0.017822287            0   0.48204457    1.6132952    2.1131621  -0.42384728 
12005000    1.0285701 -0.00010771328   0.59397065  0.046811929            0   0.54715872     1.529998    2.1239686   -1.5526448 
12010000    1.0529041 4.8935105e-05   0.55948926  0.016160038            0   0.54332922    1.5661949    2.1256841    3.7960024 
12015000    1.0849829 -4.7168072e-05   0.54627214 0.0067757488            0   0.53949639     1.613912    2.1601842   0.55018063 
12020000    1.1138529 1.1756474e-05   0.50739216 0.0095123478            0   0.49787981    1.6568562    2.1642484    2.5655361 
12025000    1.1032542 5.8469222e-05   0.50857103 0.0089136378            0   0.49965739    1.6410907    2.1496617    4.1454111 
12030000    1.0087883 -3.4165678e-05   0.63240973   0.02563236            0   0.60677737    1.5005725    2.1329823   0.96679381 
12035000    1.0537379 3.5624341e-05   0.57461651  0.056376001            0   0.51824051    1.5674352    2.1420517    3.3580292 
12040000     1.099094 2.9399227e-05   0.52610456  0.039922928            0   0.48618163    1.6349023    2.1610069    3.1645005 
12045000    1.0006442 -3.9483786e-05   0.67369108  0.068414123            0   0.60527696    1.4884583    2.1621494   0.81443614 
12050000    1.0716169  3.15586e-05   0.56665374  0.017230829            0   0.54942291    1.5940301    2.1606839    3.2378841 
12055000    1.1210736 -6.4444526e-06   0.49989117   0.01215615            0   0.48773502     1.667597    2.1674882    1.9475175 
12060000     1.071418 1.2466445e-05   0.56829781  0.019044672            0   0.54925313    1.5937343    2.1620321    2.5875534 
12065000    1.0168467 2.307298e-05   0.61774389   0.01708408            0   0.60065981    1.5125595    2.1303034    2.9178611 
12070000    1.0788259 -6.6186929e-05   0.53481486  0.028946959            0    0.5058679    1.6047535    2.1395683  -0.11961218 
12075000    1.0552504 -1.3287276e-05   0.56794446  0.042552955            0    0.5253915    1.5696849    2.1376294    1.6840904 
12080000     1.012158 7.6583016e-05   0.63948921   0.02050333            0   0.61898588     1.505585    2.1450743    4.7591079 
12085000    1.0964599 7.4116374e-05   0.52011109  0.019731524            0   0.50037957    1.6309842    2.1510952    4.6809341 
12090000    1.0554393 2.8333947e-05   0.57921858 0.0077308012            0   0.57148778    1.5699659    2.1491845    3.1163166 
12095000    1.0596486 -5.3696902e-05   0.56245656  0.016100948            0   0.54635561    1.5762273    2.1386839   0.30582963 
12100000     1.010127 -1.0657697e-05   0.63686832  0.012143007            0   0.62472532     1.502564    2.1394323    1.7756496 
12105000      1.08941 7.5204369e-06   0.49483335 0.0053526087            0   0.48948074    1.6204974    2.1153307    2.3720283 
12110000    1.0809482 -8.6705052e-05   0.52541577  0.011912774            0     0.513503    1.6079104    2.1333262  -0.82620629 
12115000    1.0218885 -1.0358105e-05   0.62583196  0.036338914            0   0.58949304    1.5200592    2.1458912    1.7923345 
12120000    1.0160638 0.00010169457   0.62686036  0.039121872            0   0.58773849    1.5113949    2.1382553    5.6094299 
12125000    1.1170872 0.00015072653   0.48230845  0.017945542            0    0.4643629    1.6616672    2.1439756    7.2887745 
12130000    1.0746439 -2.5314307e-05   0.51258676 0.0044556211            0   0.50813114    1.5985328    2.1111196    1.2470579 
12135000    0.9956353 -0.00010019294   0.63157045 0.0020355853            0   0.62953486    1.4810075     2.112578   -1.3073409 
12140000    1.0882889 9.1842118e-06   0.47637494  0.001689428            0   0.47468551    1.6188297    2.0952047    2.4086924 
12145000    1.0650633 1.737103e-05    0.5327429  0.016152621            0   0.51659028    1.5842817    2.1170246    2.7099558 
12150000    1.0048425 -7.4732412e-05    0.6202136  0.035394794            0   0.58481881    1.4947033    2.1149169  -0.43594949 
12155000    1.0449322 -9.5384133e-05   0.55164917 0.0071594611            0    0.5444897    1.5543367    2.1059859   -1.1497925 
12160000     1.029359 3.7610674e-05   0.54561205 0.0081919597            0   0.53742009    1.5311715    2.0767835    3.3605612 
12165000   0.96698816 -2.3584461e-05   0.61460341   0.03217734            0   0.58242607    1.4383949    2.0529983     1.247982 
12170000    0.9970723 6.3098434e-05   0.55775848  0.023765101            0   0.53399338     1.483145    2.0409035    4.1946634 
12175000   0.98334034 -4.7713416e-06   0.57484807  0.012020312            0   0.56282776    1.4627188    2.0375668     1.874705 
12180000   0.98655987 -6.7684242e-05   0.57026781  0.025702148            0   0.54456566    1.4675078    2.0377756  -0.27251319 
12185000   0.91565183 -8.5536179e-05   0.68704946 0.0072161432            0   0.67983332    1.3620321    2.0490816  -0.87055335 
12190000    1.0072622 4.2897397e-05   0.55723218 0.0085575601            0   0.54867462    1.4983026    2.0555348    3.5197659 
12195000   0.98587233 -0.00016637561   0.58278112  0.021172472            0   0.56160864    1.4664851    2.0492662    -3.629688 
12200000   0.98406454 -0.00024207095   0.58506787  0.010606647            0   0.57446123     1.463796    2.0488639   -6.2138245 
12205000     1.030472 -3.9856127e-05   0.52666559  0.005888708            0   0.52077688    1.5328272    2.0594928   0.69907029 
12210000    1.0449775 0.00014365101   0.48446239 0.0045620448            0   0.47990035    1.5544041    2.0388664    6.9421541 
12215000    0.9094113 4.9851077e-05   0.68532006  0.011799123            0   0.67352094    1.3527493    2.0380694    3.7396528 
12220000   0.98472162 2.1338577e-05   0.57836548  0.037191883            0   0.54117359    1.4647734    2.0431389    2.7714956 
12225000   0.97580298 -2.6392009e-05   0.57132188  0.033494215            0   0.53782767    1.4515069    2.0228288    1.1219816 
12230000   0.94099334 -6.9253636e-05   0.61530933  0.016292047            0   0.59901729    1.3997276    2.0150369  -0.34882052 
12235000   0.95445393 -4.8704712e-06   0.58567762   0.01616141            0   0.56951621    1.4197502    2.0054278    1.8391824 
12240000     1.000384 -0.0001243773   0.52322833  0.012395687            0   0.51083264    1.4880713    2.0112996   -2.2341122 
12245000   0.93277529 6.9527739e-05   0.63143831 0.0017807074            0    0.6296576    1.3875032    2.0189416     4.392155 
12250000   0.96614974 0.00023660459   0.60109976 0.0014403653            0   0.59965939    1.4371477    2.0382475    10.114351 
12255000   0.98085409 -1.241865e-05   0.58358784 0.0020319993            0   0.58155584    1.4590205    2.0426083    1.6187184 
12260000    1.0525912 -9.8403623e-05    0.4800505 0.0054788545            0   0.47457165    1.5657294    2.0457799   -1.3130637 
12265000    1.0096381 -8.0159398e-05    0.5600138  0.016108363            0   0.54390544    1.5018367    2.0618505  -0.67425695 
12270000    0.9917341 -8.0548166e-05   0.59616694  0.014870197            0   0.58129674    1.4752045    2.0713714  -0.67800599 
12275000    1.0203432 -2.4110877e-05   0.54274091  0.029487208            0    0.5132537    1.5177606    2.0605015    1.2375169 
12280000   0.99801387 6.7592088e-05   0.57946437  0.029679968            0    0.5497844    1.4845456      2.06401    4.3711533 
12285000    1.0372911 -6.5374551e-06   0.54801654  0.048330487            0   0.49968605    1.5429704     2.090987    1.8678418 
12290000   0.95920904 7.6273556e-05   0.66376503  0.035603349            0   0.62816168    1.4268235    2.0905885    4.6940592 
12295000   0.99050502 0.00011790519   0.62171127  0.012347607            0   0.60936367    1.4733762    2.0950875    6.1195848 
12300000    1.0140393 4.6578612e-05   0.56837656  0.022626749            0   0.54574981    1.5083835      2.07676    3.6666433 
12305000    0.9428191 0.00016193725   0.67002046  0.039457063            0    0.6305634    1.4024434    2.0724639    7.5999219 
12310000   0.98012569 5.1304248e-05   0.60502445  0.028596584            0   0.57642786     1.457937    2.0629614    3.8141464 
12315000    0.9816125 -1.9325396e-05   0.59224187  0.040787786            0   0.55145409    1.4601486    2.0523905    1.3927503 
12320000   0.90326243 0.00012957141   0.70974455  0.035197596            0   0.67454696    1.3436029    2.0533474    6.4760515 
12325000    1.0149959 8.3834202e-05   0.54152523  0.019015754            0   0.52250948    1.5098064    2.0513316    4.9128724 
12330000   0.96416098 -5.4982013e-05   0.61388609 0.0084233954            0    0.6054627    1.4341895    2.0480756   0.17135618 
12335000   0.99329144 -9.7738834e-05   0.53923426 0.0077234914            0   0.53151077     1.477521    2.0167553   -1.3193969 
12340000    1.0071199 1.5464442e-05   0.50135882  0.011518656            0   0.48984017    1.4980909    1.9994497    2.5273027 
12345000    1.0039689 -6.2550144e-05   0.47780882  0.043475943            0   0.43433287    1.4934037    1.9712125  -0.16383237 
12350000   0.94840673 1.7252816e-06   0.55932677  0.026931741            0   0.53239503     1.410755    1.9700818    2.0289714 
12355000   0.94655976 0.0001901745   0.54881421  0.031630176            0   0.51718403    1.4080077    1.9568219    8.4481114 
12360000   0.92221895 0.00010724996   0.60816011 0.0096130177            0   0.59854709    1.3718007    1.9799608    5.6407595 
12365000   0.98832774 -5.4778146e-05   0.50601284  0.024641937            0    0.4813709    1.4701375    1.9761504   0.10638962 
12370000   0.98434882 -1.3534313e-06   0.49660511  0.023174446            0   0.47343066    1.4642189     1.960824    1.9146269 
12375000   0.94928251 -1.4037811e-05   0.53260562  0.010534027            0   0.52207159    1.4120577    1.9446634    1.4655061 
12380000   0.93486817 -0.00019573947   0.55833773  0.018472454            0   0.53986527    1.3906164    1.9489541   -4.7322866 
12385000   0.98065569 2.7603473e-05   0.48579493  0.028043768            0   0.45775116    1.4587253    1.9445203    2.8867188 
12390000   0.93366051 9.3175224e-05    0.5481109  0.024193763            0   0.52391714      1.38882    1.9369309    5.1173119 
12395000   0.91977693 0.00012274592   0.55959732 0.0086208654            0   0.55097646    1.3681682    1.9277655    6.1174929 
12400000   0.89863867 -2.995498e-05    0.5770576  0.015809099            0    0.5612485     1.336725    1.9137826   0.89131931 
12405000   0.92612702 -0.00021547789   0.53660762 0.0088016105            0   0.52780601    1.3776139    1.9142216    -5.440757 
12410000   0.94009299 -7.5609341e-05   0.52237108 0.0057773181            0   0.51659376    1.3983883    1.9207594  -0.66003944 
12415000   0.93075096 -5.2660406e-05   0.53982388  0.012687819            0   0.52713606     1.384492    1.9243159   0.12684073 
12420000   0.88124172 2.0160856e-05   0.60330794  0.021567841            0    0.5817401    1.3108471     1.914155    2.6023122 
12425000   0.92001085  4.87457e-05   0.53166891  0.012610937            0   0.51905797    1.3685161     1.900185    3.5640383 
12430000   0.87363347 -7.1230548e-05   0.59992244  0.013457287            0   0.58646516    1.2995298    1.8994522  -0.53188383 
12435000   0.96654548 -1.4068621e-05   0.47997757   0.01497682            0   0.46500075    1.4377364     1.917714     1.437505 
12440000   0.88490709 -7.710294e-07   0.59693464   0.02874087            0   0.56819377    1.3162993    1.9132339    1.8869161 
12445000   0.90682137 -0.00015467743   0.56993156  0.029911632            0   0.54001993    1.3488968    1.9188284   -3.3608279 
12450000   0.91581465 -8.0154249e-05   0.57365718  0.036208696            0   0.53744848    1.3622743    1.9359315  -0.80000023 
12455000   0.90784005 0.0001302456   0.56291623   0.03788608            0   0.52503015    1.3504121    1.9133283    6.3590447 
12460000   0.91683769 6.5164115e-05   0.53404602  0.026924231            0   0.50712179    1.3637961    1.8978421    4.1221106 
12465000   0.92506473 -9.1651191e-05    0.5351792 0.0073551302            0   0.52782407    1.3760338     1.911213   -1.2171477 
12470000   0.96129629 -7.9567409e-05   0.48771566 0.0012726523            0     0.486443    1.4299282    1.9176439  -0.79825702 
12475000   0.88811109 -1.5722823e-05   0.58559891 0.0016457565            0   0.58395315    1.3210652    1.9066642    1.3699918 
12480000   0.89667778 -0.00011459947   0.57716314  0.009991548            0    0.5671716    1.3338082    1.9109713   -2.0006906 
12485000   0.93009008 -4.3263687e-05   0.52212399  0.015376417            0   0.50674758     1.383509     1.905633   0.42889912 
12490000   0.94613297 0.00014384157   0.47885659   0.02425847            0   0.45459812    1.4073728    1.8862294    6.7960216 
12495000   0.87683143 0.00011366709   0.57742172  0.016768884            0   0.56065284    1.3042868    1.8817085     5.761545 
12500000   0.86660934 2.0814821e-05   0.59707474  0.012946976            0   0.58412776    1.2890814    1.8861561    2.5966354 
12505000   0.91407166 9.2199889e-05   0.54288705  0.010957969            0   0.53192908    1.3596816    1.9025687    5.0496582 
12510000   0.87694179 0.00011486496   0.58819738 0.0074994577            0   0.58069792    1.3044509    1.8926483    5.8133721 
12515000   0.89619997 -3.677481e-05   0.57467737  0.020368564            0    0.5543088    1.3330975    1.9077748   0.65252795 
12520000   0.94091606 4.4942978e-05   0.48683045  0.019539764            0   0.46729069    1.3996126    1.8864431    3.4204968 
12525000    0.8145914 -1.1941178e-05   0.67359367  0.009212652            0   0.66438102    1.2117047    1.8852984    1.4777062 
12530000   0.89163549 -0.00020328372   0.57631598 0.0027806086            0   0.57353537    1.3263078    1.9026238   -5.0361272 
12535000   0.94578139 -3.5074896e-05   0.48069419 0.0075590553            0   0.47313513    1.4068498     1.887544   0.69032088 
12540000   0.87526307 1.5392745e-05   0.57040408  0.012288043            0   0.55811604    1.3019538    1.8723579    2.3977636 
12545000   0.91356985 -0.00012515774   0.52972537  0.034387169            0    0.4953382    1.3589351    1.8886605   -2.3833903 
12550000    0.8974555 -8.7209665e-05   0.53081946  0.056039567            0   0.47477989     1.334965    1.8657845   -1.1109721 
12555000   0.94602493 3.0179783e-05   0.45730376   0.01848069            0   0.43882307    1.4072121    1.8645158    2.8946525 
12560000   0.88868695 -6.1737762e-06   0.52744253 0.0087586494            0   0.51868388    1.3219218    1.8493644    1.6386328 
12565000   0.90475248 9.7682671e-05   0.51629425 0.0083339651            0   0.50796029    1.3458193    1.8621136    5.1963488 
12570000   0.86758372 3.5880246e-05   0.57659011  0.011302077            0   0.56528803    1.2905308    1.8671209    3.0918333 
12575000   0.87395946 4.0468263e-05   0.58771572  0.017954501            0   0.56976122    1.3000147    1.8877304    3.2690471 
12580000    0.9770257 0.00020080876   0.45188751  0.011675535            0   0.44021197    1.4533257    1.9052132    8.7594857 
12585000   0.84675573 3.1089871e-06   0.63098489  0.013496817            0   0.61748807    1.2595491     1.890534    1.9966541 
12590000   0.92135048 -0.00011665568    0.5259475  0.010892185            0   0.51505531    1.3705088    1.8964563   -2.0853909 
12595000    0.8984779 -0.00017503165   0.56377179 0.0062898931            0   0.55748189    1.3364859    1.9002577   -4.0741559 
12600000   0.93643839 8.8084293e-05   0.52031105  0.010583995            0   0.50972706    1.3929521    1.9132632    4.9198737 
12605000   0.95282422 -3.5963029e-05   0.50884818  0.018246916            0   0.49060126     1.417326    1.9261742   0.69863616 
12610000   0.90412663 -3.725785e-05   0.57964435  0.019779534            0   0.55986482    1.3448884    1.9245327   0.65279811 
12615000   0.96134438 0.00012713654   0.52275793 0.0046350929            0   0.51812284    1.4299998    1.9527577    6.2923517 
12620000   0.96914313 5.2086675e-05   0.52234054  0.001292229            0   0.52104831    1.4416004    1.9639409    3.7418328 
12625000    1.0010835 5.3230153e-05    0.4896742  0.032068908            0   0.45760529    1.4891116    1.9787858    3.7957084 
12630000   0.93298051 -0.00022374575   0.60496088  0.046452579            0    0.5585083    1.3878085    1.9927694    -5.644419 
12635000    1.0470566 -0.0001147301   0.45624217 0.0093903591            0   0.44685181    1.5574967    2.0137389    -1.902382 
12640000    1.0084105 7.5961385e-05   0.53803301   0.01018148            0   0.52785153    1.5000107    2.0380437    4.6308589 
12645000    1.0125634 2.9232924e-05   0.56419223 0.0081974943            0   0.55599473    1.5061881    2.0703803    3.0681975 
12650000    1.0650716 2.6462255e-05   0.49719187 0.0096187928            0   0.48757307    1.5842941    2.0814859    2.9847309 
12655000    0.9781182 9.5526827e-05   0.60615919  0.035036373            0   0.57112282    1.4549508      2.06111     5.321759 
12660000    1.0391405 3.8362872e-05   0.53475337  0.017157765            0    0.5175956    1.5457215    2.0804749    3.3899276 
12665000    1.0650093 0.00014666186   0.50578257  0.011244279            0   0.49453829    1.5842014     2.089984    7.0960422 
12670000    1.0141583 -7.7234843e-06   0.57217342  0.035707609            0   0.53646581    1.5085604    2.0807338    1.8171056 
12675000    1.0114313 -0.00018821307   0.58886104  0.028042827            0   0.56081821     1.504504     2.093365   -4.3309744 
12680000     1.083333 2.8291812e-05   0.50581963  0.015023437            0   0.49079619    1.6114578    2.1172774    3.0829712 
12685000    1.0249716 2.8193399e-05   0.58337268  0.027136876            0    0.5562358    1.5246452    2.1080179    3.0703526 
12690000    1.0220653 1.2391064e-05   0.56554345  0.019573854            0   0.54596959    1.5203222    2.0858656     2.508814 
12695000   0.95841109 0.00022022436   0.64039663  0.012949452            0   0.62744718    1.4256365    2.0660331    9.5830247 
12700000   0.97741717 8.0798468e-05   0.58920635  0.044576568            0   0.54462978     1.453908    2.0431144    4.8010354 
12705000   0.93712427 -0.00017142879   0.64999274  0.021345424            0   0.62864732    1.3939723    2.0439651    -3.807471 
12710000   0.99288797 -9.4002695e-05    0.5816141 0.0049320693            0   0.57668203    1.4769209     2.058535   -1.1500904 
12715000    1.0217825 7.8022094e-05   0.52793776 0.0084762074            0   0.51946156    1.5199015    2.0478393    4.7109934 
12720000    1.0353767 -2.8925071e-05   0.51839537 0.0050714709            0   0.51332389    1.5401229    2.0585182    1.0712091 
12725000    1.0263212 -0.000153399   0.55442216 0.0086325227            0   0.54578963    1.5266527    2.0810749   -3.1549444 
12730000     1.079631 0.00016941664   0.47929623  0.014663218            0   0.46463302    1.6059511    2.0852474    7.8680019 
12735000    1.0429174 0.00022360447   0.52340495  0.018992614            0   0.50441233    1.5513396    2.0747445    9.7071104 
12740000    1.0175905 2.0718337e-05   0.55474385  0.018055984            0   0.53668787    1.5136659    2.0684098    2.7755957 
12745000    1.0424243 3.9206933e-05   0.50842701  0.017374434            0   0.49105257    1.5506062    2.0590332    3.3972965 
12750000    1.0148261 9.2944626e-05   0.55650743  0.022046549            0   0.53446088    1.5095538    2.0660612    5.2385711 
12755000    1.0449442 0.00011015675   0.50047359   0.01281704            0   0.48765655    1.5543545    2.0548281    5.8148453 
12760000     1.071357 -3.6719488e-05    0.4795478 0.0095035838            0   0.47004422    1.5936435    2.0731913   0.81983274 
12765000    1.0659741 -0.00011815308   0.47438075  0.016998475            0   0.45738228    1.5856365    2.0600172   -1.9729414 
12770000    1.0445191 -8.8168442e-05   0.48768911  0.026537712            0    0.4611514    1.5537222    2.0414113  -0.96807151 
12775000    1.0095975 -1.5608222e-05    0.5420524  0.029503738            0   0.51254867    1.5017763    2.0438287    1.5110681 
12780000    1.0197391 -5.8310229e-05   0.51719264  0.018522265            0   0.49867037    1.5168619    2.0340545  0.043732056 
12785000    1.0055222 -6.2783698e-05   0.54035965  0.011320315            0   0.52903933    1.4957142    2.0360739  -0.10694302 
12790000     1.024113 7.4180595e-05    0.5251582 0.0068961429            0   0.51826206    1.5233681    2.0485263    4.5805573 
12795000    1.0326181 4.2269261e-05   0.49554343 0.0088300649            0   0.48671336    1.5360194    2.0315628    3.4743536 
12800000     1.059062 8.8349097e-05   0.46411438  0.024169774            0   0.43994461    1.5753547    2.0394691    5.0551183 
12805000   0.95789969 0.00010548904   0.60937973  0.018979877            0   0.59039985    1.4248758    2.0342555    5.6349482 
12810000    1.0086172 -6.4806867e-05   0.58927493  0.028988803            0   0.56028613     1.500318     2.089593  -0.12248145 
12815000    1.0417526 3.5808045e-05   0.55484048  0.058560188            0   0.49628029     1.549607    2.1044475    3.3266955 
12820000    1.0813737 8.6222521e-05   0.48760825  0.042869846            0    0.4447384    1.6085434    2.0961517    5.0392137 
12825000     1.073854 -4.8902401e-06   0.47876187   0.02916528            0   0.44959659    1.5973578    2.0761196    1.9091994 
12830000    1.0058427 1.8945059e-06   0.55900076   0.02287797            0   0.53612279     1.496191    2.0551918    2.1198576 
12835000    0.9858572 -0.00014294873   0.60913145   0.04507482            0   0.56405663    1.4664626     2.075594   -2.8037227 
12840000    1.0490033 -6.8564619e-05   0.49083569  0.039972306            0   0.45086339    1.5603924    2.0512281  -0.28911089 
12845000    1.0255631 -3.9834129e-05   0.52300366  0.026658335            0   0.49634532     1.525525    2.0485287   0.68885711 
12850000    1.0326466 -0.00016528397   0.51934141 0.0054092824            0   0.51393213    1.5360618    2.0554032   -3.5862895 
12855000    1.0054158 -4.9848943e-05   0.52474579  0.012745539            0   0.51200025     1.495556    2.0203018   0.31879124 
12860000   0.97242109 0.00010317636   0.53995562  0.018281346            0   0.52167428    1.4464764     1.986432    5.5081852 
12865000   0.97394549 -2.2347086e-05   0.53444535  0.019619602            0   0.51482575    1.4487439    1.9831893    1.2204087 
12870000   0.99936995 -6.9070079e-05    0.4894599  0.010904935            0   0.47855497    1.4865628    1.9760227  -0.38156933 
12875000   0.97828496 0.00013611435   0.52760002  0.021426093            0   0.50617392    1.4551989    1.9827989    6.6288353 
12880000   0.99709426 0.00017747624   0.48703403  0.030624604            0   0.45640943    1.4831777    1.9702117    8.0280674 
12885000    0.9168999 -4.763811e-05   0.58754441  0.012493866            0   0.57505054    1.3638886     1.951433   0.32538553 
12890000    1.0175387 -0.00011674148   0.42132366 0.0042819505            0   0.41704171    1.5135887    1.9349124   -2.0498636 
12895000    1.0158505 -2.2397423e-05   0.42497957  0.018369098            0   0.40661047    1.5110777    1.9360573    1.1715585 
12900000   0.95015707 6.9435312e-05   0.51368855  0.034916403            0   0.47877215    1.4133586    1.9270472    4.2971059 
12905000   0.95458598 -6.1947025e-05   0.53235263  0.020309906            0   0.51204273    1.4199466    1.9522993  -0.16215915 
12910000   0.94638161 -0.00015809365   0.56158093  0.014004366            0   0.54757656    1.4077426    1.9693236   -3.4269398 
12915000    1.0183558 8.6621181e-05   0.45420715  0.019741745            0   0.43446541    1.5148043    1.9690115    4.9256811 
12920000   0.96231544 -1.2049978e-05   0.53540467  0.010330469            0    0.5250742    1.4314442    1.9668489     1.555543 
12925000    1.0308168 -8.0811845e-05     0.461536  0.027487465            0   0.43404853      1.53334     1.994876  -0.76350167 
12930000   0.96774745 0.00011364183   0.54463121  0.044185744            0   0.50044546    1.4395243    1.9841555    5.8631301 
12935000     0.980543 8.1211628e-05   0.55155919  0.035420516            0   0.51613867    1.4585577    2.0101169    4.7821405 
12940000   0.96703197 1.4942098e-05   0.58746875  0.027663531            0   0.55980522    1.4384601    2.0259288    2.5359524 
12945000   0.99432871 8.1846142e-05   0.53267586  0.049908604            0   0.48276726     1.479064    2.0117398    4.8054215 
12950000   0.98302006 7.489308e-05   0.57068182  0.017994258            0   0.55268756    1.4622423    2.0329242    4.5892746 
12955000    1.0002304 5.5614525e-05   0.54807135 0.0099117644            0   0.53815959    1.4878428    2.0359141    3.9342232 
12960000   0.97723068 -0.0001032041    0.5651394    0.0431485            0    0.5219909    1.4536306      2.01877   -1.5039298 
12965000    1.0442458 -3.6695714e-05   0.47177847  0.040083565            0   0.43169491    1.5533157    2.0250942   0.77254713 
12970000    1.0475538 1.9157012e-05   0.50079429  0.011727309            0   0.48906698    1.5582362    2.0590305    2.7129232 
12975000    1.0777695 0.00013367558   0.43897347  0.032289759            0   0.40668371    1.6031821    2.0421556    6.6049488 
12980000   0.96897917 9.5202116e-05   0.60884309  0.033709944            0   0.57513315    1.4413565    2.0501996    5.2997652 
12985000    1.0472305 -0.00014134545   0.51614849  0.033755486            0     0.482393    1.5577553    2.0739038   -2.7506875 
12990000    1.0673767 -0.0002352837   0.49978217  0.037791683            0   0.46199048    1.5877229    2.0875051   -5.9435117 
12995000    1.0706445 8.3844302e-05   0.50720176 0.0047458417            0   0.50245592    1.5925837    2.0997855     4.961671 
13000000    1.1147685 0.00018875946   0.42614508 0.0052349177            0   0.42091017    1.6582182    2.0843633    8.5273529 
13005000    1.0503893 6.6219467e-05   0.52572714  0.015907791            0   0.50981935     1.562454    2.0881812    4.3484723 
13010000    1.0727669 8.1611538e-06   0.50455606  0.010649596            0   0.49390647    1.5957407    2.1002968    2.3788641 
13015000    1.0041175 -5.967675e-05   0.60059846 0.0097151637            0   0.59088329    1.4936248    2.0942233  0.057256884 
13020000    1.0692762 -7.6558864e-05   0.51798727  0.040980588            0   0.47700668    1.5905483    2.1085356   -0.5046736 
13025000    1.0600053 -4.8196419e-05   0.53336585  0.027146865            0   0.50621899    1.5767579    2.1101238   0.46501935 
13030000    1.0459663 2.406929e-05   0.53839795  0.011956296            0   0.52644166    1.5558749    2.0942729     2.915838 
13035000    1.0429992 1.3973752e-05    0.5657787  0.030515311            0   0.53526339    1.5514613      2.11724    2.5942107 
13040000     1.117043 5.2752415e-05    0.4558161  0.035193817            0   0.42062228    1.6616015    2.1174176    3.9180334 
13045000    1.0060718 2.929909e-05   0.61513467  0.023215894            0   0.59191877    1.4965318    2.1116664     3.111742 
13050000    1.0323442 -6.6325174e-05   0.60359493  0.017256992            0   0.58633794    1.5356119    2.1392069  -0.12469239 
13055000    1.0060961 3.167189e-05   0.65216169  0.035331951            0   0.61682974    1.4965679    2.1487296    3.2297968 
13060000    1.0847382 0.0001611699   0.52834441  0.027655074            0   0.50068934    1.6135481    2.1418925    7.6431582 
13065000    1.0883209 0.00013384586   0.53952356  0.023350015            0   0.51617354    1.6188773    2.1584008    6.7270062 
13070000    1.1010275 0.00020798033    0.5170326  0.011931727            0   0.50510087    1.6377784     2.154811    9.2538731 
13075000    1.0834971 6.6732528e-05   0.54073305  0.015738577            0   0.52499447    1.6117019     2.152435    4.4302386 
13080000    1.0590526 -6.6186958e-05   0.58314202  0.013275903            0   0.56986612    1.5753407    2.1584827  -0.10069881 
13085000    1.0769584 2.6095986e-05   0.56250639 0.0027587945            0   0.55974759    1.6019756     2.164482     3.055225 
13090000    1.1493414 0.00023568165   0.45999446 0.0046027122            0   0.45539174    1.7096454    2.1696398     10.21424 
13095000    1.1114399 1.7076814e-05    0.5185984  0.022568447            0   0.49602996    1.6532669    2.1718653    2.7547539 
13100000    1.0828484 -0.00017051932   0.55945615  0.023949666            0   0.53550648    1.6107369    2.1701931   -3.6501998 
13105000    1.0925938 2.5598211e-05   0.53398266   0.01667705            0   0.51730561    1.6252332    2.1592159    3.0329682 
13110000    1.0973501 2.2277046e-05   0.54577418  0.026174395            0   0.51959979    1.6323083    2.1780825    2.9384723 
13115000    1.0406347 -8.7051859e-05   0.62590882  0.027331232            0   0.59857758    1.5479441     2.173853  -0.79751715 
13120000    1.0967642 -6.0417547e-05   0.53823208  0.047676373            0   0.49055571    1.6314367    2.1696688   0.10741651 
13125000    1.1055452 8.9734452e-05   0.51091625  0.021586088            0   0.48933016    1.6444985    2.1554147    5.2183507 
13130000    1.0593087 5.1690985e-05   0.58307549   0.02828979            0    0.5547857    1.5757217    2.1587972    3.9231829 
13135000    1.0930196 -4.65521e-06   0.56553679  0.025502449            0   0.54003434    1.6258667    2.1914035    2.0325057 
13140000    1.1563011 -4.2216754e-05   0.48436887  0.017099256            0   0.46726961     1.719998    2.2043668   0.76336829 
13145000    1.1585697 0.0001252767   0.48745942  0.019680416            0     0.467779    1.7233724    2.2108318    6.4869433 
13150000    1.1663754 9.825526e-05   0.49128998  0.024152608            0   0.46713737    1.7349834    2.2262734     5.580053 
13155000    1.0391033 4.3118686e-05   0.67682259  0.037682279            0   0.63914031    1.5456661    2.2224887    3.6942732 
13160000    1.2106812 0.00014705229   0.43754087   0.03498741            0   0.40255346    1.8008883    2.2384292    7.2578141 
13165000    1.1517809 7.599566e-06   0.51349065  0.034253198            0   0.47923746    1.7132741    2.2267647    2.4861632 
13170000    1.1166685 -6.313648e-05   0.53703212   0.06093145            0   0.47610067    1.6610444    2.1980765  0.043017966 
13175000    1.1271539 -7.727276e-05   0.53865861  0.036246163            0   0.50241245    1.6766414       2.2153  -0.42227686 
13180000    1.0863639 -2.6344615e-05   0.59997716  0.020494406            0   0.57948276    1.6159662    2.2159434    1.3167139 
13185000    1.0992829 -2.9787194e-05   0.58045617  0.010754723            0   0.56970145    1.6351834    2.2156395    1.1989033 
13190000    1.1522029 -6.6295864e-05   0.51427922 0.0079331452            0   0.50634608    1.7139018     2.228181   -0.0347178 
13195000     1.124764 3.0151745e-05    0.5662097   0.04978242            0   0.51642728    1.6730864    2.2392961    3.2684756 
13200000     1.169798 7.1876464e-05   0.51669003 0.0092802951            0   0.50740973    1.7400746    2.2567646    4.7101479 
13205000    1.1992597 3.2129191e-05   0.45593318 0.0080486189            0   0.44788456    1.7838989     2.239832    3.3365084 
13210000    1.0918718 6.0628922e-05   0.61132473  0.032466572            0   0.57885816    1.6241593     2.235484    4.3049512 
13215000    1.0975781 3.2337194e-05   0.59474205  0.042403693            0   0.55233835    1.6326474    2.2273894    3.3311656 
13220000    1.1497437 1.4123316e-05   0.52209806 0.0084531526            0   0.51364491    1.7102437    2.2323418    2.7144176 
13225000    1.1451025 2.1389555e-05   0.52424313  0.073472005            0   0.45077113      1.70334    2.2275832      2.95768 
13230000    1.0714738 -3.9242359e-05   0.61491374  0.015786838            0    0.5991269    1.5938172    2.2087309   0.86925845 
13235000    1.0893084 -4.0510479e-05   0.62697487   0.01666191            0   0.61031296    1.6203462    2.2473211   0.86456338 
13240000    1.1926428 -3.735577e-05   0.47737474  0.012364654            0   0.46501008    1.7740562    2.2514309   0.97635399 
13245000    1.1678713 -2.5640992e-05   0.56485787  0.046959208            0   0.51789866    1.7372085    2.3020664    1.4268538 
13250000    1.1465995 -0.00016635836   0.59386882  0.015304369            0   0.57856445    1.7055667    2.2994355   -3.3789299 
13255000    1.1740353 -8.7063099e-05     0.532817 0.0057643052            0    0.5270527    1.7463776    2.2791946  -0.69255922 
13260000    1.1337755 8.2091235e-05   0.58622446  0.039836827            0   0.54638763     1.686491    2.2727155     5.074763 
13265000    1.1356851 -2.3987689e-05   0.59185033  0.037665145            0   0.55418519    1.6893316    2.2811819    1.4624021 
13270000    1.1097742 0.00014529082   0.64367984  0.028992093            0   0.61468775    1.6507891    2.2944689    7.2537288 
13275000    1.1529767 0.00015090562   0.59042299  0.028500338            0   0.56192265    1.7150528    2.3054758    7.4563875 
13280000    1.1492696 7.5108823e-05   0.59227898  0.031591723            0   0.56068726    1.7095385    2.3018174    4.8655319 
13285000    1.1357579 8.8015067e-05   0.58064578  0.011032128            0   0.56961365    1.6894398    2.2700856    5.2743333 
13290000    1.1323741 7.8450816e-05   0.57334301  0.020072452            0   0.55327056    1.6844064    2.2577494    4.9355373 
13295000    1.1107841 -2.5264211e-05   0.59547958  0.020770689            0   0.57470889    1.6522913    2.2477709    1.3854191 
13300000    1.1174233 1.5906082e-05   0.56112698  0.022758288            0    0.5383687    1.6621672    2.2232941    2.7662218 
13305000    1.0743776 0.00010721853    0.6403318  0.043401413            0   0.59693038    1.5981367    2.2384685    5.8981944 
13310000    1.0643439 -3.6027437e-06     0.644571  0.036481668            0   0.60808934    1.5832115    2.2277825    2.1048089 
13315000    1.1475665 -1.4038798e-05   0.53861841   0.04006911            0    0.4985493    1.7070052    2.2456236    1.7664327 
13320000    1.1275498 -6.9017279e-05   0.57157961  0.012187334            0   0.55939227    1.6772303    2.2488099  -0.10697984 
13325000    1.0729278 -0.0002438751   0.65085855 0.0084371771            0   0.64242137    1.5959801    2.2468387   -6.0774313 
13330000    1.1315325 -7.9527657e-05   0.55112604  0.011887535            0   0.53923851    1.6831547    2.2342807  -0.48026333 
13335000    1.1203247 1.0146575e-05   0.56867937  0.019002081            0   0.54967728     1.666483    2.2351624    2.5814988 
13340000     1.149572 -2.3264532e-05   0.53968057  0.026407801            0   0.51327277    1.7099883    2.2496689    1.4555729 
13345000    1.1683797 3.5867821e-06   0.53303155  0.027090229            0   0.50594132    1.7379649    2.2709964    2.3934252 
13350000     1.096346 9.3422659e-05   0.63652918  0.018115753            0   0.61841343    1.6308146    2.2673438    5.4561706 
13355000    1.1051875 5.5871557e-05   0.64375921  0.028646872            0   0.61511233    1.6439664    2.2877256    4.1948081 
13360000    1.1574322 -7.1097695e-05   0.56485191  0.034454486            0   0.53039742    1.7216804    2.2865323  -0.14026906 
13365000    1.1859905 -0.00014311814   0.51616216  0.035050953            0   0.48111121    1.7641609     2.280323   -2.6047762 
13370000    1.1204164 -9.7720559e-05    0.6325782  0.030917925            0   0.60166027    1.6666193    2.2991975   -1.0363309 
13375000    1.1294032 -2.2227084e-05    0.6219438  0.024736585            0   0.59720722    1.6799872     2.301931    1.5432466 
13380000    1.1854851 0.00011137782   0.52254019  0.033455887            0    0.4890843    1.7634091    2.2859493    6.0876455 
13385000    1.1808819 0.0001479507   0.53301202  0.015794353            0   0.51721767    1.7565619    2.2895739    7.3396243 
13390000    1.1183966 8.8632994e-05   0.65287671  0.010561547            0   0.64231516    1.6636149    2.3164916    5.3418311 
13395000    1.1423372 0.00018295165   0.59751676  0.026474625            0   0.57104214    1.6992266    2.2967434    8.5414932 
13400000    1.2357997 -6.4909146e-05   0.46536655   0.02384226            0   0.44152429     1.838252    2.3036186  0.088053058 
13405000    1.1126624 -9.7494082e-05   0.63079165 0.0083895949            0   0.62240206    1.6550854     2.285877    -1.041921 
13410000    1.1382719 1.3169151e-05   0.56259103  0.017227699            0   0.54536333    1.6931795    2.2557705    2.7052775 
13415000    1.1337413 4.7875461e-07   0.55100987  0.010712493            0   0.54029738    1.6864402      2.23745    2.2537915 
13420000    1.1513986 -2.531269e-05   0.54386346  0.014830224            0   0.52903324    1.7127054    2.2565689    1.3925624 
13425000    1.0503519 0.00014372745   0.68729409  0.085257739            0   0.60203635    1.5623985    2.2496925    7.1555897 
13430000    1.1046579 2.9353106e-06   0.62412496  0.060380944            0   0.56374402    1.6431786    2.2673035    2.3674955 
13435000    1.0478258 -0.00016441694   0.70082795   0.02214453            0   0.67868342    1.5586409    2.2594688   -3.3526294 
13440000    1.1582859 0.00018894128   0.55006724  0.024508914            0   0.52555833    1.7229502    2.2730175    8.7222132 
13445000    1.1276086 0.00022636382   0.60606674  0.025684575            0   0.58038216    1.6773178    2.2833845    10.009936 
13450000    1.1391095 2.6337795e-05   0.60399816  0.022602071            0   0.58139609    1.6944254    2.2984236    3.1974203 
13455000    1.1603183 -1.7386524e-05   0.57800566   0.01246433            0   0.56554133    1.7259735    2.3039791    1.7105191 
13460000    1.0703615 3.3982323e-05   0.73136928  0.012338084            0    0.7190312    1.5921627     2.323532    3.4834619 
13465000    1.1372207 -5.2772809e-05   0.60001367  0.028957465            0    0.5710562    1.6916158    2.2916295   0.49031759 
13470000    1.0857707 9.3329132e-05   0.69208507  0.051362399            0   0.64072267    1.6150839    2.3071689    5.4928033 
13475000    1.1515551 -7.3058599e-05   0.61127486  0.024840353            0   0.58643451    1.7129382     2.324213  -0.16952048 
13480000     1.165222 -1.6822936e-05   0.60036689  0.009871385            0    0.5904955    1.7332677    2.3336346    1.7594117 
13485000    1.1842505 -0.00013287794   0.55960697 0.0042501984            0   0.55535677    1.7615727    2.3211796   -2.2143873 
13490000     1.109039 -4.7153501e-05   0.65035423  0.010301487            0   0.64005274    1.6496955    2.3000497   0.69054356 
13495000    1.1736893 -6.7505118e-05   0.59138083  0.022226985            0   0.56915384    1.7458629    2.3372437  0.033069055 
13500000    1.1812915 2.3593559e-05   0.58623878  0.024880996            0   0.56135779    1.7571711    2.3434099    3.1487367 
13505000    1.1425718 0.00014810817    0.6392212   0.05423394            0   0.58498726    1.6995756    2.3387968    7.3942222 
13510000    1.1125597 0.00012989091   0.69465916   0.04879472            0   0.64586444    1.6549325    2.3495916    6.7832015 
13515000    1.1060241 0.00017875464   0.68869211   0.10492659            0   0.58376552    1.6452109     2.333903    8.4353948 
13520000    1.1601904 -8.2065693e-05   0.59096504  0.039179792            0   0.55178525    1.7257832    2.3167483  -0.48442739 
13525000    1.2112358 2.6980835e-05   0.48760455  0.044543181            0   0.44306137    1.8017133    2.2893179    3.2102637 
13530000    1.0712783 -1.1563155e-06   0.70011037  0.044817741            0   0.65529263    1.5935265    2.2936368    2.2541679 
13535000    1.1397526 1.8837043e-06   0.59499619  0.020435814            0   0.57456037     1.695382    2.2903782    2.3546753 
13540000    1.1730795 -2.4910306e-05   0.54615284 0.0050332015            0   0.54111964    1.7449557    2.2911085    1.4408368 
13545000    1.1621107 -1.4889309e-05   0.54219746  0.010415109            0   0.53178235    1.7286397    2.2708372    1.7626154 
13550000    1.1167408 -0.00010048199   0.60232022  0.016397894            0   0.58592232     1.661152    2.2634722   -1.1663131 
13555000    1.1445936 -4.0538721e-05   0.56176029 0.0073988635            0   0.55436143     1.702583    2.2643433   0.88062159 
13560000    1.0897311 0.0001669697   0.64415722  0.013585392            0   0.63057182    1.6209751    2.2651323    7.9643648 
13565000    1.1796978 4.2806477e-05   0.49440467  0.020349325            0   0.47405535    1.7548005    2.2492052    3.7103329 
13570000     1.107246 -0.00010225776   0.56969957   0.01206893            0   0.55763064    1.6470285    2.2167281   -1.2736701 
13575000    1.0222153 -0.00013247244   0.69206887  0.038160964            0   0.65390791    1.5205452    2.2126141   -2.3091118 
13580000    1.0360569 2.0485821e-05    0.6668421  0.040844863            0   0.62599724    1.5411346    2.2079767    2.9072261 
13585000       1.1176 -6.7091161e-05   0.52986452  0.043550527            0   0.48631399    1.6624301    2.1922946 -0.097750385 
13590000    1.0151234 -0.00022684738   0.67743508  0.022570737            0   0.65486434    1.5099961    2.1874312   -5.5556259 
13595000    1.1267865 2.0195332e-05   0.49679393 0.0066475317            0   0.49014639    1.6760949    2.1728888    2.8622228 
13600000    1.0453758 0.00016884766   0.62078657  0.011597734            0   0.60918884    1.5549965     2.175783    7.9391165 
13605000    1.0902094 2.5088035e-05   0.54552964  0.024944103            0   0.52058554    1.6216865    2.1672161    3.0235544 
13610000    1.0581857 -3.5435793e-05    0.5882206  0.020289909            0   0.56793069    1.5740512    2.1622718    0.9527301 
13615000    1.0820211 1.7597777e-05   0.56420226 0.0068926482            0   0.55730961    1.6095064    2.1737087    2.7743794 
13620000    1.1136039 -3.9840013e-05   0.53057539  0.007157771            0   0.52341762    1.6564858    2.1870612   0.82718871 
13625000    1.0893674 4.0944985e-05   0.58465946  0.032254988            0   0.55240447    1.6204341    2.2050935    3.6026823 
13630000    1.1069981 -0.00012410744   0.54666908  0.023519841            0   0.52314924    1.6466597    2.1933288   -2.0428717 
13635000    1.0994658 -0.0002089031   0.57325214  0.013022215            0   0.56022992    1.6354553    2.2087075   -4.9218516 
13640000    1.0367724 0.00010131373   0.62993248  0.021900852            0   0.60803163    1.5421989    2.1721314    5.6303068 
13645000    1.0050914 8.4011204e-05    0.6847178  0.019413417            0   0.66530438    1.4950735    2.1797913    5.0473737 
13650000      1.05911 -6.6200088e-05   0.58136532  0.011867506            0   0.56949781    1.5754261    2.1567915  -0.10283821 
13655000    1.0478186 -2.8951886e-05   0.61440492  0.015655953            0   0.59874897    1.5586301     2.173035    1.1848107 
13660000    1.0742754 -3.1475649e-05   0.56802399  0.023971424            0   0.54405257    1.5979847    2.1660087    1.0916399 
13665000    1.1378823 -3.6231918e-05   0.48559713  0.026238652            0   0.45935848    1.6925999    2.1781971   0.94148093 
13670000    1.1127879 -2.8116477e-05   0.52632607 0.0081142667            0    0.5182118    1.6552719     2.181598    1.2218889 
13675000     1.097553 2.1465018e-05   0.55704031 0.0074650947            0   0.54957522    1.6326101    2.1896504     2.922323 
13680000    1.1095953 3.1587796e-05   0.54229988  0.013919453            0   0.52838043    1.6505231    2.1928229    3.2710197 
13685000    1.0376438 8.7960425e-05   0.62797078  0.016558779            0   0.61141201    1.5434952     2.171466    5.1738485 
13690000    1.1142405 -5.8301975e-05   0.49805991  0.011657264            0   0.48640264    1.6574327    2.1554927    0.1654519 
13695000    1.0952065 -9.6025822e-05   0.51739325  0.019731394            0   0.49766186    1.6291197    2.1465129   -1.1311685 
13700000    1.0311312 -0.00017095534   0.60027141  0.020635981            0   0.57963543    1.5338077    2.1340791   -3.7011965 
13705000    1.1059561 -0.00014289195   0.47706016 0.0083999269            0   0.46866023    1.6451097    2.1221699   -2.7552086 
13710000    1.0199138 0.00014917916   0.57457628 0.0096374017            0   0.56493888    1.5171218    2.0916981    7.1836801 
13715000    1.1139753 1.892225e-06     0.422782 0.0099818249            0   0.41280018    1.6570383    2.0798203    2.1444082 
13720000     1.106748 -1.6011627e-05   0.44052653  0.016825433            0    0.4237011    1.6462876    2.0868142     1.540284 
13725000    1.0466264 0.00011216943   0.52111514  0.030429944            0    0.4906852    1.5568567    2.0779719    5.9066885 
13730000    1.0195093 -0.00010035898   0.55087406  0.029559576            0   0.52131448      1.51652    2.0673941   -1.3581924 
13735000    1.0389736 1.4673522e-05   0.49392528 0.0058795703            0   0.48804571    1.5454732    2.0393985    2.5402547 
13740000    1.0248794 -1.8380335e-05   0.52219095 0.0087492369            0   0.51344171    1.5245082    2.0466991     1.419317 
13745000    1.0288628 -7.832424e-05   0.52957416 0.0053512913            0   0.52422287    1.5304335    2.0600076  -0.61345975 
13750000    1.0198253 -1.0254082e-05   0.54048237 0.0055691745            0   0.53491319    1.5169901    2.0574725    1.7074665 
13755000    1.0180332 0.00010983413   0.53453202 0.0057415932            0   0.52879042    1.5143243    2.0488563    5.7978612 
13760000    1.0146954 -2.7853349e-05   0.54902847  0.019627722            0   0.52940075    1.5093594    2.0583878    1.1076602 
13765000    1.0302485 5.3609287e-06   0.54211626  0.021800287            0   0.52031598    1.5324947     2.074611    2.2575973 
13770000    1.1047845 0.00011494864   0.44120973 0.0085172816            0   0.43269244     1.643367    2.0845767    6.0081569 
13775000    1.0897582 -1.4894915e-06   0.48995094  0.013937206            0   0.47601373    1.6210153    2.1109663     2.060125 
13780000    1.0495069 -2.681724e-05   0.55925251 0.0074514621            0   0.55180105    1.5611414     2.120394    1.2050322 
13785000    1.0392068 -3.8448981e-05   0.55273863  0.005053421            0   0.54768521    1.5458201    2.0985587   0.78616685 
13790000    1.0149315 -0.0001299487   0.57323367 0.0071602906            0   0.56607338    1.5097106    2.0829443    -2.352638 
13795000    1.0566237 1.7051628e-05    0.5022476  0.036224551            0   0.46602305    1.5717277    2.0739753    2.6560042 
13800000   0.96692347 0.0002474005    0.6379191  0.060376211            0   0.57754289    1.4382987    2.0762178    10.520821 
13805000      1.05139 0.00010582784   0.50766539  0.039409395            0   0.46825599    1.5639426    2.0716079     5.683865 
13810000    1.0067037 -2.7427013e-05   0.56581976   0.00756701            0   0.55825275    1.4974717    2.0632915    1.1271161 
13815000     1.003139 7.757817e-05   0.55590496  0.025445097            0   0.53045986    1.4921692    2.0480742    4.6960757 
13820000     1.025285 -4.0347441e-05   0.52522185   0.04414366            0   0.48107819    1.5251115    2.0503333   0.67314067 
13825000     1.016977 -3.9611404e-05   0.55156903  0.020770299            0   0.53079873    1.5127533    2.0643223   0.71225308 
13830000    1.0297944 6.0581618e-05   0.54764313  0.026339764            0   0.52130336    1.5318191    2.0794623    4.1473148 
13835000    1.0033861 -6.1765824e-05   0.57225551  0.012360755            0   0.55989476    1.4925369    2.0647924 -0.043481076 
13840000   0.98068782 9.5821054e-06   0.58408629  0.020205866            0   0.56388042    1.4587731    2.0428594    2.3699286 
13845000   0.99124712 -0.00014893467   0.55735612  0.021197185            0   0.53615894    1.4744801    2.0318362   -3.0518004 
13850000    1.0755471 0.00013892488   0.43520681  0.024417023            0   0.41078979    1.5998764    2.0350832    6.7770523 
13855000     1.027131 0.00016872143   0.50029209  0.021322384            0   0.47896971    1.5278573    2.0281494    7.7871743 
13860000   0.94884436 -2.86119e-05   0.60156083  0.036269174            0   0.56529165     1.411406    2.0129668    1.0363473 
13865000   0.99794814 -9.3914064e-05   0.52808801   0.01530882            0   0.51277919    1.4844479    2.0125359   -1.1930642 
13870000   0.97165655 -0.00011967182    0.5363889  0.027140854            0   0.50924804    1.4453391     1.981728     -2.10307 
13875000    1.0077038 6.105513e-05   0.49568186  0.039224713            0   0.45645714    1.4989595    1.9946413    4.0786564 
13880000   0.93573757 -7.5180473e-07   0.61859237  0.070135364            0     0.548457    1.3919096     2.010502    1.9848404 
13885000   0.97748528 6.8889281e-05   0.54119223  0.022898883            0   0.51829335    1.4540094    1.9952016    4.3466224 
13890000   0.94906002 -5.3027635e-05   0.57655995  0.015402821            0   0.56115713    1.4117268    1.9882867    0.1782768 
13895000   0.92603121 -2.588702e-05   0.64361161 0.0098692926            0   0.63374232    1.3774714     2.021083    1.1374728 
13900000    1.0762768 4.5783024e-05   0.41135197  0.008854989            0   0.40249698    1.6009617    2.0123136    3.5750409 
13905000   0.99117848 -7.3164788e-05   0.54833252  0.016298813            0    0.5320337     1.474378    2.0227105  -0.47464758 
13910000    1.0123833 -4.0363611e-05   0.52524893  0.018937921            0   0.50631101    1.5059202    2.0311691   0.65342455 
13915000    1.0184341 2.4358817e-05   0.53341449  0.021985332            0   0.51142916    1.5149207    2.0483352    2.8797829 
13920000   0.98741366 -0.00018322558   0.58731164   0.01710217            0   0.57020947    1.4687778    2.0560895   -4.1980104 
13925000   0.98093621 -0.00016119802   0.60176534 0.0081680122            0   0.59359733    1.4591426     2.060908   -3.4413177 
13930000    1.0205313 -1.5111682e-05   0.53622211  0.009451343            0   0.52677077    1.5180403    2.0542624    1.5384503 
13935000    1.0374157 -9.2970944e-05   0.50721598  0.015211193            0   0.49200479    1.5431558    2.0503718   -1.1230365 
13940000    1.0125798 2.0436087e-05   0.54779839  0.017879526            0   0.52991887    1.5062124    2.0540108    2.7515625 
13945000    1.0270536 7.3649543e-06   0.52482332  0.011660923            0    0.5131624    1.5277422    2.0525656     2.303956 
13950000   0.95548181 -0.00019963429   0.64598576 0.0036684174            0   0.64231734    1.4212792    2.0672649   -4.7469189 
13955000    1.0465739 -7.2140997e-05   0.53114889 0.0045513393            0   0.52659755    1.5567787    2.0879276  -0.37448516 
13960000    1.0306003 -3.6817941e-05   0.55722915   0.02505924            0   0.53216991    1.5330179     2.090247     0.833528 
13965000    1.0161564 1.7395446e-05   0.61026774   0.05230988            0   0.55795786    1.5115327    2.1218004     2.715565 
13970000    1.0248582 -3.3319552e-05   0.55840524 0.0058833019            0   0.55252194    1.5244766    2.0828818   0.94557442 
13975000    1.0869404 -1.5009098e-05   0.47809489 0.0089724582            0   0.46912243    1.6168238    2.0949187    1.5826081 
13980000    1.0219711 9.4891045e-05   0.56183023  0.020539587            0   0.54129065     1.520182    2.0820122    5.3209599 
13985000    1.0760337 0.00011575716   0.49749475  0.033130378            0   0.46436438    1.6006001    2.0980948    6.0492724 
13990000    1.0463632 -4.5873589e-05   0.53946953  0.039616335            0   0.49985319    1.5564653    2.0959348   0.53011635 
13995000   0.96743765 -3.385425e-05   0.64619621  0.046957476            0   0.59923873    1.4390635    2.0852597   0.92970131 
14000000    1.0184142 -5.386549e-05   0.55816559  0.026739112            0   0.53142648    1.5148911    2.0730567   0.23444802 
14005000    1.0247462 4.4237542e-05   0.53882658  0.016874202            0   0.52195237      1.52431    2.0631365    3.5731113 
14010000    1.0323467 0.00013694831   0.51708822  0.028373466            0   0.48871475    1.5356157    2.0527039    6.7272062 
14015000    1.0043065 8.945358e-05   0.53206164  0.037172038            0   0.49488961    1.4939059    2.0259675    5.0793164 
14020000   0.95481869 2.0677368e-05   0.60724805  0.015773148            0    0.5914749    1.4202928    2.0275408    2.7333283 
14025000    1.0026324 2.7436089e-05   0.53976984  0.016126192            0   0.52364364    1.4914157    2.0311855    2.9676707 
14030000   0.97870302 -1.2948259e-05   0.55957864  0.038653175            0   0.52092547    1.4558207    2.0153994    1.5734321 
14035000    1.0135388 -6.4461724e-05   0.51595807  0.035236922            0   0.48072115    1.5076389     2.023597   -0.1766965 
14040000   0.97792003 0.00010351461   0.55591905  0.013926798            0   0.54199225     1.454656    2.0105751    5.5438739 
14045000   0.93920803 6.5801609e-05    0.6089321 0.0066787293            0   0.60225337    1.3970719     2.006004    4.2520323 
14050000    1.0721201 1.4754102e-05    0.4265798  0.013473776            0   0.41310602    1.5947787    2.0213585    2.5249652 
14055000    0.9560013 0.00013165765   0.60607411  0.026612703            0   0.57946141    1.4220519     2.028126    6.5220404 
14060000    1.0652839 -2.6739899e-05   0.42854145  0.015036022            0   0.41350543    1.5846098    2.0131513    1.1004294 
14065000   0.91644951 -0.00011523884   0.63851133  0.014375036            0    0.6241363    1.3632186      2.00173   -1.9317557 
14070000   0.93307841 4.2500561e-05   0.60802029  0.021086355            0   0.58693394    1.3879541    1.9959744    3.4466602 
14075000     1.021455 1.1704157e-05   0.47079112   0.04490278            0   0.42588834    1.5194143    1.9902054    2.3897073 
14080000    1.0276916 -1.475997e-05   0.46028884  0.029418995            0   0.43086985    1.5286913    1.9889801    1.4851732 
14085000    0.9059029 6.4239228e-06   0.60047437  0.039736985            0   0.56073739    1.3475306    1.9480049    2.1672748 
14090000    0.9175802 -3.2710118e-05   0.58228214  0.031597843            0   0.55068429    1.3649005    1.9471827   0.83067733 
14095000   0.94829956 0.00014899811   0.52177507   0.02551859            0   0.49625648    1.4105956    1.9323707    7.0181727 
14100000   0.95915997 0.0001655446   0.48498142  0.064415488            0   0.42056593    1.4267505    1.9117319    7.5623207 
14105000   0.94255799 0.00016880611   0.51010168  0.038849048            0   0.47125263     1.402055    1.9121567    7.6740718 
14110000   0.91942769 1.661032e-05    0.5599671  0.010599798            0    0.5493673    1.3676487    1.9276158    2.4945814 
14115000   0.98664186 -0.00012178003    0.4827146 0.0088894555            0   0.47382515    1.4676298    1.9503444   -2.2064141 
14120000   0.96842107 -5.8720613e-05   0.49805583  0.010523635            0    0.4875322    1.4405263    1.9385822 -0.065748067 
14125000   0.95676142 0.00013956696    0.4992232  0.014815761            0   0.48440744    1.4231826    1.9224058    6.6862913 
14130000   0.97403586 3.9796118e-05   0.46716724  0.016136586            0   0.45103066    1.4488783    1.9160456    3.2744197 
14135000   0.89253645 -0.0001642068   0.58955345   0.03447429            0   0.55507916     1.327648    1.9172014   -3.6877241 
14140000   0.93595959 -6.5074212e-05   0.51457404  0.026645037            0   0.48792901    1.3922399    1.9068139  -0.31438584 
14145000   0.89059954 0.00016088682   0.57758541  0.010462224            0   0.56712319    1.3247668    1.9023522    7.3939557 
14150000   0.94736534 4.5360204e-05   0.49657318  0.017415286            0   0.47915789    1.4092059    1.9057791    3.4540741 
14155000   0.94627516 -0.00015655091   0.50840396  0.037999111            0   0.47040485    1.4075843    1.9159883    -3.427616 
14160000   0.95426821 -0.0001251791   0.49035997  0.020620253            0   0.46973971     1.419474    1.9098339    -2.362946 
14165000   0.96495498 2.9972294e-05   0.48010006  0.015778486            0   0.46432158    1.4353705    1.9154706    2.9385249 
14170000   0.93641137 0.00017163286   0.53202501  0.041901326            0   0.49012368    1.3929119    1.9249369    7.7833385 
14175000   0.95434159 7.5146593e-05   0.53780253  0.032055063            0   0.50574747    1.4195831    1.9573856    4.5223893 
14180000   0.99204177 -0.00010208675   0.47963773 0.0098099142            0   0.46982781    1.4756621    1.9552999   -1.5292611 
14185000   0.98262266 2.3968874e-05   0.49029432  0.031243642            0   0.45905068    1.4616512    1.9519455    2.7700831 
14190000   0.91490818 6.9845844e-05   0.57236917  0.042461258            0   0.52990791    1.3609259    1.9332951    4.3173665 
14195000   0.94733176 -5.6941657e-05   0.51814791  0.020582737            0   0.49756518     1.409156    1.9273039 -0.016304634 
14200000    0.9259025 6.5110174e-05   0.54793928 0.0064031899            0   0.54153609      1.37728    1.9252192    4.1476465 
14205000    1.0157863 9.175506e-05    0.4176492  0.019107257            0   0.39854195    1.5109821    1.9286313    5.0605373 
14210000   0.92794053 -4.2633439e-05     0.518792  0.037652743            0   0.48113926    1.3803115    1.8991035   0.44388215 
14215000   0.92740723 -7.0639407e-05    0.5139864  0.038533568            0   0.47545283    1.3795183    1.8935046  -0.51765377 
14220000   0.91919866 -4.0799894e-05   0.52138594  0.026797972            0   0.49458797     1.367308     1.888694   0.49605756 
14225000   0.96775424 0.00017992713   0.46523519  0.016887424            0   0.44834777    1.4395344    1.9047696    8.0462822 
14230000   0.91756685 0.0002291514   0.54167423  0.010041446            0   0.53163279    1.3648807    1.9065549    9.7282561 
14235000    0.9416452 0.00017342442   0.51577972 0.0056919907            0   0.51008773    1.4006972     1.916477    7.8360304 
14240000   0.92052221 0.00012989793   0.54496527  0.025946048            0   0.51901922    1.3692768    1.9142421    6.3480914 
14245000    1.0182002 -2.438916e-05   0.41719203  0.031608434            0    0.3855836    1.5145728    1.9317648    1.0992815 
14250000   0.91870836 -0.00011892499   0.55403079  0.020306048            0   0.53372474    1.3665787    1.9206095   -2.1386968 
14255000    0.9015864 -0.00026826182   0.59042002  0.024239302            0   0.56618072    1.3411098    1.9315298   -7.2251403 
14260000   0.96010949 -0.00014003557   0.50824875  0.007125718            0   0.50112303    1.4281629    1.9364116   -2.8434692 
14265000   0.98815565 -2.8497747e-05   0.48045886 0.0093927294            0   0.47106613    1.4698815    1.9503404   0.97761727 
14270000   0.96827235 0.00012463576   0.53768668 0.0076085222            0   0.53007816    1.4403051    1.9779918    6.2322258 
14275000    0.9860961 0.00010389259   0.52848639 0.0050991546            0   0.52338724     1.466818    1.9953043    5.5415048 
14280000    1.0126137 8.5873461e-05   0.49348746 0.0099223575            0   0.48356511    1.5062629    1.9997503    4.9308978 
14285000   0.94930106 -2.051488e-05   0.57236117  0.018777976            0   0.55358319    1.4120853    1.9844465    1.2842052 
14290000   0.95753549 -6.5444218e-05   0.57817005  0.044175039            0   0.53399501     1.424334    2.0025041  -0.23132522 
14295000   0.96901636 8.4458962e-06   0.54884001  0.054807388            0   0.49403262    1.4414118    1.9902518    2.2785384 
14300000    1.0819627 -9.0200964e-05   0.41875068  0.046148273            0    0.3726024    1.6094195    2.0281701   -1.0506894 
14305000    1.0154043 -0.00011643799   0.50397888 0.0095554267            0   0.49442345    1.5104139    2.0143928    -1.960024 
14310000    1.0010437 0.00010812119   0.51984682 0.0072541071            0   0.51259271    1.4890525    2.0088994    5.6994361 
14315000   0.98252221 2.6775069e-05   0.55971371  0.026147062            0   0.53356665    1.4615018    2.0212155    2.9351379 
14320000    1.0521542 -2.3073151e-05   0.45139302  0.041405043            0   0.40998797    1.5650794    2.0164724    1.2289088 
14325000    0.9688674 4.0869126e-05   0.57726562  0.023013078            0   0.55425255    1.4411903    2.0184559    3.4134554 
14330000   0.99035629 -9.1485094e-06   0.56793418  0.013268085            0   0.55466609     1.473155    2.0410892      1.72882 
14335000    0.9656518 -5.0216285e-05   0.59100368  0.025706634            0   0.56529705    1.4364071    2.0274107   0.31336155 
14340000   0.98538102 -3.3117235e-05    0.5451676  0.015212065            0   0.52995554    1.4657543    2.0109219   0.88052025 
14345000    0.9654624 -8.3897593e-06   0.60170392  0.020261193            0   0.58144272    1.4361253    2.0378292    1.7514588 
14350000    1.0382901 3.7367377e-05    0.5104007  0.027776217            0   0.48262448    1.5444566    2.0548573    3.3303304 
14355000    1.0289324 -0.00016783483   0.50745024 0.0093815856            0   0.49806865    1.5305369    2.0379871   -3.6907749 
14360000    1.0312816 -1.6178888e-05   0.48926668 0.0044438565            0   0.48482283    1.5340314    2.0232981    1.4710587 
14365000   0.94478255 -3.4687139e-05   0.59658538 0.0091184503            0   0.58746693     1.405364    2.0019494   0.81796173 
14370000   0.99026175 -0.00019531806    0.5236562  0.022786444            0   0.50086976    1.4730143    1.9966706    -4.670186 
14375000    1.0032781 -3.1375582e-07   0.52936575  0.024359199            0   0.50500655    1.4923762    2.0217419    2.0110324 
14380000   0.98138221 -7.8802353e-05   0.56753429  0.011548579            0   0.55598571     1.459806    2.0273403  -0.66244667 
14385000   0.95541433 -0.00012465252   0.56483317  0.027127057            0   0.53770611    1.4211788     1.986012   -2.2687941 
14390000    1.0064155 -2.1823621e-05   0.51302316  0.010951082            0   0.50207208     1.497043    2.0100662    1.2651533 
14395000   0.99174173 -1.5598545e-06   0.52470109  0.015577556            0   0.50912353    1.4752158    1.9999169    1.9466739 
14400000     1.000422 0.00012379194   0.49751467  0.030363475            0   0.46715119    1.4881278    1.9856424    6.2110739 
14405000   0.98780372 0.00020676145   0.52420978  0.038893701            0   0.48531608     1.469358    1.9935678    9.0510252 
14410000   0.98106416 0.00015058119   0.53586458  0.023231856            0   0.51263272    1.4593329    1.9951975    7.1350356 
14415000   0.99162251 0.00014798694   0.52631986  0.022558768            0   0.50376109    1.4750385    2.0013583    7.0526459 
14420000   0.97061615 -9.394306e-05   0.53732258  0.003316471            0    0.5340061    1.4437915    1.9811141   -1.2254757 
14425000   0.99150759 -0.00014710666   0.49965107 0.00034226884            0    0.4993088    1.4748675    1.9745186    -3.046722 
14430000   0.95938004 -8.9126988e-05   0.53957353 0.0021649258            0    0.5374086    1.4270778    1.9666513   -1.0755498 
14435000   0.98813625 0.0001560072    0.5239852  0.020289257            0   0.50369594    1.4698527    1.9938379    7.3188836 
14440000   0.98364099 0.00011466656   0.51995758  0.038901262            0   0.48105632     1.463166    1.9831235    5.8970753 
14445000   0.95299589 -0.00015633889   0.54407515  0.027200169            0   0.51687498    1.4175814    1.9616565   -3.3747107 
14450000   0.99623697 -6.7644099e-05   0.48854668  0.017181755            0   0.47136493    1.4819025    1.9704492  -0.33846942 
14455000   0.95940146 -5.4683434e-05   0.55148487  0.020417001            0   0.53106787    1.4271097    1.9785945   0.11206666 
14460000    1.0105561 -5.0548823e-05   0.46820501  0.014416284            0   0.45378873    1.5032022    1.9714072   0.24600737 
14465000    1.0002347 -6.4513781e-05   0.50470052 0.0078263329            0   0.49687418    1.4878491    1.9925496  -0.20952077 
14470000    0.9307356 -0.00010650471   0.61343121  0.013230981            0   0.60020023    1.3844692    1.9979004   -1.6374604 
14475000   0.97585831 -1.986386e-05   0.53511069  0.012987572            0   0.52212312    1.4515892    1.9866999    1.3086802 
14480000    1.0051342 -3.5742714e-05    0.5402755 0.0095750889            0   0.53070041    1.4951371    2.0354126   0.81539461 
14485000    1.0422937 -4.1944391e-05   0.48658745 0.0049522553            0    0.4816352    1.5504118    2.0369993   0.60529741 
14490000   0.98126713 -1.975217e-06   0.58291232 0.0048857855            0   0.57802654    1.4596349    2.0425472    1.9751264 
14495000   0.97115331 -0.00010540144   0.58164249  0.018851655            0   0.56279083    1.4445905     2.026233   -1.5714695 
14500000   0.95374832 -0.00012397792   0.60273491  0.030306872            0   0.57242804    1.4187006    2.0214355    -2.210344 
14505000   0.96217021 4.4803403e-05   0.59783274  0.041302827            0   0.55652991    1.4312282    2.0290609    3.5583504 
14510000   0.95354798 0.0001113174   0.61587853  0.034693966            0   0.58118456    1.4184026    2.0342812     5.833915 
14515000   0.99600598 4.5452616e-05   0.58126974  0.008096711            0   0.57317303    1.4815589    2.0628286    3.6142779 
14520000    1.0360252 6.011912e-05   0.51687698  0.017376874            0    0.4995001    1.5410875    2.0579645    4.1100304 
14525000   0.97813784 0.00013464739   0.62767822  0.035791172            0   0.59188705      1.45498    2.0826583    6.6786226 
14530000   0.99407215 8.1842902e-05   0.60998916  0.058499232            0   0.55148993    1.4786823    2.0886715    4.8822426 
14535000   0.96806901 -0.00012411997   0.63380166   0.06186006            0    0.5719416    1.4400027    2.0738043   -2.1628241 
14540000    1.0527318 -0.00012073522   0.53216837  0.011764563            0    0.5204038    1.5659385    2.0981069   -2.0229885 
14545000    1.0196056 -2.0374977e-05   0.56748473  0.013520807            0   0.55396393    1.5166633    2.0841481    1.3886822 
14550000    1.0208512 8.3109667e-06   0.55867619  0.010026232            0   0.54864996    1.5185162    2.0771924    2.3608734 
14555000    1.0017608 7.2986221e-06    0.5861591 0.0087080921            0   0.57745101    1.4901192    2.0762783    2.3254046 
14560000    1.0010966 7.8689876e-05   0.58393711 0.0044751058            0   0.57946201    1.4891312    2.0730684    4.7590161 
14565000    1.0824768 5.9636185e-05   0.47232474 0.0083836283            0   0.46394111    1.6101843     2.082509    4.1180908 
14570000    1.0968673 -6.4288516e-06   0.45177254  0.021369029            0   0.43040351    1.6315901    2.0833626    1.8639245 
14575000   0.92853753 -0.00011206949   0.71373429  0.022618737            0   0.69111556    1.3811996    2.0949339   -1.7303716 
14580000    1.0035562 -0.00018717464   0.60309927  0.038817539            0   0.56428173    1.4927898     2.095889   -4.2930053 
14585000    1.0338507 -5.3455229e-05   0.55500789  0.023496067            0   0.53151182    1.5378529    2.0928608   0.26825567 
14590000   0.99561989 0.00018753147    0.6022217  0.027742874            0   0.57447882    1.4809846    2.0832063    8.4842804 
14595000    1.0174145 0.00019989052   0.55312201  0.023832843            0   0.52928917     1.513404     2.066526    8.8894559 
14600000   0.99517567 1.7654541e-05   0.58986744  0.029670967            0   0.56019647    1.4803238    2.0701912    2.6727996 
14605000   0.94632568 -0.00023707336   0.64489543  0.012891124            0   0.63200431    1.4076594    2.0525549   -6.0395491 
14610000    1.0080491 -0.00023532029   0.55745953 0.0018363515            0   0.55562317     1.499473    2.0569325   -5.9753333 
14615000    1.0501715 1.7983802e-06    0.5198644 0.00075586834            0   0.51910854      1.56213    2.0819944    2.1433792 
14620000    1.0148121 5.1912275e-05   0.55717942   0.01364589            0   0.54353353    1.5095331    2.0667125    3.8386515 
14625000    1.0133199 -0.00010778555   0.59816353  0.033084302            0   0.56507922    1.5073133    2.1054768   -1.5736033 
14630000    1.0379065 -0.00013412732   0.56080392  0.031927091            0   0.52887682    1.5438859    2.1046898   -2.4735227 
14635000     1.008096 -3.4926612e-08   0.60732253  0.024759138            0    0.5825634    1.4995428    2.1068653    2.1056732 
14640000    1.0801906 -1.1533659e-05   0.48907024  0.013703521            0   0.47536671    1.6067835    2.0958537    1.7021715 
14645000    1.0253659 3.0107085e-05   0.56850657  0.018019377            0   0.55048719    1.5252317    2.0937383    3.1213935 
14650000    1.0203071 3.2875055e-05   0.59639738  0.024242033            0   0.57215535    1.5177068    2.1141042    3.2362394 
14655000    1.0198386 -2.2700055e-06   0.58783644   0.02879685            0   0.55903959      1.51701    2.1048464    2.0273636 
14660000    1.0024112 0.00014494449   0.59758193  0.014049603            0   0.58353233    1.4910867    2.0886687    7.0361072 
14665000   0.99048951 0.00010619359   0.60824574  0.016725571            0   0.59152017    1.4733531    2.0815989    5.7063401 
14670000    1.0682103 3.5870851e-05   0.50762703  0.030926806            0   0.47670022    1.5889628    2.0965899    3.3209816 
14675000    1.0557514 3.5075025e-05   0.49970034  0.035308632            0   0.46439171    1.5704302    2.0701306    3.2673581 
14680000    0.9711081 -1.6759928e-05   0.62932504    0.0580509            0   0.57127414    1.4445233    2.0738483    1.5017761 
14685000     1.006488 2.6503074e-05   0.56595747   0.03740067            0    0.5285568    1.4971508    2.0631083    2.9677466 
14690000    1.0400054 6.9106832e-05   0.48418835  0.044789666            0   0.43939869     1.547008    2.0311964    4.3900429 
14695000   0.99481841 8.8511905e-05   0.54791476   0.03387657            0   0.51403819    1.4797924    2.0277071    5.0489135 
14700000   0.99306526 -9.4130521e-05   0.55519104  0.052003462            0   0.50318758    1.4771846    2.0323756   -1.1806128 
14705000   0.93463633 -6.6253438e-05   0.60102523  0.023517408            0   0.57750782    1.3902715    1.9912968  -0.27015392 
14710000    1.0035523 -0.00012572622   0.53278225   0.02175987            0   0.51102238     1.492784    2.0255663   -2.2658888 
14715000   0.99752621 1.3806347e-05   0.53642097  0.020278077            0    0.5161429    1.4838202    2.0202412    2.4914979 
14720000    1.0751966 4.6043211e-05   0.43522635 0.0052139274            0   0.43001242     1.599355    2.0345813    3.6061896 
14725000    1.0143057 6.898104e-06   0.52570769 0.0081263724            0   0.51758131    1.5087797    2.0344873    2.2699426 
14730000    1.0374255 1.941146e-05   0.47779158 0.0068888551            0   0.47090273    1.5431705    2.0209621    2.6835399 
14735000   0.98342892 -9.4737888e-05   0.53943347  0.023876893            0   0.51555658    1.4628505     2.002284   -1.2314359 
14740000   0.97845009 9.590287e-05   0.54397377  0.049969364            0   0.49400441    1.4554445    1.9994183    5.2729029 
14745000    1.0273744 0.00011060337   0.49883552  0.034997064            0   0.46383846    1.5282194     2.027055    5.8023166 
14750000    1.0195853 7.6458621e-05   0.48576267   0.04565966            0   0.44010301    1.5166332    2.0023959    4.6121834 
14755000   0.94958886 0.00011226492   0.54199775  0.045271228            0   0.49672652    1.4125134    1.9545112    5.7864873 
14760000   0.99095854 -0.00010529294   0.51311214  0.034157566            0   0.47895457    1.4740508     1.987163   -1.6068362 
14765000    1.0057481 2.3621947e-06   0.49980492  0.062576988            0   0.43722793    1.4960502    1.9958552    2.0764847 
14770000   0.93290578 7.7346151e-05   0.59000845  0.049992772            0   0.54001567    1.3876974    1.9777058    4.6177878 
14775000   0.92088819 -0.00015329223   0.57193858  0.043869999            0   0.52806859    1.3698212    1.9417598    -3.290615 
14780000   0.93550298 2.3632881e-05    0.5398818  0.023692336            0   0.51618947    1.3915607    1.9314425    2.7381115 
14785000    1.0147481 0.00010224282   0.45195106  0.020116721            0   0.43183434    1.5094378    1.9613889    5.4512771 
14790000    1.0044222 -1.7243331e-05   0.49700899  0.022506613            0   0.47450237     1.494078     1.991087    1.4025146 
14795000   0.94339434 -4.2852178e-05   0.57658573  0.030031186            0   0.54655455    1.4032991    1.9798848   0.51719714 
14800000     1.002704 -6.8187922e-05   0.45567896  0.049594788            0   0.40608417    1.4915223    1.9472012  -0.38027986 
14805000   0.94185791 -0.00010429798   0.54685856  0.030961272            0   0.51589729    1.4010136    1.9478722   -1.6121656 
14810000   0.95445955 -4.344012e-05   0.52574978  0.021365026            0   0.50438475    1.4197586    1.9455083   0.46275226 
14815000   0.96104577 9.4274449e-05   0.50069615 0.0078439988            0   0.49285215    1.4295556    1.9302517    5.1481529 
14820000   0.91480072  5.71945e-05   0.57156721  0.017892424            0   0.55367479    1.3607661    1.9323333    3.8845722 
14825000     0.978578 9.6371474e-05   0.47992267  0.021762464            0   0.45816021    1.4556348    1.9355574    5.2250371 
14830000   0.94774029 0.0001562085   0.50703784  0.024818326            0   0.48221952    1.4097637    1.9168015    7.2487184 
14835000   0.91858213 8.1149947e-05   0.53205625  0.029378656            0   0.50267759    1.3663909    1.8984472    4.6683654 
14840000   0.92852728 0.00011184846   0.50742999  0.029962623            0   0.47746737    1.3811843    1.8886143    5.7063752 
14845000   0.93602731 -8.8361926e-06   0.51198732  0.010973312            0   0.50101401    1.3923406    1.9043279    1.6027192 
14850000   0.93732437 -0.00011291484   0.54467411  0.029970771            0   0.51470334      1.39427    1.9389441   -1.9152159 
14855000   0.91521068 -4.1042914e-06   0.58626726   0.01965034            0   0.56661692    1.3613759    1.9476431      1.80755 
14860000    1.0139525 -5.858736e-05   0.45278205  0.011095873            0   0.44168618    1.5082543    1.9610363 -0.038745541 
14865000   0.96023367 3.295413e-05   0.51813192  0.013137674            0   0.50499424    1.4283476    1.9464795    3.0713138 
14870000   0.91103587 0.00021035435   0.59784519  0.023111449            0   0.57473374    1.3551659    1.9530111    9.1331063 
14875000   0.92894631 0.00015192603   0.57518467  0.034355103            0   0.54082957    1.3818076    1.9569923     7.142734 
14880000   0.94052973 -4.8250411e-05   0.56371594  0.040008019            0   0.52370792     1.399038    1.9627539   0.31580655 
14885000   0.98086515 -0.00013594018   0.48592537  0.018518415            0   0.46740696    1.4590369    1.9449623   -2.6951293 
14890000   0.94246436 -9.1421677e-05   0.56286265  0.022193666            0   0.54066899    1.4019157    1.9647784   -1.1557482 
14895000   0.93394268 -1.347502e-05   0.56132271  0.013677109            0    0.5476456    1.3892397    1.9505625    1.4906151 
14900000   0.96527615 -7.6938137e-05   0.51513969 0.0072581836            0   0.50788151    1.4358483     1.950988  -0.67516709 
14905000   0.95547222 -0.00019755806   0.53525203  0.015159614            0   0.52009242    1.4212649     1.956517   -4.7867981 
14910000   0.93752704 -7.4064721e-05   0.55048063  0.016458476            0   0.53402216    1.3945715    1.9450521  -0.58302371 
14915000   0.96518848 0.00011782118   0.51902956 0.0074090379            0   0.51162052    1.4357179    1.9547474    5.9763769 
14920000   0.94541818 5.9615672e-05   0.56882861 0.0070898618            0   0.56173875    1.4063095    1.9751382    4.0100197 
14925000    1.0037389 6.3129012e-05   0.48478419 0.0044374498            0   0.48034674    1.4930616    1.9778458    4.1326494 
14930000   0.97035407 5.5452522e-05    0.5647249  0.025646191            0   0.53907871    1.4434017    2.0081266     3.900906 
14935000   0.98502158 -0.00012085208   0.55690995   0.02327587            0   0.53363408    1.4652196    2.0221296   -2.1029548 
14940000   0.98306617 -0.00010314502   0.54954235  0.022566843            0    0.5269755    1.4623109    2.0118533   -1.5088301 
14945000    1.0018953 -3.2012994e-05   0.53316812   0.01797598            0   0.51519214    1.4903193    2.0234874   0.93077722 
14950000    1.0073157 3.2699292e-05   0.52587483  0.037803712            0   0.48807112    1.4983821    2.0242569    3.1403927 
14955000   0.98963991 4.0406265e-05   0.57696601  0.036791662            0   0.54017435    1.4720894    2.0490554    3.4282559 
14960000   0.94850006 -0.00015184227   0.63663155  0.055582444            0    0.5810491    1.4108938    2.0475254   -3.1353574 
14965000   0.99919419 -0.00017512005   0.57369997  0.013369381            0   0.56033059    1.4863014    2.0600013   -3.9174296 
14970000   0.99763316 -1.3489197e-05   0.59317542  0.024673361            0   0.56850205    1.4839793    2.0771547    1.6167235 
14975000    1.0536354 5.2054468e-05   0.50253031 0.0036170216            0   0.49891329    1.5672827     2.069813    3.8466055 
14980000   0.99439279 9.2277178e-05   0.58343691 0.0048967122            0    0.5785402    1.4791593    2.0625962    5.2123239 
14985000   0.93461894 9.6098738e-05   0.66131856   0.06094947            0   0.60036909    1.3902457    2.0515642    5.3317345 
14990000    1.0229843 -4.8301399e-05   0.54961182 0.0082008242            0     0.541411    1.5216891    2.0713009    0.4226132 
14995000    1.0060553 -2.5090717e-05   0.57547809  0.012158002            0   0.56332009    1.4965072    2.0719853    1.2155555 
15000000    1.0216787 -3.9730573e-05   0.56925959  0.011921003            0   0.55733859    1.5197471    2.0890067   0.73286982 
15005000    0.9599282 -6.4632577e-05   0.66255959  0.014587528            0   0.64797206    1.4278932    2.0904528  -0.11567253 
15010000    1.1128125 5.6904556e-05   0.42636438  0.017394523            0   0.40896986    1.6553085    2.0816729    4.0240151 
15015000   0.94296147 4.4658464e-05    0.6580505  0.019870236            0   0.63818027    1.4026552    2.0607057    3.5850479 
15020000    1.0109082 0.00010932052   0.54988624  0.019312407            0   0.53057384    1.5037259    2.0536122    5.7850858 
15025000   0.98300124 3.1398501e-05    0.6063032  0.044093842            0   0.56220936    1.4622143    2.0685176     3.140253 
15030000    1.0326312 -0.00017489364   0.53745514  0.014196696            0   0.52325844    1.5360389     2.073494   -3.8962089 
15035000    1.0052597 -0.00018398514   0.57004142 0.0024909869            0   0.56755044    1.4953238    2.0653652    -4.214661 
15040000    1.0183685 -2.7090187e-05   0.53597422 0.0079269678            0   0.52804725    1.5148232    2.0507974     1.126119 
15045000   0.93540458 -6.3790195e-06   0.63982565  0.013602221            0   0.62622343    1.3914143      2.03124    1.8135028 
15050000   0.97701261 -7.7239276e-06   0.58358568  0.034552949            0   0.54903273    1.4533063    2.0368919    1.7732485 
15055000    0.9717885 -4.7501721e-05   0.60472254  0.022796876            0   0.58192567    1.4455354    2.0502579   0.42886585 
15060000   0.95207275 -0.00012582279   0.63269748  0.018209688            0   0.61448779    1.4162082    2.0489057   -2.2458456 
15065000    1.0606975 6.6374112e-05   0.47762502 0.0088575051            0   0.46876752    1.5777876    2.0554126    4.3209823 
15070000   0.92904964 5.281351e-05   0.66890494  0.013096995            0   0.65580794    1.3819613    2.0508663    3.8535674 
15075000   0.99951237 3.621325e-05   0.57014358  0.012147026            0   0.55799656    1.4867746    2.0569182    3.2929972 
15080000    1.0655077 6.0847835e-05   0.51500791 0.0058206997            0   0.50918721    1.5849427    2.0999507    4.1768901 
15085000    1.0753397 -8.2592683e-05   0.53212078  0.012633365            0   0.51948742    1.5995678    2.1316886  -0.68747499 
15090000    1.0769585 -9.5347192e-05   0.54303122  0.016190992            0   0.52684023    1.6019758     2.145007   -1.1095104 
15095000    1.0622028 -3.2544787e-05   0.54554167  0.004457802            0   0.54108387    1.5800267    2.1255684    1.0147063 
15100000    1.0489814 4.2607303e-05   0.54494955  0.016800619            0   0.52814893    1.5603598    2.1053093    3.5596386 
15105000    1.0192465 -0.00011164135   0.60830404 0.0026690152            0   0.60563502    1.5161291    2.1244331   -1.6862582 
15110000    1.0078708 -0.0001544063   0.63002218 0.0052841357            0   0.62473805    1.4992079      2.12923   -3.1411715 
15115000    1.0489754 3.1046577e-06   0.57545938  0.060381846            0   0.51507753    1.5603509    2.1358103    2.2417826 
15120000    1.0263503 9.6316755e-05   0.59159901  0.033455053            0   0.55814395    1.5266961    2.1182951     5.405907 
15125000    1.0840277 0.00011522846   0.52123719 0.0076823831            0   0.51355481    1.6124912    2.1337284    6.0668599 
15130000    1.0367242 -0.00014984814   0.58143489  0.022847863            0   0.55858703    1.5421273    2.1235622   -2.9912543 
15135000    1.0169414 -8.5416418e-05   0.60384441  0.027849432            0   0.57599498    1.5127004    2.1165448  -0.79900228 
15140000   0.99964118 3.4622542e-05   0.63538389 0.0077129104            0   0.62767098    1.4869663    2.1223501    3.3041329 
15145000    1.0907092 -0.00012281136   0.48702972  0.012847683            0   0.47418204      1.62243    2.1094597   -2.0825012 
15150000    1.0517391 -0.00011339711   0.58208077  0.041021599            0   0.54105917     1.564462    2.1465427   -1.7240788 
15155000    1.0373851 8.7550511e-05    0.6126086  0.030494132            0   0.58211447    1.5431103    2.1557189    5.1441096 
15160000    1.1078323 5.7751742e-05   0.52475991  0.011438697            0   0.51332121    1.6479006    2.1726605      4.14392 
15165000    1.0265675 -6.2479284e-05   0.64962525 0.0088627016            0   0.64076255    1.5270192    2.1766445  0.044018229 
15170000      1.13374 0.00016479695   0.48549908  0.011089309            0   0.47440977    1.6864382    2.1719373    7.7970065 
15175000    1.0960347 0.00018807728   0.56225931 0.0099717485            0   0.55228756    1.6303516    2.1926109    8.6123154 
15180000    1.1393719 -8.7177208e-05   0.47812608 0.0074002614            0   0.47072581    1.6948158    2.1729418  -0.80270686 
15185000     1.026588 -0.00021736107   0.61745992  0.013983786            0   0.60347614    1.5270497    2.1445096   -5.2747483 
15190000    1.0731414 -0.00011606502   0.54809662  0.018549287            0   0.52954734    1.5962978    2.1443944   -1.8172916 
15195000     1.064352 1.7902186e-05   0.56773854  0.016253464            0   0.55148507    1.5832236    2.1509622    2.7620234 
15200000    1.0348844 3.4531941e-05   0.60691479  0.021628254            0   0.58528654    1.5393905    2.1463053    3.3249955 
15205000    1.0192209 -0.00010361548   0.62381693  0.041673861            0   0.58214307    1.5160911     2.139908   -1.3968339 
15210000    0.9951075 -0.00015739292   0.66104232  0.025625914            0   0.63541641    1.4802224    2.1412647   -3.2310802 
15215000    1.1156574 1.5535733e-05   0.49864679  0.043011782            0   0.45563501    1.6595403    2.1581871    2.6884735 
15220000    1.0575284 0.00023838208   0.58656761  0.026442965            0   0.56012464    1.5730734     2.159641    10.296416 
15225000     1.010735 7.3296911e-05   0.66402797  0.016411483            0   0.64761649    1.5034683    2.1674963    4.6693642 
15230000    1.0671198 -0.00019196279   0.59847582  0.035320819            0     0.563155    1.5873406    2.1858165   -4.3665135 
15235000     1.076758 -0.00015345916   0.58755107  0.033758672            0    0.5537924    1.6016776    2.1892286   -3.0488439 
15240000    1.0556759 -6.979352e-05   0.60577898  0.029103107            0   0.57667588    1.5703179    2.1760969  -0.20618855 
15245000    1.0609234 -0.0001530684   0.58784835  0.021472679            0   0.56637567    1.5781236    2.1659719   -3.0587627 
15250000    1.1276216 2.8727026e-06   0.47718093 0.0099779893            0   0.46720294    1.6773371    2.1545181     2.252573 
15255000    1.0187225 8.5126391e-05      0.63149  0.023331476            0   0.60815853    1.5153497    2.1468397    5.0524872 
15260000     1.041582 -0.00013009667   0.56961115  0.036613941            0   0.53299721    1.5493532    2.1189644   -2.3216688 
15265000    1.0378351 8.3070808e-06   0.59832821  0.018322526            0   0.58000569    1.5437798     2.142108    2.4256564 
15270000    1.0553691 7.3200387e-05   0.59006647  0.022761811            0   0.56730465    1.5698615    2.1599279    4.6585011 
15275000   0.99493404 -0.00012727309   0.66441866  0.025362522            0   0.63905614    1.4799644    2.1443831   -2.1998718 
15280000    1.0618436 -8.0297458e-05   0.56167718  0.019114638            0   0.54256255    1.5794924    2.1411696  -0.59965032 
15285000    1.0378304 2.9446079e-05   0.57225665  0.017711621            0   0.55454503    1.5437727    2.1160293    3.1211221 
15290000    1.0326646 -8.6322932e-05   0.58337491  0.029347309            0    0.5540276    1.5360886    2.1194635  -0.82702593 
15295000    1.0250951 -0.00011725855   0.60942105  0.024871823            0   0.58454922     1.524829    2.1342501   -1.8681753 
15300000    1.0817223 7.4553067e-05   0.52848031  0.018841669            0   0.50963864    1.6090619    2.1375422    4.6822869 
15305000    1.0588492 4.1040313e-05   0.55759559  0.052645408            0   0.50495018    1.5750383    2.1326338    3.5334765 
15310000   0.97961946 2.4318415e-05   0.65250778  0.074660954            0   0.57784683    1.4571839    2.1096917    2.9397603 
15315000    1.0597751 7.324882e-05    0.5101848   0.02425083            0   0.48593397    1.5764155    2.0866003    4.5868267 
15320000    1.0603343 -1.4610281e-05   0.53618683  0.033723601            0   0.50246323    1.5772472    2.1134341    1.6147365 
15325000    1.0892388 -0.00014417652   0.47383804  0.044656314            0   0.42918173    1.6202428    2.0940808   -2.8271444 
15330000    1.0544239 -0.00010579041   0.53152165  0.025159568            0   0.50636208    1.5684556    2.0999772   -1.5110022 
15335000    1.0451343 3.5044905e-05   0.54694765  0.033610616            0   0.51333704    1.5546373     2.101585    3.2977844 
15340000   0.99387747 -0.00012692785   0.60607168  0.019095718            0   0.58697596    1.4783927    2.0844644   -2.2480063 
15345000    1.0713888 -4.8510885e-05   0.48664878  0.016318208            0   0.47033057    1.5936908    2.0803396   0.42450138 
15350000    1.0573051 8.6465235e-05   0.51417598   0.03079252            0   0.48338346    1.5727414    2.0869174    5.0382641 
15355000   0.96630099 6.2894169e-05   0.65880752  0.025565201            0   0.63324232    1.4373727    2.0961802    4.2429679 
15360000    1.0772422 1.6952857e-06   0.49653732  0.014820684            0   0.48171664    1.6023978    2.0989351    2.1568009 
15365000    1.0669885 8.8704614e-06   0.51327147  0.022684139            0   0.49058733    1.5871454    2.1004169    2.4031953 
15370000    1.0672514 8.2856522e-05   0.51082949  0.068844536            0   0.44198496    1.5875365     2.098366    4.9265353 
15375000    1.0292147 8.5511385e-05   0.59238039  0.067996522            0   0.52438387    1.5309569    2.1233373    5.0421259 
15380000   0.99846062 -2.7803871e-05   0.63471463  0.012749665            0   0.62196497    1.4852102    2.1199248     1.170886 
15385000    1.0442288 0.00011648885   0.55974206   0.02379702            0   0.53594504    1.5532904    2.1130324     6.089185 
15390000     1.070814 8.3053884e-07   0.51385114  0.022323078            0   0.49152807    1.5928358     2.106687     2.135036 
15395000    1.0617101 -1.982259e-05   0.54025127 0.0073168318            0   0.53293444    1.5792938    2.1195451     1.442934 
15400000    1.0734105 -6.762793e-05   0.49530938  0.022875201            0   0.47243417     1.596698    2.0920074  -0.21635925 
15405000    1.0298699 -0.00013506825   0.57038827  0.039308284            0   0.53107998    1.5319314    2.1023197   -2.5080099 
15410000    1.0459925 -0.00011390018   0.54804172  0.017165678            0   0.53087604    1.5559139    2.1039556   -1.7838374 
15415000    1.0466842 -7.9997022e-05   0.55507667  0.045190142            0   0.50988653    1.5569427    2.1120194  -0.61854563 
15420000    1.0123395 5.5254267e-05   0.56435217  0.024358816            0   0.53999336     1.505855    2.0702072    3.9562195 
15425000    1.0786651 9.5412568e-05   0.44734544  0.035941952            0   0.41140349    1.6045143    2.0518597    5.3086087 
15430000   0.95541532 0.00018852945   0.61421301  0.042815152            0   0.57139786    1.4211803    2.0353933     8.470532 
15435000    1.0436811 2.9683811e-05   0.48715241  0.020166897            0   0.46698551    1.5524756     2.039628    3.0528354 
15440000     1.014241 -0.00020873279   0.54549922  0.011971202            0   0.53352802    1.5086835    2.0541828    -5.070563 
15445000    1.0173291 -2.7614991e-05   0.54079172   0.03958922            0    0.5012025     1.513277    2.0540687     1.111477 
15450000    1.0414677 0.00016689269   0.52526966  0.020780713            0   0.50448894    1.5491833    2.0744529    7.7710569 
15455000    1.0027982 0.00014955824   0.59787907 0.0049690613            0   0.59291001    1.4916624    2.0895415    7.1944626 
15460000    1.0903679 7.6456638e-05   0.50516244  0.014073311            0   0.49108913    1.6219223    2.1270847    4.7368046 
15465000   0.97523486 4.1481309e-05   0.68852439  0.038154888            0    0.6503695    1.4506619    2.1391862    3.5550816 
15470000    1.0738632 7.5753769e-05   0.56432463   0.03692289            0   0.52740174    1.5973715    2.1616961    4.7474248 
15475000    1.0708605 0.00010057945    0.5434538  0.032163929            0   0.51128987     1.592905    2.1363588    5.5694707 
15480000    1.0195788 -4.963074e-05   0.63351144  0.047536783            0   0.58597466    1.5166234    2.1501348   0.45607225 
15485000    1.0779398 -0.00012042129   0.56766068  0.057759658            0   0.50990102    1.6034354    2.1710961   -1.9392839 
15490000    1.1538832 8.8683307e-06   0.45676226   0.01954238            0   0.43721988    1.7164013    2.1731636    2.4758692 
15495000     1.070884 8.806926e-05   0.56875638  0.019216297            0   0.54954008    1.5929399    2.1616963    5.1677937 
15500000    0.9953215 6.6757653e-05   0.69441533  0.051481157            0   0.64293418    1.4805407    2.1749561    4.4536173 
15505000    1.0140847 -3.2294356e-05   0.64370905  0.045733308            0   0.59797574     1.508451    2.1521601    1.0498461 
15510000    1.0839921 -0.0001183709   0.53780144  0.038923975            0   0.49887747    1.6124383    2.1502397   -1.8901536 
15515000    1.0269765 -0.00010909413   0.61024239  0.048320428            0   0.56192197    1.5276275    2.1378699   -1.5858766 
15520000    1.0555517 -4.3429667e-05   0.54819113  0.013995389            0   0.53419574    1.5701332    2.1183243   0.63592497 
15525000    1.0510422 5.650225e-05   0.54188636 0.0080454415            0   0.53384092    1.5634252    2.1053116    4.0339217 
15530000     1.092193 -2.9563277e-05    0.4970612  0.019934022            0   0.47712718    1.6246371    2.1216983    1.1126051 
15535000   0.97829512 -0.00011612477   0.67508126  0.033479561            0    0.6416017     1.455214    2.1302953   -1.8334301 
15540000    1.0881502 -2.2739711e-05   0.49846959  0.038430972            0   0.46003862    1.6186234     2.117093    1.3409109 
15545000     1.055834 -5.7188089e-05   0.55855805  0.019069609            0   0.53948844    1.5705531    2.1291111   0.17709104 
15550000    1.0202718 -5.4896619e-05   0.59868624  0.013225735            0   0.58546051    1.5176543    2.1163405   0.24253594 
15555000   0.96711878 4.1983518e-05   0.65222304  0.015498678            0   0.63672436    1.4385892    2.0908122    3.5238496 
15560000   0.98966082 9.467846e-05   0.59571701  0.040420911            0    0.5552961    1.4721205    2.0678375    5.2995289 
15565000    1.0702044 -2.3238432e-06     0.474656  0.059719432            0   0.41493657     1.591929     2.066585    1.9872645 
15570000     1.047314 -7.8340324e-05   0.50469657  0.033226166            0   0.47147041    1.5578796    2.0625762  -0.61144021 
15575000   0.99796052 8.9677416e-06   0.56615286  0.026415388            0   0.53973747    1.4844663    2.0506191    2.3567181 
15580000    1.0566965 0.00010308657   0.50844376 0.0089028467            0   0.49954092    1.5718361    2.0802798     5.598968 
15585000    1.0852457 0.00014413844     0.469433 0.0090324752            0   0.46040052    1.6143029    2.0837359    7.0036612 
15590000    1.0921954 9.182626e-05   0.44012473  0.024756724            0   0.41536801    1.6246406    2.0647654    5.1991017 
15595000    1.0252862 -0.00013350203   0.55394372  0.022562315            0   0.53138141    1.5251132    2.0790569   -2.4778124 
15600000    1.0240808 2.4869808e-05   0.56393447   0.01876058            0   0.54517389    1.5233202    2.0872547    2.9361441 
15605000    1.0759091 0.00010799296   0.49662609  0.001221597            0   0.49540449    1.6004148    2.0970409    5.7832005 
15610000    1.0344633 -5.7574139e-05    0.5448054 0.0051531079            0   0.53965229    1.5387642    2.0835696   0.11837231 
15615000    1.0034872 5.971282e-05   0.57965064    0.0335935            0   0.54605714    1.4926872    2.0723378    4.1105354 
15620000   0.98574805 0.00024735443   0.59311394  0.025745238            0    0.5673687    1.4663002    2.0594142    10.502445 
15625000    1.1213038 2.5616599e-05   0.38872602 0.0064660289            0   0.38225999    1.6679393    2.0566654    2.9310453 
15630000   0.97765681 -0.00028679526   0.60853833 0.0079778812            0   0.60056045    1.4542645    2.0628028   -7.7264754 
15635000    1.0259729 -2.3961505e-05   0.51977075   0.01184286            0   0.50792789    1.5261347    2.0459055    1.2280195 
15640000    1.0114245 -5.6981449e-05   0.54206141  0.014192832            0   0.52786858    1.5044939    2.0465553   0.10158856 
15645000   0.96397143 -0.00016453305   0.57739227  0.011461773            0   0.56593049    1.4339075    2.0112998   -3.6047616 
15650000   0.99851265 -6.6065481e-05   0.53878557  0.025011648            0   0.51377392    1.4852876    2.0240731  -0.23096194 
15655000   0.98225761 -7.7699923e-05   0.57033519  0.043435315            0   0.52689987    1.4611082    2.0314434  -0.62071398 
15660000   0.99651163 0.00011805188   0.56120535  0.023874066            0   0.53733128    1.4823111    2.0435164    6.0730207 
15665000    1.0365439 1.4401419e-05   0.50142681    0.0177336            0   0.48369321    1.5418591    2.0432859    2.5348544 
15670000    1.0100527 -6.90465e-06   0.55144709 0.0074718408            0   0.54397525    1.5024533    2.0539004    1.8182217 
15675000    1.0231882 5.468944e-05   0.53671356  0.011355932            0   0.52535762    1.5219925     2.058706    3.9254389 
15680000    1.0170376 -0.00014597333   0.55459308 0.0055716149            0   0.54902146    1.5128435    2.0674365   -2.9151198 
15685000   0.98219926 -9.1896165e-05   0.60332207 0.0092982049            0   0.59402386    1.4610214    2.0643435    -1.072379 
15690000   0.97393507 -9.9969944e-06   0.60018706  0.027799518            0   0.57238754    1.4487284    2.0489155    1.7076847 
15695000   0.98093201 -5.084512e-05    0.5751667  0.037869375            0   0.53729733    1.4591364    2.0343031   0.29878965 
15700000    1.0259348 -8.2673354e-05   0.51061509  0.034683989            0    0.4759311     1.526078    2.0366931  -0.78522402 
15705000   0.98525375 4.5398869e-05   0.59808597  0.054864469            0    0.5432215     1.465565    2.0636509    3.6132657 
15710000    1.0208538 5.3864872e-05   0.53538966  0.023812135            0   0.51157752    1.5185201    2.0539097    3.8924973 
15715000    1.0524495 1.1749206e-05    0.5103453  0.015987555            0   0.49435774    1.5655187     2.075864    2.4769035 
15720000    1.0668804 -9.0374911e-05   0.48860186  0.006338365            0    0.4822635    1.5869845    2.0755864   -1.0092106 
15725000    1.0451925 -9.6119208e-07   0.52916394  0.005641349            0    0.5235226    1.5547239    2.0838878    2.0510792 
15730000   0.96156193 3.6310034e-05     0.618658   0.01348253            0   0.60517547    1.4303234    2.0489814    3.2883639 
15735000    1.0829136 -4.8114295e-05   0.44203902  0.022444671            0   0.41959435     1.610834     2.052873   0.41057175 
15740000    1.0102869 -5.1920201e-05   0.58728191  0.027256295            0   0.56002561    1.5028018    2.0900837   0.31787418 
15745000    1.0186158 5.1273509e-05   0.56680581  0.011284787            0   0.55552103     1.515191    2.0819968    3.8321326 
15750000   0.99652342 0.00011422995   0.61119928  0.020457745            0   0.59074154    1.4823286    2.0935279    5.9925769 
15755000    1.0265374 7.6894317e-07   0.57165275  0.026150315            0   0.54550244    1.5269744    2.0986271    2.1248737 
15760000    1.0096448 -1.1900349e-05   0.61713063  0.022868639            0   0.59426199    1.5018467    2.1189773    1.7127787 
15765000   0.99825001 -1.2966331e-05    0.6163355  0.044324204            0   0.57201129    1.4848969    2.1012324    1.6586483 
15770000    1.1144524 -7.7135896e-05   0.44107268  0.018846922            0   0.42222576     1.657748    2.0988207  -0.53408459 
15775000   0.94018925 -2.8679753e-07   0.66519343 0.0058624684            0   0.65933096    1.3985315    2.0637249    2.0539356 
15780000    1.0345341 3.1271007e-05    0.4990787 0.0048940378            0   0.49418466    1.5388694    2.0379481    3.1053318 
15785000    1.0445404 5.5949223e-05   0.50491197 0.0040530146            0   0.50085895    1.5537538    2.0586658    3.9683993 
15790000    1.0024999 1.4987453e-05   0.57993252  0.021327265            0   0.55860526    1.4912185    2.0711511    2.5827228 
15795000    1.0031531 0.00014455295   0.58973218  0.031464551            0   0.55826763    1.4921903    2.0819224    7.0159964 
15800000    1.0071949 0.00033391112   0.57867427  0.011588729            0   0.56708554    1.4982024    2.0768766    13.474376 
15805000    1.0366111 0.00012570931   0.53481311  0.013226982            0   0.52158613     1.541959    2.0767721    6.3676497 
15810000    1.0290621 -7.486935e-05   0.54666079  0.015868245            0   0.53079255    1.5307299    2.0773907  -0.47814976 
15815000    1.0329155 6.8136758e-05   0.54331953  0.028692506            0   0.51462702    1.5364618    2.0797814     4.405516 
15820000    1.0177626 0.00011615799   0.53864106  0.028435921            0   0.51020514    1.5139219    2.0525629    6.0174222 
15825000   0.95235529  0.000164303   0.66482312  0.053194236            0   0.61162888    1.4166285    2.0814516    7.6896606 
15830000    1.0286947 0.00012916278   0.56298376   0.07932987            0   0.48365389    1.5301834    2.0931672    6.5019235 
15835000    1.0495925 -1.5572934e-05   0.54113284  0.036930569            0   0.50420227    1.5612689    2.1024017    1.5708456 
15840000   0.97872654 -0.00017549501   0.66749789  0.050986892            0     0.616511    1.4558557    2.1233536    -3.866876 
15845000    1.0111435 -0.00011343496   0.64419751  0.028999565            0   0.61519795    1.5040759    2.1482735     -1.72364 
15850000    1.0928024 -4.9874801e-05   0.53942904  0.033184987            0   0.50624406    1.6255435    2.1649726   0.46257937 
15855000     1.090266 2.4101591e-05   0.56937087  0.024991748            0   0.54437912    1.6217707    2.1911416    3.0138092 
15860000    1.1018927 4.9793661e-05   0.55247878  0.019904776            0     0.532574    1.6390655    2.1915442    3.8911679 
15865000    1.0579305 -0.00014470021   0.61149237  0.026832102            0   0.58466026    1.5736716     2.185164   -2.7539367 
15870000    1.0993161 -1.3017651e-05   0.53785613  0.042296537            0   0.49555959    1.6352327    2.1730888     1.728753 
15875000    1.1231829 -0.00010472604   0.50111019  0.011522839            0   0.48958735    1.6707346    2.1718448   -1.4028041 
15880000    1.0473289 -0.00015347091   0.61215052  0.010427427            0   0.60172309    1.5579018    2.1700523   -3.0684214 
15885000    1.0254814 -0.00011504472   0.64515866   0.01766469            0   0.62749397    1.5254035    2.1705622   -1.7562974 
15890000    1.1183808 -5.2292069e-05   0.50924103 0.0062596724            0   0.50298136    1.6635914    2.1728325   0.38792982 
15895000    1.1129391 1.362128e-05   0.51018661 0.0066773575            0   0.50350925    1.6554968    2.1656835    2.6306231 
15900000    1.0989868 -0.0001138509   0.54152312  0.014124521            0    0.5273986    1.6347428     2.176266   -1.7098449 
15905000    1.1139008 -3.7877388e-05   0.49963567 0.0069658597            0   0.49266981    1.6569275    2.1565631   0.86368162 
15910000    1.1022506 4.4419123e-05   0.51226178   0.00704866            0   0.50521312    1.6395978    2.1518596    3.6680323 
15915000    1.1399291 -5.6970373e-05   0.48691947 0.0099919702            0    0.4769275    1.6956446    2.1825641   0.23797534 
15920000     1.136757 -0.00013526707   0.50510616  0.017555272            0   0.48755089    1.6909261    2.1960323   -2.4210839 
15925000    1.0933229 0.00013514862   0.53832113   0.01361751            0   0.52470362    1.6263179     2.164639    6.7777119 
15930000    1.0571935 0.00015325184    0.6034482  0.015770805            0   0.58767739    1.5725753    2.1760235    7.4070196 
15935000    1.0375046 -5.2173529e-05   0.59829047  0.061613124            0   0.53667735    1.5432882    2.1415786   0.36072216 
15940000    1.1035344 2.0337453e-05   0.50037308  0.027880284            0   0.47249279    1.6415074    2.1418805    2.8360655 
15945000    1.0810287 3.8170333e-06   0.52048038  0.011326576            0   0.50915381    1.6080301    2.1285105    2.2587986 
15950000    1.0859353 2.3507998e-05   0.50867761  0.016347127            0   0.49233049    1.6153287    2.1240063    2.9264126 
15955000    1.0755421 5.7660321e-05   0.52591121  0.030700004            0   0.49521121    1.5998689    2.1257801    4.0939191 
15960000    1.0230541 6.4994556e-05   0.59033461 0.0088363731            0   0.58149824     1.521793    2.1121276    4.3306085 
15965000    1.0768118 3.3236496e-06   0.53532497  0.006414583            0   0.52891039    1.6017575    2.1370825    2.2505297 
15970000   0.99982042 -0.00010763508   0.64745431  0.020706653            0   0.62674765    1.4872329    2.1346872   -1.5392569 
15975000    1.1133388 -3.6975736e-05   0.47951401  0.029350581            0   0.45016343    1.6560915    2.1356055   0.87350038 
15980000    1.0663842 0.00013419452   0.55360788  0.018503433            0   0.53510445    1.5862465    2.1398544    6.7203607 
15985000    1.0617815 9.9582151e-05   0.55952319  0.019021996            0   0.54050119       1.5794    2.1389232     5.537994 
15990000    1.0513358 -7.6626514e-05   0.55937385 0.0090201863            0   0.55035366     1.563862    2.1232359  -0.49228249 
15995000    1.1017124 3.6901865e-05   0.47589225  0.019843695            0   0.45604856    1.6387971    2.1146894    3.3742731 
16000000    1.0100435 5.3349061e-05   0.59746321  0.024335058            0   0.57312815    1.5024397     2.099903    3.9208842 
16005000    1.0115894 -0.00011141213   0.59115914  0.018737254            0   0.57242189    1.5047392    2.0958984   -1.7069692 
16010000    1.0519254 3.5162645e-06   0.54540191  0.016033538            0   0.52936837     1.564739    2.1101409    2.2301628 
16015000    1.0975796 9.2771868e-05   0.46694164  0.019165886            0   0.44777576    1.6326497    2.0995913    5.2662044 
16020000     1.044216 -0.00010469293   0.56956208 0.0024546499            0   0.56710743    1.5532712    2.1228333   -1.4506854 
16025000    1.0773092 -5.6167223e-05    0.5083155 0.0080658996            0    0.5002496    1.6024975     2.110813   0.19363841 
16030000    1.0728645 0.00012671929   0.52868469 0.0061770682            0   0.52250762    1.5958859    2.1245706    6.4499225 
16035000    1.0536444 -8.6057653e-05   0.53609674  0.018717647            0    0.5173791     1.567296    2.1033928  -0.83404178 
16040000     1.087927 -0.00014942395   0.50308822  0.028620213            0   0.47446801    1.6182914    2.1213796   -2.9789578 
16045000    1.0614207 4.9641586e-05   0.54788982  0.012329536            0   0.53556028    1.5788634    2.1267532     3.821186 
16050000    1.0719205 5.0831953e-05   0.51023896  0.018400068            0   0.49183889    1.5944817    2.1047207    3.8397847 
16055000    1.0275711 -0.00010085684   0.56863903 0.0010372434            0   0.56760179     1.528512     2.097151   -1.3454291 
16060000    1.1243534 5.683806e-05   0.43508704  0.005523934            0   0.42956311    1.6724757    2.1075627    4.0476351 
16065000    1.1295104 7.747675e-05   0.46242364   0.01167628            0   0.45074736    1.6801467    2.1425704    4.7871101 
16070000    1.0705689 -9.3395981e-05   0.55719569  0.005141646            0   0.55205404    1.5924713     2.149667   -1.0382492 
16075000    1.0875202 9.423171e-05   0.53384779 0.0062944064            0   0.52755338    1.6176863    2.1515341    5.3679765 
16080000    1.1126937 -2.1264317e-05   0.48503223  0.016077004            0   0.46895522    1.6551319    2.1401641    1.4143421 
16085000    1.0797954 -5.7899677e-05   0.54382313  0.019772204            0   0.52405093    1.6061957    2.1500188   0.17370982 
16090000      1.06721 0.00013834046   0.58897221  0.040844664            0   0.54812755    1.5874748     2.176447     6.898468 
16095000    1.0946363 7.6298902e-05   0.54387454  0.046737474            0   0.49713707    1.6282716    2.1721461     4.776482 
16100000    1.0581345 4.8918215e-05   0.60533957  0.037478652            0   0.56786092    1.5739751    2.1793146    3.8490564 
16105000    1.0887192 0.00010478886   0.57555577  0.028774435            0   0.54678133    1.6194699    2.1950256    5.7718187 
16110000    1.0708741 -6.2997053e-05   0.58805458  0.028177355            0   0.55987723    1.5929252    2.1809798  0.030680412 
16115000    1.0858549 -0.00011882998   0.56514812  0.011568768            0   0.55357935    1.6152092    2.1803573    -1.875706 
16120000    1.1367724 1.0786253e-05   0.49928788   0.00980941            0   0.48947847     1.690949    2.1902369    2.5584077 
16125000    1.1120601 -7.9987838e-06    0.5495437 0.00086921245            0   0.54867449    1.6541894    2.2037331    1.9307079 
16130000    1.1143609 -2.5110112e-05   0.54268882 0.0015705953            0   0.54111822    1.6576118    2.2003007    1.3432088 
16135000    1.1434011 5.692071e-05   0.49388226  0.017227411            0   0.47665485    1.7008092    2.1946914     4.137585 
16140000    1.0830371 0.00010341846   0.55617634  0.036435181            0   0.51974116    1.6110176     2.167194    5.6972107 
16145000    1.0673575 9.095092e-05   0.53542303  0.020469039            0     0.514954    1.5876943    2.1231173    5.2275754 
16150000    1.0830783 -0.00016033573   0.55446668  0.016828117            0   0.53763856    1.6110789    2.1655456   -3.3072474 
16155000    1.1079413 -0.00018737859   0.52308085  0.037117732            0   0.48596312    1.6480627    2.1711435   -4.2247124 
16160000    1.0569292 5.073017e-06   0.59649871 0.0094393338            0   0.58705938    1.5721822    2.1686809    2.3418399 
16165000    1.0803228 -3.8038005e-05   0.55066724 0.0078848737            0   0.54278236    1.6069801    2.1576474   0.85928347 
16170000    1.0151221 -0.00011808601   0.64242695  0.021901742            0   0.62052521    1.5099941     2.152421   -1.8782483 
16175000    1.0870613 -7.7407136e-05   0.53835683  0.026503105            0   0.51185372    1.6170037    2.1553605  -0.48680305 
16180000    1.0683287 1.3046323e-05   0.56145042   0.03222252            0    0.5292279     1.589139    2.1505894    2.5959039 
16185000    1.0478167 -3.8743717e-05   0.56213723  0.014301449            0   0.54783579    1.5586273    2.1207646   0.79831235 
16190000    1.0982412 7.685284e-05   0.47727218  0.031140881            0    0.4461313    1.6336338     2.110906    4.7341496 
16195000    1.0997692 -0.00011222062   0.47867837  0.036374361            0   0.44230401    1.6359067    2.1145851   -1.7158787 
16200000    1.1315462 -4.5514639e-05   0.42537736 0.0039677487            0   0.42140961     1.683175    2.1085524   0.55498602 
16205000    1.0552538 5.9981546e-05   0.52785524 0.0012909057            0   0.52656434    1.5696901    2.0975453    4.1449154 
16210000    1.0412663 4.070337e-05   0.55413446  0.029123245            0   0.52501121    1.5488836    2.1030181    3.4923598 
16215000     1.036802 6.3137713e-05   0.57286926  0.059742431            0   0.51312683    1.5422429    2.1151122    4.2702128 
16220000    1.0536519 7.5645088e-05   0.55130991  0.018889717            0   0.53242019    1.5673072    2.1186171    4.7006361 
16225000    1.1291415 4.4051708e-05   0.45430844  0.011248323            0   0.44306012     1.679598    2.1339065    3.6375381 
16230000    1.1304124 8.0648288e-05   0.46004302   0.01972439            0   0.44031863    1.6814884    2.1415315    4.8943263 
16235000    1.0836873 5.9641071e-05   0.53528973  0.011583837            0   0.52370589    1.6119849    2.1472747    4.1830232 
16240000    1.0186154 8.3180975e-05   0.62923527 0.0096005084            0   0.61963476    1.5151904    2.1444257    4.9836696 
16245000    1.0758994 -4.2183649e-06   0.53034103  0.015244825            0   0.51509621    1.6004003    2.1307413    1.9867545 
16250000    1.0840214 -0.00012173344   0.52676972  0.015454631            0   0.51131509    1.6124819    2.1392516   -2.0159163 
16255000   0.99844294 4.1700621e-05   0.64159905  0.040350548            0    0.6012485    1.4851839    2.1267829    3.5501641 
16260000    1.0691741 2.7607254e-05     0.566076  0.017374092            0   0.54870191    1.5903965    2.1564725    3.0988001 
16265000    1.1006089 -0.00022317955   0.51552531  0.015730849            0   0.49979446    1.6371557     2.152681   -5.4651809 
16270000    1.1241206 -0.00017898136   0.46944298  0.040347408            0   0.42909557    1.6721293    2.1415723   -3.9676582 
16275000    1.0104827 0.00010498943   0.62815358  0.035465167            0   0.59268841    1.5030931    2.1312467    5.7148858 
16280000    1.0491104 5.9133408e-05   0.56831506 0.0071502699            0   0.56116479    1.5605518    2.1288668    4.1472872 
16285000    1.0956675 2.2194237e-05   0.51680941  0.011606204            0   0.50520321    1.6298054    2.1466148    2.9041781 
16290000    1.0541531 6.5253457e-05   0.57415734  0.030576939            0    0.5435804    1.5680527    2.1422101    4.3695281 
16295000   0.99024156 -7.2107259e-05   0.64442865  0.019536145            0    0.6248925    1.4729843     2.117413  -0.34384814 
16300000    1.1157748 3.6386288e-05   0.46763067  0.042204641            0   0.42542603     1.659715    2.1273457     3.369331 
16305000    1.0799916 3.7826203e-05   0.48512718  0.040495104            0   0.44463208    1.6064875    2.0916147    3.3827491 
16310000   0.99267151 -1.3280385e-05   0.59741471  0.016057921            0   0.58135679    1.4765989    2.0740136    1.6207098 
16315000    1.0291431 9.0680165e-06   0.52781231  0.021392166            0   0.50642015    1.5308503    2.0586626    2.3681843 
16320000    1.0033321 -4.7706078e-05   0.57270695  0.013367389            0   0.55933957    1.4924564    2.0651634   0.43679593 
16325000    1.0142667 1.0408552e-05   0.54120235 0.0027901846            0   0.53841216    1.5087217     2.049924    2.4052026 
16330000    1.0538617 5.350871e-05   0.47407023 0.0033802913            0   0.47068994    1.5676192    2.0416894    3.8681201 
16335000    1.0019619 -3.2275795e-05   0.54640008  0.013509372            0   0.53289071    1.4904183    2.0368184   0.93513789 
16340000   0.96444042 -0.00011456499   0.60325058  0.036357279            0    0.5668933    1.4346051    2.0378557   -1.8726291 
16345000   0.93222093 -2.1065643e-05   0.65209679  0.059091538            0   0.59300526    1.3866786    2.0387754    1.3197348 
16350000    1.0079269 2.2099646e-05    0.5571297  0.026140195            0    0.5309895    1.4992913     2.056421    2.8107555 
16355000     1.048953 -6.6793171e-05   0.49424742  0.020266957            0   0.47398046    1.5603176    2.0545651   -0.2253085 
16360000    1.0549275 -9.3940353e-05    0.4865339  0.012297101            0    0.4742368    1.5692047    2.0557386   -1.1507588 
16365000    1.0614966 -1.8562229e-05   0.48792276  0.019891129            0   0.46803163    1.5789761    2.0668989    1.4333081 
16370000   0.95897129 6.205315e-05   0.65615141  0.016359308            0   0.63979211    1.4264698    2.0826212    4.2007021 
16375000    1.0331977 4.5436512e-05   0.55166615 0.0085394468            0    0.5431267    1.5368816    2.0885477    3.6394473 
16380000    1.0401201 -3.4989241e-05   0.54977115  0.030334437            0   0.51943671    1.5471787    2.0969499   0.90265043 
16385000    1.0290553 -7.1128463e-05   0.55927516  0.028496108            0   0.53077905    1.5307198     2.089995   -0.3378566 
16390000    1.0322948 -6.5784461e-05   0.56054688  0.020757156            0   0.53978972    1.5355385    2.0960854  -0.14935753 
16395000   0.96125913 -0.00020066527    0.6561527  0.040607612            0   0.61554509     1.429873    2.0860256   -4.7633489 
16400000    1.0211097 -4.3360047e-05   0.56825275  0.041333955            0   0.52691879    1.5189006    2.0871534   0.60713045 
16405000    1.0608762 3.5392997e-05   0.48793164  0.028328942            0    0.4596027    1.5780533    2.0659849    3.2740659 
16410000    1.0479061 2.5155152e-06   0.51896502  0.016033828            0   0.50293119    1.5587603    2.0777253    2.1635882 
16415000    1.0272948 8.403465e-05   0.55342782  0.017798873            0   0.53562894     1.528101    2.0815288    4.9499115 
16420000   0.97787365 0.00015854692   0.61947586   0.01106135            0   0.60841451    1.4545871    2.0740629    7.4857979 
16425000    1.0721235 0.00015476428   0.50990927  0.015539583            0   0.49436969    1.5947838     2.104693    7.3873139 
16430000    1.0853246 3.7200085e-05   0.48851036   0.02197407            0   0.46653629    1.6144204    2.1029307    3.3726936 
16435000    1.0743199 -9.1910868e-05   0.50081836  0.022166466            0    0.4786519    1.5980509    2.0988693    -1.038355 
16440000    1.0273996 -0.0001013607   0.54729489  0.019232598            0    0.5280623    1.5282569    2.0755518   -1.3842267 
16445000    1.0247392 -3.408153e-05   0.56197832  0.021753553            0   0.54022476    1.5242995    2.0862779   0.92296161 
16450000    1.0107368 -4.586175e-05   0.58139276  0.044683001            0   0.53670976    1.5034709    2.0848637    0.5194493 
16455000    1.0757821 -0.0001319852   0.47846667 0.0067600346            0   0.47170664    1.6002259    2.0786926   -2.4264023 
16460000    1.0583989 -8.3247748e-05   0.48666565 0.0016335686            0   0.48503209    1.5743684    2.0610341  -0.78048905 
16465000   0.94875776 -3.8565373e-05   0.66558709  0.004236228            0   0.66135086    1.4112772    2.0768643   0.76049954 
16470000    1.0341765 -2.7154315e-05   0.54737986 0.0081990755            0   0.53918079    1.5383376    2.0857175    1.1588502 
16475000     1.052457 -1.4736119e-05   0.52947392  0.017231231            0   0.51224269    1.5655298    2.0950037    1.5920108 
16480000    1.0524363 -3.5787792e-05   0.53744215   0.02616336            0   0.51127879     1.565499    2.1029412   0.88138455 
16485000    1.0074699 -5.9114622e-05   0.61052463  0.031328954            0   0.57919568    1.4986115    2.1091362   0.09135708 
16490000    1.0290338 3.7526853e-05    0.6210505  0.032992418            0   0.58805808    1.5306878    2.1517383    3.4326549 
16495000    1.0543138 0.00010295269   0.59716752  0.018545746            0   0.57862177    1.5682917    2.1654593    5.6795778 
16500000    1.1102337 0.00011840014   0.51525549  0.020115047            0   0.49514044    1.6514726    2.1667281    6.2081195 
16505000    1.0552185 1.0487067e-05   0.57285154  0.011470051            0   0.56138148    1.5696376    2.1424891    2.5004476 
16510000    1.1132952 2.4781845e-05   0.49369267 0.0083615589            0   0.48533112    1.6560266    2.1497193    2.9956063 
16515000    1.0846676 3.2730815e-05   0.54380756   0.01237382            0   0.53143374    1.6134431    2.1572507    3.2744625 
16520000    1.0945066 -9.841554e-05    0.5150458 0.0083072337            0   0.50673857    1.6280785    2.1431244   -1.2161261 
16525000    1.0947698 -0.00010065668   0.49559888 0.0087436665            0   0.48685521    1.6284701    2.1240689   -1.3116789 
16530000     1.093471 2.7774845e-05   0.50579227  0.015242521            0   0.49054975    1.6265382    2.1323305    3.0803785 
16535000   0.99179692 0.00017197238   0.63679352  0.039634548            0   0.59715897    1.4752979    2.1120914     7.982082 
16540000    1.0985923 0.00017358326   0.46401606 0.0089702697            0   0.45504579     1.634156    2.0981721    8.0231475 
16545000     1.042394 6.3307912e-06   0.56510893 0.0091822712            0   0.55592666    1.5505611    2.1156701    2.3317611 
16550000     1.042505 -6.2808594e-05    0.5583004 0.0030620311            0   0.55523837    1.5507262    2.1090266 -0.034840063 
16555000    1.0113249 4.7234828e-05    0.6141807  0.028082052            0   0.58609865    1.5043458    2.1185265    3.7308086 
16560000    1.0965024 0.00012169056   0.48128974   0.01461832            0   0.46667142    1.6310474    2.1123371    6.2660415 
16565000    1.1111373 -4.7112212e-05   0.46086472 0.0033800774            0   0.45748464    1.6528167    2.1136814   0.50558459 
16570000    1.0305363 -0.00021322186   0.58235063  0.011516059            0   0.57083457    1.5329228    2.1152734   -5.1626994 
16575000    1.0427791 -1.4247011e-05   0.56299594    0.0334725            0   0.52952344    1.5511339    2.1141298    1.6278319 
16580000    1.0805102 7.5237473e-05   0.52704553  0.049164348            0   0.47788118    1.6072589    2.1343044    4.7024102 
16585000   0.98681755 -6.3949893e-05   0.66424182  0.056872932            0   0.60736889    1.4678911    2.1321329 -0.050690111 
16590000    1.0914896 -3.1797797e-05   0.55345898  0.022784561            0   0.53067442    1.6235907    2.1770497    1.0916849 
16595000    1.1253659 -2.1380511e-05   0.51839537 0.0065905612            0   0.51180481    1.6739817    2.1923771     1.462589 
16600000    1.1264327 -8.0125066e-05   0.50691447  0.011641201            0   0.49527327    1.6755686    2.1824831   -0.5524525 
16605000    1.0800603 6.3379363e-05   0.58248059  0.016641041            0   0.56583955    1.6065897    2.1890703    4.3524192 
16610000    1.0419795 -2.2879308e-05   0.62213637  0.032879946            0   0.58925642    1.5499445    2.1720808    1.3911338 
16615000    1.1407046 -3.1810463e-05   0.47769522  0.022039508            0   0.45565571    1.6967981    2.1744933    1.0886962 
16620000    1.1047719 3.5820881e-05   0.51363654  0.030124547            0     0.483512    1.6433481    2.1569847    3.3796708 
16625000    1.0495612 -8.6724452e-06   0.59873486 0.0081431258            0   0.59059173    1.5612223    2.1599571    1.8639377 
16630000    1.1357367 2.3263166e-05   0.47655584 0.0048315279            0   0.47172431    1.6894084    2.1659642    2.9600136 
16635000    1.0509345 3.2060383e-05   0.59458982 0.0049428258            0     0.589647    1.5632651    2.1578549    3.2521827 
16640000    1.0602301 -9.2977545e-05    0.5922461 0.0038333362            0   0.58841276    1.5770923    2.1693384   -1.0042952 
16645000    1.1276479 -3.0978403e-05    0.5021343  0.012165465            0   0.48996883    1.6773763    2.1795106    1.1221144 
16650000    1.0555822 3.9902972e-05   0.57983736 0.0065728758            0   0.57326449    1.5701786    2.1500159    3.5120374 
16655000    1.0394439 -0.00012178016   0.61630167 0.0038128297            0   0.61248884    1.5461728    2.1624745   -1.9942883 
16660000     1.148375 3.1199026e-05   0.47412907 0.0046390287            0   0.46949004    1.7082078    2.1823368    3.2472636 
16665000    1.0857555 2.384938e-05   0.58731283  0.011304139            0   0.57600869    1.6150613    2.2023742     3.016433 
16670000    1.0584146 3.2781774e-05   0.60649719  0.041277393            0   0.56521979    1.5743917    2.1808889    3.2998401 
16675000    1.0870368 0.00012173603   0.57154116  0.017774699            0   0.55376647    1.6169672    2.1885084    6.3437647 
16680000    1.0847629 -4.3518505e-05   0.55154233  0.013756309            0   0.53778602    1.6135848    2.1651272   0.67969553 
16685000    1.1197438 2.1057456e-05   0.50354285  0.020619191            0   0.48292366    1.6656189    2.1691618    2.8879229 
16690000    1.0163934 5.5075496e-05    0.6634393  0.031983551            0   0.63145575    1.5118852    2.1753245    4.0552348 
16695000    1.0932744 -5.2520726e-05   0.54113194  0.030904097            0   0.51022784    1.6262456    2.1673776   0.37467011 
16700000    1.0738943 -3.2994729e-05   0.59346105  0.027688712            0   0.56577234    1.5974178    2.1908789    1.0646588 
16705000      1.04401 0.00025348066   0.65976069  0.039641166            0   0.62011952    1.5529648    2.2127255    10.864865 
16710000    1.0544479 9.2691389e-05    0.6383753  0.023819598            0   0.61455571    1.5684913    2.2068666    5.3707327 
16715000    1.0795472 -7.7059314e-06   0.60547173  0.011733379            0   0.59373835    1.6058264    2.2112981     1.948269 
16720000    1.0581803 3.5725201e-05   0.61135351  0.019448331            0   0.59190518    1.5740432    2.1853967    3.4048169 
16725000   0.99863118 7.340952e-05   0.71118137  0.043662788            0   0.66751858    1.4854639    2.1966453    4.7023569 
16730000    1.0751632 3.0000931e-05    0.6128613  0.040903886            0   0.57195742    1.5993053    2.2121666    3.2361983 
16735000    1.1740816 -0.00015604564   0.48894721  0.030520335            0   0.45842688    1.7464463    2.2353935   -3.0909644 
16740000    1.1489567 -0.00020972833   0.50982752  0.023407712            0    0.4864198    1.7090731    2.2189006   -4.9398263 
16745000    1.1181135 -4.6339478e-05   0.55746387  0.020587389            0   0.53687648    1.6631939    2.2206578   0.63893692 
16750000    1.1046643 0.00014544625    0.5823438  0.014838525            0   0.56750527    1.6431881    2.2255319    7.1900973 
16755000    1.0455571 0.00016983291   0.65584775   0.01431637            0   0.64153138    1.5552661    2.2111139    8.0080772 
16760000    1.1212836 4.8978923e-05   0.54866109  0.023768455            0   0.52489264    1.6679094    2.2165705    3.8883844 
16765000    1.0948899 -8.2344845e-05   0.59830873  0.055640311            0   0.54266842    1.6286487    2.2269575  -0.58374659 
16770000    1.0978393 -9.9293786e-05   0.56137714  0.027701617            0   0.53367552    1.6330359     2.194413   -1.1948149 
16775000    1.1282063 -0.00011557028    0.5191089  0.012452014            0   0.50665688    1.6782068    2.1973157   -1.7474832 
16780000    1.0996451 -4.6478822e-05   0.57222058 0.0040286507            0   0.56819193     1.635722    2.2079426   0.62146551 
16785000    1.0598666 0.00014318957   0.61778652  0.032310324            0   0.58547619    1.5765516    2.1943381    7.0818755 
16790000    1.0471295 0.00010798571   0.63227159  0.020720343            0   0.61155124    1.5576051    2.1898767    5.8757891 
16795000     1.093883 -7.8690988e-05   0.53791241  0.025641118            0   0.51227129    1.6271509    2.1650633   -0.5209224 
16800000    1.0670598 -0.00015879723   0.57886658  0.026036965            0   0.55282961    1.5872515    2.1661181   -3.2541607 
16805000    1.0689472 -1.1676001e-05   0.56892349  0.023873562            0   0.54504992     1.590059    2.1589825    1.7604417 
16810000    1.0699056 0.00012571662   0.57484854   0.03267801            0   0.54217053    1.5914846    2.1663331    6.4574604 
16815000    1.0750677 1.4116024e-06   0.58360379  0.026087833            0   0.55751596    1.5991632     2.182767    2.2309497 
16820000    1.0822248 -8.1453996e-05   0.59354958  0.028928552            0   0.56462102    1.6098094     2.203359  -0.57693742 
16825000    1.0989069 6.8301727e-05   0.56687779  0.039915849            0   0.52696194     1.634624    2.2015018    4.5328674 
16830000     1.164197 6.928297e-05   0.47724545   0.02404225            0    0.4532032     1.731743    2.2089885    4.5738472 
16835000    1.1017129 -6.6906095e-06   0.59681485  0.029768529            0   0.56704632     1.638798    2.2356129      2.00724 
16840000    1.0141921 -1.0418092e-05   0.72286683  0.061403079            0   0.66146375    1.5086108    2.2314776    1.8758734 
16845000    1.0931501 -5.3004998e-05   0.58648451  0.030129448            0   0.55635507    1.6260608    2.2125453   0.40330805 
16850000    1.1231848 0.00014290425   0.53739139  0.035899962            0   0.50149143    1.6707374    2.2081288    7.0859274 
16855000    1.1234425 0.0001701461   0.56374951  0.022962902            0   0.54078661    1.6711208    2.2348703    8.0425239 
16860000    1.0904114 2.2692032e-05   0.61625668  0.010657113            0   0.60559957     1.621987    2.2382437    3.0127984 
16865000    1.1413624 0.0001657668    0.5705143  0.037108499            0    0.5334058    1.6977766    2.2682909    7.9264642 
16870000    1.1493689 3.4813065e-05   0.57600285  0.032558464            0   0.54344438    1.7096863    2.2856892    3.4739751 
16875000    1.0794826 -3.1005933e-05   0.66615092  0.039254829            0   0.62689609    1.6057304    2.2718813    1.2135454 
16880000    1.2053373 -5.2109191e-05   0.48827738  0.020071505            0   0.46820587    1.7929393    2.2812167   0.50255629 
16885000    1.1445916 -0.0001936374   0.57327595  0.012331212            0   0.56094473    1.7025801     2.275856   -4.3336341 
16890000    1.1106778 -3.1465996e-05   0.61344968  0.029790616            0   0.58365906    1.6521333     2.265583    1.1915436 
16895000    1.1434592 0.00014711246   0.57014067  0.038691034            0   0.53144963    1.7008955    2.2710362    7.2924747 
16900000    1.0686927 0.00017980725   0.67711073  0.042292887            0   0.63481784    1.5896803    2.2667911    8.4042119 
16905000    1.1507058 0.00016731003   0.57250006  0.023367402            0   0.54913266    1.7116748    2.2841749    7.9950241 
16910000    1.1019239 1.2284359e-06   0.63192616  0.014024699            0   0.61790146    1.6391118    2.2710379    2.3129685 
16915000    1.1702921 -0.00011376311   0.52008814  0.017095893            0   0.50299225    1.7408096    2.2608977   -1.6222165 
16920000    1.0543227 7.8675391e-05   0.70705987  0.018375043            0   0.68868482    1.5683051    2.2753649    4.9608183 
16925000    1.1571407 8.5592112e-05    0.5354229  0.059596706            0   0.47582619    1.7212468    2.2566697    5.1782138 
16930000    1.1033747 -0.00010700098    0.6081845  0.028974218            0   0.57921028    1.6412699    2.2494544   -1.4028457 
16935000     1.076019 2.3002943e-06   0.66443187  0.010172595            0   0.65425927    1.6005782    2.2650101    2.3435268 
16940000    1.0569126 0.00013084338   0.69634117  0.007612504            0   0.68872867    1.5721575    2.2684986    6.7346194 
16945000    1.1245029 -1.0550662e-05    0.5978859  0.020031106            0    0.5778548    1.6726981     2.270584    1.9104547 
16950000     1.127016 -0.00015704304   0.57311275  0.026606151            0    0.5465066    1.6764362     2.249549   -3.1108534 
16955000    1.1198707 -6.8894293e-05    0.6060132  0.015982906            0   0.59003029    1.6658077    2.2718209 -0.079770955 
16960000    1.1462369 6.8659416e-05   0.56794375  0.024518652            0    0.5434251    1.7050274    2.2729711    4.6165458 
16965000    1.0683581 7.2566871e-05   0.67101759   0.01767353            0   0.65334406    1.5891827    2.2602003    4.7371495 
16970000    1.1041208 0.00014995504   0.62067588  0.014297315            0   0.60637856    1.6423798    2.2630556     7.381521 
16975000    1.1622936 5.6550442e-05   0.53996443  0.018175691            0   0.52178874    1.7289117    2.2688761    4.1991312 
16980000    1.1100346 -0.00010019695    0.6166368  0.044737014            0   0.57189979    1.6511765    2.2678133   -1.1522425 
16985000    1.0421928 7.4750646e-05   0.70133317  0.062909069            0    0.6384241    1.5502618     2.251595    4.8030837 
16990000    1.1438848 -3.7914268e-05   0.55341597  0.021448605            0   0.53196736    1.7015287    2.2549447   0.96080434 
16995000    1.1657592 -1.6928753e-05   0.56193315  0.016881772            0   0.54505138    1.7340668    2.2959999    1.7181652 
17000000    1.1109922 2.2600249e-05   0.62118744  0.012488025            0   0.60869941     1.652601    2.2737884    3.0452102 
17005000    1.0295138 1.5917165e-05   0.74747859  0.015434272            0   0.73204431    1.5314019    2.2788804    2.8221863 
17010000    1.0930538 -3.7738715e-05   0.65534249  0.026851557            0   0.62849093    1.6259176    2.2812601   0.99311192 
17015000    1.1657227 0.00016456172   0.56038003   0.01090639            0   0.54947364    1.7340125    2.2943925    7.9114325 
17020000    1.1135664 -7.5019872e-05   0.65155086 0.0082015244            0   0.64334934    1.6564301    2.3079809  -0.25269737 
17025000    1.1114579 -0.00012521555   0.66683074   0.01470352            0   0.65212722    1.6532936    2.3201244   -1.9538997 
17030000    1.1209526 8.174005e-05   0.64353045  0.061148062            0   0.58238239    1.6674171    2.3109475    5.1010079 
17035000     1.190658 7.7661248e-05   0.55294197  0.055962745            0   0.49697922    1.7711037    2.3240457     4.974883 
17040000    1.1338082 -4.1346842e-05   0.61814733  0.021870944            0   0.59627639    1.6865396     2.304687   0.89338141 
17045000    1.1376218 -5.9417806e-05   0.61013453  0.022849001            0   0.58728553    1.6922125     2.302347   0.27421923 
17050000    1.1435298 1.2587901e-05   0.61369432  0.016123642            0   0.59757068    1.7010007     2.314695     2.744362 
17055000    1.0547093 -0.00010007431     0.695493  0.017636809            0   0.67785619    1.5688801    2.2643731   -1.1514968 
17060000    1.1429543 -3.2965405e-06   0.54516448  0.035670661            0   0.50949382    1.7001445    2.2453089     2.132787 
17065000      1.09669 -0.00016029949   0.60869301  0.034328001            0   0.57436501    1.6313264    2.2400194   -3.2315364 
17070000    1.1124059 -6.1872839e-05   0.58010684  0.015931773            0   0.56417506    1.6547037    2.2348106   0.12288434 
17075000    1.1289562 9.6054314e-05   0.55817706   0.01667829            0   0.54149877    1.6793224    2.2374995    5.5161534 
17080000    1.1245128 0.00020528261   0.57793261 0.0055559044            0   0.57237671    1.6727128    2.2506455    9.2576253 
17085000    1.1055472 0.00019673864   0.61187556 0.0033952876            0   0.60848028    1.6445015    2.2563771    8.9717226 
17090000    1.1346941 0.0001692676    0.5822588  0.014899014            0   0.56735978    1.6878575    2.2701163    8.0477836 
17095000    1.1164427 5.2800531e-05   0.59850311  0.016414382            0   0.58208873    1.6607085    2.2592116    4.0614697 
17100000    1.1267585 -0.00015944619    0.5699826  0.023432243            0   0.54655035    1.6760533    2.2460359    -3.196394 
17105000    1.0694347 -0.0001520663   0.63580018  0.039043268            0   0.59675692    1.5907841    2.2265843   -2.9639454 
17110000    1.1671027 -1.3839314e-06   0.50633906  0.006144348            0   0.50019472    1.7360653    2.2424043    2.1951662 
17115000    1.0800068 6.6961384e-06   0.62959404  0.020827313            0   0.60876673    1.6065102    2.2361042    2.4646658 
17120000    1.0923425 6.8607081e-05   0.62040941  0.014640677            0   0.60576874    1.6248595    2.2452689    4.5870573 
17125000    1.1552143 1.7688196e-05   0.50002103   0.01086426            0   0.48915677    1.7183812    2.2184022    2.8221593 
17130000     1.015757 -8.9435205e-05   0.70272542   0.05201594            0   0.65070948    1.5109385    2.2136639  -0.83905776 
17135000     1.114693 -2.8382611e-05   0.56617044  0.044540761            0   0.52162968    1.6581058    2.2242762    1.2554831 
17140000    1.0286633 4.3942303e-05   0.66701718  0.010710908            0   0.65630627    1.5301366    2.1971538    3.6970511 
17145000    1.0671867 -3.3952052e-05   0.60333422  0.020383453            0   0.58295076    1.5874402    2.1907745    1.0318778 
17150000    1.0456498 -6.8445813e-05   0.62679592  0.021401478            0   0.60539445    1.5554042    2.1822001  -0.15408368 
17155000    1.0215644 0.0001043268   0.67222402  0.026468552            0   0.64575547     1.519577    2.1918011    5.7528224 
17160000     1.079111 9.3949043e-05   0.59911898  0.015990698            0   0.58312828    1.6051777    2.2042966    5.4110906 
17165000    1.0851321 5.1092322e-07    0.5986015 0.0058330278            0   0.59276847     1.614134    2.2127355     2.230175 
17170000    1.1296636 5.7427016e-05   0.52165784 0.0059786307            0   0.51567921    1.6803745    2.2020324    4.1622079 
17175000    1.0481561 8.1831292e-05   0.62399416  0.018395166            0   0.60559899    1.5591322    2.1831263    4.9763011 
17180000    1.0447702 -4.6270783e-05   0.63017818  0.040319034            0   0.58985915    1.5540957    2.1842739   0.60489782 
17185000    1.0897403 -0.00022699621   0.57344578  0.017821142            0   0.55562464    1.6209887    2.1944345   -5.5537027 
17190000    1.0929742 -3.4728929e-05   0.55369898 0.0064757512            0   0.54722323    1.6257991    2.1794981   0.99408396 
17195000    1.0246822 6.1991901e-05   0.65138176  0.021995239            0   0.62938652    1.5242148    2.1755966    4.2915868 
17200000   0.96979278 -8.4729669e-05    0.7297252  0.016132269            0   0.71359293    1.4425668     2.172292  -0.71981406 
17205000    1.0796091 -0.00014482036    0.5630297   0.04789935            0   0.51513035    1.6059186    2.1689483   -2.7742533 
17210000    1.0463926 -7.1725991e-05   0.57105543  0.012692632            0    0.5583628     1.556509    2.1275644   -0.3206827 
17215000   0.99681096 -4.2183554e-05   0.61616263 0.0016180318            0   0.61454459    1.4827563    2.0989189   0.65905361 
17220000   0.93409444 5.1216204e-05   0.68981217 0.00082328096            0   0.68898888    1.3894655    2.0792777    3.8274574 
17225000    1.0482541 4.4408781e-05   0.54798121  0.001155503            0    0.5468257     1.559278    2.1072592     3.623079 
17230000    1.0314253 1.5416946e-05   0.55567164 0.0052674805            0   0.55040416    1.5342452    2.0899168    2.6161486 
17235000    1.0214485 0.00013213878   0.56736761  0.013700066            0   0.55366754    1.5194046    2.0867722    6.5971092 
17240000    1.0380759 1.4207451e-05   0.53277613  0.011954218            0   0.52082191     1.544138    2.0769141    2.5618617 
17245000   0.99806686 3.6176355e-05   0.55115018 0.0087474725            0   0.54240271    1.4846245    2.0357746    3.2705942 
17250000   0.98995826 -1.3347198e-05   0.54325093 0.0085176353            0    0.5347333    1.4725629    2.0158139    1.5602295 
17255000   0.98507502 -0.00013726659   0.56184298  0.015849593            0   0.54599338    1.4652991    2.0271421   -2.6582241 
17260000   0.91995626 1.9653028e-05   0.68210436  0.024007725            0   0.65809664    1.3684349    2.0505393    2.7213627 
17265000    1.0101275 4.7109286e-05   0.54311646  0.033101981            0   0.51001448    1.5025646    2.0456811    3.6536781 
17270000    1.0182891 -7.3402668e-05   0.52210055  0.024579776            0   0.49752078     1.514705    2.0368056  -0.46867214 
17275000    1.0082205 -1.8087125e-05   0.56576336 0.0080413868            0   0.55772197     1.499728    2.0654913    1.4481175 
17280000    1.0201109 7.6828919e-05     0.550635 0.0055350696            0   0.54509993    1.5174149    2.0680499     4.690477 
17285000    1.0414356 3.158246e-05   0.50385388 0.0054154463            0   0.49843844    1.5491354    2.0529893    3.1310039 
17290000    1.0233792 -1.1009572e-05   0.55086235 0.0030976343            0   0.54776471    1.5222765    2.0731389    1.6973455 
17295000     1.007089 -5.3785505e-05   0.57892122  0.014409413            0   0.56451181    1.4980449    2.0769661   0.24108757 
17300000    1.0289963 -4.6711381e-05   0.55562505  0.041283959            0   0.51434109     1.530632    2.0862571   0.49184195 
17305000    1.0197006 -6.9241284e-05   0.55960171  0.025041003            0    0.5345607    1.5168046    2.0764063   -0.2870295 
17310000    1.0258323 4.1693474e-05   0.56311909  0.017607139            0   0.54551195    1.5259256    2.0890447    3.5121819 
17315000   0.97529996 -1.1707442e-05   0.63977504  0.025005736            0    0.6147693    1.4507587    2.0905337    1.6909197 
17320000    1.0589749 -9.7886955e-05   0.52214686  0.014297096            0   0.50784977    1.5752251     2.097372   -1.2438361 
17325000    1.0475753 -3.7077061e-05   0.51551841 0.0047130125            0    0.5108054    1.5582683    2.0737867     0.808223 
17330000   0.99855951 -0.00012305374   0.60665012 0.00084074021            0   0.60580938    1.4853573    2.0920074   -2.1082268 
17335000    1.0282359 -0.00029398201   0.57718256 0.00080756128            0     0.576375    1.5295009    2.1066835   -7.9279023 
17340000    1.0326086 3.3194382e-05   0.57265119  0.015984286            0    0.5566669    1.5360052    2.1086564    3.2416913 
17345000    1.0452517 -2.6229622e-05   0.55563709  0.016852788            0    0.5387843    1.5548118    2.1104489    1.2151445 
17350000    1.0706315 -2.7719802e-05   0.56035171  0.042893396            0   0.51745831    1.5925644    2.1529161    1.2067468 
17355000    1.0642993 4.7220694e-05    0.5646473  0.040301317            0   0.52434598    1.5831453    2.1477926    3.7595922 
17360000    1.0542869 -0.00013816003   0.57833126  0.030327828            0   0.54800343    1.5682517     2.146583   -2.5692795 
17365000    1.0395587 2.0609255e-05   0.56994451 0.0087162957            0   0.56122821    1.5463436    2.1162881    2.8197507 
17370000    1.0465622 -3.8639482e-05   0.56825285  0.022736514            0   0.54551634    1.5567613    2.1250142   0.80611984 
17375000    1.0342918 -0.00016775351   0.58064901  0.010451537            0   0.57019748     1.538509    2.1191581   -3.6068284 
17380000     1.049755 7.2877568e-06    0.5402097  0.006305093            0   0.53390461    1.5615105    2.1017202    2.3504756 
17385000     1.043831 2.4500234e-05   0.54873543   0.01181071            0   0.53692472    1.5526986     2.101434    2.9377087 
17390000    1.0293082 6.205093e-05   0.56482894  0.022496123            0   0.54233281    1.5310959    2.0959248    4.2139299 
17395000    1.0951998 0.0001206729   0.48861682 0.0052746807            0   0.48334214    1.6291097    2.1177265    6.2366949 
17400000    1.0462635 8.0959733e-05   0.58439243  0.016188134            0    0.5682043     1.556317    2.1407094     4.904135 
17405000    1.0236273 0.00016457994   0.61189442  0.038902131            0   0.57299229    1.5226456      2.13454     7.752202 
17410000     1.015117 -4.5676775e-05   0.61784333  0.050337718            0   0.56750562    1.5099865    2.1278299   0.56872927 
17415000    1.0211214 -4.7487315e-05   0.59812762  0.049712035            0   0.54841559     1.518918    2.1170457   0.49614531 
17420000     1.071397 -1.5359997e-05   0.51848378  0.035548987            0   0.48293479    1.5937031    2.1121869     1.587899 
17425000    1.0351431 6.4577016e-05   0.56858723  0.041155967            0   0.52743126    1.5397754    2.1083626    4.3125914 
17430000    1.0127799 4.0601521e-05   0.61483086  0.027616508            0   0.58721435    1.5065101     2.121341    3.5072062 
17435000    1.1004294 -0.00011760042   0.47242405  0.033383031            0   0.43904102    1.6368888    2.1093128   -1.9047816 
17440000    1.0752477 -0.00013761089   0.49825187  0.021029055            0   0.47722281    1.5994309    2.0976827   -2.5994358 
17445000    1.0093722 -7.8575716e-05   0.61137622  0.010391951            0   0.60098427    1.5014412    2.1128174  -0.56923367 
17450000    1.0484781 -0.00012639194   0.57668368 0.0051432222            0   0.57154046    1.5596112    2.1362949   -2.1778833 
17455000    1.0650725 7.0924521e-06   0.54467569  0.016813493            0    0.5278622    1.5842954    2.1289711    2.3710601 
17460000    1.0873351 3.348473e-05   0.50575794  0.022262947            0   0.48349499    1.6174109    2.1231689    3.2661143 
17465000    1.0128042 1.688039e-05    0.6260505  0.040600867            0   0.58544964    1.5065462    2.1325967    2.7087807 
17470000   0.98801904 7.3577104e-05   0.68739271  0.014862094            0   0.67253061    1.4696783     2.157071    4.6685029 
17475000    1.1101661 -0.00013844104   0.49275588 0.0028096491            0   0.48994623     1.651372    2.1441279   -2.5813262 
17480000    1.1417098 -0.0002025279   0.44654988  0.006184506            0   0.44036537    1.6982934    2.1448433   -4.7681089 
17485000   0.99414204 -0.00018115294   0.65963944  0.017011158            0   0.64262828    1.4787863    2.1384257   -4.0449281 
17490000    1.0570666 -5.8450278e-05   0.59982534  0.031333292            0   0.56849204    1.5723866    2.1722119   0.17710909 
17495000    1.1144592 0.00014268466   0.53149763  0.017220975            0   0.51427666    1.6577581    2.1892558    7.0595587 
17500000    1.0661523 0.00020228602   0.61094566  0.024570056            0    0.5863756    1.5859015    2.1968472    9.1015433 
17505000    1.1291502 6.5169232e-05   0.57247183  0.025058727            0    0.5474131    1.6796109    2.2520828    4.4765259 
17510000    1.1158149 9.587865e-05   0.58861093    0.0408627            0   0.54774823    1.6597746    2.2483855    5.5210435 
17515000    1.1510815 0.00013278048   0.53234287  0.031150037            0   0.50119283    1.7122337    2.2445766    6.7768169 
17520000    1.0850267 -4.8092931e-05   0.58436929   0.00595131            0   0.57841798    1.6139773    2.1983466   0.55677452 
17525000    1.0879977 -7.3378053e-05   0.59046241 0.0048552016            0   0.58560721    1.6183966     2.208859  -0.29577853 
17530000    1.0432032 -2.8202637e-05   0.63395358 0.0096040229            0   0.62434956    1.5517647    2.1857183    1.2230683 
17535000    1.0977027 -6.5218701e-07   0.57499047 0.0051086306            0   0.56988184    1.6328328    2.2078233     2.185562 
17540000    1.0389721 6.8036102e-05   0.66464344 0.0067410999            0   0.65790234     1.545471    2.2101144    4.5324134 
17545000    1.0620426 4.0365518e-05   0.60585293 0.0091018358            0    0.5967511    1.5797884    2.1856413     3.563451 
17550000    1.0666805 0.00018988445   0.62274303  0.027434944            0   0.59530809    1.5866872    2.2094303    8.6908196 
17555000    1.0962361 -4.0830359e-07     0.570379  0.040496712            0   0.52988229    1.6306512    2.2010302    2.1870934 
17560000    1.0975267 7.7373714e-05    0.5572721  0.014729635            0   0.54254247     1.632571    2.1898431    4.8308658 
17565000    1.0725877 5.0380157e-05   0.57907088  0.004364153            0   0.57470672    1.5954742    2.1745451    3.8941878 
17570000    1.0788507 -3.4130849e-05   0.57156101  0.027837064            0   0.54372395    1.6047904    2.1763514    1.0113518 
17575000    1.0644932 -5.0824224e-05   0.57856032  0.032590157            0   0.54597017    1.5834336     2.161994   0.42719377 
17580000    1.0403758 -0.00012287444   0.59337403  0.024793714            0   0.56858031     1.547559     2.140933   -2.0531812 
17585000     1.023649 -0.00015018946   0.60149325  0.007284489            0   0.59420876    1.5226779    2.1241711   -3.0022959 
17590000    1.0963703 -5.1242782e-05   0.49984609 0.00082181483            0   0.49902428    1.6308509     2.130697   0.38161002 
17595000    1.0458958 9.1030996e-05    0.5693071 0.0040503245            0   0.56525677      1.55577    2.1250771    5.2322684 
17600000    1.1078146 0.00013345985   0.46335867   0.01431777            0    0.4490409    1.6478742    2.1112328    6.6666623 
17605000    1.0364591 -2.214497e-05   0.61439012 0.0078397094            0   0.60655041    1.5417329    2.1561231    1.4002414 
17610000   0.93761721 -0.00019216318   0.71971996 0.0088399344            0   0.71088002    1.3947056    2.1144256   -4.4447443 
17615000    1.0210108 -0.00011158069    0.5899736  0.023496842            0   0.56647676    1.5187536    2.1087272   -1.6998937 
17620000   0.99280338 -1.1345475e-05   0.64929525  0.014263853            0   0.63503139     1.476795    2.1260903    1.7388314 
17625000    1.0847246 4.778579e-05   0.53117152  0.011446016            0    0.5197255    1.6135278    2.1446993    3.7757877 
17630000    1.0554614 -2.0503002e-05   0.59097459  0.013387284            0    0.5775873    1.5699988    2.1609734    1.4611376 
17635000    1.0565284 -0.00015118761   0.56779827 0.0093843816            0   0.55841389    1.5715861    2.1393843   -3.0211526 
17640000    1.0816297 0.00011826562   0.54979414  0.036673118            0   0.51312103    1.6089242    2.1587184    6.1955181 
17645000    1.0445522 0.00023455505   0.58994288  0.040156862            0   0.54978602    1.5537715    2.1437143     10.14986 
17650000    1.0624474 0.00017417396   0.54555189  0.014373966            0   0.53117793    1.5803906    2.1259425    8.0710804 
17655000    1.0522788 -2.0281866e-05   0.58419072  0.013613825            0   0.57057689    1.5652648    2.1494555    1.4571678 
17660000    1.0663506 -9.5237791e-06   0.55036815  0.020543328            0   0.52982483    1.5861965    2.1365647    1.8114863 
17665000    1.0303984 4.2211107e-05   0.59899503  0.023234758            0   0.57576027    1.5327176    2.1317127    3.5725185 
17670000     1.050146 5.0375596e-05   0.58667658  0.045006394            0   0.54167018    1.5620922    2.1487688    3.8682558 
17675000    1.0178005 -6.4256874e-05   0.62564392 0.0091776995            0   0.61646622    1.5139782    2.1396221 -0.053679143 
17680000    1.0496214 -0.00021627081   0.58143654  0.012537192            0   0.56889935    1.5613119    2.1427484   -5.2392953 
17685000    1.0891415 -3.2439986e-05     0.531978  0.026924406            0    0.5050536    1.6200981    2.1520761    1.0447912 
17690000    1.0065836 3.4289057e-05   0.66387425  0.054237469            0   0.60963679    1.4972931    2.1611674    3.3315672 
17695000    1.0142757 -0.00012900376   0.64931027  0.023184024            0   0.62612624    1.5087351    2.1580454   -2.2452829 
17700000    1.0476443 -1.3320143e-05   0.58028962 0.0077854581            0   0.57250416    1.5583709    2.1386606    1.6839997 
17705000   0.96925211 3.2093762e-05   0.66830287  0.013811417            0   0.65449146    1.4417625    2.1100654    3.2055325 
17710000    1.0301985 -0.0001477536   0.57499427  0.046486668            0    0.5285076    1.5324202    2.1074145   -2.9359083 
17715000   0.93459315 7.4287804e-07   0.69325326  0.020858254            0   0.67239501    1.3902073    2.0834606    2.1088175 
17720000    1.0356353 0.00010393902   0.52825476  0.034739703            0   0.49351506    1.5405075    2.0687622    5.6165474 
17725000    1.0190995 2.6919936e-05   0.53558108   0.01333386            0   0.52224722    1.5159104    2.0514915    2.9703587 
17730000   0.99514897 0.00014816309   0.56992348   0.01615533            0   0.55376815    1.4802841    2.0502076    7.1075079 
17735000     1.015418 0.00011384345    0.5424265  0.025579946            0   0.51684656    1.5104342    2.0528607     5.938717 
17740000   0.99977134 9.4353371e-05   0.54314829  0.010833602            0   0.53231468    1.4871599    2.0303082    5.2509032 
17745000   0.98766744 6.6598666e-05   0.55886541  0.012975838            0   0.54588958    1.4691553    2.0280207    4.3012552 
17750000   0.97797992 -6.9915357e-05   0.58055105  0.040738101            0   0.53981295    1.4547451    2.0352962    -0.351148 
17755000   0.98974151 -8.6656613e-05   0.57401023  0.057590635            0   0.51641959    1.4722405    2.0462507  -0.91162835 
17760000    1.0172987 -3.2143237e-06   0.52758745  0.046750052            0    0.4808374    1.5132319    2.0408193    1.9311037 
17765000   0.95652234 -1.5897912e-05   0.61813455   0.05115754            0   0.56697701     1.422827    2.0409615    1.4983128 
17770000   0.97124377 -1.8723097e-05   0.60422648  0.017367498            0   0.58685898    1.4447251    2.0489516    1.4098699 
17775000    1.0256828 -1.3230053e-05   0.53998115  0.012079517            0   0.52790164    1.5257032    2.0656844    1.6140985 
17780000    1.0609251 7.725674e-05    0.5219047 0.0094609797            0   0.51244372     1.578126    2.1000307    4.7370608 
17785000    1.0039704 -2.7514788e-05   0.62282455 0.0067262735            0   0.61609828    1.4934059    2.1162305     1.177059 
17790000    1.0710061 -0.00010423919   0.50052652  0.014661568            0   0.48586495    1.5931216    2.0936481   -1.4643829 
17795000    1.0838855 -4.6953192e-05   0.52986391   0.05627444            0   0.47358947    1.6122796    2.1421436   0.53947459 
17800000    1.0409507 -0.00011815504   0.59079806  0.036383514            0   0.55441454    1.5484141    2.1392122   -1.8938133 
17805000    1.0279434 -9.7700494e-05   0.61638393 0.0081701005            0   0.60821383    1.5290659    2.1454498   -1.1893937 
17810000    1.0740708 3.5325212e-05   0.54334824  0.035026622            0   0.50832162    1.5976803    2.1410286    3.3467958 
17815000    1.0112254 7.5450178e-05    0.6357368  0.064916234            0   0.57082056    1.5041978    2.1399346    4.7153007 
17820000   0.98459265 0.00018005599   0.67276291   0.06148044            0   0.61128247    1.4645816    2.1373445    8.2832556 
17825000    1.0391735 1.0277949e-05   0.57343033  0.019000086            0   0.55443025    1.5457706    2.1192009    2.4700216 
17830000    1.1013116 -6.8283612e-05   0.48611356 0.0086597516            0   0.47745381     1.638201    2.1243145  -0.20643277 
17835000    1.0140692 0.00013051249   0.64125296   0.04642341            0   0.59482955     1.508428    2.1496809    6.6045072 
17840000    1.0545167 -1.6921244e-05   0.55921581  0.016926725            0   0.54228909    1.5685936    2.1278094    1.5502309 
17845000    1.0744526 -0.00010496723   0.53473586  0.040699022            0   0.49403684    1.5982482     2.132984   -1.4498974 
17850000   0.97852133 8.7148869e-05   0.66533564  0.065689999            0   0.59964564    1.4555505    2.1208861    5.0955675 
17855000   0.96862764 3.1704269e-05   0.64797989   0.02923606            0   0.61874383    1.4408336    2.0888135    3.1709859 
17860000    1.0669607 1.6268743e-05   0.51841057  0.049337969            0    0.4690726     1.587104    2.1055146     2.660821 
17865000    1.0103686 -3.0233003e-05   0.59814024  0.015427863            0   0.58271238    1.5029233    2.1010635    1.0691104 
17870000    0.9284328 2.5523716e-05   0.70968117  0.037816426            0   0.67186475    1.3810438     2.090725    2.9619345 
17875000    1.0577069 0.0001438938   0.52093081  0.030019028            0   0.49091179     1.573339    2.0942698    7.0058448 
17880000    1.0420764 2.7621996e-05   0.55041818  0.023207717            0   0.52721047    1.5500886    2.1005068    3.0433376 
17885000    1.0324316 -0.00011681923    0.5456424   0.01510124            0   0.53054116     1.535742    2.0813844   -1.9060453 
17890000    1.0552624 -4.9587004e-05   0.52183603  0.014150148            0   0.50768589    1.5697028    2.0915389   0.39896912 
17895000    1.0011341 5.2981175e-05   0.59712308  0.013211823            0   0.58391125    1.4891869      2.08631    3.8947341 
17900000   0.92879952 3.1208357e-05   0.67630247  0.017564539            0   0.65873793    1.3815893    2.0578918     3.123137 
17905000   0.98700663 3.9097527e-06   0.58513114  0.014172726            0   0.57095842    1.4681724    2.0533035    2.1867564 
17910000    1.0133157 9.731026e-06   0.54704022    0.0166347            0   0.53040552    1.5073071    2.0543473    2.3864997 
17915000    0.9909401 -7.6704874e-05    0.5806563  0.019838126            0   0.56081818    1.4740234    2.0546797  -0.56351332 
17920000   0.99163158 -0.00018738669   0.57956105 0.0083212112            0   0.57123984     1.475052     2.054613   -4.3415194 
17925000     1.034391 8.7682807e-05   0.49444677  0.010881719            0   0.48356505    1.5386567    2.0331035    5.0260099 
17930000   0.93673231 0.0001921942   0.64564882  0.025891224            0   0.61975759    1.3933893    2.0390381    8.5992669 
17935000    1.0215225 1.6515133e-06    0.5193439  0.031329662            0   0.48801423    1.5195147    2.0388586    2.0952303 
17940000   0.98994351 4.2419959e-05   0.56063341  0.019012648            0   0.54162076     1.472541    2.0331744     3.481109 
17945000    1.0028626 -0.00017043819   0.52819522 0.0032659611            0   0.52492926    1.4917581    2.0199533   -3.7976701 
17950000   0.97641762 -8.720183e-05   0.55368194  0.011390828            0   0.54229111    1.4524212    2.0061032  -0.97038597 
17955000    1.0075359 1.0704022e-05   0.53563364 0.0065680199            0   0.52906562    1.4987096    2.0343433    2.3997072 
17960000   0.98390415 -0.00012566364   0.56005231 0.0071826214            0   0.55286969    1.4635574    2.0236097   -2.2657092 
17965000   0.96891776 2.9641938e-05   0.59443733    0.0154715            0   0.57896583    1.4412652    2.0357025    3.0474807 
17970000   0.97844948 9.9217264e-05    0.5844382  0.019162903            0   0.56527529    1.4554436    2.0398818    5.4264978 
17975000     1.044262 9.262931e-05   0.51021524  0.014804303            0   0.49541093    1.5533397    2.0635549     5.225302 
17980000    1.0105108 1.9768115e-05   0.56544646 0.0035767115            0   0.56186974    1.5031348    2.0685812    2.7433329 
17985000     1.103314 -3.0539732e-05    0.4428574  0.012963212            0   0.42989419    1.6411796     2.084037    1.0416142 
17990000     1.033354 -3.8943643e-05    0.5709854    0.0168967            0    0.5540887    1.5371141    2.1080995   0.77882315 
17995000    1.0278606 -1.8756334e-05   0.56603399   0.01941639            0    0.5466176    1.5289426    2.0949766    1.4547604 
18000000    1.0372582 -7.024316e-05   0.56410814  0.048843624            0   0.51526452    1.5429216    2.1070298  -0.29060344 
18005000    1.0450418 3.1147801e-05   0.55842369  0.027317033            0   0.53110665    1.5544996    2.1129233    3.1761016 
18010000    1.0101863 0.00010634071   0.62469619  0.055370387            0    0.5693258    1.5026522    2.1273484    5.7571113 
18015000     1.002739 2.3210755e-06   0.64493037 0.0071577186            0   0.63777266    1.4915742    2.1365046    2.2157307 
18020000    1.1234129 8.2020812e-05   0.47171312  0.011325575            0   0.46038754    1.6710767    2.1427898    4.9424335 
18025000   0.95970429 -0.00010256899   0.68558228  0.024789742            0   0.66079254    1.4275601    2.1131424    -1.387879 
18030000    1.0061811 -0.00017268616   0.62944373  0.031341478            0   0.59810225    1.4966944    2.1261382    -3.768216 
18035000    1.0980077 -8.6884595e-05   0.50974786  0.050996263            0    0.4587516    1.6332865    2.1430343  -0.82262651 
18040000    1.0478845 6.8013394e-06   0.57790059  0.034739348            0   0.54316124    1.5587281    2.1366287    2.3687811 
18045000    1.0390972 -8.4102828e-05   0.57390949 0.0067915691            0   0.56711792    1.5456571    2.1195666  -0.75114327 
18050000   0.97800674 -3.6750244e-05    0.6562602  0.010445936            0   0.64581427     1.454785    2.1110452   0.85663688 
18055000    1.0762834 3.8979433e-05   0.52481014  0.014055323            0   0.51075482    1.6009716    2.1257817    3.4562797 
18060000    1.0737101 -5.6727355e-05   0.53037113  0.010255843            0   0.52011529    1.5971437    2.1275149   0.19122112 
18065000    1.1034155 -0.00010934667   0.48600443 0.0054027369            0   0.48060169    1.6413306     2.127335   -1.6050312 
18070000    1.0700266 1.9783262e-05   0.56310249 0.0055169049            0   0.55758559    1.5916645     2.154767    2.8300357 
18075000    1.0395711 0.00012291944   0.58961188  0.043800091            0   0.54581179     1.546362    2.1359738    6.3316239 
18080000    1.0295427 -1.2792085e-06   0.60725328  0.042684537            0   0.56456874    1.5314448    2.1386981    2.0950345 
18085000    1.0333429 -7.1866926e-05   0.61006402  0.017160563            0   0.59290346    1.5370975    2.1471615  -0.30589619 
18090000    1.1403384 7.4740713e-06   0.46662008  0.012503223            0   0.45411686    1.6962533    2.1628734    2.4179884 
18095000      1.12144 6.2507291e-05   0.48385136  0.012516389            0   0.47133498     1.668142    2.1519934    4.2855756 
18100000    1.0502594 8.5711196e-05   0.59329522  0.024411443            0   0.56888377    1.5622608     2.155556    5.0811649 
18105000    1.0187303 0.00019818095   0.61258312  0.017412118            0   0.59517101    1.5153613    2.1279444    8.8925208 
18110000    1.0443697 0.00014040622   0.56868005  0.016198388            0   0.55248167    1.5534999      2.12218    6.9147124 
18115000     1.075695 2.6679196e-07   0.53006146  0.029125066            0   0.50093639    1.6000963    2.1301577    2.1392642 
18120000    1.0456306 -7.2709642e-06    0.5482536  0.025529461            0   0.52272413    1.5553755    2.1036291    1.8554468 
18125000    1.0418673 5.571296e-05   0.56167077 0.0063368111            0   0.55533396    1.5497776    2.1114484    4.0131174 
18130000     1.057862 -1.1046846e-05   0.54537985  0.014635895            0   0.53074396    1.5735697    2.1189495    1.7418839 
18135000    1.0686814 -0.00013362115   0.53381553  0.020714251            0   0.51310128    1.5896637    2.1234792   -2.4374561 
18140000    1.0450884 -5.3005863e-05   0.58049228  0.015605716            0   0.56488656    1.5545691    2.1350613   0.32579454 
18145000    1.0300183 -5.4696786e-05   0.59702004  0.025989973            0   0.57103007    1.5321522    2.1291722   0.26218858 
18150000    1.0585007 -3.0170808e-05   0.54366553  0.021453657            0   0.52221187    1.5745198    2.1181853     1.088355 
18155000     1.072197 3.2571571e-05   0.53735886  0.040502444            0   0.49685642    1.5948931     2.132252    3.2440282 
18160000    1.0310523 -2.0752788e-05   0.58591429  0.049187431            0   0.53672686    1.5336903    2.1196046    1.4112427 
18165000    1.0286468 -4.1961567e-05   0.58757982  0.025168188            0   0.56241164    1.5301121    2.1176919   0.68540378 
18170000    1.0176604 -0.0001544334   0.61385145  0.049364925            0   0.56448653    1.5137698    2.1276213   -3.1437055 
18175000   0.98672272 -9.1364374e-05   0.65604575  0.063141389            0   0.59290436    1.4677501    2.1237958  -0.99477484 
18180000    1.0821375 -0.00011721584   0.52398451  0.043823371            0   0.48016114    1.6096795     2.133664   -1.8673034 
18185000    1.0574718 -3.5811936e-05   0.55155958  0.025767915            0   0.52579166    1.5729893    2.1245489   0.90216812 
18190000    1.0717556 8.362397e-05    0.5473722  0.015590392            0   0.53178181    1.5942365    2.1416087    4.9959735 
18195000    1.0463189 -3.8004601e-05    0.5978479   0.03066612            0   0.56718178    1.5563994    2.1542473   0.85702353 
18200000    1.0905578 5.9950934e-05   0.52856329  0.035725842            0   0.49283745    1.6222048    2.1507681    4.1970933 
18205000    1.0499758 0.00013759985   0.59542998   0.02465623            0   0.57077375    1.5618389    2.1572689    6.8540104 
18210000    1.0901387 -3.2904123e-05   0.50843402  0.021699741            0   0.48673428    1.6215814    2.1300154     1.006888 
18215000    1.0888278 -5.2166846e-06   0.51197448  0.054501694            0   0.45747279    1.6196314    2.1316059    1.9535431 
18220000    1.0474899 0.00019617277   0.56309824  0.043797884            0   0.51930036    1.5581412    2.1212394      8.81727 
18225000    1.0093725 1.2398208e-05   0.60843229  0.057118628            0   0.55131367    1.5014417     2.109874    2.5330661 
18230000    1.0730437 7.0716306e-05   0.50548072  0.034262811            0   0.47121791    1.5961525    2.1016332    4.5154165 
18235000    1.0494448 0.0001182951   0.53675082  0.013836052            0   0.52291477    1.5610491    2.0977999     6.135606 
18240000    1.0288186 -6.5881425e-05   0.57273618  0.022786319            0   0.54994986    1.5303676    2.1031038  -0.14564886 
18245000    1.0944467 -0.00011527176   0.49144961 0.0057799593            0   0.48566965    1.6279895    2.1194391   -1.8151704 
18250000    1.0891002 -8.1101347e-05   0.49688419 0.0025510245            0   0.49433317    1.6200366    2.1169208  -0.65133852 
18255000    1.0962961 -4.3577607e-05    0.4700154 0.0032395671            0   0.46677584    1.6307405    2.1007559   0.61330693 
18260000    1.0685457 -1.2130733e-05    0.5240525  0.031749527            0   0.49230297    1.5894617    2.1135142    1.6994519 
18265000     1.042111 -4.5056885e-05    0.5795869  0.025963256            0   0.55362364    1.5501401     2.129727   0.59178538 
18270000    1.0352401 -2.0687517e-05   0.59505779  0.026789321            0   0.56826847    1.5399197    2.1349775    1.4288435 
18275000    1.0537398 -7.1877859e-05   0.57813611   0.03725928            0   0.54087683    1.5674379     2.145574  -0.30785688 
18280000    1.0898075 -2.3722247e-05   0.49924478  0.005777223            0   0.49346755    1.6210887    2.1203335    1.3106141 
18285000    1.1296734 -5.7662889e-05   0.41202421   0.02411684            0   0.38790737    1.6803892    2.0924134   0.12418677 
18290000    1.0307858 -6.9387657e-05    0.5611383  0.055559355            0   0.50557894    1.5332938    2.0944321  -0.27399994 
18295000    1.0138987 0.00010273572   0.56902078  0.037954311            0   0.53106647    1.5081743    2.0771951    5.5839077 
18300000    1.0506846 -3.036272e-05   0.51215307  0.069927555            0   0.44222552    1.5628933    2.0750464    1.0386656 
18305000    1.1081665 -0.00010601761   0.46135707  0.024480845            0   0.43687623    1.6483977    2.1097548   -1.5089798 
18310000     1.024552 5.0594685e-05   0.59673311  0.037623979            0   0.55910913    1.5240211    2.1207543    3.8477195 
18315000    1.0849442 0.00010930808    0.5331866  0.017239497            0    0.5159471    1.6138545    2.1470411    5.8780902 
18320000    1.0568727 0.00011670545   0.57536928  0.014753344            0   0.56061593    1.5720981    2.1474674    6.1310136 
18325000    1.0487954 4.6295493e-05   0.61506294  0.051750945            0   0.56331199    1.5600832    2.1751461    3.7553656 
18330000    1.0745288 -4.1197082e-05   0.57555615  0.030583386            0   0.54497277    1.5983616    2.1739178   0.76772402 
18335000     1.097899 -6.2413321e-05    0.5229309 0.0077803237            0   0.51515058    1.6331248    2.1560557  0.025681005 
18340000    1.1377928 3.2766428e-05    0.4528876 0.00061694886            0   0.45227065    1.6924668    2.1453544    3.2637818 
18345000    1.1219396 3.4668091e-05   0.51237418 0.0048738051            0   0.50750037    1.6688851    2.1812593    3.3645968 
18350000    1.0889845 -0.00014454345   0.56253754   0.01347742            0   0.54906012    1.6198644     2.182402   -2.7513477 
18355000    1.0179668 -9.6963341e-05   0.65481418  0.023636628            0   0.63117755    1.5142257    2.1690398   -1.1406422 
18360000    1.1080497 -3.3226028e-05   0.53775125  0.011120094            0   0.52663116    1.6482239    2.1859751    1.0518601 
18365000    1.1170121 -5.891269e-05   0.53017377  0.017672148            0   0.51250162    1.6615555    2.1917293   0.18084282 
18370000    1.0676475 -0.00012597712   0.58882701  0.017075484            0   0.57175153    1.5881257    2.1769527   -2.1230664 
18375000    1.0753998 -0.00017918932   0.60043486  0.019329665            0   0.58110519    1.5996571     2.200092   -3.9162368 
18380000    1.1423662 -0.00015354145   0.49598449  0.004701364            0   0.49128312    1.6992697    2.1952541   -3.0456274 
18385000      1.13438 -2.6024639e-05   0.51777992 0.0065197242            0    0.5112602    1.6873902    2.2051702    1.3168625 
18390000    1.0662468 7.8553818e-05   0.60675745  0.017501753            0   0.58925569    1.5860422    2.1927996    4.8741033 
18395000     1.117408 7.0159292e-05   0.53242261   0.03622129            0   0.49620132    1.6621443    2.1945669    4.5893374 
18400000    1.1341409 7.8075488e-05   0.51866035  0.019850993            0   0.49880936    1.6870346     2.205695    4.8706716 
18405000    1.0745422 -9.8758416e-05   0.61000728  0.033468955            0   0.57653833    1.5983815    2.2083888   -1.1625651 
18410000    1.0495691 -0.00018097351   0.64186592  0.072994641            0   0.56887128     1.561234    2.2030999   -3.9741293 
18415000    1.1134617 -4.1005982e-05   0.54926403  0.029333383            0   0.51993064    1.6562743    2.2055383   0.80586746 
18420000    1.1438899 1.8339404e-05   0.49470644  0.012986029            0   0.48172042    1.7015362    2.1962427    2.8222277 
18425000    1.1067981 0.00011424162   0.58076748  0.015780676            0   0.56498681    1.6463622    2.2271297    6.1265768 
18430000    1.0590075 5.5667984e-05   0.62387699  0.058889777            0   0.56498721    1.5752736    2.1991506    4.0992845 
18435000    1.1558108 -0.00019751852    0.4993615  0.010513222            0   0.48884828    1.7192686    2.2186301   -4.5233354 
18440000    1.1601876 -0.00010268197   0.48714644 0.0034230134            0   0.48372343     1.725779    2.2129255   -1.2919523 
18445000    1.0677719 8.7451003e-05   0.61244691  0.011426048            0   0.60102086    1.5883106    2.2007575    5.1857518 
18450000    1.1009557 0.00012851681   0.56811022  0.012291245            0   0.55581897    1.6376717    2.2057819    6.5924891 
18455000    1.1857632 8.9547793e-05   0.43991281 0.0054569395            0   0.43445587    1.7638227    2.2037355    5.2603002 
18460000    1.1469061 3.6021714e-05   0.47377286 0.0038432784            0   0.46992958    1.7060229    2.1797957    3.4093369 
18465000    1.0850739 -6.7413364e-05   0.54532138  0.030273385            0   0.51504799    1.6140474    2.1593687  -0.14167408 
18470000     1.058523 -9.8384996e-05   0.58867442  0.037903057            0   0.55077137     1.574553    2.1632274   -1.1949804 
18475000    1.0586516 4.8191668e-06   0.55804246  0.028112469            0   0.52992999    1.5747443    2.1327868     2.297281 
18480000    1.0863644 2.5255562e-05    0.4960574    0.0478838            0    0.4481736    1.6159671    2.1120245     2.974081 
18485000    1.0595943 -4.5991268e-05   0.55623807  0.027351056            0   0.52888702    1.5761465    2.1323845   0.56254925 
18490000    1.0600088 5.9355547e-05   0.53931765  0.025069579            0   0.51424807    1.5767631    2.1160808    4.1420834 
18495000    1.0689786 -2.2071231e-05   0.51680548  0.018213116            0   0.49859237    1.5901057    2.1069112    1.3535465 
18500000    1.0536707 -5.77384e-05   0.57502734  0.015133876            0   0.55989346    1.5673352    2.1423626   0.17155853 
18505000     1.105317 2.7412074e-05   0.52357976  0.022046852            0   0.50153291     1.644159    2.1677388    3.1034043 
18510000    1.0796782 0.00023041804   0.54774329  0.021286962            0   0.52645633    1.6060213    2.1537646      10.0187 
18515000    1.0420756 8.0885863e-05   0.60151691  0.025562233            0   0.57595468    1.5500875    2.1516044    4.9125085 
18520000    1.0759321 -0.00010866947   0.55751191   0.06319243            0   0.49431948     1.600449    2.1579609   -1.5512904 
18525000    1.0536988 -2.8460763e-05   0.57622341  0.014263574            0   0.56195983     1.567377    2.1436004    1.1721397 
18530000    1.1414046 -2.6022516e-05   0.46803558 0.0057489617            0   0.46228662    1.6978393    2.1658749    1.2776397 
18535000    1.0958637 -0.0001152776   0.55871565  0.022355005            0   0.53636065    1.6300973     2.188813   -1.7459959 
18540000    1.1230435 1.7813551e-05   0.53713674  0.060958525            0   0.47617822    1.6705272     2.207664    2.8156999 
18545000    1.0888541 -1.322562e-05   0.59238438  0.031039359            0   0.56134502    1.6196704    2.2120548    1.7606203 
18550000    1.1213495 2.238546e-05    0.5465471  0.025922871            0   0.52062423    1.6680075    2.2145546    2.9786449 
18555000    1.1142996 0.00010324763   0.55211372  0.015430521            0    0.5366832    1.6575207    2.2096344    5.7338201 
18560000    1.0952534 -9.1635711e-06   0.58613841  0.017129458            0   0.56900895    1.6291894    2.2153278    1.9025446 
18565000     1.119491 0.00021126995   0.55641665 0.0098316947            0   0.54658495    1.6652429    2.2216596    9.4330073 
18570000    1.1277112 0.00016992413   0.56951273  0.035561414            0   0.53395132    1.6774704    2.2469832      8.04706 
18575000    1.0716027 -0.00010652996   0.64450674   0.03997091            0   0.60453583     1.594009    2.2385157   -1.3977068 
18580000    1.1549896 -0.00024927457    0.5446941  0.023696011            0   0.52099809     1.718047    2.2627411   -6.2458311 
18585000     1.152441 -7.1473409e-05   0.56216278  0.034746889            0   0.52741589    1.7142559    2.2764187  -0.16320698 
18590000    1.1724729 0.00011713386   0.53620713   0.01016888            0   0.52603825    1.7440535    2.2802606    6.2784298 
18595000    1.1612318 6.0638259e-05   0.56048094 0.0084995761            0   0.55198137    1.7273323    2.2878132    4.3575991 
18600000    1.2245842 9.1288714e-06   0.47249983 0.0085830733            0   0.46391675     1.821569    2.2940688    2.6056676 
18605000    1.1813864 -3.7389792e-05    0.5457056 0.0071626522            0   0.53854295    1.7573123    2.3030179    1.0267797 
18610000    1.1452444 -6.7819734e-05   0.59224062  0.032485906            0   0.55975471     1.703551    2.2957917 -0.019121922 
18615000    1.2255169 -6.4502208e-05   0.48785708  0.027460705            0   0.46039637    1.8229563    2.3108134   0.10913803 
18620000    1.2184496 -9.7794279e-05   0.46931772 0.0041737238            0     0.465144    1.8124438    2.2817615   -1.0562832 
18625000    1.1323713 8.7212138e-05   0.56581824 0.0058640201            0   0.55995422    1.6844024    2.2502206    5.2270616 
18630000    1.1546392 0.00015703922   0.53839805 0.0092342965            0   0.52916375    1.7175258    2.2559239    7.6161958 
18635000     1.137705 -1.4695935e-05    0.5481085  0.028027259            0   0.52008124    1.6923361    2.2404446    1.7388234 
18640000    1.1477088 -6.0120424e-05   0.50412803  0.037595482            0   0.46653255    1.7072168    2.2113449    0.1592344 
18645000    1.0904796 -5.2264662e-05   0.58651231  0.022993302            0   0.56351901    1.6220884    2.2086007   0.42463359 
18650000    1.0754247 -4.49594e-06   0.58457975  0.010322054            0    0.5742577    1.5996942    2.1842739    2.0308125 
18655000    1.0930503 -0.00011136408    0.5682483  0.010892202            0   0.55735609    1.6259124    2.1941607   -1.6070665 
18660000    1.0846767 -9.5478119e-05   0.57245952  0.010087057            0   0.56237247    1.6134566    2.1859161   -1.0730704 
18665000    1.1133584 -2.2228969e-05   0.52554473  0.010937273            0   0.51460745    1.6561206    2.1816653    1.4229165 
18670000    1.1588009 8.8248739e-05   0.45029755  0.023732029            0   0.42656552    1.7237163    2.1740139    5.1862375 
18675000    1.1570265 0.00013569969   0.48435429  0.038066689            0    0.4462876    1.7210769    2.2054312    6.8373138 
18680000    1.0663468 6.2063375e-05   0.62846669  0.032311296            0    0.5961554    1.5861909    2.2146575    4.3330874 
18685000    1.1329037 2.7105866e-05   0.49319938   0.02611608            0    0.4670833    1.6851943    2.1783936    3.1036072 
18690000    1.1280121 7.6496232e-06    0.4713175 0.0093263606            0   0.46199114     1.677918    2.1492355    2.4103427 
18695000    1.0863036 2.0774756e-05    0.5443497 0.0033896736            0   0.54096002    1.6158766    2.1602263     2.869338 
18700000    1.1041906 -3.0993891e-06   0.53791514  0.016103986            0   0.52181116    1.6424835    2.1803986    2.0746061 
18705000    1.0727054 3.9740729e-05   0.56772732  0.015833217            0   0.55189411    1.5956493    2.1633766    3.5198602 
18710000    1.0312559 -4.1684921e-05   0.61112468  0.015394661            0   0.59573002    1.5339931    2.1451178   0.72227251 
18715000    1.0583076 -0.00020113848   0.56486592  0.024339618            0    0.5405263    1.5742326    2.1390985   -4.7264283 
18720000    1.0520752 -0.00015127819    0.5948438  0.011661838            0   0.58318196    1.5649619    2.1598057   -3.0038232 
18725000    1.1470547 -4.7695197e-05   0.45467484  0.011530903            0   0.44314393    1.7062439    2.1609187   0.53292267 
18730000    1.1053612 3.0391825e-05   0.51656818  0.014649885            0   0.50191829    1.6442248     2.160793    3.1981673 
18735000    1.0774757 8.6682401e-05   0.54267104  0.012495364            0   0.53017567    1.6027451    2.1454162    5.1041755 
18740000    1.0458471 3.8651926e-05   0.56804011 0.0091854329            0   0.55885467    1.5556975    2.1237377    3.4430567 
18745000    1.0675938 2.6911346e-05   0.52717379     0.038116            0   0.48905779    1.5880458    2.1152196    3.0337935 
18750000    1.1044219 -9.2769281e-06    0.4674496  0.024059112            0   0.44339049    1.6428276    2.1102772    1.7936248 
18755000    1.0796041 -3.1542778e-05   0.51072332  0.042366493            0   0.46835683    1.6059111    2.1166344    1.0399743 
18760000   0.99106974 1.8134497e-05   0.64169409  0.034798342            0   0.60689574    1.4742162    2.1159103    2.7349011 
18765000    1.0620218 2.7825669e-06   0.55355821  0.052717174            0   0.50084103    1.5797575    2.1333157     2.228294 
18770000    1.0209487 -4.9559271e-05    0.6017187  0.061614527            0   0.54010417    1.5186612    2.1203799   0.42875683 
18775000    1.0528789 -1.9836156e-05   0.55129093  0.021969522            0   0.52932141    1.5661574    2.1174483    1.4403742 
18780000    1.0326774 6.2861049e-05   0.57337482 0.0061027123            0   0.56727211    1.5361077    2.1094825    4.2551396 
18785000    1.0854924 0.00012286611    0.4773685 0.0095328129            0   0.46783568      1.61467    2.0920385    6.2858683 
18790000    1.1095255 -7.7296504e-06   0.45242479   0.01619857            0   0.43622622    1.6504192     2.102844    1.8390053 
18795000    1.0227835 -4.2159483e-05   0.58820008  0.011173203            0   0.57702687    1.5213904    2.1095905   0.67054677 
18800000    1.0095675 5.530737e-05    0.6004082 0.0036267206            0   0.59678148    1.5017317    2.1021399    3.9899648 
18805000    1.0798103 0.0001450565   0.49046111 0.0057391963            0   0.48472191    1.6062179     2.096679     7.047941 
18810000    1.0423038 0.00015516963   0.53542849  0.017072086            0    0.5183564     1.550427    2.0858555    7.3823122 
18815000    1.0177083 0.00018261484   0.58908905  0.031240966            0   0.55784809     1.513841    2.1029301    8.3361834 
18820000    1.0878414 3.7318727e-05   0.50043005  0.027754042            0   0.47267601     1.618164    2.1185941    3.3924066 
18825000    1.0821756 -2.4937105e-05   0.52549835  0.024334487            0   0.50116387    1.6097363    2.1352346    1.2840481 
18830000    1.0475856 0.00010924412   0.58512813  0.044367331            0    0.5407608    1.5582835    2.1434117    5.8722775 
18835000    1.0303236 0.00013121353   0.57891877  0.024195254            0   0.55472352    1.5326064    2.1115251    6.5902804 
18840000    1.0563466 0.00010133266   0.52354431  0.016350266            0   0.50719404    1.5713156    2.0948599    5.5536812 
18845000     1.024323 1.7818877e-05   0.54742408   0.01741026            0   0.53001382    1.5236805    2.0711046    2.6793222 
18850000    1.0238381 -4.5791317e-05   0.54234953  0.051033625            0   0.49131591    1.5229591    2.0653086   0.50229834 
18855000    1.0192941 0.00011748495   0.56062557  0.074073516            0   0.48655205       1.5162    2.0768256    6.0869787 
18860000    1.0494124 6.1507416e-05   0.50690982  0.049066921            0    0.4578429    1.5610009    2.0679107    4.1673639 
18865000   0.98714794 -5.5223675e-05   0.57880194   0.03914195            0   0.53965999    1.4683826    2.0471845    0.1622164 
18870000   0.98757019 0.00010640479   0.57902111   0.03280316            0   0.54621795    1.4690107    2.0480318    5.6799818 
18875000    1.0206476 4.4446187e-05   0.52832761  0.017817653            0   0.51050995    1.5182134     2.046541    3.5636375 
18880000    1.0825582 -3.9807063e-06    0.4694965 0.0084049792            0   0.46109152    1.6103054    2.0798019    1.9439271 
18885000   0.98615569 0.00016376053    0.5791011  0.018676127            0   0.56042497    1.4669066    2.0460077    7.6357005 
18890000    1.0386127 0.00012189165   0.49293101  0.026774787            0   0.46615622    1.5449364    2.0378674    6.1984357 
18895000    1.0134888 2.5962249e-05   0.52300321  0.014974205            0   0.50802901    1.5075646    2.0305678    2.9167459 
18900000    1.0743914 0.00010692186   0.47045399  0.042054033            0   0.42839996    1.5981572    2.0686112    5.7182108 
18905000    1.0338347 2.6332862e-05    0.5451887   0.06586751            0   0.47932119    1.5378291    2.0830178    2.9818461 
18910000    1.0609208 -7.0604894e-05   0.50407775  0.050383757            0   0.45369399    1.5781197    2.0821974  -0.32778295 
18915000    1.1082495 8.077485e-05   0.44365584  0.028819241            0    0.4148366    1.6485212     2.092177    4.8492919 
18920000    1.0488972 7.3104177e-05   0.55623881   0.03924794            0   0.51699087    1.5602345    2.1164734    4.6117626 
18925000    1.0685499 -0.00014425508   0.51680508  0.016265015            0   0.50054007    1.5894679     2.106273   -2.8176338 
18930000    1.0771568 -0.00010228106   0.51919875  0.028427008            0   0.49077175    1.6022707    2.1214695   -1.3697241 
18935000     1.072956 -4.9684903e-05   0.50857148  0.025740302            0   0.48283117     1.596022    2.1045935    0.4086821 
18940000    1.0771244 6.7124947e-05   0.51462842  0.022030621            0    0.4925978    1.6022226     2.116851    4.4080492 
18945000    1.0510036 0.00015744587   0.56588443  0.040510203            0   0.52537422    1.5633679    2.1292524    7.5034046 
18950000    1.0917692  5.55916e-05   0.49855414  0.014658796            0   0.48389534    1.6240067    2.1225608    4.0200875 
18955000    1.1382603 3.6350866e-05   0.41278875  0.010177764            0   0.40261098    1.6931622    2.1059509    3.3467272 
18960000    1.0820109 -0.0001228451   0.47364355  0.037128101            0   0.43651545    1.6094912    2.0831347   -2.1099779 
18965000    1.0831347 -9.7884324e-05   0.47047661  0.028470851            0   0.44200576    1.6111628    2.0816395   -1.2594788 
18970000    1.0825402 0.0001287774   0.47448784 0.0086301375            0   0.46585771    1.6102786    2.0847664    6.4803683 
18975000    1.0809579 1.720344e-05   0.49819917 0.0091999128            0   0.48899926    1.6079248     2.106124    2.6933347 
18980000    1.0389351 5.3613671e-05   0.53046814  0.030839139            0     0.499629    1.5454159     2.075884    3.9058973 
18985000    1.0559705 1.2997675e-05   0.53804093   0.03641745            0   0.50162348    1.5707561     2.108797     2.552451 
18990000    1.0848947 -8.9131879e-05   0.50445935  0.023798042            0   0.48066131    1.6137809    2.1182403  -0.92412789 
18995000    1.1010386 -3.0825829e-05   0.49462071  0.031276848            0   0.46334386    1.6377949    2.1324156    1.0802273 
19000000     1.137253 4.9665331e-05   0.47468726  0.011105503            0   0.46358176    1.6916638    2.1663511    3.8615944 
19005000    1.0818042 9.0559499e-05   0.53821555  0.019711621            0   0.51850393    1.6091838    2.1473993    5.2384969 
19010000    1.1195624 -1.6419275e-05   0.49551034  0.013315484            0   0.48219486     1.665349    2.1608594    1.6004148 
19015000    1.1264871 -0.00014386194     0.480436  0.016858004            0     0.463578    1.6756495    2.1560855    -2.754402 
19020000    1.0522231 -0.00013586514   0.58172349  0.018951097            0   0.56277239    1.5651818    2.1469053   -2.4906248 
19025000    1.0646772 -0.00021180954   0.54178785  0.040795078            0   0.50099277    1.5837074    2.1254952   -5.1042704 
19030000     1.043761 -9.2763996e-05   0.56408472 0.0079609596            0   0.55612376    1.5525945    2.1166793   -1.0496651 
19035000    1.1501411 -8.7865264e-05   0.42174262  0.012462748            0   0.40927987    1.7108349    2.1325775  -0.86655685 
19040000    1.0902964 0.00011992955   0.50726556  0.031744524            0   0.47552103    1.6218159    2.1290815    6.2226767 
19045000    1.1222237 2.0319192e-06   0.44291149  0.026193486            0     0.416718    1.6693078    2.1122193    2.1815755 
19050000    1.0624374 -0.00011860267   0.54473392  0.013399715            0   0.53133421    1.5803757    2.1251096   -1.9231949 
19055000     1.155462 0.00010140465   0.43976213 0.0030471636            0   0.43671497    1.7187498    2.1585119    5.6197906 
19060000    1.1819035 9.9883981e-05    0.4265731   0.01002456            0   0.41654854    1.7580815    2.1846546    5.5940278 
19065000    1.1016778 0.00011147606    0.5201918  0.059586469            0   0.46060533    1.6387457    2.1589375    5.9639871 
19070000     1.068518 5.2934016e-05    0.5433104  0.034006206            0    0.5093042    1.5894205    2.1327309    3.9395453 
19075000     1.057634 6.3721282e-05   0.55409765  0.021291613            0   0.53280603    1.5732306    2.1273282     4.302348 
19080000    1.1420088 0.00018708507   0.44325049 0.0037425595            0   0.43950793     1.698738    2.1419885    8.5278255 
19085000     1.116249 4.2569639e-05   0.45645479  0.027740981            0   0.42871381    1.6604205    2.1168752    3.5699189 
19090000    1.0354308 -0.00016841781   0.55545121  0.024057438            0   0.53139378    1.5402033    2.0956545   -3.6530066 
19095000    1.0614747 -4.7962031e-05   0.51509283  0.012815693            0   0.50227714    1.5789436    2.0940364   0.45693246 
19100000    1.0744079 -4.9310723e-05   0.50847318  0.047162776            0   0.46131041    1.5981817    2.1066549   0.42351554 
19105000    1.0506661 -0.00017565191   0.52772416  0.034972748            0   0.49275141    1.5628658      2.09059   -3.9049953 
19110000    1.0750801 -2.012884e-06   0.50200746 0.0036258982            0   0.49838156    1.5991817    2.1011891    2.0324827 
19115000      1.07388 0.00012001697    0.5043248  0.024907372            0   0.47941743    1.5973964    2.1017212    6.1983005 
19120000    1.0661405 7.2836684e-05   0.53491881  0.047883549            0   0.48703526     1.585884    2.1208028    4.6069616 
19125000    1.0796369 -5.1706581e-05   0.51853921  0.023076934            0   0.49546228    1.6059599    2.1244992    0.3595812 
19130000    1.1281445 -0.00010557067   0.45326354  0.016625544            0     0.436638    1.6781149    2.1313785   -1.4721005 
19135000    1.1129129 8.8401696e-05   0.47922685  0.028432756            0    0.4507941     1.655458    2.1346849    5.1521294 
19140000    1.0880374 -3.1703536e-05   0.50047064  0.015540719            0   0.48492992    1.6184557    2.1189263     1.036779 
19145000    1.0804318 -0.00021404763   0.54040341  0.013824414            0     0.526579    1.6071422    2.1475456   -5.1586136 
19150000    1.0966215 -4.8955958e-05   0.49584636  0.016181544            0   0.47966481    1.6312245    2.1270709   0.45604081 
19155000    1.0442343 -4.3930021e-05   0.54895809  0.022068583            0   0.52688951    1.5532986    2.1022567   0.60277861 
19160000    1.0828193 -4.5001811e-05   0.51641341  0.023290098            0   0.49312331    1.6106937    2.1271071   0.59104527 
19165000    1.0431695 -2.6111393e-05   0.55278267  0.030338396            0   0.52244428    1.5517147    2.1044974    1.2132285 
19170000   0.98499299 7.3652147e-06   0.62347307  0.031749594            0   0.59172347    1.4651771    2.0886501    2.3400495 
19175000    1.0558465 0.00015709082   0.53156529  0.011978376            0   0.51958691    1.5705716    2.1021369    7.4641702 
19180000    1.1219753 6.3899738e-05   0.43403964  0.013109878            0   0.42092976    1.6689383    2.1029779     4.284089 
19185000    1.0369262 -1.2404795e-05   0.56905171   0.01639512            0   0.55265659    1.5424277    2.1114794    1.6880624 
19190000    1.0593346 8.8768285e-05    0.5090222  0.016812073            0   0.49221012    1.5757602    2.0847824    5.1147399 
19195000    1.0902833 2.9357367e-05   0.48276481  0.012656374            0   0.47010843    1.6217965    2.1045613     3.106626 
19200000    1.0785436 -3.3026884e-05   0.50246753 0.0094664159            0   0.49300111    1.6043336    2.1068011   0.97948346 
19205000     1.074868 -6.2990254e-05   0.48501703   0.00542028            0   0.47959675    1.5988662    2.0838832 -0.066184138 
19210000    1.1188957 3.5849328e-05   0.43112934 0.0042665814            0   0.42686276    1.6643573    2.0954867    3.3191437 
19215000    1.0397214 2.743745e-05   0.51605792  0.010892502            0   0.50516542    1.5465855    2.0626435    2.9991751 
19220000    1.0087744 -6.126172e-05   0.56023971   0.02176008            0   0.53847963    1.5005519    2.0607917 -0.030275066 
19225000    1.0988611 2.6342833e-06   0.42834257  0.006978345            0   0.42136422    1.6345559    2.0628984    2.1528153 
19230000    1.0395264 -8.6295532e-05   0.52052148  0.015256019            0   0.50526546    1.5462955     2.066817  -0.87873717 
19235000    1.0437848 4.170592e-05   0.52337375  0.029295353            0    0.4940784    1.5526299    2.0760036    3.4995657 
19240000    1.0498546 6.8259514e-05   0.50906052  0.025897623            0    0.4831629    1.5616588    2.0707193     4.400644 
19245000   0.97352664 0.00019690185   0.62091272  0.010224022            0    0.6106887    1.4481209    2.0690336    8.7899501 
19250000    1.0514905 -2.651772e-05   0.52549869  0.016330672            0   0.50916802    1.5640921    2.0895908    1.1844526 
19255000   0.99531548 -0.00017216387   0.59496302  0.030043612            0   0.56491941    1.4805318    2.0754948   -3.8010319 
19260000    1.0573374 -0.00010350108   0.51491092  0.014019958            0   0.50089096    1.5727894    2.0877003   -1.4451364 
19265000     1.076158 5.7018208e-05   0.51049338 0.0043741301            0   0.50611925    1.6007851    2.1112784    4.0574999 
19270000    1.0444369 6.4624867e-06   0.54688385  0.010352035            0   0.53653181    1.5535999    2.1004838      2.32107 
19275000    1.0181268 2.4978079e-06   0.59563288   0.01022551            0   0.58540737    1.5144636    2.1100965     2.195355 
19280000    1.0712588 -9.8564203e-05   0.51271677 0.0099746815            0   0.50274209    1.5934975    2.1062143   -1.2581105 
19285000     1.101372 -8.9764476e-05   0.48459651   0.01523361            0    0.4693629    1.6382909    2.1228874  -0.94107337 
19290000    1.0973627 -4.6088272e-05   0.50633779  0.018933519            0   0.48740427    1.6323271    2.1386649   0.56551851 
19295000    1.0615824 -7.38244e-05   0.56789701 0.0050043546            0   0.56289266    1.5791038    2.1470008  -0.37287206 
19300000     1.063441 4.514556e-05   0.57628442 0.0038064558            0   0.57247797    1.5818685    2.1581529    3.6991214 
19305000    1.0601011 9.7381198e-05   0.58427994 0.0048490926            0   0.57943085    1.5769004    2.1611803    5.4851252 
19310000    1.0842247 -0.00012995794   0.53744385 0.0067159541            0    0.5307279    1.6127842    2.1502281   -2.2856696 
19315000    1.0791119 -0.00010953393    0.5229092  0.011724898            0    0.5111843    1.6051789    2.1280881   -1.6106701 
19320000    1.0468221 -7.9293088e-05    0.5451854  0.029921144            0   0.51526425    1.5571479    2.1023333  -0.60420411 
19325000    1.0724736 -3.0526892e-05   0.51179935 0.0088743224            0   0.50292503    1.5953044    2.1071038    1.0651192 
19330000    1.1250417 -0.00015263681   0.43279669 0.0072883875            0    0.4255083    1.6734995    2.1062962   -3.1037069 
19335000    1.0710233 1.0205368e-05   0.52014271  0.019096769            0   0.50104594    1.5931471    2.1132898     2.461633 
19340000    1.0180059 -1.0717967e-05   0.58686626  0.022757142            0   0.56410912    1.5142838      2.10115    1.7353101 
19345000    1.0641747 2.4218055e-05   0.52850936  0.036372125            0   0.49213723    1.5829599    2.1114692    2.9381122 
19350000    1.0673992 -0.0001372225   0.51881853  0.028311862            0   0.49050667    1.5877563    2.1065749   -2.5772866 
19355000    1.1244813 -4.4569016e-05   0.45223069  0.027627341            0   0.42460335    1.6726659    2.1248966   0.60360746 
19360000    1.0663545 4.8225603e-05   0.55163825  0.018401557            0   0.53323669    1.5862024    2.1378406    3.7839412 
19365000    1.0038218 6.5252636e-05   0.61099239  0.016935482            0   0.59405691    1.4931849    2.1041773    4.3314673 
19370000    1.0909579 6.8986946e-06   0.49665862   0.01260295            0   0.48405566    1.6227999    2.1194585     2.354934 
19375000    1.0774161 3.7609398e-05   0.50776951 0.0076625997            0   0.50010691    1.6026565     2.110426    3.3941601 
19380000    1.0228413 -5.3559025e-05   0.60778842  0.031176898            0   0.57661152    1.5214764    2.1292648   0.30111674 
19385000    1.1078494 -1.2201046e-05   0.47836215  0.044925525            0   0.43343662     1.647926    2.1262881    1.7098257 
19390000    1.0722378 -7.6994584e-05   0.50738794  0.025353104            0   0.48203484    1.5949537    2.1023416  -0.52574016 
19395000    1.0667528 -9.7264006e-05   0.51075447  0.035765331            0   0.47498914    1.5867947    2.0975492   -1.2223955 
19400000   0.95959242 3.6822612e-05   0.62778018   0.02769562            0   0.60008456    1.4273937    2.0551739    3.3120524 
19405000    1.0600386 7.8305018e-05    0.4829306   0.02392866            0   0.45900194    1.5768074     2.059738    4.7325493 
19410000    1.0321545 -1.8730521e-05    0.5120201  0.052160422            0   0.45985968    1.5353298    2.0473499    1.4080148 
19415000   0.98362618 -1.2844193e-05   0.58051516  0.061055767            0    0.5194594    1.4631439    2.0436591     1.605244 
19420000   0.99057649 2.5784301e-05   0.58790572  0.047076475            0   0.54082924    1.4734825    2.0613882    2.9414924 
19425000    1.0803572 3.2963711e-05   0.46442146  0.014800122            0   0.44962134    1.6070313    2.0714528    3.1966141 
19430000    1.0372513 4.934411e-05   0.49822859  0.011628077            0   0.48660051    1.5429114      2.04114    3.7254189 
19435000   0.99565193 8.8691865e-06   0.54480596  0.015214807            0   0.52959115    1.4810322    2.0258382    2.3285731 
19440000   0.96989049 2.8192444e-05   0.54720081  0.019951006            0    0.5272498    1.4427121    1.9899129     2.952215 
19445000   0.97041874 5.2924886e-05    0.5469221  0.021289866            0   0.52563223    1.4434979      1.99042    3.7969227 
19450000   0.97749457 2.3157933e-05   0.54462713  0.033481514            0   0.51114561    1.4540232    1.9986503    2.7891077 
19455000   0.96665062 0.00012556777   0.56510535  0.034826318            0   0.53027903    1.4378928    2.0029981    6.2890448 
19460000    1.0074571 -3.1415821e-05   0.48072254  0.031793149            0   0.44892939    1.4985925     1.979315   0.90698833 
19465000    1.0051686 -0.00018184802   0.50509745  0.011430817            0   0.49366663    1.4951883    2.0002857   -4.2067935 
19470000    1.0728066 -2.5470068e-05   0.41392083 0.0074233986            0   0.40649744    1.5957999    2.0097207    1.1403424 
19475000    1.0450038 1.3127135e-05   0.45797498  0.018323012            0   0.43965196    1.5544431    2.0124181    2.4604909 
19480000    1.0242111 -8.3085281e-05   0.51945147  0.011068973            0    0.5083825     1.523514    2.0429654  -0.79301216 
19485000    1.0198441 5.0867139e-05   0.52782534  0.013628461            0   0.51419688    1.5170181    2.0448434    3.7811084 
19490000    1.0687965 0.00018143439   0.47338597  0.034405273            0    0.4389807    1.5898348    2.0632208    8.2561813 
19495000     1.048768 1.6154701e-05   0.48667237  0.012341401            0   0.47433097    1.5600424    2.0467147    2.5981285 
19500000    1.0606849 6.4602073e-05   0.45970283  0.014303388            0   0.44539945    1.5777687    2.0374716    4.2425557 
19505000    1.0534822 5.6558318e-05   0.47852754   0.01093643            0   0.46759112    1.5670547    2.0455823    3.9761062 
19510000   0.99285109 2.2932418e-05   0.55481379  0.026506261            0   0.52830753     1.476866    2.0316798    2.8144397 
19515000    1.0347705 0.00010418797   0.51417618  0.021425586            0   0.49275059    1.5392211    2.0533973    5.6096801 
19520000    1.0625883 -2.0366759e-05   0.48272449  0.025903389            0    0.4568211    1.5806001    2.0633246    1.3681392 
19525000    1.0357355 -0.00017320407   0.52546003  0.017643013            0   0.50781702    1.5406565    2.0661165   -3.8459158 
19530000   0.98355044 2.1450484e-05   0.60805138  0.024086761            0   0.58396462    1.4630313    2.0710827    2.8032592 
19535000    1.0286972 -2.9518278e-05   0.54620007  0.025981277            0   0.52021879    1.5301871    2.0763872      1.06883 
19540000    1.0789041 -5.0389876e-05   0.45409549  0.023283371            0   0.43081212    1.6048699    2.0589654   0.33899096 
19545000    1.0014183 -7.152065e-05   0.55465483  0.039727383            0   0.51492745    1.4896098    2.0442646   -0.3969736 
19550000   0.97774799 -5.0384194e-05   0.57859553  0.015176676            0   0.56341885    1.4544001    2.0329957   0.31321516 
19555000    1.0094569 -1.4219163e-05   0.55410483    0.0241279            0   0.52997693    1.5015671    2.0556719    1.5703245 
19560000    1.0830336 7.4641431e-07   0.45712536  0.027342049            0   0.42978331    1.6110126    2.0681379    2.0936155 
19565000    1.0225066 9.9557232e-05   0.54348024  0.036399533            0   0.50708071    1.5209786    2.0644588     5.462679 
19570000   0.98007459 5.1508676e-05   0.60100971  0.031136494            0   0.56987321     1.457861    2.0588707    3.8170335 
19575000    1.0141333 -4.0447368e-05   0.55093607  0.033769022            0   0.51716705    1.5085233    2.0594594    0.6788559 
19580000    1.0901927 -4.7337902e-05   0.43857583  0.013602548            0   0.42497328    1.6216616    2.0602374   0.44443701 
19585000    1.0088322 1.0648343e-05   0.52528117  0.016239138            0   0.50904203    1.5006379     2.025919    2.3893825 
19590000    1.0597581 3.6654799e-05   0.46493572  0.018248597            0   0.44668712    1.5763902     2.041326    3.2924764 
19595000    1.0278521 -5.6919533e-05   0.55116691    0.0202885            0   0.53087841      1.52893    2.0800969   0.13724353 
19600000    1.0740406 2.0120047e-05   0.44990639  0.034406792            0   0.41549959    1.5976355    2.0475418    2.7343061 
19605000    1.0408358 5.1179568e-05   0.48930393  0.021424434            0   0.46787949    1.5482432    2.0375471    3.7844764 
19610000    1.0474546 -5.6302449e-05   0.49147904  0.035858268            0   0.45562078    1.5580887    2.0495677   0.12777746 
19615000    1.0237464 -0.00012163594   0.50779177  0.056425609            0   0.45136616    1.5228228    2.0306145   -2.1212256 
19620000    1.0866405 4.8353154e-06   0.41681399  0.019541063            0   0.39727292    1.6163777    2.0331917    2.1982371 
19625000    1.0118364 0.0001297518    0.5518117  0.043264001            0    0.5085477    1.5051067    2.0569184    6.4857799 
19630000    1.0371764 -8.7218272e-06   0.52639129   0.01645869            0    0.5099326    1.5427999    2.0691912    1.7714862 
19635000     1.035724 7.6318468e-06   0.54623227  0.026675729            0   0.51955654    1.5406395    2.0868717    2.3473721 
19640000    1.0841045 5.9458331e-05   0.45461426 0.0028929671            0   0.45172129    1.6126054    2.0672197    4.0967307 
19645000    1.0239253 -0.00011483776    0.5331829 0.0022428627            0   0.53094004    1.5230888    2.0562717   -1.8635239 
19650000    1.0734686 -1.4467803e-05   0.46658092  0.012178426            0    0.4544025    1.5967845    2.0633654    1.5695311 
19655000     1.047805 4.8892624e-05   0.53185049   0.01326972            0   0.51858077      1.55861    2.0904605    3.7593287 
19660000    1.0746025 -8.3362857e-06   0.48782861 0.0084893631            0   0.47933925    1.5984713    2.0862999    1.8017546 
19665000    1.0299383 -1.4133592e-05   0.53702253  0.010024669            0   0.52699786    1.5320333    2.0690558    1.5866292 
19670000    1.1334814 -5.8270823e-05   0.40124795  0.011913635            0   0.38933431    1.6860536    2.0873015  0.098324103 
19675000     1.088592 -6.6906209e-05   0.46722432  0.016979021            0    0.4502453    1.6192806    2.0865049  -0.19722699 
19680000    1.0132698 -3.5999016e-05   0.58670094  0.036797789            0   0.54990315    1.5072389    2.0939398    0.8651734 
19685000    1.0621582 1.9575359e-05   0.51106748  0.016018564            0   0.49504891    1.5799603    2.0910278    2.7592001 
19690000    1.0320172 0.00019363879   0.54747399 0.0044038754            0   0.54307011    1.5351256    2.0825996    8.6921369 
19695000    1.0464157 0.00019881155   0.53953265 0.0097710461            0    0.5297616    1.5565434     2.096076    8.8821769 
19700000    1.0408179 -7.2839927e-05   0.57366339 0.0077630568            0   0.56590033    1.5482166      2.12188  -0.36438949 
19705000    1.0282347 -0.00010719505   0.60351537 0.0088325493            0   0.59468282    1.5294992    2.1330145   -1.5259099 
19710000    1.1581755 -7.1599872e-05   0.43123317 0.0081911012            0   0.42304207    1.7227861    2.1540192  -0.28992305 
19715000    1.0866545 6.5586914e-05   0.54660589  0.010717921            0   0.53588797    1.6163986    2.1630045    4.4017044 
19720000    1.0767135 1.8559669e-05   0.56514889  0.017083288            0    0.5480656    1.6016114    2.1667603    2.8002637 
19725000     1.110614 3.6342709e-05   0.50145104  0.020542676            0   0.48090837    1.6520384    2.1534894    3.3939872 
19730000      1.12731 0.00013634656   0.47946533  0.010730406            0   0.46873492    1.6768737     2.156339    6.8103015 
19735000    1.1026392 6.4701298e-05   0.51701149 0.0072419106            0   0.50976958    1.6401758    2.1571872    4.3656582 
19740000    1.0607177 0.00010639626   0.59957042  0.026225821            0    0.5733446    1.5778176     2.177388    5.8090471 
19745000     1.036065 -4.183292e-06   0.61358881  0.019483406            0    0.5941054    1.5411466    2.1547354    2.0119457 
19750000    1.0735628 -8.418231e-05   0.54867844  0.021922781            0   0.52675566    1.5969247    2.1456032  -0.72781969 
19755000    1.1154781 -0.00011063995   0.49623031  0.014233132            0   0.48199718    1.6592736    2.1555039   -1.6210064 
19760000     1.148131 -0.00010493096   0.45526316  0.037578898            0   0.41768426    1.7078449     2.163108   -1.4185353 
19765000    1.0430365 9.5274276e-05   0.59428065   0.02292947            0   0.57135118    1.5515168    2.1457975    5.3978261 
19770000    1.1251222 5.8364004e-05   0.49259156  0.013335456            0   0.47925611    1.6736192    2.1662108    4.1583688 
19775000    1.0934694 -5.0738737e-05   0.54389897  0.031332134            0   0.51256684    1.6265357    2.1704347   0.43855243 
19780000    1.1482405 7.5915809e-05   0.48004269  0.048514368            0   0.43152832    1.7080078    2.1880504      4.77931 
19785000    1.1057822 -3.353542e-05   0.54574627  0.020149611            0   0.52559665     1.644851    2.1905973    1.0459216 
19790000    1.1113245 -0.00011894762   0.55330195  0.015549411            0   0.53775253    1.6530951    2.2063971   -1.8536817 
19795000    1.0475662 3.1492652e-05    0.6209377  0.028094777            0   0.59284292    1.5582547    2.1791924    3.2541415 
19800000     1.128664 0.00011322441   0.52806035  0.033881908            0   0.49417845    1.6788877    2.2069481    6.0716745 
19805000     1.117918 -4.9014761e-05   0.54465505  0.037649296            0   0.50700575     1.662903    2.2075581   0.53452089 
19810000    1.0809854 -0.00020826333   0.63304585  0.042966409            0   0.59007944    1.6079658    2.2410117     -4.86771 
19815000    1.1687016 -6.9311915e-05   0.50901004 0.0064109801            0   0.50259906    1.7384436    2.2474537  -0.11839304 
19820000    1.1986247 6.459571e-05   0.47532852 0.0044573212            0    0.4708712    1.7829542    2.2582827    4.4631496 
19825000    1.1438269 0.00010853293   0.54914029 0.0052439378            0   0.54389636    1.7014425    2.2505828    5.9551733 
19830000    1.1471968 3.976396e-05   0.55416346  0.012072094            0   0.54209137    1.7064552    2.2606187    3.6178952 
19835000    1.1566461 -6.7135106e-05   0.52636323  0.019097377            0   0.50726585    1.7205111    2.2468743 -0.044670673 
19840000    1.1481913 -0.00012601692   0.58738709  0.016704346            0   0.57068274    1.7079346    2.2953217   -2.0060559 
19845000    1.1349077 -5.4635299e-05   0.61096037  0.012715369            0     0.598245    1.6881752    2.2991356   0.43425073 
19850000    1.1739679 8.3297013e-05   0.56072464 0.0049622208            0   0.55576242    1.7462773    2.3070019    5.1502066 
19855000    1.1896301 6.1788598e-05    0.5371458  0.021486346            0   0.51565946    1.7695747    2.3067205    4.4157714 
19860000    1.1793879 -2.0697703e-05   0.54966176  0.034529413            0   0.51513235    1.7543395    2.3040012    1.5975197 
19865000    1.2069278 9.5448961e-06   0.50204447  0.044579819            0   0.45746465    1.7953051    2.2973496    2.6231487 
19870000    1.1453737 4.7232783e-05   0.57921641  0.051190208            0    0.5280262    1.7037434    2.2829598    3.8951722 
19875000    1.1558756 -8.0569087e-06   0.55584849   0.06053752            0   0.49531097     1.719365    2.2752135    2.0002043 
19880000    1.1599694 3.5224736e-05    0.5540796  0.020282654            0   0.53379694    1.7254545    2.2795341    3.4818717 
19885000    1.1749115 6.8091666e-05   0.52188472  0.023988825            0    0.4978959    1.7476809    2.2695656    4.5937611 
19890000    1.1737784 -2.2217138e-05   0.54109866  0.029332085            0   0.51176658    1.7459954     2.287094     1.528749 
19895000    1.1527213 -6.0877319e-05   0.59844984  0.037014174            0   0.56143567     1.714673    2.3131228   0.23517699 
19900000    1.1936112 3.5912182e-05   0.55194308  0.017455358            0   0.53448772    1.7754967    2.3274398    3.5532422 
19905000    1.2142592 -5.8977339e-05    0.5069791 0.0070010186            0   0.49997808    1.8062106    2.3131897   0.30009651 
19910000     1.160622 -3.2145307e-05   0.56960926  0.013297291            0   0.55631197    1.7264252    2.2960344    1.1988079 
19915000    1.2373109 8.8101387e-05   0.46644651  0.020101648            0   0.44634486       1.8405    2.3069465    5.3141405 
19920000    1.1548437 0.00010407211   0.57651408  0.019187837            0   0.55732624      1.71783    2.2943441    5.8466721 
19925000    1.1806561 6.6368064e-05   0.51960638  0.020055436            0   0.49955094     1.756226    2.2758324    4.5411956 
19930000    1.2010046 4.9655503e-05   0.51072612   0.02112106            0   0.48960506    1.7864943    2.2972205    3.9921283 
19935000    1.1346275 0.00013508634   0.58585962  0.013725131            0   0.57213449    1.6877583     2.273618     6.884565 
19940000    1.1808575 -3.9345893e-06   0.50066682  0.034620547            0   0.46604627    1.7565256    2.2571924    2.1228917 
19945000    1.0939776 -2.4266618e-05   0.60934716  0.037721205            0   0.57162595    1.6272917    2.2366389    1.4083383 
19950000    1.1572195 -9.7036767e-05   0.53841612  0.035945794            0   0.50247033     1.721364    2.2597801   -1.0524082 
19955000    1.1873734 -4.2122927e-05   0.52673439  0.045671276            0   0.48106312    1.7662179    2.2929523   0.85515635 
19960000     1.210925 6.5513001e-05   0.47918055  0.028721455            0   0.45045909    1.8012509    2.2804315    4.5166086 
19965000    1.1067518 2.903887e-05   0.61664098  0.047958498            0   0.56868249    1.6462932    2.2629342    3.2541276 
19970000    1.0644933 -3.843689e-05   0.64686812  0.055587732            0   0.59128039    1.5834338    2.2303019   0.91832274 
19975000    1.1266942 0.00012568987   0.55475945  0.012636704            0   0.54212274    1.6759576    2.2307171    6.5209312 
19980000    1.1926503 0.00019912315   0.46827966  0.019710409            0   0.44856925    1.7740673     2.242347    9.0390839 
19985000     1.135815 -4.5431849e-05   0.55280443  0.023394262            0   0.52941017    1.6895248    2.2423292    0.6915888 
19990000    1.1795898 -6.4594171e-05   0.48159705  0.038084562            0   0.44351249    1.7546398    2.2362369  0.031422502 
19995000    1.1840323 4.2333601e-05   0.45578856    0.0216597            0   0.43412886     1.761248    2.2170366    3.6620235 
20000000    1.1388493 8.735117e-05   0.53730281 0.0029249133            0    0.5343779    1.6940383    2.2313411    5.2129277 
Loop time of 247.947 on 1 procs for 20000000 steps with 120 atoms

Performance: 69692.409 tau/day, 80662.511 timesteps/s
99.7% CPU use with 1 MPI tasks x no OpenMP threads

MPI task timing breakdown:
Section |  min time  |  avg time  |  max time  |%varavg| %total
---------------------------------------------------------------
Pair    | 12.814     | 12.814     | 12.814     |   0.0 |  5.17
Bond    | 41.448     | 41.448     | 41.448     |   0.0 | 16.72
Neigh   | 20.458     | 20.458     | 20.458     |   0.0 |  8.25
Comm    | 51.697     | 51.697     | 51.697     |   0.0 | 20.85
Output  | 0.65751    | 0.65751    | 0.65751    |   0.0 |  0.27
Modify  | 112.5      | 112.5      | 112.5      |   0.0 | 45.37
Other   |            | 8.368      |            |       |  3.37

Nlocal:        120.000 ave         120 max         120 min
Histogram: 1 0 0 0 0 0 0 0 0 0
Nghost:        0.00000 ave           0 max           0 min
Histogram: 1 0 0 0 0 0 0 0 0 0
Neighs:        44.0000 ave          44 max          44 min
Histogram: 1 0 0 0 0 0 0 0 0 0

Total # of neighbors = 44
Ave neighs/atom = 0.36666667
Ave special neighs/atom = 5.9000000
Neighbor list builds = 4169
Dangerous builds = 0
write_restart restart.equil
System init for write_restart ...
WARNING: Communication cutoff 1.4200000000000002 is shorter than a bond length based estimate of 1.8. This may lead to errors. (../comm.cpp:667)
#--------------End of Input file ------------------
Total wall time: 0:04:08
