LAMMPS (29 Oct 2020)
###################### polyelectrolyte complexation ######################
clear

#Initialization
#------------------------------------
units				lj
dimension			3
atom_style			full
boundary			p p p

#Atom Definition
#-------------------------------------
read_data			data.complexation
Reading data file ...
  orthogonal box = (-80.000000 -80.000000 -80.000000) to (80.000000 80.000000 80.000000)
  1 by 1 by 1 MPI processor grid
  reading atoms ...
  80 atoms
  scanning bonds ...
  1 = max bonds/atom
  reading bonds ...
  79 bonds
Finding 1-2 1-3 1-4 neighbors ...
  special bond factors lj:    0.0      0.0      0.0     
  special bond factors coul:  0.0      0.0      0.0     
     2 = max # of 1-2 neighbors
     2 = max # of 1-3 neighbors
     4 = max # of 1-4 neighbors
     6 = max # of special neighbors
  special bonds CPU = 0.000 seconds
  read_data CPU = 0.003 seconds

#Force definition
#----------------------------------------------
#Bond definition
bond_style			harmonic
bond_coeff			1 5000 1
#Pair definition
special_bonds	lj 0 1 1
Finding 1-2 1-3 1-4 neighbors ...
  special bond factors lj:    0.0      1.0      1.0     
  special bond factors coul:  0.0      0.0      0.0     
     2 = max # of 1-2 neighbors
     2 = max # of 1-3 neighbors
     4 = max # of 1-4 neighbors
     6 = max # of special neighbors
  special bonds CPU = 0.000 seconds
pair_style		 lj/cut 1.12
pair_modify 		 shift yes
pair_coeff	1 1 1 1 1.12

#Timestep etc
#--------------------------------------------
timestep		1e-05
run_style		verlet
velocity		all	create	1	10

#Fix
#---------------------------------------
group polymers type 1
80 atoms in group polymers
fix 1 all nve
fix 2 all langevin 1	1	10	10
fix 3 polymers recenter INIT INIT INIT units box

#Dump
#------------------------------------------------
compute  1 all gyration
variable  myRg2 equal c_1
variable  i equal step
fix  mythermofile all print 5000 "$i ${myRg2}" file radius_of_gyration.dat screen no

thermo_style		 custom step temp press pe evdwl ecoul ebond ke etotal enthalpy
thermo 	5000
dump	3 all custom 5000 dump.lammpstrj id mol type xu yu zu
run		20000000
Neighbor list info ...
  update every 1 steps, delay 10 steps, check yes
  max neighbors/atom: 2000, page size: 100000
  master list distance cutoff = 1.42
  ghost atom cutoff = 1.42
  binsize = 0.71, bins = 226 226 226
  1 neighbor lists, perpetual/occasional/extra = 1 0 0
  (1) pair lj/cut, perpetual
      attributes: half, newton on
      pair build: half/bin/newton
      stencil: half/bin/3d/newton
      bin: standard
WARNING: Communication cutoff 1.4200000000000002 is shorter than a bond length based estimate of 1.8. This may lead to errors. (../comm.cpp:667)
Per MPI rank memory allocation (min/avg/max) = 54.71 | 54.71 | 54.71 Mbytes
Step Temp Press PotEng E_vdwl E_coul E_bond KinEng TotEng Enthalpy 
       0            1 1.9287109e-05            0            0            0            0      1.48125      1.48125      2.46875 
    5000   0.80977458 -0.00031424092   0.29727966            0            0   0.29727966    1.1994786    1.4967582   -14.592377 
   10000   0.43051858 -0.00070021923   0.85525535            0            0   0.85525535   0.63770565     1.492961   -34.358264 
   15000   0.68269472 -0.00035993858   0.47141128            0            0   0.47141128    1.0112416    1.4826528   -16.946203 
   20000    0.6589321 -0.00029345758   0.52725181            0            0   0.52725181   0.97604317     1.503295   -13.521733 
   25000   0.50790417 -0.00054898246   0.74352759            0            0   0.74352759   0.75233306    1.4958606   -26.612041 
   30000   0.73306825 -0.00038898148   0.41097133            0            0   0.41097133    1.0858573    1.4968287   -18.419023 
   35000   0.80527385 -0.00019895798   0.32329033            0            0   0.32329033    1.1928119    1.5161022   -8.6705465 
   40000   0.72820981  -0.00024495   0.43189337            0            0   0.43189337    1.0786608    1.5105542   -11.030886 
   45000   0.75083255 -0.00024380656    0.4151909            0            0    0.4151909    1.1121707    1.5273616   -10.955534 
   50000   0.78199152 -0.00018190485   0.36085569            0            0   0.36085569    1.1583249    1.5191806   -7.7943478 
   55000   0.83829757 -0.00010890771   0.30036348            0            0   0.30036348    1.2417283    1.5420918   -4.0339831 
   60000    0.8767313 -7.8091929e-05   0.27170442            0            0   0.27170442    1.2986582    1.5703627   -2.4279441 
   65000   0.87699039 -9.4303715e-05   0.26747873            0            0   0.26747873     1.299042    1.5665207   -3.2618294 
   70000   0.82778125 -3.8863519e-05   0.32840467            0            0   0.32840467     1.226151    1.5545556  -0.43525652 
   75000   0.87514599 -9.3017688e-05   0.25842519            0            0   0.25842519      1.29631    1.5547352   -3.2077705 
   80000   0.80142038 -4.2901253e-05   0.29993238            0            0   0.29993238    1.1871039    1.4870363  -0.70950781 
   85000   0.80357978 -2.798273e-05   0.31331299            0            0   0.31331299    1.1903025    1.5036155  0.070899746 
   90000   0.78444854 9.3303726e-06   0.34859832            0            0   0.34859832    1.1619644    1.5105627    1.9882778 
   95000   0.82706468 -0.00012576887   0.26515567            0            0   0.26515567    1.2250896    1.4902452   -4.9491209 
  100000   0.83837903 -2.4943212e-05    0.2600573            0            0    0.2600573    1.2418489    1.5019062    0.2248138 
  105000   0.86431162 0.00014847655   0.24475564            0            0   0.24475564    1.2802616    1.5250172    9.1270167 
  110000   0.78303208 -0.00010767984   0.34284733            0            0   0.34284733    1.1598663    1.5027136   -4.0104943 
  115000   0.78851817 -9.8980685e-05   0.30379866            0            0   0.30379866    1.1679925    1.4717912   -3.5960199 
  120000   0.76906547 0.00014530385   0.31051321            0            0   0.31051321    1.1391782    1.4496914    8.8892483 
  125000   0.76662931 1.6978802e-05   0.32167993            0            0   0.32167993    1.1355697    1.4572496    2.3265643 
  130000   0.74493836 -0.00016236438    0.3940272            0            0    0.3940272    1.1034399    1.4974671   -6.8155889 
  135000   0.84219946 2.8825889e-05   0.26456019            0            0   0.26456019    1.2475079    1.5120681    2.9879537 
  140000   0.83509607 8.7810608e-05   0.29858453            0            0   0.29858453    1.2369861    1.5355706    6.0314737 
  145000   0.83522131 -7.9185581e-05   0.29941481            0            0   0.29941481    1.2371716    1.5365864   -2.5177154 
  150000    0.7891443 -0.00012371185     0.360861            0            0     0.360861      1.16892     1.529781   -4.8042659 
  155000   0.79025156 0.00017147903   0.37849792            0            0   0.37849792    1.1705601     1.549058    10.328785 
  160000   0.82476431 -5.0750468e-05   0.34680526            0            0   0.34680526    1.2216821    1.5684874   -1.0299366 
  165000   0.81240533 -0.00019762095   0.33746194            0            0   0.33746194    1.2033754    1.5408373   -8.5773551 
  170000     0.862272 0.00014554904   0.30167923            0            0   0.30167923    1.2772404    1.5789196    9.0310303 
  175000   0.86292837  3.65776e-05   0.30495318            0            0   0.30495318    1.2782126    1.5831658    3.4559389 
  180000   0.84840728 -0.00019758226   0.36572647            0            0   0.36572647    1.2567033    1.6224298   -8.4937821 
  185000   0.91378793 8.6794521e-05   0.23509239            0            0   0.23509239    1.3535484    1.5886408    6.0325203 
  190000   0.85680391 1.6638647e-05   0.28678513            0            0   0.28678513    1.2691408    1.5559259    2.4078246 
  195000   0.78123423 -0.00010445245   0.42163195            0            0   0.42163195    1.1572032    1.5788352   -3.7691304 
  200000   0.80220678 -2.6892526e-06   0.37623671            0            0   0.37623671    1.1882688    1.5645055    1.4268158 
  205000   0.82597284 8.9085191e-05   0.32791795            0            0   0.32791795    1.2234723    1.5513902     6.112552 
  210000   0.81021017 -8.0220127e-05   0.34578668            0            0   0.34578668    1.2001238    1.5459105     -2.56136 
  215000   0.79955089 6.192212e-05   0.35043573            0            0   0.35043573    1.1843347    1.5347705     4.705183 
  220000   0.85360499 7.8582844e-06   0.28448286            0            0   0.28448286    1.2644024    1.5488853    1.9512294 
  225000   0.81883748 -1.6246111e-06   0.31244711            0            0   0.31244711     1.212903    1.5253501      1.44217 
  230000   0.76684194 6.1381578e-05   0.37395337            0            0   0.37395337    1.1358846     1.509838    4.6525748 
  235000   0.77793741 2.4326872e-05   0.36359858            0            0   0.36359858    1.1523198    1.5159184    2.7614542 
  240000    0.8021735 -1.8467171e-05   0.32330939            0            0   0.32330939    1.1882195    1.5115289   0.56600972 
  245000   0.77549339 6.0217253e-07   0.35277734            0            0   0.35277734    1.1486996    1.5014769    1.5323082 
  250000   0.78182388 3.6176103e-05   0.36813214            0            0   0.36813214    1.1580766    1.5262088    3.3784252 
  255000   0.84666241 -5.642327e-05   0.29449323            0            0   0.29449323    1.2541187    1.5486119   -1.3402595 
  260000   0.83725762 7.3620624e-06   0.32733383            0            0   0.32733383    1.2401879    1.5675217    1.9444593 
  265000   0.81150241 3.5725156e-05   0.36727838            0            0   0.36727838    1.2020379    1.5693163    3.3984443 
  270000   0.80229984 -1.0719121e-05   0.38199088            0            0   0.38199088    1.1884066    1.5703975    1.0215785 
  275000   0.83540746 1.6899004e-05   0.34252501            0            0   0.34252501    1.2374473    1.5799723    2.4452013 
  280000   0.84325682 1.2115831e-05   0.33423755            0            0   0.33423755    1.2490742    1.5833117    2.2036423 
  285000   0.84456741 -3.9412045e-05   0.32704455            0            0   0.32704455    1.2510155      1.57806  -0.43983667 
  290000   0.79508243 7.5407259e-05   0.40220134            0            0   0.40220134    1.1777158    1.5799172    5.4407688 
  295000   0.83392855 -3.7100306e-05   0.32980788            0            0   0.32980788    1.2352567    1.5650645  -0.33447111 
  300000   0.81200973 -2.9634961e-05   0.36710112            0            0   0.36710112    1.2027894    1.5698905  0.052580546 
  305000   0.81601044 7.6075399e-05   0.35617309            0            0   0.35617309    1.2087155    1.5648886     5.459949 
  310000     0.773609 -1.3458042e-05   0.40682789            0            0   0.40682789    1.1459083    1.5527362   0.86368447 
  315000   0.80226685 3.1423908e-07   0.35879383            0            0   0.35879383    1.1883578    1.5471516    1.5632406 
  320000   0.77879949 -7.0941432e-06   0.39327802            0            0   0.39327802    1.1535967    1.5468748    1.1836546 
  325000   0.76008593 -1.4279624e-05   0.38614338            0            0   0.38614338    1.1258773    1.5120207   0.78090393 
  330000   0.79844721 4.9649055e-05   0.35181052            0            0   0.35181052    1.1826999    1.5345105    4.0765421 
  335000   0.78389686 -1.612921e-05   0.37859368            0            0   0.37859368    1.1611472    1.5397409   0.71392535 
  340000   0.77499662 3.730589e-05   0.40558906            0            0   0.40558906    1.1479637    1.5535528    3.4636144 
  345000    0.8282082 -4.2600278e-05   0.31996298            0            0   0.31996298    1.2267834    1.5467464  -0.63438787 
  350000   0.77840425 6.0542377e-05   0.38773379            0            0   0.38773379    1.1530113    1.5407451    4.6405148 
  355000   0.75748165 -2.0863162e-05   0.41448444            0            0   0.41448444    1.1220197    1.5365041   0.46831025 
  360000   0.78925375 -7.3568648e-05   0.36880977  1.10142e-05            0   0.36879875    1.1690821    1.5378919   -2.2288229 
  365000   0.80325961 -1.7694467e-05   0.36663431 0.0022254863            0   0.36440883    1.1898283    1.5564626   0.65050593 
  370000   0.76882117 -4.3687668e-05   0.45107997 0.0078122576            0   0.44326772    1.1388164    1.5898963  -0.64691225 
  375000   0.79313916 5.9430836e-05   0.43182582 0.0026163658            0   0.42920945    1.1748374    1.6066632     4.649522 
  380000   0.80224702 -0.0001342458   0.41871425 4.4586609e-05            0   0.41866966    1.1883284    1.6070426   -5.2663425 
  385000   0.76131944 8.8551046e-05   0.47708286            0            0   0.47708286    1.1277044    1.6047873    6.1386009 
  390000   0.71574049 7.0600806e-06   0.56158699            0            0   0.56158699    1.0601906    1.6217776    1.9832537 
  395000   0.81499391 -3.4834023e-06   0.40211974            0            0   0.40211974    1.2072097    1.6093295    1.4309793 
  400000    0.7985842 7.3512567e-05    0.3716236            0            0    0.3716236    1.1829028    1.5545264    5.3183699 
  405000   0.77548128 -0.00020522761   0.41252684            0            0   0.41252684    1.1486816    1.5612085   -8.9464452 
  410000   0.77886455 0.00013937217    0.4219755            0            0    0.4219755    1.1536931    1.5756686    8.7115235 
  415000   0.76363867 -0.00015433941   0.43735194            0            0   0.43735194    1.1311398    1.5684917   -6.3336861 
  420000   0.84008785 0.00011242668   0.34934517            0            0   0.34934517    1.2443801    1.5937253    7.3499715 
  425000   0.82247064 -3.6481849e-05   0.35564654            0            0   0.35564654    1.2182846    1.5739312  -0.29393947 
  430000    0.8183576 1.1609257e-06   0.38698868 0.0010082029            0   0.38598048    1.2121922    1.5991809    1.6586203 
  435000   0.79028414 0.00019985529   0.43199807  0.001319462            0    0.4306786    1.1706084    1.6026064    11.835197 
  440000   0.80008946 -0.00014335874   0.42091769 0.0012716728            0   0.41964602    1.1851325    1.6060502   -5.7339175 
  445000   0.82109337 8.4196007e-05   0.43860261 0.00037248516            0   0.43823013    1.2162446    1.6548472    5.9656827 
  450000   0.80927108 -8.0319305e-07   0.44200036            0            0   0.44200036    1.1987328    1.6407331    1.5996097 
  455000    0.8216868 -7.4232832e-05    0.4068658            0            0    0.4068658    1.2171236    1.6239894   -2.1767316 
  460000   0.82941019 3.967577e-05   0.40708754            0            0   0.40708754    1.2285638    1.6356514    3.6670508 
  465000   0.76535685 2.8399104e-06   0.51643998            0            0   0.51643998    1.1336848    1.6501248    1.7955282 
  470000   0.78948345 -3.0458231e-05   0.46922823 1.047866e-07            0   0.46922813    1.1694224    1.6386506   0.07918918 
  475000   0.78379709 5.6779423e-05   0.47501692 0.00059375098            0   0.47442317    1.1609994    1.6360164    4.5431228 
  480000   0.81658855 -2.8730345e-05   0.43087203 0.00085726071            0   0.43001477    1.2095718    1.6404438   0.16945015 
  485000   0.83959164 5.0168407e-05   0.38151799 0.0014803972            0   0.38003759    1.2436451    1.6251631    4.1937855 
  490000   0.84229452 -7.0705597e-05   0.38129734 0.00012627933            0   0.38117106    1.2476488    1.6289461   -1.9911805 
  495000   0.89311932 0.00011273724   0.31497453            0            0   0.31497453     1.322933    1.6379075    7.4100544 
  500000   0.80751453 -6.6626304e-05   0.42180382            0            0   0.42180382    1.1961309    1.6179347    -1.793332 
  505000    0.8272398 0.00013750116   0.40212235            0            0   0.40212235     1.225349    1.6274713    8.6675309 
  510000     0.876861 2.8521472e-05   0.33730075            0            0   0.33730075    1.2988503    1.6361511    3.0964504 
  515000   0.88767601 -3.0734456e-05   0.36293253            0            0   0.36293253    1.3148701    1.6778026   0.10419846 
  520000   0.87428069 7.1230365e-05   0.37976892            0            0   0.37976892    1.2950283    1.6747972    5.3217919 
  525000   0.81526233 -0.00021981217   0.48685395            0            0   0.48685395    1.2076073    1.6944613   -9.5599219 
  530000   0.85229258 4.2262081e-05   0.41302721            0            0   0.41302721    1.2624584    1.6754856    3.8393041 
  535000   0.84146633 -0.00010916361    0.4198834 7.1246517e-05            0   0.41981215     1.246422    1.6663054   -3.9228715 
  540000     0.830813 3.9681965e-05   0.43680908 0.00021726034            0   0.43659182    1.2306418    1.6674508    3.6991675 
  545000   0.81962312 -1.1041254e-06    0.4425022 0.0008348249            0   0.44166738    1.2140667     1.656569    1.6000377 
  550000   0.79450136 -1.4369144e-05    0.4944139 0.00044729611            0    0.4939666    1.1768551     1.671269   0.93556884 
  555000   0.80481298 7.9602449e-06   0.48734183 0.00037424784            0   0.48696758    1.1921292    1.6794711    2.0870356 
  560000   0.79428796 1.8181999e-05   0.50641756 0.0027340776            0   0.50368348     1.176539    1.6829566    2.6138749 
  565000   0.88822398 -3.9450449e-05   0.37609811 0.0091949702            0   0.36690314    1.3156818    1.6917799  -0.32808312 
  570000    0.9076085 -2.9881798e-05   0.36906481 0.0071066456            0   0.36195817    1.3443951    1.7134599   0.18351184 
  575000   0.93296794 -9.3971181e-06   0.35232427 0.0014411408            0   0.35088313    1.3819588     1.734283    1.2531506 
  580000   0.90395203 4.5778954e-05   0.37143056            0            0   0.37143056     1.338979    1.7104095     4.054292 
  585000   0.87337361 -4.0571174e-05   0.41814485            0            0   0.41814485    1.2936847    1.7118295  -0.36541459 
  590000   0.89073309 3.4413501e-05   0.39205199            0            0   0.39205199    1.3193984    1.7114504    3.4734216 
  595000   0.90668868 0.00011890626    0.3827527            0            0    0.3827527    1.3430326    1.7257853     7.813786 
  600000   0.87464542 -0.00013651709   0.45286797            0            0   0.45286797    1.2955685    1.7484365   -5.2412382 
  605000   0.84649671 0.00015020224   0.49027332 0.0014732618            0   0.48880006    1.2538732    1.7441466    9.4345014 
  610000   0.92547516 -3.8265953e-05    0.4068733  0.009077615            0   0.39779569    1.3708601    1.7777334  -0.18148342 
  615000   0.87045215 -1.5276568e-05   0.45260518  0.011423304            0   0.44118187    1.2893572    1.7419624   0.95980217 
  620000    0.8773687 5.5920856e-05   0.44774576 0.0030260135            0   0.44471975    1.2996024    1.7473482     4.610496 
  625000    0.9246051 -6.8562837e-05    0.3793352   0.00583848            0   0.37349672    1.3695713    1.7489065   -1.7615108 
  630000   0.89225041 -0.00014747531   0.44812718 0.0092521111            0   0.43887506    1.3216459    1.7697731   -5.7809626 
  635000   0.85492718 7.4688362e-05   0.50452352  0.015994226            0    0.4885293    1.2663609    1.7708844    5.5949285 
  640000   0.91568779 -7.2910431e-05   0.39239929 0.0096887338            0   0.38271056    1.3563625    1.7487618   -1.9842523 
  645000    0.9631281 -8.160951e-05   0.34861872 0.0028834941            0   0.34573522    1.4266335    1.7752522   -2.4031547 
  650000   0.91048073 6.6440876e-06   0.45143403 0.0090736976            0   0.44236033    1.3486496    1.8000836    2.1402609 
  655000   0.87286267 -0.00010043292   0.51006684 0.0044644678            0   0.50560237    1.2929278    1.8029947    -3.339171 
  660000   0.88148104 4.4261907e-05   0.48645559  0.019170962            0   0.46728463    1.3056938    1.7921494     4.058359 
  665000   0.98326019 -6.7169618e-05   0.34301708  0.021221203            0   0.32179588    1.4564542    1.7994712   -1.6396132 
  670000   0.96385482 -2.746496e-05   0.35531163    0.0220567            0   0.33325493      1.42771    1.7830216   0.37681563 
  675000   0.90398048 0.00011931816    0.4062679  0.024459779            0   0.38180812    1.3390211     1.745289    7.8543786 
  680000   0.88155635 -6.897426e-06     0.468147 0.0056576751            0   0.46248933    1.3058053    1.7739524    1.4208041 
  685000   0.87609961 2.9778433e-05   0.51154682 0.0028660222            0    0.5086808    1.2977225    1.8092694    3.3339251 
  690000   0.88948381 -0.00010414424   0.51426332 0.0025366381            0   0.51172669    1.3175479    1.8318112   -3.5003737 
  695000   0.92923776 4.0267612e-05   0.46571965  0.013328527            0   0.45239113    1.3764334    1.8421531    3.9038548 
  700000   0.98856289 5.674544e-05    0.3932084  0.013054217            0   0.38015418    1.4643088    1.8575172    4.7628837 
  705000   0.95165382 -6.6947422e-05   0.39450716 0.00097958003            0   0.39352758    1.4096372    1.8041444   -1.6235636 
  710000   0.92871212 7.9998101e-05   0.46029117            0            0   0.46029117    1.3756548     1.835946    5.9318488 
  715000   0.92628723 -0.00019061553   0.49468624            0            0   0.49468624     1.372063    1.8667492   -7.8927659 
  720000    1.0218268 -3.7341548e-05   0.35292332            0            0   0.35292332     1.513581    1.8665043 -0.045382977 
  725000   0.96220811 1.5341206e-05   0.43529685            0            0   0.43529685    1.4252708    1.8605676    2.6460374 
  730000   0.94766937 -5.9474322e-05   0.45963018            0            0   0.45963018    1.4037353    1.8633654   -1.1817198 
  735000   0.92946002 -1.4647052e-06   0.48025847            0            0   0.48025847    1.3767627    1.8570211    1.7820282 
  740000   0.91838828 4.0701447e-05   0.49380678 0.0004712931            0   0.49333548    1.3603626    1.8541694    3.9380835 
  745000    0.9364591 4.1173752e-05    0.4791028 0.0038768566            0   0.47522594      1.38713    1.8662328    3.9743289 
  750000   0.97779133 4.9829306e-05   0.42767783 0.0048531469            0   0.42282468    1.4483534    1.8760312    4.4272917 
  755000   0.99521245 -2.4094139e-05   0.41473652  0.012154463            0   0.40258206    1.4741584     1.888895   0.65527503 
  760000   0.91363455 3.814712e-05   0.51386616  0.016905577            0   0.49696059    1.3533212    1.8671873    3.8203199 
  765000   0.95632985 -1.5879443e-05   0.44389674 0.0016778487            0   0.44221889    1.4165636    1.8604603    1.0474329 
  770000   0.95074831 2.0463356e-05   0.43052607            0            0   0.43052607    1.4082959     1.838822    2.8865458 
  775000   0.97950117 0.00010759518   0.36360431  2.28964e-05            0   0.36358141    1.4508861    1.8144904    7.3233639 
  780000   0.91268256 -2.8522232e-05   0.46641822  0.010114549            0   0.45630368     1.351911    1.8183293   0.35799099 
  785000   0.89456815 -7.7179105e-05   0.47312429  0.023482537            0   0.44964175    1.3250791    1.7982034   -2.1533668 
  790000    0.9223476 -7.8826594e-05   0.43714219  0.010936896            0    0.4262053    1.3662274    1.8033696    -2.232552 
  795000   0.88252135 9.9467747e-05   0.50944104  0.012516996            0   0.49692405    1.3072347    1.8166758    6.9094244 
  800000   0.89003792 -0.00015316607   0.49673605  0.019915247            0    0.4768208    1.3183687    1.8151047   -6.0269978 
  805000    0.9192589 0.00016658698   0.41662224  0.010841868            0   0.40578037    1.3616522    1.7782745    10.307528 
  810000   0.83824404 -3.7789106e-05   0.53152291  0.017799378            0   0.51372353     1.241649    1.7731719  -0.16163032 
  815000   0.93587524 -2.2830753e-05   0.40580187 0.0073007344            0   0.39850114    1.3862652    1.7920671   0.62313253 
  820000   0.89873684 2.0767167e-05    0.4569313 0.0017738272            0   0.45515747    1.3312539    1.7881852    2.8514642 
  825000   0.85120755 5.4908108e-06   0.52266559   0.01063059            0     0.512035    1.2608512    1.7835168    2.0646463 
  830000   0.89739863 -1.3535949e-05   0.46889311 0.0051484853            0   0.46374462    1.3292717    1.7981648    1.1051242 
  835000   0.93511261 2.580309e-05   0.41697415 0.00075282712            0   0.41622132    1.3851356    1.8021097    3.1232279 
  840000   0.95287297 5.5534002e-05   0.38801456 3.7142501e-05            0   0.38797741    1.4114431    1.7994576    4.6427985 
  845000   0.87268213 0.00013163779   0.47326004            0            0   0.47326004    1.2926604    1.7659204     8.505775 
  850000   0.83926449 0.00010220696   0.52071968            0            0   0.52071968    1.2431605    1.7638802    6.9968767 
  855000   0.88971094 1.7139214e-05   0.47102656            0            0   0.47102656    1.3178843    1.7889109    2.6664387 
  860000   0.85358261 0.00010273011   0.52813653            0            0   0.52813653    1.2643692    1.7925058    7.0522873 
  865000   0.85006481 -7.9849905e-05   0.53711472            0            0   0.53711472    1.2591585    1.7962732   -2.2920419 
  870000    0.8880183 -4.3153597e-05   0.48165327 0.0016180605            0   0.48003521    1.3153771    1.7970304  -0.41243378 
  875000   0.93749954 -2.2332345e-05   0.44315851  0.016065084            0   0.42709342    1.3886712    1.8318297   0.68841363 
  880000   0.97099333 -6.2254103e-05   0.41015142 0.0097324559            0   0.40041896    1.4382839    1.8484353   -1.3389748 
  885000   0.92382704 3.6380659e-05   0.46874862 4.810381e-05            0   0.46870052    1.3684188    1.8371674    3.6998572 
  890000   0.94286324 -0.00011969042   0.42898283            0            0   0.42898283    1.3966162     1.825599   -4.3025506 
  895000   0.89188214 9.2238897e-05   0.48523932 0.00057482027            0    0.4846645    1.3211004    1.8063397    6.5289713 
  900000   0.88775224 -0.00014967662    0.5042277  0.020095346            0   0.48413235     1.314983    1.8192107   -5.8442321 
  905000   0.93492298 5.2945436e-05    0.4129724  0.019537004            0   0.39343539    1.3848547    1.7978271    4.5086334 
  910000   0.89264705 2.4863463e-06   0.49784972 0.0040173091            0   0.49383241    1.3222334    1.8200832    1.9473841 
  915000   0.87232319 -0.00015420922   0.52490878            0            0   0.52490878    1.2921287    1.8170375   -6.0784746 
  920000   0.91339387 -1.6001678e-05     0.475476 7.4499638e-05            0    0.4754015    1.3529647    1.8284407    1.0091547 
  925000   0.85716923 -2.3202311e-05   0.52375419 0.0068318351            0   0.51692235    1.2696819    1.7934361   0.60547781 
  930000   0.91129329 9.6673764e-06   0.43988484   0.01649601            0   0.42338883    1.3498532     1.789738    2.2847077 
  935000   0.86243603 0.00017037164   0.48417516 0.0027981113            0   0.48137705    1.2774834    1.7616585    10.484686 
  940000   0.79012775 8.3695343e-05   0.62232129 0.00015835261            0   0.62216294    1.1703767     1.792698    6.0778996 
  945000   0.94575205 9.5705057e-05   0.36324452 0.00014548872            0   0.36309903    1.4008952    1.7641397    6.6642387 
  950000   0.81017701 -5.0813834e-05   0.55676878 0.0074798123            0   0.54928897    1.2000747    1.7568435  -0.84482482 
  955000   0.86931808 -1.6781368e-05   0.50188163  0.022572277            0   0.47930935    1.2876774     1.789559   0.93035297 
  960000   0.86053277 -0.0001073986   0.50480009  0.012630192            0   0.49216989    1.2746642    1.7794643   -3.7193439 
  965000   0.89633189 -8.635485e-05   0.46753783 0.00080868509            0   0.46672914    1.3276916    1.7952294   -2.6261389 
  970000   0.96284898 5.8595149e-05   0.37648541 0.00024205198            0   0.37624336    1.4262201    1.8027055    4.8027771 
  975000   0.88325031 0.00012379593   0.49129124  0.010272328            0   0.48101892    1.3083145    1.7996058    8.1379572 
  980000   0.92487238 8.8958096e-05   0.42823246  0.010039873            0   0.41819259    1.3699672    1.7981997    6.3528542 
  985000   0.92783564 2.0218149e-06    0.4265094 0.0014525127            0   0.42505689    1.3743565    1.8008659    1.9043829 
  990000   0.85753583 -6.3179181e-05   0.54540752 0.0029453895            0   0.54246213     1.270225    1.8156325   -1.4191416 
  995000    0.9496515 -6.9212259e-05   0.41418104 0.0061659896            0   0.40801505    1.4066713    1.8208523   -1.7228153 
 1000000   0.95456341 1.7856295e-05    0.4197961 0.0047760515            0   0.41502005     1.413947    1.8337432    2.7479854 
 1005000   0.88129211 5.3153335e-05   0.50669864 0.0063472821            0   0.50035136    1.3054139    1.8121126    4.5335633 
 1010000   0.93924623 0.00011729768   0.40329136   0.00856641            0   0.39472495    1.3912585    1.7945498    7.8001913 
 1015000   0.90058803 3.9939334e-06   0.47770073  0.022942394            0   0.45475834     1.333996    1.8116968    2.0161861 
 1020000   0.85083784 -1.9737752e-05   0.57104864  0.026511143            0    0.5445375    1.2603036    1.8313522   0.82077931 
 1025000   0.93566943 -6.9818856e-05   0.44983166  0.011222835            0   0.43860883    1.3859603     1.835792   -1.7389334 
 1030000   0.87953938 0.00011551654   0.51399022 0.0027369851            0   0.51125324    1.3028177    1.8168079    7.7312546 
 1035000   0.94036551  4.55566e-05   0.44585265 0.0032953139            0   0.44255733    1.3929164    1.8387691     4.171267 
 1040000   0.88055266 -1.1903515e-05    0.5349812 0.0066564783            0   0.52832472    1.3043186    1.8392998    1.2298399 
 1045000   0.92327951  0.000139748      0.48092 0.0031846198            0   0.47773538    1.3676078    1.8485278    9.0036252 
 1050000   0.90536206 -1.9542999e-05    0.5046832 0.0031664535            0   0.50151675    1.3410675    1.8457507   0.84514919 
 1055000   0.90327003 -6.8777013e-05   0.49758483 0.0053727827            0   0.49221205    1.3379687    1.8355536   -1.6858295 
 1060000   0.90627223 3.2105624e-05   0.47138362 0.0057152367            0   0.46566838    1.3424157    1.8137994    3.4576073 
 1065000   0.91775052 0.00011485524   0.43788084  0.010550556            0   0.42733028     1.359418    1.7972988    7.6778871 
 1070000   0.94554893 2.2666667e-05   0.36958761  0.010332827            0   0.35925478    1.4005944     1.770182    2.9307153 
 1075000    0.9141081 -0.00010557712   0.43090554 0.0096942568            0   0.42121128    1.3540226    1.7849282   -3.6206202 
 1080000   0.86258745 -3.9743189e-05   0.50101829 0.0084443945            0   0.49257389    1.2777077     1.778726  -0.25612533 
 1085000   0.88411647 -2.4320358e-05   0.46463264 0.0013856478            0   0.46324699    1.3095975    1.7742302   0.52902783 
 1090000   0.82759791  1.20294e-05   0.54741193 0.00015686337            0   0.54725506    1.2258794    1.7732913    2.3891966 
 1095000    0.8955612 -7.0262176e-05   0.43875772 0.00076249613            0   0.43799522      1.32655    1.7653077   -1.8321157 
 1100000   0.85881689 -4.1660204e-05   0.50337234 0.0020614901            0   0.50131085    1.2721225    1.7754949   -0.3575076 
 1105000   0.96718259 0.00017065241     0.383025 0.0025011682            0   0.38052384    1.4326392    1.8156642    10.553068 
 1110000   0.85456502 0.00010652135   0.54878697 0.0041731064            0   0.54461387    1.2658244    1.8146114    7.2685044 
 1115000   0.88335165 -4.626679e-05   0.49795615 0.0086502104            0   0.48930594    1.3084646    1.8064208  -0.56243888 
 1120000   0.91780878 -4.2619786e-05   0.45021878  0.015651883            0   0.43456689    1.3595043     1.809723  -0.37241003 
 1125000   0.96098309 4.3740555e-05   0.39486072 0.0072364083            0   0.38762431    1.4234562    1.8183169    4.0578333 
 1130000     0.850294 -6.5431235e-05   0.51735057  0.002157819            0   0.51519275     1.259498    1.7768486   -1.5732307 
 1135000   0.90219623 -6.3245615e-05   0.46048318 0.0064757956            0   0.45400738    1.3363782    1.7968613   -1.4413142 
 1140000   0.90576995 7.9721588e-05   0.45587798  0.021574722            0   0.43430326    1.3416717    1.7975497     5.879295 
 1145000     0.861195 -2.8358737e-05   0.51472646 0.0082647423            0   0.50646172    1.2756451    1.7903716    0.3384042 
 1150000   0.89294158 0.00013099777   0.45685855 0.00054006002            0   0.45631849    1.3226697    1.7795283     8.486614 
 1155000   0.86865818 9.0543521e-05   0.48838083 6.6433925e-06            0   0.48837418    1.2866999    1.7750808     6.410909 
 1160000   0.89081931 5.4665366e-06   0.45470033 0.0033016417            0   0.45139869    1.3195261    1.7742264    2.0541131 
 1165000   0.80411381 -5.8058299e-05   0.57752313 0.0060933216            0   0.57142981    1.1910936    1.7686167   -1.2039682 
 1170000   0.91911927 -4.5510145e-05   0.42293425  0.018199988            0   0.40473426    1.3614454    1.7843797  -0.54573978 
 1175000   0.79452708 4.2350327e-05   0.59213089  0.015256189            0    0.5768747    1.1768932    1.7690241    3.9373609 
 1180000   0.86049217 -4.3842208e-05   0.46658819  0.012249385            0    0.4543388     1.274604    1.7411922  -0.50352885 
 1185000   0.84895317 1.252178e-05    0.4804136  0.014841927            0   0.46557167    1.2575119    1.7379255    2.3790406 
 1190000   0.78330754 3.3470435e-05   0.56513369 0.0038743806            0   0.56125931    1.1602743     1.725408    3.4390942 
 1195000   0.76510781 9.0065732e-05   0.59976714   0.01134015            0   0.58842699    1.1333159    1.7330831    6.3444486 
 1200000   0.83916745 -0.00013073313   0.48660624  0.012788188            0   0.47381806    1.2430168     1.729623   -4.9639132 
 1205000   0.81794874 -8.1976904e-05   0.53524503  0.011060329            0    0.5241847    1.2115866    1.7468316   -2.4503859 
 1210000   0.87807388 -6.5808981e-05   0.45901533 0.0053903046            0   0.45362503    1.3006469    1.7596623   -1.6097576 
 1215000   0.80474609 -5.8081163e-05   0.57363239 0.0038854794            0   0.56974691    1.1920301    1.7656625    -1.208093 
 1220000    0.8704021 1.7116727e-05   0.46738164 0.0088831992            0   0.45849844    1.2892831    1.7566648    2.6330412 
 1225000   0.80786434 -3.4955928e-05   0.56099714  0.012107506            0   0.54888964    1.1966491    1.7576462 -0.032097299 
 1230000   0.84358577 1.5820688e-05   0.53384458  0.017122126            0   0.51672245    1.2495614     1.783406    2.5934252 
 1235000   0.86364775 -4.21595e-05   0.49932005  0.017192328            0   0.48212773    1.2792782    1.7785983  -0.37996812 
 1240000   0.82460582 6.5880729e-05   0.54096807  0.011498016            0   0.52947006    1.2214474    1.7624154    5.1355088 
 1245000   0.83649671 1.7394774e-05   0.51612633 0.0079569462            0   0.50816938    1.2390608    1.7551871    2.6457995 
 1250000    0.8809558 -5.3355515e-05   0.46065762 0.0046660403            0   0.45599158    1.3049158    1.7655734    -0.966229 
 1255000   0.79959813 -7.7116645e-06   0.58500018  0.007386937            0   0.57761324    1.1844047    1.7694049    1.3745677 
 1260000   0.82643445 -2.2573714e-05   0.54413434  0.017410102            0   0.52672424     1.224156    1.7682904   0.61251621 
 1265000   0.83006788 2.0054528e-05   0.54731789  0.051507926            0   0.49580996     1.229538    1.7768559    2.8036477 
 1270000   0.83636366 -9.9397741e-05   0.55445234  0.014392066            0   0.54006027    1.2388637     1.793316   -3.2958483 
 1275000   0.86390491 -8.9038946e-05   0.52653221 0.0070991746            0   0.51943303    1.2796592    1.8061914   -2.7526027 
 1280000   0.90595995 -8.1099269e-05   0.46108311  0.014988771            0   0.44609434    1.3419532    1.8030363   -2.3492463 
 1285000   0.83816429 -7.3812423e-05   0.53635593 0.0095991988            0   0.52675673    1.2415308    1.7778868   -2.0013093 
 1290000   0.88178612 -0.00013378174   0.46271934  0.015219956            0   0.44749938    1.3061457     1.768865     -5.08076 
 1295000   0.86427488 4.1615722e-05   0.50962077 0.0084000272            0   0.50122074    1.2802072    1.7898279    3.9205529 
 1300000    0.8545701 4.3697346e-05   0.52752745 0.00022385793            0   0.52730359     1.265832    1.7933594    4.0306635 
 1305000   0.83113613 1.7910346e-06   0.56370318 0.0056147654            0   0.55808841    1.2311204    1.7948236    1.8865245 
 1310000     0.905318 8.1795064e-05   0.47344108   0.01306968            0    0.4603714    1.3410023    1.8144434    6.0023506 
 1315000   0.87463746 6.1980993e-05   0.51112904    0.0104399            0   0.50068914    1.2955567    1.8066858    4.9801126 
 1320000   0.92961711 7.5832445e-05   0.43628095  0.035664042            0   0.40061691    1.3769953    1.8132763    5.6958975 
 1325000   0.89876293 6.7165388e-05   0.51068046  0.037103397            0   0.47357706    1.3312926    1.8419731    5.2808409 
 1330000    0.8423248 -0.00011181446   0.55778526   0.03420101            0   0.52358425    1.2476936    1.8054789   -3.9194213 
 1335000   0.97450406 6.7745097e-05   0.34189257  0.018708672            0    0.3231839    1.4434841    1.7853767    5.2539257 
 1340000   0.81455722 0.00021483286   0.57707862  0.011408661            0   0.56566996    1.2065629    1.7836415    12.783084 
 1345000   0.89068791 -3.9448769e-05   0.47519272 0.0053983174            0    0.4697944    1.3193315    1.7945242   -0.2252528 
 1350000   0.92300823 -7.1676826e-05   0.44704352 0.0046673697            0   0.44237615    1.3672059    1.8142495    -1.855604 
 1355000   0.88753159 4.7927712e-05   0.51519747 0.0028554459            0   0.51234203    1.3146562    1.8298536    4.2837525 
 1360000   0.92433762 2.3542262e-06   0.47968257 0.0069167696            0    0.4727658    1.3691751    1.8488577    1.9693941 
 1365000   0.96295464 -8.028188e-05   0.42475434  0.014907447            0    0.4098469    1.4263766    1.8511309   -2.2593013 
 1370000    0.9360748 -4.4605014e-05   0.47410983  0.014775287            0   0.45933454    1.3865608    1.8606706  -0.42310609 
 1375000   0.92301441 -4.8063642e-05   0.47005521  0.036002581            0   0.43405262    1.3672151    1.8372703  -0.62358815 
 1380000   0.90006021 4.788701e-06   0.52543412  0.028285029            0   0.49714909    1.3332142    1.8586483    2.1038298 
 1385000   0.92013631 -8.5700015e-05   0.50808802 0.0095937559            0   0.49849426    1.3629519    1.8710399   -2.5168009 
 1390000   0.95427394 -6.5645874e-05    0.4849993 0.0087694187            0   0.47622988    1.4135183    1.8985176   -1.4625512 
 1395000   0.93705812 7.6158782e-05   0.49208885  0.041711766            0   0.45037709    1.3880173    1.8801062    5.7794358 
 1400000   0.92019795 3.1892285e-05   0.48101347  0.027335318            0   0.45367815    1.3630432    1.8440567    3.4769417 
 1405000   0.88966342 -0.00017777231   0.52671515  0.018462635            0   0.50825251    1.3178139    1.8445291   -7.2574134 
 1410000   0.91464331 -0.00014847641   0.52052341  0.014412175            0   0.50611124    1.3548154    1.8753388   -5.7266534 
 1415000   0.95192307 0.00015464908   0.45756463 0.0038466964            0   0.45371794     1.410036    1.8676007    9.7856336 
 1420000   0.98746284 8.785335e-05   0.42048496 0.0006374798            0   0.41984748    1.4626793    1.8831643    6.3812558 
 1425000   0.92722109 1.1433462e-05   0.53271515 0.00043824045            0   0.53227691    1.3734462    1.9061614    2.4915546 
 1430000   0.96169296 -0.00011278652   0.48812878  0.001383528            0   0.48674525    1.4245077    1.9126365   -3.8620332 
 1435000   0.96237801 0.00012055494   0.48442483  0.000775873            0   0.48364895    1.4255224    1.9099473    8.0823602 
 1440000    0.9062187 7.0380097e-05   0.56979829 0.0031507192            0   0.56664757    1.3423365    1.9121347    5.5155957 
 1445000   0.91767795 6.4635684e-06   0.56175411 0.0057411039            0     0.556013    1.3593105    1.9210646    2.2519993 
 1450000   0.89887845 1.4475026e-05   0.58491981 0.0069920197            0   0.57792779    1.3314637    1.9163835    2.6575048 
 1455000   0.88550658 -0.000111025   0.59159433 0.0032811921            0   0.58831314    1.3116566     1.903251   -3.7812288 
 1460000    1.0014859 9.8166085e-05   0.40607256 0.0020560648            0    0.4040165    1.4834509    1.8895235     6.915627 
 1465000   0.97642718 0.00022147383   0.45932441 0.0010519145            0    0.4582725    1.4463328    1.9056572    13.245117 
 1470000   0.91720267 -5.0807855e-05   0.52242417 0.0018200324            0   0.52060414    1.3586065    1.8810306  -0.72033157 
 1475000   0.95433492 -3.947238e-06   0.49139122 0.0050112585            0   0.48637996    1.4136086    1.9049998    1.7029012 
 1480000   0.89920029 2.3099081e-05   0.57164572   0.01375013            0   0.55789559    1.3319404    1.9035861    3.0862591 
 1485000   0.95193332 -9.5002296e-05   0.47419203   0.01029025            0   0.46390178    1.4100512    1.8842433   -2.9798743 
 1490000   0.93947757 -0.0002279386   0.48951951 0.0021087801            0   0.48741073    1.3916011    1.8811207   -9.7893356 
 1495000   0.94780773 -0.00017856058   0.48245465 0.0067493397            0   0.47570531    1.4039402    1.8863949   -7.2559067 
 1500000     1.007649 1.3539677e-05   0.39654308  0.029625916            0   0.36691716      1.49258    1.8891231    2.5823546 
 1505000   0.98585463 0.00017707465   0.42344962  0.019160406            0   0.40428922    1.4602972    1.8837468    10.949969 
 1510000   0.91199907 0.00012443537   0.53652275 0.0045846236            0   0.53193813    1.3508986    1.8874214    8.2585121 
 1515000   0.95800205 0.00011885939   0.48671437 0.0044779367            0   0.48223644    1.4190405    1.9057549    7.9913558 
 1520000   0.98879261 0.00013997827   0.47337183  0.010668711            0   0.46270312    1.4646491    1.9380209    9.1049081 
 1525000    0.9469058 6.9585015e-05   0.52525593  0.018066653            0   0.50718928    1.4026042    1.9278602    5.4906129 
 1530000   0.94200246 -3.0270998e-07    0.5232756 0.0090989523            0   0.51417665    1.3953411    1.9186167     1.903118 
 1535000   0.98052016 -5.9694076e-05   0.46573977  0.011240321            0   0.45449945    1.4523955    1.9181353   -1.1382014 
 1540000    1.0027716 0.00011143861   0.42018417  0.030385453            0   0.38979871    1.4853554    1.9055396    7.6111964 
 1545000   0.99994808 0.00010579428   0.41882448  0.020468012            0   0.39835647    1.4811731    1.8999976    7.3166647 
 1550000   0.94050204 -8.4702615e-05   0.52673773  0.010633272            0   0.51610446    1.3931186    1.9198564   -2.4169175 
 1555000   0.96076969 -6.4421745e-05   0.47588529  0.009537359            0   0.46634793    1.4231401    1.8990254    -1.399368 
 1560000   0.92611282 6.0944043e-06   0.53499523 0.0046057248            0    0.5303895    1.3718046    1.9067998    2.2188333 
 1565000   0.95935503 -2.3665301e-05   0.48750764 0.0092477799            0   0.47825986    1.4210446    1.9085523   0.69688889 
 1570000   0.94014909 -9.9649667e-05   0.51776768   0.02402649            0   0.49374119    1.3925958    1.9103635   -3.1916994 
 1575000   0.92562777 -7.011846e-05   0.52175155  0.032909712            0   0.48884184    1.3710861    1.8928377   -1.6972275 
 1580000   0.92895036 -2.0418224e-06   0.51233701 0.0092281242            0   0.50310888    1.3760077    1.8883447    1.7838034 
 1585000   0.93869039 -1.6596722e-05   0.51085702  0.005150671            0   0.50570635    1.3904351    1.9012922      1.05154 
 1590000    1.0297287 -4.3206412e-05     0.380241 0.0086096565            0   0.37163134    1.5252857    1.9055267  -0.30664162 
 1595000    1.0101395 -4.6256403e-05   0.46689937 0.0013919757            0    0.4655074    1.4962692    1.9631686  -0.40515924 
 1600000   0.90082769 -0.0001293625   0.63652782 0.0034753033            0   0.63305251     1.334351    1.9708788   -4.6524811 
 1605000    1.0169039 -0.00011389693   0.48549442 0.0091462606            0   0.47634816    1.5062889    1.9917833   -3.8397396 
 1610000    1.0209057 2.5276041e-05   0.50755777  0.011704666            0    0.4958531    1.5122165    2.0197743    3.3139076 
 1615000    1.0237056 -1.5327145e-06   0.51788186  0.008546906            0   0.50933495    1.5163639    2.0342457    1.9557707 
 1620000    1.0944372 0.00012033732   0.42695145  0.027436996            0   0.39951446    1.6211351    2.0480865    8.2093576 
 1625000    1.0126733 -4.8733339e-07      0.50508  0.028118301            0    0.4769617    1.5000223    2.0051023    1.9801508 
 1630000    1.0396771 -0.00010422023   0.46468122  0.013613665            0   0.45106755    1.5400217     2.004703   -3.3313727 
 1635000    1.0067088 -4.5717414e-05   0.50628101  0.017085099            0   0.48919591    1.4911873    1.9974683  -0.34326323 
 1640000   0.98151282 4.3013334e-05   0.54425271  0.018557104            0   0.52569561    1.4538659    1.9981186    4.2004013 
 1645000     1.024694 -7.4231768e-05   0.51227302    0.0134933            0   0.49877972    1.5178281    2.0301011   -1.7705654 
 1650000    1.0096749 -3.3514761e-05   0.52138403  0.012548629            0    0.5088354    1.4955809    2.0169649   0.30100916 
 1655000    1.0114406 -0.00011385409   0.51905616  0.013606008            0   0.50545015    1.4981964    2.0172525   -3.8120766 
 1660000    1.0460402 -5.2991433e-05    0.4770917  0.001397175            0   0.47569453     1.549447    2.0265387  -0.68662267 
 1665000    1.0833779 -6.9948185e-05   0.38245395 0.00040210556            0   0.38205184    1.6047535    1.9872075   -1.5941396 
 1670000   0.97530764 3.5146032e-05   0.55785291 0.0085173525            0   0.54933556    1.4446744    2.0025274    3.8020042 
 1675000    1.0113989 8.8216132e-05   0.50758118  0.010488109            0   0.49709307    1.4981347    2.0057159    6.5223818 
 1680000    1.0711232 -5.2793708e-06   0.42393299  0.014247385            0    0.4096856    1.5866013    2.0105342    1.7402305 
 1685000    1.0131159 2.1589407e-05   0.52774976  0.017313229            0   0.51043653     1.500678    2.0284277    3.1338054 
 1690000    1.0101133 -0.00010212567   0.56381534 0.0096280333            0    0.5541873    1.4962303    2.0600456   -3.1687884 
 1695000    1.1058883 -7.4167211e-05   0.43883711  0.028735707            0    0.4101014     1.638097    2.0769341   -1.7204271 
 1700000    1.0966465 -0.00014587281   0.47815667  0.013647793            0   0.46450888    1.6244076    2.1025643   -5.3661235 
 1705000    1.0090314 3.1216167e-06   0.61929562  0.012389471            0   0.60690615    1.4946278    2.1139235    2.2737502 
 1710000     1.053642 -5.7132771e-05   0.56727465  0.019687385            0   0.54758727    1.5607072    2.1279819  -0.79721602 
 1715000    1.0490911 2.5706979e-05    0.5915168  0.011431146            0   0.58008566    1.5539662     2.145483    3.4616803 
 1720000    1.1578847 1.8058104e-05   0.41243861  0.012545656            0   0.39989295    1.7151167    2.1275553    3.0521302 
 1725000    1.0588635 3.2233789e-05   0.55203687  0.028706403            0   0.52333047    1.5684416    2.1204784    3.7708484 
 1730000    1.0183498 -0.0001223838   0.61533473  0.042226546            0   0.57310819    1.5084306    2.1237653   -4.1422852 
 1735000    1.0383175 -0.00013304734   0.61292516 0.0099272154            0   0.60299794    1.5380078    2.1509329   -4.6610907 
 1740000    1.1174766 4.6508432e-05   0.49124318  0.020083061            0   0.47116012    1.6552623    2.1465055    4.5277372 
 1745000    1.1073288 3.9966502e-05    0.5260726  0.021644852            0   0.50442775    1.6402309    2.1663035    4.2125884 
 1750000    1.1203731 -0.00014965373   0.55763707  0.031299445            0   0.52633763    1.6595526    2.2171897   -5.4450815 
 1755000    1.0492676 8.8064382e-06   0.66132093 0.0036520088            0   0.65766892    1.5542277    2.2155486    2.6664383 
 1760000     1.215866 -7.0134777e-05   0.42203675  0.003497844            0   0.41853891    1.8010015    2.2230382   -1.3678624 
 1765000    1.1198029 8.1652982e-05   0.57505636  0.046437837            0   0.52861853    1.6587081    2.2337644    6.4143971 
 1770000    1.1162407 0.00014808847   0.63871275  0.091438999            0   0.54727375    1.6534315    2.2921442    9.8742741 
 1775000     1.127215 8.4113553e-05   0.62916479  0.031613741            0   0.59755105    1.6696873     2.298852     6.605466 
 1780000    1.1924931 7.5551858e-06   0.53277725  0.017218819            0   0.51555843    1.7663804    2.2991576    2.6859832 
 1785000    1.0976805 -8.5813282e-05    0.7085907  0.079198212            0   0.62939249    1.6259393    2.3345299   -2.0591101 
 1790000    1.2599741 0.00014368756   0.44700517  0.023153157            0   0.42385201    1.8663366    2.3133418    9.6701448 
 1795000    1.0791638 6.6853317e-05   0.71642912  0.013760969            0   0.70266815    1.5985113    2.3149404    5.7378303 
 1800000    1.1908236 -3.9188665e-05    0.5327172    0.0141186            0    0.5185986    1.7639075    2.2966247   0.29016506 
 1805000    1.1242017 -8.5906615e-05   0.63332196  0.069030733            0   0.56429122    1.6652238    2.2985458   -2.0998729 
 1810000     1.169155 4.1572426e-05    0.6030339  0.059438178            0   0.54359572    1.7318108    2.3348447    4.4633529 
 1815000    1.1124634 0.00012130947   0.67435823    0.1147112            0   0.55964703    1.6478364    2.3221946    8.5332393 
 1820000    1.2100872 -8.2313323e-05    0.5112539  0.019085301            0    0.4921686    1.7924417    2.3036956   -1.9107466 
 1825000    1.1221697 -2.5589812e-05    0.6258312  0.032623249            0   0.59320795    1.6622138     2.288045   0.97784664 
 1830000    1.1311799 -2.12314e-05   0.61133205  0.024973914            0   0.58635814    1.6755602    2.2868922    1.1998445 
 1835000    1.2043977 0.00010934983   0.50098523 0.0093837384            0   0.49160149     1.784014    2.2849992    7.8837104 
 1840000    1.1948476 0.0001339188   0.50664997  0.012240808            0   0.49440917     1.769868     2.276518    9.1331606 
 1845000    1.1828763 0.0001681756   0.53376395  0.040102962            0   0.49366098    1.7521355    2.2858995     10.89649 
 1850000    1.0478296 2.1851441e-05   0.70622808  0.053255919            0   0.65297216    1.5520976    2.2583257    3.3771194 
 1855000    1.1092172 -2.4326215e-05   0.58950932 0.0094855915            0   0.58002373     1.643028    2.2325373   0.98703509 
 1860000    1.1649017 0.00012988009   0.50210132  0.003853612            0   0.49824771    1.7255107     2.227612    8.8774725 
 1865000    1.1081681 0.00010819154   0.58210221  0.014520226            0   0.56758198     1.641474    2.2235762     7.762983 
 1870000    1.1485957 -2.6141007e-05   0.51178001  0.031053033            0   0.48072698    1.7013574    2.2131374   0.87471783 
 1875000    1.0363665 -0.00018434043   0.68523854  0.034696424            0   0.65054212    1.5351178    2.2203564   -7.2178738 
 1880000       1.0651 -0.00019742562   0.63230124  0.023322729            0   0.60897851    1.5776794    2.2099806   -7.8982111 
 1885000    1.1219052 0.00010308117   0.56898992  0.049532387            0   0.51945753    1.6618221     2.230812    7.5085681 
 1890000    1.0828666 0.00013290674   0.60022945  0.039688257            0   0.56054119    1.6039961    2.2042256    9.0090507 
 1895000    1.1012629 -2.8891306e-05   0.57093506 0.0095635434            0   0.56137152    1.6312457    2.2021808   0.72294589 
 1900000    1.0824006 -5.0878257e-05   0.60490578 0.0044545378            0   0.60045124    1.6033059    2.2082117  -0.39675507 
 1905000    1.1186051 -9.7840656e-06   0.60315595  0.011726523            0   0.59142943    1.6569337    2.2600897    1.7591455 
 1910000    1.0635945 -2.4354483e-05   0.68437997  0.031769234            0   0.65261074    1.5754494    2.2598293    1.0128798 
 1915000    1.0762082 -8.5335574e-05   0.69587087  0.029104764            0   0.66676611    1.5941334    2.2900043   -2.0791771 
 1920000    1.2028702 0.00010121774   0.48697095  0.010522745            0   0.47644821    1.7817514    2.2687224    7.4510709 
 1925000     1.030443 6.2508114e-06   0.71800396  0.013015474            0   0.70498849    1.5263437    2.2443476    2.5643892 
 1930000    1.0634928 5.1380646e-05   0.67523611  0.065264996            0   0.60997112    1.5752987    2.2505349    4.8812239 
 1935000     1.154466 1.3725045e-05   0.54783554  0.032780885            0   0.51505465    1.7100527    2.2578883    2.9606106 
 1940000    1.1480108 -2.6161559e-05   0.55430983  0.021643274            0   0.53266655     1.700491    2.2548009   0.91532903 
 1945000    1.0973422 -7.0908223e-05   0.62403229  0.023144622            0   0.60088766    1.6254382    2.2494705   -1.3810306 
 1950000    1.0398813 1.0936228e-05   0.69935773  0.018975904            0   0.68038183    1.5403242    2.2396819    2.7996168 
 1955000    1.0660901 7.5682403e-05   0.63246666   0.03863421            0   0.59383245    1.5791459    2.2116126    6.0865516 
 1960000     1.003902 -4.6629338e-05    0.7279708  0.038668176            0   0.68930262    1.4870299    2.2150007  -0.17242139 
 1965000    1.0588576 8.1821943e-05   0.65773152 0.0049799938            0   0.65275153    1.5684328    2.2261643    6.4154478 
 1970000    1.0741358 0.00012755962   0.62601975 0.0034386506            0    0.6225811    1.5910637    2.2170834    8.7481357 
 1975000    1.1232361 -4.6105784e-05   0.54611322 0.0045572616            0   0.54155596    1.6637935    2.2099067  -0.15070939 
 1980000    1.0483007 5.2077302e-05   0.68486995 0.0077989072            0   0.67707105    1.5527954    2.2376654    4.9040232 
 1985000    1.0824984 0.00022038899   0.63829959   0.01455046            0   0.62374913    1.6034507    2.2417503    13.525667 
 1990000    1.1742002 -1.0953176e-05   0.51833309  0.024275684            0   0.49405741     1.739284    2.2576171    1.6968145 
 1995000    1.0811049 -0.00016196772   0.64578836  0.036744987            0   0.60904337    1.6013866     2.247175   -6.0455721 
 2000000    0.9727666 -3.8295073e-05   0.81349682  0.092773492            0   0.72072333    1.4409105    2.2544074   0.29369963 
 2005000    1.0740907 5.6905898e-05   0.63674413  0.049957395            0   0.58678673    1.5909969     2.227741     5.141323 
 2010000     1.185234 8.3950607e-05   0.47992922  0.043511067            0   0.43641815    1.7556279    2.2355571    6.5338282 
 2015000    1.0335614 6.3777497e-05   0.65838536  0.026671539            0   0.63171382    1.5309629    2.1893483    5.4547561 
 2020000    1.0720168 8.7087589e-06     0.580334 0.0064119862            0   0.57392202     1.587925     2.168259    2.6141474 
 2025000    1.0342833 -6.0382898e-05   0.63090271  0.024846637            0   0.60605608    1.5320322    2.1629349  -0.92866947 
 2030000    1.0134604 5.3987366e-05    0.6503428  0.032044024            0   0.61829877    1.5011881    2.1515309    4.9156841 
 2035000    1.0951606 -6.4866585e-05    0.5323047  0.021591254            0   0.51071345    1.6222066    2.1545113   -1.1666579 
 2040000    1.0387385 -6.5776379e-05   0.62064075  0.023984718            0   0.59665603    1.5386313    2.1592721   -1.2084785 
 2045000    1.0628797 6.050667e-06   0.54212723  0.016115791            0   0.52601144    1.5743905    2.1165177    2.4263119 
 2050000   0.97424451 -4.9034307e-05   0.70257294  0.049003378            0   0.65356957    1.4430997    2.1456726  -0.36488389 
 2055000    1.0499763 9.2586317e-06   0.60673749  0.056370035            0   0.55036746    1.5552773    2.1620148    2.6360568 
 2060000    1.0073573 3.7464066e-05   0.64887875  0.016162227            0   0.63271653     1.492148    2.1410267    4.0591869 
 2065000    1.0556763 2.4871319e-05   0.60361828 0.0046459634            0   0.59897232    1.5637205    2.1673388    3.4407503 
 2070000    1.0546912 -3.9755248e-06   0.59156745            0            0   0.59156745    1.5622613    2.1538287    1.9502818 
 2075000    1.0894112 -4.094712e-05   0.53793483 4.1655915e-05            0   0.53789317    1.6136904    2.1516252  0.055132708 
 2080000    1.0038283 -0.00015913598   0.67562529 0.0016691853            0    0.6739561    1.4869207     2.162546   -5.9852164 
 2085000    1.0301223 -8.0553017e-05   0.64315812  0.016273914            0   0.62688421    1.5258686    2.1690268   -1.9552877 
 2090000    1.0824444 -1.9219624e-05   0.55953294   0.03629854            0    0.5232344    1.6033708    2.1629037     1.178859 
 2095000   0.97022694 -0.00010456318    0.7212208  0.012812646            0   0.70840815    1.4371487    2.1583695   -3.1952651 
 2100000     1.044263 6.5889853e-05   0.57563629   0.01756406            0   0.55807223    1.5468146    2.1224509    5.4960114 
 2105000   0.96407574 8.4798926e-06   0.67640177  0.060097659            0   0.61630411    1.4280372     2.104439    2.5386095 
 2110000   0.97220931 -5.0086092e-05   0.66754405  0.029313619            0   0.63823043     1.440085    2.1076291  -0.45677884 
 2115000    1.0127181 3.8357904e-05   0.61389808 0.0057553097            0   0.60814277    1.5000887    2.1139868    4.0779115 
 2120000   0.99523935 6.7973446e-05   0.67441173  0.012107256            0   0.66230447    1.4741983      2.14861    5.6288504 
 2125000    1.0722198 -8.0841848e-05   0.57981103   0.04668484            0   0.53312619    1.5882256    2.1680366    -1.971066 
 2130000    1.0075244 -0.00020293192   0.65181891  0.019291491            0   0.63252742    1.4923955    2.1442144   -8.2458998 
 2135000    1.0665565 3.3057572e-05   0.55756595 0.0041765968            0   0.55338936    1.5798368    2.1374027    3.8299504 
 2140000    1.0591914 0.00010333546   0.60718884  0.021063317            0   0.58612552    1.5689273    2.1761161    7.4668919 
 2145000    1.0259159 0.00012340352   0.66724771  0.016724272            0   0.65052344    1.5196379    2.1868856    8.5051458 
 2150000      1.10011 -4.719283e-06   0.58377021 0.0041808278            0   0.57958939    1.6295379    2.2133081    1.9716808 
 2155000    1.0839179 -0.00025995508   0.61248351  0.011916492            0   0.60056702    1.6055534    2.2180369   -11.091663 
 2160000     1.109998 -3.9616753e-05   0.56421779  0.015551762            0   0.54866603    1.6441846    2.2084024   0.18002461 
 2165000    1.1192158 0.00017355519   0.58533399 0.0093494415            0   0.57598455    1.6578384    2.2431724    11.129198 
 2170000   0.99338767 3.5460172e-05   0.79150383  0.017563888            0   0.77393994    1.4714555    2.2629593    4.0785201 
 2175000    1.0327723 -3.0838708e-05   0.72937683  0.019533646            0   0.70984318    1.5297939    2.2591707   0.68022891 
 2180000    1.0890265 0.00012030257   0.61950841  0.018766904            0   0.60074151    1.6131204    2.2326289    8.3921205 
 2185000   0.98192839 0.0001309995   0.77497264  0.024015008            0   0.75095763    1.4544814    2.2294541    8.9366287 
 2190000    1.0821297 -2.7723861e-05   0.63235849 0.0063857417            0   0.62597275    1.6029046    2.2352631   0.81580135 
 2195000    1.1255883 4.8003652e-05   0.60039104   0.01202132            0   0.58836972    1.6672777    2.2676687    4.7254557 
 2200000    1.1072258 0.00015197394   0.60771444 0.0091193004            0   0.59859514    1.6400783    2.2477927    10.028859 
 2205000    1.0801352 1.8817748e-05   0.67074225 0.0096161676            0   0.66112608    1.5999503    2.2706925    3.2341612 
 2210000    1.1529827 3.3689934e-05   0.55807186  0.022528751            0   0.53554311    1.7078556    2.2659275    3.9908521 
 2215000    1.1445054 1.7631233e-05   0.56900901  0.022456975            0   0.54655203    1.6952986    2.2643077    3.1670268 
 2220000     1.026198 -9.7021585e-06   0.76555465   0.01618166            0   0.74937299    1.5200558    2.2856104    1.7888599 
 2225000    1.1420639 7.7439742e-05   0.59369038  0.010558174            0    0.5831322    1.6916821    2.2853725    6.2502872 
 2230000    1.2239218 2.5296936e-05   0.47906392  0.026606478            0   0.45245744    1.8129341     2.291998    3.5872012 
 2235000    1.0874064 3.7492276e-05   0.64953256  0.016921704            0   0.63261086    1.6107208    2.2602534    4.1798579 
 2240000    1.1460176 7.5532644e-05   0.57127387  0.013653294            0   0.55762058    1.6975386    2.2688125    6.1360838 
 2245000    1.1306287 2.6621711e-05    0.5943415  0.010942137            0   0.58339936    1.6747438    2.2690853    3.6321169 
 2250000    1.1344034 -9.7074539e-05   0.60751821  0.029824381            0   0.57769383     1.680335    2.2878532   -2.6823632 
 2255000    1.1248079 -2.8460665e-05   0.61325224   0.04712971            0   0.56612253    1.6661217    2.2793739   0.82218788 
 2260000    1.0789875 0.00012322705   0.68376146  0.033792761            0    0.6499687    1.5982502    2.2820117    8.5912367 
 2265000    1.1081777 9.5982978e-06   0.64613707  0.015990744            0   0.63014633    1.6414882    2.2876253    2.7790582 
 2270000     1.097336 0.00010106798   0.65066103  0.020070542            0   0.63059048    1.6254289      2.27609    7.4507703 
 2275000    1.1367727 0.00016727024   0.60138506  0.013566799            0   0.58781826    1.6838445    2.2852296    10.849466 
 2280000    1.0811234 9.7479636e-05   0.67666509 0.0047812675            0   0.67188383     1.601414    2.2780791    7.2690365 
 2285000    1.0838038 6.7504059e-05   0.64915182  0.024206655            0   0.62494516    1.6053844    2.2545363    5.7107441 
 2290000       1.0292 -6.9204083e-05   0.72586639  0.045549331            0   0.68031706    1.5245024    2.2503688   -1.2928802 
 2295000    1.0460134 1.5428867e-05    0.6868931  0.051333598            0    0.6355595    1.5494074    2.2363005    3.0262585 
 2300000    1.1197703 -5.065875e-05   0.56727951  0.019324632            0   0.54795488    1.6586597    2.2259392  -0.36778883 
 2305000    1.0212406 -5.7292628e-05   0.70635817  0.019581699            0   0.68677647    1.5127126    2.2190708  -0.71431175 
 2310000     1.116471 1.5833659e-05   0.55000483  0.020343387            0   0.52966144    1.6537726    2.2037775    3.0144608 
 2315000    1.0763316 -5.3165755e-05   0.59311563  0.023682166            0   0.56943346    1.5943161    2.1874318  -0.53465491 
 2320000    1.0685188 -0.00011276623   0.61662925  0.028471118            0   0.58815813    1.5827435    2.1993727   -3.5742582 
 2325000    1.1081751 3.3340737e-05   0.57608542  0.045347716            0    0.5307377    1.6414843    2.2175697    3.9246154 
 2330000   0.97536886 7.7853622e-05    0.7749554  0.027690796            0    0.7472646    1.4447651    2.2197205     6.205826 
 2335000    1.1651203 4.1008533e-05   0.49297469   0.01960283            0   0.47337186    1.7258345    2.2188092    4.3184461 
 2340000    1.1391736 5.132231e-05   0.51749427  0.013798086            0   0.50369619     1.687401    2.2048952    4.8325975 
 2345000    1.0489059 6.5892041e-05   0.63661967  0.041316517            0   0.59530315    1.5536919    2.1903115     5.563984 
 2350000   0.95568423 -1.563663e-05    0.7678597  0.086284227            0   0.68157547    1.4156073     2.183467    1.3828715 
 2355000    1.0670604 -8.0622355e-05   0.58186774  0.056713127            0   0.52515461    1.5805832    2.1624509   -1.9654136 
 2360000   0.92886424 4.8616146e-05   0.74893337  0.043714621            0   0.70521875    1.3758802    2.1248135    4.6139602 
 2365000    1.0073724 1.9044826e-05   0.59718133   0.03208683            0    0.5650945    1.4921704    2.0893517    3.0644468 
 2370000    1.0135866 -2.434088e-05   0.59686432   0.02209415            0   0.57477017    1.5013751    2.0982395   0.85198638 
 2375000    1.0232295 -8.2600547e-05   0.58554258  0.050859023            0   0.53468355    1.5156587    2.1012012   -2.1279468 
 2380000   0.93768569 -0.00010550098   0.71216951  0.054118498            0   0.65805101    1.3889469    2.1011164   -3.3005337 
 2385000    1.0674528 -2.6650484e-05   0.50977243  0.020484161            0   0.48928827    1.5811645    2.0909369   0.72643216 
 2390000    1.0349341 2.6608979e-05   0.50431735  0.038622875            0   0.46569447    1.5329961    2.0373135    3.3996932 
 2395000    1.0098545 4.1363951e-05   0.52854649  0.025292774            0   0.50325372     1.495847    2.0243935    4.1422278 
 2400000    1.0099652 1.8354173e-05    0.5302824  0.059799805            0    0.4704826     1.496011    2.0262934     2.966027 
 2405000    1.0838232 -1.1401364e-05   0.41186091  0.011241179            0   0.40061973    1.6054132    2.0172741    1.4335243 
 2410000    1.0757084 0.00012982533   0.43342887 0.0040738791            0   0.42935499     1.593393    2.0268219    8.6738788 
 2415000   0.99222577 -6.5284623e-05   0.54709927  0.022965128            0   0.52413414    1.4697344    2.0168337    -1.325739 
 2420000    1.0159383 -2.0686023e-05   0.52060964   0.02970987            0   0.49089977    1.5048587    2.0254683    0.9663439 
 2425000     1.008738 -3.0696966e-05   0.49977407 0.0067567253            0   0.49301734    1.4941932    1.9939672   0.42228259 
 2430000   0.97587833 -1.8930598e-05   0.53201014 0.0027196501            0   0.52929049    1.4455198    1.9775299    1.0082833 
 2435000    1.0072609 -5.5305265e-05   0.48438287  0.004805051            0   0.47957782    1.4920051     1.976388  -0.85524157 
 2440000   0.89380082 -0.0001142378    0.6660335 0.0061336583            0   0.65989984    1.3239425     1.989976   -3.8589994 
 2445000   0.91524519 -8.8577652e-05   0.62248626 0.0095763176            0   0.61290994    1.3557069    1.9781932   -2.5569826 
 2450000   0.95484092 2.4715487e-06   0.51205101  0.010834567            0   0.50121644    1.4143581    1.9264091    2.0529524 
 2455000   0.91390012 8.4989865e-05   0.58133111 0.0073530352            0   0.57397807    1.3537146    1.9350457    6.2865267 
 2460000   0.92409925 0.00012211805   0.56874878  0.024441816            0   0.54430696     1.368822    1.9375708     8.190015 
 2465000   0.91046322 4.6176255e-05   0.57777122  0.032042502            0   0.54572872    1.3486236    1.9263949    4.2906191 
 2470000   0.98241753 -4.5548801e-05    0.4905731  0.024566748            0   0.46600635     1.455206    1.9457791  -0.38631954 
 2475000   0.97484467 3.7819226e-05   0.50565389  0.035928785            0    0.4697251    1.4439887    1.9496426    3.8859869 
 2480000   0.88393813 0.00012193644   0.64363827  0.034382611            0   0.60925566    1.3093334    1.9529716    8.1961176 
 2485000     1.014814 6.8382125e-06   0.46290236  0.019595603            0   0.44330676    1.5031933    1.9660956    2.3162121 
 2490000   0.97084574 -3.4657821e-05   0.54492841   0.02316828            0   0.52176013    1.4380653    1.9829937   0.20851322 
 2495000   0.91413016 6.9864235e-05   0.62271931  0.019810633            0   0.60290868    1.3540553    1.9767746    5.5538234 
 2500000   0.94010206 4.4504605e-05    0.6173181 0.0074558861            0   0.60986221    1.3925262    2.0098443      4.28848 
 2505000    1.0006345 -4.4728224e-05   0.53573905  0.002113012            0   0.53362604    1.4821899     2.017929  -0.27215611 
 2510000    0.9728061 -5.8819502e-05   0.57664752 0.0054824314            0   0.57116509     1.440969    2.0176165  -0.99394196 
 2515000   0.90375885 2.3985095e-05   0.66487926  0.024630179            0   0.64024909    1.3386928    2.0035721    3.2316089 
 2520000   0.93054339 5.5102151e-05   0.59453045  0.040889573            0   0.55364087    1.3783674    1.9728978     4.794128 
 2525000   0.98862799 -1.617312e-05   0.50595986 0.0095075839            0   0.49645227    1.4644052    1.9703651    1.1423013 
 2530000   0.93189022 6.2679047e-06   0.54986118  0.010021744            0   0.53983943    1.3803624    1.9302236    2.2511403 
 2535000    0.9279958 5.3622158e-05   0.59628726 0.0062888008            0   0.58999846    1.3745938     1.970881    4.7163355 
 2540000   0.86153741 7.0734659e-05   0.67883798 0.0010834099            0   0.67775457    1.2761523    1.9549903    5.5766048 
 2545000   0.94107327 6.9663696e-05   0.54328953 0.0030993039            0   0.54019023    1.3939648    1.9372543    5.5040355 
 2550000   0.99132574 -4.8244001e-05   0.46416927 0.0063628588            0   0.45780641    1.4684013    1.9325705  -0.53752233 
 2555000    0.9189807 -0.00012593275   0.55665648 0.0051262167            0   0.55153027    1.3612402    1.9178966   -4.5298602 
 2560000   0.91088677 -3.6122527e-05    0.5660982  0.034144317            0   0.53195388     1.349251    1.9153492  0.065875841 
 2565000   0.90788169 -4.5576955e-05   0.58777102  0.038439093            0   0.54933193    1.3447998    1.9325708  -0.40096931 
 2570000   0.94615068 -2.8172808e-05   0.53995103  0.012579977            0   0.52737105    1.4014857    1.9414367   0.49898895 
 2575000   0.96453245 6.0120514e-05   0.52838603 0.0030119348            0   0.52537409    1.4287137    1.9570997      5.03527 
 2580000   0.93199534 1.5227477e-05   0.57131667 0.0056707587            0   0.56564591    1.3805181    1.9518348    2.7314816 
 2585000   0.89132519 2.8300965e-05   0.60837207  0.014765597            0   0.59360647    1.3202754    1.9286475    3.3776569 
 2590000    0.9037972 5.6660346e-05   0.58590909  0.020270962            0   0.56563813    1.3387496    1.9246587    4.8256684 
 2595000   0.90630859 -6.0157685e-06    0.5682823  0.024462594            0   0.54381971    1.3424696    1.9107519    1.6027446 
 2600000    0.9056111 -2.7384926e-06   0.57567267  0.008441702            0   0.56723097    1.3414364    1.9171091    1.7768983 
 2605000    0.9070914 5.4869766e-05   0.53324998  0.016483526            0   0.51676646    1.3436291    1.8768791    4.6862111 
 2610000   0.87488475 -6.4221927e-05   0.55827738  0.015736148            0   0.54254123     1.295923    1.8542004   -1.4339622 
 2615000   0.88645391 -7.9353581e-05   0.53811747 0.0046346418            0   0.53348283    1.3130599    1.8511773    -2.211726 
 2620000   0.85633687 7.6952176e-05    0.6080186  0.021231262            0   0.58678734     1.268449    1.8764676     5.816419 
 2625000   0.93347937 6.9232569e-05   0.54329319  0.039037121            0   0.50425607    1.3827163    1.9260095     5.470717 
 2630000   0.99272218 5.6414312e-05   0.42364485  0.040889181            0   0.38275567    1.4704697    1.8941146    4.7825274 
 2635000     0.860028 1.3553735e-05   0.59623786  0.010898586            0   0.58533927    1.2739165    1.8701543    2.5641056 
 2640000   0.86160334 -5.5992058e-05   0.58346325 0.0044238658            0   0.57903939    1.2762499    1.8597132   -1.0070802 
 2645000   0.95040621 -7.0316165e-05   0.45189855 0.0067205711            0   0.44517797    1.4077892    1.8596878   -1.7404999 
 2650000    0.8742533 -4.2538525e-05    0.5776357  0.020429522            0   0.55720618    1.2949877    1.8726234  -0.30534907 
 2655000   0.92982304 3.0202888e-05   0.51147957  0.016989567            0      0.49449    1.3773004    1.8887799    3.4351678 
 2660000   0.86075842 -4.4265816e-05   0.61760586  0.047392667            0    0.5702132    1.2749984    1.8926043   -0.3738055 
 2665000   0.94297038 8.9044171e-07   0.51168007  0.039821348            0   0.47185872    1.3967749    1.9084549    1.9540456 
 2670000   0.91329323 6.8743451e-05   0.57180919  0.036843517            0   0.53496567    1.3528156    1.9246248    5.4442895 
 2675000   0.94435466 2.7944342e-05   0.53118746   0.03022113            0   0.50096633    1.3988253    1.9300128    3.3607631 
 2680000   0.91097189 -0.00012613127   0.59690687  0.026237316            0   0.57066956    1.3493771     1.946284   -4.5116373 
 2685000    1.0331733 3.1561554e-05   0.43001758  0.036851784            0   0.39316579    1.5303879    1.9604055     3.576357 
 2690000    1.0239898 2.9513129e-05   0.47207889  0.018771369            0   0.45330752    1.5167848    1.9888637    3.4999359 
 2695000    1.0018995 -0.00014253303   0.51745913  0.011272503            0   0.50618662    1.4840637    2.0015228   -5.2961684 
 2700000   0.99225757 -9.5993962e-05   0.52841456 0.0093609543            0   0.51905361    1.4697815    1.9981961   -2.9166948 
 2705000    1.0415778 -4.8301689e-05    0.4297939 0.0097646098            0   0.42002929    1.5428372    1.9726311  -0.50041539 
 2710000    1.0042129 4.1642774e-05   0.51394871  0.010872378            0   0.50307634    1.4874904    2.0014391    4.1335491 
 2715000    1.0201487 1.3844861e-05   0.48433526 0.0021593831            0   0.48217588    1.5110952    1.9954305    2.7042874 
 2720000    1.0098147 -8.8368332e-05   0.50901899 0.0020980947            0    0.5069209     1.495788     2.004807   -2.5196516 
 2725000    1.0215829 -2.0509589e-05   0.48807351 0.0085524095            0    0.4795211    1.5132196    2.0012931   0.95120217 
 2730000    1.0121436 9.5952827e-05   0.47868226  0.059311015            0   0.41937125    1.4992377      1.97792    6.8907047 
 2735000   0.93440699 0.00013713475   0.61369788  0.068720343            0   0.54497754    1.3840904    1.9977882    9.0190876 
 2740000   0.95518855 7.0860228e-05   0.57518668   0.01017675            0   0.56500993     1.414873    1.9900597    5.6181034 
 2745000    1.0056343 -3.8289695e-05   0.49726797  0.014487882            0   0.48278009    1.4895958    1.9868638  0.026431396 
 2750000    1.0013625 -7.9631327e-05   0.50400861  0.037857136            0   0.46615148    1.4832682    1.9872768   -2.0898472 
 2755000   0.98198604 1.1431157e-05   0.55009652 0.0052169246            0    0.5448796    1.4545668    2.0046633    2.5899386 
 2760000   0.95126208 -3.1205322e-05   0.58538368  0.010075585            0    0.5753081     1.409057    1.9944406   0.39672815 
 2765000    1.0172852 -5.6185828e-05   0.50502088  0.010196935            0   0.49482394    1.5068537    2.0118746   -0.8648398 
 2770000    1.0269472 -6.6987017e-06   0.52183579  0.033678828            0   0.48815696    1.5211656    2.0430014    1.7000279 
 2775000    1.0145195 8.0973089e-06   0.53362351  0.042110576            0   0.49151294     1.502757    2.0363805    2.4509628 
 2780000   0.93175567 8.5694821e-05   0.64413174  0.021969665            0   0.62216208    1.3801631    2.0242948    6.4118697 
 2785000   0.99791257 5.6996693e-05   0.53832108  0.013374691            0   0.52494639     1.478158    2.0164791    4.9347098 
 2790000    1.0795865 -4.5089497e-05   0.42412045  0.026437436            0   0.39768302    1.5991375     2.023258  -0.28532425 
 2795000    1.0149416  2.49298e-05   0.50280185  0.041752067            0   0.46104978    1.5033823    2.0061842    3.2825899 
 2800000   0.93819833 1.2591252e-05   0.59029546  0.074329161            0   0.51596629    1.3897063    1.9800017    2.6246738 
 2805000    1.0123917 -5.0180687e-05   0.46659763  0.013799175            0   0.45279845    1.4996051    1.9662028   -0.6030484 
 2810000    0.8498017 -4.7326497e-05   0.68794289  0.068485382            0    0.6194575    1.2587688    1.9467117  -0.47640501 
 2815000   0.89785694 -0.000115419   0.62019813  0.064609839            0   0.55558829    1.3299506    1.9501487   -3.9593043 
 2820000   0.97304976 -0.00015207794   0.52417716  0.022865129            0   0.50131203      1.44133    1.9655071   -5.8208836 
 2825000   0.98648282 -2.3392402e-05   0.51791189  0.004757617            0   0.51315428    1.4612277    1.9791396   0.78144861 
 2830000   0.98647411 0.0001115895   0.49269707 0.0032106414            0   0.48948643    1.4612148    1.9539118    7.6672944 
 2835000   0.98623235 1.6058929e-05   0.50707077 0.0064191296            0   0.50065164    1.4608567    1.9679274    2.7901446 
 2840000    1.0204586 -8.1246864e-05    0.4451335  0.006216917            0   0.43891658    1.5115543    1.9566878   -2.2031517 
 2845000   0.98657314 -0.0001014431   0.49388992  0.013541401            0   0.48034852    1.4613615    1.9552514   -3.2386351 
 2850000   0.97061295 -0.00015830634   0.52015789  0.034449576            0   0.48570831    1.4377204    1.9578783   -6.1474061 
 2855000   0.99221774 -7.7412225e-05    0.5072418  0.031538865            0   0.47570294    1.4697225    1.9769643   -1.9865416 
 2860000   0.99325967  9.94762e-05   0.48550529  0.016501406            0   0.46900389    1.4712659    1.9567712    7.0499526 
 2865000    1.0214145 9.5710454e-05   0.44789109  0.008206341            0   0.43968474    1.5129702    1.9608612    6.8612365 
 2870000   0.98996944 -3.5667191e-05    0.5172607  0.028285571            0   0.48897513    1.4663922    1.9836529   0.15749274 
 2875000   0.96606522 -2.4498741e-05   0.52948896 0.0097916135            0   0.51969735    1.4309841    1.9604731   0.70613754 
 2880000    1.0196868 4.4611246e-07   0.43375637  0.017503863            0   0.41625251     1.510411    1.9441674    1.9670084 
 2885000    1.0423422 -8.6335613e-05   0.44859669 0.0045409488            0   0.44405575    1.5439694    1.9925661   -2.4278173 
 2890000     1.014968 -8.796539e-05   0.48756225            0            0   0.48756225    1.5034214    1.9909836   -2.5128443 
 2895000   0.99626304 9.7252155e-06   0.54209739 0.0001671081            0   0.54193028    1.4757146     2.017812     2.515743 
 2900000    1.0977777 8.0189638e-05   0.40400185  0.044303486            0   0.35969837    1.6260833    2.0300851    6.1357946 
 2905000    1.0938105 -2.4750386e-05   0.41441775  0.070066076            0   0.34435168    1.6202068    2.0346245   0.76740476 
 2910000    1.1082734 -4.277138e-06   0.42003346 0.0070439821            0   0.41298948    1.6416299    2.0616634    1.8426739 
 2915000    1.0315575 1.7046736e-05   0.53640231            0            0   0.53640231    1.5279946    2.0643969    2.9371898 
 2920000    1.0260672 -0.00014042696   0.55461559 1.0699415e-05            0   0.55460489     1.519862    2.0744776   -5.1153829 
 2925000    1.1031183 -8.2799475e-05   0.43840757 0.0050683732            0   0.43333919     1.633994    2.0724015   -2.1669316 
 2930000    1.0847857 0.00013246289   0.47806052  0.018636143            0   0.45942437    1.6068388    2.0848993    8.8669995 
 2935000      1.09394 7.051208e-05   0.44796299  0.031160813            0   0.41680218    1.6203986    2.0683616    5.6785801 
 2940000    1.1336705 -6.9921701e-05   0.40070734  0.021016567            0   0.37969077    1.6792494    2.0799567   -1.5000344 
 2945000    1.0481183 2.6765128e-06   0.50409062  0.017805752            0   0.48628487    1.5525253    2.0566159    2.1936534 
 2950000    1.0350963 4.6901411e-05   0.52808104  0.019017508            0   0.50906353    1.5332365    2.0613175    4.4626697 
 2955000     1.033027 -6.6492595e-06   0.52462425  0.020385685            0   0.50423857    1.5301712    2.0547955    1.7143534 
 2960000    1.0505837 -5.5854525e-05   0.50378656  0.044072692            0   0.45971387    1.5561771    2.0599637  -0.79978798 
 2965000    1.0439588 -8.9044608e-05   0.48447689  0.015164988            0    0.4693119     1.546364    2.0308409   -2.5282431 
 2970000    1.0484403 4.2936432e-05   0.49187473  0.018551436            0    0.4733233    1.5530022    2.0448769    4.2432222 
 2975000   0.98979997 0.00013410971    0.5807833  0.014292549            0   0.56649075    1.4661412    2.0469245    8.9133416 
 2980000    1.0517935 2.8305231e-05   0.47828199  0.066590562            0   0.41169143    1.5579691    2.0362511    3.4854789 
 2985000    1.0421458 -0.00010339211   0.49899852  0.030955922            0   0.46804259    1.5436785     2.042677   -3.2509989 
 2990000     1.044061 -0.00012398776   0.45418776 0.0046467434            0   0.44954101    1.5465154    2.0007031     -4.34747 
 2995000    1.0635805 -5.2198351e-05   0.43537592  0.010505543            0   0.42487038    1.5754286    2.0108045  -0.66175109 
 3000000   0.98243275 -4.3429087e-05    0.5345001 0.0096733551            0   0.52482674    1.4552285    1.9897286  -0.23384066 
 3005000   0.94410836 -7.2706805e-06   0.54951427 0.0061587559            0   0.54335552    1.3984605    1.9479748    1.5757159 
 3010000    1.0099941 -1.6289008e-05   0.47356444  0.022052623            0   0.45151181    1.4960538    1.9696182     1.135621 
 3015000    1.0723824 -7.7843282e-05   0.39315326  0.014152061            0    0.3790012    1.5884664    1.9816196   -2.0039564 
 3020000    1.0339016 -3.1901546e-05   0.47808423  0.055355263            0   0.42272897    1.5314668     2.009551   0.37619185 
 3025000    1.0158567 2.0940131e-05   0.50275985  0.014163884            0   0.48859596    1.5047378    2.0074976    3.0796323 
 3030000    1.0076231 0.00010381184   0.50359712  0.059289276            0   0.44430784    1.4925417    1.9961388    7.3113048 
 3035000   0.99638431 6.0591363e-05   0.50068288   0.04004812            0   0.46063476    1.4758943    1.9765771    5.0788549 
 3040000    1.0024843 -8.3783055e-05   0.51549082  0.017798457            0   0.49769236    1.4849299    2.0004207   -2.2892717 
 3045000     1.034678 -2.7135514e-05   0.45496967  0.019520061            0   0.43544961    1.5326168    1.9875865   0.59824818 
 3050000   0.98559826 4.7859951e-05   0.49235389  0.026020689            0   0.46633321    1.4599174    1.9522713    4.4027008 
 3055000   0.98885726 -1.3123746e-05   0.50492594  0.020753586            0   0.48417235    1.4647448    1.9696708    1.2977349 
 3060000   0.97408508 -4.0789612e-06   0.52239836  0.016488844            0   0.50590951    1.4428635    1.9652619    1.7564191 
 3065000    1.0022421 5.1052534e-05   0.48142752  0.021842766            0   0.45958475    1.4845711    1.9659986    4.5798884 
 3070000    1.0816297 2.7552724e-05   0.35872646 0.0096830212            0   0.34904344     1.602164    1.9608905      3.37159 
 3075000   0.96685362 -1.4579216e-05   0.53173078  0.018310618            0   0.51342017    1.4321519    1.9638827    1.2174269 
 3080000   0.99698732 4.1757093e-05   0.48375491  0.051185683            0   0.43256923    1.4767875    1.9605424    4.0985055 
 3085000    1.0287514 -1.7750659e-06   0.45618852  0.029385508            0   0.42680301     1.523838    1.9800266    1.8891432 
 3090000    1.0208174 2.0555746e-06   0.49389122  0.022724714            0   0.47116651    1.5120858     2.005977    2.1112225 
 3095000    1.0312218 5.6997598e-06   0.47414124  0.011635932            0   0.46250531    1.5274973    2.0016386    2.2934663 
 3100000    1.0107399 -6.6928375e-05   0.52402981 0.0064213263            0   0.51760849    1.4971584    2.0211882   -1.4055446 
 3105000     1.054704 -6.3777278e-05   0.43833351 0.0050902328            0   0.43324327    1.5622804    2.0006139   -1.2647828 
 3110000    1.0458167 4.5613506e-05    0.4344642 0.0097279953            0    0.4247362    1.5491161    1.9835803    4.3189918 
 3115000    1.0278339 8.6622127e-05   0.46616618  0.023124009            0   0.44304217     1.522479    1.9886452    6.4236981 
 3120000    0.9776295 2.3099537e-05   0.55032289  0.030312701            0   0.52001018    1.4481137    1.9984366    3.1811329 
 3125000    1.0806142 3.2132345e-05   0.40585245  0.021774985            0   0.38407747    1.6006598    2.0065123    3.6516883 
 3130000   0.98004026 -6.9043501e-05   0.53763429  0.019043673            0   0.51859062    1.4516846    1.9893189   -1.5457083 
 3135000   0.98271692 -3.0566701e-05   0.55213209  0.028318369            0   0.52381372    1.4556494    2.0077815   0.44276645 
 3140000    1.0677949 -1.7347819e-06   0.44080202  0.043195199            0   0.39760682    1.5816712    2.0224732    1.9336523 
 3145000    1.0231916 -2.9024284e-05   0.50738772  0.020366926            0   0.48702079    1.5156026    2.0229903   0.53694701 
 3150000    1.0612446 6.4478518e-05   0.43535736 0.0039946605            0    0.4313627    1.5719686    2.0073259    5.3086261 
 3155000   0.97043563 9.0165052e-06   0.54743086  0.049830945            0   0.49759992    1.4374578    1.9848886    2.4465337 
 3160000   0.93427131 3.6081044e-06   0.63439535  0.093452337            0   0.54094301    1.3838894    2.0182847    2.2030197 
 3165000    1.0238027 9.4447897e-05   0.49587787  0.063977802            0   0.43190007    1.5165078    2.0123856    6.8481179 
 3170000    1.0435986 8.7237514e-05   0.47743617  0.046246953            0   0.43118922    1.5458304    2.0232666    6.4898273 
 3175000    1.0795854  6.21532e-05   0.44153068  0.048920384            0    0.3926103    1.5991359    2.0406666    5.2229105 
 3180000    1.0307213 9.337077e-07   0.50729053  0.016347486            0   0.49094305     1.526756    2.0340465    2.0818523 
 3185000   0.94930463 -6.184412e-05     0.600658   0.08539074            0   0.51526726    1.4061575    2.0068155   -1.1596035 
 3190000     1.017746 -2.1316692e-05    0.5252261  0.029784962            0   0.49544114    1.5075362    2.0327623   0.94134771 
 3195000     1.115961 2.9926803e-05   0.40604937 0.0096445937            0   0.39640478    1.6530172    2.0590666    3.5913189 
 3200000    1.0604179 -1.48039e-05   0.46893194  0.012702829            0   0.45622911     1.570744    2.0396759    1.2817163 
 3205000    1.0324957 1.9506851e-05   0.52283842 0.0075420606            0   0.51529636    1.5293842    2.0522227    3.0509734 
 3210000    1.0562367 1.2537392e-05   0.47527335  0.012114911            0   0.46315844    1.5645507     2.039824    2.6817385 
 3215000   0.98825468 -2.6472636e-05   0.54043951 0.0051017226            0   0.53533779    1.4638522    2.0042917   0.64889279 
 3220000    1.0137515 -8.0951308e-05   0.50190107  0.012566761            0   0.48933431    1.5016194    2.0035205   -2.1411865 
 3225000   0.98644913 -0.00016819713   0.52057021  0.019451724            0   0.50111849    1.4611778     1.981748   -6.6299452 
 3230000   0.99971536 -9.7113217e-05   0.50417902  0.014953374            0   0.48922564    1.4808284    1.9850074   -2.9871893 
 3235000    1.0077531 7.1286118e-05   0.49503038 0.0097694747            0   0.48526091    1.4927343    1.9877647    5.6376139 
 3240000    1.1244998 -4.42495e-05   0.33910511  0.007571733            0   0.33153338    1.6656653    2.0047705  -0.26080393 
 3245000    1.0607754 -5.8676647e-05   0.45714634  0.056366579            0   0.40077976    1.5712736      2.02842  -0.97582436 
 3250000    1.0598021 0.00013424375   0.46047142  0.019196781            0   0.44127464    1.5698318    2.0303032    8.9035831 
 3255000    1.0005789 3.028243e-05   0.53907734 0.00072248573            0   0.53835486    1.4821075    2.0211848    3.5716453 
 3260000    1.0096156 0.00010041356   0.51101899 0.0017744348            0   0.50924456    1.4954931    2.0065121    7.1476866 
 3265000    1.0910409 -2.1823553e-05   0.38021444  0.017718227            0   0.36249621    1.6161043    1.9963187    0.8789528 
 3270000     1.089014 -8.5516564e-05   0.39999846  0.027956899            0   0.37204156     1.613102    2.0131004   -2.3653477 
 3275000    1.0525356 -0.0001035206   0.44593419  0.014053134            0   0.43188105    1.5590683    2.0050025   -3.2952522 
 3280000    1.0397585 -5.0804779e-05   0.44043457  0.023311302            0   0.41712327    1.5401422    1.9805768   -0.6206279 
 3285000   0.98550952 2.146315e-05   0.53080525  0.033158365            0   0.49764688     1.459786    1.9905912    3.0895045 
 3290000   0.99227273 1.2937383e-05   0.57026894  0.063237274            0   0.50703167     1.469804    2.0400729    2.7024669 
 3295000   0.99544756 -2.5676928e-05   0.56811076  0.027431704            0   0.54067906    1.4745067    2.0426175   0.72795877 
 3300000    1.0853177 0.00011570113    0.4481061  0.016192692            0   0.43191341    1.6076269     2.055733    7.9796308 
 3305000    1.0429253 7.4907483e-05   0.51459576  0.029745674            0   0.48485008    1.5448331    2.0594289     5.894692 
 3310000    1.0730271 1.6214888e-05   0.43106361 0.0083670142            0    0.4226966    1.5894214     2.020485    2.8506873 
 3315000    1.0203908 5.7534467e-05   0.50120423 0.0088918995            0   0.49231233    1.5114539    2.0126581    4.9584228 
 3320000    1.0764421 -7.276035e-05   0.45990947  0.023790662            0   0.43611881    1.5944798    2.0543893   -1.6709407 
 3325000    1.1438924 -5.4931877e-05   0.39160742 0.0092526232            0    0.3823548    1.6943907    2.0859981  -0.72651399 
 3330000    1.1127417 3.9645615e-05   0.43791447 0.0035567682            0    0.4343577    1.6482486    2.0861631    4.1160185 
 3335000    1.0814281 -1.8935131e-05   0.46132199 0.0095322756            0   0.45178972    1.6018654    2.0631874    1.0937087 
 3340000    1.1556665 -9.9467129e-05   0.36242286 0.0052814782            0   0.35714138    1.7118311    2.0742539   -3.0184631 
 3345000    1.0675478 -3.207223e-05   0.50532695  0.013111395            0   0.49221555    1.5813052    2.0866322     0.444534 
 3350000    1.0622501 3.0437436e-05   0.50452565  0.040927909            0   0.46359774     1.573458    2.0779837    3.6363804 
 3355000    1.0343625 -0.0001089875   0.51814556  0.038380847            0   0.47976472    1.5321494     2.050295   -3.5298648 
 3360000    1.0202869 -0.00013944334   0.56266356  0.044785279            0   0.51787828    1.5112999    2.0739635   -5.0655356 
 3365000     1.078762 -6.3095269e-05   0.47925671  0.011322216            0   0.46793449    1.5979162    2.0771729   -1.1533048 
 3370000     1.050023 8.2784838e-05   0.48892058  0.011408308            0   0.47751227    1.5553466    2.0442672    6.2828509 
 3375000    1.0466795 8.8156879e-07   0.46539599  0.022207805            0   0.44318819    1.5503941    2.0157901    2.0609264 
 3380000   0.99254589 8.3214318e-06   0.55480441  0.042735328            0   0.51206908    1.4702086     2.025013    2.4510703 
 3385000    1.0732619 0.00011315973   0.47057521  0.053785584            0   0.41678962    1.5897693    2.0603445    7.8541226 
 3390000    1.0601803 4.7121612e-05   0.51230319  0.024932071            0   0.48737112    1.5703921    2.0826953    4.4953218 
 3395000    1.0699897 8.6132984e-05   0.44821863  0.018439106            0   0.42977952    1.5849223    2.0331409    6.4431497 
 3400000    1.1368087 0.00014807559   0.35481926  0.013599412            0   0.34121984    1.6838979    2.0387171    9.6201875 
 3405000    1.0334402 -5.0733905e-07   0.52044762  0.020862734            0   0.49958488    1.5307834     2.051231    2.0252552 
 3410000    1.0057983 -4.2639106e-05   0.55383271  0.057134104            0    0.4966986    1.4898387    2.0436714  -0.13945083 
 3415000    1.0384723 0.00015363544   0.49389459  0.047910975            0   0.44598361    1.5382372    2.0321318    9.8982665 
 3420000     1.047037 0.00014077067   0.49841589   0.03095533            0   0.46746056    1.5509235    2.0493394    9.2567978 
 3425000    1.0642697 5.5750169e-05   0.46502061  0.011058338            0   0.45396227    1.5764496    2.0414702    4.8958788 
 3430000    1.0300874 1.7504686e-05   0.52718081  0.019554432            0   0.50762637    1.5258169    2.0529977    2.9492376 
 3435000    1.0113634 -3.1617421e-05    0.5538663  0.039575364            0   0.51429094     1.498082    2.0519483    0.4331363 
 3440000     1.085153 -2.5664162e-05   0.46688817  0.033918889            0   0.43296929    1.6073829     2.074271   0.76026594 
 3445000    1.0859686 -7.2821397e-05   0.49306061  0.023050559            0   0.47001005    1.6085909    2.1016515    -1.626804 
 3450000   0.96744022 -7.8335675e-05   0.63992041  0.024655349            0   0.61526506    1.4330208    2.0729412   -1.9378453 
 3455000    1.0395526 -1.2693104e-05   0.50337373   0.02452799            0   0.47884574    1.5398373     2.043211    1.3933241 
 3460000    1.1093382 -8.9453147e-05   0.40901355  0.022548584            0   0.38646497    1.6432073    2.0522208   -2.5277803 
 3465000    1.0404744 -3.3220254e-05   0.49812977 0.0071883727            0    0.4909414    1.5412027    2.0393325   0.33845546 
 3470000    1.0173841 7.8106074e-05   0.49756135 0.00079711042            0   0.49676424    1.5070001    2.0045615    6.0035925 
 3475000    1.0723013 4.8485868e-06   0.39733954 0.0071865757            0   0.39015296    1.5883463    1.9856858    2.2339335 
 3480000   0.96797728 -7.5847298e-05   0.54870311  0.024083875            0   0.52461923    1.4338163    1.9825194   -1.9008622 
 3485000   0.98399935 -0.000115467   0.51594865  0.076776481            0   0.43917216     1.457549    1.9734977   -3.9384127 
 3490000   0.94974586 -7.8421122e-05   0.52882332  0.027042192            0   0.50178113     1.406811    1.9356344   -2.0795271 
 3495000     1.011241 1.8990267e-05   0.44091983 0.0097290032            0   0.43119083    1.4979007    1.9388206    2.9111222 
 3500000   0.94169271 4.6300143e-05   0.51792379  0.011586311            0   0.50633747    1.3948823    1.9128061    4.2833734 
 3505000   0.98434463 5.1710519e-05   0.45028184  0.032526561            0   0.41775528    1.4580605    1.9083423    4.5559209 
 3510000   0.91940048 2.2482499e-07    0.5292781  0.041811284            0   0.48746681     1.361862    1.8911401    1.9026511 
 3515000   0.94946633 4.7696906e-06   0.47653003  0.026048614            0   0.45048142     1.406397     1.882927    2.1271352 
 3520000   0.88497036 7.2111219e-05    0.5553123 0.0097247297            0   0.54558757    1.3108623    1.8661746     5.558269 
 3525000   0.94228923 0.00013443167    0.5032093  0.010839993            0   0.49236931    1.3957659    1.8989752    8.7818765 
 3530000   0.96833328 4.3551629e-05   0.45100571  0.011619055            0   0.43938666    1.4343437    1.8853494    4.1151928 
 3535000   0.96721931 -2.2205025e-05   0.44252074  0.015824088            0   0.42669665    1.4326936    1.8752144   0.73831708 
 3540000   0.98142162 -5.8729929e-06   0.44672092 0.0093198215            0   0.43740109    1.4537308    1.9004517    1.5997545 
 3545000   0.94032203 -3.4850381e-05   0.51005861  0.007674475            0   0.50238414     1.392852    1.9029106   0.11857113 
 3550000   0.95804691 -6.522535e-05   0.45016895  0.011190871            0   0.43897808     1.419107    1.8692759    -1.470262 
 3555000   0.92168329 -1.9961021e-05   0.49451811  0.010013691            0   0.48450442    1.3652434    1.8597615   0.83775719 
 3560000    0.9325174 2.6419337e-05   0.46778673  0.011603278            0   0.45618346    1.3812914    1.8490781    3.2017482 
 3565000   0.93275081 4.312564e-05   0.42837784 0.0039069604            0   0.42447088    1.3816371     1.810015    4.0180477 
 3570000   0.94591715 6.0152411e-05    0.4038478 0.0013217057            0   0.40252609    1.4011398    1.8049876     4.884791 
 3575000   0.86945062 1.4786433e-05   0.52032348 0.0065280744            0   0.51379541    1.2878737    1.8081972    2.5652626 
 3580000   0.88726583 1.5410973e-05   0.50754547  0.020127622            0   0.48741784    1.3142625     1.821808    2.6108498 
 3585000   0.93869804 2.631425e-05   0.45656519  0.017894993            0   0.43867019    1.3904465    1.8470117    3.1943013 
 3590000   0.86619796 -6.0117395e-06   0.57662016  0.027760458            0   0.54885971    1.2830557    1.8596759    1.5518748 
 3595000   0.85135901 -8.1124775e-05   0.59014101  0.058259835            0   0.53188118    1.2610755    1.8512165    -2.302372 
 3600000   0.97463658 -0.00010890478   0.40519768  0.015764424            0   0.38943326    1.4436804    1.8488781   -3.7270469 
 3605000   0.93759151 -7.1073623e-05   0.46773166  0.023771619            0   0.44396004    1.3888074    1.8565391   -1.7824304 
 3610000   0.90259772 -2.5222136e-05   0.52425683  0.048203992            0   0.47605284    1.3369729    1.8612297   0.56985636 
 3615000   0.92311362 5.4191866e-06   0.52731991  0.022005682            0   0.50531423    1.3673621     1.894682    2.1721443 
 3620000   0.95401859 -8.9759358e-06   0.49941195  0.010686509            0   0.48872544      1.41314     1.912552    1.4529841 
 3625000    1.0024875 2.307709e-05   0.42994358 0.0063430086            0   0.42360057    1.4849347    1.9148783    3.0964252 
 3630000    0.9534019 -1.1439735e-05   0.50953804 0.0089747444            0    0.5005633    1.4122266    1.9217646    1.3360502 
 3635000   0.91348927 1.935034e-05   0.54555627  0.013166829            0   0.53238944     1.353106    1.8986622    2.8893997 
 3640000   0.97877283 -8.8180302e-05   0.46413579   0.01264508            0   0.45149071    1.4498073     1.913943   -2.6008884 
 3645000   0.99151885 -0.00017962869   0.42288188  0.019330915            0   0.40355097    1.4686873    1.8915692   -7.3054197 
 3650000   0.94065373 -9.7355089e-05   0.50231826  0.016185001            0   0.48613326    1.3933433    1.8956616   -3.0889189 
 3655000   0.90135903 4.1328989e-05    0.5870829  0.002097517            0   0.58498539    1.3351381     1.922221    4.0382652 
 3660000   0.98190045 6.6025957e-05   0.44825217 0.0027457376            0   0.44550643      1.45444    1.9026922    5.2832212 
 3665000   0.93904191 9.6753975e-05   0.51540393 0.0092235165            0   0.50618042    1.3909558    1.9063598    6.8601633 
 3670000   0.90753376 3.0224391e-05   0.57764361  0.010787787            0   0.56685582    1.3442844     1.921928    3.4694168 
 3675000    1.0365809 0.00016198679   0.39568955 0.0096762024            0   0.38601335    1.5354354     1.931125    10.224848 
 3680000   0.94834682 7.5672734e-05    0.4877344  0.013930107            0   0.47380429    1.4047387    1.8924731    5.7669171 
 3685000   0.91760234 -3.5087378e-05   0.56834549  0.032332508            0   0.53601298    1.3591985    1.9275439   0.13107018 
 3690000   0.90585713 -3.8583485e-05   0.57171597 0.0069844533            0   0.56473152    1.3418009    1.9135168 -0.061957597 
 3695000   0.93773686 -0.00010409238   0.53011785  0.016968821            0   0.51314902    1.3890227    1.9191406   -3.4103894 
 3700000   0.96224387 3.7724091e-05   0.46976942  0.016463262            0   0.45330616    1.4253237    1.8950932    3.8265666 
 3705000   0.87383089 0.00010583999   0.58032444  0.043348035            0    0.5369764     1.294362    1.8746864    7.2936937 
 3710000    0.9146294 7.4580369e-06   0.51175218  0.040937293            0   0.47081489    1.3547948     1.866547    2.2483985 
 3715000   0.93202992 9.7057348e-06   0.45669801 0.0025291849            0   0.45416883    1.3805693    1.8372673    2.3342009 
 3720000   0.86561464 3.0086394e-05     0.590481 0.0057331244            0   0.58474788    1.2821917    1.8726727    3.4130961 
 3725000   0.90799431 -3.4885371e-05   0.54745472  0.018696316            0    0.5287584    1.3449666    1.8924213   0.10629027 
 3730000   0.93846584 -5.8773603e-05   0.51626862  0.019576121            0    0.4966925    1.3901025    1.9063712   -1.1028373 
 3735000   0.90986465 -4.7514956e-05   0.55606992  0.011291423            0    0.5447785     1.347737    1.9038069  -0.52895882 
 3740000   0.89879352 -7.7637965e-05    0.5875829  0.011766471            0   0.57581643    1.3313379    1.9189208    -2.056143 
 3745000   0.91697911 -7.6675686e-05   0.54442053  0.036541574            0   0.50787896    1.3582753    1.9026958   -2.0230993 
 3750000    1.0197699 7.6719984e-05   0.41295234  0.011204753            0   0.40174759    1.5105341    1.9234865    5.8515497 
 3755000   0.94562581 9.2496259e-05   0.51754018    0.0223356            0   0.49520458    1.4007082    1.9182484    6.6540568 
 3760000   0.96757289 2.3364366e-05   0.48424837  0.031196789            0   0.45305158    1.4332173    1.9174657    3.1137212 
 3765000   0.94633747 -6.0617607e-05   0.53395023  0.037548343            0   0.49640189    1.4017624    1.9357126   -1.1679089 
 3770000   0.96774805 -4.1105637e-05   0.52311748  0.026192499            0   0.49692498    1.4334768    1.9565943  -0.14801432 
 3775000   0.98821166 3.9174898e-05   0.49011543  0.031549143            0   0.45856629    1.4637885     1.953904    3.9596587 
 3780000   0.97293049 -5.9479328e-06   0.51387393  0.019306645            0   0.49456728    1.4411533    1.9550272    1.6504931 
 3785000   0.93310536 -2.1697135e-05   0.57066769  0.047151588            0   0.52351611    1.3821623      1.95283   0.84193668 
 3790000   0.96605453 -1.4322458e-05    0.5083981  0.008963546            0   0.49943455    1.4309683    1.9393664    1.2060565 
 3795000   0.92501227 -5.3335471e-06   0.57103426  0.020854281            0   0.55017998    1.3701744    1.9412087    1.6681311 
 3800000   0.98579175 -1.2502067e-06   0.47091576  0.043898872            0   0.42701689     1.460204    1.9311198    1.8671092 
 3805000   0.89532946 3.7849958e-05   0.62235287  0.064129822            0   0.55822305    1.3262068    1.9485596    3.8864775 
 3810000   0.98776932 8.7210663e-05   0.48083487  0.047827172            0   0.43300769    1.4631333    1.9439682    6.4091541 
 3815000    1.0441997 0.00010211262   0.39628058  0.013442956            0   0.38283762    1.5467209    1.9430015    7.1711677 
 3820000    1.0488575 -1.989495e-05   0.40531668  0.011927989            0   0.39338869    1.5536201    1.9589368   0.94031536 
 3825000   0.92207645 -5.2172779e-05   0.57472699  0.019689356            0   0.55503764    1.3658257    1.9405527  -0.73069353 
 3830000   0.97963405 -6.1942197e-05    0.5135456   0.03062314            0   0.48292246    1.4510829    1.9646285   -1.2068119 
 3835000   0.97881285 -0.00016312343   0.52348991  0.031324908            0     0.492165    1.4498665    1.9733564   -6.3785631 
 3840000   0.94563217 -6.3255306e-05   0.57721392    0.0404027            0   0.53681122    1.4007177    1.9779316   -1.2607401 
 3845000   0.95707167 7.2341224e-05   0.54652199 0.0030187427            0   0.54350325    1.4176624    1.9641844    5.6680551 
 3850000    1.0501211 2.1000491e-05   0.41202739            0            0   0.41202739     1.555492    1.9675193    3.0427445 
 3855000   0.98976099 -1.606078e-05   0.47077231 0.00025220361            0   0.47052011    1.4660835    1.9368558    1.1145438 
 3860000   0.96864147 6.0770451e-05   0.50023215  0.011566902            0   0.48866525    1.4348002    1.9350323    5.0464794 
 3865000   0.94309004 -4.6292646e-05   0.52649111  0.013785092            0   0.51270602    1.3969521    1.9234432  -0.44674022 
 3870000   0.95631635 -2.3651889e-05   0.54153629 0.0030898798            0   0.53844641    1.4165436    1.9580799   0.74710317 
 3875000   0.99807182 7.2389214e-05   0.50394142  0.014426981            0   0.48951444    1.4783939    1.9823353    5.6886631 
 3880000    1.0328828 5.3707363e-05   0.44991087  0.037976008            0   0.41193487    1.5299576    1.9798685    4.7296855 
 3885000    1.0286211 -3.2977852e-05    0.4866363  0.026930736            0   0.45970556     1.523645    2.0102813   0.32181521 
 3890000    1.0144536 9.1379346e-06   0.49908328  0.051240573            0   0.44784271    1.5026593    2.0017426    2.4696049 
 3895000   0.95918659 -1.190099e-07   0.56412124 0.0084002047            0   0.55572104    1.4207951    1.9849164    1.9788231 
 3900000   0.98954179 -7.7938103e-05    0.4742083  0.014724547            0   0.45948375    1.4657588    1.9399671   -2.0504638 
 3905000    1.0304753 5.4315135e-05   0.42698715 0.0028785856            0   0.42410856    1.5263915    1.9533787    4.7343136 
 3910000   0.94702642 3.9297312e-05   0.50949901  0.016403563            0   0.49309544    1.4027829    1.9122819    3.9243042 
 3915000    1.0384418 -8.4257123e-05   0.37007243  0.037719894            0   0.33235254     1.538192    1.9082644   -2.4057003 
 3920000   0.88448944 -7.3244784e-05   0.58511344  0.031120377            0   0.55399306      1.31015    1.8952634   -1.8548695 
 3925000   0.95020414 -8.5533262e-05   0.50664707  0.025768633            0   0.48087844    1.4074899     1.914137   -2.4651661 
 3930000   0.96582831 4.1638575e-05   0.49786587  0.013463213            0   0.48440266    1.4306332    1.9284991    4.0603941 
 3935000   0.94126226 0.0001025123   0.51662764 0.0029519344            0   0.51367571    1.3942447    1.9108724    7.1595023 
 3940000   0.90716285 2.683389e-05   0.57167028            0            0   0.57167028     1.343735    1.9154052    3.2893004 
 3945000   0.86515508 6.6148199e-05   0.63554298            0            0   0.63554298     1.281511    1.9170539    5.3038417 
 3950000   0.94919071 4.9643897e-05   0.50032665 0.00044739582            0   0.49987926    1.4059887    1.9063154    4.4480829 
 3955000   0.90526862 4.8401941e-05    0.5525476 0.0025805942            0   0.54996701    1.3409291    1.8934767    4.3716561 
 3960000     1.002825 -1.7235229e-05   0.41164238 0.0055428666            0   0.40609951    1.4854346     1.897077    1.0146332 
 3965000   0.90268651 -2.75548e-05   0.56759627  0.013515307            0   0.55408096    1.3371044    1.9047007   0.49389489 
 3970000     0.930258 -2.9618666e-05   0.54350623   0.06224072            0   0.48126551    1.3779447    1.9214509   0.40497517 
 3975000   0.99409846 -7.0448772e-05   0.45895595  0.018600371            0   0.44035558    1.4725083    1.9314643   -1.6755128 
 3980000    0.9716473 -5.1900294e-07   0.51781605  0.013148862            0   0.50466719    1.4392526    1.9570686    1.9304957 
 3985000   0.96956298 0.00016556029   0.47479156  0.020712153            0    0.4540794    1.4361652    1.9109567    10.387644 
 3990000   0.96702352 9.5210231e-05   0.50081164   0.03606529            0   0.46474635    1.4324036    1.9332152    6.8079791 
 3995000   0.89715365 1.3863104e-05   0.58201272 0.0090928593            0   0.57291986    1.3289089    1.9109216    2.6207125 
 4000000    1.0530194 4.2357727e-05   0.36367303 0.0027499776            0   0.36092306    1.5597849     1.923458    4.0921736 
 4005000   0.98936439 -2.8043513e-06   0.47109057 0.0055289778            0   0.46556159     1.465496    1.9365866    1.7930038 
 4010000   0.93703861 2.7068226e-05   0.57266972 0.0048862835            0   0.56778343    1.3879884    1.9606582    3.3465513 
 4015000   0.97957769 -1.8302114e-05   0.50187532 0.0099598386            0   0.49191548    1.4509995    1.9528748    1.0158066 
 4020000   0.90492581 -6.3802094e-05   0.61659653   0.02087673            0    0.5957198    1.3404214    1.9570179   -1.3096493 
 4025000   0.96821133 -3.3972677e-05   0.53732923  0.010512093            0   0.52681714     1.434163    1.9714923   0.23209121 
 4030000   0.91459295 -5.2370432e-05   0.60839639 0.0053640803            0   0.60303231    1.3547408    1.9631372   -0.7182289 
 4035000   0.97881663 -7.3546044e-05   0.53547263 0.00092223425            0   0.53455039    1.4498721    1.9853448   -1.7802127 
 4040000    1.0595655 -1.2560548e-05   0.42060213 0.0049473718            0   0.41565475    1.5694813    1.9900835    1.3469834 
 4045000    1.0233123 1.6589637e-05   0.48885394  0.032292102            0   0.45656184    1.5157813    2.0046353    2.8540247 
 4050000   0.92110253 -7.132191e-05    0.6224951  0.049666337            0   0.57282876    1.3643831    1.9868782   -1.6648036 
 4055000    1.0038067 -6.4991142e-05   0.50234176  0.046240819            0   0.45610094    1.4868887    1.9892305    -1.338316 
 4060000   0.98869427 -0.00011299479   0.53407392  0.056130274            0   0.47794365    1.4645034    1.9985773   -3.7867561 
 4065000    1.0090055 -5.4294468e-05   0.50110204  0.026650583            0   0.47445146    1.4945894    1.9956915  -0.78418528 
 4070000   0.92593691 8.0818195e-05   0.63261325 0.00074186479            0   0.63187139    1.3715441    2.0041573    6.1420489 
 4075000   0.95925486 -2.6460117e-05   0.58964343 0.00080221045            0   0.58884122    1.4208963    2.0105397   0.65578173 
 4080000   0.91352275 -6.2097825e-05   0.63784627 0.0007278962            0   0.63711837    1.3531556    1.9910018   -1.1884068 
 4085000   0.91176776 5.082745e-06   0.63010742 0.0002928057            0   0.62981461     1.350556    1.9806634       2.2409 
 4090000    1.0029318 -5.1849236e-05    0.4878334 0.0041832902            0   0.48365011    1.4855927    1.9734261  -0.68125478 
 4095000    1.0198201 -6.235997e-05    0.4803396  0.035002125            0   0.44533748    1.5106085    1.9909481   -1.2018823 
 4100000   0.98639306 -3.1994436e-05   0.53646595  0.035046352            0    0.5014196    1.4610947    1.9975607   0.35944556 
 4105000    0.9277126 -7.2541878e-05   0.61833182  0.036306724            0    0.5820251    1.3741743    1.9925061    -1.721638 
 4110000   0.98660167 2.5875857e-07    0.5403601  0.027788236            0   0.51257186    1.4614037    2.0017638    2.0150123 
 4115000   0.96098682 6.3943285e-05   0.57722417   0.02274865            0   0.55447552    1.4234617    2.0006859    5.2745821 
 4120000   0.98801441 -1.0150763e-05    0.5014595  0.022453017            0   0.47900648    1.4634963    1.9649558    1.4452368 
 4125000   0.98304738 3.3907519e-07   0.49248493  0.029475001            0   0.46300993    1.4561389    1.9486239    1.9659845 
 4130000   0.89013394 7.2701669e-05   0.65424471  0.023875637            0   0.63036908    1.3185109    1.9727556     5.695081 
 4135000    1.0749954 -3.5987481e-05   0.40615245  0.021087912            0   0.38506454     1.592337    1.9984894   0.15593041 
 4140000   0.99463318 -0.00014319223    0.5299885  0.022321556            0   0.50766694    1.4733004    2.0032889   -5.3281533 
 4145000   0.98570359  3.49309e-05   0.52739238  0.021533535            0   0.50585884    1.4600734    1.9874658    3.7759279 
 4150000   0.92767777 8.2828275e-05   0.61056864  0.068520678            0   0.54204796    1.3741227    1.9846913     6.225499 
 4155000   0.95316484 9.2882402e-06   0.58585302  0.063867056            0   0.52198596    1.4118754    1.9977284    2.4732863 
 4160000   0.91819763 5.4166369e-06   0.59093987  0.051058681            0   0.53988119    1.3600802    1.9510201    2.2283519 
 4165000   0.92970452 -2.6108593e-05    0.5626651  0.040679108            0   0.52198599    1.3771248    1.9397899   0.60302996 
 4170000   0.94434618 2.6923834e-05   0.54459995  0.040616263            0   0.50398369    1.3988128    1.9434127     3.321913 
 4175000   0.93770641 5.1142584e-05   0.52408754  0.042325353            0   0.48176219    1.3889776    1.9130652    4.5315655 
 4180000   0.96478889 6.5834163e-05    0.4496784  0.019276378            0   0.43040202    1.4290935    1.8787719    5.2494811 
 4185000   0.94207136 -7.213861e-05   0.47388505  0.026366921            0   0.44751813    1.3954432    1.8693283   -1.8241686 
 4190000   0.84730004 -9.8779521e-05    0.6016479  0.041254523            0   0.56039338    1.2550632    1.8567111   -3.2008004 
 4195000   0.90886711 -1.1319088e-05   0.49979542  0.027469117            0    0.4723263    1.3462594    1.8460548    1.2665175 
 4200000    1.0255581 -4.9211791e-05   0.32613797  0.017988692            0   0.30814928     1.519108     1.845246  -0.67439774 
 4205000   0.97988322 -1.1347534e-05   0.42571059  0.018552285            0   0.40715831     1.451452    1.8771626    1.2961688 
 4210000    0.9215816 2.1602984e-05   0.52231522  0.037225316            0   0.48508991    1.3650927     1.887408    2.9934808 
 4215000   0.89874691 2.7207215e-05   0.53747041  0.017663138            0   0.51980727    1.3312689    1.8687393    3.2617487 
 4220000   0.96960804 -2.0375985e-05   0.42810063  0.012260152            0   0.41584047    1.4362319    1.8643325    0.8210821 
 4225000   0.93091298 -9.7559124e-05   0.51898234  0.012634558            0   0.50634778    1.3789149    1.8978972     -3.09713 
 4230000   0.99766446  6.70465e-06   0.43293048  0.023391428            0   0.40953905    1.4777905     1.910721     2.253999 
 4235000    1.0012349 -1.6935882e-05   0.42980288   0.02780496            0   0.40199792    1.4830792    1.9128821    1.0457649 
 4240000   0.92774573 7.7285004e-06   0.55362586  0.013539954            0   0.54008591    1.3742234    1.9278492    2.3235484 
 4245000   0.95170048 6.6479344e-05   0.51388549 0.0041271089            0   0.50975838    1.4097063    1.9235918    5.3273342 
 4250000   0.95194846 -6.5567636e-05   0.51120614 0.0036107693            0   0.50759537    1.4100737    1.9212798   -1.4357832 
 4255000   0.91633934 -5.0269682e-05    0.5181796  0.011941668            0   0.50623794    1.3573276    1.8755073  -0.69830045 
 4260000   0.84419202 1.7335422e-05   0.60667281  0.027138612            0   0.57953419    1.2504594    1.8571322    2.7447058 
 4265000   0.93566494 -4.010752e-05   0.46822952  0.036479852            0   0.43174967    1.3859537    1.8541832  -0.19932179 
 4270000   0.91017556 3.4227677e-05   0.51999211  0.050504626            0   0.46948748    1.3481975    1.8681896    3.6206467 
 4275000   0.91706972 9.7435726e-05   0.51095203  0.029569486            0   0.48138255    1.3584095    1.8693616    6.8580707 
 4280000   0.94286529 5.6752458e-05   0.46068119  0.015975659            0   0.44470553    1.3966192    1.8573004    4.7630263 
 4285000   0.91582394 0.00012891996   0.49683416  0.010838957            0   0.48599521    1.3565642    1.8533984    8.4541003 
 4290000   0.94930293 -4.5729894e-05   0.46464871 0.0067348099            0    0.4579139     1.406155    1.8708037  -0.47056692 
 4295000   0.88089532 -0.00015811798   0.56794195 0.0056549391            0   0.56228702    1.3048262    1.8727681   -6.2228723 
 4300000    0.9191584 -0.00010899193   0.51254317   0.02643669            0   0.48610648    1.3615034    1.8740466   -3.7063405 
 4305000   0.89784704 -4.940031e-05   0.54280916  0.029760986            0   0.51304817    1.3299359    1.8727451  -0.65655081 
 4310000   0.95762597 -7.2322207e-06   0.44252912  0.010766201            0   0.43176292    1.4184835    1.8610126    1.4907229 
 4315000    0.9318712 -1.0947171e-05   0.49028165  0.044577006            0   0.44570464    1.3803342    1.8706159    1.3101207 
 4320000   0.87024818 -0.00022400833   0.58431321  0.053351673            0   0.53096153    1.2890551    1.8733683    -9.595858 
 4325000    1.0003758 -0.00012987089   0.40498227  0.013125532            0   0.39185674    1.4818066    1.8867889   -4.7626007 
 4330000   0.87568984 8.2135196e-05   0.60541662 0.0072906825            0   0.59812593    1.2971156    1.9025322    6.1078542 
 4335000   0.92637098 -4.270874e-05    0.5498444  0.014550821            0   0.53529358     1.372187    1.9220314  -0.26465606 
 4340000   0.99160204 -0.00011073443   0.45179532  0.019842524            0    0.4319528    1.4688105    1.9206058   -3.7489971 
 4345000   0.97572274 2.1360049e-05   0.45285886  0.012039844            0   0.44081902    1.4452893    1.8981482    2.9917827 
 4350000   0.89908328 7.932453e-05   0.55973585  0.011641603            0   0.54809425    1.3317671     1.891503    5.9529189 
 4355000   0.93422527 1.5302803e-06   0.50316292  0.028276947            0   0.47488597    1.3838212    1.8869841    1.9653345 
 4360000   0.92253142 4.3392495e-05   0.51668207  0.042648758            0   0.47403331    1.3664997    1.8831817    4.1048775 
 4365000   0.82503137 7.8614334e-05   0.66002444  0.033176093            0   0.62684834    1.2220777    1.8821021    5.9071561 
 4370000   0.94563045 -4.8820072e-06   0.48797187  0.021979708            0   0.46599217    1.4007151     1.888687    1.6387282 
 4375000    1.0228907 -5.1811438e-05   0.39169767 0.0067383882            0   0.38495928    1.5151568    1.9068544  -0.74589118 
 4380000   0.94952549 -2.9416131e-06   0.49283317  0.019413123            0   0.47342005    1.4064846    1.8993178    1.7487072 
 4385000   0.96213596 4.822785e-05   0.47650768  0.016527973            0   0.45997971    1.4251639    1.9016716    4.3709375 
 4390000   0.91209443 -3.9994419e-05   0.54276694 0.0031629196            0   0.53960402    1.3510399    1.8938068  -0.15390742 
 4395000   0.93682962 1.9521438e-05   0.52574264 0.0038073506            0   0.52193529    1.3876789    1.9134215    2.9129191 
 4400000    0.9199669 3.5856634e-05   0.54048949  0.020358083            0   0.52013141     1.362701    1.9031905    3.7390501 
 4405000   0.87228901 2.1761089e-05   0.60460484  0.018584875            0   0.58601996    1.2920781    1.8966829    3.0108507 
 4410000    0.9540063 -5.6103744e-06   0.46639261   0.01973112            0   0.44666148    1.4131218    1.8795144    1.5922633 
 4415000    0.9493296 -5.4049368e-06   0.45921214  0.024630377            0   0.43458176    1.4061945    1.8654066    1.5886738 
 4420000   0.89698752 0.00012867237    0.5291103 0.0084290081            0   0.52068129    1.3286628    1.8577731    8.4457986 
 4425000   0.83954097 7.5919937e-05   0.59626452 0.0063879384            0   0.58987658    1.2435701    1.8398346    5.7269354 
 4430000   0.90779688 -8.5255297e-05   0.48177653 0.0012698858            0   0.48050664    1.3446741    1.8264507   -2.5386205 
 4435000   0.91132419 -3.9007186e-05   0.47178014 6.8172239e-05            0   0.47171197     1.349899    1.8216791  -0.17548883 
 4440000   0.91673597 -1.7001549e-05    0.4652267 3.2828905e-05            0   0.46519387    1.3579152    1.8231419   0.95266253 
 4445000    0.9248997 0.00015230034   0.45882844 0.0028969753            0   0.45593146    1.3700077    1.8288361    9.6266134 
 4450000   0.91545296 8.4845394e-05   0.48534202  0.010641648            0   0.47470037    1.3560147    1.8413567    6.1854409 
 4455000   0.92966599 -0.0001041943   0.48470604 0.0058143975            0   0.47889164    1.3770677    1.8617738   -3.4729741 
 4460000   0.89801573 -0.00012399421   0.53693691 0.00016304214            0   0.53677387    1.3301858    1.8671227   -4.4813809 
 4465000   0.92668766 -3.7539033e-05   0.50594126 0.00063628261            0   0.50530497    1.3726561    1.8785974 -0.043401145 
 4470000   0.98280455 7.3402378e-05   0.42552939 0.0023682819            0   0.42316111    1.4557792    1.8813086    5.6395104 
 4475000   0.97204336 6.5985417e-05   0.41418656 0.00029166718            0   0.41389489    1.4398392    1.8540258    5.2324791 
 4480000   0.87449062 -0.00013016058   0.54168012            0            0   0.54168012    1.2953392    1.8370194   -4.8272022 
 4485000   0.85578158 -6.6497188e-05   0.56001944            0            0   0.56001944    1.2676265    1.8276459   -1.5770101 
 4490000   0.94348847 4.8557176e-05   0.41170261            0            0   0.41170261    1.3975423    1.8092449    4.2953723 
 4495000   0.87272231 9.9803511e-05   0.50231958            0            0   0.50231958    1.2927199    1.7950395    6.9049793 
 4500000   0.80699589 2.4940755e-05    0.5757798 0.00081567341            0   0.57496413    1.1953627    1.7711425    3.0481091 
 4505000    0.9133423 0.00015178048   0.42187638 0.0039828331            0   0.41789355    1.3528883    1.7747647    9.5459253 
 4510000   0.90513453 0.00010515111   0.43292714 0.0038436041            0   0.42908354    1.3407305    1.7736577    7.1573946 
 4515000   0.82477129 -7.0354654e-05   0.57429131 0.0029870727            0   0.57130424    1.2216925    1.7959838   -1.8061745 
 4520000   0.89295958 -1.9360752e-05   0.46066287 0.0050011042            0   0.45566176    1.3226964    1.7833592   0.79208875 
 4525000   0.89129453 -1.3544862e-05   0.48473141 0.0042737436            0   0.48045767      1.32023    1.8049614    1.1114645 
 4530000   0.86256923 -3.9419399e-05    0.5232159  0.003052864            0   0.52016304    1.2776807    1.8008966  -0.21737666 
 4535000   0.82443746 1.6694573e-05    0.5808782 0.0089510027            0    0.5719272     1.221198    1.8020762    2.6568383 
 4540000   0.89970505 -6.3619065e-05   0.44167552  0.023394146            0   0.41828138    1.3326881    1.7743636   -1.4829325 
 4545000   0.86637697 -8.2370561e-06   0.51392841  0.013455557            0   0.50047285    1.2833209    1.7972493     1.375512 
 4550000   0.87864881 3.0080783e-05   0.52317536 0.0050589824            0   0.51811638    1.3014985    1.8246739      3.36481 
 4555000   0.90430961 1.816795e-05   0.51539806  0.030946398            0   0.48445167    1.3395086    1.8549067    2.7851057 
 4560000   0.91097541 6.0902021e-05   0.52684346 0.0094767625            0   0.51736669    1.3493823    1.8762258    4.9944093 
 4565000   0.95222347 1.2269828e-05   0.48348856 0.0077585815            0   0.47572998     1.410481    1.8939696    2.5221848 
 4570000    1.0012135 3.6411227e-05   0.46075659 0.0079495269            0   0.45280706    1.4830475    1.9438041    3.8080589 
 4575000    1.0062829 0.00014591116    0.4846363 0.0059825217            0   0.47865378    1.4905565    1.9751928    9.4458444 
 4580000   0.95333244 0.00010287116   0.56336957   0.00279002            0   0.56057955    1.4121237    1.9754932    7.2424968 
 4585000   0.94698059 -1.8560966e-05   0.56636432 0.0032796963            0   0.56308462     1.402715    1.9690793    1.0187579 
 4590000   0.96682188 -7.4857473e-06    0.5076972  0.021196754            0   0.48650045    1.4321049    1.9398021    1.5565318 
 4595000   0.97921544 -2.652456e-05   0.47534094  0.025709008            0   0.44963193    1.4504629    1.9258038   0.56774633 
 4600000   0.90555093 -9.0012373e-05   0.56940535  0.037160326            0   0.53224503    1.3413473    1.9107527   -2.6978808 
 4605000    1.0275596 -5.8720073e-05   0.37953798  0.016813105            0   0.36272487    1.5220727    1.9016106   -1.1048571 
 4610000   0.94340402 9.259712e-06   0.50831739 0.0089155705            0   0.49940182    1.3974172    1.9057346    2.3798319 
 4615000   0.96184308 2.5052967e-05   0.48896124 0.0052927571            0   0.48366849    1.4247301    1.9136913    3.1964032 
 4620000   0.92226869 -0.00010070589    0.5453304 0.0054341101            0   0.53989629    1.3661105    1.9114409   -3.2447008 
 4625000   0.96854093 1.1730627e-05   0.47539054  0.026784587            0   0.44860596    1.4346513    1.9100418    2.5106499 
 4630000   0.98191598 0.00010604457   0.47932022  0.039042822            0   0.44027739    1.4544631    1.9337833    7.3632655 
 4635000    1.0425639 -4.2250932e-05   0.39571362 0.0081200989            0   0.38759352    1.5442978    1.9400114  -0.22323634 
 4640000    0.9846416 -6.6673376e-05   0.50068005   0.01373082            0   0.48694923    1.4585004    1.9591804   -1.4544964 
 4645000   0.98195112 2.0627919e-05   0.51814837  0.015131597            0   0.50301677    1.4545151    1.9726635    3.0288129 
 4650000    1.0048967 5.210706e-05   0.45931107  0.028826816            0   0.43048425    1.4885033    1.9478143    4.6156958 
 4655000    0.9883401 9.5163988e-05   0.48687378   0.02249201            0   0.46438177    1.4639788    1.9508525    6.8232487 
 4660000   0.94761616 0.00014923587   0.55754036 0.0085800347            0   0.54896032    1.4036564    1.9611968    9.6020731 
 4665000   0.98284378 0.00013097087   0.50849092  0.029413508            0   0.47907741    1.4558373    1.9643283    8.6700366 
 4670000   0.94821445 0.00010584806   0.58507568    0.0723681            0   0.51270758    1.4045426    1.9896183    7.4090392 
 4675000   0.96491927 8.5099974e-05   0.56657316  0.019819914            0   0.54675325    1.4292867    1.9958598    6.3529785 
 4680000   0.94595438 -1.6438246e-05   0.58449956  0.034998531            0   0.54950103    1.4011949    1.9856945    1.1440563 
 4685000   0.92128946 -8.2526997e-05   0.63006106  0.030018599            0   0.60004246      1.36466    1.9947211   -2.2306612 
 4690000     1.028494 -8.077953e-05   0.45381345 0.0090351687            0   0.44477829    1.5234568    1.9772703   -2.1586417 
 4695000     1.014161 -4.0833435e-06   0.49051986 0.0096684609            0   0.48085139     1.502226    1.9927459    1.7836787 
 4700000    1.0152773 0.00011639201   0.50491389  0.020194995            0    0.4847189    1.5038796    2.0087934    7.9680644 
 4705000    1.0563643 3.585962e-05   0.46541755  0.018424085            0   0.44699347    1.5647395    2.0301571    3.8661696 
 4710000    1.0487423 -6.2420945e-05   0.50145151  0.017274702            0   0.48417681    1.5534495     2.054901   -1.1410514 
 4715000    1.0473096 -2.5699459e-05   0.51747974 0.0095849584            0   0.50789478    1.5513274    2.0688071   0.75299481 
 4720000    1.0254506 1.3986453e-05   0.53602153 0.0071422199            0   0.52887931    1.5189487    2.0549702    2.7710766 
 4725000    1.0318875 1.5198843e-06   0.53824037  0.010434975            0    0.5278054    1.5284834    2.0667238    2.1445419 
 4730000    1.0760254 -4.0474651e-05   0.46885964  0.014276634            0   0.45458301    1.5938626    2.0627222 -0.0095799318 
 4735000    1.0037811 -0.00012604556    0.5521084 0.0080561051            0    0.5440523    1.4868508    2.0389592   -4.4145737 
 4740000    1.0484494 3.4363759e-06   0.49257247  0.032050144            0   0.46052233    1.5530157    2.0455882    2.2215306 
 4745000    1.0088282 -4.8885545e-06   0.55403333  0.042654788            0   0.51137854    1.4943268    2.0483601    1.7980661 
 4750000    1.0738157 1.926941e-05   0.45091832  0.033966807            0   0.41695151    1.5905895    2.0415078    3.0281016 
 4755000    1.0053468 0.00017384289   0.54389239  0.015159051            0   0.52873333    1.4891699    2.0330623    10.933818 
 4760000    1.1016778 3.0530008e-05   0.41739389  0.011603426            0   0.40579046    1.6318602    2.0492541    3.6123905 
 4765000   0.97468134 -0.0001897161    0.5654033 0.0052222393            0   0.56018106    1.4437467      2.00915   -7.7043144 
 4770000   0.99377496 -9.3035802e-05   0.52663591 0.0019470042            0   0.52468891    1.4720292    1.9986651    -2.764768 
 4775000     1.034039 -6.6186855e-05   0.45177132 0.0021349641            0   0.44963636    1.5316703    1.9834416   -1.4053254 
 4780000    1.0074937 -5.2725216e-05   0.52397521 0.0020420905            0   0.52193312    1.4923501    2.0163253  -0.68320575 
 4785000    1.0608996 8.3797572e-05   0.41705268 0.0028691157            0   0.41418357    1.5714575    1.9885102    6.2789459 
 4790000    1.0034425 5.8707714e-05   0.49547861 0.0058965421            0   0.48958206    1.4863492    1.9818278    4.9876628 
 4795000    0.9640652 2.9778448e-05    0.5953332  0.010748125            0   0.58458508    1.4280216    2.0233548    3.5480113 
 4800000    1.0774147 6.2473718e-05   0.39877471  0.012829612            0    0.3859451    1.5959205    1.9946953    5.1933496 
 4805000   0.93316405 1.3173232e-05   0.58037075  0.016752488            0   0.56361827    1.3822493      1.96262    2.6370895 
 4810000   0.98302579 1.7961127e-05   0.55082002  0.024688947            0   0.52613108    1.4561069     2.006927    2.9265367 
 4815000   0.92355394 -2.5961141e-05   0.61848702  0.011966619            0    0.6065204    1.3680143    1.9865013   0.65729089 
 4820000   0.98864145 -7.4722456e-05   0.51069255  0.020687513            0   0.49000504    1.4644251    1.9751177   -1.8506721 
 4825000    1.0404771 2.7740798e-05   0.42662555  0.031836954            0    0.3947886    1.5412068    1.9678323    3.3881612 
 4830000    1.0454498 -3.0383467e-06   0.43196473  0.031083036            0   0.40088169    1.5485726    1.9805373    1.8249739 
 4835000   0.92768963 1.1109178e-05   0.62008069  0.029298293            0    0.5907824    1.3741403     1.994221    2.5630109 
 4840000    1.0415992 7.5100272e-05   0.42863462  0.019962421            0    0.4086722    1.5428688    1.9715034    5.8166374 
 4845000    1.0260497 -6.1785973e-05   0.44305872 0.0064734605            0   0.43658526    1.5198361    1.9628948    -1.200547 
 4850000    1.0067329 -7.5760517e-05   0.47126721 0.00035341254            0   0.47091379    1.4912231    1.9624903   -1.9164482 
 4855000   0.93189432 -9.6810981e-05   0.55156499 2.2104995e-05            0   0.55154289    1.3803685    1.9319335   -3.0247888 
 4860000    0.9299495 -0.00011606254   0.54412026 0.00096916961            0   0.54315109    1.3774877     1.921608   -4.0207939 
 4865000   0.88848368 -7.1106254e-06   0.60034998 0.0037041749            0    0.5966458    1.3160665    1.9164164    1.5523524 
 4870000   0.95304277 1.1726763e-05   0.49864013  0.011028491            0   0.48761163    1.4116946    1.9103347     2.510745 
 4875000   0.94947769 -2.2760768e-05   0.48417721   0.01734864            0   0.46682857    1.4064138     1.890591   0.72523975 
 4880000   0.91453268 -5.1040712e-05   0.56772954  0.009982028            0   0.55774751    1.3546515    1.9223811  -0.69090335 
 4885000    1.0016009 8.2571147e-05   0.42560402 0.0019647254            0    0.4236393    1.4836214    1.9092254    6.1368681 
 4890000   0.96177757 0.00010851415   0.49975466 0.0021570516            0   0.49759761     1.424633    1.9243877    7.4803121 
 4895000    1.0121281 -1.9836392e-05   0.43598098 0.0057670726            0   0.43021391    1.4992148    1.9351958   0.91957251 
 4900000   0.92517814 -7.5137235e-05   0.56088682 0.0027025262            0    0.5581843    1.3704201    1.9313069   -1.9157195 
 4905000   0.99733451 5.932145e-05   0.45149862 0.0017132353            0   0.44978539    1.4773017    1.9288004    4.9660586 
 4910000      1.01635 0.00015548946   0.42472826 0.0044339836            0   0.42029428    1.5054684    1.9301966    9.8912569 
 4915000   0.95287841 2.5938751e-05   0.52242697 0.0045740154            0   0.51785295    1.4114511    1.9338781    3.2619422 
 4920000    1.0060464 7.2416964e-06   0.40924704 0.0054840553            0   0.40376298    1.4902062    1.8994533    2.2702281 
 4925000   0.90491437 -1.2794304e-05   0.52997426  0.013390674            0   0.51658358    1.3404044    1.8703787    1.2153103 
 4930000   0.89145458 -9.2571821e-05   0.53058371 0.0054767416            0   0.52510697    1.3204671    1.8510508   -2.8886264 
 4935000   0.95928338 1.8986445e-05   0.44703225 0.0011400158            0   0.44589223    1.4209385    1.8679708    2.8400768 
 4940000   0.97797906 3.8434743e-05   0.42515967 0.0063763047            0   0.41878337    1.4486315    1.8737912      3.84165 
 4945000   0.95944675 -2.3648332e-05   0.47782823 0.0097653572            0   0.46806287    1.4211805    1.8990087   0.68821413 
 4950000   0.97442502 -6.5132328e-05   0.48029349 0.0050696169            0   0.47522387    1.4433671    1.9236606   -1.4111146 
 4955000    1.0680346  -7.5765e-05   0.37310502 0.0046129669            0   0.36849205    1.5820263    1.9551313   -1.9240367 
 4960000    1.0081296 -5.3107572e-05   0.47202053  0.010855868            0   0.46116466     1.493292    1.9653125  -0.75379522 
 4965000   0.97335002 7.0467345e-05   0.51060271   0.01672195            0   0.49388076    1.4417747    1.9523774    5.5603055 
 4970000   0.95697426 -3.7998514e-05   0.51017783  0.019197385            0   0.49098044    1.4175181     1.927696 -0.017827957 
 4975000   0.95201064 -7.4125543e-05   0.50720471 0.0049360023            0   0.50226871    1.4101658    1.9173705   -1.8778573 
 4980000   0.93015506 -3.643967e-05   0.52962537            0            0   0.52962537    1.3777922    1.9074175  0.041706423 
 4985000    1.0036419 -8.0326032e-05   0.41926548 0.00036731798            0   0.41889816    1.4866446    1.9059101   -2.2067827 
 4990000   0.87741317 -5.1517166e-05   0.59297946 0.0083616848            0   0.58461778    1.2996683    1.8926477  -0.74503119 
 4995000   0.92123399 -4.7144348e-05   0.54952051   0.01670547            0   0.53281504    1.3645778    1.9140984  -0.49969229 
 5000000    1.0003447 -1.8636847e-05   0.43472221  0.008503452            0   0.42621876    1.4817606    1.9164828   0.96227629 
 5005000   0.89542117 -5.3278014e-05   0.59692153 0.0070202814            0   0.58990125    1.3263426    1.9232641  -0.80457015 
 5010000   0.91383455 -0.00015282769   0.55227535  0.034158833            0   0.51811652    1.3536174    1.9058928    -5.918885 
 5015000    1.0362114 -5.3503852e-05    0.3686553 0.0089420449            0   0.35971325    1.5348882    1.9035435  -0.83585371 
 5020000   0.81603393 4.8691387e-05   0.68603527  0.035756171            0    0.6502791    1.2087503    1.8947855    4.3877845 
 5025000   0.89469253 -1.0050314e-05    0.5601137   0.04320612            0   0.51690758    1.3252633     1.885377    1.3708009 
 5030000   0.96091416 4.831642e-05   0.48548877  0.043244124            0   0.44224465    1.4233541    1.9088429    4.3826436 
 5035000   0.95743083 8.7188523e-05   0.50832953  0.044432975            0   0.46389656    1.4181944    1.9265239    6.3905763 
 5040000   0.91970606 2.5397578e-05   0.54684999  0.010592611            0   0.53625738    1.3623146    1.9091646    3.2095206 
 5045000   0.99051614 9.699865e-05   0.48477219  0.016000894            0    0.4687713     1.467202    1.9519742    6.9183051 
 5050000   0.96261913 0.00014660235   0.54208652   0.01505174            0   0.52703478    1.4258796    1.9679661    9.4740062 
 5055000   0.94928271 6.1966155e-05    0.5643455  0.008287223            0   0.55605828     1.406125    1.9704705    5.1431376 
 5060000   0.94592349 -6.6200376e-05   0.58031544  0.026334083            0   0.55398136    1.4011492    1.9814646   -1.4079946 
 5065000    1.0416025 -0.00017162716   0.44926822  0.027620786            0   0.42164744    1.5428736    1.9921419   -6.7951688 
 5070000    1.0085226 -7.9754592e-05   0.48145073  0.029609198            0   0.45184153    1.4938741    1.9753248   -2.1081103 
 5075000    0.9028004 -1.2570236e-05   0.59290762  0.018240659            0   0.57466696    1.3372731    1.9301807    1.2865846 
 5080000   0.98541203 -9.2160552e-05   0.47086138  0.014382209            0   0.45647918    1.4596416     1.930503   -2.7881173 
 5085000   0.93959533 -0.00015804613   0.55779849  0.020007283            0   0.53779121    1.3917756    1.9495741    -6.142388 
 5090000   0.93276531 -9.0507159e-05   0.57318108  0.015866681            0   0.55731439    1.3816586    1.9548397   -2.6791269 
 5095000    0.8978879 0.00010264684   0.58951671   0.00806507            0   0.58145164    1.3299965    1.9195132    7.1750316 
 5100000    1.0302306 6.3522141e-05   0.39320433 0.0038958745            0   0.38930846    1.5260291    1.9192335    5.1715671 
 5105000   0.96906682 -7.1050064e-05   0.48913803 0.0040900869            0   0.48504794    1.4354302    1.9245682    -1.713195 
 5110000   0.88595317 -2.443746e-05   0.61456867  0.013972672            0     0.600596    1.3123181    1.9268868   0.67568887 
 5115000     1.009843 1.3492327e-05   0.43084562   0.01925026            0   0.41159536    1.4958299    1.9266755    2.6174827 
 5120000   0.92970396 7.7029024e-06   0.52942504  0.043712442            0   0.48571259     1.377124     1.906549    2.3009376 
 5125000   0.86380022 -9.9610944e-05   0.61781565  0.013734878            0   0.60408077    1.2795041    1.8973197   -3.2027606 
 5130000   0.96728326 -3.6219042e-05   0.43975058 0.0028387091            0   0.43691187    1.4327883    1.8725389  0.018123944 
 5135000   0.98636725 0.00011422054   0.42950311  0.013271379            0   0.41623173    1.4610565    1.8905596     7.738651 
 5140000   0.93112521 6.0939154e-05   0.52108901  0.038456981            0   0.48263203    1.3792292    1.9003182    5.0204029 
 5145000   0.89557009 -5.7103764e-05   0.55228929 0.0044274836            0   0.54786181    1.3265632    1.8788525   -1.0448602 
 5150000    1.0076485 -4.351791e-06   0.38440338 0.0049445691            0   0.37945881    1.4925793    1.8769827     1.654171 
 5155000   0.94589578 2.6959756e-05   0.47980739 0.0087335455            0   0.47107384    1.4011081    1.8809155     3.261255 
 5160000   0.97768652 1.3133805e-05   0.40687742 0.0086273062            0   0.39825012    1.4481982    1.8550756    2.5275264 
 5165000   0.90697513 -6.9034331e-05   0.51830687 0.0081897504            0   0.51011712    1.3434569    1.8617638    -1.672794 
 5170000   0.91733385 -3.5395868e-05   0.48695954  0.010916048            0   0.47604349    1.3588008    1.8457603  0.033491864 
 5175000   0.92498361 -3.425553e-05   0.46263607 0.0081804046            0   0.45445567     1.370132     1.832768  0.078884911 
 5180000   0.95691192 4.9657496e-05   0.41195657 0.0045224002            0   0.40743417    1.4174258    1.8293823    4.3718461 
 5185000   0.90163101 5.2979026e-05   0.47681516  0.024491674            0   0.45232348    1.3355409    1.8123561    4.5248822 
 5190000   0.90362463 -9.8282647e-05   0.49639934  0.017454692            0   0.47894465     1.338494    1.8348933   -3.1971782 
 5195000   0.99621427 -2.0390078e-05   0.36255893  0.011892297            0   0.35066663    1.4756424    1.8382013   0.79422931 
 5200000   0.86060758 1.9577684e-05   0.53402345  0.011362075            0   0.52266137     1.274775    1.8087984    2.8111758 
 5205000   0.90532585 -6.7944937e-05   0.43307135  0.049642652            0    0.3834287    1.3410139    1.7740853   -1.7046955 
 5210000   0.91437202 -0.00012497525   0.45145735 0.0054239641            0   0.44603339    1.3544136    1.8058709   -4.5928618 
 5215000   0.85322401 3.0860546e-05   0.51056521 0.0013396581            0   0.50922555    1.2638381    1.7744033    3.3544632 
 5220000   0.91546178 -5.7395175e-07   0.40751649  0.010825431            0   0.39669106    1.3560278    1.7635442    1.7341579 
 5225000   0.84675462 -1.0159491e-05   0.47748807  0.016239647            0   0.46124842    1.2542553    1.7317434    1.2115774 
 5230000   0.83940775 4.0201146e-05   0.50085637 0.0063074546            0   0.49454892    1.2433727    1.7442291    3.8025278 
 5235000   0.84168964 -2.3474358e-05   0.47376278 0.0046517292            0   0.46911105    1.2467528    1.7205156   0.51862844 
 5240000   0.90397323 1.3205791e-05   0.36755314  0.017232914            0   0.35032022    1.3390103    1.7065635       2.3827 
 5245000   0.90147813 -4.9837636e-05   0.38241513  0.020088501            0   0.36232663    1.3353145    1.7177296  -0.83395735 
 5250000   0.90568226 -5.0567959e-05   0.37389645  0.013164997            0   0.36073146    1.3415418    1.7154383  -0.87364121 
 5255000   0.88259404 -4.6436737e-05   0.38570945  0.036120505            0   0.34958895    1.3073424    1.6930519  -0.68450905 
 5260000   0.90475743 7.4135534e-06   0.34898596  0.012833205            0   0.33615275    1.3401719    1.6891579    2.0687318 
 5265000   0.89848542 -6.4216109e-05   0.38872521 0.0038433107            0    0.3848819    1.3308815    1.7196067    -1.568258 
 5270000   0.86057894 3.7409934e-05   0.43475826 0.0017011392            0   0.43305712    1.2747326    1.7094908    3.6248795 
 5275000   0.88153684 -4.4854566e-05   0.41940433  0.018236623            0   0.40116771    1.3057764    1.7251808  -0.57137299 
 5280000   0.87520058 6.2680928e-05   0.45150079   0.05488671            0   0.39661408    1.2963909    1.7478917    4.9571552 
 5285000   0.86517357 -5.5448014e-05   0.47221043  0.077912961            0   0.39429746    1.2815384    1.7537488   -1.0851896 
 5290000   0.86008287 3.629216e-05   0.49301937  0.013985197            0   0.47903417    1.2739978    1.7670171    3.6251757 
 5295000   0.91948561 -1.4952845e-05   0.41543848  0.014096275            0   0.40134221    1.3619881    1.7774265    1.0118409 
 5300000   0.94501525 0.00012943614   0.38279322 0.0060891435            0   0.37670408    1.3998038    1.7825971    8.4097275 
 5305000   0.90154719 6.7214073e-05   0.46092516 0.0019504607            0   0.45897469    1.3354168    1.7963419    5.2377024 
 5310000   0.94317166 -5.5047328e-05   0.42578769  0.019036813            0   0.40675087     1.397073    1.8228607  -0.99556248 
 5315000   0.93872974 -3.5307194e-05   0.45619267  0.035799029            0   0.42039364    1.3904934    1.8466861  0.038957749 
 5320000   0.96319045 -3.928499e-05   0.40656298  0.013359773            0   0.39320321    1.4267259    1.8332888  -0.17810265 
 5325000   0.88493939 1.5454623e-05   0.52131431 0.0087455237            0   0.51256878    1.3108165    1.8321308    2.6234074 
 5330000   0.95773592 -4.6676915e-06   0.41896824  0.019947395            0   0.39902084    1.4186463    1.8376146    1.5986288 
 5335000   0.97712281 -0.00011480405   0.40803207 0.0038646575            0   0.40416742    1.4473632    1.8553952   -4.0225719 
 5340000   0.97572842 3.666229e-05    0.3869671  0.014486037            0   0.37248106    1.4452977    1.8322648    3.7093741 
 5345000    0.8913157 0.00017715489   0.48767445  0.013299348            0    0.4743751    1.3202614    1.8079358    10.878266 
 5350000   0.92253856 5.203473e-05   0.43777503 0.0090909756            0   0.42868405    1.3665102    1.8042853    4.4684634 
 5355000   0.91087889 5.2528324e-05   0.44983442   0.01232689            0   0.43750753    1.3492394    1.7990738     4.488524 
 5360000   0.93224083 0.0001062049   0.44624751   0.01709498            0   0.42915253    1.3808817    1.8271292    7.2648203 
 5365000   0.87446371 3.2184183e-06   0.56316632  0.037548359            0   0.52561796    1.2952994    1.8584657    2.0232487 
 5370000   0.94121438 -2.317011e-05   0.44015062  0.026284503            0   0.41386612    1.3941738    1.8343244   0.64801477 
 5375000    1.0079838 -4.9665051e-05   0.36103805  0.010419648            0    0.3506184     1.493076    1.8541141  -0.68873656 
 5380000   0.86595892 2.473286e-05   0.57009018 0.0087510878            0   0.56133909    1.2827016    1.8527918    3.1191143 
 5385000   0.90828116 5.0513808e-05   0.52280825  0.025111641            0   0.49769661    1.3453915    1.8681997    4.4545067 
 5390000   0.99608583 -5.2959723e-05   0.40403984  0.037129602            0   0.36691024    1.4754521     1.879492  -0.83204584 
 5395000   0.90314614 -2.8066769e-05   0.53868113  0.050573232            0    0.4881079    1.3377852    1.8764664   0.43944778 
 5400000    1.0128283 -6.465374e-06   0.39444589  0.022346044            0   0.37209985    1.5002519    1.8946978    1.5636707 
 5405000   0.95849895 1.0651543e-05   0.47400126   0.01619001            0   0.45781125    1.4197766    1.8937778    2.4391368 
 5410000    1.0132717 -4.2859641e-05   0.40178239  0.037193838            0   0.36458855    1.5009087    1.9026911  -0.29172257 
 5415000   0.95526866 -6.8107163e-05   0.46122013   0.01574387            0   0.44547626    1.4149917    1.8762118   -1.6108749 
 5420000   0.97033765 4.1457937e-07   0.44933962  0.002748817            0    0.4465908    1.4373127    1.8866523    1.9078787 
 5425000   0.95518958 4.0243392e-05   0.45498367 0.0044340979            0   0.45054957    1.4148746    1.8698582    3.9303199 
 5430000   0.93759775 0.00011506911   0.46848681  0.011544885            0   0.45694193    1.3888167    1.8573035    7.7488419 
 5435000   0.95181892 0.00011050557   0.46039479  0.019948086            0   0.44044671    1.4098818    1.8702766    7.5281618 
 5440000   0.89467014 -0.00014215762   0.54449601  0.029578684            0   0.51491733    1.3252301    1.8697262   -5.4087441 
 5445000   0.97729563 -0.00011530332   0.38639297 0.0097844873            0   0.37660848    1.4476192    1.8340121   -4.0695176 
 5450000    0.9314668 -1.8214907e-05    0.4702854 0.0039824983            0    0.4663029    1.3797352    1.8500206   0.91741736 
 5455000   0.94879681 -7.2444368e-06   0.43987998  0.018493839            0   0.42138615    1.4054053    1.8452853    1.4743701 
 5460000   0.99949784 -5.7355371e-05   0.41444837  0.010162498            0   0.40428587    1.4805062    1.8949545   -1.0416405 
 5465000    0.8816811 -4.9143436e-05   0.57619471  0.024017979            0   0.55217673    1.3059901    1.8821848  -0.63395906 
 5470000   0.88501336 9.014701e-05   0.58650531  0.025131542            0   0.56137377     1.310926    1.8974313    6.5129583 
 5475000   0.96400091 0.00010494403    0.4443988  0.026640873            0   0.41775792    1.4279263    1.8723251    7.2454595 
 5480000    0.9899029 -1.0931101e-05   0.40949757 0.0097293437            0   0.39976823    1.4662937    1.8757912    1.3161189 
 5485000   0.92855082 -9.4322781e-05   0.50609395  0.010395013            0   0.49569894    1.3754159    1.8815099   -2.9478165 
 5490000   0.98217919 -8.4881781e-05   0.44309159 0.0094328248            0   0.43365876    1.4548529    1.8979445   -2.4480027 
 5495000   0.93419009 -1.6297433e-05   0.50199285  0.011985169            0   0.49000768    1.3837691    1.8857619    1.0513334 
 5500000   0.89957156 -6.5719236e-06   0.53969844  0.022697911            0   0.51700053    1.3324904    1.8721888    1.5357063 
 5505000   0.99055455 1.6852469e-05   0.38298276 0.0087615124            0   0.37422125    1.4672589    1.8502417    2.7130881 
 5510000   0.86313103 1.488558e-05   0.57528309  0.012226415            0   0.56305668    1.2785128    1.8537959    2.6159376 
 5515000   0.96149682 5.2149795e-05   0.44992975  0.015126717            0   0.43480304    1.4242172    1.8741469    4.5442164 
 5520000    0.8943177 7.1652263e-05   0.53307977 0.0014493061            0   0.53163046    1.3247081    1.8577879    5.5263837 
 5525000   0.86210798 1.8328332e-05   0.56052399 0.0052863989            0    0.5552376    1.2769975    1.8375214    2.7759321 
 5530000    0.8873636 4.2105346e-05   0.50232118  0.010653308            0   0.49166787    1.3144073    1.8167285    3.9725222 
 5535000   0.89480678 -3.4526764e-05   0.49397064 0.0094434451            0   0.48452719    1.3254325    1.8194032  0.051632868 
 5540000   0.86797992 9.7030516e-05   0.52670966  0.022912555            0   0.50379711    1.2856953    1.8124049    6.7803673 
 5545000   0.94109663 6.512761e-05   0.42372989  0.024948884            0     0.398781    1.3939994    1.8177293    5.1522629 
 5550000   0.89610838 -8.1637382e-05   0.48916442  0.021593279            0   0.46757114    1.3273605     1.816525    -2.363309 
 5555000   0.89975649 -5.5497475e-05   0.48321936  0.010995927            0   0.47222344    1.3327643    1.8159837   -1.0254871 
 5560000    0.9254344 -4.0470739e-05   0.44190785  0.028084215            0   0.41382363    1.3707997    1.8127076  -0.25939428 
 5565000   0.87056107 -8.330668e-06   0.52532403  0.043076774            0   0.48224725    1.2895186    1.8148426    1.3883124 
 5570000   0.87530987 -4.9607279e-05   0.50689461  0.021707964            0   0.48518664    1.2965527    1.8034473  -0.73644534 
 5575000   0.91373609 -8.4711534e-05   0.45416469 0.0013231159            0   0.45284157    1.3534716    1.8076363   -2.5295943 
 5580000   0.94125781 -9.9155105e-05    0.4179419            0            0    0.4179419    1.3942381      1.81218   -3.2645613 
 5585000   0.92164948 3.0351155e-05   0.46600726 0.0001398174            0   0.46586744    1.3651933    1.8312006    3.3851797 
 5590000   0.94579666 0.00010329428   0.44266302  0.003226532            0   0.43943649    1.4009613    1.8436243    7.1322915 
 5595000   0.88938077 -2.237356e-05   0.51756406   0.02198002            0   0.49558404    1.3173953    1.8349593   0.68943306 
 5600000   0.92395002 -1.9692667e-05    0.4660689  0.042406047            0   0.42366285     1.368601    1.8346699   0.82640531 
 5605000   0.88869324 3.7596471e-05   0.49663811  0.023885568            0   0.47275254    1.3163769     1.813015    3.7379543 
 5610000   0.91994726 0.00010219141   0.44035177  0.032010387            0   0.40834138    1.3626719    1.8030236    7.0352237 
 5615000   0.87812176 -0.00010802628   0.49075336  0.027512208            0   0.46324115    1.3007179    1.7914712   -3.7394742 
 5620000   0.90568616 -3.7006501e-05   0.47331471 0.0070429686            0   0.46627174    1.3415476    1.8148623 -0.079870532 
 5625000   0.94441311 4.658164e-05   0.41505365 0.0044819899            0   0.41057166    1.3989119    1.8139656    4.1989455 
 5630000   0.91047856 3.0727045e-05   0.46037387 0.0021531932            0   0.45822067    1.3486464    1.8090202    3.3822449 
 5635000   0.87534374 -1.8635353e-05   0.53173384  0.013471297            0   0.51826255    1.2966029    1.8283368   0.87420668 
 5640000     0.963542 -0.00011764709   0.42601559  0.024001576            0   0.40201402    1.4272466    1.8532622   -4.1702688 
 5645000   0.92786105 4.1464258e-05   0.47888945  0.012545442            0     0.466344    1.3743942    1.8532836    3.9762536 
 5650000   0.92638336 0.00014840432   0.49169629 0.0051934964            0    0.4865028    1.3722054    1.8639017    9.4622026 
 5655000   0.94453679 4.0383817e-05   0.45575021 0.0011439925            0   0.45460621    1.3990951    1.8548453    3.9224967 
 5660000   0.99711792 2.7596008e-06   0.39600852 0.0047507423            0   0.39125778    1.4769809    1.8729894     2.014281 
 5665000   0.91156412 2.7882094e-06   0.52423246  0.018665848            0   0.50556661    1.3502544    1.8744868    2.0172431 
 5670000   0.93672318 -7.4277687e-05   0.45290718  0.026069446            0   0.42683773    1.3875212    1.8404284   -1.9625892 
 5675000   0.97021039 -1.416154e-05   0.41858479  0.016251249            0   0.40233354    1.4371241    1.8557089    1.1306381 
 5680000   0.91236566 0.00013154767   0.50683973  0.015957407            0   0.49088232    1.3514416    1.8582814    8.5935223 
 5685000   0.95221416 -2.3082583e-05   0.46264312  0.011955159            0   0.45068796    1.4104672    1.8731103   0.69128207 
 5690000      0.90319 -9.4806729e-05   0.53672711 0.0026921915            0   0.53403492    1.3378502    1.8745773   -2.9795273 
 5695000   0.96019447 -1.1709079e-05   0.45342367  0.013146133            0   0.44027754    1.4222881    1.8757117    1.2762069 
 5700000   0.96806073 -4.6174387e-05   0.47684278  0.021519396            0   0.45532338      1.43394    1.9107827  -0.45334586 
 5705000   0.91973226 6.8281225e-06    0.5606814   0.05578225            0   0.50489915    1.3623534    1.9230348    2.2726347 
 5710000   0.95609903 2.4904421e-06   0.50833543  0.041718918            0   0.46661651    1.4162217    1.9245571    2.0520678 
 5715000    1.0192117 0.00010978443   0.42359453 0.0096244572            0   0.41397007    1.5097074    1.9333019    7.5542646 
 5720000   0.97881749 0.00010266107   0.49099088 0.0010603384            0   0.48993054    1.4498734    1.9408643    7.1971112 
 5725000    1.0299941 0.00011434167   0.42742461  0.003778552            0   0.42364606    1.5256788    1.9531034     7.807397 
 5730000   0.96447611 7.9800795e-05   0.51561927 0.0026032089            0   0.51301606    1.4286302    1.9442495    6.0300502 
 5735000   0.97199888 9.5277121e-05   0.50130468 0.00080489564            0   0.50049979    1.4397733     1.941078    6.8192666 
 5740000    1.0047326 -1.2142479e-05   0.46220289 0.0016159543            0   0.46058694    1.4882602    1.9504631    1.3287681 
 5745000   0.95788201 -4.2415939e-05   0.52146268 0.0091469406            0   0.51231574    1.4188627    1.9403254  -0.23137066 
 5750000   0.93764393 -7.3044962e-05   0.54251503 0.0091588316            0    0.5333562    1.3888851    1.9314001   -1.8085019 
 5755000   0.98859519 -0.0001165563   0.45380971  0.017407381            0   0.43640233    1.4643566    1.9181663   -4.0495165 
 5760000   0.97879221 2.1610525e-05   0.47153383  0.053437024            0   0.41809681     1.449836    1.9213698    3.0278287 
 5765000   0.96202066 9.1817606e-06   0.50774986  0.019146658            0    0.4886032    1.4249931     1.932743    2.4028491 
 5770000   0.95174761 -8.4189843e-05   0.54865364  0.079271987            0   0.46938166    1.4097761    1.9584298   -2.3520902 
 5775000   0.86414971 -4.8030358e-05   0.68331798     0.125341            0   0.55797699    1.2800218    1.9633397   -0.4958146 
 5780000   0.92264767 -8.8184136e-05   0.57899959  0.046252132            0   0.53274746    1.3666719    1.9456715   -2.5693563 
 5785000   0.91139235 -5.3368402e-05   0.57230768    0.0209938            0   0.55131388    1.3499999    1.9223076  -0.81015458 
 5790000   0.97231588 -3.3630002e-06   0.43974326  0.012978735            0   0.42676453    1.4402429    1.8799862    1.7078005 
 5795000   0.91888865 -6.3344492e-05   0.52830113  0.013573549            0   0.51472758    1.3611038    1.8894049   -1.3538331 
 5800000   0.93603613 -2.8006379e-05   0.49840773  0.058129167            0   0.44027856    1.3865035    1.8849113   0.45098467 
 5805000   0.94749261 7.4521884e-05    0.4767625  0.031285971            0   0.44547653    1.4034734    1.8802359    5.6957564 
 5810000   0.91545748 6.5527581e-06   0.52960715 0.0052335546            0    0.5243736    1.3560214    1.8856285    2.2211298 
 5815000    0.9176071 -0.00013139655   0.53337753  0.017024677            0   0.51635285    1.3592055     1.892583   -4.8349203 
 5820000   0.98011946 -8.6326233e-05   0.42101422  0.031271428            0    0.3897428    1.4518019    1.8728162    -2.547087 
 5825000   0.93101303 0.00010620472   0.48594569  0.027445258            0   0.45850043     1.379063    1.8650087    7.3026905 
 5830000   0.93133753 5.0925659e-05   0.49330412   0.01019853            0   0.48310559    1.3795437    1.8728478    4.4802416 
 5835000   0.94187832 -5.9516156e-05   0.50003831 0.0093259297            0   0.49071238    1.3951573    1.8951956   -1.1520316 
 5840000   0.98607113 4.7813309e-05   0.44037963   0.01684415            0   0.42353548    1.4606179    1.9009975    4.3490389 
 5845000   0.99976378 -3.2359861e-05   0.42644426 0.0032746001            0   0.42316966    1.4809001    1.9073443   0.25051945 
 5850000    1.0087581 -0.00015659625   0.40643312 1.5958522e-05            0   0.40641716    1.4942229     1.900656   -6.1170721 
 5855000   0.89134906 -4.3774325e-05   0.60751663 0.0040113349            0    0.6035053    1.3203108    1.9278274  -0.31341801 
 5860000   0.98887813 1.2534594e-05   0.48732928  0.031561208            0   0.45576807    1.4647757     1.952105    2.5938762 
 5865000    0.9703929 0.00012820289   0.52410358  0.048441876            0    0.4756617    1.4373945    1.9614981    8.5254858 
 5870000   0.99160456 0.00010823491   0.49646176  0.068362084            0   0.42809967    1.4688143     1.965276    7.5069036 
 5875000   0.99740052 -7.5624997e-06   0.49412055  0.027962758            0   0.46615779    1.4773995    1.9715201    1.5843201 
 5880000   0.99499353 -2.5102024e-05   0.48458401  0.004209818            0   0.48037419    1.4738342    1.9584182   0.67319453 
 5885000   0.92766203 -4.295415e-05   0.58916345  0.023871611            0   0.56529184    1.3740994    1.9632628  -0.23598967 
 5890000   0.89176197 -5.4361779e-05   0.64666795  0.053489918            0   0.59317803    1.3209224    1.9675904  -0.81573271 
 5895000   0.99940363 7.0835877e-05   0.47619485  0.058275531            0   0.41791932    1.4803666    1.9565615    5.5833584 
 5900000   0.94854007 9.125413e-05   0.52622191  0.011326157            0   0.51489576     1.405025    1.9312469    6.6034583 
 5905000   0.93831386 2.7970401e-06   0.54289605 0.0044510645            0   0.53844499    1.3898774    1.9327735    2.0759819 
 5910000   0.96096472 5.289107e-05   0.50817435 0.0099540058            0   0.49822034     1.423429    1.9316033    4.6396261 
 5915000   0.98779392 0.00013139635   0.49124453  0.032563066            0   0.45868147    1.4631697    1.9544143    8.6819073 
 5920000   0.97796906 5.2200556e-05   0.52715249  0.020739464            0   0.50641303    1.4486167    1.9757692    4.6484376 
 5925000   0.96964111 -5.6538361e-05   0.52694135 0.0072029901            0   0.51973836    1.4362809    1.9632222  -0.93154182 
 5930000    1.0657051 4.5496044e-05   0.39507888  0.002068013            0   0.39301087    1.5785757    1.9736546     4.303052 
 5935000    1.0323455 -4.9562221e-06   0.42006692 0.0032482924            0   0.41681863    1.5291618    1.9492287    1.6954702 
 5940000   0.95087348 -8.8762756e-05   0.53325369 0.0026402186            0   0.53061347    1.4084813     1.941735   -2.6029181 
 5945000   0.99102753 4.7207164e-05   0.48584347 0.0042931201            0   0.48155035    1.4679595     1.953803    4.3708098 
 5950000   0.99591506 3.8698131e-05   0.47610185 0.0059105083            0   0.47019134    1.4751992     1.951301    3.9326453 
 5955000    1.0368155 4.0843716e-06   0.40361182   0.01824427            0   0.38536755     1.535783    1.9393948    2.1485146 
 5960000   0.92808411 1.7949134e-05   0.55625187   0.04975983            0   0.50649204    1.3747246    1.9309765    2.8499721 
 5965000   0.94927801 -0.00013401768   0.54274554  0.028984891            0   0.51376065    1.4061181    1.9488636   -4.9128418 
 5970000   0.97671667 -4.3113219e-05   0.50826476 0.0069618928            0   0.50130287    1.4467616    1.9550263  -0.25237049 
 5975000   0.98552347 3.9568462e-05   0.50077689  0.012945705            0   0.48783118    1.4598066    1.9605835    3.9864888 
 5980000   0.99025816 6.1181515e-05   0.49513199   0.01395604            0   0.48117595    1.4668199    1.9619519    5.0944455 
 5985000    1.0135307 5.0306606e-05   0.47731537  0.013644448            0   0.46367092    1.5012923    1.9786077     4.554306 
 5990000    1.0333116 0.00020140672   0.43323019  0.027571124            0   0.40565907    1.5305928     1.963823    12.275847 
 5995000    1.0124855 4.0433526e-05   0.44272422  0.039660129            0    0.4030641    1.4997441    1.9424683    4.0126648 
 6000000   0.97529552 -0.00010405409   0.49966485  0.011629271            0   0.48803558    1.4446565    1.9443213    -3.383248 
 6005000   0.95288314 -5.4989971e-05   0.51066533 0.0028281986            0   0.50783714    1.4114581    1.9221235  -0.89336301 
 6010000   0.96965624 -6.9682773e-06   0.48708514 0.0013944502            0   0.48569069    1.4363033    1.9233884    1.5666126 
 6015000    1.0120998 -9.8721283e-05   0.41237729  0.018403295            0   0.39397399    1.4991729    1.9115501   -3.1429795 
 6020000   0.94192062 4.2962019e-05   0.51190933  0.018079976            0   0.49382936    1.3952199    1.9071293    4.1067847 
 6025000   0.96009166 -3.1532807e-06   0.51978367  0.022441966            0    0.4973417    1.4221358    1.9419194    1.7804715 
 6030000   0.93281357 -3.9676974e-06   0.50059536  0.032250607            0   0.46834476    1.3817301    1.8823255    1.6791794 
 6035000   0.91247062 6.672939e-05   0.50424159   0.02124764            0   0.48299395    1.3515971    1.8558387    5.2723835 
 6040000   0.95897558 2.6383728e-05    0.4650183   0.02003206            0   0.44498624    1.4204826    1.8855009    3.2363477 
 6045000   0.96977588 4.568121e-05   0.46786515 0.0072036489            0    0.4606615    1.4364805    1.9043457    4.2432236 
 6050000   0.95966053 1.9862501e-05   0.49161042  0.015482881            0   0.47612754    1.4214972    1.9131076    2.9300676 
 6055000   0.92820943 2.5068455e-05   0.51601991  0.011987472            0   0.50403244    1.3749102    1.8909301     3.174435 
 6060000    0.9321254 -6.8783628e-05   0.52244124  0.018542371            0   0.50389887    1.3807107     1.903152   -1.6185698 
 6065000   0.93403216 -8.6146318e-05   0.52122292  0.010329385            0   0.51089354    1.3835351    1.9047581   -2.5059334 
 6070000    0.8628008 7.1948628e-05   0.58945509  0.030967449            0   0.55848764    1.2780237    1.8674788    5.5512485 
 6075000   0.91156822 -2.2240174e-05   0.52130982  0.026361485            0   0.49494834    1.3502604    1.8715702   0.73287333 
 6080000   0.89865245 -0.00013046333   0.53352707 0.0072360157            0   0.52629105    1.3311289     1.864656   -4.8150666 
 6085000   0.94500054 -5.8579725e-05   0.43511931  0.016631135            0   0.41848818     1.399782    1.8349014   -1.1643806 
 6090000     0.914716 4.5997275e-05   0.46167185    0.0287472            0   0.43292465    1.3549231    1.8165949    4.1716554 
 6095000   0.84064632 0.00010782113   0.55203828   0.05353599            0   0.49850229    1.2452074    1.7972456    7.3176876 
 6100000   0.79911714 9.4948168e-05   0.61583151  0.043988095            0   0.57184342    1.1836923    1.7995238      6.66087 
 6105000   0.86359671 8.6515366e-06   0.51668274  0.042557234            0    0.4741255    1.2792026    1.7958854     2.238844 
 6110000     0.914807 2.0870538e-05   0.43931247  0.012790479            0   0.42652199    1.3550579    1.7943703    2.8629419 
 6115000   0.88450077 7.5911446e-05   0.49847753  0.014193917            0   0.48428361    1.3101668    1.8086443    5.6953103 
 6120000    0.9192848 -2.3556611e-05   0.45855523 0.0048204826            0   0.45373475    1.3616906    1.8202458   0.61414734 
 6125000   0.85750731 -3.8651723e-05   0.54444502  0.010516559            0   0.53392847    1.2701827    1.8146277  -0.16434047 
 6130000    0.8370387 9.7628763e-06   0.51622395  0.029777256            0   0.48644669    1.2398636    1.7560875    2.2559468 
 6135000   0.87584591 -4.3507499e-05   0.46283034  0.015078202            0   0.44775213    1.2973468    1.7601771  -0.46740687 
 6140000   0.87236316 7.9971654e-05   0.46027046 0.0026633295            0   0.45760713    1.2921879    1.7524584    5.8470071 
 6145000   0.84537328 0.00012713203   0.51014061 0.0013017949            0   0.50883881    1.2522092    1.7623498    8.2715097 
 6150000   0.88888261 2.8830857e-05   0.45740086 0.0045787288            0   0.45282213    1.3166574    1.7740582    3.2501981 
 6155000   0.89273787 7.1952958e-05   0.46438634  0.020242799            0   0.44414354     1.322368    1.7867543    5.4707458 
 6160000   0.90020044 7.1981565e-05   0.47485667   0.02160785            0   0.45324882    1.3334219    1.8082786    5.4937347 
 6165000   0.97045722 4.5756491e-05   0.38838022 0.0044839705            0   0.38389625    1.4374898      1.82587    4.1686023 
 6170000   0.93786863 -4.1517622e-05   0.44531894  0.010676683            0   0.43464225    1.3892179    1.8345368   -0.2911654 
 6175000   0.90314396 -4.9577378e-05   0.48264196  0.018813823            0   0.46382814     1.337782     1.820424  -0.71793778 
 6180000   0.95402531 1.3089232e-05   0.41463709   0.01393065            0   0.40070644      1.41315    1.8277871    2.4979558 
 6185000   0.93026476 -6.4000254e-05   0.45331896    0.0250834            0   0.42823556    1.3779547    1.8312736   -1.4455394 
 6190000   0.98880831 -0.00010015296   0.37409009  0.028329472            0   0.34576062    1.4646723    1.8387624   -3.2890693 
 6195000   0.97770205 2.2492722e-05   0.37530276 0.0020201428            0   0.37328262    1.4482212    1.8235239    2.9751513 
 6200000   0.91537917 0.00012685699    0.4659894 0.0028915493            0   0.46309785    1.3559054    1.8218948    8.3169729 
 6205000   0.94940477 0.00013466856   0.43418172  0.015633157            0   0.41854856    1.4063058    1.8404875    8.7355179 
 6210000   0.92469003 8.4482431e-05   0.48442979  0.014037573            0   0.47039222    1.3696971    1.8541269    6.1796274 
 6215000   0.87536564 1.8048292e-05    0.5430921  0.010455436            0   0.53263667    1.2966354    1.8397275       2.7638 
 6220000   0.96595209 -4.6035787e-06   0.40512726  0.012690853            0    0.3924364    1.4308165    1.8359438    1.6002406 
 6225000   0.93159729 -9.2817823e-05   0.45790399  0.037434234            0   0.42046976    1.3799285    1.8378325     -2.91444 
 6230000   0.92101384 -5.5079525e-05   0.52888365  0.025803412            0   0.50308024    1.3642518    1.8931354  -0.92693626 
 6235000   0.93409363 -5.4954332e-06   0.46544323  0.030865411            0   0.43457782    1.3836262    1.8490694    1.5677032 
 6240000   0.93457731 -0.00014827755   0.44773843  0.011999529            0    0.4357389    1.3843426    1.8320811   -5.7597296 
 6245000   0.87701332 -0.00012770922   0.52421562  0.011714764            0   0.51250085     1.299076    1.8232916   -4.7154204 
 6250000   0.96402053 3.2442785e-05   0.41103043  0.007317957            0   0.40371247    1.4279554    1.8389858    3.5000564 
 6255000   0.91825986 7.1670779e-05   0.50643257  0.015856284            0   0.49057629    1.3601724     1.866605    5.5361489 
 6260000   0.88809428 -3.5691706e-05   0.56313375 0.0084735103            0   0.55466024    1.3154896    1.8786234  0.051208045 
 6265000   0.91455669 -4.3914419e-05   0.50353307  0.052682922            0   0.45085015    1.3546871    1.8582202  -0.39019806 
 6270000   0.99454417 8.4895243e-05   0.39902186 0.0023336271            0   0.39668823    1.4731686    1.8721904    6.2188268 
 6275000   0.93697154 7.2638118e-05   0.49039627 0.0043297957            0   0.48606647    1.3878891    1.8782854     5.597357 
 6280000    0.9412393 -0.00010526301   0.50296218  0.031687507            0   0.47127468    1.3942107    1.8971729   -3.4922931 
 6285000   0.95719426 -0.00011317415   0.47363723  0.021077402            0   0.45255983     1.417844    1.8914812   -3.9030352 
 6290000   0.93809914 -8.0797661e-05   0.49467917 0.0073709641            0    0.4873082    1.3895593    1.8842385   -2.2526017 
 6295000   0.97008088 -0.00011072134   0.44327993  0.012882349            0   0.43039758    1.4369323    1.8802122   -3.7887202 
 6300000   0.94469796 -8.1719092e-05   0.48019089  0.033890493            0    0.4463004    1.3993338    1.8795247   -2.3044928 
 6305000   0.86902593 -3.1210103e-05   0.58459856  0.053583325            0   0.53101524    1.2872447    1.8718432   0.27388596 
 6310000    0.9422872 3.3448854e-05   0.51386589  0.044249798            0   0.46961609    1.3957629    1.9096288    3.6222102 
 6315000   0.99763196 3.6468744e-05   0.42660912  0.031086393            0   0.39552273    1.4777423    1.9043515    3.7715511 
 6320000    1.0125515 -1.9678581e-05   0.40027428  0.011015338            0   0.38925895     1.499842    1.9001163   0.89257288 
 6325000   0.89929053 -6.0792392e-05   0.56083665  0.012766843            0   0.54806981    1.3320741    1.8929107   -1.2196597 
 6330000   0.95550527 -7.1807166e-05   0.48036594  0.023106542            0    0.4572594    1.4153422    1.8957081   -1.7808188 
 6335000   0.96296367 -3.7619093e-05   0.46485921 0.0086487332            0   0.45621047    1.4263899    1.8912491 -0.034848446 
 6340000   0.94223187 3.0201756e-05   0.49346425  0.021775766            0   0.47168849     1.395681    1.8891452    3.4354751 
 6345000   0.90878929 -8.3995522e-05   0.53376421  0.037649064            0   0.49611515    1.3461441    1.8799084   -2.4206624 
 6350000    1.0068166 -3.8530742e-05   0.42880974  0.011024272            0   0.41778547    1.4913471    1.9201568 -0.052617159 
 6355000    0.9527007 2.9749329e-05   0.48843041  0.009090336            0   0.47934008    1.4111879    1.8996183     3.422784 
 6360000   0.90508649 9.2250292e-05   0.55235658  0.022866151            0   0.52949043    1.3406594    1.8930159    6.6162309 
 6365000   0.90028202 8.2102477e-05   0.55996649  0.017299008            0   0.54266748    1.3335427    1.8935092     6.097156 
 6370000   0.96603135 5.0623788e-06   0.47961373 0.0086438099            0   0.47096992    1.4309339    1.9105477    2.1697415 
 6375000   0.93497166 -5.9767908e-05    0.5297709   0.03553738            0   0.49423352    1.3849268    1.9146977   -1.1454192 
 6380000   0.89244522 -0.00012865801   0.60023283  0.032757276            0   0.56747555    1.3219345    1.9221673    -4.665123 
 6385000   0.95963914 -3.9505345e-05   0.48346038  0.018071079            0    0.4653893    1.4214655    1.9049259  -0.11774779 
 6390000   0.95429211 -1.4945547e-05    0.5046897  0.016791876            0   0.48789782    1.4135452    1.9182349    1.1530229 
 6395000   0.96404377 -0.00014279989   0.46916461  0.014062421            0   0.45510219    1.4279898    1.8971544   -5.4141997 
 6400000   0.94808883 2.2702155e-05   0.51144405  0.025864452            0   0.48557959    1.4043566    1.9158006     3.078151 
 6405000   0.99074801 2.1325706e-05   0.43830659  0.020785543            0   0.41752105    1.4675455    1.9058521    2.9977282 
 6410000   0.91367195 1.610291e-06   0.53958519 0.0072624911            0    0.5323227    1.3533766    1.8929618    1.9754087 
 6415000   0.95174629 7.3237463e-05   0.47769535  0.007869421            0   0.46982593    1.4097742    1.8874695    5.6372276 
 6420000     0.973441 -3.1238202e-05    0.4703759 0.0097077347            0   0.46066816    1.4419095    1.9122854   0.31288944 
 6425000    1.0099361 -2.2270229e-05   0.40956626 0.0035701327            0   0.40599613    1.4959679    1.9055341   0.76529842 
 6430000    0.9536305 5.4699955e-05   0.51529205  0.010169217            0   0.50512283    1.4125652    1.9278572    4.7284949 
 6435000   0.97019111 6.0404426e-05   0.50732127  0.019759102            0   0.48756217    1.4370956    1.9444169    5.0371235 
 6440000    1.0617882 2.7068589e-05    0.4101053 0.0095650164            0   0.40054028    1.5727737     1.982879    3.3687908 
 6445000   0.98174657 -6.283343e-05   0.53971174 0.0060411481            0   0.53367059    1.4542121    1.9939238   -1.2231478 
 6450000    1.0251483 -0.00011068756   0.46970055 0.0068224104            0   0.46287814    1.5185009    1.9882015   -3.6790016 
 6455000     1.057114 -4.1678697e-05   0.42086774 0.0054841626            0   0.41538358    1.5658502    1.9867179  -0.14723139 
 6460000    1.0177114 2.9548661e-05   0.47893509 0.0096858522            0   0.46924923     1.507485    1.9864201    3.4993115 
 6465000    1.0179754 2.4748717e-05   0.49241105  0.014328106            0   0.47808295    1.5078761    2.0002872    3.2674215 
 6470000    1.0368458 2.8407238e-05   0.44420002  0.010417122            0    0.4337829    1.5358278    1.9800278    3.4344784 
 6475000   0.93359735 -1.9070974e-05   0.57037008  0.030474481            0    0.5398956    1.3828911    1.9532611   0.97682727 
 6480000   0.89328302 -2.0875467e-05   0.64226335   0.04308263            0   0.59918072    1.3231755    1.9654388   0.89661489 
 6485000   0.96060407 1.5016941e-05   0.49029077  0.022157816            0   0.46813295    1.4228948    1.9131856    2.6820529 
 6490000   0.96433492 -1.361859e-05   0.46057218   0.01151686            0   0.44905532    1.4284211    1.8889933    1.1917215 
 6495000   0.88190486 -1.1357281e-05   0.56484424   0.01736338            0   0.54748086    1.3063216    1.8711658    1.2896731 
 6500000   0.96678248 -2.7483424e-05   0.43865876  0.010644354            0   0.42801441    1.4320466    1.8707053   0.46355399 
 6505000   0.93885909 5.5408845e-06   0.49729843   0.01739159            0   0.47990684     1.390685    1.8879835    2.1716767 
 6510000   0.94488269 5.1842678e-05   0.48799546  0.011697222            0   0.47629824    1.3996075    1.8876029     4.541948 
 6515000   0.90326656 -3.8160808e-05   0.53744483  0.017518924            0   0.51992591    1.3379636    1.8754084 -0.078424952 
 6520000   0.95234757 -2.079356e-05   0.44712436  0.027445108            0   0.41967926    1.4106648    1.8577892   0.79315895 
 6525000   0.93451328 4.7381684e-05   0.51565738   0.02272644            0   0.49293094    1.3842478    1.8999052    4.3258474 
 6530000   0.93452725 -2.2279238e-06   0.50977266  0.012546466            0   0.49722619    1.3842685    1.8940411    1.7799714 
 6535000   0.99058364 -3.1672766e-05   0.46635638 0.0030699754            0   0.46328641     1.467302    1.9336584   0.31201277 
 6540000   0.96961781 4.0989604e-05   0.49171292  0.026606461            0   0.46510645    1.4362464    1.9279593     4.026627 
 6545000    0.9301507 6.049245e-06   0.56182211  0.030090969            0   0.53173114    1.3777857    1.9396078    2.2493292 
 6550000   0.98204277 -5.4506332e-05   0.50616158 0.0045752554            0   0.50158633    1.4546508    1.9608124  -0.82991178 
 6555000    1.0491789 -4.5425003e-05    0.4236955 0.0023772261            0   0.42131828    1.5540962    1.9777917  -0.34796846 
 6560000   0.99716144 -7.4890187e-05   0.49408497 0.0096678019            0   0.48441717    1.4770454    1.9711304   -1.8632472 
 6565000   0.97381594 -4.601397e-05    0.5364711  0.028224818            0   0.50824629    1.4424649     1.978936  -0.37697929 
 6570000   0.87178029 7.397165e-05   0.65103096  0.031879417            0   0.61915154    1.2913246    1.9423555     5.729704 
 6575000   0.97316394 0.00019471924     0.473285  0.004511184            0   0.46877382    1.4414991    1.9147841    11.884409 
 6580000    0.9441009 2.9592359e-05   0.50558505  0.033883938            0   0.47170111    1.3984495    1.9040345    3.4191633 
 6585000   0.92905022 -6.0062729e-05   0.56703219  0.021331273            0   0.54570092    1.3761556    1.9431878   -1.1320239 
 6590000   0.99770134 3.1711076e-05    0.4725395  0.010668401            0    0.4618711    1.4778451    1.9503846    3.5739917 
 6595000    1.0213148 -4.0320797e-05   0.43406351  0.009447321            0   0.42461619    1.5128225     1.946886  -0.11753877 
 6600000   0.88532848 -0.00012781013   0.58505767 0.0056752064            0   0.57938246    1.3113928    1.8964505   -4.6474284 
 6605000   0.97173453 -3.6661404e-06   0.46061885 0.0024899118            0   0.45812893    1.4393818    1.9000006    1.7122942 
 6610000   0.99445433 5.074303e-06   0.47684972 0.0031509397            0   0.47369878    1.4730355    1.9498852    2.2096895 
 6615000    1.0655153 -4.3796092e-05    0.3817531  0.021354234            0   0.36039887    1.5782945    1.9600476  -0.28231227 
 6620000    0.9436663 2.8917381e-05   0.56116229  0.033096637            0   0.52806566    1.3978057     1.958968    3.4395379 
 6625000   0.91881293 -5.3008161e-05   0.56744762  0.047038088            0   0.52040954    1.3609917    1.9284393  -0.78557855 
 6630000   0.96727473 -1.116697e-05   0.50337526  0.035759374            0   0.46761589    1.4327757     1.936151    1.3644021 
 6635000    1.0617515 6.0412764e-05   0.40321395   0.02066007            0   0.38255388    1.5727194    1.9759334    5.0690669 
 6640000   0.97227746 6.1694123e-05   0.55137825  0.022005876            0   0.52937237     1.440186    1.9915642    5.1503033 
 6645000   0.97209601 6.5502304e-05   0.55054485  0.028098128            0   0.52244672    1.4399172    1.9904621      5.34418 
 6650000    1.0628913 -5.155725e-05    0.4054503  0.017497437            0   0.38795286    1.5744078    1.9798581  -0.65987315 
 6655000    1.0258089 -0.00011939228   0.47616049 0.0010890671            0   0.47507142    1.5194794    1.9956399   -4.1172449 
 6660000   0.96950123 -1.7218082e-06   0.56075671 0.0079298823            0   0.55282683    1.4360737    1.9968304    1.9086738 
 6665000    1.0894237 1.589201e-05   0.38617641  0.025958974            0   0.36021743    1.6137089    1.9998853    2.8135562 
 6670000    1.0332517 -4.0169103e-05   0.49360342  0.023783552            0   0.46981987    1.5305041    2.0241076 -0.032550524 
 6675000    1.0226066 -3.0796876e-05   0.52987581  0.040177103            0   0.48969871    1.5147361    2.0446119   0.46781182 
 6680000    1.0221309 -2.6624725e-05   0.49383955  0.058500216            0   0.43533933    1.5140314    2.0078709   0.64468501 
 6685000     1.016358 5.9277796e-06   0.47793042  0.033868032            0   0.44406239    1.5054803    1.9834107     2.286913 
 6690000    1.0091795 7.9097634e-05   0.50838468  0.019917977            0    0.4884667    1.4948471    2.0032318    6.0530306 
 6695000    1.0653162 2.7336194e-05   0.46262948  0.015994219            0   0.44663526    1.5779996     2.040629    3.4402422 
 6700000    1.0568378 -0.00014026544   0.48747812  0.013123308            0   0.47435482     1.565441    2.0529192   -5.1286712 
 6705000    1.0892797 -1.2197713e-05   0.44615455 0.0034670772            0   0.44268747    1.6134955      2.05965    1.4351271 
 6710000    1.1202593 9.298577e-05   0.41547598 0.00079161138            0   0.41468437    1.6593841    2.0748601    6.8357315 
 6715000    1.0589936 -1.2438658e-05   0.49685609 0.00059497235            0   0.49626111    1.5686343    2.0654904    1.4286311 
 6720000    1.0350955 3.7912285e-05   0.51857348  0.001774868            0   0.51679862    1.5332353    2.0518087    3.9929177 
 6725000    1.0491272 -8.3239584e-05   0.53316485  0.018680252            0    0.5144846    1.5540197    2.0871846   -2.1746822 
 6730000    1.1169256 -9.2278682e-05   0.44601813  0.018579694            0   0.42743844    1.6544461    2.1004642   -2.6242043 
 6735000     1.048683 -4.4383245e-05   0.52911252   0.01558172            0    0.5135308    1.5533616    2.0824742  -0.18994798 
 6740000    1.0414348 -7.7701163e-05   0.55728434 0.0037715376            0    0.5535128    1.5426253    2.0999097   -1.8783899 
 6745000    1.1237466 1.340158e-05   0.41726733 0.0010808682            0   0.41618646    1.6645496     2.081817    2.7679779 
 6750000    1.0380603 7.0678468e-05   0.53688522  0.016109557            0   0.52077566    1.5376268     2.074512    5.6932496 
 6755000    1.0376198 -2.1541773e-05   0.52838542  0.027441504            0   0.50094392    1.5369744    2.0653598   0.96242102 
 6760000   0.99538719 -0.00020019184   0.61788308  0.023688892            0   0.59419418    1.4744173    2.0923004   -8.1575219 
 6765000    1.0430932 -6.5109384e-05   0.54927056  0.010318495            0   0.53895207    1.5450819    2.0943524    -1.239248 
 6770000     1.064007 1.2092115e-05   0.49195043 0.0066485321            0    0.4853019    1.5760604    2.0680108    2.6871271 
 6775000    1.0961911 4.5271205e-05   0.42125054 0.00094844116            0    0.4203021     1.623733    2.0449835    4.3628693 
 6780000    0.9711572 -1.1324206e-05   0.59098683 0.0014079693            0   0.58957886    1.4385266    2.0295134    1.4497141 
 6785000    1.0778216 4.9828292e-06   0.46355975 0.0018835208            0   0.46167623    1.5965232     2.060083    2.3152038 
 6790000    1.0793268 4.455078e-05   0.44204545  0.004847919            0   0.43719753    1.5987529    2.0407983    4.3217982 
 6795000    1.0680732 9.9877934e-06   0.45403801  0.024034054            0   0.43000395    1.5820834    2.0361214    2.5474965 
 6800000    1.0441558 2.2584545e-05   0.50179675  0.017143713            0   0.48465304    1.5466558    2.0484526    3.2047813 
 6805000   0.99329112 -7.2276231e-05   0.55085782 0.0031932378            0   0.54766458    1.4713125    2.0221703   -1.6783727 
 6810000    1.0522575 -5.508614e-05   0.46604263 0.0072126486            0   0.45882999    1.5586565    2.0246991  -0.79571127 
 6815000   0.99434094 0.00014301551   0.54937904  0.023154213            0   0.52622483    1.4728675    2.0222466    9.3446405 
 6820000    1.0398833 -2.5243405e-05   0.48278767  0.067707538            0   0.41508014    1.5403271    2.0231148   0.73065244 
 6825000    1.0253733 -1.6829718e-05   0.51703516  0.059396055            0   0.45763911    1.5188342    2.0358693    1.1741878 
 6830000    1.0866376 0.00012777532   0.44458843  0.039919508            0   0.40466892    1.6095819    2.0541703    8.5962667 
 6835000    1.0066414 -4.4206706e-05   0.52528606  0.014913099            0   0.51037296    1.4910876    2.0163736  -0.24700975 
 6840000   0.93192208 7.5674276e-05   0.62097038  0.014801799            0   0.60616858    1.3804096      2.00138    5.8759029 
 6845000   0.99647293 -1.1553962e-05   0.51300545  0.015003407            0   0.49800205    1.4760255     1.989031    1.3974681 
 6850000    1.0248967 -1.1244707e-05   0.46910965 0.0088067295            0   0.46030292    1.5181283     1.987238     1.411509 
 6855000    0.9687005 0.00010257379    0.5263514 0.0072839914            0   0.51906741    1.4348876     1.961239     7.213017 
 6860000    1.0478355 4.1074764e-05   0.39894137   0.02497226            0   0.37396911    1.5521063    1.9510477    4.0540756 
 6865000   0.99227589 -3.8153364e-05   0.50858747  0.059711623            0   0.44887585    1.4698087    1.9783961  0.024943906 
 6870000    1.0367394 9.8736996e-06   0.45386376  0.032087378            0   0.42177638    1.5356703     1.989534    2.4950674 
 6875000   0.97891243 3.8236346e-05   0.51254086 0.0084575488            0   0.50408331     1.450014    1.9625549    3.9202558 
 6880000    1.0120258 -2.3329286e-05   0.45060744  0.022078404            0   0.42852903    1.4990632    1.9496707   0.75521119 
 6885000   0.98577253 4.8359108e-05     0.466729  0.010468368            0   0.45626064    1.4601756    1.9269046    4.4028909 
 6890000     1.004856 7.9898467e-05   0.44075278 0.00010352713            0   0.44064925     1.488443    1.9291958    6.0199973 
 6895000    1.0707829 -5.9905097e-05   0.36402761  0.012466216            0    0.3515614    1.5860972    1.9501249   -1.1170161 
 6900000   0.99179516 -0.00011426428   0.50990596  0.055542097            0   0.45436386    1.4690966    1.9790025   -3.8713285 
 6905000    0.9429995 -4.5592506e-05   0.55318098  0.014180349            0   0.53900063     1.396818     1.949999   -0.3843373 
 6910000   0.99275166 -5.268262e-05   0.48058928  0.027983175            0   0.45260611    1.4705134    1.9511027  -0.74624745 
 6915000    1.0072264 -5.5914025e-05   0.47970748  0.030585386            0    0.4491221    1.4919541    1.9716616  -0.89113643 
 6920000    1.0547613 6.1527006e-05   0.40016785  0.020539652            0    0.3796282    1.5623651     1.962533    5.1127157 
 6925000   0.99726675 0.00011868063   0.48031366  0.019823049            0   0.46049061    1.4772014     1.957515    8.0339633 
 6930000   0.98295155 -5.1151217e-05   0.48944775  0.017161172            0   0.47228658     1.455997    1.9454447  -0.67349759 
 6935000    1.0330989 -3.1146424e-05   0.43326188  0.019562918            0   0.41369897    1.5302778    1.9635397   0.36884281 
 6940000    1.0050724 3.8211672e-05   0.45988547 0.0097907667            0   0.45009471    1.4887635     1.948649    3.9050866 
 6945000    1.0627832 -2.1396262e-05   0.36769381  0.018909479            0   0.34878433    1.5742476    1.9419414   0.84645274 
 6950000   0.97885005 -5.8535747e-05   0.49157366 0.0047206496            0   0.48685301    1.4499216    1.9414953    -1.055535 
 6955000    0.9870407 1.992733e-05   0.47527364 0.00058159658            0   0.47469204     1.462054    1.9373277     2.957607 
 6960000    1.0249064 -6.0856991e-05    0.4115168 0.0021681719            0   0.40934863    1.5181426    1.9296594   -1.1862185 
 6965000   0.98342021 -9.7475236e-05   0.49479574 0.0076418759            0   0.48715386    1.4566912    1.9514869   -3.0392452 
 6970000    1.0242142 6.596209e-06   0.42750174   0.01401877            0   0.41348297    1.5171173     1.944619    2.2823449 
 6975000   0.94706583 5.184172e-05   0.51741659 0.0071119378            0   0.51030466    1.4028413    1.9202579    4.5745539 
 6980000    1.0512555  -1.1459e-05   0.37784671  0.014104292            0   0.36374241    1.5571723     1.935019    1.3483181 
 6985000    1.0140898 -7.1792224e-05   0.42854448  0.032695191            0   0.39584929    1.5021206     1.930665   -1.7450968 
 6990000    0.9552574 -1.5998825e-05   0.52471482 0.0075129004            0   0.51720192     1.414975    1.9396898      1.12055 
 6995000   0.91305862 -4.2439517e-05   0.56806038 0.0098989097            0   0.55816147    1.3524681    1.9205285  -0.25237482 
 7000000   0.98072488 7.8471786e-05   0.46239791  0.042496404            0    0.4199015    1.4526987    1.9150966    5.9328521 
 7005000   0.91053197 2.6108227e-06   0.56259367  0.013206065            0    0.5493876    1.3487255    1.9113191    2.0449933 
 7010000   0.98510878 2.6593903e-05   0.45423779   0.04123978            0   0.41299801    1.4591924    1.9134302     3.275038 
 7015000    0.9491114 5.8228761e-07   0.50132117  0.043374225            0   0.45794694    1.4058713    1.9071924    1.9370056 
 7020000   0.93987404 0.00010327449   0.47223032  0.034813682            0   0.43741664    1.3921884    1.8644187    7.1520728 
 7025000   0.99698544 7.9024268e-05   0.34722492  0.011010091            0   0.33621483    1.4767847    1.8240096    5.8700521 
 7030000   0.97477257 -6.8141693e-05   0.40999254  0.014507595            0   0.39548494    1.4438819    1.8538744   -1.6349803 
 7035000   0.96338349 8.952334e-06   0.42073181 0.0097956409            0   0.41093617    1.4270118    1.8477436    2.3061031 
 7040000   0.91320154 -7.241522e-05   0.50873011  0.020239324            0   0.48849078    1.3526798    1.8614099   -1.8462494 
 7045000   0.95234223 -1.5087118e-05   0.48847622  0.060010831            0   0.42846539    1.4106569    1.8991331    1.1266727 
 7050000   0.96411567 -0.00014251303   0.45918789  0.052341269            0   0.40684662    1.4280963    1.8872842   -5.4093829 
 7055000   0.95436255 8.7253656e-05   0.48126531  0.034034812            0    0.4472305    1.4136495    1.8949148     6.362302 
 7060000   0.88358801 2.0615451e-05   0.56588604 0.0015019306            0   0.56438411    1.3088147    1.8747008    2.9302119 
 7065000    1.0301938 -9.3140657e-05     0.360892  0.002348656            0   0.35854334    1.5259746    1.8868666    -2.881935 
 7070000   0.97596988 -6.9689536e-05   0.45859645 0.0030878451            0    0.4555086    1.4456554    1.9042518   -1.6638524 
 7075000   0.95519051 5.1467878e-05   0.49187824 0.0012481804            0   0.49063006    1.4148759    1.9067542    4.5419095 
 7080000   0.91075209 4.0361996e-07   0.54616381  0.012814616            0   0.53334919    1.3490515    1.8952153    1.9158807 
 7085000    1.0139758 3.1853158e-05   0.38201192  0.014899921            0     0.367112    1.5019517    1.8839636    3.5148453 
 7090000   0.93113061 -2.2045807e-05   0.52629188  0.021123839            0   0.50516804    1.3792372    1.9055291   0.77678377 
 7095000   0.98500086 3.9261815e-05   0.44150403  0.029737071            0   0.41176696    1.4590325    1.9005366    3.9107415 
 7100000   0.86631409 9.5987668e-05   0.65041759  0.020546222            0   0.62987136    1.2832277    1.9336453    6.8482139 
 7105000    1.0206719 -0.0001389682   0.41982068  0.012734279            0    0.4070864    1.5118703     1.931691   -5.1834808 
 7110000   0.97240393 -0.00018194458   0.48824626 0.0051652737            0   0.48308099    1.4403733    1.9286196   -7.3869428 
 7115000   0.97455083 -4.9562823e-05   0.48333484  0.010560917            0   0.47277392    1.4435534    1.9268883  -0.61072826 
 7120000     0.932872 3.0729324e-05   0.53170063  0.028833571            0   0.50286706    1.3818166    1.9135173    3.4868587 
 7125000   0.88121265 0.00011995996   0.59328226  0.053154786            0   0.54012747    1.3052962    1.8985785    8.0405284 
 7130000   0.97264866 7.7741144e-05   0.47004273  0.067544008            0   0.40249872    1.4407358    1.9107786    5.8911251 
 7135000   0.98986305 -0.00012454158   0.47186858  0.039423222            0   0.43244536    1.4662346    1.9381032   -4.4384256 
 7140000   0.94544841 -0.00012012403   0.51429118  0.032600226            0   0.48169096    1.4004455    1.9147366   -4.2356135 
 7145000   0.98812673 -1.2170342e-05   0.44521152  0.015870751            0   0.42934077    1.4636627    1.9088742    1.2857528 
 7150000    1.0515231 3.1003585e-05   0.36118864  0.029413213            0   0.33177542    1.5575686    1.9187573    3.5061408 
 7155000   0.98827683 6.1996921e-05   0.46552073 0.0075738789            0   0.45794685    1.4638851    1.9294058    5.1036481 
 7160000   0.92230813 0.00010577845   0.57655911 0.0028619103            0    0.5736972    1.3661689     1.942728    7.3585847 
 7165000   0.96633658 8.7745703e-05   0.50188762 0.0021620337            0   0.49972558    1.4313861    1.9332737    6.4258537 
 7170000   0.97553235 3.0122148e-05   0.49022028   0.01793548            0    0.4722848    1.4450073    1.9352276    3.4774816 
 7175000     1.020817 4.0708314e-06   0.44089898   0.03149378            0    0.4094052    1.5120851    1.9529841    2.1614107 
 7180000   0.94790681 -9.2383196e-05   0.55371197 0.0032223636            0   0.55048961     1.404087    1.9577989   -2.7722207 
 7185000   0.99469777 -1.2008326e-05   0.47835931 0.0088284111            0    0.4695309    1.4733961    1.9517554    1.3369291 
 7190000    1.0389562 -4.9575201e-05   0.45725578  0.023899649            0   0.43335613    1.5389538    1.9962096  -0.54204069 
 7195000    1.0244639 -5.3034003e-05   0.49240404  0.023646332            0    0.4687577    1.5174871    2.0098912  -0.70544979 
 7200000    1.0807188 -2.5636848e-05   0.46188232 0.0032537974            0   0.45862852    1.6008147     2.062697   0.75009037 
 7205000    1.0262458 -0.00013691819   0.56320063            0            0   0.56320063    1.5201266    2.0833272   -4.9268841 
 7210000    1.0326594 2.4154682e-05   0.54519827 0.0036070351            0   0.54159123    1.5296267    2.0748249    3.3115447 
 7215000    1.0023528 9.841233e-05   0.56967847  0.026524063            0    0.5431544    1.4847351    2.0544136    7.0931249 
 7220000    1.0666406 -5.291105e-05   0.49447454   0.02144666            0   0.47302788    1.5799615     2.074436  -0.63460977 
 7225000    1.1406475 1.4398328e-05   0.40414225  0.019155559            0    0.3849867    1.6895842    2.0937264    2.8309208 
 7230000     1.057439 -1.9848576e-05   0.51654812 0.0047646871            0   0.51178344    1.5663315    2.0828796    1.0666325 
 7235000    1.0718062 -0.00010495089   0.47777088 0.0021376231            0   0.47563326    1.5876129    2.0653838   -3.3081016 
 7240000    1.0883169 -5.499956e-08   0.44833649  0.016813131            0   0.43152336    1.6120694    2.0604059    2.0575899 
 7245000   0.94769124 5.1115524e-05   0.63377767  0.024730511            0   0.60904716    1.4037677    2.0375453    4.6546602 
 7250000   0.93840419 5.4316105e-05   0.64938744  0.024021046            0   0.62536639    1.3900112    2.0393986    4.8203832 
 7255000   0.98283545 1.0836663e-05     0.544517  0.031381056            0   0.51313594     1.455825     2.000342    2.5551792 
 7260000   0.99600441 -9.8228905e-07    0.5527538   0.06715167            0   0.48560213    1.4753315    2.0280853    1.9777921 
 7265000   0.99039241 -6.6278648e-06   0.54277838  0.017445444            0   0.52533293    1.4670188    2.0097971    1.6704505 
 7270000    1.0395097 7.7862696e-05   0.48560381 0.0045938286            0   0.48100999    1.5397737    2.0253775    6.0119475 
 7275000    1.0274736 9.1561259e-05   0.49791389 0.00095406509            0   0.49695983    1.5219452    2.0198591    6.7077955 
 7280000    1.0020764 -1.5852223e-05    0.5230419 0.0053691947            0    0.5176727    1.4843256    2.0073675    1.1957337 
 7285000   0.97817505 1.1535579e-05   0.53070394  0.023455229            0   0.50724871    1.4489218    1.9796257    2.5702474 
 7290000    1.0379022 4.5851704e-05   0.42304554 0.0023519345            0    0.4206936    1.5373926    1.9604381    4.3080453 
 7295000    1.0335185 3.5576077e-05   0.42175389 0.0017151117            0   0.42003878    1.5308993    1.9526532    3.7741483 
 7300000   0.94236083 5.0027305e-05   0.52844471 0.0099216095            0    0.5185231     1.395872    1.9243167    4.4857147 
 7305000   0.92174314 0.00015886309   0.56837067  0.023164054            0   0.54520661     1.365332    1.9337027    10.067493 
 7310000   0.96176665 0.0001672899   0.54398722 0.0096205763            0   0.53436664    1.4246168    1.9686041    10.533847 
 7315000   0.94743987 -0.00012021985   0.53325337   0.03737683            0   0.49587654    1.4033953    1.9366487   -4.2186076 
 7320000    1.0033406 -4.0845597e-05   0.45144662   0.04632661            0   0.40512001    1.4861982    1.9376448  -0.15364975 
 7325000   0.97254006 0.00011305835   0.50864253  0.025229585            0   0.48341295     1.440575    1.9492175    7.7378049 
 7330000    0.9679225 -5.4807021e-05   0.49094485  0.038139578            0   0.45280527    1.4337352    1.9246801   -0.8814394 
 7335000    1.0201201 -8.138101e-05   0.41435192  0.024418986            0   0.38993293     1.511053    1.9254049   -2.2413028 
 7340000    1.0004158 3.1311103e-05    0.4548686  0.025906045            0   0.42896255    1.4818659    1.9367345     3.539863 
 7345000   0.91288931 8.3293776e-05   0.59339237  0.009292732            0   0.58409964    1.3522173    1.9456097     6.210251 
 7350000    1.0350667 0.00011031841   0.39719716 0.0051954019            0   0.39200176    1.5331925    1.9303896    7.5786922 
 7355000   0.98769557 4.6817908e-05   0.46732699  0.013761617            0   0.45356537    1.4630241    1.9303511    4.3274279 
 7360000   0.92247786 3.3162158e-05   0.57158514  0.032498951            0   0.53908619    1.3664203    1.9380055    3.6359079 
 7365000     1.001644 4.3229032e-05   0.49194004  0.028927153            0   0.46301289    1.4836851    1.9756251    4.1889516 
 7370000   0.97452892 1.4595183e-07   0.53063679  0.019077768            0   0.51155902     1.443521    1.9741577    1.9816305 
 7375000   0.98305179 -4.5223667e-05   0.50021611  0.028006231            0   0.47220988    1.4561455    1.9563616  -0.35909019 
 7380000   0.92813721 -3.9187153e-06   0.56792113  0.053011458            0   0.51490967    1.3748032    1.9427244    1.7420861 
 7385000   0.94884762 9.2181619e-05   0.54236724  0.043888314            0   0.49847892    1.4054805    1.9478478    6.6675467 
 7390000   0.95619224 3.7132585e-05   0.50307199 0.0062777261            0   0.49679426    1.4163598    1.9194317    3.8206201 
 7395000   0.92416844 -8.266025e-05   0.53204004 0.0068459121            0   0.52519413    1.3689245    1.9009645   -2.3312403 
 7400000    0.9252661 -2.6041166e-05   0.51060837  0.020298367            0      0.49031    1.3705504    1.8811588   0.54785108 
 7405000   0.94257801 9.7352627e-05   0.48396859  0.021155572            0   0.46281302    1.3961937    1.8801623    6.8646168 
 7410000   0.96096615 0.00010496085   0.47145238  0.021786397            0   0.44966599    1.4234311    1.8948835     7.268879 
 7415000   0.88146901 2.0005674e-05   0.59316878  0.025917353            0   0.56725143     1.305676    1.8988448    2.9231353 
 7420000   0.93805418 -2.5939661e-05    0.4970869  0.029907917            0   0.46717898    1.3894928    1.8865797   0.55846901 
 7425000   0.88718318 -5.1596888e-05   0.56108959  0.044664687            0    0.5164249    1.3141401    1.8752297    -0.766531 
 7430000   0.95635055 -5.3625231e-05   0.47662708   0.01920835            0   0.45741873    1.4165943    1.8932213  -0.85239049 
 7435000   0.87291477 -4.108287e-05   0.57999717  0.025226134            0   0.55477104     1.293005    1.8730022  -0.23044076 
 7440000   0.91331527 -1.1840871e-05   0.55172087  0.025410537            0   0.52631033    1.3528482    1.9045691    1.2983165 
 7445000     1.011065 1.4898487e-05   0.43762245  0.005892947            0    0.4317295      1.49764    1.9352624    2.6980649 
 7450000   0.94470053 6.1423942e-05   0.55766449  0.010744246            0   0.54692024    1.3993377    1.9570021     5.101908 
 7455000    1.0262993 6.9717489e-05   0.42292229 0.0081681359            0   0.41475415    1.5202058    1.9431281    5.5126635 
 7460000   0.92625433 1.8856549e-06   0.55334591 0.0086267014            0   0.54471921    1.3720142    1.9253601    2.0219057 
 7465000   0.94692721 -2.368396e-05   0.49928545  0.029892886            0   0.46939256    1.4026359    1.9019214   0.68930263 
 7470000     1.009921 -6.5377222e-06   0.38407875  0.013732554            0    0.3703462    1.4959454    1.8800242    1.5452928 
 7475000   0.83411402 -5.4575991e-05   0.61675877  0.030317202            0   0.58644157    1.2355314    1.8522902  -0.94200055 
 7480000   0.90209009 -2.9185824e-05   0.51516437  0.022089749            0   0.49307462     1.336221    1.8513853   0.35707116 
 7485000   0.88025486 3.8756346e-05   0.55579436  0.050677194            0   0.50511716    1.3038775    1.8596719    3.8439968 
 7490000   0.90582713 -1.4549528e-05   0.50936396  0.020910316            0   0.48845364    1.3417564    1.8511204    1.1061845 
 7495000   0.91567224 1.1879584e-05   0.46919587  0.016830137            0   0.45236574    1.3563395    1.8255354    2.4337701 
 7500000   0.89410173 0.00011193737   0.49521164  0.011356028            0   0.48385561    1.3243882    1.8195998     7.550793 
 7505000   0.93835881 2.8598937e-05   0.43483623  0.032435682            0   0.40240055     1.389944    1.8247802    3.2890458 
 7510000   0.91058236 5.2824076e-05    0.5048658  0.020063682            0   0.48480212    1.3488001    1.8536659    4.5582586 
 7515000   0.94358331 4.6138316e-05   0.42838537  0.020556736            0   0.40782863    1.3976828    1.8260681    4.1883499 
 7520000   0.87270234 3.3661624e-05    0.5289304  0.033915028            0   0.49501537    1.2926903    1.8216207    3.5450959 
 7525000   0.86339437 9.8731652e-05   0.59058816   0.03812472            0   0.55246344    1.2789029    1.8694911    6.9245517 
 7530000   0.98740139 3.6893101e-05   0.41810236  0.024376006            0   0.39372635    1.4625883    1.8806907    3.7696174 
 7535000    0.9710482 -1.2637806e-05   0.45129578  0.021410145            0   0.42988563    1.4383651    1.8896609    1.2426052 
 7540000   0.94211035 5.5346795e-05   0.47100838  0.014559235            0   0.45644915     1.395501    1.8665093    4.7002652 
 7545000   0.94450369 3.0482743e-05   0.47556978  0.014895443            0   0.46067434    1.3990461    1.8746159    3.4353323 
 7550000   0.95990327 -4.4988761e-05    0.4638999  0.040244842            0   0.42365506    1.4218567    1.8857566  -0.41766797 
 7555000   0.87476784 2.8606596e-05   0.54329991  0.049512395            0   0.49378752    1.2957499    1.8390498    3.3037075 
 7560000   0.88710122 6.5831896e-05   0.55359732  0.079368814            0    0.4742285    1.3140187     1.867616    5.2382091 
 7565000    0.8861428 -2.8404297e-05   0.55789389  0.029878303            0   0.52801559     1.312599    1.8704929   0.41619288 
 7570000   0.94302246 -1.8378792e-05   0.48666524  0.012870002            0   0.47379523     1.396852    1.8835172   0.94252312 
 7575000   0.97728278 3.7956717e-05   0.45056424 0.0036603626            0   0.44690388    1.4476001    1.8981644    3.8415483 
 7580000   0.95322039 1.7308243e-05   0.48806353 0.0065770053            0   0.48148653    1.4119577    1.9000212    2.7862033 
 7585000   0.95352808 -4.3915145e-05   0.49188051  0.014416205            0   0.47746431    1.4124135     1.904294  -0.34416143 
 7590000   0.96294938 -4.7077293e-05   0.48410684  0.051210188            0   0.43289665    1.4263688    1.9104756  -0.49988178 
 7595000   0.90251795 -0.0001025275   0.56870193  0.023934145            0   0.54476779    1.3368547    1.9055566   -3.3438516 
 7600000   0.98762267 -0.00010991553   0.43850989   0.01142849            0    0.4270814    1.4629161     1.901426   -3.7262491 
 7605000    0.8858643 2.4784569e-05   0.60047749  0.052419713            0   0.54805778    1.3121865     1.912664    3.1816339 
 7610000   0.93482129 0.00014382513   0.52811032  0.052664479            0   0.47544584     1.384704    1.9128144    9.2766609 
 7615000   0.91036703 8.7328972e-05   0.58145164  0.082889964            0   0.49856168    1.3484812    1.9299328    6.4011762 
 7620000   0.99525547 -7.1208891e-06   0.48637342  0.031585267            0   0.45478816    1.4742222    1.9605956    1.5960061 
 7625000    1.0030063 1.488696e-05   0.51254118   0.03899356            0   0.47354762    1.4857031    1.9982443    2.7604566 
 7630000   0.98181339 1.8891689e-05   0.55514417  0.051696376            0    0.5034478    1.4543111    2.0094553    2.9767097 
 7635000    1.0168626 -3.0245969e-06   0.55236916  0.010090893            0   0.54227827    1.5062278     2.058597    1.9037376 
 7640000    1.0561151 -2.2485992e-05   0.49055911  0.052302076            0   0.43825703    1.5643705    2.0549296   0.90364687 
 7645000    1.0600648 -6.5796782e-05   0.51189693  0.036664519            0   0.47523241     1.570221    2.0821179   -1.2866773 
 7650000    1.0396369 -0.00014228734    0.5353835  0.020305328            0   0.51507818    1.5399621    2.0753456    -5.209766 
 7655000    1.0122406 -0.00013679476   0.56213939 0.0026301495            0   0.55950924    1.4993814    2.0615207   -4.9423707 
 7660000     1.066455 4.6187445e-05   0.45243665  0.012404674            0   0.44003198    1.5796865    2.0321231    4.3969203 
 7665000    1.0349484 7.9851714e-05   0.50545403  0.014632631            0    0.4908214    1.5330173    2.0384713    6.1268791 
 7670000   0.95995117 -8.8437495e-05   0.62087985  0.041944544            0    0.5789353    1.4219277    2.0428075   -2.4851922 
 7675000   0.96339407 -6.1902816e-05   0.61709186  0.084999542            0   0.53209231    1.4270275    2.0441193   -1.1253049 
 7680000    1.0407217 9.598452e-05     0.495698  0.016365208            0   0.47933279    1.5415691    2.0372671    6.9516745 
 7685000    1.0554639 5.8507878e-05   0.48420937  0.034860683            0   0.44934869    1.5634059    2.0476153    5.0432186 
 7690000    1.0256271 -0.00011190392   0.55112105  0.007964733            0   0.54315632    1.5192102    2.0703312   -3.6591495 
 7695000     1.071709 -5.9361224e-05   0.49645904 0.0018158645            0   0.49464318    1.5874689     2.083928  -0.95536673 
 7700000    1.0004326 0.00015372675   0.60591428 0.0046698881            0   0.60124439    1.4818908    2.0878051    9.9586149 
 7705000     1.074802 8.0171378e-05   0.53710463 0.0089255305            0    0.5281791    1.5920505    2.1291551    6.2339297 
 7710000    1.0938697 -7.1752946e-05   0.50941225 0.0091881275            0   0.50022412    1.6202945    2.1297067   -1.5440441 
 7715000     1.035441 2.569455e-05   0.60266453  0.038842155            0   0.56382237     1.533747    2.1364115    3.4519725 
 7720000    1.0642101 5.5013442e-05   0.55293967  0.049979172            0    0.5029605    1.5763613     2.129301    4.9459892 
 7725000    1.0622013 4.8354373e-05   0.53695485  0.020858086            0   0.51609676    1.5733857    2.1103406    4.5860845 
 7730000    1.1174449 3.7494204e-05   0.46802027   0.04542207            0    0.4225982    1.6552153    2.1232356    4.0429388 
 7735000    1.0222357 0.00010123202   0.57008781  0.088071666            0   0.48201614    1.5141866    2.0842744    7.2673539 
 7740000    1.0034982 -2.9554014e-05   0.61738091 0.0068839343            0   0.61049697    1.4864317    2.1038126   0.59064703 
 7745000    1.0826074 -5.4504628e-05   0.49415505 5.867998e-05            0   0.49409637    1.6036122    2.0977673  -0.69286969 
 7750000    1.1064281 2.7631888e-05   0.49357938            0            0   0.49357938    1.6388967    2.1324761    3.5472287 
 7755000     1.033414 -5.0999109e-05   0.57407037 0.0010227497            0   0.57304762    1.5307444    2.1048148  -0.50633957 
 7760000    1.0669691 -3.2331792e-05   0.53430306  0.026320866            0   0.50798219     1.580448     2.114751   0.45936326 
 7765000    1.0238769 -3.0561621e-05   0.58094748  0.069561353            0   0.51138612    1.5166176    2.0975651   0.53281011 
 7770000    1.0862137 9.6771734e-05   0.46589357  0.036175711            0   0.42971786    1.6089541    2.0748477    7.0295605 
 7775000    1.0473556 1.1631888e-05   0.53156493 0.0094046713            0   0.52216026    1.5513955    2.0829605    2.6785131 
 7780000    1.0352368 -5.0180112e-05   0.55559113 0.0054933023            0   0.55009783    1.5334445    2.0890356  -0.48018613 
 7785000    1.0669507 5.2982069e-05   0.51693871    0.0113292            0   0.50560951    1.5804207    2.0973594    4.8100414 
 7790000    1.1068484 -1.4165125e-05   0.48992945  0.015285633            0   0.47464381    1.6395192    2.1294487    1.4041943 
 7795000    1.1524698 -0.00013190351   0.41529404  0.010631133            0   0.40466291    1.7070958    2.1223899   -4.6310698 
 7800000    1.0954336 -0.0001635678   0.51014057  0.037439415            0   0.47270116     1.622611    2.1327516     -6.24192 
 7805000    1.1031353 1.653173e-05   0.47382723  0.049602278            0   0.42422495    1.6340192    2.1078464     2.954271 
 7810000    1.0046931 -2.8882856e-05   0.60032375  0.019264621            0   0.58105913    1.4882017    2.0885255   0.60972325 
 7815000    1.0399008 3.0584268e-05   0.57520783  0.010665755            0   0.56454207     1.540353    2.1155608    3.6814754 
 7820000     1.154007 0.00022843947   0.41710924  0.010480569            0   0.40662867    1.7093729    2.1264821    13.822583 
 7825000    1.0968793 8.9414873e-05   0.53859995 0.0029118488            0   0.53568811    1.6247524    2.1633524    6.7413939 
 7830000    1.0441208 -6.298789e-05   0.59095989            0            0   0.59095989    1.5466039    2.1375638   -1.0874162 
 7835000    1.0451567 3.3085858e-05    0.6069081            0            0    0.6069081    1.5481383    2.1550464    3.8490423 
 7840000    1.1626845 7.7880903e-05   0.44127107 0.0057683195            0   0.43550275    1.7222264    2.1634974    6.1509997 
 7845000    1.1618605 9.224977e-05   0.44267056  0.013622706            0   0.42904785    1.7210059    2.1636765    6.8868647 
 7850000    1.1471343 -6.8651659e-05   0.46887261 0.0050078509            0   0.46386476    1.6991927    2.1680653   -1.3468997 
 7855000    1.0544636 -3.0484821e-05   0.60273864  0.015096149            0   0.58764249    1.5619242    2.1646628   0.60383997 
 7860000    1.0810714 6.0157366e-05   0.56874235  0.028451664            0   0.54029069     1.601337    2.1700794    5.2501365 
 7865000     1.103578 4.1518463e-05   0.52081974   0.02989483            0   0.49092491    1.6346749    2.1554946    4.2812399 
 7870000    1.0161576 -1.8674391e-05   0.65632338  0.022245913            0   0.63407747    1.5051834    2.1615068     1.205378 
 7875000    1.1319571 7.3309523e-05   0.48929337   0.04302793            0   0.44626544    1.6767114    2.1660048    5.9194524 
 7880000    1.1196634 0.00011431738   0.47267759  0.023929947            0   0.44874765    1.6585015    2.1311791    7.9842291 
 7885000    1.1126022 6.6639759e-05   0.49190007  0.037552481            0   0.45434759     1.648042     2.139942    5.5518977 
 7890000    1.0956412 2.9612398e-05   0.49670424   0.01882139            0   0.47788285    1.6229186    2.1196228    3.6357776 
 7895000     1.109204 -3.7956305e-06   0.47432837  0.012774664            0   0.46155371    1.6430085    2.1173368    1.9230006 
 7900000    1.1252628 -5.6775764e-05   0.44700294  0.017008858            0   0.42999408    1.6667955    2.1137984   -0.7931207 
 7905000   0.98565344 -2.5533347e-05   0.64018274  0.020436141            0    0.6197466    1.4599992    2.1001819   0.79287454 
 7910000   0.98713314 -1.3401644e-05   0.64544659  0.020435105            0   0.62501148     1.462191    2.1076375    1.4214734 
 7915000    1.0203483 -3.6781697e-05    0.6056544  0.043952405            0   0.56170199     1.511391    2.1170454   0.23382249 
 7920000    1.0710058 -6.7146149e-05    0.5211148  0.033751244            0   0.48736356    1.5864273    2.1075422   -1.3303407 
 7925000    1.0245173 -0.00011056389   0.59048874  0.037596693            0   0.55289205    1.5175662     2.108055   -3.5528162 
 7930000   0.98590805 -7.4233404e-05   0.66632968   0.06208245            0   0.60424723    1.4603763     2.126706   -1.6740443 
 7935000     1.049717 0.00011824317   0.54436987  0.039391275            0   0.50497859    1.5548933    2.0992632    8.1533135 
 7940000    1.0691773 8.4287722e-05   0.53321278  0.019008498            0   0.51420428    1.5837188    2.1169316     6.432463 
 7945000    1.0143528 -5.191199e-06   0.61529518  0.016086531            0   0.59920865    1.5025101    2.1178053    1.8520159 
 7950000    1.0287495 0.00012805355   0.59122346  0.007752493            0   0.58347096    1.5238352    2.1150586    8.6714004 
 7955000    1.0221282 8.2518125e-05    0.5820441  0.052897753            0   0.52914635    1.5140274    2.0960715    6.3209995 
 7960000    1.0225406 -6.4323533e-05   0.60438541  0.059459347            0   0.54492606    1.5146382    2.1190236   -1.1743413 
 7965000    1.0912879 -0.00013025001   0.48813963 0.0057641886            0   0.48237544    1.6164702    2.1046098   -4.5641906 
 7970000    1.0474938 7.3297262e-06   0.58361514 0.0074038905            0   0.57621125    1.5516002    2.1352153    2.5104973 
 7975000    1.0701795 0.00015133076   0.54126091  0.012521172            0   0.52873974    1.5852034    2.1264643     9.874599 
 7980000    1.0989743 0.00012701313   0.46272632  0.021797318            0     0.440929    1.6278557     2.090582    8.5936544 
 7985000   0.97857032 5.3649652e-05   0.64346078  0.025140019            0   0.61832076    1.4495073    2.0929681    4.8398303 
 7990000   0.98599101 5.175916e-06   0.63398509  0.054350448            0   0.57963464    1.4604992    2.0944843    2.3594912 
 7995000   0.98260593 5.0403951e-05   0.66010454  0.063890903            0   0.59621363     1.455485    2.1155896    4.6962719 
 8000000    1.0406684 -1.198611e-06   0.57732121  0.019763372            0   0.55755784      1.54149    2.1188112    2.0574423 
 8005000    1.0096239 -0.0001269907   0.65244961  0.011794832            0   0.64065478    1.4955054     2.147955   -4.3539687 
 8010000    1.0641087 -0.00012485871    0.5714465  0.046842008            0   0.52460449    1.5762111    2.1476576   -4.2451086 
 8015000    1.0632653 -4.7151078e-05   0.56384209  0.052590589            0    0.5112515    1.5749617    2.1388038  -0.27533144 
 8020000    1.0595881 6.1196574e-05   0.56806547 0.0021088341            0   0.56595664    1.5695149    2.1375803    5.2708449 
 8025000    1.0775132 -0.00011740273   0.56347416  0.014569937            0   0.54890422    1.5960664    2.1595405   -3.8514793 
 8030000    1.0581895 -0.00017177452   0.56938678  0.024261209            0   0.54512557    1.5674431    2.1368299   -6.6580255 
 8035000    1.1200999 7.9778141e-05   0.49123391 0.0084007806            0   0.48283313     1.659148    2.1503819    6.2350227 
 8040000    1.1587527 6.2583299e-05   0.46277531 0.0014309627            0   0.46134435    1.7164024    2.1791777    5.3834427 
 8045000    1.0817536 -2.0266566e-05   0.57712379 0.00023716991            0   0.57688662    1.6023475    2.1794713    1.1418231 
 8050000    1.1103333 -6.2117117e-06   0.52426502  0.001474731            0   0.52279029    1.6446811    2.1689462    1.8509065 
 8055000    1.1062737 -4.5048996e-05   0.50500652  0.021194384            0   0.48381213    1.6386679    2.1436744   -0.1628342 
 8060000     1.077335 -1.5707415e-06   0.53783062  0.031766404            0   0.50606422    1.5958025    2.1336331    2.0532112 
 8065000    1.0679735 4.3716844e-05   0.57611818  0.017862683            0   0.55825549    1.5819357    2.1580539    4.3963563 
 8070000    1.0991485 -4.5649027e-05   0.48956207  0.035749793            0   0.45381228    1.6281137    2.1176758  -0.21955436 
 8075000    1.0946418 -0.00014300585   0.48536494  0.033908398            0   0.45145654    1.6214381     2.106803   -5.2150965 
 8080000   0.97603921 -5.5499069e-05   0.64146877 0.0093290849            0   0.63213969    1.4457581    2.0872268  -0.75432547 
 8085000    1.0650583 -2.234739e-05   0.51031556 0.0016457902            0   0.50866977    1.5776176    2.0879331   0.94374675 
 8090000    1.0491343 7.5904167e-07   0.53131756            0            0   0.53131756    1.5540302    2.0853478    2.1242107 
 8095000    1.0650069 -4.4484082e-05   0.47319016 0.00079005965            0    0.4724001    1.5775414    2.0507316  -0.22685343 
 8100000     1.058373 -1.2795179e-05   0.49629432  0.013795905            0   0.48249842     1.567715    2.0640093    1.4088962 
 8105000    1.0678063 -5.9565991e-05   0.48503832  0.013137335            0   0.47190099    1.5816882    2.0667265  -0.98305226 
 8110000    1.0574717 -2.7953865e-05   0.44697087   0.01213096            0   0.43483991      1.56638    2.0133509     0.582113 
 8115000    1.0289262 3.9815315e-05   0.51868015  0.014056316            0   0.50462384    1.5240969    2.0427771    4.0813212 
 8120000    1.0599039 -1.2091607e-05   0.48073663 0.0044269306            0    0.4763097    1.5699826    2.0507192    1.4316289 
 8125000   0.99044007 3.0623576e-05   0.59058917 0.0081003219            0   0.58248885    1.4670893    2.0576785    3.6256056 
 8130000    1.0343732 -7.0001334e-05   0.52116391  0.011662081            0   0.50950183    1.5321653    2.0533292   -1.5307391 
 8135000    1.0783228 -0.00012202966   0.45878107 0.0058083843            0   0.45297269    1.5972656    2.0560467   -4.1918722 
 8140000     1.033105 8.5743494e-05   0.52609643   0.01466796            0   0.51142847    1.5302867    2.0563832    6.4464501 
 8145000    1.0075746 8.262359e-05   0.58286519  0.017749044            0   0.56511615    1.4924699    2.0753351    6.3056629 
 8150000    1.1065987 -7.0913735e-05   0.43025299  0.010776997            0     0.419476    1.6391493    2.0694023   -1.5613809 
 8155000    1.0188287 -2.9465746e-05   0.55979554  0.012819638            0    0.5469759      1.50914    2.0689355   0.56028931 
 8160000   0.95500928 3.9246117e-05   0.64768516  0.031297665            0   0.61638749    1.4146075    2.0622927    4.0716938 
 8165000    1.0933059 9.3783438e-05   0.45663521  0.018998938            0   0.43763627    1.6194594    2.0760946    6.8778067 
 8170000    1.0440381 2.4964075e-05   0.54384661  0.022332722            0   0.52151389    1.5464815    2.0903281    3.3684887 
 8175000   0.95384642 -0.00011676674   0.71411523  0.035865826            0    0.6782494     1.412885    2.1270002   -3.8514567 
 8180000    1.1175138 1.7711416e-06    0.4847894  0.012581396            0   0.47220801    1.6553173    2.1401067    2.2307892 
 8185000    1.0609196 6.9331396e-05   0.52041473 0.0093098043            0   0.51110493    1.5714871    2.0919019    5.6416693 
 8190000     1.037949 -7.8470738e-05   0.54702834  0.020390244            0    0.5266381    1.5374619    2.0844903   -1.9332115 
 8195000    1.0607514 -0.0001556711   0.52240935   0.02443439            0   0.49797496     1.571238    2.0936473   -5.8767132 
 8200000    1.0299747 -3.8851717e-05   0.55371747  0.015372614            0   0.53834486    1.5256501    2.0793675  0.090159626 
 8205000    1.0560574 1.1371166e-06    0.5352865  0.015979595            0   0.51930691     1.564285    2.0995715    2.1577919 
 8210000    1.0119363 -6.6199223e-05   0.57739751  0.010573703            0    0.5668238    1.4989306    2.0763281   -1.3130721 
 8215000    1.0398311 6.8768377e-06    0.5515465  0.011917908            0   0.53962859    1.5402498    2.0917963    2.4438904 
 8220000   0.96946931 -2.2847842e-05   0.63002404  0.032980095            0   0.59704394    1.4360264    2.0660505   0.89624093 
 8225000    1.0218155 -7.5202339e-05    0.6067468  0.041410778            0   0.56533603    1.5135643    2.1203111   -1.7300487 
 8230000    1.0558271 -4.4539897e-05   0.53829258  0.022877338            0   0.51541524    1.5639439    2.1022365  -0.17820623 
 8235000    1.1299484 -2.3670347e-05   0.43956826 0.0083782399            0   0.43119002    1.6737361    2.1133043    0.9013826 
 8240000    1.0767297 6.9592823e-05   0.51133571 0.0048755258            0   0.50646018    1.5949059    2.1062416    5.6693941 
 8245000    1.0502985 4.0879189e-05   0.58049006 0.0088708239            0   0.57161924    1.5557546    2.1362447    4.2292592 
 8250000    1.0669007 -8.6739417e-06   0.55335186 0.0057981928            0   0.54755367    1.5803467    2.1336985    1.6895927 
 8255000    1.0300099 5.2442401e-06   0.61083158  0.010018451            0   0.60081313    1.5257022    2.1365338    2.4050389 
 8260000    1.0001359 -7.2200885e-05   0.67295757  0.020224656            0   0.65273292    1.4814513    2.1544089   -1.5422764 
 8265000    1.1050419 3.5976931e-06    0.4916635  0.010814476            0   0.48084902    1.6368432    2.1285067    2.3127086 
 8270000    1.0736876 -7.7229262e-06   0.52591425 0.0061358321            0   0.51977842    1.5903998    2.1163141    1.7209002 
 8275000    1.0504125 -9.4820562e-05   0.54260001  0.020616336            0   0.52198367    1.5559235    2.0985235   -2.7562893 
 8280000    1.0105124 -7.960488e-05   0.62119837   0.02271952            0   0.59847885    1.4968215    2.1180199   -1.9577499 
 8285000    1.0106377 3.7959831e-05   0.63759249  0.029565041            0   0.60802745    1.4970071    2.1345996    4.0781429 
 8290000   0.99354855 5.5286246e-05   0.65614685  0.032193394            0   0.62395346    1.4716938    2.1278406    4.9584965 
 8295000    1.0682527 -5.3194197e-05    0.5358795  0.021393047            0   0.51448646    1.5823494    2.1182289  -0.60531398 
 8300000    1.1191715 -2.5396311e-05   0.45540398  0.048465573            0   0.40693841    1.6577728    2.1131767   0.81288564 
 8305000    1.0594015 2.7747248e-05   0.57405028 0.0084426485            0   0.56560763    1.5692385    2.1432887    3.5639478 
 8310000   0.97482823 -2.1722953e-05   0.70409144  0.016158026            0   0.68793341    1.4439643    2.1480558    1.0358405 
 8315000     1.084635 1.7345018e-05   0.59102938  0.022749176            0    0.5682802    1.6066156     2.197645    3.0857099 
 8320000    1.2028043 4.9505055e-05   0.41260305 0.0064617359            0   0.40614132    1.7816539    2.1942569    4.7289157 
 8325000    1.1066613 1.2343793e-05   0.51937484 0.00012029255            0   0.51925454     1.639242    2.1586169     2.790619 
 8330000    1.0681648 7.0105787e-06   0.57891833 0.0056443239            0     0.573274    1.5822191    2.1611374     2.520079 
 8335000   0.96506206 -8.3784339e-05   0.70252049  0.023523774            0   0.67899671    1.4294982    2.1320187   -2.1577395 
 8340000     1.028204 -5.9759034e-05   0.59356908  0.091176704            0   0.50239237    1.5230272    2.1165963  -0.94306626 
 8345000    1.1024814 7.5606461e-05   0.48615626  0.022725459            0    0.4634308    1.6330505    2.1192068    5.9902576 
 8350000    1.0979396 0.00012496538   0.50378282  0.046286808            0   0.45749601     1.626323    2.1301058    8.5283332 
 8355000    1.0861937 4.1205138e-06   0.53049284  0.064271288            0   0.46622155    1.6089245    2.1394173    2.3503876 
 8360000    1.0661727 -9.2883401e-06   0.56321854  0.014697828            0   0.54852071    1.5792684    2.1424869    1.6669239 
 8365000    1.0742373 -1.402085e-05   0.54968198  0.012148978            0     0.537533    1.5912139    2.1408959    1.4230284 
 8370000    1.1254018 -7.2825498e-05   0.45761535  0.011754677            0   0.44586067    1.6670015    2.1246168   -1.6040487 
 8375000    1.1075936 -8.8733459e-05   0.51171911 0.0055540909            0   0.50616502     1.640623    2.1523421   -2.3908111 
 8380000    1.1243605 -3.2109777e-05   0.45599142 0.0035073029            0   0.45248412     1.665459    2.1214504   0.47742981 
 8385000    1.1221092 5.2863178e-05   0.46173598  0.037211441            0   0.42452453    1.6621243    2.1238602     4.830455 
 8390000    1.0618059 -2.9618369e-05   0.54814467   0.03967979            0   0.50846488    1.5728001    2.1209447    0.6044842 
 8395000   0.98865325 -3.4855601e-05   0.63086049   0.02569785            0   0.60516264    1.4644426    2.0953031   0.31069636 
 8400000    1.0643754 3.1260547e-05   0.49221842  0.016612295            0   0.47560612     1.576606    2.0688244    3.6693644 
 8405000    1.0014892 1.6428243e-05   0.55631019  0.026055433            0   0.53025476    1.4834558     2.039766    2.8808921 
 8410000    1.0168872 -5.8449094e-05   0.51040429  0.014649315            0   0.49575498    1.5062642    2.0166685  -0.97592515 
 8415000    1.0383492 -6.4734922e-05   0.49118737  0.023613635            0   0.46757374    1.5380547    2.0292421    -1.285186 
 8420000    1.0919759 3.5035979e-05    0.4261139  0.025866265            0   0.40024763    1.6174893    2.0436032    3.8374454 
 8425000    1.0168797 2.5819257e-05   0.54295591   0.05331699            0   0.48963892    1.5062531     2.049209     3.371155 
 8430000    1.0065562 -7.5993875e-06   0.56327266  0.025289121            0   0.53798353    1.4909613     2.054234    1.6651453 
 8435000    1.0007516 -6.4995496e-07   0.54514526  0.046559066            0    0.4985862    1.4823634    2.0275086    1.9942309 
 8440000   0.98637643 -6.9846036e-06   0.54280056  0.023669798            0   0.51913076    1.4610701    2.0038706    1.6462589 
 8445000     0.999067 7.6769108e-06   0.52375568  0.010481071            0   0.51327461     1.479868    2.0036237    2.3966815 
 8450000    1.1162821 4.0672822e-05   0.34316901  0.018051562            0   0.32511744    1.6534928    1.9966618    4.0791103 
 8455000    1.0122789 -4.6645094e-05   0.52021981  0.017366575            0   0.50285324    1.4994381    2.0196579  -0.36857096 
 8460000   0.96949777 -2.6663764e-05   0.56589719 0.0049753605            0   0.56092183    1.4360686    2.0019658   0.63678103 
 8465000    1.0381254 -7.9832212e-05   0.50016497 0.0015090248            0   0.49865594    1.5377232    2.0378882   -2.0495211 
 8470000    1.0928333 -1.7094983e-05   0.41837618  0.021482481            0    0.3968937    1.6187593    2.0371355    1.1618724 
 8475000    1.0128616 9.9312229e-05   0.54283741  0.046397077            0   0.49644034    1.5003013    2.0431387    7.1279248 
 8480000    1.0523341 9.7587414e-05   0.52418206  0.028695839            0   0.49548622    1.5587699     2.082952    7.0794276 
 8485000    1.0662642 -0.0001076942   0.51080555  0.027928021            0   0.48287753    1.5794038    2.0902094   -3.4237337 
 8490000    1.0559559 -0.00011000823   0.54022736  0.024073578            0   0.51615378    1.5641347    2.1043621   -3.5280593 
 8495000    1.1172596 -2.6613518e-05   0.43858325  0.017748796            0   0.42083445    1.6549407     2.093524   0.73091186 
 8500000    1.1150238 9.5559352e-06   0.44198522   0.02555782            0    0.4164274    1.6516289    2.0936142     2.582878 
 8505000    1.0988694 2.9400251e-06   0.46362693  0.010069285            0   0.45355764    1.6277003    2.0913272    2.2418565 
 8510000    1.0829164 3.7141363e-05   0.48745135 0.0025548762            0   0.48489648      1.60407    2.0915213    3.9931591 
 8515000    1.1056649 0.00012222748   0.47817529 0.0016520612            0   0.47652323    1.6377661    2.1159414    8.3739882 
 8520000    1.0534841 1.5885441e-05   0.55943858 0.00021692596            0   0.55922165    1.5604734     2.119912    2.9332465 
 8525000    1.0481592 1.6352723e-05   0.55470353 0.0036817915            0   0.55102174    1.5525858    2.1072894    2.9445488 
 8530000    1.0666841 2.443142e-05   0.52301789  0.026298282            0   0.49671961    1.5800259    2.1030438    3.3539325 
 8535000    1.0465648 -1.3613385e-05    0.5531248  0.013326288            0   0.53979851    1.5502241    2.1033489    1.4063436 
 8540000    1.0440221 -3.2938325e-05   0.55495391  0.025307174            0   0.52964674    1.5464577    2.1014116   0.41496938 
 8545000    1.1131848 -1.044269e-05   0.44313818  0.022816003            0   0.42032218     1.648905    2.0920431    1.5573774 
 8550000    1.1445217 -1.3988125e-05   0.39163398 0.0084284918            0   0.38320548    1.6953228    2.0869568    1.3707648 
 8555000    1.0525545 7.7174647e-05    0.5207992  0.025275781            0   0.49552342    1.5590963    2.0798955    6.0312374 
 8560000    1.1635957 6.7012178e-05   0.39984899  0.044637842            0   0.35521115    1.7235761    2.1234251    5.5544486 
 8565000    1.1085905 -3.0828013e-05   0.46844175  0.020166789            0   0.44827496    1.6420997    2.1105414   0.53214714 
 8570000    1.1235583 -3.7557334e-05   0.50122131  0.010706321            0   0.49051499    1.6642708    2.1654921   0.24255657 
 8575000    1.1631546 -3.8222455e-05   0.45097477 0.0051775998            0   0.44579717    1.7229227    2.1738975   0.21690778 
 8580000    1.1237369 9.367878e-05   0.49707126 0.0037623969            0   0.49330886    1.6645352    2.1616065      6.95796 
 8585000     1.108343 -1.4735029e-05   0.49665602  0.013583846            0   0.48307217     1.641733     2.138389    1.3839555 
 8590000    1.1691199 -5.4804499e-05   0.42495981  0.022626352            0   0.40233346    1.7317588    2.1567186  -0.64927175 
 8595000    1.0644848 2.5812234e-05   0.56002811  0.012528895            0   0.54749922    1.5767681    2.1367962    3.4583826 
 8600000    1.0506271 -0.00011340798   0.59023084 0.0035161457            0   0.58671469    1.5562414    2.1464722   -3.6600161 
 8605000    1.1109318 -5.9349742e-05   0.48951588  0.012611043            0   0.47690483    1.6455678    2.1350837  -0.90362312 
 8610000    1.1424151 3.9488721e-05   0.45367173  0.023510198            0   0.43016153    1.6922024    2.1458741    4.1676966 
 8615000     1.104565 -5.7615431e-06   0.49942656  0.010959223            0   0.48846733    1.6361369    2.1355634    1.8405724 
 8620000    1.2094163 5.1944983e-05   0.35071405 0.0071323091            0   0.34358175    1.7914479     2.142162    4.8017451 
 8625000    1.0348617 2.543569e-05   0.64166154 0.00084277154            0   0.64081877     1.532889    2.1745505    3.4768578 
 8630000    1.0643751 -0.0001391027   0.54538905 0.0096967907            0   0.53569226    1.5766056    2.1219947   -5.0000636 
 8635000    1.1354636 -6.5301934e-05   0.45923098  0.033167669            0   0.42606331    1.6819055    2.1411365   -1.2023225 
 8640000    1.0279928 5.3282393e-05   0.57706746  0.030575175            0   0.54649229    1.5227143    2.0997818    4.8278403 
 8645000    1.0580902 4.0160644e-05   0.52419621    0.0742658            0   0.44993041    1.5672961    2.0914923    4.1477173 
 8650000    1.0929511 -6.9657257e-05   0.46175409  0.017731627            0   0.44402246    1.6189339     2.080688   -1.4857636 
 8655000    1.0931274 -5.6391195e-05   0.42543042  0.018837505            0   0.40659291     1.619195    2.0446254  -0.84260372 
 8660000    1.0141042 2.5920926e-05   0.52177522 0.0055956133            0    0.5161796    1.5021419    2.0239171    3.3510685 
 8665000    1.0340657 -3.638799e-05   0.50778939 0.00068198793            0   0.50710741    1.5317098    2.0394992   0.17643413 
 8670000    1.0383684 -4.9479285e-05   0.48825494  0.023345137            0   0.46490981    1.5380832    2.0263382  -0.50700121 
 8675000   0.93838119 1.4678058e-05     0.617706  0.044789941            0   0.57291606    1.3899771    2.0076831    2.7591997 
 8680000     1.045222 -1.7006784e-05     0.435722 0.0069200529            0   0.42880195     1.548235     1.983957    1.1132097 
 8685000   0.99143779 -6.3218522e-05    0.5341782 0.0041977971            0   0.52998041    1.4685672    2.0027454   -1.2340429 
 8690000   0.97793322 -0.00011890076   0.55834542 0.0070005775            0   0.55134484    1.4485636     2.006909   -4.0808102 
 8695000   0.96572972 -0.00017110562   0.56929655  0.007736159            0   0.56156039    1.4304872    1.9997837   -6.7608241 
 8700000    1.0608112 6.2807071e-06   0.43431143 0.0047705589            0   0.42954087    1.5713266     2.005638    2.3272102 
 8705000    1.1183529 7.5163068e-05   0.37350812  0.032110655            0   0.34139747    1.6565603    2.0300684    5.8784175 
 8710000    1.0042725 -2.6045057e-05   0.52330662  0.044308306            0   0.47899831    1.4875786    2.0108852   0.67737831 
 8715000   0.93255581 -1.2601123e-05   0.60370727  0.035709744            0   0.56799753    1.3813483    1.9850556    1.3398781 
 8720000   0.99147503 -9.0678535e-05   0.51623419  0.014156343            0   0.50207785    1.4686224    1.9848566   -2.6578844 
 8725000    1.0087455 -9.346217e-05   0.46182315  0.012513162            0   0.44930999    1.4942042    1.9560274   -2.8292357 
 8730000   0.96227574 6.2028629e-05   0.52440616 0.0046255219            0   0.51978064    1.4253709    1.9497771    5.1256429 
 8735000   0.97991104 0.00010032943   0.48248533  0.010038551            0   0.47244678    1.4514932    1.9339786    7.0708456 
 8740000   0.93543797 -1.293491e-05   0.52532648   0.02701096            0   0.49831552    1.3856175     1.910944    1.2486766 
 8745000    0.9744509 3.2506129e-05   0.46107065  0.049215146            0    0.4118555    1.4434054     1.904476    3.5687899 
 8750000   0.98879361 3.7875593e-05     0.433595  0.031903261            0   0.40169174    1.4646505    1.8982455    3.8374759 
 8755000   0.93466758 2.7270604e-06   0.50223581  0.034415069            0   0.46782074    1.3844764    1.8867122    2.0263377 
 8760000   0.93558172 -8.7577738e-06   0.49357902 0.0039641172            0    0.4896149    1.3858304    1.8794094    1.4310114 
 8765000   0.92080591 7.8660116e-05   0.53218169  0.014792172            0   0.51738952    1.3639437    1.8961254    5.9235234 
 8770000   0.84222164 4.4519158e-05   0.66367836  0.043078145            0   0.62060022    1.2475408    1.9112192    4.1906001 
 8775000    0.9530612 1.1771416e-05   0.46470283  0.033898486            0   0.43080434    1.4117219    1.8764247    2.4791212 
 8780000    0.9567953 5.2954453e-05   0.47647813  0.030020076            0   0.44645805     1.417253    1.8937312    4.6049991 
 8785000   0.99443474 5.1943471e-05   0.40809079  0.025190931            0   0.38289986    1.4730065    1.8810973     4.540603 
 8790000    0.9145034 6.8990273e-06   0.51457718   0.02196389            0   0.49261329    1.3546082    1.8691853    2.2224155 
 8795000   0.95523955 -1.9046497e-05   0.47742573  0.015540477            0   0.46188525    1.4149486    1.8923743   0.91719367 
 8800000   0.96928111 -0.00010644682   0.46329143  0.010419875            0   0.45287155    1.4357476    1.8990391    -3.551038 
 8805000   0.94685812 -5.4161323e-05   0.47572022  0.021507644            0   0.45421258    1.4025336    1.8782538  -0.89480591 
 8810000   0.94568608 0.00012721078    0.4592755  0.011459267            0   0.44781624    1.4007975     1.860073     8.373265 
 8815000   0.93161474 9.3223099e-05   0.47314337 0.0048883643            0     0.468255    1.3799543    1.8530977    6.6261204 
 8820000   0.92698537 5.3417253e-05    0.4913751 0.0090631408            0   0.48231196    1.3730971    1.8644722    4.5994355 
 8825000   0.92854905 8.7145595e-05   0.50143639 0.0076495797            0   0.49378681    1.3754133    1.8768497    6.3387041 
 8830000    1.0127166 -2.92614e-07   0.38287968  0.010099229            0   0.37278045    1.5000864    1.8829661    1.8679842 
 8835000   0.86954726 -3.730248e-05   0.59223692  0.010812374            0   0.58142455    1.2880169    1.8802538 -0.029633172 
 8840000   0.97486016 -6.1333943e-05   0.47003268  0.016981791            0   0.45305089    1.4440116    1.9140443   -1.2262536 
 8845000   0.92767355 -5.5084825e-05   0.54231705  0.050471888            0   0.49184516    1.3741164    1.9164335  -0.90390957 
 8850000   0.97776923 -7.1650006e-05   0.46680939  0.034201375            0   0.43260801    1.4483207    1.9151301   -1.7533502 
 8855000    1.0272891 -6.220994e-05   0.39265672 0.0030142368            0   0.38964248    1.5216721    1.9143288   -1.2708202 
 8860000    0.9782476 7.6080195e-05   0.45697191  0.019622647            0   0.43734926    1.4490293    1.9060012    5.8013071 
 8865000   0.89800001 0.00012653503   0.53840612  0.043416605            0   0.49498952    1.3301625    1.8685686    8.3471624 
 8870000   0.98379508 -1.149885e-05   0.41475023 0.0056823663            0   0.40906786    1.4572465    1.8719967    1.2832556 
 8875000   0.96477105 -9.4035625e-05   0.46702146 8.309825e-05            0   0.46693836    1.4290671    1.8960886   -2.9185354 
 8880000   0.91928612 -3.4714502e-05   0.54463692 0.0033276823            0   0.54130924    1.3616926    1.9063295   0.12894696 
 8885000   0.97395426 -5.2173948e-05   0.44965142 0.0084033206            0    0.4412481    1.4426698    1.8923212  -0.77898496 
 8890000    1.0027604 -5.2091354e-05    0.4268485  0.022421213            0   0.40442729    1.4853389    1.9121874   -0.7548899 
 8895000   0.96179315 9.1364869e-05   0.47853625  0.034005818            0   0.44453043    1.4246561    1.9031924    6.5810736 
 8900000   0.96757862 0.00015234599   0.48235303  0.020028106            0   0.46232492    1.4332258    1.9155789    9.7156937 
 8905000   0.98370948 0.00017065478   0.47563295  0.031359204            0   0.44427374    1.4571197    1.9327526    10.670277 
 8910000   0.97597288 0.0001368924   0.48085581  0.050461364            0   0.43039445    1.4456598    1.9265156    8.9354066 
 8915000    1.0457955 1.0041865e-05   0.37680595  0.042087958            0   0.33471799    1.5490845    1.9258905     2.440034 
 8920000   0.99234451 -8.6721486e-05   0.42466107 0.0054327442            0   0.41922833    1.4699103    1.8945714   -2.5455687 
 8925000    0.9946983 -0.00010712371   0.42157317  0.022357776            0    0.3992154    1.4733969      1.89497   -3.5897641 
 8930000    0.8888037 -9.9051421e-05   0.56874836  0.040850391            0   0.52789797    1.3165405    1.8852888   -3.1861439 
 8935000   0.89357436 -1.5205265e-05   0.54686873 0.0079300218            0   0.53893871     1.323607    1.8704757    1.0919662 
 8940000    0.8585346 6.9221047e-05      0.56877  0.033183048            0   0.53558695    1.2717044    1.8404744     5.384592 
 8945000   0.86909107 4.5162152e-05   0.58002565  0.061927644            0   0.51809801    1.2873411    1.8673668     4.179669 
 8950000    0.8719636 -6.5866492e-05   0.58807272    0.0715459            0   0.51652682    1.2915961    1.8796688   -1.4926956 
 8955000   0.83970208 -0.00012031773   0.63150656  0.081178503            0   0.55032806    1.2438087    1.8753153   -4.2849524 
 8960000   0.94499105 -1.9196271e-05   0.49312472  0.050115505            0   0.44300922     1.399768    1.8928927   0.91004363 
 8965000   0.96040909 -3.3444586e-05   0.46033257 0.0072345303            0   0.45309804     1.422606    1.8829385   0.17057574 
 8970000   0.87859871 -4.647787e-05   0.58735898 0.0034412301            0   0.58391775    1.3014243    1.8887833  -0.49088364 
 8975000   0.95905892 6.9523687e-05   0.43163483 0.0064658269            0     0.425169     1.420606    1.8522409    5.4118536 
 8980000   0.97096058 3.6588939e-05   0.41469649  0.018929298            0   0.39576719    1.4382354    1.8529318    3.7262855 
 8985000   0.97745471 7.3475166e-06   0.40187615 0.0073458933            0   0.39453025    1.4478548    1.8497309    2.2259238 
 8990000   0.92147107 2.9034666e-05   0.47763816            0            0   0.47763816     1.364929    1.8425672    3.3291421 
 8995000   0.91131765 3.271045e-05   0.49707903 4.1929306e-06            0   0.49707484    1.3498893    1.8469683    3.5217434 
 9000000   0.91267487 2.5640527e-05   0.48692554 0.00063430591            0   0.48629123    1.3518996    1.8388252    3.1516202 
 9005000   0.96427303 -8.334142e-05   0.39834483 0.0057363852            0   0.39260844    1.4283294    1.8266743   -2.4404065 
 9010000   0.89259089 -5.7318367e-05   0.48579115 0.0091311707            0   0.47665998    1.3221503    1.8079414    -1.126759 
 9015000   0.84999803 2.4453411e-05   0.56155069 0.0050928236            0   0.55645787    1.2590596    1.8206103    3.0726249 
 9020000    0.9023701 -2.6679757e-05   0.48612893  0.033555677            0   0.45257325    1.3366357    1.8227646   0.45676111 
 9025000   0.93244031 4.3355121e-06   0.45665862  0.014350366            0   0.44230825    1.3811772    1.8378358     2.059814 
 9030000   0.91808481 3.3251483e-05   0.47268658  0.015934368            0   0.45675221    1.3599131    1.8325997    3.5350756 
 9035000   0.89188463 -9.4709934e-05   0.50429029  0.030073572            0   0.47421671    1.3211041    1.8253944   -3.0237542 
 9040000   0.91239287 -5.7167953e-05   0.45617511  0.017380507            0   0.43879461    1.3514819    1.8076571   -1.1193421 
 9045000    0.9553108 4.4057391e-05   0.41433103 0.0071205383            0    0.4072105    1.4150541    1.8293852    4.0851236 
 9050000   0.92860856 -4.3106562e-05   0.45347341 0.0063713398            0   0.44710207    1.3755014    1.8289748  -0.37808113 
 9055000   0.96036114 -8.6111447e-05   0.41434715  0.002202589            0   0.41214457    1.4225349    1.8368821    -2.572024 
 9060000   0.86022371 -2.1254281e-05   0.53020542 0.0016706669            0   0.52853475    1.2742064    1.8044118   0.71619258 
 9065000   0.87293742 7.6968669e-05   0.50004462  0.010422186            0   0.48962244    1.2930386    1.7930832     5.733879 
 9070000   0.81293735 1.6653921e-05   0.60050546  0.024176508            0   0.57632895    1.2041635    1.8046689    2.6573496 
 9075000   0.89393788 -6.5697776e-05   0.49947912  0.011428845            0   0.48805028    1.3241455    1.8236246   -1.5401015 
 9080000    0.9154852 -9.1498006e-05   0.47186804 0.0096284229            0   0.46223962    1.3560625    1.8279305   -2.8567674 
 9085000   0.84330039 -8.3627835e-05   0.56470555  0.025255864            0   0.53944969    1.2491387    1.8138443   -2.4679009 
 9090000   0.90345985 -8.6402459e-06   0.49339895  0.010799756            0    0.4825992    1.3382499    1.8316489    1.3892683 
 9095000   0.91055304 -6.6512614e-05    0.4960534 0.0043121037            0   0.49174129    1.3487567    1.8448101   -1.5606358 
 9100000    0.9383733 -3.0216624e-05   0.47623158 0.0096900714            0   0.46654151    1.3899654     1.866197   0.31910586 
 9105000   0.90724701 1.5417488e-05   0.50646991   0.01442422            0   0.49204569    1.3438596    1.8503295    2.6397049 
 9110000   0.89910847 2.5216519e-06   0.52382055 0.0049711027            0   0.51884945    1.3318044     1.855625    1.9847335 
 9115000   0.90129123 3.9402241e-05    0.5198553  0.010184006            0    0.5096713    1.3350376    1.8548929    3.8722877 
 9120000   0.91880099 6.7083431e-05   0.50941448   0.04585313            0   0.46356135     1.360974    1.8703884    5.3050601 
 9125000    0.8909277 7.1297285e-05   0.58837428  0.031577847            0   0.55679644    1.3196867    1.9080609     5.558482 
 9130000   0.93017526 -1.7499551e-05   0.49438549  0.022404917            0   0.47198057    1.3778221    1.8722076    0.9762306 
 9135000   0.93244191 -0.00014571811   0.48350955  0.034738826            0   0.44877073    1.3811796    1.8646891    -5.596078 
 9140000    0.9125035 -0.00013202599   0.52247362  0.011675658            0   0.51079796    1.3516458    1.8741194   -4.8856111 
 9145000   0.98489617 4.0368803e-05   0.40089235  0.010656224            0   0.39023613    1.4588774    1.8597698    3.9266525 
 9150000   0.93638793 0.00012011027   0.46594893  0.017998782            0   0.44795015    1.3870246    1.8529736    8.0026193 
 9155000   0.95291025 -2.2617353e-05   0.46112028  0.012158554            0   0.44896173    1.4114983    1.8726186    0.7146101 
 9160000   0.95042549 -1.8491145e-05   0.48991139  0.040442048            0   0.44946934    1.4078178    1.8977291   0.95098252 
 9165000   0.92886146 9.8312295e-05   0.51449799  0.066221204            0   0.44827679     1.375876     1.890374    6.9239635 
 9170000   0.94550157 3.1694796e-05   0.50424712   0.08107002            0    0.4231771    1.4005242    1.9047713    3.5275449 
 9175000   0.94241423 -6.2264354e-05   0.48795863  0.018300153            0   0.46965847    1.3959511    1.8839097   -1.3040252 
 9180000   0.95883438 1.9066291e-05   0.46467674   0.01058718            0   0.45408956    1.4202734    1.8849502    2.8611442 
 9185000   0.89097085 0.00019209822   0.58333834  0.027486812            0   0.55585153    1.3197506    1.9030889    11.738518 
 9190000   0.90744554 0.00015823863   0.58764363  0.046161292            0   0.54148234    1.3441537    1.9317973    10.033615 
 9195000   0.93362248 1.4721673e-05   0.53642204  0.033459919            0   0.50296212    1.3829283    1.9193503       2.6731 
 9200000   0.97887089 -7.2713416e-05   0.47497327  0.017089356            0   0.45788392    1.4499525    1.9249258   -1.7980011 
 9205000   0.94782683 -5.0770368e-05   0.51916004  0.033395303            0   0.48576473    1.4039685    1.9231285  -0.67631431 
 9210000   0.91781652 2.1331794e-05   0.55378546  0.019678196            0   0.53410726    1.3595157    1.9133012     3.005489 
 9215000   0.95131941 2.1082932e-05   0.50783643  0.015851223            0   0.49198521    1.4091419    1.9169783    2.9964244 
 9220000   0.99391186 -4.2003284e-05   0.44528412 0.0016994585            0   0.44358466    1.4722319    1.9175161  -0.23305206 
 9225000    1.0399365 3.6702206e-05   0.37667246 0.00018995109            0   0.37648251    1.5404059    1.9170784    3.7962313 
 9230000   0.93657947 2.2740926e-05   0.51361962  0.020112121            0    0.4935075    1.3873083     1.900928    3.0652634 
 9235000   0.94499932 -8.5224592e-05   0.52942758  0.029156994            0   0.50027059    1.3997802    1.9292078   -2.4342913 
 9240000   0.89982786 -0.00011547004   0.58686154  0.073748265            0   0.51311327      1.33287    1.9197316   -3.9923346 
 9245000   0.92103545 -5.1556434e-05    0.5766487  0.027001667            0   0.54964703    1.3642838    1.9409325  -0.69875693 
 9250000   0.93128666 -7.436761e-05   0.56876594 0.0029687023            0   0.56579723    1.3794684    1.9482343   -1.8593873 
 9255000    1.0119376 -0.00017162365   0.44296662  0.022255643            0   0.42071098    1.4989326    1.9418992   -6.8452315 
 9260000   0.94344353 -4.685736e-05   0.55291575  0.033027127            0   0.51988862    1.3974757    1.9503915  -0.44870535 
 9265000   0.92644028 -5.2153312e-05   0.57197485 0.0044925463            0   0.56748231    1.3722897    1.9442645  -0.72598505 
 9270000   0.98566687 4.1156572e-05   0.49047338 0.0010173025            0   0.48945608     1.460019    1.9504924    4.0577089 
 9275000   0.93541077 2.0052851e-05   0.57501378 0.0035449605            0   0.57146882    1.3855772     1.960591    2.9872969 
 9280000      1.02917 1.2622883e-05   0.44409651 0.0066769342            0   0.43741957    1.5244581    1.9685546    2.6148462 
 9285000   0.93216831 7.3070429e-05   0.57752031   0.01806412            0   0.55945619    1.3807743    1.9582946    5.6995006 
 9290000    1.0746651 -3.2647953e-05   0.37665308  0.025904502            0   0.35074858    1.5918476    1.9685007    0.2969255 
 9295000    1.0356022 -4.7753813e-05   0.43958581 0.0071886999            0   0.43239711    1.5339857    1.9735715  -0.47142369 
 9300000    1.0249801 7.4744392e-05   0.45718697  0.013695492            0   0.44349148    1.5182517    1.9754387    5.8023516 
 9305000   0.98906153 -9.7299748e-05   0.53163299  0.026615769            0   0.50501722    1.4650474    1.9966804   -2.9850667 
 9310000    1.0235729 -0.00016382773   0.48207717  0.011864996            0   0.47021218    1.5161674    1.9982446   -6.3897354 
 9315000    1.0013092 -0.00013132573    0.5364415  0.012678846            0   0.52376265    1.4831893    2.0196308   -4.7042467 
 9320000   0.94386536 -2.4854011e-05   0.61174867  0.018665484            0   0.59308318    1.3981006    2.0098492   0.73732384 
 9325000    1.0463163 0.00015950121   0.42913629 0.0055923679            0   0.42354392     1.549856    1.9789922    10.145454 
 9330000   0.99148965 9.2510873e-05   0.48137071  0.013672881            0   0.46769783     1.468644    1.9500148    6.6865714 
 9335000   0.98358041 4.6821588e-05   0.48230636  0.029520163            0   0.45278619    1.4569285    1.9392348    4.3365002 
 9340000    0.9917007 0.00010014703   0.43043183  0.027954857            0   0.40247697    1.4689567    1.8993885    7.0269162 
 9345000   0.91525367 8.5793334e-05   0.53312689  0.057391349            0   0.47573554    1.3557195    1.8888464    6.2814651 
 9350000   0.88929208 1.9048838e-05   0.54233966  0.043947997            0   0.49839166    1.3172639    1.8596035    2.8349041 
 9355000   0.97918595 -4.7130311e-05   0.40979154  0.012930679            0   0.39686086    1.4504192    1.8602107  -0.55286119 
 9360000   0.94989348 2.5541686e-05    0.4718577 0.0086297159            0   0.46322799    1.4070297    1.8788874    3.1866217 
 9365000   0.97231492 5.3022427e-05   0.44694289 0.0044791499            0   0.44246374    1.4402415    1.8871844    4.6019326 
 9370000   0.97019211 -4.0083321e-05   0.40917142  0.032425017            0    0.3767464    1.4370971    1.8462685  -0.20599754 
 9375000    0.9023375 -2.0773952e-05    0.4909783  0.058406904            0    0.4325714    1.3365874    1.8275657   0.76393936 
 9380000   0.92232925 3.6066106e-05   0.45049411 0.0062376693            0   0.44425644    1.3662002    1.8166943    3.6632789 
 9385000    0.8594288 1.0580834e-06   0.55024261 0.0029971834            0   0.54724543    1.2730289    1.8232715    1.8774454 
 9390000   0.93968752 -5.1141535e-05    0.4263914  0.024190028            0   0.40220138    1.3919121    1.8183035  -0.80014305 
 9395000   0.86039329 1.5074437e-05   0.54693831   0.02437623            0   0.52256208    1.2744576    1.8213959     2.593207 
 9400000   0.90336569 1.6991361e-05   0.48279679 0.0093645713            0   0.47343222    1.3381104    1.8209072    2.6908649 
 9405000   0.96061346 -3.6911327e-05   0.36257376  0.034642986            0   0.32793078    1.4229087    1.7854825  -0.10437746 
 9410000   0.87278881 -3.011997e-05   0.48767017  0.028750482            0   0.45891969    1.2928184    1.7804886   0.23834612 
 9415000    0.8996943 -2.7077457e-05   0.47086039   0.02698215            0   0.44387824    1.3326722    1.8035326   0.41716679 
 9420000   0.88475349 -6.4411809e-05   0.47107901  0.031669301            0   0.43940971    1.3105411    1.7816201   -1.5162645 
 9425000   0.86868712 -5.5932269e-05   0.49820821  0.039147982            0   0.45906023    1.2867428     1.784951   -1.0787812 
 9430000    0.9204994 9.0723549e-05   0.42434842  0.026568945            0   0.39777947    1.3634897    1.7878382    6.4328839 
 9435000   0.91641263 0.00011690967    0.4332585   0.01973962            0   0.41351888    1.3574362    1.7906947    7.7764698 
 9440000    0.8974756 4.8696863e-05   0.42611211 0.0087393435            0   0.41737277    1.3293857    1.7554978    4.2487772 
 9445000   0.89540584 -5.3049793e-06   0.43088181  0.012508864            0   0.41837295    1.3263199    1.7572017    1.4855868 
 9450000   0.85392509 -9.5870847e-05   0.48960383  0.036739113            0   0.45286472    1.2648765    1.7544804    -3.154107 
 9455000   0.88287929 -2.0134002e-05   0.44321826  0.031459659            0    0.4117586     1.307765    1.7509832   0.72012232 
 9460000   0.88007737 -3.0410693e-05   0.47415972 0.0054875598            0   0.46867216    1.3036146    1.7777743   0.22074683 
 9465000   0.89626392 -4.3527857e-05   0.46708821 0.00034997887            0   0.46673823    1.3275909    1.7946791  -0.43394715 
 9470000   0.86376314 -2.3007406e-05   0.51496996 0.0016247822            0   0.51334518    1.2794492    1.7944191   0.61643991 
 9475000   0.89091611 6.0682423e-05   0.48962416  0.029333593            0   0.46029057    1.3196695    1.8092936    4.9162337 
 9480000   0.86148149 4.5081764e-05   0.54152533  0.023982107            0   0.51754323    1.2760695    1.8175948    4.1257811 
 9485000   0.91026683 -9.5545234e-06   0.48396574  0.023276475            0   0.46068926    1.3483327    1.8322985    1.3431069 
 9490000   0.92377699 5.6164289e-05   0.48616008  0.028576108            0   0.45758397    1.3683447    1.8545047    4.7301164 
 9495000   0.83403502 3.4622794e-05   0.61019532  0.019551907            0   0.59064341    1.2354144    1.8456097    3.6182967 
 9500000   0.92686238 7.5243395e-05   0.46554727  0.026672623            0   0.43887465    1.3729149    1.8384622     5.690924 
 9505000   0.90885039 -2.6282002e-05   0.50338125   0.01747274            0   0.48590851    1.3462346    1.8496159   0.50397739 
 9510000   0.88851163 -0.00018269437    0.5235031 0.0078220764            0   0.51568103    1.3161078     1.839611   -7.5143407 
 9515000   0.90618349 -0.00012740461   0.48661897  0.014635354            0   0.47198362    1.3422843    1.8289033   -4.6942129 
 9520000   0.97568165 -7.0161445e-05   0.35669993  0.026879951            0   0.32981998    1.4452284    1.8019284   -1.7903376 
 9525000   0.88998145 -6.1860762e-05   0.51345011  0.015803573            0   0.49764653     1.318285    1.8317351   -1.3355359 
 9530000   0.88335702 6.9927712e-05   0.52532051  0.013457975            0   0.51186253    1.3084726    1.8337931    5.4140919 
 9535000   0.96309325 3.3367878e-05   0.37204638 0.0041507611            0   0.36789562    1.4265819    1.7986283    3.5070636 
 9540000     0.873297 -0.00012352161   0.51224362  0.013845322            0    0.4983983    1.2935712    1.8058148   -4.5184917 
 9545000   0.95019237 -0.00010216736   0.40358486  0.011415834            0   0.39216903    1.4074724    1.8110573   -3.4199113 
 9550000   0.95355543 -5.1530114e-05   0.42166033  0.050143781            0   0.37151655     1.412454    1.8341143  -0.80422752 
 9555000   0.93117852 1.8992445e-06   0.45973038  0.036273507            0   0.42345687    1.3793082    1.8390386    1.9362799 
 9560000   0.86440733 6.0752094e-05    0.5765406  0.026998762            0   0.54954183    1.2804034     1.856944    4.9674512 
 9565000   0.95348175 3.6889897e-05   0.45828395  0.011566359            0   0.44671759    1.4123448    1.8706288    3.7593915 
 9570000   0.95404281 2.4549718e-05    0.4286164 0.0034003012            0    0.4252161    1.4131759    1.8417923    3.0987379 
 9575000   0.93590329 -2.6575939e-05   0.44171336 0.0013114826            0   0.44040188    1.3863067    1.8280201   0.46733201 
 9580000   0.94419452 -3.543336e-05   0.42632975  0.022791886            0   0.40353786    1.3985881    1.8249179  0.010729861 
 9585000   0.90220275 1.2319337e-05   0.49272614  0.030707853            0   0.46201828    1.3363878     1.829114     2.459864 
 9590000   0.80600578 5.8606345e-06   0.62167411  0.021972255            0   0.59970186    1.1938961    1.8155702    2.1156347 
 9595000    0.8711613 9.3787228e-06    0.4920467 0.0075129633            0   0.48453374    1.2904077    1.7824544     2.262645 
 9600000    0.9023566 3.6343926e-05   0.44049688  0.010731941            0   0.42976494    1.3366157    1.7771126    3.6379216 
 9605000   0.90027916 4.221113e-05   0.43402487  0.023799648            0   0.41022522    1.3335385    1.7675634    3.9287732 
 9610000   0.89072078 0.0001013252   0.43857809  0.051763671            0   0.38681442    1.3193802    1.7579583    6.9458087 
 9615000   0.83026129 0.00010719941   0.49411052  0.036131216            0    0.4579793    1.2298245    1.7239351     7.212545 
 9620000   0.88693751 5.1456885e-05   0.41866355  0.044632603            0   0.37403094    1.3137762    1.7324397    4.3670322 
 9625000   0.86446519 8.7021624e-05   0.44239965  0.059183329            0   0.38321633    1.2804891    1.7228887    6.1783959 
 9630000   0.84683327 8.7860233e-05   0.46339988  0.010620992            0   0.45277888    1.2543718    1.7177717    6.2162156 
 9635000    0.8432518 -7.2907734e-06   0.46121284  0.014797227            0   0.44641561    1.2490667    1.7102796     1.336992 
 9640000   0.82438249 -4.6252006e-05   0.51305263   0.02947306            0   0.48357957    1.2211166    1.7341692  -0.63393354 
 9645000   0.84049068 -7.0308368e-05   0.47493379  0.007203243            0   0.46773055    1.2449768    1.7199106   -1.8798778 
 9650000   0.89075873 -5.6887784e-05   0.40605745   0.01509642            0   0.39096103    1.3194364    1.7254938   -1.1871607 
 9655000   0.87485092 1.4059715e-05   0.42831144  0.027569345            0   0.40074209    1.2958729    1.7241844    2.4440418 
 9660000   0.87279367 -1.6350026e-05   0.47558276  0.050166213            0   0.42541655    1.2928256    1.7684084   0.93128707 
 9665000   0.86951038 -4.7008408e-06   0.49062738  0.081856626            0   0.40877076    1.2879622    1.7785896    1.5379066 
 9670000   0.95076373 7.3789626e-05   0.38401131  0.018920915            0   0.36509039    1.4083188    1.7923301    5.5703589 
 9675000   0.90019049 6.9624443e-05   0.41721237  0.032083932            0   0.38512844    1.3334072    1.7506195     5.315391 
 9680000    0.9583609 -5.0844264e-06   0.35288257  0.012503895            0   0.34037868    1.4195721    1.7724547     1.512132 
 9685000   0.92370308 -0.00012173079    0.3967867 0.0014131948            0   0.39537351    1.3682352    1.7650219   -4.4675948 
 9690000   0.92180355 2.1165117e-05   0.43243516  0.018378024            0   0.41405713    1.3654215    1.7978567    2.8815106 
 9695000   0.92251884 0.0001664516   0.45129067  0.016383734            0   0.43490694     1.366481    1.8177717    10.340094 
 9700000   0.91051862 -3.1129938e-05   0.45980885 0.0074699003            0   0.45233895    1.3487057    1.8085146   0.21466173 
 9705000   0.95028175 -6.5459234e-05   0.41813756  0.015555539            0   0.40258202    1.4076048    1.8257424   -1.5257704 
 9710000   0.99122402 9.0584533e-05   0.34722585 0.0072392481            0   0.33998661    1.4682506    1.8154764    6.4534045 
 9715000   0.96247378 -1.5024276e-05   0.41387495  0.027343445            0   0.38653151    1.4256643    1.8395392    1.0702963 
 9720000   0.94496468 -8.4356447e-05   0.45414234  0.030706667            0   0.42343567    1.3997289    1.8538713   -2.4651788 
 9725000   0.94419646 8.1251514e-05   0.46553911  0.051022823            0   0.41451629     1.398591    1.8641301    6.0242076 
 9730000    1.0520209 4.2482239e-05   0.31980749 0.0091775334            0   0.31062996     1.558306    1.8781135    4.0532042 
 9735000   0.98114528 -1.2770973e-05   0.41035372  0.022378604            0   0.38797512    1.4533214    1.8636752    1.2098013 
 9740000   0.98754404 0.00010044578    0.3921364  0.016669821            0   0.37546658    1.4627996     1.854936    6.9977602 
 9745000   0.93700051 5.5990843e-05   0.43595483 0.0095443677            0   0.42641046     1.387932    1.8238868     4.690618 
 9750000    1.0060748 1.0271928e-05   0.35708173 0.0062225103            0   0.35085922    1.4902483      1.84733    2.3732527 
 9755000    1.0052558 -0.00015275944   0.36879507 0.0015663815            0   0.36722869    1.4890352    1.8578303   -5.9634533 
 9760000   0.95115511 3.3170463e-06   0.48374284 0.0038729403            0    0.4798699    1.4088985    1.8926413    2.0624741 
 9765000   0.97003884 -3.1586311e-05   0.41942801  0.033550455            0   0.38587756      1.43687     1.856298   0.23907892 
 9770000   0.96551858 4.7946365e-05   0.41347119  0.021680568            0   0.39179063    1.4301744    1.8436456    4.2984995 
 9775000   0.96604318 3.5622295e-05   0.42285766 0.0097156099            0   0.41314205    1.4309515    1.8538091    3.6776706 
 9780000   0.98065839 3.1671841e-05   0.43259033  0.026662952            0   0.40592738    1.4526002    1.8851906    3.5067888 
 9785000   0.98305735 -2.9197344e-05    0.3897965  0.059583757            0   0.33021274    1.4561537    1.8459502    0.3510462 
 9790000   0.89606711 -1.2485054e-06   0.51885256  0.077348501            0   0.44150406    1.3272994     1.846152    1.7822285 
 9795000   0.99182378 4.5351236e-05   0.41012038  0.013496995            0   0.39662338     1.469139    1.8792594    4.2012426 
 9800000    1.0073525 1.6673351e-05   0.38273391 0.0063814595            0   0.37635245    1.4921408    1.8748747    2.7285503 
 9805000   0.90184866 -9.5324114e-05   0.55405197  0.049955283            0   0.50409669    1.3358633    1.8899153   -2.9906793 
 9810000   0.96666104 -7.7396179e-05   0.46171146  0.050858796            0   0.41085266    1.4318667    1.8935781   -2.0691062 
 9815000   0.94610714 9.3751654e-06   0.45868295  0.014788827            0   0.44389412    1.4014212    1.8601042    2.3401126 
 9820000    1.0188247 8.5585253e-07   0.35593485 2.2374611e-06            0   0.35593261    1.5091341     1.865069    1.9088886 
 9825000    1.0416075 -6.6151257e-05   0.33818864 0.0024966516            0   0.33569199     1.542881    1.8810697   -1.5058747 
 9830000    0.9428725 1.9246022e-05   0.47473293  0.025503598            0   0.44922933    1.3966299    1.8713628    2.8567592 
 9835000   0.93167561 0.00010827002   0.51467351  0.036570847            0   0.47810267    1.3800445     1.894718    7.4381433 
 9840000   0.96554997 0.0001126052   0.49381329  0.023711085            0   0.47010221    1.4302209    1.9240342    7.6894202 
 9845000    1.0111251 -2.8811144e-05    0.4428635 0.0016126714            0   0.44125083    1.4977291    1.9405926   0.46546202 
 9850000   0.98587033 -0.00010332444   0.48871469 0.0084002237            0   0.48031446    1.4603204    1.9490351   -3.3411764 
 9855000   0.97830223 6.404315e-05   0.50661509  0.023116325            0   0.48349876    1.4491102    1.9557253    5.2347345 
 9860000   0.97210659 0.00011887336   0.54687414  0.090485955            0   0.45638818    1.4399329     1.986807    8.0731229 
 9865000   0.99107994 1.9105432e-05   0.52652294  0.075769737            0    0.4507532    1.4680372    1.9945601    2.9727582 
 9870000   0.95400855 -2.1473741e-05   0.55389127  0.045164876            0   0.50872639    1.4131252    1.9670164   0.86756091 
 9875000   0.98183639 9.7260537e-05   0.48920153  0.043368737            0   0.44583279    1.4543452    1.9435467    6.9232862 
 9880000    1.0142107 8.8001419e-05   0.44437784 0.0054070603            0   0.43897078    1.5022996    1.9466775    6.4523501 
 9885000    1.0238399 -6.0372739e-05   0.43402268 0.0097057703            0   0.42431691    1.5165629    1.9505856   -1.1404987 
 9890000    1.0479288 -0.00012448887   0.39228918  0.016793841            0   0.37549534    1.5522445    1.9445337   -4.4292967 
 9895000   0.95511648 -3.1468971e-05   0.50196548  0.045686405            0   0.45627907    1.4147663    1.9167318   0.30552043 
 9900000   0.94339071 2.7798333e-05   0.53130298  0.022056891            0   0.50924609    1.3973975    1.9287005    3.3519751 
 9905000    0.9439952 4.1917959e-05   0.51157036 0.0054421941            0   0.50612817    1.3982929    1.9098632    4.0560627 
 9910000   0.97690884 -3.3981368e-05   0.45179209  0.018360916            0   0.43343117    1.4470462    1.8988383   0.15899228 
 9915000   0.89262411 -0.00016600231   0.55739496 0.0097427414            0   0.54765222    1.3221995    1.8795944   -6.6197241 
 9920000   0.95155454 -8.7655348e-05   0.47440553  0.012703918            0   0.46170162    1.4094902    1.8838957   -2.6040581 
 9925000   0.96622864 8.5700724e-05   0.44737378  0.020848688            0   0.42652509    1.4312262       1.8786     6.266477 
 9930000    1.0030425 0.00013858422   0.43433533  0.019047608            0   0.41528772    1.4857567     1.920092    9.0156043 
 9935000    0.9758368 2.5877621e-05   0.51086464  0.010893029            0   0.49997161    1.4454583    1.9563229    3.2812571 
 9940000    0.9942579 2.0038493e-05   0.48632012 0.0096426288            0   0.47667749    1.4727445    1.9590646    2.9850355 
 9945000   0.97527522 6.7656668e-06   0.48316836 0.0073394691            0   0.47582889    1.4446264    1.9277948    2.2741969 
 9950000   0.96940838 -4.400846e-05   0.49164417  0.016801444            0   0.47484272    1.4359362    1.9275803  -0.32565283 
 9955000   0.97087536 7.2878149e-06   0.48997471  0.013578298            0   0.47639641    1.4381091    1.9280838      2.30122 
 9960000    1.0603205 4.0796199e-05    0.3795643 0.0029765051            0   0.37658779    1.5705997     1.950164    4.0389294 
 9965000    1.0190348 -3.0888139e-05    0.4127692 0.0077821957            0     0.404987    1.5094453    1.9222145   0.34074181 
 9970000   0.97935922 -6.6980437e-05   0.49384651  0.008685365            0   0.48516115    1.4506758    1.9445224    -1.484876 
 9975000    1.0174428 -5.6133672e-05   0.40596324 0.0034852655            0   0.40247798    1.5070871    1.9130504  -0.96099366 
 9980000    1.0134948 -1.2299493e-05   0.37285167 2.3119098e-05            0   0.37282855    1.5012392    1.8740909    1.2443569 
 9985000   0.93738931 3.9945458e-05   0.48921523 0.0011235717            0   0.48809166    1.3885079    1.8777231    3.9229306 
 9990000   0.98715355 3.0157534e-05   0.38888326 0.0084312914            0   0.38045197    1.4622212    1.8511045    3.3951702 
 9995000   0.95072091 1.9768883e-05   0.42767068  0.020791304            0   0.40687938    1.4082554     1.835926    2.8480929 
10000000   0.93603317 0.00011902259   0.46718844  0.026255287            0   0.44093315    1.3864991    1.8536876     7.947644 
10005000    1.0179657 7.4669723e-05   0.32195337  0.012084505            0   0.30986886    1.5078617     1.829815    5.6529048 
10010000   0.93926372 -5.3021615e-05   0.42782412 0.0065722685            0   0.42125185    1.3912844    1.8191085  -0.89559819 
10015000   0.94480104 -1.4605385e-05   0.37104785  0.015566424            0   0.35548143    1.3994865    1.7705344    1.0227387 
10020000   0.91879469 6.2375497e-05   0.41902861  0.020836759            0   0.39819185    1.3609646    1.7799933    4.9736187 
10025000   0.93083855 9.9842505e-05   0.39146416  0.021088971            0   0.37037518    1.3788046    1.7702688     6.882205 
10030000   0.94447464 -1.1722702e-05   0.35301607  0.030024153            0   0.32299191    1.3990031    1.7520191    1.1518168 
10035000   0.86781125 -0.00010997072   0.45364556  0.010126589            0   0.44351897    1.2854454     1.739091   -3.8914097 
10040000   0.93741427 -4.4320386e-05   0.33122424 0.0013104029            0   0.32991384    1.3885449    1.7197691  -0.54943463 
10045000   0.87612706 6.2766988e-05   0.45543825 0.0083126256            0   0.44712562    1.2977632    1.7532014    4.9668713 
10050000   0.86443495 8.6259102e-05   0.49001605 0.0079000946            0   0.48211595    1.2804443    1.7704603    6.1869263 
10055000   0.92134662 -1.7563409e-05   0.41367957  0.040214162            0    0.3734654    1.3647447    1.7784242   0.87917771 
10060000    0.7992004 -0.00015347146   0.58833076  0.022567659            0   0.56576311    1.1838156    1.7721464   -6.0855926 
10065000   0.94877894 -1.7986623e-05   0.38205019 0.0061596218            0   0.37589056    1.4053788     1.787429    0.8665139 
10070000   0.96256173 -1.7116694e-05   0.34512876 0.0030917797            0   0.34203698    1.4257946    1.7709233    0.8945486 
10075000   0.89155952 -6.1898658e-05   0.44672964  0.016890852            0   0.42983879    1.3206225    1.7673522   -1.4018591 
10080000   0.89482293 7.2962111e-05   0.44864109  0.033249306            0   0.41539178    1.3254565    1.7740975    5.5097576 
10085000   0.94738899 6.663468e-05   0.40527722  0.025483152            0   0.37979407    1.4033199    1.8085972    5.2202928 
10090000   0.94861076 -6.5251129e-05   0.40734443  0.027180562            0   0.38016387    1.4051297    1.8124741   -1.5283837 
10095000   0.91314501 -9.8498895e-05   0.47936562  0.017112541            0   0.46225308     1.352596    1.8319617   -3.2111818 
10100000   0.96297531 -4.4640229e-05   0.40741931 0.0054440988            0   0.40197521    1.4264072    1.8338265  -0.45175326 
10105000   0.98317647 -3.6097114e-05   0.38601965 0.0054010195            0   0.38061863    1.4563301    1.8423498 -0.0058224667 
10110000   0.95188718 -4.5191307e-05   0.44138626 0.0034386296            0   0.43794763    1.4099829    1.8513691  -0.46242579 
10115000   0.97256369 4.5290144e-06   0.42494938 0.0037750463            0   0.42117434      1.44061    1.8655594    2.0974449 
10120000   0.95834542 8.0218398e-05   0.46404752 0.0077301625            0   0.45631735    1.4195492    1.8835967    5.9907787 
10125000   0.95097138 5.6861731e-05   0.46485067  0.012908776            0   0.45194189    1.4086264     1.873477    4.7847977 
10130000   0.94048381 1.5118107e-05   0.49870981  0.022134429            0   0.47657538    1.3930916    1.8918015    2.6658485 
10135000    1.0449706 3.8970018e-05   0.36176192  0.027876198            0   0.33388572    1.5478627    1.9096246    3.9048895 
10140000     1.010812 3.144489e-05   0.39391111  0.026753052            0   0.36715806    1.4972653    1.8911764    3.5011548 
10145000   0.93844253 6.4016316e-05   0.49907262    0.0597022            0   0.43937042     1.390068    1.8891406     5.166776 
10150000   0.99882176 5.9416781e-05   0.43274201  0.035401957            0   0.39734005    1.4795047    1.9122467    4.9543859 
10155000    1.0050121 -3.9598019e-05   0.45404349  0.024317626            0   0.42972587    1.4886742    1.9427177 -0.084700893 
10160000    1.0347574 -4.3459505e-05   0.42014395  0.016038265            0   0.40410568    1.5327344    1.9528783  -0.27224832 
10165000    1.0598573 -1.5530926e-05   0.37236307 0.0077159481            0   0.36464712    1.5699136    1.9422767    1.1470933 
10170000   0.95979039 -4.3435204e-06    0.4897241  0.036990159            0   0.45273394    1.4216895    1.9114136    1.6890254 
10175000   0.92310699 6.2794647e-05   0.55425485  0.014405363            0   0.53984949    1.3673522    1.9216071     5.136693 
10180000    1.0522659 0.00010817442    0.3762197  0.021610987            0   0.35460871    1.5586689    1.9348886     7.473419 
10185000    1.0629771 -4.6378274e-05   0.37614042  0.057099951            0   0.31904047    1.5745348    1.9506752  -0.42389245 
10190000   0.98606582 -7.1945248e-05   0.48373898  0.024104395            0   0.45963458      1.46061     1.944349   -1.7392477 
10195000   0.99318661 5.5310916e-05   0.51073616  0.019895286            0   0.49084087    1.4711577    1.9818938    4.8138127 
10200000   0.94904455 2.4742732e-05    0.5933982  0.033074521            0   0.56032368    1.4057722    1.9991704    3.2659983 
10205000   0.99733818 2.3636316e-05    0.5228439   0.03932429            0   0.48351961    1.4773072    2.0001511    3.2103305 
10210000    1.0406869 9.8331547e-05    0.4842249  0.058609726            0   0.42561517    1.5415175    2.0257424    7.0603176 
10215000      1.03513 4.6342643e-05   0.49482838  0.035068809            0   0.45975957    1.5332864    2.0281148    4.4008581 
10220000   0.99848794 -4.5371186e-05    0.5295201 0.0075844403            0   0.52193566    1.4790103    2.0085304  -0.31447438 
10225000    1.0930487 -3.9378703e-05   0.37713448 0.0064390398            0   0.37069544    1.6190784    1.9962129 -0.019976691 
10230000   0.98241008 0.0001274814   0.55923809  0.022355364            0   0.53688273    1.4551949     2.014433    8.5414808 
10235000   0.98476891  0.000247142   0.55811821   0.05293314            0   0.50518507     1.458689    2.0168072    14.670477 
10240000    1.0547942 0.00010863834   0.44318791  0.087145841            0   0.35604207    1.5624139    2.0056018    7.5678847 
10245000     1.036058 3.5768419e-05   0.50006102   0.03346415            0   0.46659687    1.5346609    2.0347219     3.866065 
10250000    1.0765481 -7.7663121e-06   0.43542629  0.024090025            0   0.41133626    1.5946368    2.0300631    1.6324279 
10255000     1.012523 -8.089914e-05   0.52561446  0.034784649            0   0.49082982    1.4997996    2.0254141   -2.1166219 
10260000    1.0879783 -6.5712418e-05   0.41200832   0.02468741            0   0.38732091    1.6115678    2.0235761   -1.3408997 
10265000    1.0127406 0.00013450483   0.49577865  0.047323187            0   0.44845546     1.500122    1.9959006    8.8825481 
10270000   0.98148024 0.00012425174   0.52396038  0.049252952            0   0.47470743    1.4538176     1.977778    8.3394672 
10275000    1.0613342 -5.7528514e-05   0.44939636  0.025947996            0   0.42344837    1.5721012    2.0214976  -0.92396235 
10280000   0.98962341 -7.3771145e-05   0.54419744   0.02214622            0   0.52205122    1.4658797    2.0100771   -1.7670055 
10285000    1.0206944 -3.7848847e-05   0.47291744   0.03705615            0   0.43586129    1.5119036    1.9848211  0.046960131 
10290000    1.0033146 -1.9960611e-05   0.51629638  0.025523529            0   0.49077285    1.4861598    2.0024562   0.98047289 
10295000    1.0196948 -1.2662911e-05   0.47411161  0.075890276            0   0.39822134    1.5104229    1.9845345    1.3361935 
10300000    1.0463569 -2.3249053e-05   0.45032355  0.044177813            0   0.40614573    1.5499161    2.0002396    0.8098881 
10305000     1.045141 3.5680653e-05   0.41838959  0.018984036            0   0.39940555    1.5481152    1.9665048    3.7933542 
10310000   0.99193505 9.3828593e-05   0.46842856 0.0046039295            0   0.46382463    1.4693038    1.9377324    6.7417563 
10315000    1.0265585 0.00016973138   0.43341054 0.0013048766            0   0.43210566    1.5205898    1.9540003    10.644247 
10320000   0.97250283 0.00015027597   0.49706934 0.0092966481            0   0.48777269    1.4405198    1.9375892     9.631719 
10325000    1.0363499  6.71542e-05   0.40897354  0.018614402            0   0.39035914    1.5350933    1.9440669    5.3823619 
10330000   0.95770736 5.1891143e-05    0.5051141  0.046630106            0   0.45848399     1.418604    1.9237181    4.5805447 
10335000    1.0045649 4.2098965e-05   0.46544249    0.1043789            0   0.36106359    1.4880117    1.9534542    4.1089212 
10340000    1.0063746 -4.4516221e-05   0.43565467  0.016503838            0   0.41915083    1.4906923     1.926347  -0.35288351 
10345000    0.9221341 2.4530539e-07   0.54339205  0.019241633            0   0.52415042    1.3659111    1.9093032    1.9218628 
10350000   0.97536083 3.9034976e-05   0.45516442 0.0043133889            0   0.45085103    1.4447532    1.8999177    3.8985084 
10355000   0.99935572 1.8904029e-05   0.44307667   0.02629974            0   0.41677693    1.4802957    1.9233723    2.8912586 
10360000    1.0031651 9.2543432e-05   0.43525726  0.042866703            0   0.39239055    1.4859383    1.9211955    6.6594192 
10365000   0.95147598 1.1182984e-05   0.50181285  0.033807623            0   0.46800523    1.4093738    1.9111866    2.4837554 
10370000   0.95821401 -0.00013734157   0.48452729  0.061718009            0   0.42280928    1.4193545    1.9038818   -5.1280065 
10375000   0.97485676 -0.00011936217   0.48792823  0.027579916            0   0.46034831    1.4440066    1.9319348   -4.1794083 
10380000    0.9424649 8.4730621e-06   0.52534527 0.00095175945            0   0.52439351    1.3960261    1.9213714    2.3551922 
10385000    1.0709802 5.6098769e-05   0.36303135 0.00030062528            0   0.36273072    1.5863894    1.9494207    4.8216777 
10390000    1.0413513 1.6614313e-05   0.42420955 4.2562461e-06            0   0.42420529    1.5425016    1.9667112     2.817364 
10395000    1.0262928 0.0001118636   0.47102628 0.0030531979            0   0.46797308    1.5201962    1.9912225    7.7186389 
10400000    1.0455844 8.6266745e-05   0.45177002  0.015231946            0   0.43653807    1.5487719    2.0005419    6.4173993 
10405000    1.0688235 -1.0727563e-06   0.46053589  0.025044875            0   0.43549101    1.5831947    2.0437306    1.9888055 
10410000    1.0443668 9.7812328e-05   0.51828258  0.026832982            0    0.4914496    1.5469683    2.0652509    7.0732421 
10415000    1.0475853 0.00011520521   0.48593919  0.031769081            0   0.45417011    1.5517357    2.0376749    7.9361817 
10420000    1.0129624 5.431865e-05   0.53805914  0.056138047            0   0.48192109    1.5004506    2.0385097    4.8196246 
10425000     1.076916 1.5185986e-05   0.45693254  0.010227625            0   0.44670492    1.5951818    2.0521144    2.8296368 
10430000    1.0117463 -2.4290602e-05   0.52748076 0.0010681335            0   0.52641262    1.4986492    2.0261299   0.78245111 
10435000     1.079763 -2.5459287e-05   0.41372469  0.013122065            0   0.40060263     1.599399    2.0131237   0.70960819 
10440000      1.05202 -9.7427892e-05   0.48425264 0.0094499803            0   0.47480266    1.5583046    2.0425572   -2.9457509 
10445000     1.021408 -0.00012326732   0.52863964   0.02336698            0   0.50527266    1.5129605    2.0416002   -4.2696868 
10450000    1.0791095 -1.2223308e-05   0.43617282  0.031685778            0   0.40448704     1.598431    2.0346038    1.4087704 
10455000    1.0256064 6.1762722e-05    0.5149132   0.02772234            0   0.48719086    1.5191796    2.0340928    5.1963441 
10460000    1.0807712 -3.7675731e-05   0.43989309  0.016518894            0   0.42337419    1.6008924    2.0407855   0.11178805 
10465000    1.0313044 -2.8981658e-05   0.54672419  0.040527381            0   0.50619681    1.5276196    2.0743438   0.59048289 
10470000    1.1119664 -6.7297085e-05   0.45781577  0.033909286            0   0.42390649    1.6471002     2.104916   -1.3406948 
10475000    1.0891365 -8.8030414e-05   0.46913096  0.030936405            0   0.43819456    1.6132835    2.0824145   -2.4247427 
10480000    1.1280573 9.1369148e-05    0.4312227  0.029189137            0   0.40203356    1.6709349    2.1021576     6.780258 
10485000    1.0818586 0.00020842165   0.47471466  0.017180964            0    0.4575337    1.6025031    2.0772178    12.748406 
10490000    1.0984979 7.5243069e-05   0.44031107   0.01048582            0   0.42982525    1.6271501    2.0674611    5.9199063 
10495000    1.0344362 5.4645414e-05   0.52124519   0.01650079            0    0.5047444    1.5322586    2.0535038     4.851349 
10500000    1.0338706 9.0471888e-05   0.51887526  0.019238837            0   0.49963643    1.5314208    2.0502961    6.6824567 
10505000    1.0518922 -3.2466757e-05   0.49199007 0.0023351812            0   0.48965489    1.5581153    2.0501054   0.38780746 
10510000    1.0171777 -7.8219751e-05   0.54456022  0.011129132            0   0.53343109    1.5066944    2.0512546   -1.9535966 
10515000    1.0029964 -0.00012155293   0.56685674  0.035832792            0   0.53102395    1.4856884    2.0525452   -4.1709647 
10520000    1.0538433 -2.1277939e-05   0.47094034   0.04078459            0   0.43015575    1.5610054    2.0319457   0.94251527 
10525000    1.0480946 -8.1504133e-06   0.51173407   0.01211648            0   0.49961759    1.5524901    2.0642242     1.646923 
10530000    1.0992867 7.4210245e-05   0.45114306 0.0075475288            0   0.44359553    1.6283184    2.0794614     5.879026 
10535000    1.0558478 0.00013259484   0.53001877  0.012636073            0    0.5173827    1.5639746    2.0939933    8.8828492 
10540000    1.0572639 4.2095455e-05   0.54782369  0.028447874            0   0.51937582    1.5660721    2.1138958    4.2691831 
10545000    1.1173988 -3.6934405e-05   0.46640548 0.0015304874            0     0.464875     1.655147    2.1215525   0.23051098 
10550000    1.0945611 -0.00010680299   0.48089238 0.0021153492            0   0.47877703    1.6213187     2.102211   -3.3661019 
10555000    1.0851908 -7.5964567e-06   0.49007476   0.02290855            0   0.46716621    1.6074389    2.0975137    1.7085751 
10560000    1.0145576 9.0264245e-06   0.59299688  0.063002907            0   0.52999398    1.5028135    2.0958104    2.5579633 
10565000    1.0482655 8.3859008e-05   0.54131804  0.020756838            0    0.5205612    1.5527432    2.0940612    6.3876425 
10570000    1.0803943 8.4817783e-05   0.46784236  0.010010447            0   0.45783192     1.600334    2.0681764    6.4108469 
10575000    1.0816807 9.7139652e-05   0.44895998 0.0010034181            0   0.44795657    1.6022395    2.0511995    7.0247497 
10580000    1.0331696 5.1376737e-05   0.52862237            0            0   0.52862237    1.5303824    2.0590048    4.6894937 
10585000    1.0344599 -6.4725497e-05   0.51329674 0.0021893323            0   0.51110741    1.5322937    2.0455904   -1.2683551 
10590000    1.0504525 -2.0843059e-05   0.51129099  0.014940234            0   0.49635076    1.5559828    2.0672738    1.0001091 
10595000     1.030137 6.8531436e-05   0.51012971  0.064016771            0   0.44611294    1.5258905    2.0360202    5.5448297 
10600000   0.97341416 0.00013015256   0.59243561  0.036165719            0   0.55626989    1.4418697    2.0343053    8.6981166 
10605000     1.025243 0.00011959431   0.50302967 0.0014570763            0   0.50157259    1.5186412    2.0216708    8.1448997 
10610000    1.1004803 -2.1778529e-05    0.3902902            0            0    0.3902902    1.6300865    2.0203767   0.90531596 
10615000    1.1065648 -6.1131097e-05   0.38309701 2.3185367e-05            0   0.38307382    1.6390992    2.0221962    -1.107716 
10620000    1.0521776 -1.3669353e-05   0.44380012 0.0026208862            0   0.44117923    1.5585381    2.0023382    1.3024673 
10625000    1.0099528 -4.3045479e-07   0.49582671  0.010490136            0   0.48533658    1.4959926    1.9918193      1.96978 
10630000    1.0331503 6.812119e-06   0.49453618   0.01277079            0   0.48176539    1.5303538      2.02489    2.3736705 
10635000    1.0468267 5.4311646e-05   0.46991212  0.036525007            0   0.43338711    1.5506121    2.0205242    4.8012805 
10640000    1.0262374 5.8229833e-05   0.50465507   0.01889203            0   0.48576304    1.5201142    2.0247692    5.0061367 
10645000    1.0331342 3.5890593e-05   0.49908455    0.0593057            0   0.43977885    1.5303301    2.0294146     3.867013 
10650000   0.98603674 5.423787e-06   0.58087702  0.084830334            0   0.49604668    1.4605669    2.0414439    2.3191418 
10655000      1.03867 -5.4387731e-05   0.48938618  0.030536792            0   0.45884939    1.5385299    2.0279161  -0.75673572 
10660000   0.99988175 -8.6557908e-06   0.51943232  0.037481185            0   0.48195114    1.4810748    2.0005072    1.5573307 
10665000    1.0723594 8.1139205e-05   0.43728052  0.022469406            0   0.41481112    1.5884323    2.0257129    6.1800402 
10670000     1.025427 3.5241192e-05   0.47893056  0.011933548            0   0.46699701    1.5189137    1.9978443    3.8021933 
10675000    1.0639068 -7.1190475e-06   0.45217051 0.0025963731            0   0.44957414    1.5759119    2.0280825    1.6635872 
10680000    1.0866395 -4.2180928e-05   0.41443099  0.017280814            0   0.39715017    1.6095848    2.0240158  -0.13564773 
10685000    0.9610736 -0.00019689304   0.59211676   0.02537974            0   0.56673702    1.4235903     2.015707   -8.0652164 
10690000    1.0611382 -6.2924162e-05   0.44329686  0.019921064            0    0.4233758    1.5718109    2.0151078   -1.2066093 
10695000     1.042116 7.0269483e-05   0.46315088  0.018466596            0   0.44468428    1.5436344    2.0067853    5.6045828 
10700000   0.98688998 -3.3077745e-05   0.54505359  0.028619444            0   0.51643415    1.4618308    2.0068844   0.31330381 
10705000    1.0110451 2.5683881e-06   0.50496287   0.01660799            0   0.48835488    1.4976105    2.0025734    2.1340749 
10710000    1.0147118 5.367094e-05   0.49468302  0.028720012            0   0.46596301    1.5030419    1.9977249     4.745677 
10715000    1.0380982 9.4322084e-05   0.47529151 0.0029630786            0   0.47232843     1.537683    2.0129745    6.8422652 
10720000    1.0293191 3.9215303e-05   0.49351903 0.0014942985            0   0.49202473    1.5246789    2.0181979    4.0260214 
10725000   0.97122464 -5.4375689e-05   0.56168605 0.00077903101            0   0.56090701    1.4386265    2.0003125  -0.78372271 
10730000    1.0048789 -6.7977417e-05   0.47861448 0.00058964919            0   0.47802483    1.4884769    1.9670914   -1.5133523 
10735000    0.9639611 -0.0001113512   0.53512074  0.019738476            0   0.51538226    1.4278674    1.9629881   -3.7381931 
10740000   0.89286394 -0.00010393561   0.61499497  0.038612173            0    0.5763828    1.3225547    1.9375497   -3.3839535 
10745000   0.98961267 -0.00012871017   0.49213451  0.031438901            0   0.46069561    1.4658638    1.9579983   -4.6319626 
10750000   0.95167721 -3.8965854e-05    0.5836884   0.01078157            0   0.57290683    1.4096719    1.9933603 -0.0016914661 
10755000   0.90811072 8.0401079e-05   0.64933125  0.017805431            0   0.63152582     1.345139    1.9944702    6.1110055 
10760000   0.99297725 -2.6250945e-05   0.52434767  0.029467079            0   0.49488059    1.4708476    1.9951952   0.65114685 
10765000    1.0403745 -9.9996959e-05   0.44762789  0.017255416            0   0.43037248    1.5410547    1.9886826   -3.1311617 
10770000    1.0385013 1.3054388e-05   0.46247892 0.0057205711            0   0.45675835    1.5382801     2.000759    2.6691437 
10775000    1.0492845 -9.9761546e-07   0.45268489  0.013631545            0   0.43905335    1.5542526    2.0069375    1.9558596 
10780000   0.95550959 -9.9089495e-05   0.57589082  0.025878655            0   0.55001216    1.4153486    1.9912394   -3.0821427 
10785000    1.0352831 2.0292784e-05   0.46657494  0.010518488            0   0.45605645     1.533513     2.000088    3.0390785 
10790000    1.1196679 9.1532316e-05   0.37334267 0.0048350066            0   0.36850766    1.6585081    2.0318508    6.7183053 
10795000   0.96204824 3.8965278e-05   0.58349508 0.0098985966            0   0.57359648     1.425034     2.008529    4.0035513 
10800000    1.0643444 0.00012750247   0.45437438  0.025606216            0   0.42876816    1.5765601    2.0309345     8.559061 
10805000    1.0309685 -1.4172564e-05   0.49848082 0.0034164719            0   0.49506435    1.5271221    2.0256029    1.2999677 
10810000    1.0580364 -7.7165622e-05   0.45038849            0            0   0.45038849    1.5672165     2.017605   -1.9332749 
10815000    1.0502127 -0.00010582247   0.44713461 0.00069883615            0   0.44643578    1.5556275    2.0027621   -3.4153482 
10820000     0.953928 1.2307163e-05    0.5703516 0.0048915913            0      0.56546    1.4130059    1.9833574    2.6134842 
10825000    0.9690599 0.00010524279   0.54648165  0.017786067            0   0.52869559      1.43542    1.9819016    7.3703323 
10830000   0.97857117 0.00011350018   0.52959072  0.029627517            0    0.4999632    1.4495085    1.9790993    7.7903084 
10835000   0.99196625 9.4111827e-05   0.47959248  0.012866726            0   0.46672575      1.46935    1.9489425     6.767468 
10840000   0.96333118 -1.4027966e-05   0.51845121 0.0026861529            0   0.51576506    1.4269343    1.9453855    1.2271537 
10845000    1.0376742 -0.00013851845   0.42772927 0.0001223104            0   0.42760696     1.537055    1.9647842   -5.1273602 
10850000    1.0222946 -7.2213145e-05   0.45817874  0.007467785            0   0.45071095    1.5142739    1.9724526   -1.7248604 
10855000   0.94361147 0.00012860231   0.58752881  0.021204882            0   0.56632393    1.3977245    1.9852533    8.5696916 
10860000   0.95335762 2.5094058e-05   0.54800982  0.035872381            0   0.51213744     1.412161    1.9601708    3.2449866 
10865000    1.0002603 7.5473273e-06   0.49852688  0.024217025            0   0.47430985    1.4816356    1.9801624    2.3665856 
10870000    1.0251771 0.00014093474   0.48166422  0.011940954            0   0.46972326    1.5185436    2.0002078    9.2160662 
10875000    1.0084679 2.9798935e-05   0.54941715   0.00972236            0   0.53969479     1.493793    2.0432102    3.5689157 
10880000    1.0418402 -2.7804751e-05   0.53369943  0.018943652            0   0.51475578    1.5432258    2.0769252   0.65332195 
10885000    1.0346063 9.1917939e-05   0.57074049  0.015270086            0   0.55547041    1.5325106    2.1032511    6.8094495 
10890000    1.0609216 4.2107094e-05   0.53661164  0.017067372            0   0.51954427    1.5714902    2.1081018     4.263985 
10895000    1.0437076 -2.8583712e-05   0.58867279   0.02684179            0     0.561831    1.5459919    2.1346647   0.67117868 
10900000    1.0647867 3.7622353e-05   0.58439632  0.074508526            0    0.5098878    1.5772153    2.1616116    4.0878761 
10905000    1.1414974 5.013944e-05   0.48223944 0.0054085297            0   0.47683091    1.6908431    2.1730825    4.7402218 
10910000    1.0845517 -1.6823177e-05   0.59532733 0.00082951286            0   0.59449782    1.6064922    2.2018196    1.3404729 
10915000    1.1446289 -3.281126e-05   0.50009061  0.016833175            0   0.48325743    1.6954816    2.1955722    0.5156357 
10920000    1.0549874 -2.2546004e-05   0.63718644  0.047016382            0   0.59017006    1.5627001    2.1998865    1.0455311 
10925000    1.0785957 5.1169934e-05   0.57773506  0.052904552            0   0.52483051    1.5976699     2.175405    4.7953056 
10930000    1.1233531 5.0043685e-05   0.53284302  0.044065669            0   0.48877735    1.6639668    2.1968098    4.7590465 
10935000    1.1428619 -3.2473837e-05   0.49585955  0.024388634            0   0.47147092    1.6928642    2.1887237   0.52606326 
10940000    1.0920724 -5.7678209e-05   0.60540737  0.067723357            0   0.53768401    1.6176322    2.2230396  -0.73008467 
10945000    1.1533975 -9.0260605e-05   0.50980206  0.033781411            0   0.47602065    1.7084701    2.2182722   -2.4030708 
10950000    1.1083793 9.425864e-06   0.57503097  0.022630057            0   0.55240092    1.6417869    2.2168179    2.6994221 
10955000    1.1983212 0.00012139155   0.42129008   0.01131961            0   0.40997047    1.7750133    2.1963034    8.4115509 
10960000    1.1626638 4.7233634e-05   0.45416961  0.017870941            0   0.43629867    1.7221957    2.1763653    4.5947274 
10965000    1.1125717 -7.0976668e-05   0.52806125  0.019281974            0   0.50877928    1.6479968     2.176058   -1.4579473 
10970000    1.1064988 -8.3247176e-05   0.51811922  0.012520308            0   0.50559891    1.6390013    2.1571205   -2.1051349 
10975000    1.1005863 2.7702705e-06   0.55127206  0.037082815            0   0.51418925    1.6302435    2.1815155    2.3233534 
10980000    1.0660743 8.9875457e-05   0.60192995  0.067653173            0   0.53427678    1.5791226    2.1810526     6.782676 
10985000    1.1200609 0.00014482507   0.52914837  0.019325856            0   0.50982251    1.6590902    2.1882385    9.6032822 
10990000    1.1032194 -6.1861157e-05   0.54782636 0.0098827945            0   0.53794357    1.6341437    2.1819701  -0.98532117 
10995000    1.1464311 -0.00017496195   0.49441641  0.025599044            0   0.46881737     1.698151    2.1925674   -6.7654842 
11000000     1.143634 -8.8926412e-05   0.49699264  0.034720225            0   0.46227241    1.6940079    2.1910005   -2.3620317 
11005000    1.1347907 -4.9660611e-06   0.47342828  0.027579651            0   0.44584863    1.6809088     2.154337    1.9000747 
11010000    1.0939157 -3.3357228e-05   0.51891655  0.029218291            0   0.48969826    1.6203627    2.1392792   0.43138919 
11015000    1.0347903 -0.0001723402   0.58690526 0.0028939035            0   0.58401135    1.5327831    2.1196883   -6.7041297 
11020000    1.1124537 -8.1763965e-05   0.46892536   0.02066176            0    0.4482636    1.6478221    2.1167474   -2.0695675 
11025000    1.1054594 3.7335046e-05   0.44993369  0.049132073            0   0.40080161    1.6374617    2.0873954    3.9989497 
11030000    1.0410368 -9.4165918e-06   0.54461428  0.068407135            0   0.47620715    1.5420358    2.0866501    1.6045206 
11035000    1.0614529 -6.5483187e-05   0.48888146  0.014240194            0   0.47464126    1.5722771    2.0611585   -1.2915806 
11040000    1.0748437 -0.00013059708   0.48656879  0.012895026            0   0.47367376    1.5921123     2.078681   -4.6078895 
11045000    1.0780016 3.1446517e-05   0.49518704  0.019026399            0   0.47616064    1.5967899    2.0919769    3.7020386 
11050000    1.1165279 9.119435e-05   0.42348667  0.011473137            0   0.41201353    1.6538569    2.0773436    6.7464943 
11055000    1.0745344 -0.00010157047   0.50231321 0.0069380417            0   0.49537517    1.5916541    2.0939673   -3.1064407 
11060000    1.0507832 -3.6718588e-05   0.49154137  0.012946141            0   0.47859523    1.5564726     2.048014   0.16802228 
11065000    1.0251787 0.0001120594   0.52569321  0.028242936            0   0.49745027     1.518546    2.0442392    7.7816804 
11070000    1.0450629 9.9093244e-05   0.50603384 0.0032344483            0    0.5027994    1.5479993    2.0540332    7.1276073 
11075000    1.0553361 6.8432715e-05   0.50292131 0.0057323769            0   0.49718894    1.5632166    2.0661379    5.5698929 
11080000    1.1133865 -0.00013013972   0.44682369  0.014454823            0   0.43236887    1.6492038    2.0960275   -4.5671263 
11085000    1.0703876 -9.2506372e-05   0.50400848  0.018804795            0   0.48520368    1.5855116    2.0895201   -2.6468061 
11090000    1.0527226 -5.1608362e-05   0.54708853  0.018228229            0    0.5288603    1.5593453    2.1064339  -0.53591424 
11095000    1.0976977 -6.7736603e-05   0.47638059 0.0082549333            0   0.46812566    1.6259647    2.1023453   -1.3657688 
11100000    1.0143682 -0.0001200364    0.6031762  0.021857522            0   0.58131868    1.5025329    2.1057091   -4.0401547 
11105000     1.023928 -6.0570246e-05   0.60406025  0.043082388            0   0.56097787    1.5166933    2.1207536  -0.98044302 
11110000    1.1470916 -1.2222293e-06   0.40667012    0.0272202            0   0.37944992    1.6991295    2.1057996    2.0432215 
11115000    1.1087233 -5.60095e-05   0.44863918 0.00058437692            0    0.4480548    1.6422964    2.0909356  -0.77675081 
11120000      1.06291 3.4355828e-05   0.54411046 0.0024569725            0   0.54165349    1.5744354    2.1185459    3.8775643 
11125000    1.0686706 1.1705955e-05   0.51272835  0.031777676            0   0.48095068    1.5829684    2.0956967    2.6950416 
11130000    1.0299021 -2.0668329e-05   0.55760109  0.039441924            0   0.51815916    1.5255424    2.0831435    1.0249251 
11135000    1.0248053 -2.2181309e-05   0.55367197  0.023912687            0   0.52975928    1.5179928    2.0716648   0.93598179 
11140000    1.0088974 -0.00013607132   0.59536985  0.032892732            0   0.56247712    1.4944293    2.0897992   -4.8770526 
11145000    1.0601544 -4.6886983e-05    0.5422795  0.033467422            0   0.50881208    1.5703537    2.1126332  -0.28798031 
11150000    1.0594809 2.9110054e-05   0.53795918 0.0053261764            0     0.532633    1.5693561    2.1073153      3.59775 
11155000    1.0662739 4.2303147e-05   0.53595542  0.010147372            0   0.52580805    1.5794182    2.1153736    4.2812947 
11160000    1.0224038 -2.8494887e-05   0.57081704  0.033362655            0   0.53745439    1.5144356    2.0852526   0.62631442 
11165000   0.98871132 -6.5000887e-05   0.65014363  0.050420626            0     0.599723    1.4645286    2.1146723   -1.2133732 
11170000    1.0975586 2.1748316e-05   0.46265688  0.047634616            0   0.41502226    1.6257587    2.0884156    3.2019294 
11175000    1.0233456 8.5756626e-05   0.58134215  0.044039928            0   0.53730222    1.5158307    2.0971728    6.4879121 
11180000    1.0673483 -1.1606787e-05   0.53221113 0.0036271004            0   0.52858403    1.5810096    2.1132208    1.5189533 
11185000    1.0592267 -6.7452732e-05   0.53284138 0.0051436855            0   0.52769769    1.5689795    2.1018209    -1.351759 
11190000    1.0433758 -5.4708391e-05   0.54867053 0.0036053089            0   0.54506522    1.5455004    2.0941709  -0.70689873 
11195000    1.0415243 -6.4388002e-05   0.53565189 0.0040971553            0   0.53155473    1.5427578    2.0784097    -1.218256 
11200000    1.0639505 4.2250686e-05   0.49453549 0.0050783726            0   0.48945711    1.5759767    2.0705122    4.2337473 
11205000    0.9544967 8.1095883e-08   0.64941432  0.029433866            0   0.61998045    1.4138482    2.0632625    2.0674147 
11210000    1.0338455 -5.1615747e-05   0.50763272  0.027687709            0   0.47994501    1.5313836    2.0390163  -0.60370994 
11215000     1.077826 -5.3934988e-06    0.4407386 0.0014000217            0   0.43933858    1.5965297    2.0372683    1.7611212 
11220000    1.0508619 -7.2473737e-05   0.50968797 0.00052776489            0   0.50916021    1.5565892    2.0662772   -1.6443782 
11225000    1.0255397 -1.3464042e-05   0.53083471 0.0034194497            0   0.52741526    1.5190807    2.0499154    1.3605565 
11230000    1.0529737 -1.5907319e-05   0.51537128  0.004954526            0   0.51041676    1.5597173    2.0750885    1.2606338 
11235000    1.0925022 6.8899312e-06   0.45499208 0.0086635105            0   0.44632857    1.6182688    2.0732609    2.4260254 
11240000    1.0320981 -0.00012932393   0.52593036  0.011400333            0   0.51453003    1.5287953    2.0547256   -4.5666595 
11245000    1.0183865 -0.00012707144   0.54562951 0.0019491268            0   0.54368038     1.508485    2.0541145   -4.4519432 
11250000     1.015341 -4.1683967e-05   0.56951109            0            0   0.56951109    1.5039738    2.0734849 -0.060734154 
11255000   0.97853349 -6.4545295e-06   0.60263499 0.0066511648            0   0.59598383    1.4494527    2.0520877    1.7216158 
11260000    1.0414363 9.9798435e-05   0.51053579  0.027930719            0   0.48260507    1.5426276    2.0531634    7.1628432 
11265000    1.0030954 -3.0699392e-05   0.58497138  0.024961446            0   0.56000993    1.4858351    2.0708065   0.49899761 
11270000    1.0215503 -4.4876743e-05   0.53062764  0.014216802            0   0.51641084    1.5131713     2.043799  -0.25389029 
11275000     1.081475 -4.2021488e-05   0.44252057 0.0038828648            0    0.4386377    1.6019348    2.0444554  -0.10704478 
11280000     1.032697 -0.00018275305   0.50953591  0.007678542            0   0.50185736    1.5296825    2.0392184   -7.3177377 
11285000     1.080206 -0.00012774884   0.47096257 0.0069802155            0   0.46398236    1.6000552    2.0710177   -4.4697228 
11290000    1.0783565 4.5061165e-05   0.48221997 0.0015410013            0   0.48067896    1.5973155    2.0795355    4.3866671 
11295000    1.0566488 1.6761443e-05   0.49399311 0.0010592038            0    0.4929339    1.5651611    2.0591542    2.9173401 
11300000    1.0601058 -9.3422673e-05   0.49879609 0.00022970485            0   0.49856638    1.5702817    2.0690778   -2.7141631 
11305000    1.0115372 -9.452116e-06   0.54329445 0.0079069992            0   0.53538745    1.4983395     2.041634    1.5576856 
11310000    1.0140818 0.00010150851   0.54234197  0.027727257            0   0.51461471    1.5021087    2.0444506    7.2416865 
11315000   0.97541566 0.00014858186   0.58455056  0.010664304            0   0.57388626    1.4448345     2.029385     9.636776 
11320000   0.98029875 5.7764971e-05   0.55018432 0.0051923325            0   0.54499199    1.4520675    2.0022518    4.9598184 
11325000    1.0214785 7.1466187e-05   0.50170163 0.0009140934            0   0.50078753     1.513065    2.0147666    5.6738354 
11330000   0.94531857 6.3624078e-06   0.62450453 0.0018246205            0   0.62267991    1.4002531    2.0247577     2.350513 
11335000   0.98247478 -0.00013152455   0.57928398 0.0029072106            0   0.57637677    1.4552908    2.0345748   -4.6994822 
11340000    1.0899617 3.3137301e-06   0.38961354  0.010714195            0   0.37889935    1.6145057    2.0041193    2.1737823 
11345000   0.99715251 -2.7175081e-05   0.52512333  0.038817771            0   0.48630556    1.4770322    2.0021555   0.61079133 
11350000   0.93069799 -0.00016687387    0.6505159 0.0061323352            0   0.64438357    1.3785964    2.0291123   -6.5148296 
11355000   0.99331019 -8.2852471e-06   0.53990054  0.017784202            0   0.52211634    1.4713407    2.0112413    1.5870366 
11360000   0.96294851 0.00013861722   0.55280832  0.024500512            0    0.5283078    1.4263675    1.9791758    9.0763773 
11365000    1.0086641 -8.6200316e-05   0.46905752 0.0025187401            0   0.46653878    1.4940837    1.9631412    -2.450315 
11370000    1.0148554 -0.00022625587   0.49622502 0.0022342162            0    0.4939908    1.5032545    1.9994795   -9.5848208 
11375000    1.0294814 -9.9805028e-06   0.47368823 0.0016139505            0   0.47207428    1.5249193    1.9986076    1.4876058 
11380000   0.95719613 1.2427547e-06   0.56454972 0.00050521119            0   0.56404451    1.4178468    1.9823965    2.0460255 
11385000    1.0168712 -8.6297297e-06   0.49027913 0.0046320881            0   0.48564704    1.5062405    1.9965196    1.5546774 
11390000    1.0031707 -4.3908911e-05   0.53122127  0.020551597            0   0.51066968    1.4859466    2.0171678   -0.2309684 
11395000    1.0837683 3.5776064e-05    0.4490436  0.015928321            0   0.43311528    1.6053318    2.0543754    3.8861099 
11400000    1.0429926 6.0927806e-05   0.47566348  0.011677935            0   0.46398555    1.5449328    2.0205963    5.1400999 
11405000    1.0809229 1.5025756e-05   0.45692013 0.0014247329            0   0.45549539     1.601117    2.0580371    2.8273559 
11410000    1.0663464 8.0394926e-05   0.45769077 0.00029766074            0   0.45739311    1.5795256    2.0372164    6.1534366 
11415000   0.98733305 0.00010063931   0.55162006 0.0099626465            0   0.54165742    1.4624871    2.0141071      7.16684 
11420000   0.98430578 3.4764878e-05   0.53029995  0.048951402            0   0.48134855    1.4580029    1.9883029    3.7682647 
11425000   0.92662841 -8.3102741e-05   0.63220214  0.050748926            0   0.58145322    1.3725683    2.0047705   -2.2500899 
11430000   0.97434207 -0.00013596378   0.52088973  0.015101623            0    0.5057881    1.4432442    1.9641339   -4.9972116 
11435000    1.0421627 4.4142941e-06   0.43403102 0.0015837249            0    0.4324473    1.5437034    1.9777345    2.2037463 
11440000   0.96175034 5.9047444e-05   0.54855127  0.006020603            0   0.54253067    1.4245927     1.973144    4.9963731 
11445000   0.99369453 1.7280927e-05   0.54149793 0.0092197398            0   0.53227819      1.47191     2.013408    2.8981914 
11450000    1.1161466 -2.5255055e-06   0.40452391 0.00080184113            0   0.40372207    1.6532921     2.057816    1.9285101 
11455000    1.0155392 0.00010184023   0.54361318 9.870498e-05            0   0.54351447    1.5042674    2.0478806    7.2621003 
11460000    1.0774719 0.00014251079   0.44893831            0            0   0.44893831    1.5960052    2.0449436    9.3414961 
11465000    1.0007413 1.1950182e-05   0.57613315 0.0033167804            0   0.57281637    1.4823481    2.0584813    2.6703306 
11470000    1.0767756 1.2333258e-05   0.48270398  0.017209888            0   0.46549409    1.5949739    2.0776779    2.7091407 
11475000    1.0335876 6.1310585e-06   0.54343667  0.010523665            0   0.53291301    1.5310017    2.0744384    2.3883485 
11480000   0.96952937 -7.7857574e-05   0.63065902  0.012247887            0   0.61841113    1.4361154    2.0667744   -1.9195334 
11485000    1.0085481 2.4476685e-05   0.53217928  0.037804896            0   0.49437438    1.4939119    2.0260912    3.2792975 
11490000   0.99822073 1.5774735e-05   0.54944753  0.018473216            0   0.53097432    1.4786145     2.028062    2.8357284 
11495000    1.0230778 -6.1083895e-05   0.51717725  0.029489083            0   0.48768816     1.515434    2.0326112   -1.0948842 
11500000   0.95454204 3.6764264e-05   0.61210715  0.030496607            0   0.58161054    1.4139154    2.0260225    3.9083529 
11505000   0.97652753 -2.0976727e-05   0.58218289  0.022188973            0   0.55999391    1.4464814    2.0286643   0.95465586 
11510000    1.0628415 3.6970264e-05   0.47669058  0.019621206            0   0.45706937     1.574334    2.0510245     3.943902 
11515000    1.0178576 2.226792e-05   0.52588005  0.018576251            0    0.5073038    1.5077016    2.0335817    3.1736992 
11520000   0.99843304 4.3233876e-05   0.54404785 0.0096431505            0    0.5344047    1.4789289    2.0229768    4.2365513 
11525000    1.0390312 0.00013397858   0.50647491  0.021384068            0   0.48509084    1.5390649    2.0455398    8.9052431 
11530000   0.97312743 4.1492179e-05   0.63206546  0.025870664            0   0.60619479     1.441445    2.0735105      4.19791 
11535000    1.0599797 -9.0779794e-05   0.52758439  0.016067752            0   0.51151664     1.570095    2.0976794   -2.5502461 
11540000    1.1003858 -0.00010193191   0.48045102  0.021913054            0   0.45853796    1.6299464    2.1103974   -3.1085163 
11545000    1.0071611 3.0706034e-06   0.64347207  0.021935271            0    0.6215368    1.4918574    2.1353295    2.2925444 
11550000    1.0989976 -4.7489408e-05   0.52765221 0.0015631156            0   0.52608909    1.6278901    2.1555423  -0.27591534 
11555000    1.0656209 -6.8343071e-05   0.55122997 0.0043371605            0   0.54689281    1.5784509    2.1296809   -1.3694844 
11560000    1.0467097 -6.5056187e-05   0.54196233  0.015417738            0    0.5265446    1.5504387     2.092401   -1.2384758 
11565000    1.0638138 7.3090641e-05   0.52216854  0.017706307            0   0.50446223    1.5757742    2.0979427    5.8401836 
11570000    1.0390516 0.00010985555   0.55615696 0.0068083422            0   0.54934862    1.5390952    2.0952522    7.7198563 
11575000    1.0554089 2.2308736e-05   0.54877422 0.00019037274            0   0.54858385    1.5633244    2.1120986    3.2543059 
11580000    1.0464691 5.8690285e-05   0.57110163  0.007563153            0   0.56353847    1.5500823     2.121184    5.1261265 
11585000    1.0993903 0.00010417479   0.49326109  0.047752231            0   0.44550885    1.6284719     2.121733    7.4554822 
11590000    1.0248933 6.5841164e-05   0.61353542  0.024499845            0   0.58903558    1.5181233    2.1316587    5.5027263 
11595000    1.0893545 -7.5830921e-06   0.52895139  0.009071047            0   0.51988034    1.6136064    2.1425578    1.7543035 
11600000    1.0821565 -3.322318e-05   0.50690826  0.016899187            0   0.49000907    1.6029444    2.1098526   0.40882584 
11605000    1.0793631 2.188616e-05   0.51750704  0.046404336            0   0.47110271    1.5988066    2.1163136     3.236885 
11610000    1.0617699 0.0001375769   0.55743207   0.05070496            0   0.50672711    1.5727467    2.1301788     9.174116 
11615000    1.0190288 0.00010634913   0.67899811  0.066628805            0   0.61236931    1.5094364    2.1884345    7.6335098 
11620000     1.086597 2.0713508e-06   0.58252935   0.04768052            0   0.53484883    1.6095218    2.1920511    2.2981043 
11625000    1.0878496 -5.6387313e-05   0.57431337  0.048253039            0   0.52606033    1.6113772    2.1856906  -0.70133984 
11630000    1.1016477 -0.00010374059   0.57504245  0.021197478            0   0.55384497    1.6318156     2.206858   -3.1046604 
11635000    1.1316318 -0.00011610651    0.5172721  0.005281134            0   0.51199097    1.6762296    2.1935017   -3.7511518 
11640000     1.037017 -9.4351984e-05   0.67031082  0.021535662            0   0.64877516    1.5360814    2.2063922   -2.6244294 
11645000    1.0934954 2.060175e-05   0.60545292  0.048194569            0   0.55725835    1.6197401     2.225193    3.2800026 
11650000    1.0747497 -1.254018e-05   0.61512238  0.035981888            0   0.57914049     1.591973    2.2070954    1.5650382 
11655000    1.1100443 -1.1443639e-05   0.55209259  0.015841095            0    0.5362515    1.6442532    2.1963458    1.6104315 
11660000    1.1416842 7.8615865e-05   0.51460116 0.0022646559            0    0.5123365    1.6911197    2.2057209    6.2308532 
11665000    1.0806769 1.1968084e-05   0.57604077 0.0033119084            0   0.57272887    1.6007527    2.1767935    2.7895594 
11670000    1.1332935 3.952441e-05   0.46633836  0.018021837            0   0.44831653    1.6786909    2.1450293    4.1686791 
11675000     1.062204 -0.00011933587   0.59060236  0.035799388            0   0.55480298    1.5733897    2.1639921   -3.9460046 
11680000    1.1000041 4.2347059e-05     0.501621  0.041553685            0   0.46006732    1.6293811    2.1310021    4.2991716 
11685000    1.1075197 0.00015538311   0.50424901 0.0089386113            0    0.4953104    1.6405135    2.1447625    10.100378 
11690000    1.0604899 3.2284182e-05   0.59734371   0.04245733            0   0.55488638    1.5708507    2.1681944    3.8211445 
11695000    1.1147734 8.8067873e-05    0.5548906  0.031299637            0   0.52359097    1.6512581    2.2061487    6.7152238 
11700000    1.1496086 1.2476229e-05   0.51004281 0.0058414816            0   0.50420133    1.7028577    2.2129005    2.8516835 
11705000    1.1065074 -5.2800559e-05   0.58606151  0.011793393            0   0.57426812    1.6390141    2.2250756  -0.47831303 
11710000     1.164613 -2.9290179e-05   0.50522944  0.017933948            0   0.48729549    1.7250831    2.2303125   0.73065533 
11715000    1.2078084 -3.3111618e-05    0.4405102 0.0042370692            0   0.43627313    1.7890662    2.2295764   0.53426158 
11720000     1.119001 -2.0432667e-05     0.548668  0.006751158            0   0.54191684    1.6575203    2.2061883    1.1600357 
11725000    1.1229887 -7.1264522e-05   0.53461086  0.017006089            0   0.51760477     1.663427    2.1980378   -1.4507057 
11730000    1.1524269 -6.253373e-05   0.48830899  0.018989983            0   0.46931901    1.7070323    2.1953413   -1.0063857 
11735000    1.0507385 8.959535e-05   0.61803677 0.0038249558            0   0.61421182    1.5564064    2.1744432    6.7617251 
11740000    1.0999873 0.00015071463   0.56214505 0.0056938793            0   0.55645117    1.6293562    2.1915012    9.9080901 
11745000    1.1145405 2.7505157e-05   0.50284768  0.013931761            0   0.48891591    1.6509131    2.1537607    3.5620248 
11750000    1.0874033 -9.1406755e-05   0.51583496  0.018211852            0    0.4976231    1.6107161    2.1265511   -2.5534747 
11755000    1.1089667 4.1485326e-05   0.47355484  0.021978166            0   0.45157667    1.6426569    2.1162118    4.2402604 
11760000    1.0473927 5.4651402e-05   0.55500894  0.023111211            0   0.53189773    1.5514504    2.1064593    4.9046111 
11765000    1.0297673 4.0526944e-05   0.54239239  0.044406142            0   0.49798624    1.5253428    2.0677352    4.1427148 
11770000    1.1006665 -1.2394177e-07   0.43754581  0.027235336            0   0.41031047    1.6303623    2.0679081    2.0615623 
11775000     1.107158 -6.9355326e-05   0.42522177  0.043184783            0   0.38203699    1.6399777    2.0651995   -1.4857932 
11780000    1.0632673 -7.3685723e-06   0.51107458  0.032915162            0   0.47815942    1.5749647    2.0860393    1.7087684 
11785000   0.91625406 -1.9389437e-05    0.7209813  0.027838886            0   0.69314241    1.3572013    2.0781826    1.0854434 
11790000      1.12251 -8.7291941e-06   0.45787691 0.0083232655            0   0.44955364     1.662718    2.1205949    1.6736602 
11795000    1.0943306 7.1974786e-05   0.49186914 0.00042927047            0   0.49143987    1.6209772    2.1128464    5.7979554 
11800000     1.027362 0.0001340395   0.58694021  0.012756453            0   0.57418376      1.52178    2.1087202    8.9715428 
11805000    1.0396101 5.7741267e-05   0.58092195  0.016412922            0   0.56450903    1.5399224    2.1208444    5.0771972 
11810000    1.0133928 7.8128256e-05   0.56175253  0.013082661            0   0.54866987    1.5010881    2.0628406    6.0630073 
11815000    1.0664622 7.4527054e-05   0.51742063  0.010157383            0   0.50726324    1.5796972    2.0971178     5.912903 
11820000    1.0615184 -9.5985513e-05   0.54710963  0.016074341            0   0.53103528    1.5723741    2.1194837   -2.7949746 
11825000    1.0680141 -8.7270978e-05   0.51842723  0.030852647            0   0.48757458    1.5819958    2.1004231    -2.367851 
11830000    1.0858893 -1.4226427e-05   0.50137894 0.0034719785            0   0.49790696    1.6084735    2.1098524    1.3814593 
11835000    1.0685003 -9.6882304e-05   0.52368425 0.0016676333            0   0.52201662     1.582716    2.1064003   -2.8539737 
11840000    1.1425831 -0.00010404351   0.42587598 0.0022192202            0   0.42365676    1.6924512    2.1183271   -3.2087006 
11845000    1.0981334 1.6827521e-05   0.51707726 0.00055627724            0   0.51652099      1.62661    2.1436873    3.0052564 
11850000    1.1201547 -8.0641032e-05   0.48960035 0.00051413852            0   0.48908622    1.6592292    2.1488295   -1.9799913 
11855000     1.098942 -0.00015585327   0.53754482 0.0025774944            0   0.53496733    1.6278078    2.1653527   -5.8143346 
11860000     1.134757 3.6816996e-06   0.49622391 0.0031526617            0   0.49307124    1.6808588    2.1770827    2.3655857 
11865000    1.1108911 8.6499304e-05    0.5429154 0.0021755051            0   0.54073989    1.6455074    2.1884228    6.6171871 
11870000    1.0814786 2.8983948e-06   0.55866756 0.0097117561            0    0.5489558    1.6019402    2.1606077    2.3090055 
11875000    1.0924382 -6.1343671e-05   0.56703624  0.039433605            0   0.52760264    1.6181741    2.1852103  -0.95558562 
11880000    1.1094457 5.9697714e-05   0.57022966  0.057045409            0   0.51318425    1.6433664    2.2135961     5.270119 
11885000    1.0714274 5.0845462e-05   0.62714291  0.037077999            0   0.59006491    1.5870519    2.2141948    4.8174824 
11890000    1.1091799 -3.7801038e-05   0.62010948  0.066492418            0   0.55361706    1.6429728    2.2630823   0.32766914 
11895000    1.2032926 -2.5096293e-05   0.49752096  0.020230914            0   0.47729004    1.7823771    2.2798981   0.99496787 
11900000    1.1599451 1.172848e-05   0.57551664   0.02695292            0   0.54856372    1.7181686    2.2936853    2.8941834 
11905000    1.1346244 7.9524001e-05    0.5791203  0.028975339            0   0.55014496    1.6806624    2.2597827    6.3314115 
11910000    1.1543892 -4.3450149e-05   0.52969557 0.0078278631            0   0.52186771     1.709939    2.2396346  0.014986973 
11915000    1.0678882 -0.00010898309   0.67520366 0.0064104414            0   0.66879322    1.5818093     2.257013   -3.3229213 
11920000     1.092446 -1.60025e-05   0.63920843 0.0085221367            0   0.63068629    1.6181857    2.2573941    1.4380661 
11925000    1.1428367 -5.1805432e-05   0.55792356 0.0016560225            0   0.55626754    1.6928268    2.2507504  -0.40168774 
11930000    1.1701342 -9.3942454e-05   0.51332956 0.0025098814            0   0.51081968    1.7332613    2.2465908   -2.5632628 
11935000    1.1358413 -8.5115685e-05   0.54572319  0.011137705            0   0.53458548     1.682465    2.2281881   -2.1297349 
11940000    1.2557875 1.9136051e-05   0.38055314  0.029080015            0   0.35147313    1.8601353    2.2406884    3.2204542 
11945000    1.0888444 0.00013256219   0.61221173  0.016864481            0   0.59534725    1.6128508    2.2250625    9.0122465 
11950000    1.1626539 0.0001034693   0.53732182 0.0021366893            0   0.53518513    1.7221811    2.2595029    7.5571311 
11955000    1.1394356 6.5659258e-06   0.56651704 0.0042154724            0   0.56230157     1.687789     2.254306    2.5904814 
11960000    1.0803119 -6.0793359e-05   0.62128094  0.014956455            0   0.60632449     1.600212     2.221493  -0.89112699 
11965000    1.1442472 -6.5233707e-05   0.53300229 0.0080769431            0   0.52492535    1.6949161    2.2279184   -1.1120474 
11970000    1.0954743 7.2380887e-05   0.58524141 0.0052282971            0   0.58001311    1.6226713    2.2079127    5.9138141 
11975000    1.1462334 1.7471657e-05   0.52625061 0.0039686686            0   0.52228194    1.6978583    2.2241089    3.1186577 
11980000    1.0825184 -1.7699571e-05    0.6020985 0.0008033354            0   0.60129517    1.6034804    2.2055789    1.2993609 
11985000    1.1831346 -5.6998092e-06   0.46081716 0.00046656304            0    0.4603506    1.7525181    2.2133353    1.9215051 
11990000    1.0629345 -4.5930067e-05   0.65801326 0.0043394509            0   0.65367381    1.5744717    2.2324849  -0.11913449 
11995000    1.0961192 2.0648109e-05   0.61754491 0.0099122156            0   0.60763269    1.6236266    2.2411715    3.2983546 
12000000    1.1654329 7.1223305e-05   0.49707455 0.0086825723            0   0.48839198    1.7262974     2.223372    5.8700052 
12005000    1.0845716 -0.00012220348   0.61723092 0.0071911409            0   0.61003978    1.6065217    2.2237526   -4.0330657 
12010000    1.1087506 -0.00013940135   0.58596365 0.0068258284            0   0.57913782    1.6423368    2.2283005   -4.9090489 
12015000    1.1194395 -2.6729988e-05   0.57693961 0.0051878981            0   0.57175172    1.6581698    2.2351094   0.86653399 
12020000    1.1542581 -7.7414526e-06   0.48585985 0.0039978005            0   0.48186205    1.7097449    2.1956047    1.7992424 
12025000     1.190336 -3.283818e-05   0.43753745 0.0074290066            0   0.43010845    1.7631852    2.2007226   0.51940779 
12030000    1.0918533 -1.1997158e-05   0.58775826  0.024484503            0   0.56327375    1.6173078     2.205066    1.5908116 
12035000    1.0534517 1.8579197e-05   0.63932667  0.018509042            0   0.62081763    1.5604253     2.199752    3.1510068 
12040000     1.241425 1.0492329e-05   0.38433862  0.017119582            0   0.36721904    1.8388607    2.2231993    2.7604066 
12045000    1.0943302 -4.5426215e-05    0.6318543 0.0084537893            0   0.62340051    1.6209766    2.2528309 -0.072991324 
12050000    1.1117556 -4.9998002e-05   0.58764927  0.014741582            0   0.57290768    1.6467879    2.2344372  -0.32546047 
12055000    1.1235478 -3.6027298e-05   0.52313419  0.017717729            0   0.50541646    1.6642552    2.1873894   0.34279172 
12060000    1.1297048 -3.3599083e-05   0.53592636  0.013831609            0   0.52209476    1.6733752    2.2093016   0.48902852 
12065000    1.1040062 -6.8848521e-06   0.58186276   0.01350296            0    0.5683598    1.6353092    2.2171719    1.8646675 
12070000    1.1511536 6.7927548e-05   0.49289981  0.026204065            0   0.46669574    1.7051463    2.1980461    5.6759365 
12075000    1.1138753 3.3151323e-05   0.56276653  0.047254098            0   0.51551243    1.6499278    2.2126943     3.910042 
12080000        1.159 0.00012803936   0.49114023  0.015112084            0   0.47602814    1.7167687    2.2079089    8.7635242 
12085000    1.1121129 0.00013474737    0.5881047 0.0056503316            0   0.58245437    1.6473173     2.235422    9.1344874 
12090000    1.1001248 8.536909e-06   0.58959097  0.033895557            0   0.55569541    1.6295598    2.2191508    2.6562405 
12095000    1.1228663 -4.8391876e-05   0.55455602  0.017385781            0   0.53717024    1.6632458    2.2178018  -0.25986226 
12100000    1.1155661 9.8719155e-06   0.56730225  0.015540436            0   0.55176181    1.6524323    2.2197345    2.7251766 
12105000    1.0657074 0.00013185918   0.65108673 0.0069521106            0   0.64413462    1.5785791    2.2296658    8.9808556 
12110000    1.1121825 -1.5554034e-05   0.58047307 0.0093821223            0   0.57109095    1.6474204    2.2278934    1.4315269 
12115000    1.1637841 7.4005179e-06   0.50164146 0.0070687115            0   0.49457275    1.7238553    2.2254967    2.6044032 
12120000    1.0880371 4.2711787e-05   0.62840255 0.00033700605            0   0.62806554     1.611655    2.2400575     4.426901 
12125000    1.1740706 -7.3509486e-06    0.4980346 0.0024146008            0      0.49562     1.739092    2.2371266     1.860758 
12130000    1.1898299 -3.1706221e-05   0.50133828 0.0049651433            0   0.49637314    1.7624356    2.2637739   0.64041538 
12135000     1.127822 4.5731708e-05    0.5930412 0.0045386898            0   0.58850251    1.6705863    2.2636275    4.6050909 
12140000    1.2813571 4.4893981e-05   0.39002484 0.0032119265            0   0.38681291    1.8980102    2.2880351    4.5866069 
12145000    1.1436435 6.6445349e-05   0.57417589  0.025175826            0   0.54900006     1.694022    2.2681979    5.6701997 
12150000     1.160801 3.7329447e-06   0.56094029  0.015588438            0   0.54535185    1.7194365    2.2803768    2.4715036 
12155000     1.091557 -0.00012918571   0.63421368  0.021178456            0   0.61303522    1.6168688    2.2510825   -4.3632261 
12160000    1.2473598 2.5618184e-05   0.39818327 0.0035087556            0   0.39467452    1.8476517     2.245835     3.557486 
12165000    1.1436488 1.8332649e-05   0.55428547 0.00041694293            0   0.55386852    1.6940298    2.2483153    3.1869469 
12170000    1.0879731 -0.00010490023   0.62829425 0.0077311908            0   0.62056306    1.6115602    2.2398544   -3.1310375 
12175000    1.1467431 9.8436272e-05    0.5561595  0.022749865            0   0.53340963    1.6986133    2.2547728    7.2947099 
12180000    1.1926611 0.00020568674   0.48841776  0.005536055            0    0.4828817    1.7666292    2.2550469    12.786208 
12185000    1.1123959 -1.7695664e-05   0.60028682 0.00016906176            0   0.60011776    1.6477364    2.2480232    1.3420052 
12190000    1.1815531 -0.00013226622   0.50312022 0.00037955548            0   0.50274067    1.7501755    2.2532957   -4.5187348 
12195000    1.1688352 3.7493325e-06   0.55124956 0.0087908449            0   0.54245871    1.7313372    2.2825868    2.4745526 
12200000    1.0941578 0.00011674457   0.64522408  0.051685752            0   0.59353833    1.6207212    2.2659453    8.2432675 
12205000    1.1781734 6.6434956e-05   0.51526277    0.0685927            0   0.44667007    1.7451693    2.2604321    5.6619018 
12210000     1.145065 -3.2748952e-05   0.56175513  0.019183562            0   0.54257157    1.6961275    2.2578826   0.58113626 
12215000    1.1212802 4.8896942e-06   0.60573506  0.037743627            0   0.56799143    1.6608964    2.2666314    2.5169838 
12220000    1.1197385 4.5783473e-05   0.61236669  0.038773242            0   0.57359345    1.6586127    2.2709794    4.6150932 
12225000     1.146692 -1.5936762e-05    0.5480749 0.0090229966            0    0.5390519    1.6985376    2.2466125    1.4306502 
12230000    1.1761005 -0.00010067624    0.5389862 0.0039192701            0   0.53506693    1.7420989    2.2810851   -2.8735386 
12235000    1.1774889 5.353567e-05   0.52886575   0.01375327            0   0.51511248    1.7441554    2.2730211    5.0140474 
12240000    1.1263816 9.1517817e-05   0.59843427  0.024697238            0   0.57373703    1.6684528    2.2668871    6.9525993 
12245000    1.0935847 -0.00014263458   0.62786775  0.004127828            0   0.62373992    1.6198723      2.24774   -5.0551504 
12250000    1.1014119 6.5435937e-05   0.63555011  0.011637636            0   0.62391247    1.6314664    2.2670165    5.6173365 
12255000    1.1947481 4.6021958e-05    0.4875267  0.017505597            0    0.4700211    1.7697206    2.2572473    4.6135716 
12260000    1.1260384 -0.00014294064   0.59338964 0.0024042068            0   0.59098543    1.6679443    2.2613339   -5.0572271 
12265000    1.0985425 4.5789032e-05   0.63630464 0.0048352101            0   0.63146943    1.6272161    2.2635208    4.6079192 
12270000    1.2274229 6.3743078e-05   0.47384349 0.0012934192            0   0.47255007    1.8181202    2.2919636    5.5556092 
12275000    1.1732258 -8.6436485e-06   0.52579276 0.0071410907            0   0.51865167    1.7378407    2.2636334    1.8210786 
12280000    1.1465427 2.5487618e-05   0.58034557  0.014340522            0   0.56600505    1.6983164    2.2786619     3.583628 
12285000    1.1526503 5.1827132e-05   0.59900853 0.0019090722            0   0.59709946    1.7073632    2.3063717    4.9599209 
12290000     1.060074 -4.4930358e-05   0.75834937  0.003712947            0   0.75463643    1.5702346     2.328584  0.028149615 
12295000    1.1360733 1.8332252e-05   0.63314174  0.023852688            0   0.60928905    1.6828086    2.3159504    3.2545617 
12300000    1.0603863 -1.8517773e-05   0.73910383  0.092318671            0   0.64678516    1.5706971     2.309801     1.361691 
12305000      1.10305 8.3998077e-05   0.67147231  0.025825787            0   0.64564652    1.6338928    2.3053651    6.6060666 
12310000    1.1535816 0.00011408581   0.58035077  0.060903266            0    0.5194475    1.7087427    2.2890935     8.130287 
12315000    1.1778635 -1.524111e-05   0.56422861   0.01362676            0   0.55060185    1.7447103    2.3089389    1.5285941 
12320000     1.245303 6.7455641e-06   0.45728825 0.0086536961            0   0.44863455    1.8446051    2.3018934    2.6472663 
12325000    1.2318497 5.6259759e-05   0.49452698 0.0085159297            0   0.48601105    1.8246773    2.3192043    5.1997039 
12330000    1.1271767 5.5391089e-05    0.6717552 0.0074527213            0   0.66430248    1.6696304    2.3413856    5.1774094 
12335000    1.1723349 -1.9279518e-05   0.62765175  0.022543764            0   0.60510799     1.736521    2.3641728    1.3770614 
12340000    1.2022027 -9.9628055e-05   0.61034092 0.0056073213            0   0.60473359    1.7807628    2.3911037   -2.7098527 
12345000     1.226277 -3.1486922e-05   0.57482875 0.00063085167            0    0.5741979    1.8164229    2.3912516    0.7791212 
12350000    1.1411464 7.7206823e-05   0.68884273 0.0028925499            0   0.68595018    1.6903231    2.3791659    6.3321552 
12355000    1.1951433 6.2724688e-06    0.5806612 0.0099201016            0    0.5707411    1.7703059    2.3509671    2.6721175 
12360000    1.1748831 -3.2335052e-05   0.58796492  0.014079224            0   0.57388569    1.7402956    2.3282605   0.67270586 
12365000    1.1427174 -6.8214407e-05   0.63971997  0.015226805            0   0.62449317    1.6926502    2.3323701   -1.1602075 
12370000    1.0183814 -0.0001805511   0.81510932  0.008236509            0   0.80687281    1.5084775    2.3235868   -6.9206294 
12375000    1.1401132 0.00010852669   0.62234654  0.027997541            0     0.594349    1.6887927    2.3111393     7.867706 
12380000    1.1767431 0.00012596145    0.5617763  0.023707413            0   0.53806889    1.7430507     2.304827     8.754053 
12385000    1.0961997 -6.3835565e-05   0.68044395  0.053301936            0   0.62714201    1.6237457    2.3041897  -0.96419123 
12390000    1.1206738 -5.9253293e-06   0.61820413   0.02943307            0   0.58877106    1.6599981    2.2782022    1.9748254 
12395000    1.1335011 -5.5631368e-05   0.61133873  0.022928599            0   0.58841013    1.6789986    2.2903373  -0.55798875 
12400000    1.0912374 2.9263315e-05   0.68849875  0.072601709            0   0.61589704    1.6163954    2.3048942    3.8031759 
12405000    1.1138099 2.8754191e-05   0.66030878  0.060883448            0   0.59942533    1.6498309    2.3101396    3.7823542 
12410000    1.1881369 3.0022827e-05   0.55682136  0.047422586            0   0.50939878    1.7599277    2.3167491    3.8539178 
12415000    1.1379741 -1.2822652e-05   0.62812669 0.0040609066            0   0.62406578    1.6856242    2.3137509    1.6572311 
12420000    1.2011906 -9.2456183e-05   0.53471846            0            0   0.53471846    1.7792636    2.3139821   -2.4197745 
12425000    1.1757181 0.00010089739   0.56525046            0            0   0.56525046    1.7415325     2.306783    7.4727293 
12430000     1.095143 -0.00011672368   0.67712276 0.0013512455            0   0.67577152    1.6221806    2.2993034   -3.6769492 
12435000    1.1909247 -8.9741875e-05    0.5332333 0.0085135274            0   0.52471977    1.7640572    2.2972905   -2.2974935 
12440000    1.1348755 5.8874538e-05   0.60503983  0.064546809            0   0.54049303    1.6810343    2.2860742    5.3004505 
12445000     1.128291 3.2253742e-05   0.63391669  0.032705239            0   0.60121146     1.671281    2.3051977    3.9565893 
12450000    1.1104401 -2.0232327e-05    0.6387489  0.013200463            0   0.62554843    1.6448394    2.2835883    1.2476932 
12455000    1.1124321 0.00010422298   0.63354538 0.0047828244            0   0.62876256      1.64779    2.2813354    7.6175518 
12460000    1.1474521 -6.5871883e-05   0.59075463  0.000170159            0   0.59058447    1.6996634     2.290418   -1.0822224 
12465000    1.2087008 -5.0290734e-05   0.52577375 0.00068104941            0    0.5250927     1.790388    2.3161618  -0.25872384 
12470000    1.1910923 -6.5372785e-05    0.5647368 0.0070444069            0   0.55769239    1.7643055    2.3290423   -1.0180443 
12475000    1.1602789 6.5422591e-05   0.61915053  0.028632479            0   0.59051805    1.7186631    2.3378136    5.6874503 
12480000     1.204404 -2.706433e-05   0.54804942  0.040972636            0   0.50707678    1.7840234    2.3320728   0.94637911 
12485000    1.1787658 -7.653846e-05    0.5809155  0.042739861            0   0.53817564    1.7460469    2.3269624   -1.5918068 
12490000    1.1089126 9.4606402e-05   0.65965358  0.019394362            0   0.64025922    1.6425767    2.3022303    7.1460781 
12495000    1.1079931 2.2314897e-06   0.64187138  0.034449232            0   0.60742215    1.6412148    2.2830862    2.3973384 
12500000    1.1583777 -0.0001673892     0.546076  0.016342106            0   0.52973389    1.7158469    2.2619229   -6.3084039 
12505000    1.1666774 2.3102571e-05   0.53610625  0.021108964            0   0.51499728    1.7281409    2.2642471    3.4470988 
12510000    1.1095782 -6.8093525e-05   0.59558053   0.04590908            0   0.54967145    1.6435627    2.2391432   -1.2472452 
12515000    1.1532976 -0.00011609911   0.52232793  0.020597425            0    0.5017305    1.7083221      2.23065   -3.7136244 
12520000    1.1837791 4.4180816e-05   0.47447485  0.011513355            0   0.46296149    1.7534727    2.2279476    4.4900054 
12525000    1.2408424 8.1283564e-05   0.38687132 0.0073673963            0   0.37950393    1.8379978    2.2248691    6.3865876 
12530000    1.1078334 3.4497351e-05    0.5873242 0.0071050046            0   0.58021919    1.6409782    2.2283024    3.9945668 
12535000    1.0952604 -8.1746849e-05    0.6058199 0.0076676018            0    0.5981523    1.6223545    2.2281744   -1.9572643 
12540000    1.0471183 -0.0001269496   0.68062907   0.01859385            0   0.66203522     1.551044    2.2316731   -4.2681465 
12545000    1.1064312 -3.575653e-05   0.56015755  0.018037655            0   0.54211989    1.6389012    2.1990588   0.36832442 
12550000    1.1354024 2.2399365e-05   0.53409208  0.015506428            0   0.51858565    1.6818148    2.2159069    3.3627544 
12555000    1.1301205 -4.9597364e-05   0.54196323  0.025772485            0   0.51619074     1.673991    2.2159543  -0.32343076 
12560000    1.0796487 -7.1171775e-05   0.60340428  0.044108879            0    0.5592954    1.5992297     2.202634   -1.4413609 
12565000    1.0684664 1.084225e-05   0.58388657  0.017984083            0   0.56590249    1.5826659    2.1665525    2.7216757 
12570000    1.1819765 4.8358846e-05   0.41548282 0.0011579013            0   0.41432492    1.7508027    2.1662855    4.6422585 
12575000    1.1929938 3.7004563e-05   0.39523809 0.0060393653            0   0.38919872    1.7671221    2.1623602    4.0569938 
12580000    1.1601656 2.0947647e-05   0.46679117 0.0026898619            0   0.46410131    1.7184953    2.1852865     3.257806 
12585000    1.1540579 2.2798664e-05   0.50859947            0            0   0.50859947    1.7094482    2.2180477    3.3853393 
12590000    1.1324116 -0.00010370844   0.49736069 0.0042132693            0   0.49314742    1.6773847    2.1747454   -3.1351267 
12595000    1.1270303 -0.00012203361   0.51619357  0.033276218            0   0.48291736    1.6694136    2.1856072   -4.0625136 
12600000    1.1310206 -4.9894968e-05   0.48919691  0.032490938            0   0.45670597    1.6753243    2.1645212  -0.39010118 
12605000    1.0550653 -6.9451804e-05   0.59305668  0.020904105            0   0.57215257    1.5628155    2.1558722   -1.4000602 
12610000    1.0836748 8.1502725e-05   0.53800362 0.0097047646            0   0.52829886    1.6051933    2.1431969    6.3161364 
12615000     1.126843 0.0001056576   0.48258818  0.018484494            0   0.46410369    1.6691361    2.1517243    7.5613934 
12620000    1.1221165 3.5434401e-05    0.4802803    0.0200445            0    0.4602358     1.662135    2.1424153    3.9566566 
12625000    1.1391402 5.1081813e-05   0.46065369  0.010489197            0    0.4501645    1.6873514    2.1480051    4.7633939 
12630000    1.1721451 5.4952747e-05   0.38484307 0.0090998077            0   0.37574326      1.73624    2.1210831    4.9346637 
12635000    1.1261273 5.3753104e-06   0.46766504  0.014866723            0   0.45279832    1.6680761    2.1357412    2.4109571 
12640000    1.1313471 -0.00012359717   0.50388087 0.0087445377            0   0.49513633    1.6758079    2.1796888   -4.1484864 
12645000    1.1205273 -9.1170466e-05   0.51017228   0.05353384            0   0.45663844    1.6597811    2.1699534   -2.4979745 
12650000    1.0989252 6.429469e-05   0.52686449  0.035997424            0   0.49086706     1.627783    2.1546475    5.4465356 
12655000    1.0469913 -4.0999245e-05   0.58985808  0.033254044            0   0.55660404    1.5508558    2.1407139  0.041552534 
12660000    1.1174105 -8.2175652e-05   0.47042558  0.014669227            0   0.45575635    1.6551644    2.1255899   -2.0818035 
12665000    1.1394369 -1.2680655e-05   0.40194801 0.0028652634            0   0.39908275     1.687791     2.089739    1.4404894 
12670000     1.095532 -4.9021579e-05   0.47989643 0.0083712846            0   0.47152514    1.6227567    2.1026532  -0.40725171 
12675000    1.1012987 -1.49979e-05   0.51289648  0.022587256            0   0.49030922    1.6312987    2.1441952    1.3763027 
12680000    1.1368455 4.9245759e-05   0.44997929  0.011955899            0   0.43802339    1.6839524    2.1339317    4.6553145 
12685000    1.1202091 -3.242697e-05   0.44778892  0.016988523            0    0.4308004    1.6593098    2.1070987   0.44683786 
12690000    1.0606993 -2.0720974e-09    0.5296115  0.024637861            0   0.50497364    1.5711609    2.1007724    2.1006663 
12695000    1.0614049 6.4204828e-05   0.50577066   0.03746189            0   0.46830877     1.572206    2.0779766    5.3652638 
12700000    1.0936146 -4.007116e-05   0.45410091  0.032598852            0   0.42150205    1.6199166    2.0740175  0.022374141 
12705000     1.069075 -0.0001361757   0.52332302   0.01619492            0    0.5071281    1.5835673    2.1068903   -4.8653054 
12710000    1.1903917 -4.8374925e-05    0.3561303   0.01224024            0   0.34389006    1.7632678    2.1193981  -0.35739807 
12715000     1.070084 -8.0285331e-06   0.53412631 0.0029359629            0   0.53119035    1.5850619    2.1191882    1.7081273 
12720000    1.1312455 3.3598334e-05   0.43816965 7.2680538e-05            0   0.43809696    1.6756574     2.113827    3.8340617 
12725000    1.1461829 -4.2525275e-06   0.40824374 0.0013276495            0   0.40691609    1.6977834    2.1060272    1.8882977 
12730000    1.0726601 -0.00015473123    0.4832037  0.001986047            0   0.48121765    1.5888778    2.0720815   -5.8501576 
12735000    1.0988599 -0.00010757473   0.44558177 0.0021852653            0   0.44339651    1.6276862     2.073268   -3.4345581 
12740000    1.1565094 4.4566595e-05   0.36915592 0.0015256602            0   0.36763026    1.7130795    2.0822354    4.3640451 
12745000     1.128389 6.813789e-05   0.44256519 0.0018627246            0   0.44070247    1.6714262    2.1139914    5.6026514 
12750000    1.1318758 1.3270076e-05   0.43597227  0.024804522            0   0.41116775    1.6765911    2.1125633    2.7919912 
12755000    1.1026104 0.00012622294   0.46213801  0.047225023            0   0.41491299    1.6332416    2.0953797    8.5579944 
12760000    1.1334518 8.2126482e-05   0.40638632  0.019291764            0   0.38709456    1.6789255    2.0853119    6.2901877 
12765000    1.0052959 -0.00010515057   0.60513748   0.01409328            0    0.5910442    1.4890945     2.094232   -3.2894773 
12770000    1.0920846 5.5866328e-07    0.4885533  0.019033324            0   0.46951998    1.6176503    2.1062036    2.1348072 
12775000    1.1697603 5.9186485e-05   0.44458388  0.022711355            0   0.42187253    1.7327074    2.1772913    5.2076393 
12780000    1.0823349 -1.8764793e-05    0.5578788  0.016534074            0   0.54134473    1.6032085    2.1610873    1.2003299 
12785000    1.1232836 2.6676163e-05   0.48845875  0.019398519            0   0.46906023    1.6638638    2.1523226    3.5181421 
12790000     1.132498 1.6068373e-05    0.5125273 0.0093541577            0   0.50317315    1.6775127      2.19004    3.0127407 
12795000    1.1765202 -8.2781532e-05   0.45268369  0.013230837            0   0.43945285    1.7427206    2.1954043   -2.0430102 
12800000    1.1221009 -0.00013565362   0.50641707  0.014880855            0   0.49153622    1.6621119     2.168529   -4.7769364 
12805000    1.0894951 2.3639342e-05    0.5613201  0.042345282            0   0.51897481    1.6138147    2.1751348    3.3854691 
12810000     1.107291 -1.3053682e-05   0.51455671  0.026131379            0   0.48842533    1.6401748    2.1547315     1.486383 
12815000    1.1174387 -0.00011030138   0.48534938  0.026789037            0   0.45856034    1.6552061    2.1405555   -3.5068753 
12820000    1.0884691 -0.00013691224   0.53530986  0.012462476            0   0.52284739    1.6122948    2.1476047   -4.8623021 
12825000    1.1401363 -0.00011509223   0.45822257  0.010676185            0   0.44754639    1.6888269    2.1470495   -3.7456726 
12830000    1.1024478 7.7137306e-05   0.50023547  0.038074399            0   0.46216108    1.6330008    2.1332363    6.0826664 
12835000    1.0502139 3.5854717e-05    0.5771795  0.052951961            0   0.52422754    1.5556293    2.1328088    3.9685703 
12840000    1.0877538 -2.7822657e-05   0.52028314  0.030290503            0   0.48999264    1.6112354    2.1315185   0.70699851 
12845000    1.0885079 -6.0095527e-05   0.51601902 0.0081372227            0    0.5078818    1.6123524    2.1283714  -0.94851959 
12850000    1.1003975 5.1397801e-05   0.48850357  0.029502561            0   0.45900101    1.6299638    2.1184674    4.7500348 
12855000     1.074335 4.0886004e-05   0.51378554   0.05293756            0   0.46084798    1.5913587    2.1051442    4.1985076 
12860000    1.0363681 -6.3166478e-05   0.58049269   0.04820879            0    0.5322839    1.5351203     2.115613   -1.1185107 
12865000    1.0982339 5.0428847e-05   0.49782929  0.039766801            0   0.45806249    1.6267589    2.1245882    4.7065452 
12870000    1.1155563 0.00011069529   0.47813514  0.024111553            0   0.45402359    1.6524177    2.1305529    7.7981519 
12875000    1.0674597 3.9062728e-05   0.52189381 0.0098490822            0   0.51204473    1.5811746    2.1030684    4.1030801 
12880000    1.1234881 3.6366386e-05   0.44881276  0.043951636            0   0.40486113    1.6641668    2.1129795    3.9749385 
12885000    1.0595279 0.00013830162   0.59066864  0.016982024            0   0.57368662    1.5694258    2.1600944    9.2411375 
12890000    1.1904021 0.00014100243   0.38792723  0.016440874            0   0.37148636    1.7632831    2.1512104    9.3705348 
12895000    1.1615139 4.4565053e-05   0.44811649 0.0042189726            0   0.44389752    1.7204925     2.168609    4.4503397 
12900000    1.1050679 7.6707253e-05   0.55995736  0.030826973            0   0.52913039    1.6368819    2.1968392    6.1242506 
12905000    1.1153263 -5.9312103e-05   0.55608373  0.063926296            0   0.49215743     1.652077    2.2081607  -0.82861893 
12910000    1.1303944  -0.00015219    0.5191024  0.027448102            0    0.4916543    1.6743967    2.1934991   -5.5986289 
12915000    1.1955999 5.5421654e-05   0.44880529  0.012272906            0   0.43653239    1.7709824    2.2197877    5.0573763 
12920000    1.2093217 0.00017065181   0.43120048 0.0010773015            0   0.43012318    1.7913078    2.2225083    10.959881 
12925000    1.2125264 8.0093946e-05   0.43938042            0            0   0.43938042    1.7960547    2.2354351    6.3362451 
12930000    1.2208749 6.9962227e-05   0.44472227 0.0017886254            0   0.44293364     1.808421    2.2531433    5.8352093 
12935000    1.2219132 -1.6676145e-05   0.46464371   0.01394646            0   0.45069725    1.8099589    2.2746026     1.420784 
12940000    1.1336092 -1.007504e-05   0.57547864  0.026565539            0    0.5489131    1.6791586    2.2546373    1.7387952 
12945000    1.1666816 0.00019537251   0.52209037  0.036905035            0   0.48518534     1.728147    2.2502374     12.25331 
12950000    1.1377337 6.3796869e-05   0.57602962  0.052573438            0   0.52345619     1.685268    2.2612976    5.5276973 
12955000    1.1921215 -2.0870852e-05   0.50135563  0.025035487            0   0.47632014    1.7658299    2.2671855    1.1985979 
12960000    1.1776539 -1.6354238e-05   0.54656441  0.013157236            0   0.53340718    1.7443999    2.2909643    1.4536273 
12965000    1.2266441 -6.6430721e-05   0.50725124   0.04305978            0   0.46419146    1.8169665    2.3242178   -1.0770351 
12970000     1.157772 5.5648256e-07   0.60765343  0.092782914            0   0.51487052    1.7149498    2.3226033    2.3510952 
12975000    1.2509863 3.1806029e-05   0.50554608  0.020858903            0   0.48468718    1.8530234    2.3585695    3.9870382 
12980000    1.2357354 6.6051914e-06   0.49873155  0.033299245            0   0.46543231     1.830433    2.3291645    2.6673503 
12985000    1.2547939 -2.2058969e-05   0.48724387  0.033622908            0   0.45362096    1.8586634    2.3459073    1.2164881 
12990000    1.2356585 -0.00011305434   0.49913622  0.020453578            0   0.47868264    1.8303191    2.3294553   -3.4589269 
12995000    1.2211512 3.3798329e-05    0.5095954  0.021977205            0    0.4876182    1.8088302    2.3184256    4.0489001 
13000000    1.2360463 4.2137924e-05   0.49629421  0.030998387            0   0.46529583    1.8308936    2.3271878    4.4846495 
13005000    1.2701752 -3.5601139e-06   0.45479948 0.0075551611            0   0.44724432     1.881447    2.3362465    2.1539686 
13010000    1.2046516 5.5708253e-05   0.52011147  0.011096905            0   0.50901456    1.7843902    2.3045017    5.1567643 
13015000    1.2074357 -4.1790043e-05   0.51706061  0.019501401            0   0.49755921    1.7885141    2.3055747   0.16592453 
13020000    1.2172068 -0.00010984417   0.51721366  0.010364647            0   0.50684902    1.8029876    2.3202013     -3.30382 
13025000    1.2884061 9.1684294e-05   0.42326049  0.042908434            0   0.38035205    1.9084516    2.3317121    7.0259479 
13030000    1.2297118 0.00011840663   0.52138361  0.042531071            0   0.47885254    1.8215106    2.3428942    8.4053138 
13035000    1.1309943 2.6192682e-05   0.64231558  0.078162758            0   0.56415282    1.6752852    2.3176008    3.6586661 
13040000    1.2012019 0.00012936284   0.52873143  0.066574415            0   0.46215702    1.7792803    2.3080117    8.9313892 
13045000    1.0639785 0.00012027639   0.69224051  0.091624379            0   0.60061614    1.5760181    2.2682586      8.42641 
13050000    1.2010781 3.7769216e-05   0.47457341  0.033575589            0   0.44099782    1.7790969    2.2536703    4.1874542 
13055000    1.1648227 -5.8344026e-05   0.52602912  0.074563248            0   0.45146587    1.7253936    2.2514227  -0.73579137 
13060000    1.1274775 -2.386344e-05    0.5807785   0.05769664            0   0.52308186     1.670076    2.2508545    1.0290464 
13065000      1.10476 4.5768945e-05   0.60264253  0.040061626            0   0.56258091    1.6364257    2.2390682    4.5824382 
13070000    1.1341974 -7.942268e-05   0.57783824  0.042818813            0   0.53501943    1.6800299    2.2578681   -1.8085731 
13075000    1.1345225 -4.5222308e-06   0.56972542 0.0058950529            0   0.56383036    1.6805114    2.2502368    2.0186986 
13080000    1.1911085 0.00010501317   0.50402732 0.0041885594            0   0.49983876    1.7643294    2.2683568    7.6450309 
13085000    1.1542859 0.00011250086    0.5306099   0.01184565            0   0.51876426     1.709786    2.2403959    8.0004401 
13090000    1.0944945 1.5113564e-05   0.59749461  0.028886673            0   0.56860794    1.6212199    2.2187146     2.992529 
13095000    1.1095852 -3.0282147e-05   0.53918822  0.055305427            0   0.48388279    1.6435731    2.1827614   0.63231544 
13100000    1.1521584 1.7565418e-05   0.47635717   0.02735657            0    0.4490006    1.7066346    2.1829918    3.0823412 
13105000     1.120585 3.5779044e-05   0.50684318 0.0047918955            0   0.50205128    1.6598665    2.1667097    3.9985968 
13110000    1.1478648 4.1641342e-05   0.46487585  0.013435737            0   0.45144012    1.7002748    2.1651506    4.2971874 
13115000    1.0971705 -4.6241056e-05    0.5412196 0.0087433192            0   0.53247628    1.6251839    2.1664035   -0.2011386 
13120000    1.0611913 -6.3908538e-05   0.58704922  0.014104164            0   0.57294506    1.5718897    2.1589389   -1.1131783 
13125000    1.2606576 9.6229771e-05   0.33112024  0.033468465            0   0.29765178    1.8673491    2.1984693    7.1254336 
13130000    1.0426972 0.00016082347   0.63092879  0.022428605            0   0.60850019    1.5444953    2.1754241    10.409586 
13135000    1.1016403 9.5524957e-05   0.52280593 0.0036077691            0   0.51919816    1.6318047    2.1546106    7.0454884 
13140000    1.0691289 -9.6935207e-06   0.57461872  0.052554328            0    0.5220644    1.5836472    2.1582659    1.6619577 
13145000    1.0816713 -6.074257e-05    0.5759266  0.046702137            0   0.52922446    1.6022256    2.1781522  -0.93186741 
13150000    1.0553696 6.3842334e-05   0.60949769  0.024531703            0   0.58496598    1.5632662    2.1727638    5.4414914 
13155000    1.1046239 3.9698672e-05   0.53993495  0.034036304            0   0.50589864    1.6362241    2.1761591    4.2087311 
13160000       1.0948 -5.3588203e-05   0.57026107  0.022913729            0   0.54734734    1.6216724    2.1919335  -0.55178247 
13165000    1.1342403 -4.1298868e-05   0.54820471  0.005012726            0   0.54319199    1.6800935    2.2282982   0.11379617 
13170000    1.1306068 2.6470935e-05   0.53887411 0.0031319224            0   0.53574219    1.6747113    2.2135854    3.5688973 
13175000    1.0656501 1.8759634e-06   0.64558896  0.012782335            0   0.63280662    1.5784943    2.2240832    2.3201325 
13180000    1.1340114 -2.318029e-05   0.55827792  0.018813289            0   0.53946463    1.6797544    2.2380324    1.0512015 
13185000     1.098258 -9.4190636e-05   0.61702339  0.015241508            0   0.60178189    1.6267947     2.243818   -2.5787425 
13190000    1.1156211 -0.00017616846   0.60737882  0.013332024            0    0.5940468    1.6525138    2.2598926   -6.7599323 
13195000    1.1162367 -7.1243364e-05   0.60301512 0.0083416744            0   0.59467345    1.6534256    2.2564408   -1.3912195 
13200000    1.0752813 1.5598008e-06   0.66839787  0.015224572            0    0.6531733    1.5927605    2.2611584    2.3410202 
13205000    1.1710305 1.5141006e-05   0.54871678  0.017401174            0    0.5313156     1.734589    2.2833057    3.0585252 
13210000    1.1196119 -3.196201e-05    0.6553374  0.026677615            0   0.62865979    1.6584251    2.3137625   0.67730761 
13215000    1.1520965 2.6126815e-05   0.63023124  0.058673027            0   0.57155821    1.7065429    2.3367741    3.6744671 
13220000    1.1020802 3.6991895e-05   0.66666599  0.037183292            0    0.6294827    1.6324564    2.2991224    4.1931074 
13225000    1.0942379 4.1020527e-05   0.68509849  0.049767659            0   0.63533083    1.6208399    2.3059384    4.4061894 
13230000    1.0914682 8.6714531e-05   0.69230814  0.052182133            0   0.64012601    1.6167372    2.3090454    6.7488294 
13235000     1.104439 -8.7257841e-05   0.65068514  0.018366439            0    0.6323187    1.6359503    2.2866354    -2.180966 
13240000    1.1993227 -4.9575208e-05   0.50902671  0.030032102            0   0.47899461    1.7764968    2.2855235  -0.25272719 
13245000    1.1055513 -3.8769204e-05   0.63788873  0.040065542            0   0.59782319    1.6375979    2.2754866   0.29050334 
13250000     1.085595 -0.00010285734   0.70712317  0.011355186            0   0.69576798    1.6080376    2.3151607   -2.9511349 
13255000    1.1064817 -0.00012131921   0.65846831  0.016289774            0   0.64217853     1.638976    2.2974443   -3.9140994 
13260000     1.155402 -6.417076e-05   0.56649829   0.03820723            0   0.52829106    1.7114393    2.2779376   -1.0076054 
13265000    1.1625221 8.8956693e-05   0.54136847 0.0084436906            0   0.53292478    1.7219858    2.2633543     6.817937 
13270000    1.1236616 -6.1691936e-05    0.6188553  0.013878294            0     0.604977    1.6644238    2.2832791  -0.87534799 
13275000    1.1255347 -9.1724532e-05   0.58691966  0.024473385            0   0.56244628    1.6671983     2.254118    -2.442178 
13280000     1.165892 -5.5007511e-05   0.52893467  0.050845812            0   0.47808885    1.7269775    2.2559122  -0.56047234 
13285000    1.0683958 -6.3142471e-05   0.68997488  0.040126805            0   0.64984807    1.5825613    2.2725361  -0.96035839 
13290000    1.1351933 3.1662168e-05   0.60423491  0.049925968            0   0.55430895    1.6815051      2.28574     3.906843 
13295000    1.1188675 -4.3099575e-05   0.62801089  0.042730963            0   0.58527993    1.6573224    2.2853333  0.078635102 
13300000    1.1894698 2.0571713e-05   0.48391428  0.018036799            0   0.46587748    1.7619022    2.2458165    3.2990882 
13305000    1.1244119 -5.2580251e-06   0.59707502  0.023131697            0   0.57394332    1.6655351    2.2626101    1.9933992 
13310000    1.1825757 5.1020095e-06    0.5227127  0.032065433            0   0.49064726    1.7516902    2.2744029    2.5356258 
13315000    1.1650043 4.1909682e-05   0.56130062  0.012906477            0   0.54839414    1.7256626    2.2869633     4.432739 
13320000    1.0847281 -0.00018173288   0.66364233  0.032097157            0   0.63154517    1.6067535    2.2703958   -7.0343275 
13325000    1.1702537 -0.00010245569   0.52692227  0.051403722            0   0.47551855    1.7334383    2.2603606   -2.9853706 
13330000    1.0745312 2.8077382e-05   0.62081835  0.026354514            0   0.59446383    1.5916493    2.2124676    3.6500296 
13335000    1.1605291 1.3462344e-05   0.55945173  0.020689028            0    0.5387627    1.7190337    2.2784855    2.9677574 
13340000    1.1795793 -1.5633356e-05   0.55954701  0.031009127            0   0.52853789    1.7472518    2.3067988     1.506371 
13345000    1.1726824 5.8079698e-05   0.57370518            0            0   0.57370518    1.7370358     2.310741    5.2844216 
13350000    1.2399946 -6.1336282e-05   0.47932515 4.3391735e-06            0   0.47932081    1.8367419    2.3160671  -0.82435053 
13355000    1.2715271 -8.9676256e-05   0.43477486  0.014155181            0   0.42061968    1.8834496    2.3182244   -2.2731999 
13360000    1.1222626 -8.7698156e-05   0.64719273  0.062515577            0   0.58467715    1.6623514    2.3095441   -2.1806015 
13365000    1.2350225 0.00012762199   0.50451102  0.015715761            0   0.48879526    1.8293771    2.3338881    8.8681342 
13370000    1.2274594 7.0021996e-05   0.51572468 0.0081222738            0   0.50760241    1.8181742    2.3338989    5.9190251 
13375000    1.2061999 5.4145271e-05   0.55536102  0.034510224            0    0.5208508    1.7866837    2.3420447    5.1142825 
13380000    1.2144485 4.2127386e-05    0.5317386  0.026833306            0    0.5049053    1.7989018    2.3306404    4.4875626 
13385000    1.2174326 7.0308874e-05   0.50027171 0.00035480374            0   0.49991691     1.803322    2.3035937    5.9034081 
13390000     1.104855   6.8559e-05   0.66274598  0.011783596            0   0.65096239    1.6365665    2.2993125    5.8095333 
13395000     1.208169 0.0001018234   0.51231177  0.050930021            0   0.46138175    1.7896004    2.3019121      7.51527 
13400000    1.1207144 2.5725085e-05   0.63421999  0.029167443            0   0.60505255    1.6600583    2.2942782    3.6114026 
13405000    1.2429899 5.3568731e-05   0.45102557 0.0062008477            0   0.44482472    1.8411788    2.2922043    5.0349233 
13410000    1.1429634 -8.9837634e-05   0.55981698 0.0051383631            0   0.55467861    1.6930145    2.2528315   -2.3468554 
13415000    1.1592202 -7.1159214e-05   0.52335296 0.0073570544            0   0.51599591    1.7170949    2.2404479   -1.4029039 
13420000    1.1770175 -2.6428641e-05   0.48317608  0.016524725            0   0.46665136    1.7434572    2.2266333    0.8734869 
13425000    1.1380418 -8.4133376e-05   0.57022966  0.026535257            0    0.5436944    1.6857244     2.255954   -2.0516748 
13430000    1.1489185 -8.7879373e-05    0.5650932   0.02273165            0   0.54236155    1.7018355    2.2669287   -2.2324952 
13435000    1.1881019 -0.00017488102   0.49810269  0.035210667            0   0.46289203    1.7598759    2.2579786   -6.6959294 
13440000    1.1301888 2.7137403e-05   0.56396651  0.017517661            0   0.54644884    1.6740922    2.2380587    3.6274937 
13445000    1.1428938 7.2993154e-05    0.5511627  0.013170471            0   0.53799223    1.6929114    2.2440741    5.9813236 
13450000    1.2077395 7.0020451e-05   0.44578212  0.015671465            0   0.43011066    1.7889642    2.2347463    5.8197934 
13455000    1.0674053 -9.8494981e-05   0.63384492  0.026647817            0    0.6071971    1.5810941    2.2149391    -2.828004 
13460000    1.0782511 -0.00016679509   0.60999878  0.026325412            0   0.58367337    1.5971595    2.2071583   -6.3327504 
13465000    1.0936614 -9.6874652e-06   0.54626428  0.004452102            0   0.54181218     1.619986    2.1662502     1.670252 
13470000    1.1370211 -2.5467942e-06   0.49158607  0.026601662            0    0.4649844    1.6842125    2.1757986    2.0454027 
13475000     1.188939 -2.7110648e-05   0.47396762   0.07185047            0   0.40211715    1.7611159    2.2350835   0.84701831 
13480000    1.0952883 4.8679042e-05   0.63082438  0.047356631            0   0.58346775    1.6223958    2.2532202    4.7455871 
13485000    1.0922995 -4.6526903e-05   0.62157823 7.5003383e-05            0   0.62150322    1.6179687    2.2395469  -0.14263054 
13490000    1.1420266 -3.0626675e-06   0.54559736 0.0023045102            0   0.54329285    1.6916269    2.2372243    2.0804157 
13495000    1.1225327 -0.00011189147    0.5683959  0.029465138            0   0.53893076    1.6627516    2.2311475   -3.4976958 
13500000     1.131754 -0.00014503515   0.54467531  0.045097957            0   0.49957736    1.6764106     2.221086   -5.2047137 
13505000    1.0818017 0.00012438766   0.62304016  0.044093743            0   0.57894641    1.6024188    2.2254589    8.5941073 
13510000    1.0690042 0.00014361191   0.64146422  0.040289967            0   0.60117425    1.5834625    2.2249267    9.5778565 
13515000    1.0697582 2.8022803e-06   0.63172754  0.031744008            0   0.59998354    1.5845794    2.2163069    2.3597837 
13520000    1.0286809 2.0823115e-05   0.66660869  0.064678142            0   0.60193055    1.5237335    2.1903422    3.2564857 
13525000    1.0327262 6.8831328e-06   0.63076096   0.07852594            0   0.55223502    1.5297257    2.1604867    2.5129031 
13530000    1.0172395 -0.0001331358   0.66154398  0.015123117            0   0.64642086     1.506786      2.16833   -4.6482228 
13535000    1.0845128 -8.5243242e-05   0.56078734  0.028359395            0   0.53242794    1.6064346    2.1672219   -2.1972321 
13540000    1.0471922 -5.5959439e-05   0.63174138   0.02745667            0   0.60428471    1.5511534    2.1828948   -0.6822285 
13545000    1.0184499 -6.5936886e-05   0.65597688   0.02952787            0   0.62644901    1.5085789    2.1645558   -1.2114128 
13550000    1.0675467   -9.786e-05   0.55720022  0.022550832            0   0.53464939    1.5813036    2.1385038   -2.8719282 
13555000     1.020771 -4.5580908e-05   0.62401336 0.0041025635            0   0.61991079    1.5120171    2.1360304  -0.19771203 
13560000    1.0802301 -2.2090777e-05   0.54258484 0.0028717978            0   0.53971304    1.6000908    2.1426757    1.0116279 
13565000    1.1227682 5.9195586e-05    0.4851413  0.026720769            0   0.45842053    1.6631004    2.1482417    5.1790557 
13570000    1.0114815 6.3664875e-05   0.66084959  0.030203046            0   0.63064655     1.498257    2.1591066    5.4187482 
13575000    1.0633165 -3.2344025e-05   0.59959929 0.0066859802            0   0.59291331    1.5750376    2.1746369   0.51862281 
13580000    1.0831979 3.8594622e-05   0.58497579 0.0049780795            0   0.57999771    1.6044869    2.1894627    4.1655074 
13585000    1.0504164 -3.5317395e-05    0.6762083  0.049149543            0   0.62705876    1.5559293    2.2321376   0.42388692 
13590000    1.0718029 -5.7380844e-05    0.5892452  0.033547644            0   0.55569756     1.587608    2.1768532  -0.76104597 
13595000    1.0633732 1.7078455e-05   0.56398314 0.0094038472            0    0.5545793    1.5751216    2.1391047    3.0135216 
13600000    1.0703514 -1.671041e-05   0.55204446 0.00061813019            0   0.55142633     1.585458    2.1375024    1.2819294 
13605000    1.0384133 5.9648697e-05   0.61566052 0.00054976303            0   0.61511076    1.5381497    2.1538102    5.2078235 
13610000    1.0516799 9.8602547e-05   0.59110283 0.0029311452            0   0.58817168    1.5578009    2.1489037    7.1973541 
13615000   0.94901533 -7.6885377e-05    0.7047044 0.0038597075            0   0.70084469     1.405729    2.1104334    -1.826098 
13620000    1.0509778 -0.00012966159   0.55784749 0.0033478141            0   0.55449967    1.5567609    2.1146084   -4.5240652 
13625000    1.0529989 6.6017037e-06   0.55425299 0.0085764532            0   0.54567654    1.5597546    2.1140076    2.4520149 
13630000    1.0044972 3.5436609e-05   0.61710129  0.031121409            0   0.58597988    1.4879115    2.1050128    3.9193672 
13635000    1.0233274 9.1053208e-06   0.56859561  0.071806472            0   0.49678914    1.5158037    2.0843993    2.5505917 
13640000    1.0797143 0.00010468125   0.50453521   0.03836364            0   0.46617157    1.5993268     2.103862    7.4635419 
13645000    1.0515873 0.00012263784   0.53327631  0.032824244            0   0.50045207    1.5576637      2.09094    8.3699973 
13650000    1.0326247 6.0628768e-05   0.55643756  0.018043521            0   0.53839404    1.5295753    2.0860128    5.1902058 
13655000   0.98668105 -4.9151402e-05   0.62919072   0.02334279            0   0.60584793    1.4615213     2.090712  -0.42583977 
13660000   0.95406146 -7.5714875e-05   0.68342507  0.016766321            0   0.66665875    1.4132035    2.0966286    -1.779973 
13665000    1.0856297 -5.3925579e-05    0.4885908  0.016027109            0   0.47256369    1.6080889    2.0966797  -0.66430991 
13670000    1.1014633 -5.7920194e-05   0.50252703  0.015362025            0   0.48716501    1.6315425    2.1340696  -0.83144437 
13675000    1.0211563 -2.7108237e-06   0.62071617 0.0006088507            0   0.62010732    1.5125878     2.133304    1.9945098 
13680000   0.99328327 6.8897701e-05   0.65971225 0.0013781821            0   0.65833407    1.4713008    2.1310131    5.6585754 
13685000    1.0388873 1.7570933e-05   0.58588069  0.019584495            0    0.5662962    1.5388518    2.1247325    3.0243643 
13690000   0.99158606 -3.7268609e-05   0.64160527   0.01768745            0   0.62391782    1.4687868    2.1103921   0.20223931 
13695000    1.0937688 8.4639369e-05   0.51142282  0.018203134            0   0.49321969    1.6201451    2.1315679    6.4651036 
13700000    1.0858262 4.7993557e-05   0.51217325  0.041496726            0   0.47067653    1.6083801    2.1205534    4.5778235 
13705000   0.97088172 -2.3268432e-05   0.67556222  0.039827247            0   0.63573497    1.4381186    2.1136808   0.92233704 
13710000    1.0822026 -2.811632e-05   0.54164228  0.017664239            0   0.52397804    1.6030126    2.1446549   0.70509927 
13715000    1.1173161 -2.8221323e-05   0.50052862 0.0018626114            0   0.49866601    1.6550245    2.1555531   0.71062133 
13720000    1.0804024 -8.5664556e-06   0.55407139  0.018604985            0    0.5354664    1.6003461    2.1544174    1.7158149 
13725000   0.99598346 -6.8823299e-05   0.68198873  0.033992358            0   0.64799637    1.4753005    2.1572892   -1.3664637 
13730000    1.1012813 -9.6064989e-05   0.48873589  0.019955611            0   0.46878028    1.6312729    2.1200088   -2.7985186 
13735000    1.1325998 -2.4671728e-05   0.43485406  0.024484555            0   0.41036951    1.6776634    2.1125175     0.849325 
13740000   0.99979892 0.00010221279   0.64380728  0.036512795            0   0.60729449    1.4809522    2.1247594    7.3580544 
13745000    1.0687068 7.2993141e-05    0.5237699  0.013234931            0   0.51053497    1.5830219    2.1067918    5.8440406 
13750000     1.038934 -7.8749579e-06   0.56800807  0.065067565            0   0.50294051     1.538921    2.1069291    1.7037312 
13755000   0.97199387 -4.3785418e-05   0.68344119  0.089594738            0   0.59384645    1.4397659    2.1232071  -0.11860632 
13760000    1.0074144 -1.9315894e-05   0.63207961  0.021181326            0   0.61089829    1.4922326    2.1243122    1.1353384 
13765000    1.0181432 0.00010909837   0.65325163  0.011142505            0   0.64210913    1.5081246    2.1613762    7.7472129 
13770000    1.0593567 0.00019579974   0.56620443 0.0055424423            0   0.56066199    1.5691721    2.1353766    12.160323 
13775000     1.062341 0.00011585629    0.5520691   0.01903693            0   0.53303217    1.5735927    2.1256618    8.0575039 
13780000    1.1106743 -4.5252999e-05   0.49195091  0.066838536            0   0.42511238    1.6451863    2.1371372  -0.17981638 
13785000    1.0513984 -0.00014730813   0.56562002  0.053673927            0   0.51194609    1.5573839    2.1230039   -5.4191723 
13790000    1.1010566 -2.2637306e-05    0.4862166  0.050874108            0   0.43534249    1.6309401    2.1171567   0.95812664 
13795000    1.0201328 6.5401579e-05   0.61356493   0.03287465            0   0.58069028    1.5110717    2.1246366    5.4731975 
13800000      1.06659 1.0565984e-05   0.52974628 0.0067181384            0   0.52302814    1.5798864    2.1096327    2.6506111 
13805000    1.0116188 -7.7472453e-05   0.60118817 0.0060324901            0   0.59515568    1.4984604    2.0996486    -1.866941 
13810000     1.061571 -7.02888e-05   0.56385891  0.030695999            0   0.53316291     1.572452    2.1363109   -1.4624757 
13815000    1.0851217 -5.9446421e-05   0.54885453  0.040659737            0    0.5081948    1.6073365    2.1561911  -0.88746568 
13820000     1.036122 5.1504665e-05   0.59762824  0.055508446            0    0.5421198    1.5347556    2.1323839    4.7694227 
13825000    1.0803288 0.00019748587   0.54436589  0.055317443            0   0.48904844     1.600237    2.1446029     12.25588 
13830000    1.0102327 0.00015218224   0.61608829  0.035958898            0    0.5801294    1.4964072    2.1124955     9.904226 
13835000    1.0587167 0.00011285201   0.54336925  0.027362576            0   0.51600667    1.5682241    2.1115934    7.8896162 
13840000    1.0048973 3.5459021e-05   0.56599291 0.0058210689            0   0.56017184    1.4885041     2.054497    3.8699989 
13845000    1.0355188 -8.2388307e-06   0.51858627  0.027460434            0   0.49112583    1.5338622    2.0524485    1.6306204 
13850000   0.99785624 -4.3697071e-05   0.57229045    0.0463364            0   0.52595405    1.4780746     2.050365  -0.18692501 
13855000   0.98560343 -0.00014639199   0.59935865  0.034111533            0   0.56524712    1.4599251    2.0592837   -5.4359859 
13860000    1.0942058 -1.4142772e-05   0.45467102  0.027290144            0   0.42738087    1.6207923    2.0754633    1.3513534 
13865000   0.99585387 7.5646669e-05   0.61569023  0.046469202            0   0.56922103    1.4751085    2.0907988    5.9639082 
13870000   0.94375346 -3.6037014e-05   0.66676485  0.056452719            0   0.61031213    1.3979348    2.0646997   0.21960453 
13875000    1.0018044 0.0001329719   0.57003235  0.033798804            0   0.53623355    1.4839227    2.0539551    8.8621165 
13880000    1.0370879 9.0102732e-05   0.51095815  0.017950818            0   0.49300733    1.5361864    2.0471446    6.6604045 
13885000    1.0568803 9.2179615e-05   0.51518149  0.014368547            0   0.50081295    1.5655039    2.0806854    6.8002817 
13890000   0.98055895 -4.6765089e-05   0.60896891  0.012159907            0     0.596809     1.452453    2.0614219   -0.3329507 
13895000    1.0190332 -5.9521976e-05   0.55538019  0.011802463            0   0.54357773     1.509443    2.0648232  -0.98270197 
13900000    1.0613401 4.0608986e-05   0.49156289  0.020841786            0    0.4707211    1.5721101    2.0636729     4.142853 
13905000   0.98090434 0.00010746358   0.62363483   0.03363679            0   0.58999804    1.4529645    2.0765994    7.5787348 
13910000    1.0496277 0.00010030146   0.50012522  0.013219932            0   0.48690529     1.554761    2.0548862     7.190321 
13915000    1.0317795 1.1179693e-05   0.49891806   0.00777879            0   0.49113927    1.5283234    2.0272414    2.5996417 
13920000   0.92722351 6.3606889e-06   0.65302078 0.0087805084            0   0.64424027    1.3734498    2.0264706    2.3521379 
13925000    1.0783308 -0.00010472481   0.43268224 0.0048029282            0   0.42787931    1.5972774    2.0299597   -3.3319504 
13930000    1.0076446 -0.0001383406   0.55824576   0.01202094            0   0.54622482    1.4925736    2.0508194   -5.0322191 
13935000   0.99259232 -0.00011966034   0.57585655  0.014712204            0   0.56114434    1.4702774    2.0461339   -4.0804754 
13940000    1.0813565 -8.4621778e-05   0.47396312 0.0045498367            0   0.46941328    1.6017593    2.0757225   -2.2569126 
13945000     0.993002 -5.6358619e-05   0.60133827  0.014157145            0   0.58718113    1.4708842    2.0722225  -0.81333882 
13950000    1.0109128 -1.5381355e-05    0.5657974  0.026730463            0   0.53906694    1.4974145    2.0632119    1.2756866 
13955000    1.0715574 -6.5270704e-06   0.46167859 0.0063400467            0   0.45533855    1.5872444     2.048923     1.714737 
13960000    1.1084184 2.1704537e-05   0.40007491 0.0042773192            0   0.39579759    1.6418447    2.0419196    3.1531919 
13965000    1.0065613 -2.1084442e-06   0.55170343  0.023340869            0   0.52836256    1.4909689    2.0426723    1.9347199 
13970000    1.0752041 3.3260611e-05   0.46414161  0.005944294            0   0.45819732    1.5926461    2.0567877     3.759731 
13975000    1.1126286 -6.3266836e-05   0.42380852 0.0050950809            0   0.41871343    1.6480811    2.0718896   -1.1673724 
13980000   0.98809935 -5.7699057e-05   0.61588274  0.017399993            0   0.59848275    1.4636222    2.0795049  -0.87468681 
13985000    1.1002892 9.1163477e-05   0.45640549 0.0074952693            0   0.44891022    1.6298033    2.0862088    6.7537788 
13990000    1.0153777 0.00010575908   0.59357631  0.010304084            0   0.58327222    1.5040282    2.0976045    7.5124694 
13995000    1.0556936 0.00014828591   0.53960508  0.048608776            0    0.4909963    1.5637461    2.1033512    9.6955896 
14000000    1.0209666 1.6663948e-05   0.59877382  0.032826811            0   0.56594701    1.5123068    2.1110807    2.9642748 
14005000    1.0743229 -3.214644e-05   0.53978908  0.025767484            0   0.51402159    1.5913408    2.1311298   0.48523213 
14010000    1.0536738 2.1484706e-05     0.593807  0.050299025            0   0.54350797    1.5607543    2.1545613    3.2545782 
14015000     1.041051 -2.9436235e-05   0.59287322  0.026127568            0   0.56674565    1.5420568      2.13493   0.62779474 
14020000    1.1067701 3.0331889e-05   0.49766289  0.087212939            0   0.41044995    1.6394031     2.137066    3.6900588 
14025000    1.0870686 1.0682905e-05   0.50840173 0.0067933876            0   0.50160834    1.6102204    2.1186221    2.6655869 
14030000    1.0442619 -3.5160713e-05   0.55129662 0.0077382619            0   0.54355836    1.5468129    2.0981095   0.29788101 
14035000    1.0708502 1.0569667e-05   0.50223308   0.02540439            0   0.47682869    1.5861968    2.0884299    2.6295969 
14040000    1.0637622 0.00010871695   0.52848437 0.0059955607            0   0.52248881    1.5756977    2.1041821    7.6704899 
14045000    1.0817307 0.00011818655   0.53108624  0.008736815            0   0.52234943    1.6023137    2.1333999    8.1845512 
14050000   0.99145765 1.2055905e-06   0.67526764   0.12557393            0   0.54969371    1.4685966    2.1438643    2.2055905 
14055000      1.11014 -8.7233028e-05   0.50432525    0.0364431            0   0.46788215    1.6443949    2.1487201   -2.3176109 
14060000    1.0076002 -2.8871852e-05    0.6186906   0.04118743            0   0.57750317    1.4925078    2.1111984   0.63295957 
14065000   0.99397847 0.0001025855   0.61934875  0.013063814            0   0.60628494    1.4723306    2.0916794    7.3440571 
14070000    1.0995318 6.880198e-05   0.46796516 0.0060705216            0   0.46189464    1.6286815    2.0966466     5.619308 
14075000    1.0172011 4.7219019e-05   0.58857869 0.0071889165            0   0.58138978    1.5067291    2.0953078    4.5129216 
14080000    1.0741559 0.00010715739   0.53013823  0.044421118            0   0.48571712    1.5910934    2.1212316    7.6076899 
14085000    1.0679105 -3.443765e-05   0.52896361  0.014831841            0   0.51413177    1.5818424     2.110806   0.34759834 
14090000    1.0196683 -1.9954242e-05   0.58443068 0.0031020626            0   0.58132861    1.5103837    2.0948144    1.0731572 
14095000     1.097626 -6.3524573e-07   0.48614509 0.0047276643            0   0.48141742    1.6258584    2.1120035     2.079479 
14100000    1.0642065 -8.9339624e-05   0.52108463  0.015632589            0   0.50545204    1.5763559    2.0974405   -2.4767482 
14105000    1.0900696 8.0713655e-05   0.47107695  0.041895636            0   0.42918132    1.6146655    2.0857425    6.2182816 
14110000   0.93021288 9.9781537e-05   0.69928184  0.016854788            0   0.68242705    1.3778778    2.0771597    7.1859744 
14115000    1.0163889 1.1259176e-05   0.55743072 0.0038048582            0   0.55362586    1.5055261    2.0629568    2.6394266 
14120000    1.0082072 1.7490236e-05   0.57590341 0.0016175865            0   0.57428582    1.4934068    2.0693103    2.9648103 
14125000    1.0036889 -4.3688751e-06   0.59318461   0.02044199            0   0.57274262    1.4867142    2.0798988    1.8562124 
14130000   0.97247149 -1.0431544e-05   0.60858758  0.051955546            0   0.55663204    1.4404734     2.049061    1.5149659 
14135000    1.0053528 -0.00012974745   0.56897095 0.0086522072            0   0.56031874    1.4891789    2.0581498   -4.5849198 
14140000    1.0275819 -0.00015681248   0.57189688  0.026612752            0   0.54528413    1.5221057    2.0940025   -5.9347966 
14145000    1.0046498 -9.4348747e-05   0.61877468  0.094256084            0   0.52451859    1.4881376    2.1069122   -2.7237436 
14150000    1.0429639 -5.8970623e-05   0.56684655  0.025598136            0   0.54124842    1.5448903    2.1117369  -0.90755902 
14155000   0.95267057 1.1691516e-05     0.683228  0.017874801            0    0.6653532    1.4111433    2.0943713    2.6929769 
14160000    1.0145935 2.8224946e-05   0.60045567  0.023781113            0   0.57667456    1.5028666    2.1033223    3.5484395 
14165000    1.0761745 8.0608296e-06    0.4959261  0.016537173            0   0.47938892    1.5940834    2.0900095     2.502724 
14170000    1.0320554 -9.4766647e-05   0.53235203  0.012106982            0   0.52024504     1.528732     2.061084   -2.7909683 
14175000    0.9900624 -0.00010299076   0.62121082  0.019281389            0   0.60192943    1.4665299    2.0877407   -3.1853862 
14180000    1.0360474 1.8154419e-05   0.54154861   0.03356943            0   0.50797918    1.5346452    2.0761938    3.0057001 
14185000   0.99667563 -1.2444884e-05   0.59496795  0.024127446            0   0.57084051    1.4763258    2.0712937    1.4341157 
14190000    1.0391368 1.3868102e-05   0.54128549  0.016226028            0   0.52505947    1.5392214    2.0805069    2.7905537 
14195000   0.98574733 0.0001366773   0.58490067  0.031552274            0   0.55334839    1.4601382    2.0450389    9.0429165 
14200000    1.0174354 6.1140673e-05   0.52632237  0.019651342            0   0.50667103    1.5070761    2.0333985     5.163801 
14205000    1.0253962 -0.00013627577    0.5318339  0.033364674            0   0.49846922    1.5188682    2.0507021   -4.9266175 
14210000    1.0154084 -3.6648796e-05   0.56813897  0.011847917            0   0.55629106    1.5040737    2.0722127   0.19579436 
14215000   0.97134963 7.0959058e-05   0.60762464   0.07337877            0   0.53424587    1.4388116    2.0464363      5.67954 
14220000   0.99576796 6.6973923e-05   0.58257118   0.02657069            0   0.55600049    1.4749813    2.0575525    5.4866173 
14225000   0.98986664 9.2104358e-05   0.57691289  0.023430563            0   0.55348232      1.46624    2.0431528     6.758896 
14230000    1.0086769 -8.5644541e-07   0.52758308  0.023695798            0   0.50388729    1.4941027    2.0216858    1.9778358 
14235000    1.0260232 -4.1776698e-05   0.49967326   0.01160801            0   0.48806525    1.5197969    2.0194701  -0.11949681 
14240000    1.0062194 -1.4435089e-05   0.53854561  0.021696443            0   0.51684917    1.4904625    2.0290081    1.2899315 
14245000   0.94073491 -6.2356521e-05   0.64258439  0.019662077            0   0.62292231    1.3934636     2.036048   -1.1566059 
14250000    1.0242307 -5.7470141e-05   0.51834593 0.0059037532            0   0.51244218    1.5171417    2.0354876  -0.90698358 
14255000    1.0112255 6.2395263e-05   0.52779491 0.0091458427            0   0.51864906    1.4978777    2.0256726    5.2203101 
14260000   0.90206998 1.678135e-05    0.7000619  0.018850417            0   0.68121148    1.3361912    2.0362531    2.8954582 
14265000    1.0273244 -8.7134731e-05   0.47578023  0.016297993            0   0.45948224    1.5217243    1.9975045   -2.4637937 
14270000   0.98436495 -0.00017594218   0.56075216 0.0074340769            0   0.55331809    1.4580906    2.0188427   -6.9893968 
14275000    1.0327079 -8.0892529e-05   0.49344636  0.020239507            0   0.47320685    1.5296985    2.0231449   -2.1185526 
14280000   0.92065363 -3.1178942e-05   0.64191086   0.02264557            0   0.61926529    1.3637182     2.005629   0.40926724 
14285000   0.88576804 -5.0040585e-05   0.68187246  0.028604664            0    0.6532678    1.3120439    1.9939164  -0.56816159 
14290000    1.0182585 -1.7920365e-05   0.50164047  0.036754578            0    0.4648859    1.5082954    2.0099359    1.0924132 
14295000    1.0367134 2.4788793e-05   0.43933551  0.018208107            0    0.4211274    1.5356317    1.9749672    3.2441534 
14300000    0.9693132 -2.2919617e-05   0.54480484  0.011435874            0   0.53336896    1.4357952       1.9806    0.8071156 
14305000   0.99597517 -4.2757517e-05   0.51092668   0.05566085            0   0.45526583    1.4752882    1.9862149  -0.20296999 
14310000   0.89139718 8.397251e-06   0.70654077  0.039913396            0   0.66662737    1.3203821    2.0269228    2.4568621 
14315000    1.0065976 -9.8707676e-05   0.56908388  0.014528881            0     0.554555    1.4910227    2.0601066   -2.9937264 
14320000    1.0931086 -0.00011191363   0.46815211 0.0058293358            0   0.46232277    1.6191671    2.0873192   -3.6426586 
14325000    1.0033119 0.00010157433   0.59445851 0.0095110957            0   0.58494741    1.4861557    2.0806142    7.2812201 
14330000    1.0003573 6.3033487e-06   0.64055455   0.03834439            0   0.60221016    1.4817792    2.1223338    2.4450652 
14335000    1.0217811 -5.215864e-05    0.6121794  0.021362676            0   0.59081672    1.5135132    2.1256926  -0.54482979 
14340000    1.0602053 1.0875671e-05   0.54318782  0.037189264            0   0.50599856    1.5704292     2.113617    2.6704514 
14345000    1.0672912 0.00015861833   0.50450175   0.04338802            0   0.46111373     1.580925    2.0854268    10.206685 
14350000    1.0447356 0.00011922517   0.55336218  0.016861486            0   0.53650069    1.5475146    2.1008768    8.2052054 
14355000    1.0457885 -0.00014614471   0.56238175 0.00078202278            0   0.56159973    1.5490742    2.1114559   -5.3711533 
14360000    1.1062552 -0.00010635721   0.47935242 0.00025240574            0   0.47910001    1.6386406     2.117993   -3.3274961 
14365000    1.0722316 6.5531678e-06   0.53366967 0.0051565896            0   0.52851308     1.588243    2.1219127    2.4574349 
14370000    1.0119768 3.4649011e-05   0.60548964 0.0080863336            0   0.59740331    1.4989906    2.1044802    3.8785096 
14375000    1.0336353 5.3874683e-05   0.57929133  0.013688021            0   0.56560331    1.5310723    2.1103637    4.8687474 
14380000    1.0276691 8.5052827e-05   0.57151724  0.057001472            0   0.51451576    1.5222349    2.0937521    6.4484569 
14385000   0.93693674 0.00010027886   0.70639039  0.037703235            0   0.66868716    1.3878375    2.0942279    7.2285056 
14390000    1.0646108 0.00012658506   0.48219937   0.01161016            0   0.47058921    1.5769547    2.0591541    8.5403089 
14395000   0.95511489 2.5926302e-05   0.65347344  0.013963127            0   0.63951032    1.4147639    2.0682374     3.395664 
14400000   0.99418491 -8.4866105e-05   0.58907015  0.016073226            0   0.57299693    1.4726364    2.0617066    -2.283438 
14405000    1.0069933 2.3936292e-05   0.56942962  0.031185403            0   0.53824422    1.4916088    2.0610384    3.2865765 
14410000    1.0579475 6.0382587e-05   0.49490283  0.024091527            0    0.4708113    1.5670848    2.0619876    5.1535761 
14415000     1.027206 6.3647767e-05   0.54335525  0.024182947            0    0.5191723    1.5215489    2.0649041    5.3236698 
14420000     1.017802 1.9483156e-06   0.53636467  0.036864183            0   0.49950049    1.5076192    2.0439838    2.1437376 
14425000    1.0262835 4.0806608e-05   0.51166793  0.034980009            0   0.47668793    1.5201824    2.0318504    4.1211487 
14430000    1.0292668 7.0430959e-05    0.5059138  0.014789691            0   0.49112411    1.5246014    2.0305152    5.6365803 
14435000   0.99272769 6.7040182e-05    0.5737495 0.0072991939            0    0.5664503    1.4704779    2.0442274    5.4766847 
14440000   0.95974627 0.00010919125   0.65118884  0.039547632            0   0.61164121    1.4216242     2.072813     7.663405 
14445000    1.0203416 6.9245945e-05   0.56145697 0.0097745333            0   0.55168243    1.5113809    2.0728379    5.6182303 
14450000     1.019296 5.8704612e-05   0.57435166  0.010415944            0   0.56393572    1.5098322    2.0841838    5.0898599 
14455000     1.040475 -1.7197228e-05   0.53139531 0.0098848044            0   0.52151051    1.5412036    2.0725989    1.1921009 
14460000    1.1033159 1.1820431e-05   0.44601859   0.01445581            0   0.43156278    1.6342866    2.0803052    2.6855113 
14465000    0.9994131 -6.6840588e-05   0.61890097  0.026823766            0    0.5920772    1.4803807    2.0992816   -1.3229565 
14470000   0.97382808 -0.00015507085   0.66526426  0.016267512            0   0.64899675    1.4424828    2.1077471   -5.8318802 
14475000   0.98675538 6.6339831e-05   0.66666453  0.016053469            0   0.65061106    1.4616314    2.1282959    5.5248953 
14480000   0.99463743 0.00013811089   0.64443099  0.019695665            0   0.62473532    1.4733067    2.1177377    9.1890155 
14485000    1.0277676 0.00011053557     0.575079 0.0076205615            0   0.56745844    1.5223808    2.0974598     7.756881 
14490000   0.98863425 3.3515264e-05   0.64597154 0.0060155345            0   0.63995601    1.4644145     2.110386    3.8263675 
14495000   0.95377031 7.0076584e-05   0.70106296  0.010850777            0   0.69021219    1.4127723    2.1138352    5.7017563 
14500000   0.99838462 2.6939965e-05   0.61069811  0.014419872            0   0.59627824    1.4788572    2.0895553    3.4688815 
14505000   0.94215914 -7.2735598e-05     0.683206 0.0041448638            0   0.67906113    1.3955732    2.0787792   -1.6452834 
14510000     1.056164 4.7956057e-05   0.54393998 0.0027748916            0   0.54116509    1.5644429    2.1083829     4.563733 
14515000    1.0353171 5.3073943e-05   0.57335652  0.007926185            0   0.56543034    1.5335634    2.1069199    4.8243058 
14520000    1.0396039 -6.2056497e-05   0.62842828  0.022135472            0    0.6062928    1.5399133    2.1683416   -1.0089511 
14525000    1.0788969 3.5939647e-05   0.60074313  0.017076834            0    0.5836663     1.598116    2.1988592    4.0389691 
14530000    1.0637117 9.6707259e-05   0.65437537 0.0040148738            0    0.6503605    1.5756229    2.2299983      7.18141 
14535000    1.0602038 -5.0852403e-05   0.64374068  0.039107199            0   0.60463348    1.5704268    2.2141675  -0.38947552 
14540000    1.0944206 1.0951234e-05   0.60340704   0.04258093            0   0.56082611    1.6211105    2.2245176    2.7852208 
14545000    1.1469705 0.00013414683   0.57114397  0.038945846            0   0.53219812      1.69895     2.270094    9.1384118 
14550000     1.092093 0.00011319371   0.64991084  0.030290408            0   0.61962044    1.6176627    2.2675736    8.0630914 
14555000    1.1353044 8.2952826e-05   0.56653428 0.0068321439            0   0.55970214    1.6816697     2.248204    6.4953887 
14560000    1.0184055 -2.8090913e-05   0.71341546   0.05633557            0   0.65707989    1.5085131    2.2219285    0.7836738 
14565000    1.0219256 -0.00015175042   0.68868597  0.040391771            0    0.6482942    1.5137273    2.2024133   -5.5672082 
14570000    1.0829345 -8.5158792e-05    0.6278807   0.01899194            0   0.60888876    1.6040967    2.2319774   -2.1281527 
14575000    1.1054246 2.3360174e-05   0.58536691  0.029160528            0   0.55620638    1.6374101     2.222777    3.4188179 
14580000    1.0848212 1.3504796e-05   0.62924374  0.060125687            0   0.56911805    1.6068913    2.2361351    2.9275806 
14585000    1.1609175 -0.00010024045   0.54364135   0.02416074            0   0.51948061     1.719609    2.2632504   -2.8690605 
14590000     1.094672 -2.4795007e-05    0.6406802  0.027991719            0   0.61268848    1.6214829    2.2621631   0.99265872 
14595000    1.1460615 6.6327014e-05   0.56400722  0.045648582            0   0.51835864    1.6976036    2.2616109     5.657554 
14600000    1.0391325 1.260773e-05   0.70701018  0.013211891            0   0.69379829    1.5392151    2.2462253     2.891741 
14605000    1.1585011 4.8052695e-05   0.53948832  0.007558588            0   0.53192973    1.7160297     2.255518     4.715816 
14610000    1.1070317 -6.5928762e-05   0.63588014  0.014175771            0   0.62170437    1.6397907    2.2756709   -1.0998818 
14615000    1.0984682 -6.4354585e-05   0.62687519  0.010196091            0    0.6166791     1.627106    2.2539812   -1.0409736 
14620000    1.1329997 9.830839e-05   0.57898707 0.0085145352            0   0.57047254    1.6782558    2.2572429    7.2906325 
14625000    1.0502453 4.9348485e-05   0.71235012   0.01614968            0   0.69620043    1.5556759     2.268026    4.7946684 
14630000    1.1095584 -3.8658252e-06   0.64186344  0.010007303            0   0.63185613    1.6435333    2.2853967    2.0874665 
14635000     1.058389 -0.00014464575   0.69739941 0.0038422574            0   0.69355715    1.5677387    2.2651381   -5.1407245 
14640000    1.1120574 -5.5942302e-05   0.60824178  0.033224557            0   0.57501723     1.647235    2.2554768  -0.60876911 
14645000    1.0115515 8.9674383e-05   0.73815223  0.052352611            0   0.68579962    1.4983607     2.236513    6.8278413 
14650000    1.0552152 -2.104722e-05   0.70410186  0.026194716            0   0.67790715    1.5630375    2.2671394    1.1895217 
14655000    1.0933131 -1.4193774e-05   0.67144975  0.013952956            0   0.65749679      1.61947    2.2909198    1.5641985 
14660000    1.0932314 4.6247515e-05   0.65201514 0.0016072559            0   0.65040789     1.619349    2.2713641    4.6392369 
14665000    1.0852015 0.00015734232   0.66969159  0.001353432            0   0.66833816    1.6074547    2.2771462    10.333073 
14670000    1.1242459 4.4169237e-05   0.62017703 0.00097498717            0   0.61920204    1.6652893    2.2854663    4.5469312 
14675000    1.0527983 -0.00011723497   0.71993396   0.01694026            0    0.7029937    1.5594575    2.2793915   -3.7230391 
14680000    1.0832446 1.8318611e-05   0.67196283  0.044615279            0   0.62734755     1.604556    2.2765188    3.2144317 
14685000      1.15732 1.3439919e-05   0.59053903  0.017597731            0    0.5729413    1.7142802    2.3048192    2.9929431 
14690000    1.1250754 -0.00019657691   0.64483869 0.0043674123            0   0.64047128    1.6665179    2.3113566   -7.7533811 
14695000    1.1071713 -0.00011303603   0.68553896   0.00423842            0   0.68130054    1.6399975    2.3255365   -3.4619083 
14700000     1.071921 -6.4782244e-05   0.73418315  0.010231656            0    0.7239515     1.587783    2.3219662  -0.99488473 
14705000     1.130631 7.5452617e-05    0.6380432 0.0057095231            0   0.63233368    1.6747471    2.3127903    6.1759643 
14710000    1.0875848 0.00015494117   0.68859321 0.00043816349            0   0.68815505     1.610985    2.2995782    10.232566 
14715000    1.0201151 3.2274361e-05   0.80127713 0.00021350732            0   0.80106362    1.5110455    2.3123226    3.9647699 
14720000    1.1336674 -3.0579451e-05   0.61132969 0.0028582788            0   0.60847141    1.6792448    2.2905745   0.72490662 
14725000    1.0731927 -4.8785699e-05   0.67508228 0.0097706367            0   0.66531165    1.5896667     2.264749  -0.23307876 
14730000    1.0880382 -0.00010500976   0.67455313  0.012189735            0    0.6623634    1.6116566    2.2862097   -3.0902901 
14735000    1.1176717 -0.00011535216   0.64605775  0.019452237            0   0.62660551    1.6555513     2.301609   -3.6044213 
14740000    1.1165978 3.4651476e-05   0.63984907  0.024166204            0   0.61568286    1.6539605    2.2938096    4.0679652 
14745000    1.1885636 8.9166609e-05   0.51215571  0.018531301            0   0.49362441    1.7605599    2.2727156     6.838046 
14750000    1.0217723 -2.7511974e-06   0.74859141  0.025723895            0   0.72286751    1.5135003    2.2620917    2.1212304 
14755000    1.0524355 -7.7354681e-05   0.68567668  0.035241807            0   0.65043487    1.5589201    2.2445968   -1.7159629 
14760000    1.1640629 -1.1276522e-05    0.5086347  0.006243752            0   0.50239095    1.7242682    2.2329029    1.6555449 
14765000    1.1225344 -6.5729923e-05   0.59901149 0.0024726204            0   0.59653886    1.6627541    2.2617656   -1.1036065 
14770000    1.0943733 2.6042937e-05   0.61558405 0.0031187688            0   0.61246529    1.6210404    2.2366245    3.5700228 
14775000    1.1282098 -2.2532856e-06   0.56460973  0.015517847            0   0.54909189    1.6711608    2.2357706    2.1204023 
14780000    1.1728644 -2.1089971e-05   0.49529962  0.018270978            0   0.47702864    1.7373054    2.2326051    1.1527985 
14785000    1.1873523 -1.816784e-05   0.49348848  0.010824089            0   0.48266439    1.7587656    2.2522541    1.3220607 
14790000    1.1007565 -5.1391768e-05   0.59712931  0.037286685            0   0.55984263    1.6304955    2.2276248   -0.4036337 
14795000    1.1327212 2.5084528e-05   0.53096961  0.049074576            0   0.48189504    1.6778432    2.2088128    3.4931407 
14800000    1.0564331 -4.1492696e-05   0.64265721  0.063307217            0      0.57935    1.5648415    2.2074987  0.083072668 
14805000     1.030541 -0.00012557174   0.69390242  0.046559529            0   0.64734289    1.5264889    2.2203913   -4.2088817 
14810000    1.1274784 -0.00013842968   0.56079554  0.026376805            0   0.53441873    1.6700774    2.2308729   -4.8567268 
14815000     1.152685 -4.9743101e-05   0.50914905  0.024721306            0   0.48442774    1.7074146    2.2165636  -0.33028311 
14820000    1.0342325 -1.4270675e-05   0.68475863 0.0098784963            0   0.67488014    1.5319569    2.2167156     1.486057 
14825000    1.0628772 -7.6502414e-05   0.64757021 0.0020026919            0   0.64556752    1.5743868     2.221957   -1.6949666 
14830000    1.1055891 1.8572285e-05   0.58699721 0.0071833367            0   0.57981388    1.6376538     2.224651     3.175552 
14835000    1.1155431 2.633484e-05   0.55627264  0.052598098            0   0.50367455    1.6523982    2.2086708    3.5570147 
14840000    1.1261106 -0.00014635979   0.50004474  0.032805274            0   0.46723947    1.6680513     2.168096   -5.3255252 
14845000   0.97000695 -5.8511069e-05   0.68246152 0.0028607566            0   0.67960077    1.4368228    2.1192843  -0.87648239 
14850000    1.0277097 2.3284188e-05   0.58371516 0.0088844656            0    0.5748307    1.5222949    2.1060101    3.2981605 
14855000    1.0927528 2.4520797e-05   0.49266937  0.019054795            0   0.47361458    1.6186401    2.1113095    3.3667743 
14860000    1.0448984 7.524054e-05   0.56114198 0.0048608062            0   0.55628117    1.5477557    2.1088977    5.9612134 
14865000    1.0400604 5.6811184e-05   0.61774517 0.0014022992            0   0.61634287    1.5405895    2.1583347    5.0670673 
14870000    1.0477326  0.000105479    0.6109227 0.0012132158            0   0.60970948    1.5519539    2.1628766    7.5634016 
14875000    1.0662172 -1.9348385e-05   0.58595758 0.00094034217            0   0.58501723    1.5793342    2.1652918    1.1746545 
14880000     1.072493 -0.00013959422   0.60767315 0.0038156542            0    0.6038575    1.5886303    2.1963034   -4.9509208 
14885000    1.0537924 -7.9622493e-05   0.65821616 0.0020967082            0   0.65611945      1.56093    2.2191461   -1.8575255 
14890000    1.1143785 -3.7388234e-05   0.55237407  0.021819965            0    0.5305541    1.6506731    2.2030472   0.28876964 
14895000    1.0349139 4.2817686e-05   0.67037592  0.048345319            0    0.6220306    1.5329662    2.2033421    4.3956077 
14900000    1.1332911 -5.6716557e-05   0.50995034  0.011784155            0   0.49816618    1.6786874    2.1886377  -0.71524996 
14905000    1.0896245 -6.4268461e-05   0.56702403   0.02089642            0   0.54612761    1.6140063    2.1810303   -1.1095149 
14910000    1.0649336 5.6402648e-05    0.5691964   0.01771867            0   0.55147773    1.5774329    2.1466293    5.0344448 
14915000    1.0324727 5.742966e-05   0.62903165 0.0022073547            0    0.6268243    1.5293501    2.1583818    5.0987804 
14920000    1.0744565 9.5809699e-05   0.57414812 0.0038206953            0   0.57032742    1.5915386    2.1656868    7.0711433 
14925000    1.0804296 5.9178327e-05   0.55072487 0.0030978978            0   0.54762697    1.6003863    2.1511112    5.1810415 
14930000   0.96607238 2.3553289e-05   0.71873282  0.011722422            0    0.7070104    1.4309947    2.1497275    3.3556559 
14935000    0.9711121 6.362013e-05   0.65018486   0.02739776            0    0.6227871    1.4384598    2.0886447    5.3459953 
14940000     1.042163 5.5407447e-05   0.59470081  0.044060398            0   0.55064041    1.5437039    2.1384047     4.975266 
14945000    1.0326615 6.4990566e-06    0.6154845  0.071051858            0   0.54443264    1.5296299    2.1451144    2.4778661 
14950000   0.99348165 1.7502905e-05   0.65034095  0.022794662            0   0.62754628    1.4715947    2.1219356    3.0180844 
14955000    1.0032744 4.9732366e-05   0.66284927  0.095364134            0   0.56748513    1.4861002    2.1489495    4.6952466 
14960000    1.0597894 1.3738981e-05   0.58875747  0.032589926            0   0.55616754    1.5698131    2.1585705    2.8620064 
14965000    1.1127574 4.4797889e-06   0.50697135  0.003218878            0   0.50375247    1.6482719    2.1552432    2.3846084 
14970000    1.0221338 3.0764032e-05   0.63803575 0.0019813151            0   0.63605444    1.5140357    2.1520715    3.7271899 
14975000    1.0256061 8.6078828e-05   0.62103777 0.0082475405            0   0.61279023     1.519179    2.1402168    6.5474528 
14980000    1.0518705 2.3430584e-05   0.58707414  0.034982632            0   0.55209151    1.5580832    2.1451573    3.3448032 
14985000    1.0323542 -0.00011467211   0.57989839  0.050490052            0   0.52940833    1.5291746     2.109073   -3.7621389 
14990000   0.98260477 -3.285347e-05   0.65850096   0.02425519            0   0.63424577    1.4554833    2.1139843   0.43188661 
14995000    1.0761012 -1.2208686e-05   0.50577002  0.017381042            0   0.48838898    1.5939749     2.099745    1.4746603 
15000000    1.0542051 -9.0757214e-05    0.5340906  0.023240018            0   0.51085058    1.5615413    2.0956319   -2.5511375 
15005000    1.0448089 -2.8038487e-05   0.52470564  0.018257979            0   0.50644766    1.5476232    2.0723289   0.63675834 
15010000    1.0220211 -2.6235885e-05    0.5759118  0.029940358            0   0.54597145    1.5138687    2.0897805   0.74650316 
15015000    1.0135214 -8.5078865e-06   0.56720748  0.022856097            0   0.54435138    1.5012786    2.0684861    1.6328823 
15020000    1.0196111 1.4818863e-05   0.55934052  0.026574049            0   0.53276647    1.5102989    2.0696394    2.8283652 
15025000   0.98514205 -4.6964067e-05   0.63336788 0.0057604174            0   0.62760746    1.4592417    2.0926095  -0.31195072 
15030000   0.98524252 -8.4924646e-05   0.62713962 0.00099713575            0   0.62614248    1.4593905    2.0865301   -2.2616118 
15035000   0.96669103 -3.9656515e-05   0.65125096  0.012368926            0   0.63888203    1.4319111     2.083162  0.052748498 
15040000   0.99066664 -5.4199447e-05     0.598868   0.03015363            0   0.56871437     1.467425     2.066293  -0.70871873 
15045000    1.0276158 -6.9174007e-05   0.54940897  0.013153438            0   0.53625553    1.5221559    2.0715649   -1.4701442 
15050000    1.0161885 -4.244013e-05   0.60423686  0.033879586            0   0.57035727    1.5052292     2.109466 -0.063468611 
15055000    1.0606381 6.993709e-05   0.56036689  0.018405412            0   0.54196148    1.5710702    2.1314371    5.7122161 
15060000    1.0404779 9.0476289e-05   0.58998102  0.012675832            0   0.57730518    1.5412078    2.1311889    6.7635749 
15065000    1.0505143 3.5612286e-06   0.56090701   0.01691625            0   0.54399076    1.5560744    2.1169814    2.2993163 
15070000   0.99478781  7.12862e-05   0.64149268  0.015687451            0   0.62580523    1.4735294    2.1150221    5.7648756 
15075000    1.0700929 0.00010042816   0.50135476  0.043901038            0   0.45745372    1.5850751    2.0864298    7.2283515 
15080000    1.0005343 0.00017852837   0.56659687  0.033704569            0    0.5328923    1.4820415    2.0486383    11.189291 
15085000   0.98178469 -3.3963982e-05   0.59049436 0.0042530829            0   0.58624127    1.4542686    2.0447629   0.30580703 
15090000   0.94656789 4.3109639e-05   0.62109671  0.039713416            0   0.58138329    1.4021037    2.0232004    4.2304139 
15095000   0.95441882 5.551616e-05   0.60639483  0.020911524            0    0.5854833    1.4137329    2.0201277    4.8625551 
15100000    1.0039367 4.3983617e-05   0.49417171  0.004198265            0   0.48997345    1.4870813     1.981253    4.2332142 
15105000   0.97766721 -7.0981487e-05   0.54065752  0.018931635            0   0.52172588    1.4481696    1.9888271   -1.6454251 
15110000   0.90811266 2.3026521e-06   0.62400873  0.011849018            0   0.61215971    1.3451419    1.9691506    2.0870464 
15115000   0.89310326 -0.00012026124   0.63880435 0.0039925285            0   0.63481182    1.3229092    1.9617136   -4.1956617 
15120000   0.96225243 -0.00019965105   0.53679943 0.0028188564            0   0.53398058    1.4253364    1.9621359    -8.259998 
15125000   0.88425463 -0.00012289699   0.64884539 0.0010823245            0   0.64776307    1.3098022    1.9586476   -4.3336785 
15130000    1.0313424 -6.9282252e-05   0.45425846 0.0023395872            0   0.45191887     1.527676    1.9819345   -1.5653168 
15135000    0.9725993 6.6232589e-06   0.55686969 0.0087390592            0   0.54813063    1.4406627    1.9975324    2.3366433 
15140000   0.82402614 8.2097874e-05   0.78285749  0.048467725            0   0.73438977    1.2205887    2.0034462    6.2068574 
15145000   0.89078846 7.7452171e-05    0.6669106  0.027863897            0   0.63904671    1.3194804     1.986391    5.9519422 
15150000   0.90802287 -9.0228705e-05   0.65233101 0.0046206486            0   0.64771036    1.3450089    1.9973399   -2.6223698 
15155000   0.92426529 -0.0001680495   0.62099592  0.022827795            0   0.59816812     1.369068    1.9900639   -6.6140706 
15160000   0.96938855 -5.923594e-05   0.54234265  0.027638975            0   0.51470367    1.4359068    1.9782494   -1.0546307 
15165000   0.86553327 -1.1312298e-05   0.67912917 0.0089940024            0   0.67013516    1.2820712    1.9612003    1.3820107 
15170000   0.98246354 -1.2913477e-05   0.53566912  0.016061833            0   0.51960729    1.4552741    1.9909432    1.3297732 
15175000    0.9470867 -4.8696573e-05   0.58920428  0.015761307            0   0.57344298    1.4028722    1.9920765  -0.50118809 
15180000   0.94942765 -0.00010471917   0.58906315  0.028248904            0   0.56081424    1.4063397    1.9954029   -3.3662189 
15185000   0.92961529 -9.0403903e-05   0.60973093  0.034203906            0   0.57552702    1.3769926    1.9867236   -2.6419563 
15190000    1.0404241 3.4969767e-05    0.4795394 0.0084856274            0   0.47105377    1.5411281    2.0206675    3.8111196 
15195000   0.96138517 0.00015800371   0.57637552 0.0077873375            0   0.56858818    1.4240518    2.0004273    10.090217 
15200000   0.88081547 0.00012550102   0.68515008  0.097936403            0   0.58721368    1.3047079     1.989858      8.41551 
15205000   0.98571455 -2.1241326e-05   0.52103025  0.016153547            0    0.5048767    1.4600897    1.9811199   0.89356405 
15210000   0.93008958 -5.9940572e-05    0.5939741  0.017086217            0   0.57688789    1.3776952    1.9716693    -1.097288 
15215000      1.01389 -0.00011802755   0.48985011 0.0098720761            0   0.47997803    1.5018246    1.9916747   -4.0513357 
15220000   0.97193698 -7.2776335e-06   0.53792244  0.004733896            0   0.53318854    1.4396817    1.9776041    1.6049893 
15225000    1.0134258 0.00012561814   0.49184183 0.0067768788            0   0.48506495     1.501137    1.9929788    8.4246275 
15230000   0.93523678 3.3823405e-05   0.60675965  0.046533324            0   0.56022632    1.3853195    1.9920791    3.7238374 
15235000   0.93445001 -2.1150215e-05   0.62904354  0.069826642            0   0.55921689    1.3841541    2.0131976   0.93030659 
15240000   0.93108042 2.8347595e-05    0.6182683  0.022841556            0   0.59542674    1.3791629    1.9974312    3.4488281 
15245000   0.84421271 0.00012025755   0.73250095  0.015520565            0   0.71698039    1.2504901     1.982991    8.1401778 
15250000    1.0107777 9.5366799e-06   0.47095734 0.0085355054            0   0.46242184    1.4972145    1.9681719    2.4564499 
15255000   0.88253666 -9.712533e-05   0.66249704  0.024535204            0   0.63796183    1.3072574    1.9697545   -3.0030625 
15260000   0.96667984 -6.4228176e-05     0.561262  0.017912474            0   0.54334952    1.4318945    1.9931565   -1.2953261 
15265000    1.0218071 6.4227541e-05   0.47907839 0.0069498417            0   0.47212854    1.5135518    1.9926301    5.2810802 
15270000   0.97906326 5.8792209e-05   0.53743753  0.016358372            0   0.52107916    1.4502375     1.987675    4.9978361 
15275000   0.89062035 -0.00010742146   0.68344251  0.068167487            0   0.61527502    1.3192314    2.0026739   -3.4973047 
15280000   0.94490945 -9.4958427e-05   0.62064291  0.031034743            0   0.58960817    1.3996471      2.02029   -2.8415814 
15285000    1.0113736 -5.744296e-05   0.53889234  0.025242152            0   0.51365019    1.4980972    2.0369896     -0.90409 
15290000    0.8819276 -9.6927935e-05   0.71891445  0.050042403            0   0.66887204    1.3063553    2.0252697   -2.9374406 
15295000    1.0171638 -3.3730464e-06   0.51796726  0.038994965            0    0.4789723    1.5066739    2.0246412    1.8519412 
15300000    1.0591448 8.131757e-05   0.46408407   0.03709774            0   0.42698633    1.5688582    2.0329423    6.1964019 
15305000   0.91386134 5.9270992e-05    0.6938062  0.032160928            0   0.66164528    1.3536571    2.0474633    5.0821381 
15310000   0.97843809 -1.230652e-05   0.61401465  0.048881935            0   0.56513272    1.4493114    2.0633261    1.4332322 
15315000    1.0003776 -8.1393188e-05   0.56851357  0.018207239            0   0.55030633    1.4818093    2.0503229   -2.1170083 
15320000   0.93953787 -7.843126e-05   0.65258939 0.0046412289            0   0.64794817    1.3916905    2.0442799   -1.9714006 
15325000    1.0690677 -3.50278e-05    0.4871684 0.0070394037            0     0.480129    1.5835566     2.070725    0.2773016 
15330000   0.98832836 -6.8706687e-05   0.61082068  0.015913619            0   0.59490706    1.4639614    2.0747821   -1.4430003 
15335000   0.99345511 -4.9122063e-05   0.57458254  0.026325381            0   0.54825716    1.4715554    2.0461379  -0.46891172 
15340000   0.95293961 6.6862852e-05    0.6258714   0.05630168            0   0.56956972    1.4115418    2.0374132    5.4607912 
15345000   0.96028308 0.00010137432   0.60003013  0.064236954            0   0.53579317    1.4224193    2.0224494    7.2128145 
15350000   0.97311243 7.5817106e-05   0.55344917  0.033840935            0   0.51960823    1.4414228     1.994872    5.8767078 
15355000   0.96280827 3.6771038e-05   0.58901622  0.032149574            0   0.55686665    1.4261597     2.015176    3.8978531 
15360000    1.0513224 0.00011073059   0.47594884  0.036803519            0   0.43914532    1.5572714    2.0332202    7.7026265 
15365000   0.95343235 0.00015723593   0.59108578  0.038187695            0   0.55289808    1.4122717    2.0033574    10.053837 
15370000    0.9976547 7.4025421e-05    0.5462825  0.028548909            0   0.51773359     1.477776    2.0240585    5.8141601 
15375000   0.88541957 5.5411048e-05     0.709562  0.066798735            0   0.64276326    1.3115277    2.0210897    4.8581354 
15380000    1.0184275 1.3182748e-05   0.49473699  0.043400496            0   0.45133649    1.5085458    2.0032828    2.6782395 
15385000    1.0420203 -1.5195761e-05   0.45639954  0.012730043            0    0.4436695    1.5434926    1.9998921    1.2218692 
15390000    0.9625958 4.0715228e-06   0.59905688  0.013772562            0   0.58528432     1.425845    2.0249019    2.2333639 
15395000   0.99564742 1.384312e-05   0.53216205  0.014745964            0   0.51741608    1.4748027    2.0069648    2.7157326 
15400000   0.99820355 4.2967176e-05   0.52869942  0.015870353            0   0.51282907     1.478589    2.0072884    4.2072078 
15405000   0.87039442 3.776653e-05   0.72288711  0.054598193            0   0.66828891    1.2892717    2.0121588    3.9458052 
15410000    1.0519387 7.002643e-05   0.46944628  0.063840267            0   0.40560601    1.5581842    2.0276305    5.6129837 
15415000    1.0171004 6.4728225e-05   0.54179064  0.012991763            0   0.52879888      1.50658    2.0483706    5.3624557 
15420000    1.0017409 -4.5488525e-05   0.56864115  0.013945146            0     0.554696    1.4838287    2.0524699   -0.2765426 
15425000    1.0092121 -0.00010406772   0.54352245  0.019537259            0   0.52398519    1.4948955    2.0384179   -3.2898496 
15430000   0.98648253 -9.0171385e-05   0.56482252  0.022874768            0   0.54194775    1.4612272    2.0260498   -2.5907251 
15435000   0.96972048 -5.9675268e-05    0.6075476  0.013603432            0   0.59394417    1.4363985    2.0439461   -1.0114277 
15440000   0.95887621 -6.7533152e-05   0.60328417  0.021447777            0   0.58183639    1.4203354    2.0236195   -1.4340778 
15445000    1.0069881 -7.8702017e-05   0.55957464  0.013663453            0   0.54591119    1.4916011    2.0511757   -1.9783675 
15450000    1.0115422 -1.3444832e-05   0.57714167  0.026319286            0   0.55082239    1.4983469    2.0754886    1.3871132 
15455000    1.0418609 6.3557954e-05   0.51084831   0.04990337            0   0.46094494    1.5432565    2.0541048     5.308272 
15460000   0.91228272 6.1647143e-05   0.74599431  0.050451063            0   0.69554325    1.3513188    2.0973131    5.2536468 
15465000    1.0842859 8.956619e-06   0.50523936  0.030988854            0   0.47425051    1.6060985    2.1113379    2.5699168 
15470000     1.075873 -3.2083184e-05   0.49624954  0.004410167            0   0.49183938    1.5936369    2.0898864   0.44722739 
15475000    1.0382825 -6.773612e-05   0.55293498  0.031646458            0   0.52128852    1.5379559    2.0908909   -1.3771985 
15480000    1.0967388 -7.1676591e-05    0.4696291  0.024478288            0   0.44515081    1.6245443    2.0941734    -1.575668 
15485000   0.91561874 -4.1374838e-05   0.73912057  0.032320199            0   0.70680037    1.3562603    2.0953808 -0.023010884 
15490000    1.0593775 -7.4476719e-05   0.54190136  0.017676639            0   0.52422472    1.5692029    2.1111043   -1.7021037 
15495000    1.1071127 -9.1084653e-05   0.48979113  0.057127471            0   0.43266366    1.6399107    2.1297018   -2.5338324 
15500000    1.0933418 4.500361e-05    0.5043127  0.035097126            0   0.46921558    1.6195125    2.1238252      4.42801 
15505000     1.068575 2.7846743e-05   0.52619189  0.010823582            0   0.51536831    1.5828267    2.1090185    3.5347718 
15510000   0.97529143 -0.00010429065   0.62310345 0.0019674347            0   0.62113602    1.4446504    2.0677539   -3.2719275 
15515000    1.0522993 -5.8221107e-05   0.53201083 0.0081976098            0   0.52381322    1.5587183    2.0907291  -0.89019157 
15520000     1.143711 3.7817432e-06    0.4227256   0.00769627            0   0.41502933    1.6941219    2.1168475    2.3104727 
15525000    1.1155294 1.4033382e-05   0.50870708   0.02068569            0   0.48802139    1.6523779     2.161085    2.8795942 
15530000    1.0949419 -2.817973e-05    0.5441862   0.01555375            0   0.52863245    1.6218826    2.1660688   0.72326669 
15535000    1.1239919 -4.4434841e-05   0.51554725  0.023013992            0   0.49253326    1.6649129    2.1804602 -0.094603645 
15540000    1.0189403 -6.4740552e-05    0.6502681  0.045408245            0   0.60485986    1.5093053    2.1595734   -1.1551429 
15545000    1.0825398 -4.5041837e-05   0.51873901  0.023972589            0   0.49476642    1.6035121    2.1222511  -0.18389096 
15550000    1.0397125 6.0809499e-05   0.57635558  0.041315113            0   0.53504047    1.5400742    2.1164298    5.2298761 
15555000    1.0962133 -1.5466948e-05   0.47613662  0.010628775            0   0.46550785    1.6237659    2.0999025    1.3079948 
15560000    1.0857734 -7.9670509e-05   0.50282848 0.0050495605            0   0.49777892    1.6083019    2.1111304   -1.9679997 
15565000    1.0585906 -0.00016744653   0.56890203  0.013126047            0   0.55577599    1.5680374    2.1369394   -6.4363232 
15570000    1.1084369 -0.00015957676   0.51288245  0.021620811            0   0.49126164    1.6418722    2.1547547   -6.0155756 
15575000    1.1076232 -3.8492576e-06    0.5340747  0.034263272            0   0.49981143    1.6406669    2.1747416    1.9776596 
15580000    1.0186074 -0.00016255086   0.60719391  0.081273479            0   0.52592043    1.5088122    2.1160061   -6.2065979 
15585000    1.0113227 -7.5521214e-05   0.62115889  0.066602627            0   0.55455626    1.4980218    2.1191807   -1.7475055 
15590000    1.1074672 -0.0001197635    0.4727512  0.047898133            0   0.42485306    1.6404358     2.113187   -4.0187041 
15595000   0.99751637 -4.1786479e-05   0.59985319  0.024354222            0   0.57549897    1.4775711    2.0774243 -0.062043398 
15600000     1.062347 -2.1799609e-05   0.51184426  0.022355748            0   0.48948851    1.5736016    2.0854458   0.96930585 
15605000    1.0323568 -5.283544e-06     0.561653 0.0033291147            0   0.55832388    1.5291786    2.0908315    1.8203141 
15610000     1.040875 6.1525303e-05   0.56612799 0.0056856685            0   0.56044232    1.5417961    2.1079241    5.2580196 
15615000    1.0584954 8.7040582e-05   0.57141223 0.0081277264            0   0.56328451    1.5678963    2.1393086    6.5957864 
15620000    1.0827168 0.00014633328   0.54973579  0.035236752            0   0.51449904    1.6037743    2.1535101    9.6457738 
15625000    1.0243333 -8.0805451e-06   0.64871663  0.052246325            0    0.5964703    1.5172937    2.1660104    1.7522865 
15630000     1.109309 -5.9319424e-05   0.53684969  0.055674227            0   0.48117547     1.643164    2.1800137  -0.85714084 
15635000    1.0220599 2.3361483e-05   0.67791209  0.026786098            0   0.65112599    1.5139262    2.1918383    3.3879462 
15640000    1.1629183 -4.1761404e-05   0.49038408   0.02343279            0   0.46695129    1.7225727    2.2129568  0.074772886 
15645000    1.1526887 -0.00011342905   0.52032286  0.041212538            0   0.47911032    1.7074201     2.227743   -3.5798244 
15650000     1.176257 -3.2899171e-05   0.51388549 0.0086181581            0   0.50526734    1.7423306    2.2562161   0.57177854 
15655000     1.192452 6.2861951e-06   0.51131463  0.017274212            0   0.49404042    1.7663195    2.2776341    2.5994873 
15660000    1.2277738 5.0318553e-06   0.44140861  0.026203536            0   0.41520508    1.8186399    2.2600485    2.5176795 
15665000    1.0822678 -4.587586e-05   0.63006728  0.015896914            0   0.61417037    1.6031092    2.2331765  -0.11566757 
15670000    1.1438227 -4.7539553e-05   0.53667066  0.013709325            0   0.52296133    1.6942873     2.230958  -0.20306711 
15675000    1.1226301 -4.1937807e-06   0.55595791  0.019889488            0   0.53606842    1.6628959    2.2188538    2.0041322 
15680000    1.0334284 -3.1912736e-05   0.68254052  0.042714635            0   0.63982589    1.5307658    2.2133063   0.57937423 
15685000    1.0862529 3.8791501e-06    0.5748969  0.055306335            0   0.51959057    1.6090122    2.1839091    2.3825216 
15690000    1.1165852 3.8043014e-05     0.495283  0.041635328            0   0.45364767    1.6539418    2.1492248    4.0970271 
15695000    1.0666041 -5.7301162e-05   0.56278409 0.0050158302            0   0.55776826    1.5799073    2.1426914  -0.79112805 
15700000    1.0877041 -1.7948795e-05   0.53151162  0.010358578            0   0.52115304    1.6111617    2.1426733    1.2236951 
15705000    1.0663464 3.8483577e-05   0.55483134  0.026316486            0   0.52851485    1.5795257     2.134357    4.1047161 
15710000    1.0670895 -7.220368e-05   0.54145803  0.039126661            0   0.50233137    1.5806263    2.1220844   -1.5747441 
15715000     1.074457 -4.3121471e-05   0.51367263  0.022594414            0   0.49107822    1.5915395    2.1052121  -0.10260721 
15720000    1.0882117 3.1480353e-05   0.48723596  0.023647127            0   0.46358883    1.6119136    2.0991495    3.7109436 
15725000    1.0492054 0.00011793734     0.566914  0.053712808            0   0.51320119    1.5541354    2.1210494    8.1594412 
15730000    1.0140475 -1.4438894e-05   0.62951438  0.020559837            0   0.60895455    1.5020579    2.1315723     1.392301 
15735000    1.0584986 -4.803705e-05    0.5253517  0.010160414            0   0.51519129    1.5679011    2.0932528  -0.36624415 
15740000    1.1101346 2.8863697e-05   0.46245642  0.013925685            0   0.44853073    1.6443869    2.1068433    3.5846646 
15745000    1.1065493 -5.241208e-05   0.47895596  0.017434152            0   0.46152181    1.6390762    2.1180321  -0.56546638 
15750000    1.0299456 -9.6771206e-05   0.60297125  0.048656254            0     0.554315    1.5256069    2.1285782   -2.8261076 
15755000    1.1099534 -6.6930739e-05   0.47336986   0.01564789            0   0.45772197    1.6441185    2.1174884   -1.3093655 
15760000    1.0957186 2.7831399e-05   0.48815007 0.0049852379            0   0.48316484    1.6230332    2.1111833    3.5361509 
15765000   0.98801298 -7.0304255e-06   0.63343135  0.037485989            0   0.59594536    1.4634942    2.0969256    1.7369678 
15770000    1.0954384 -5.8011311e-05   0.47590378  0.019137144            0   0.45676663    1.6226181    2.0985219  -0.87165724 
15775000    1.0302912 -2.9810536e-06   0.55903339  0.023445289            0    0.5355881    1.5261188    2.0851522    1.9325222 
15780000    1.0817388 2.7947586e-05   0.47092463  0.019863327            0   0.45106131    1.6023256    2.0732503    3.5041667 
15785000    1.1163757 3.1415194e-05   0.42931123 0.0089223543            0   0.42038887    1.6536316    2.0829428    3.6914007 
15790000    1.0092284 -0.00012710065   0.57606805 0.0090964449            0   0.56697161    1.4949195    2.0709876   -4.4365656 
15795000    1.0302906 2.0394429e-05   0.55834268  0.031359241            0   0.52698344    1.5261179    2.0844606    3.1286554 
15800000    1.0789436 0.00012869393   0.48034446  0.028601833            0   0.45174263    1.5981852    2.0785297    8.6676588 
15805000    1.1152566 -4.5791817e-05   0.42037334  0.034286527            0   0.38608681    1.6519738    2.0723471   -0.2721939 
15810000    1.0288433 -7.5699147e-05   0.57842985  0.037908354            0   0.54052149    1.5239741     2.102404   -1.7733924 
15815000    1.1303554 5.9571305e-05   0.43303925  0.043367253            0     0.389672    1.6743389    2.1073781    5.1574289 
15820000    1.0431113 0.00010798087    0.5451186 0.0028039377            0   0.54231466    1.5451087    2.0902273    7.6188481 
15825000    1.0964817 8.6754201e-05   0.45387434 0.0016388617            0   0.45223548    1.6241635    2.0780378    6.5198529 
15830000    1.0509435 1.8777419e-06   0.51191296  0.027884787            0   0.48402818    1.5567101     2.068623    2.1647634 
15835000    1.0384548 -3.2216791e-05   0.52814942  0.017206621            0    0.5109428    1.5382112    2.0663606   0.41686092 
15840000    1.0938501 -3.8903538e-05   0.41332698 0.0022692137            0   0.41105777    1.6202654    2.0335924   0.04173125 
15845000    1.0398984 -4.3978564e-06   0.47063753 0.00096650457            0   0.46967103    1.5403496    2.0109871    1.7858168 
15850000    1.0035201 7.7759419e-05    0.4855072 0.0060003283            0   0.47950687    1.4864642    1.9719714    5.9532537 
15855000   0.96828549 8.5533433e-05   0.52057898  0.058021947            0   0.46255704    1.4342729    1.9548519    6.3341636 
15860000    1.0253674 -7.2426845e-05   0.45927811  0.058593645            0   0.40068446    1.5188254    1.9781035   -1.7301509 
15865000   0.99497798 1.5683548e-05   0.49177955  0.078690188            0   0.41308937    1.4738111    1.9655907    2.7685884 
15870000   0.97707624 5.8227893e-05   0.52284717  0.024228681            0   0.49861849    1.4472942    1.9701413    4.9514095 
15875000    1.0861663 -4.0077978e-05     0.354785  0.005919543            0   0.34886546    1.6088838    1.9636688 -0.088323715 
15880000   0.96957208 -3.0912477e-05   0.48805713  0.014565621            0   0.47349151    1.4361786    1.9242358   0.34151697 
15885000    1.0289811 -1.7617228e-06   0.37645104  0.023778891            0   0.35267215    1.5241783    1.9006294    1.8104292 
15890000   0.92399475 0.00018721473   0.52972163  0.046777108            0   0.48294452    1.3686672    1.8983888    11.483783 
15895000   0.95703588 0.00012688509   0.45082047  0.011297618            0   0.43952285    1.4176094    1.8684299    8.3649465 
15900000    0.9867001 -3.6273758e-05     0.385883  0.024470663            0   0.36141234    1.4615495    1.8474325 -0.0097838632 
15905000   0.96542512 4.8293022e-05   0.43342431  0.043303368            0   0.39012094     1.430036    1.8634603     4.336063 
15910000   0.91319287 8.5344131e-06   0.51225153  0.019275562            0   0.49297596    1.3526669    1.8649185    2.3018804 
15915000   0.92221441 3.401629e-06   0.51753487 0.0025271364            0   0.51500773    1.3660301     1.883565    2.0577284 
15920000   0.99320316 7.0514761e-05   0.43336583 0.0083881227            0   0.42497771    1.4711822     1.904548    5.5149038 
15925000    1.0141092 4.3228187e-05   0.41858232  0.010201893            0   0.40838043    1.5021492    1.9207315    4.1340147 
15930000   0.91056467 -8.9234506e-05   0.58012711  0.025739932            0   0.55438718    1.3487739     1.928901   -2.6399057 
15935000   0.96889978 1.1846919e-05   0.50311706  0.043786042            0   0.45933101    1.4351828    1.9382999    2.5448621 
15940000    1.0022969 -9.3477552e-06    0.4205404 0.0083384802            0   0.41220192    1.4846523    1.9051927    1.4265877 
15945000   0.91761739 -2.0060092e-05   0.53460853  0.042394652            0   0.49221388    1.3592208    1.8938293   0.86675259 
15950000   0.93259321 5.3989729e-05   0.51871428  0.083252908            0   0.43546137    1.3814037     1.900118    4.6643921 
15955000   0.97028429 4.6889338e-06   0.48251605   0.04179831            0   0.44071774    1.4372336    1.9197496    2.1598231 
15960000   0.97778922 1.4051722e-05   0.47982082   0.01356124            0   0.46625958    1.4483503    1.9281711    2.6476193 
15965000   0.98042314 -8.9519466e-06   0.47076496  0.009088852            0   0.46167611    1.4522518    1.9230167    1.4646771 
15970000   0.93432152 -3.4760792e-05   0.54862498  0.054675937            0   0.49394904    1.3839637    1.9325887   0.15283616 
15975000   0.93584199 6.2957177e-05   0.57880856  0.043702627            0   0.53510594    1.3862159    1.9650245     5.188432 
15980000    1.0519963 -6.9446668e-05   0.42290246 0.0095634111            0   0.41333905    1.5582695     1.981172   -1.5744974 
15985000   0.99866115 8.7139391e-05   0.54066771  0.011188103            0    0.5294796    1.4792668    2.0199345    6.4814714 
15990000    1.0766279 6.2045434e-05   0.42758798  0.010244797            0   0.41734318    1.5947551     2.022343    5.1990693 
15995000    0.9713032 -9.1576984e-05   0.59610072  0.027587585            0   0.56851313    1.4387429    2.0348436    -2.653898 
16000000   0.96956897 6.4057455e-05   0.58836879  0.058161561            0   0.53020723     1.436174    2.0245428    5.3042845 
16005000    1.0882608 4.649566e-05   0.42821891  0.026686159            0   0.40153275    1.6119863    2.0402052     4.420783 
16010000    1.0191109 -4.6460512e-05   0.53040662  0.051268427            0   0.47913819     1.509558    2.0399646  -0.33881358 
16015000    1.0238726 5.0224539e-05    0.4953262  0.021952335            0   0.47337387    1.5166113    2.0119375    4.5834339 
16020000    1.0541681 0.00017935663   0.46585472 0.0085920504            0   0.45726267    1.5614865    2.0273412    11.210401 
16025000       1.0895 -5.4226643e-05   0.41563142  0.027166299            0   0.38846512    1.6138218    2.0294532  -0.74695088 
16030000    1.0166144 -9.4744221e-05   0.51125211 0.0090222689            0   0.50222984    1.5058601    2.0171122   -2.8337919 
16035000    1.0613678 8.6540879e-05   0.41894921 0.0060027903            0   0.41294642     1.572151    1.9911002    6.4219932 
16040000    1.0448258 -3.5950073e-05   0.46659595  0.016749745            0   0.44984621    1.5476482    2.0142441   0.17360041 
16045000   0.93613001 -0.00011661307   0.61962952  0.034320257            0   0.58530926    1.3866426    2.0062721   -3.9643169 
16050000    1.0170566 6.0643072e-06    0.4843918  0.013170555            0   0.47122125    1.5065152     1.990907    2.3013995 
16055000    1.0901936 3.1967621e-05   0.37776446  0.012931664            0    0.3648328    1.6148492    1.9926137    3.6293559 
16060000    1.0035463 7.2704798e-05   0.49805691  0.031953526            0   0.46610338    1.4865029    1.9845598    5.7070455 
16065000   0.97607917 7.4337844e-05   0.56773828  0.023926934            0   0.54381134    1.4458173    2.0135556    5.8196532 
16070000    1.0774557 3.7910042e-05   0.42133864 0.0075944968            0   0.41374414    1.5959813    2.0173199     3.958314 
16075000    1.0323687 8.3773388e-05   0.50226764 0.0037651626            0   0.49850248    1.5291962    2.0314638    6.3206613 
16080000    1.0176033 1.4611936e-05   0.53004888  0.035752456            0   0.49429642    1.5073249    2.0373738    2.7855049 
16085000    1.0756195 -4.3250612e-05   0.46557247  0.051688698            0   0.41388377    1.5932613    2.0588338  -0.15559755 
16090000    1.0806823 4.4125546e-05    0.4205721  0.044412115            0   0.37615998    1.6007607    2.0213328    4.2805607 
16095000   0.95618937 2.488721e-05   0.58287812  0.021688026            0    0.5611901    1.4163555    1.9992336    3.2734588 
16100000    1.0368384 -0.0001220325   0.46070966  0.023394451            0   0.43731521    1.5358169    1.9965266   -4.2515374 
16105000    1.0146186 -6.9360816e-05   0.50574197  0.040150509            0   0.46559146    1.5029038    2.0086458    -1.542628 
16110000    0.9878521 4.812876e-05   0.52450618   0.07256244            0   0.45194374    1.4632559    1.9877621    4.4519546 
16115000   0.97606065 0.00012578226    0.5391318  0.050890963            0   0.48824083    1.4457898    1.9849216    8.4249734 
16120000    0.9743989 8.7115738e-05    0.5624035  0.033475596            0    0.5289279    1.4433284    2.0057319    6.4660576 
16125000    1.0325881 -0.00012524141   0.46534464  0.011343471            0   0.45400117    1.5295211    1.9948657   -4.4174946 
16130000    1.0371606 -9.8968721e-05   0.45937396  0.041330656            0    0.4180433    1.5362941     1.995668   -3.0715305 
16135000    1.0179281 4.1125654e-05   0.47102737  0.024417043            0   0.44661033     1.507806    1.9788334    4.0844668 
16140000    1.0682648 9.9403569e-06    0.3730613 0.0064867924            0   0.36657451    1.5823672    1.9554285    2.4643748 
16145000   0.95448684 -4.9441104e-05   0.57177556 0.0083879358            0   0.56338763    1.4138336    1.9856092  -0.54577531 
16150000    1.0440174 3.8173792e-05   0.45204958  0.016525096            0   0.43552448    1.5464508    1.9985004    3.9529985 
16155000    1.0094017 7.472755e-06   0.51699021 0.0050157208            0   0.51197448    1.4951762    2.0121664    2.3947715 
16160000    1.0430241 -5.6513353e-05   0.45800179 0.0070362577            0   0.45096553    1.5449794    2.0029812  -0.89050247 
16165000    1.0388323 1.7282855e-05   0.47435501 0.0066514072            0    0.4677036    1.5387703    2.0131253    2.8980075 
16170000    1.0307367 4.9382648e-06   0.49731086  0.003271867            0   0.49403899    1.5267788    2.0240897    2.2769288 
16175000    1.0472812 -9.852838e-05   0.47346499 0.0040593599            0   0.46940563    1.5512853    2.0247503   -3.0199027 
16180000   0.98545754 -4.3087412e-05   0.54241301  0.012416009            0     0.529997     1.459709     2.002122  -0.20395353 
16185000    1.0325312 -2.4425769e-05   0.49873319  0.020488862            0   0.47824433    1.5294369    2.0281701   0.77757071 
16190000    1.0132889 -5.2830218e-05   0.50154056  0.028251584            0   0.47328898    1.5009342    2.0024747  -0.70243246 
16195000    1.0352285 3.9857932e-05   0.48140088  0.018567935            0   0.46283294    1.5334322     2.014833    4.0555592 
16200000    1.0977512 4.9963503e-05   0.40128733  0.017094486            0   0.38419284    1.6260439    2.0273313    4.5854626 
16205000    1.0223403 7.3530055e-05   0.50780346   0.01341844            0   0.49438502    1.5143416    2.0221451    5.7868839 
16210000    1.0278689 0.00015484897   0.50784202  0.019170127            0   0.48867189    1.5225308    2.0303728      9.95864 
16215000    1.1026551 3.6767335e-06   0.40542355  0.011838932            0   0.39358461    1.6333079    2.0387314    2.2269802 
16220000    1.0505499 -2.450416e-07   0.47462425 0.0052538987            0   0.46937036    1.5561271    2.0307514    2.0182052 
16225000    1.0183427 -1.1561662e-05   0.49979262 0.0036707884            0   0.49612183    1.5084201    2.0082127    1.4162556 
16230000   0.97160243 9.8611766e-05   0.54592537  0.033989494            0   0.51193588    1.4391861    1.9851115    7.0340339 
16235000    1.0336683 1.9173564e-05   0.45480576  0.057640766            0     0.397165    1.5311212     1.985927    2.9676134 
16240000    1.0285927 -9.6537035e-05   0.46735236  0.016049907            0   0.45130246    1.5236029    1.9909552    -2.951741 
16245000   0.97764326 -5.7882752e-05   0.54738312 0.0033134417            0   0.54406968    1.4481341    1.9955172  -0.96807972 
16250000    1.0251384 -6.7695973e-05   0.48901281 0.00033024477            0   0.48868256    1.5184862     2.007499   -1.4585348 
16255000    1.0473132 -1.3394356e-05   0.49315714 0.00080839107            0   0.49234875    1.5513328    2.0444899    1.3586989 
16260000     1.070843 2.7073192e-05   0.44120159 0.0009188524            0   0.44028273    1.5861862    2.0273878    3.4135352 
16265000    1.0384302 -2.0396287e-05    0.5115892 0.0034280587            0   0.50816114    1.5381748     2.049764    1.0054741 
16270000   0.96193265 -0.00016839905   0.60807501  0.032381373            0   0.57569363    1.4248627    2.0329377   -6.5890935 
16275000    1.0574048 -3.1075506e-05   0.48378428   0.02596795            0   0.45781633    1.5662809    2.0500651   0.45899925 
16280000    1.1059795 -6.089165e-05   0.42093701 0.0088129628            0   0.41212405    1.6382321    2.0591691   -1.0584833 
16285000    1.0608431 4.3560726e-05   0.47903945 0.0075846744            0   0.47145477    1.5713739    2.0504133    4.2807225 
16290000     1.127071 0.0001621506    0.3755017 0.0047967143            0   0.37070498    1.6694739    2.0449756    10.347086 
16295000     1.013023 8.7705569e-05   0.52632269 0.00072110125            0   0.52560159    1.5005404    2.0268631    6.5173882 
16300000    1.0482803 0.00014056377   0.50987579   0.01054589            0    0.4993299    1.5527652     2.062641    9.2595059 
16305000    1.0410703 1.6374831e-05   0.47900217  0.029855138            0   0.44914703    1.5420855    2.0210876     2.859479 
16310000    1.0348354 5.3022485e-05   0.48229713  0.016430849            0   0.46586628    1.5328499     2.015147    4.7298982 
16315000    1.0895181 6.7922717e-05   0.44346497 0.0034157788            0   0.44004919    1.6138487    2.0573136    5.5349567 
16320000     1.075007 -7.2837671e-05   0.47083178  0.020763478            0   0.45006831    1.5923542     2.063186   -1.6661028 
16325000    1.0041943 -0.00010826965   0.55718041  0.017986099            0   0.53919431    1.4874628    2.0446432   -3.4987629 
16330000    1.0657429 2.0905708e-05   0.45756531  0.013946357            0   0.44361895    1.5786317     2.036197    3.1065692 
16335000    1.0176531 3.723452e-05   0.53223074  0.012492528            0   0.51973821    1.5073987    2.0396294    3.9460368 
16340000    1.0741862 -6.5029803e-05   0.45115124  0.012848461            0   0.43830278    1.5911384    2.0422896   -1.2872363 
16345000    1.0291228 -0.00017762131   0.50450601 0.0079916864            0   0.49651433    1.5243882    2.0288942   -7.0653168 
16350000    1.0340417 -0.00014185954   0.49894891  0.024164753            0   0.47478416    1.5316742    2.0306231   -5.2325856 
16355000    1.0402422 -8.5322385e-05   0.51740093  0.044343397            0   0.47305753    1.5408588    2.0582597   -2.3102464 
16360000    1.0524241 -3.9458528e-05   0.48533926  0.065191514            0   0.42014774    1.5589032    2.0442424  0.023965798 
16365000    1.0075625 2.2394627e-05   0.53181518  0.024086174            0     0.507729    1.4924519    2.0242671     3.170872 
16370000    1.0618486 7.7991841e-06   0.45178608  0.012688909            0   0.43909717    1.5728633    2.0246494    2.4239676 
16375000     1.012825 -2.5171198e-05   0.53499695  0.022549178            0   0.51244777     1.500247    2.0352439   0.74647859 
16380000    1.0634707 -9.7984441e-05   0.43448551  0.058078008            0    0.3764075     1.575266    2.0097516   -3.0070518 
16385000    1.0111214 -4.3033435e-05   0.48369854  0.018360905            0   0.46533763    1.4977236    1.9814221  -0.22188972 
16390000    1.0718544 0.00010973208   0.38745838 0.0055138652            0   0.38194451    1.5876843    1.9751427    7.5934251 
16395000    1.0217035 0.00011346933   0.49194198  0.031206108            0   0.46073587    1.5133983    2.0053403    7.8149698 
16400000    1.0177055 4.1477703e-06   0.49764651   0.02009156            0   0.47755495    1.5074763    2.0051228    2.2174886 
16405000    1.0283923 -9.4616754e-05    0.4785427  0.023368369            0   0.45517433    1.5233061    2.0018488    -2.842529 
16410000    1.0668908 -7.5282599e-05   0.43803147  0.013375626            0   0.42465585     1.580332    2.0183635   -1.8361056 
16415000    1.0490439 4.447973e-05   0.44981087 0.0094712255            0   0.44033964    1.5538963    2.0037072    4.2810694 
16420000    1.0692705 0.00016148141   0.44511476  0.032036771            0   0.41307799     1.583857    2.0289717     10.29682 
16425000    1.0568517 4.9483578e-05    0.4486571  0.041287186            0   0.40736992    1.5654615    2.0141186    4.5476778 
16430000    1.0705041 -8.5060463e-05   0.43008482  0.032180274            0   0.39790455    1.5856842     2.015769   -2.3393267 
16435000    1.0390574 2.0799842e-05   0.42388481  0.057350513            0    0.3665343    1.5391037    1.9629886    3.0279405 
16440000    0.9696086 1.8527667e-05   0.48555184  0.063892531            0   0.42165931    1.4362327    1.9217846    2.8704011 
16445000   0.99232014 -5.6021999e-06   0.44218627  0.033912634            0   0.40827364    1.4698742    1.9120605    1.6252278 
16450000   0.98829068 6.454002e-05   0.43565694   0.01989592            0   0.41576102    1.4639056    1.8995625    5.2040115 
16455000   0.95928069 -1.5013977e-05   0.45456541  0.030567311            0    0.4239981    1.4209345    1.8754999    1.1067843 
16460000    0.9717396 -7.4646854e-05   0.38917308  0.022141634            0   0.36703144    1.4393893    1.8285624   -1.9933566 
16465000   0.92238363 -2.6144308e-05    0.4732256  0.044627641            0   0.42859796    1.3662808    1.8395064   0.50091779 
16470000   0.94955835 -2.3796475e-05   0.48330874  0.052064245            0   0.43124449    1.4065333     1.889842   0.67146253 
16475000   0.99177927 -6.5742796e-05   0.42408414  0.057968012            0   0.36611613     1.469073    1.8931572    -1.472874 
16480000   0.96839188 -7.2830293e-06    0.4449635  0.028262457            0   0.41670105    1.4344305     1.879394    1.5065029 
16485000   0.97781555 0.00012659472    0.4289377  0.024281044            0   0.40465666    1.4483893     1.877327    8.3589766 
16490000   0.90694672 0.00013290399   0.56129193   0.13518928            0   0.42610265    1.3434148    1.9047068     8.709391 
16495000   0.95260561 2.3176456e-05   0.50866448   0.11397702            0   0.39468746    1.4110471    1.9197115    3.1063461 
16500000   0.95935574 -6.8706237e-05   0.46643296  0.054239194            0   0.41219377    1.4210457    1.8874787   -1.6302807 
16505000    1.0664136 3.4631118e-05   0.30607171 0.0049982082            0    0.3010735    1.5796251    1.8856968    3.6588101 
16510000     1.033147 4.1075874e-06   0.35378634  0.016035472            0   0.33775086    1.5303491    1.8841354    2.0944439 
16515000   0.91594988 -8.6092386e-06   0.52316356  0.043367548            0   0.47979601    1.3567508    1.8799143    1.4391213 
16520000   0.94818624 0.00015743435   0.47166672  0.034652586            0   0.43701413    1.4045009    1.8761676    9.9368062 
16525000   0.98078113 -3.7652242e-05   0.42595106  0.035196313            0   0.39075475    1.4527821    1.8787331 -0.049061688 
16530000    1.0117373 -9.8941477e-05   0.36265404 0.0082427644            0   0.35441128    1.4986359      1.86129   -3.2045136 
16535000    1.0256931 5.0765947e-05    0.3589198  0.011105306            0   0.34781449    1.5193079    1.8782277    4.4774442 
16540000   0.94729536 -2.8280972e-05   0.46338434  0.017275562            0   0.44610878    1.4031813    1.8665656    0.4185798 
16545000   0.98513612 -1.0773991e-05   0.38112017  0.016159094            0   0.36496108    1.4592329    1.8403531    1.2887247 
16550000   0.99445505 -3.7831006e-07   0.39569659 0.0045661729            0   0.39113042    1.4730365    1.8687331    1.8493637 
16555000    1.0730036 -2.2978874e-05   0.26347799 0.00038650319            0   0.26309149    1.5893866    1.8528646   0.67634621 
16560000   0.99969722  3.56342e-05    0.3615751 0.0066192846            0   0.35495581    1.4808015    1.8423766    3.6668476 
16565000     1.026578 -2.0681374e-05   0.33246617 0.0077523034            0   0.32471387    1.5206187    1.8530849   0.79419854 
16570000   0.96877381 -0.00011672619   0.43991652 0.0014197427            0   0.43849678    1.4349962    1.8749127   -4.1014681 
16575000   0.97432877 -1.3049438e-05   0.42720378  0.018157761            0   0.40904602    1.4432245    1.8704283    1.2022971 
16580000   0.98671354 -8.3108639e-06   0.37823408  0.010551525            0   0.36768255    1.4615694    1.8398035    1.4142873 
16585000   0.97008874 -0.00010022741   0.41839316  0.014968556            0    0.4034246    1.4369439    1.8553371   -3.2763065 
16590000   0.91867057 8.7589911e-05   0.49801138  0.027850608            0   0.47016077    1.3607808    1.8587922    6.3433956 
16595000   0.95384898 9.9106768e-05   0.46141853  0.027931817            0   0.43348671    1.4128888    1.8743073    6.9485739 
16600000   0.92944963 1.8696221e-05   0.49891219  0.043991515            0   0.45492067    1.3767473    1.8756594    2.8329059 
16605000   0.93914557 -2.4555878e-05    0.5081526  0.012282679            0   0.49586992    1.3911094     1.899262   0.64200102 
16610000    1.0218166 -7.2874517e-05   0.36666592 0.0090257258            0    0.3576402    1.5135659    1.8802318   -1.8509434 
16615000   0.97092251 -1.9441752e-05   0.45093048  0.026546534            0   0.42438394     1.438179    1.8891095   0.89369175 
16620000   0.97334125 1.2328065e-05   0.43957659 0.0092073266            0   0.43036926    1.4417617    1.8813383    2.5125352 
16625000   0.98254214 -2.1222787e-05   0.43312372 0.0026289851            0   0.43049474    1.4553905    1.8885143   0.80190755 
16630000    1.0478005  8.54332e-05   0.35189859  0.019663712            0   0.33223488    1.5520545    1.9039531     6.278133 
16635000   0.94431121 0.00010854858   0.49408376  0.064572042            0   0.42951171     1.398761    1.8928447    7.4505323 
16640000   0.96000094 5.4333381e-05   0.48340587  0.023305525            0   0.46010035    1.4220014    1.9054073    4.6872763 
16645000    1.0206111 9.1631442e-05   0.39840344  0.019811401            0   0.37859204    1.5117801    1.9101836    6.6017134 
16650000   0.96705134 6.0518984e-05   0.47226718   0.01207183            0   0.46019535    1.4324448     1.904712     5.003284 
16655000   0.94235588 5.0072158e-06   0.52591477  0.034446359            0   0.49146842    1.3958646    1.9217794    2.1781489 
16660000   0.97110489 3.2411639e-05   0.49654444  0.021411664            0   0.47513278    1.4384491    1.9349936    3.5944695 
16665000    1.0127202 -1.5621986e-05   0.43104469  0.050303735            0   0.38074095    1.5000918    1.9311365    1.1312909 
16670000   0.99029514 -9.3199051e-05   0.43277438  0.032260989            0   0.40051339    1.4668747    1.8996491   -2.8721424 
16675000    1.0378204 8.3535968e-05   0.34800735  0.019194618            0   0.32881273    1.5372715    1.8852788    6.1623204 
16680000     0.944903 9.4492647e-05   0.48633152  0.034423952            0   0.45190756    1.3996376    1.8859691    6.7239926 
16685000   0.92749915 -2.2753055e-05   0.51054549  0.072461316            0   0.43808418    1.3738581    1.8844036   0.71944721 
16690000   0.93609181 -7.987604e-06   0.50865704 0.0062617018            0   0.50239534     1.386586     1.895243    1.4862777 
16695000    1.0277793 -4.0496352e-08   0.35652016  0.010453933            0   0.34606623     1.522398    1.8789182    1.8768448 
16700000   0.95877429 9.3782632e-05     0.477082 0.0093175796            0   0.46776442    1.4201844    1.8972664    6.6989372 
16705000   0.89198959 7.3694381e-05    0.5436109 0.0023334712            0   0.54127743    1.3212596    1.8648705    5.6380228 
16710000   0.97969732 1.2059243e-05   0.38695991  0.017204664            0   0.36975524    1.4511767    1.8381366    2.4555698 
16715000   0.96237809 2.9695597e-05   0.45038114  0.025430185            0   0.42495096    1.4255225    1.8759037    3.3963182 
16720000   0.97058806 -8.7143878e-05   0.43710851  0.016463953            0   0.42064456    1.4376836    1.8747921   -2.5869745 
16725000   0.96576436 -0.00010822624   0.47438181  0.010080026            0   0.46430178    1.4305385    1.9049203   -3.6362633 
16730000   0.96257649 -8.3987283e-05   0.46135028  0.052448505            0   0.40890178    1.4258164    1.8871667   -2.4129822 
16735000   0.99262213 -1.3379939e-05   0.43477791  0.028977993            0   0.40579992    1.4703215    1.9050994    1.2200466 
16740000    1.0605937 4.4995244e-05   0.36752641  0.017566685            0   0.34995972    1.5710044    1.9385308    4.2422873 
16745000    0.9925098 -3.5299599e-05   0.48083273  0.019278295            0   0.46155444    1.4701551    1.9509879   0.14364843 
16750000   0.95105276 0.00016160304   0.52943999  0.017102815            0   0.51233718    1.4087469    1.9381869    10.212262 
16755000    1.0094351 5.1931336e-05   0.43529231 0.0097995151            0    0.4254928    1.4952257     1.930518    4.5894024 
16760000    1.0440511 -7.2128486e-05   0.41888082  0.017038137            0   0.40184269    1.5465006    1.9653815    -1.727597 
16765000    0.9646493 -4.2830181e-05   0.53828507  0.038413916            0   0.49987115    1.4288868    1.9671718  -0.22573342 
16770000   0.94781875 -4.7092977e-05   0.56821627  0.028313637            0   0.53990263    1.4039565    1.9721728  -0.43898761 
16775000   0.95891282 -1.7382415e-05   0.54958164  0.039707017            0   0.50987462    1.4203896    1.9699713    1.0799916 
16780000    1.0269204 -5.9488397e-05   0.49859053  0.019551097            0   0.47903943    1.5211258    2.0197164   -1.0260896 
16785000    1.0591878 -8.0330069e-07   0.41291607  0.034752704            0   0.37816337    1.5689219     1.981838     1.940709 
16790000    1.0198112 -5.0138704e-05   0.48093998   0.03907638            0    0.4418636    1.5105953    1.9915353  -0.57556635 
16795000    1.0388683 -5.6902411e-05   0.45563324  0.013913093            0   0.44172015    1.5388236    1.9944568  -0.91894659 
16800000   0.99794398 2.2138932e-06   0.54233767  0.020803591            0   0.52153408    1.4782045    2.0205422    2.1338935 
16805000    1.0378333 1.6560142e-05   0.48206132  0.066269089            0   0.41579223    1.5372906    2.0193519    2.8672312 
16810000   0.97530774 1.2272626e-06   0.55835108  0.011179318            0   0.54717176    1.4446746    2.0030257    2.0658615 
16815000   0.98233363 -5.056354e-05   0.59294906  0.056454002            0   0.53649506    1.4550817    2.0480307   -0.5408225 
16820000   0.97437865 -5.0954645e-05   0.57341345  0.013844536            0   0.55956891    1.4432984    2.0167118  -0.59216599 
16825000    1.0455401 -4.0136383e-05   0.46597312  0.011466601            0   0.45450652    1.5487062    2.0146793 -0.040303464 
16830000   0.97942062 -0.00017671864   0.58395056  0.030261643            0   0.55368891    1.4507668    2.0347174   -7.0132769 
16835000   0.92073736 -0.00017548469   0.66285082  0.030130763            0   0.63272006    1.3638422     2.026693   -6.9581233 
16840000    1.0485743 9.267508e-06   0.43557767 3.2611635e-05            0   0.43554506    1.5532007    1.9887784    2.4632748 
16845000    1.0122711 3.6909693e-05   0.48925245 0.00043725467            0    0.4888152    1.4994265     1.988679    3.8784553 
16850000   0.99490387 9.5656209e-05   0.50555908 0.0060981989            0   0.49946088    1.4737014    1.9792604    6.8768583 
16855000   0.99089133 8.4745942e-05   0.48639302  0.029530664            0   0.45686235    1.4677578    1.9541508     6.293143 
16860000    1.0384334 5.8677775e-05   0.41458753 0.0094905829            0   0.40509694    1.5381794     1.952767     4.957069 
16865000   0.99404441 4.786519e-05   0.44910687  0.013105357            0   0.43600152    1.4724283    1.9215352    4.3722329 
16870000   0.97430614 -1.5613345e-06   0.50841165   0.07519262            0   0.43321903     1.443191    1.9516026    1.8716623 
16875000   0.96445698 -4.2018189e-05    0.5395752  0.021049697            0    0.5185255    1.4286019    1.9681771  -0.18315421 
16880000   0.98162466 -1.7753449e-05   0.52458287 0.0030768367            0   0.52150603    1.4540315    1.9786144    1.0696378 
16885000     1.110267 -2.7570499e-05   0.32311357 0.0019806115            0   0.32113296    1.6445829    1.9676965   0.55608694 
16890000     1.018062 2.9799164e-05   0.45327518 0.0023419959            0   0.45093318    1.5080043    1.9612795    3.4869966 
16895000    1.0128009 -4.9146613e-05   0.45569457 0.0015776036            0   0.45411697    1.5002113    1.9559059   -0.5604007 
16900000   0.96815232 -0.00010409155   0.51938291   0.01124655            0   0.50813636    1.4340756    1.9534585   -3.3760289 
16905000     1.026296 1.1591542e-05   0.45165244  0.012747698            0   0.43890475     1.520201    1.9718535    2.5653404 
16910000    1.0598753 -2.9956012e-05     0.438314 0.0020169632            0   0.43629704    1.5699403    2.0082543   0.47450646 
16915000    1.0804284 6.1056973e-05   0.40384736  0.015984703            0   0.38786266    1.6003846    2.0042319    5.1303489 
16920000    1.0668717 2.3511204e-05   0.44268809   0.03504139            0    0.4076467    1.5803037    2.0229918    3.2267654 
16925000    1.0391615 5.0698241e-05   0.46312991  0.018848475            0   0.44428143    1.5392579    2.0023879    4.5981378 
16930000    1.0512913 4.8767398e-06   0.42639098 0.0048849741            0   0.42150601    1.5572252    1.9836162    2.2333053 
16935000    1.0488883 -6.7042228e-05   0.46447054 0.0043200157            0   0.46015053    1.5536658    2.0181363   -1.4144257 
16940000   0.99304989 -6.4451931e-05   0.52958927  0.012739473            0    0.5168498    1.4709551    2.0005444   -1.2993944 
16945000    1.0333447 -4.4832088e-05   0.46144295 0.0070893017            0   0.45435365    1.5306418    1.9920847  -0.30331816 
16950000    1.0401589 1.5693799e-05   0.43957266  0.024975291            0   0.41459737    1.5407354    1.9803081    2.7838306 
16955000     1.006575 0.00010694548   0.50025171  0.021532138            0   0.47871957    1.4909893     1.991241    7.4668498 
16960000     1.102308 0.00010171647   0.39875843  0.018172803            0   0.38058563    1.6327938    2.0315522    7.2394353 
16965000    1.0787944 -2.3321497e-05   0.44867468  0.021363347            0   0.42731133    1.5979642    2.0466389   0.85257824 
16970000    1.0319668 -3.2152978e-05   0.50087314  0.025645492            0   0.47522765    1.5286008    2.0294739   0.38324141 
16975000    1.0299442 -6.6400123e-05   0.49891831 0.00085268772            0   0.49806562    1.5256048    2.0245231   -1.3751632 
16980000   0.98513838 -7.4938745e-05   0.53018023 0.0034512326            0     0.526729    1.4592362    1.9894165   -1.8474473 
16985000    1.0943995 5.459224e-06   0.38433585 0.0040962894            0   0.38023956    1.6210793    2.0054151    2.2849274 
16990000   0.97622451 2.1228009e-05   0.56302857  0.020161173            0    0.5428674    1.4460326    2.0090611    3.0959352 
16995000   0.95130938 1.5740419e-05    0.6042678 0.0088472864            0   0.59542051     1.409127    2.0133948    2.8193043 
17000000    1.0815288 6.2136609e-05   0.42197918 0.0071802173            0   0.41479896    1.6020145    2.0239937    5.2053881 
17005000    1.0499936 4.7063721e-06   0.43753709 0.0081995071            0   0.42933759    1.5553031    1.9928402    2.2338064 
17010000    1.0372302 1.1781889e-05   0.48655216 0.0084018935            0   0.47815027    1.5363972    2.0229494    2.6261821 
17015000    1.0626922 5.8284607e-05   0.47630057  0.029746512            0   0.44655406    1.5741128    2.0504134    5.0345852 
17020000     1.063842 -7.603432e-05   0.47475045   0.01324381            0   0.46150664    1.5758159    2.0505664   -1.8423908 
17025000   0.99919099 -2.9776865e-05   0.54480666 0.0030117029            0   0.54179496    1.4800517    2.0248583   0.50028283 
17030000    1.0067156 2.8354035e-05   0.53327981  0.020091419            0   0.51318839    1.4911974    2.0244772    3.4762038 
17035000    1.0402844 0.00010124746   0.45643791  0.032712183            0   0.42372573    1.5409212    1.9973592    7.1812292 
17040000   0.98931452 -9.8466017e-06   0.53601468  0.021135237            0   0.51487945    1.4654221    2.0014368    1.4972908 
17045000    1.0158676 4.2086259e-05   0.51982335  0.014455888            0   0.50536746    1.5047538    2.0245772    4.1793937 
17050000    1.0600673 -2.0237614e-05   0.45577422  0.013919195            0   0.44185502    1.5702247    2.0259989   0.98983311 
17055000    1.0495349 6.5956412e-06   0.44790165 0.0027576803            0   0.44514397    1.5546236    2.0025253    2.3402221 
17060000    1.0076313 -4.2339746e-05   0.51177097  0.021075554            0   0.49069542    1.4925539    2.0043249  -0.16347013 
17065000    1.0103369 -1.1695266e-05   0.47636901  0.059175488            0   0.41719352    1.4965615    1.9729306     1.374133 
17070000    1.0032262 4.5417559e-06   0.48706979  0.043518201            0   0.44355159    1.4860288    1.9730986    2.2056365 
17075000     1.017682 -3.4489273e-05   0.45875933  0.020138503            0   0.43862082    1.5074415    1.9662009   0.20035005 
17080000   0.95077714 8.0020412e-05   0.55074426  0.046775687            0   0.50396857    1.4083386    1.9590829     6.056128 
17085000    0.9955223 -3.4642376e-06   0.50960176  0.036808017            0   0.47279374    1.4746174    1.9842192    1.8068502 
17090000   0.99710162 -1.9078781e-05    0.5015193 0.0032697807            0   0.49824952    1.4769568    1.9784761    1.0016425 
17095000    1.0060613 7.8299119e-05   0.47912621  0.014080336            0   0.46504588    1.4902283    1.9693545    5.9782694 
17100000    0.9745619 -8.3724297e-06   0.48940697  0.020886365            0    0.4685206    1.4435698    1.9329768    1.5043084 
17105000   0.97219915 7.1964389e-05   0.45824084 0.0083368786            0   0.44990396      1.44007    1.8983108    5.5828875 
17110000   0.98508256 6.0581127e-05   0.41730624 0.0023740371            0    0.4149322    1.4591535    1.8764598    4.9782135 
17115000   0.98238697 -1.7238404e-05    0.4008751 0.0067543805            0   0.39412072    1.4551607    1.8560358    0.9734295 
17120000    0.9305805 -3.6392947e-05   0.48081892  0.017936933            0   0.46288199    1.3784224    1.8592413 -0.0040776085 
17125000   0.93768986 -9.4571193e-05   0.45424196  0.014835805            0   0.43940615    1.3889531    1.8431951     -2.99885 
17130000   0.88678042 9.3528448e-06   0.51345783 0.0089611496            0   0.50449668    1.3135435    1.8270013     2.305867 
17135000   0.91911603 -4.2763148e-05   0.46125338 0.0093244767            0   0.45192891    1.3614406     1.822694  -0.36677918 
17140000   0.93076704 0.00011062973   0.43289634 0.0088926482            0   0.42400369    1.3786987     1.811595    7.4758371 
17145000   0.98804558 -1.1110928e-05   0.37389714 0.0096840169            0   0.36421312    1.4635425    1.8374397    1.2685602 
17150000   0.88929609 -1.8656308e-05   0.49816702  0.010094752            0   0.48807227    1.3172698    1.8154369    0.8602339 
17155000   0.88801536 1.0981151e-05   0.47645061  0.014122282            0   0.46232833    1.3153727    1.7918234    2.3540583 
17160000   0.94533809 6.4997243e-05   0.39573942 0.0078067152            0    0.3879327    1.4002821    1.7960215    5.1238803 
17165000   0.92518617 -5.9834459e-05   0.40311855  0.012924223            0   0.39019433     1.370432    1.7735506   -1.2899737 
17170000   0.89923925 -8.3178768e-06   0.46132482  0.018406148            0   0.44291868    1.3319981     1.793323    1.3674477 
17175000   0.93956544 0.00011918602   0.40115745   0.02215224            0   0.37900521    1.3917313    1.7928888    7.8952131 
17180000    0.9108733 4.0276712e-05   0.45389703   0.01506315            0   0.43883388    1.3492311    1.8031281    3.8652958 
17185000    0.8190927 4.6013117e-05    0.5604223   0.01025043            0   0.55017187    1.2132811    1.7737034     4.129575 
17190000   0.85447585 8.8539123e-05   0.53293153  0.041210723            0   0.49172081    1.2656923    1.7986239     6.331827 
17195000   0.93433116 -4.5689013e-05   0.41823416  0.029862599            0   0.38837156     1.383978    1.8022122  -0.53706525 
17200000   0.90089532 -0.00010577667   0.47362737 0.0028563494            0   0.47077102    1.3344512    1.8080786   -3.6076869 
17205000   0.91571672 -3.8649267e-05   0.43862906 0.0039432138            0   0.43468585    1.3564054    1.7950345  -0.18380802 
17210000   0.90700713 2.3371635e-05   0.44831756 0.0016629802            0   0.44665458    1.3435043    1.7918219    2.9884496 
17215000   0.92428024 -7.8330214e-05   0.42266825  0.010058277            0   0.41260997    1.3690901    1.7917584   -2.2187486 
17220000   0.88959181 -0.00012184795   0.50337614  0.031863311            0   0.47151283    1.3177079     1.821084   -4.4175311 
17225000   0.92046987  2.56385e-05   0.47326538  0.022118385            0   0.45114699     1.363446    1.8367114    3.1494025 
17230000   0.95993896 0.00010907768   0.38533915  0.021708577            0   0.36363057    1.4219096    1.8072487    7.3920259 
17235000   0.92962162 8.0202643e-05   0.44897049  0.019186488            0     0.429784     1.377002    1.8259725    5.9323479 
17240000   0.97077327 -3.7137486e-05   0.41827436  0.014456143            0   0.40381822    1.4379579    1.8562323 -0.045207021 
17245000   0.96456203 -0.00011984693   0.41137594 0.0028864737            0   0.40848947    1.4287575    1.8401334   -4.2960293 
17250000   0.93602992 -5.950112e-05   0.45423117 0.00076067511            0   0.45347049    1.3864943    1.8407255   -1.2057318 
17255000   0.88434973 -1.8405705e-05   0.51162831  0.022509212            0    0.4891191     1.309943    1.8215714   0.87919925 
17260000   0.90187707 -7.2848598e-05   0.47994989  0.033383272            0   0.44656662    1.3359054    1.8158553   -1.9139929 
17265000   0.97960026 -0.00010828793   0.35322491 0.0071124744            0   0.34611244    1.4510329    1.8042578   -3.7400843 
17270000   0.91922049 -1.1405662e-05   0.41090391  0.010746909            0     0.400157    1.3615954    1.7724993    1.1885294 
17275000   0.94776882 -2.8430867e-05   0.35637672 0.0059559433            0   0.35042077    1.4038826    1.7602593   0.30459888 
17280000   0.89391086 3.7677323e-05   0.41500649 1.1505667e-05            0   0.41499498    1.3241055    1.7391119    3.6681909 
17285000   0.92818088 0.00013280327   0.37957748 0.0033693703            0   0.37620811    1.3748679    1.7544454    8.5539726 
17290000   0.84153133 9.6722088e-05    0.4639419  0.014603527            0   0.44933837    1.2465183    1.7104602    6.6626311 
17295000    0.8790304 1.0936857e-05   0.45038308   0.01702748            0    0.4333556    1.3020638    1.7524469    2.3124139 
17300000   0.90815761 -2.859735e-05   0.39456222  0.009883056            0   0.38467916    1.3452085    1.7397707   0.27558636 
17305000   0.92300876 -4.9983483e-05   0.34835603 0.0018478927            0   0.34650814    1.3672067    1.7155627  -0.84359157 
17310000   0.92335677 -5.9014836e-05   0.35396873 0.0018224921            0   0.35214624    1.3677222    1.7216909   -1.2998686 
17315000   0.89074586 6.8715975e-05     0.409957  0.025735451            0   0.38422155    1.3194173    1.7293743    5.2476322 
17320000   0.88382061 8.0998027e-05    0.4225317  0.025785615            0   0.39674609    1.3091593     1.731691      5.87879 
17325000     0.921957 -7.5097287e-05   0.37774758  0.018975206            0   0.35877238    1.3656488    1.7433964   -2.1015847 
17330000    0.9290801 -6.7828517e-05   0.38200928  0.028793487            0   0.35321579    1.3761999    1.7582092   -1.7146109 
17335000   0.92325291 -7.1480673e-05   0.39109228  0.059945041            0   0.33114724    1.3675684    1.7586607   -1.9011498 
17340000    0.8572755 -6.4691436e-06   0.48857115  0.070791663            0   0.41777948    1.2698393    1.7584105    1.4271903 
17345000   0.91892587 -2.8588402e-05   0.40428103  0.043918365            0   0.36036266    1.3611589      1.76544   0.30171377 
17350000   0.89763567 4.6825986e-05   0.42006501  0.017091793            0   0.40297322    1.3296228    1.7496879    4.1471783 
17355000   0.93792905 9.9348969e-05   0.36437874  0.011116744            0   0.35326199    1.3893074    1.7536861    6.8403534 
17360000   0.93681225 -0.00011914766   0.35695675  0.012883447            0    0.3440733    1.3876531    1.7446099   -4.3557501 
17365000   0.92849411 -0.0001529947   0.36145103  0.015252896            0   0.34619814    1.3753319    1.7367829   -6.0965456 
17370000   0.89255375 6.0967143e-05   0.41781943  0.022855587            0   0.39496384    1.3220952    1.7399147    4.8614324 
17375000   0.92383191 -9.0308692e-05   0.36322411  0.015209005            0    0.3480151     1.368426    1.7316501   -2.8921549 
17380000   0.89493409 -0.00013962779   0.40649835 0.0053401967            0   0.40115815    1.3256211    1.7321195   -5.4168236 
17385000    0.8761764 -4.0677193e-05     0.416901 0.0084027992            0    0.4084982    1.2978363    1.7147373  -0.36793501 
17390000   0.86935364 -0.00013957545   0.42166633 0.0098671633            0   0.41179916    1.2877301    1.7093964   -5.4368669 
17395000   0.85827362 -1.59537e-05   0.44094389  0.027390044            0   0.41355385    1.2713178    1.7122617   0.89543224 
17400000    0.9056719 -7.5121363e-06   0.35709304  0.018932771            0   0.33816027    1.3415265    1.6986195    1.3139982 
17405000    0.8738023 -5.6041918e-05    0.4006734 0.0040685504            0   0.39660485    1.2943197    1.6949931   -1.1743531 
17410000   0.86064614 -1.95591e-05    0.3648911 0.0022368341            0   0.36265426    1.2748321    1.6397232   0.63829728 
17415000   0.83501654 8.3828679e-06   0.40558771  0.014438271            0   0.39114944    1.2368683     1.642456    2.0716588 
17420000   0.83290705 -1.2477348e-05   0.42535547 0.0099401711            0    0.4154153    1.2337436     1.659099    1.0202588 
17425000    0.8472979 -8.7370065e-05   0.41877747 0.00076564119            0   0.41801183      1.25506    1.6738375   -2.7995099 
17430000   0.86414742 -7.5989793e-05   0.39244073   0.01928697            0   0.37315376    1.2800184    1.6724591   -2.2182183 
17435000   0.79660984 -7.3705045e-05   0.45220114  0.013524662            0   0.43867648    1.1799783    1.6321795   -2.1415188 
17440000   0.80297972 -0.0001328381    0.4650341 0.0072969378            0   0.45773716    1.1894137    1.6544478   -5.1468627 
17445000   0.84663405 -6.8158829e-05   0.39290139  0.015851312            0   0.37705008    1.2540767    1.6469781   -1.8427539 
17450000   0.89488436 1.1131018e-05   0.34222908  0.010307395            0   0.33192169    1.3255475    1.6677765    2.2376847 
17455000   0.87820472 -2.3905119e-05   0.36480374    0.0113759            0   0.35342784    1.3008407    1.6656445   0.44170238 
17460000   0.89843431 -1.8411787e-05   0.36015879  0.010738766            0   0.34942002    1.3308058    1.6909646   0.74828114 
17465000   0.88353151 2.4181232e-06   0.39374025  0.015520526            0   0.37821972    1.3087311    1.7024713    1.8262792 
17470000   0.86728837 -7.48401e-05   0.44128006   0.05404585            0   0.38723421    1.2846709     1.725951   -2.1058622 
17475000   0.89064009 -5.7062364e-05   0.39808154  0.016129751            0   0.38195179    1.3192606    1.7173422   -1.2042509 
17480000   0.86093035 -3.3687953e-05   0.44036511   0.01383594            0   0.42652917    1.2752531    1.7156182 -0.0092049925 
17485000   0.88499766 -1.8138754e-06   0.43382814 0.0093848624            0   0.42444328    1.3109028    1.7447309    1.6518605 
17490000   0.90823862 -9.2047909e-06   0.37872594  0.034350436            0    0.3443755    1.3453285    1.7240544    1.2527691 
17495000   0.85344865 3.9537087e-05   0.47009901  0.079057823            0   0.39104119    1.2641708    1.7342698    3.7585687 
17500000    0.9365493 6.6516539e-05   0.35823134  0.022035831            0   0.33619551    1.3872637     1.745495    5.1511418 
17505000   0.95919443 -4.5584652e-05   0.32686499  0.015623487            0   0.31124151    1.4208067    1.7476717  -0.58626246 
17510000   0.93803702 -2.3716868e-05   0.36776351   0.00609119            0   0.36167232    1.3894673    1.7572308    0.5429272 
17515000   0.93150282 -2.0306979e-06   0.36274183 0.0020266283            0    0.3607152    1.3797886    1.7425304    1.6385587 
17520000   0.89758992 1.5065071e-05   0.42186458 0.0061517358            0   0.41571284    1.3295551    1.7514197    2.5227513 
17525000   0.95812415 9.411142e-07   0.33605801  0.012201681            0   0.32385633    1.4192214    1.7552794    1.8034645 
17530000   0.90979233 -8.9823091e-06    0.4123326  0.020149448            0   0.39218315    1.3476299    1.7599625    1.3000683 
17535000   0.93843266 5.1403353e-05   0.38581358  0.022662425            0   0.36315115    1.3900534     1.775867    4.4077186 
17540000    0.8875699 -8.8459046e-06   0.46451911  0.024625734            0   0.43989338    1.3147129     1.779232    1.3263217 
17545000   0.90096782 3.4425281e-05   0.44719205  0.020049105            0   0.42714294    1.3345586    1.7817506     3.544325 
17550000   0.95826406 6.9765281e-05   0.35403445 0.0073294524            0     0.346705    1.4194286    1.7734631    5.3454455 
17555000   0.91475317 -5.3088772e-05   0.42196686 0.0017390808            0   0.42022778    1.3549781     1.776945  -0.94120015 
17560000   0.92701516 -3.7912488e-05    0.4022497 0.0073537558            0   0.39489594    1.3731412    1.7753909   -0.1657285 
17565000   0.93018562 5.9735152e-05   0.42248825  0.019019048            0   0.40346921    1.3778375    1.8003257    4.8587655 
17570000   0.92368135 3.4792674e-06   0.43529053  0.017734623            0   0.41755591     1.368203    1.8034935     1.981632 
17575000   0.94483519 2.6073126e-05   0.42531931  0.017538974            0   0.40778033    1.3995371    1.8248564    3.1598005 
17580000   0.89257514  3.57745e-05   0.48836669  0.024271569            0   0.46409512    1.3221269    1.8104936     3.642148 
17585000   0.96889707 4.8657329e-05   0.35389257  0.016914806            0   0.33697777    1.4351788    1.7890714    4.2803266 
17590000   0.94016629 1.5734343e-05   0.38393071  0.021096285            0   0.36283443    1.3926213     1.776552    2.5821504 
17595000   0.92529241 1.9336449e-05   0.41456933   0.02129948            0   0.39326985    1.3705894    1.7851587    2.7751849 
17600000   0.89337067 1.5735406e-05   0.50597532  0.034717034            0   0.47125828    1.3233053    1.8292806    2.6349334 
17605000   0.94366909 3.7425256e-06   0.43572387  0.035047989            0   0.40067588    1.3978098    1.8335337     2.025151 
17610000   0.89881639 -7.2125709e-05   0.51577783  0.042826474            0   0.47295136    1.3313718    1.8471496   -1.8456867 
17615000   0.96838082 5.4583891e-05   0.40276079  0.023254348            0   0.37950644    1.4344141    1.8371749    4.6318701 
17620000   0.94837114 7.0520083e-05   0.42969914 0.0010695957            0   0.42862954    1.4047748    1.8344739    5.4451021 
17625000    1.0298374 -0.00012771562   0.32899348  0.002421985            0    0.3265715    1.5254466    1.8544401   -4.6845994 
17630000   0.98036178 -3.0865215e-05   0.40068085 0.0063731688            0   0.39430768    1.4521609    1.8528417   0.27254276 
17635000   0.95230285 0.00012191427   0.45356621 0.0025140792            0   0.45105213    1.4105986    1.8641648    8.1061756 
17640000   0.98894206 7.9176066e-05   0.40380586 1.6207401e-05            0   0.40378965    1.4648704    1.8686763    5.9224909 
17645000   0.96192498 9.2585611e-05   0.39437447 0.00022400439            0   0.39415047    1.4248514    1.8192259    6.5596092 
17650000   0.97152934 -0.00010460627   0.40558778 0.0073796393            0   0.39820814    1.4390778    1.8446656   -3.5111754 
17655000   0.90774644 -0.00020499358   0.54637074  0.013964678            0   0.53240606    1.3445994    1.8909702    -8.604701 
17660000   0.93899416 4.7952977e-05   0.50169084 0.0047478925            0   0.49694295    1.3908851    1.8925759    4.3477684 
17665000    1.0167614 -1.3624466e-05   0.37102992  0.022773589            0   0.34825633    1.5060778    1.8771077    1.1795351 
17670000   0.97478384 -4.3980198e-05   0.43154689  0.012983352            0   0.41856354    1.4438986    1.8754455  -0.37634069 
17675000   0.96227982 5.4963558e-05   0.44304843   0.01004332            0   0.43300511     1.425377    1.8684254    4.6825596 
17680000   0.93670321 -6.4497192e-05   0.50266753   0.01306015            0   0.48960738    1.3874916    1.8901592   -1.4120971 
17685000   0.94125188 8.1703443e-05   0.52085303  0.016652972            0   0.50420006    1.3942293    1.9150824    6.0982987 
17690000     0.994395 -8.7004029e-05   0.44481002  0.015463503            0   0.42934652    1.4729476    1.9177576   -2.5368487 
17695000    1.0167987 -1.3543854e-05   0.39018794  0.007117505            0   0.38307044    1.5061331    1.8963211    1.2028758 
17700000   0.95212703 -6.6797986e-05   0.49587716 0.0052829926            0   0.49059417    1.4103382    1.9062153   -1.5138416 
17705000   0.96821191 -0.00014175452   0.45189286 0.0081881401            0   0.44370472    1.4341639    1.8860568   -5.3717747 
17710000   0.92915254 8.8263284e-05   0.50518198 0.0082843103            0   0.49689767    1.3763072    1.8814892    6.4005693 
17715000   0.94711982 4.1386617e-05   0.49591736 0.0036887801            0   0.49222858    1.4029212    1.8988386    4.0178334 
17720000    1.0304255 6.2191086e-05   0.35145188 0.00074478445            0    0.3507071    1.5263178    1.8777696    5.0619532 
17725000   0.97549774 -3.0750883e-05   0.45035215 0.0042501098            0   0.44610204     1.444956    1.8953082   0.32086298 
17730000   0.98452852 -0.00014858202   0.43501892 0.0084725406            0   0.42654638    1.4583329    1.8933518   -5.7140475 
17735000   0.95651091 -1.6299949e-05    0.4848693 0.0073324561            0   0.47753685    1.4168318    1.9017011    1.0671437 
17740000   0.89472815 -6.3987609e-05   0.56219975  0.031910849            0    0.5302889    1.3253161    1.8875158   -1.3886498 
17745000   0.92494852 -6.0553504e-05   0.49846926  0.025243663            0   0.47322559      1.37008    1.8685492   -1.2317902 
17750000   0.94238046 7.3590685e-05   0.47925541 0.0077962913            0   0.47145912    1.3959011    1.8751565    5.6429995 
17755000   0.89429629 0.00013436271   0.54123247  0.015603082            0   0.52562939    1.3246764    1.8659088    8.7452798 
17760000      1.01599 -5.5941063e-06   0.36902999  0.031857311            0   0.33717268    1.5049352    1.8739652     1.587547 
17765000    0.9156391 -9.5798752e-05   0.54572903  0.050786523            0   0.49494251    1.3562904    1.9020195   -3.0028766 
17770000   0.89803346 0.00013796055   0.55637209  0.053654155            0   0.50271793    1.3302121    1.8865842    8.9501644 
17775000   0.87505788 7.8002495e-05   0.56959275  0.035367928            0   0.53422482    1.2961795    1.8657722       5.8595 
17780000   0.94152358 -0.00012483321   0.48620209  0.029859087            0     0.456343    1.3946318    1.8808339   -4.5106265 
17785000   0.94112653 2.9663902e-05   0.47752645 0.0074800615            0   0.47004639    1.3940437    1.8715701    3.3903619 
17790000   0.91041162 8.1783708e-05   0.54745786  0.011956885            0   0.53550098    1.3485472    1.8960051    6.0833309 
17795000   0.92393284 -8.0137703e-05   0.53443313   0.01672184            0   0.51771129    1.3685755    1.9030086   -2.2000417 
17800000   0.99563642 3.3253713e-05    0.4135424   0.04119852            0   0.37234388    1.4747864    1.8883289     3.590919 
17805000   0.91256523 0.0001105053   0.53174066  0.022250644            0   0.50949002    1.3517372    1.8834779    7.5413495 
17810000   0.93552332 2.7964236e-05   0.51661182  0.018035623            0    0.4985762    1.3857439    1.9023557    3.3341246 
17815000   0.95873421 -7.1678094e-05   0.47625005  0.009172322            0   0.46707772     1.420125    1.8963751   -1.7735433 
17820000   0.98016857 -2.8136728e-05   0.48037288  0.010444037            0   0.46992884    1.4518747    1.9322476   0.49164709 
17825000   0.98646364 -2.9056498e-05    0.4782341  0.016228053            0   0.46200604    1.4611993    1.9394334   0.45174068 
17830000   0.96118751 1.1462042e-05   0.53114094  0.019416005            0   0.51172493     1.423759    1.9548999    2.5417565 
17835000   0.95497652 5.9875797e-05   0.52352488  0.010853303            0   0.51267158     1.414559    1.9380839    5.0037247 
17840000     1.024909 5.1621507e-07    0.3839133  0.014752527            0   0.36916077    1.5181464    1.9020597    1.9284899 
17845000    0.9475022 9.6767088e-05   0.52665983 0.0099822455            0   0.51667759    1.4034876    1.9301475    6.8846224 
17850000   0.93801707 -4.2575337e-05   0.54857505  0.012533384            0   0.53604167    1.3894378    1.9380128  -0.24184442 
17855000   0.98780775 -8.2206702e-05    0.4676283  0.021185619            0   0.44644268    1.4631902    1.9308185   -2.2781646 
17860000   0.99349374 -0.00010116017   0.45885342  0.027699237            0   0.43115418    1.4716126     1.930466   -3.2489346 
17865000   0.93963705 2.0344669e-05   0.55528243  0.030199034            0   0.52508339    1.3918374    1.9471198    2.9887668 
17870000    1.0260294 9.8312489e-05   0.45443763  0.021381229            0    0.4330564    1.5198061    1.9742437    7.0078432 
17875000     1.021247 4.9502918e-05   0.46430883  0.032584692            0   0.43172413    1.5127221     1.977031    4.5115804 
17880000   0.90833496 1.1021097e-05   0.60403332  0.052128809            0   0.55190451    1.3454712    1.9495045    2.5137847 
17885000    1.0234968 4.5784907e-05   0.43692666 0.0052921749            0   0.43163449    1.5160547    1.9529813    4.2971686 
17890000    1.0579104 2.6007478e-06   0.39407631 0.00053541288            0    0.3935409    1.5670298    1.9611061    2.0942644 
17895000   0.91309104 2.7943295e-05   0.54978344  0.014039986            0   0.53574345    1.3525161    1.9022995    3.3329962 
17900000   0.94289747 0.00012608154   0.54916206   0.03278021            0   0.51638185    1.3966669    1.9458289    8.4012039 
17905000   0.93207057 0.00013061328   0.55929067  0.019231716            0   0.54005895    1.3806295    1.9399202    8.6273202 
17910000    1.0333827 0.00012311057   0.43941353  0.018899025            0   0.42051451    1.5306981    1.9701116    8.2733728 
17915000   0.95887262 7.661975e-07   0.53313229   0.02018674            0   0.51294555    1.4203301    1.9534624    1.9926917 
17920000   0.88991411 -0.0002093824   0.65376507  0.018265362            0   0.63549971    1.3181853    1.9719504   -8.7484284 
17925000   0.94790439 -8.1168845e-05   0.51583709  0.036505911            0   0.47933118    1.4040834    1.9199205   -2.2359244 
17930000   0.89937948 1.2502675e-05   0.59396989  0.024519417            0   0.56945047    1.3322059    1.9261757    2.5663127 
17935000    0.9495362 -8.5153252e-06   0.50150605  0.024078099            0   0.47742795    1.4065005    1.9080065    1.4720219 
17940000   0.94019892 6.5950157e-05   0.51455731  0.036938171            0   0.47761914    1.3926697     1.907227     5.283875 
17945000   0.90262255 6.3204039e-05   0.55800691  0.012481947            0   0.54552496    1.3370097    1.8950166    5.1310633 
17950000   0.90515253 -0.00010301214   0.55363631  0.005678173            0   0.54795814    1.3407572    1.8943935   -3.3798279 
17955000   0.88700162 -0.00011256851   0.61265128 0.0061612587            0   0.60649002    1.3138712    1.9265224   -3.8369853 
17960000   0.94456581 -0.0001441857   0.53793293 0.0047670738            0   0.53316586    1.3991381     1.937071   -5.4452369 
17965000   0.99353743 -3.059898e-05   0.48274816 0.0012061276            0   0.48154204    1.4716773    1.9544255    0.3877577 
17970000     1.013158 -4.3413319e-05   0.48131957 3.7524921e-05            0   0.48128204    1.5007403    1.9820599  -0.24070209 
17975000    1.0456398 -2.7958069e-05   0.46811211 0.00011194426            0   0.46800016    1.5488539     2.016966   0.58551291 
17980000    1.0485439 1.0551109e-05   0.45312648  0.006875739            0   0.44625075    1.5531556    2.0062821    2.5464989 
17985000    1.0470766 4.0666129e-06   0.44177105  0.032956529            0   0.40881452    1.5509822    1.9927532    2.2009638 
17990000   0.95865835 -0.00011273407   0.56365295  0.024918939            0   0.53873401    1.4200127    1.9836656   -3.7883186 
17995000   0.95150567 -4.460996e-05   0.58595221  0.012992674            0   0.57295953    1.4094178      1.99537  -0.28865996 
18000000    1.0298136 2.4251316e-05    0.4704542  0.027126886            0   0.44332731    1.5254114    1.9958656     3.237533 
18005000   0.91548317 -0.00021795337   0.60606673  0.022933808            0   0.58313292    1.3560594    1.9621262   -9.1970864 
18010000    1.0300595 -2.6727112e-05    0.4070841 0.0099906562            0   0.39709345    1.5257756    1.9328597   0.56443157 
18015000   0.90118736 9.4159058e-05    0.5789141 0.0021452275            0   0.57676888    1.3348838    1.9137979    6.7347417 
18020000   0.87743062 -9.2444929e-05   0.60399261 0.0092070625            0   0.59478554    1.2996941    1.9036867   -2.8294937 
18025000   0.86905408 2.2115007e-05   0.63366378  0.016465491            0   0.61719829    1.2872863    1.9209501    3.0532385 
18030000   0.95221612 -9.0976067e-06   0.52700015   0.01865314            0   0.50834701    1.4104701    1.9374703    1.4716728 
18035000   0.94716522 -1.0713384e-05   0.51934574   0.02295028            0   0.49639546    1.4029885    1.9223342     1.373809 
18040000   0.88306357 5.2693665e-05    0.5842038  0.010948908            0   0.57325489    1.3080379    1.8922417    4.5901574 
18045000   0.98589016 5.6116891e-05   0.43585821 0.00090529189            0   0.43495292    1.4603498     1.896208    4.7693928 
18050000    0.9406762 -1.5673361e-05   0.49603234 2.8386247e-05            0   0.49600395    1.3933766     1.889409    1.0869329 
18055000   0.97494356 -8.5700275e-05    0.4586775 0.0026544814            0   0.45602301    1.4441351    1.9028126   -2.4850414 
18060000   0.86019556 -1.2819203e-05   0.61521243 0.0072867904            0   0.60792563    1.2741647    1.8893771    1.2330339 
18065000   0.83664485 7.6760016e-05     0.641319  0.025594025            0   0.61572497    1.2392802    1.8805992     5.810712 
18070000   0.90452997 4.285839e-05   0.52857823  0.022479953            0   0.50609827     1.339835    1.8684132    4.0627628 
18075000   0.87131196 -2.0950522e-05   0.57578809  0.035769714            0   0.54001838    1.2906308    1.8664189   0.79375222 
18080000   0.92703565 4.4253881e-05   0.52900568  0.037711362            0   0.49129432    1.3731716    1.9021772     4.167976 
18085000   0.83130217 0.00010047093   0.66823229  0.018651403            0   0.64958089    1.2313663    1.8995986      7.04371 
18090000   0.95843089 6.9867429e-06   0.49103162 0.0078298684            0   0.48320175    1.4196757    1.9107074    2.2684286 
18095000   0.93831854 -1.3215372e-05   0.53923453  0.030040002            0   0.50919453    1.3898843    1.9291189    1.2524918 
18100000   0.94381763 -3.242875e-05   0.53641571   0.02319383            0   0.51322188    1.3980299    1.9344456   0.27409356 
18105000   0.93616551 -6.3942368e-05   0.55036645  0.034237664            0   0.51612879    1.3866952    1.9370616   -1.3367876 
18110000   0.92817592 9.3679017e-05    0.5680399  0.016216541            0   0.55182336    1.3748606    1.9429005    6.7392661 
18115000    0.9628666 -6.7517206e-05   0.51550338  0.012688987            0    0.5028144    1.4262462    1.9417495   -1.5151314 
18120000   0.91791527 -3.7557173e-05     0.572062  0.004619587            0   0.56744241     1.359662     1.931724 0.0087967521 
18125000   0.91812639 1.3061774e-05    0.5762739 0.00082155599            0   0.57545234    1.3599747    1.9362486    2.6050114 
18130000   0.86025499 -0.00016864645   0.63449416 0.0028325332            0   0.63166163    1.2742527    1.9087469   -6.7259512 
18135000   0.88999429 -0.00012850579    0.6118962  0.012913983            0   0.59898222     1.318304    1.9302002   -4.6492964 
18140000   0.94392666 0.00011322275   0.50145931  0.025662507            0    0.4757968    1.3981914    1.8996507    7.6966553 
18145000   0.90526693 7.3857394e-05   0.56313565  0.024544894            0   0.53859076    1.3409266    1.9040623    5.6855609 
18150000   0.92073294 -8.2992576e-06   0.55394462  0.021790291            0   0.53215433    1.3638357    1.9177803    1.4928583 
18155000   0.89198154 -0.00016595126   0.58984711 0.0066053884            0   0.58324172    1.3212477    1.9110948   -6.5856097 
18160000   0.88086189 -2.5041247e-05    0.6006236  0.006185765            0   0.59443783    1.3047767    1.9054003   0.62328844 
18165000   0.94054098 -1.444447e-05   0.48643435 0.0055178832            0   0.48091647    1.3931763    1.8796107    1.1400538 
18170000   0.87396835 -0.00010596423   0.59536985 0.0072858779            0   0.58808397    1.2945656    1.8899355   -3.5354332 
18175000   0.92185589 9.2348867e-05   0.51832896  0.028360941            0   0.48996802     1.365499     1.883828      6.61209 
18180000   0.92046959 2.7602719e-05   0.53429546  0.006997801            0   0.52729766    1.3634456     1.897741    3.3110002 
18185000   0.96447811 -3.1246693e-05   0.47504575            0            0   0.47504575    1.4286332     1.903679   0.30384829 
18190000   0.92558291 0.00015915498   0.55408495            0            0   0.55408495    1.3710197    1.9251046     10.07384 
18195000   0.93295195 -2.1189244e-05   0.53584067 5.3417255e-05            0   0.53578725    1.3819351    1.9177757   0.83288645 
18200000    0.8438122 -0.00016304796   0.66875539 0.0012019373            0   0.66755345    1.2498968    1.9186522   -6.4294031 
18205000   0.98357075 9.7780566e-06   0.42565625 0.0051991269            0   0.42045712    1.4569142    1.8825704    2.3832069 
18210000   0.96410258 0.0001706674   0.47257983 0.0044471807            0   0.46813265    1.4280769    1.9006568    10.638828 
18215000   0.89308461 9.9822806e-05   0.57128415 0.0027158293            0   0.56856832    1.3228816    1.8941657    7.0050934 
18220000   0.85176175 -0.00010433816   0.63373925  0.016369513            0   0.61736973    1.2616721    1.8954113   -3.4467026 
18225000   0.87985811 3.4187642e-05   0.58815237  0.026900604            0   0.56125177    1.3032898    1.8914422    3.6418495 
18230000   0.91135594 6.3514997e-05   0.52901865  0.015295163            0   0.51372348     1.349946    1.8789646    5.1309325 
18235000   0.85836294 -5.5761217e-05   0.59720549 0.0097556012            0   0.58744989    1.2714501    1.8686556   -0.9863187 
18240000   0.84149387 3.2438561e-05   0.62162996  0.013576763            0   0.60805319    1.2464628    1.8680927    3.5289471 
18245000   0.85087393 -6.8881726e-05   0.60275749  0.027504777            0   0.57525272     1.260357    1.8631145   -1.6636299 
18250000   0.84910221 -6.2281591e-05   0.62334332  0.026362786            0   0.59698054    1.2577326     1.881076   -1.3077415 
18255000    0.9077248 -2.378127e-06   0.53977452  0.016347785            0   0.52342674    1.3445674    1.8843419    1.7625818 
18260000   0.88501682 -0.00010072664   0.55677755  0.010464467            0   0.54631308    1.3109312    1.8677087   -3.2894954 
18265000   0.86060304 -2.8447777e-05   0.62478763  0.015950159            0   0.60883747    1.2747682    1.8995559   0.44302968 
18270000   0.87562083 -2.6353511e-05   0.59537336  0.010056332            0   0.58531703    1.2970134    1.8923867   0.54308695 
18275000    0.8906405 -3.9992524e-06   0.58934989 0.0059835434            0   0.58336635    1.3192612    1.9086111    1.7038494 
18280000   0.85995429 3.2668802e-06   0.68051194  0.011298201            0   0.66921374    1.2738073    1.9543192    2.1215835 
18285000   0.84911795 -5.1544401e-05    0.6719485 0.0044934036            0    0.6674551     1.257756    1.9297045  -0.70936885 
18290000   0.96272683 9.4197999e-06   0.49490465 0.00036238416            0   0.49454227    1.4260391    1.9209438    2.4032375 
18295000   0.85285597  0.000110765   0.64340412 0.0086169195            0    0.6347872    1.2632929     1.906697    7.5778652 
18300000    0.8774122 0.00010425295   0.59965411  0.048165617            0    0.5514885    1.2996668    1.8993209    7.2370721 
18305000   0.85863751 2.6031002e-05   0.63317526  0.024258974            0   0.60891628    1.2718568    1.9050321    3.2378194 
18310000   0.92766339 -6.2198509e-06   0.55970357 0.0063585019            0   0.55334507    1.3741014     1.933805    1.6153486 
18315000   0.85481029 -5.528745e-05   0.66187909  0.029101289            0    0.6327778    1.2661877    1.9280668   -0.9026506 
18320000   0.90619976 -1.7766374e-05   0.55571018 0.0061513971            0   0.54955879    1.3423084    1.8980186   0.98838024 
18325000   0.86820362 -4.8250821e-05   0.59427389 0.0037824642            0   0.59049143    1.2860266    1.8803005  -0.59014153 
18330000   0.90982592 2.9939674e-05   0.52243937 0.0036729896            0   0.51876638    1.3476796     1.870119    3.4030303 
18335000    0.9443649 6.8325027e-05   0.47963066 0.00085234857            0   0.47877832    1.3988405    1.8784712    5.3767126 
18340000   0.95261117 4.1853182e-06   0.48093702  0.006425641            0   0.47451138    1.4110553    1.8919923    2.1062806 
18345000   0.98808793 -3.3874812e-05   0.38850466  0.013099072            0   0.37540559    1.4636052    1.8521099   0.11771951 
18350000   0.87398427 -8.2568794e-05   0.55329662 0.0057538834            0   0.54754273    1.2945892    1.8478858   -2.3796364 
18355000   0.86341178 7.6136789e-05   0.56799254  0.006253596            0   0.56173894    1.2789287    1.8469212    5.7451249 
18360000   0.95955866 -4.8460371e-05   0.44071211  0.016565446            0   0.42414667    1.4213463    1.8620584  -0.61911259 
18365000   0.94424212 -7.4292698e-05    0.5007718  0.011955821            0   0.48881598    1.3986586    1.8994304   -1.9043557 
18370000   0.91946522 0.00015671288   0.53338805 0.0090223534            0    0.5243657    1.3619579    1.8953459    9.9190451 
18375000   0.83039871 5.1248089e-05   0.64442056  0.010286612            0   0.63413395    1.2300281    1.8744486    4.4983508 
18380000   0.91204128 -6.0332272e-05   0.52788203  0.010239252            0   0.51764277    1.3509611    1.8788432   -1.2101692 
18385000   0.91829302 3.0600476e-05   0.50166629  0.014238416            0   0.48742787    1.3602215    1.8618878    3.4286322 
18390000   0.81154336 5.4756779e-05   0.67655725 0.0053089914            0   0.67124826    1.2020986    1.8786559     4.682203 
18395000   0.92347222 -5.1594042e-05   0.53728764 0.00039313792            0    0.5368945    1.3678932    1.9051809  -0.73643409 
18400000   0.97107413 2.9032883e-05   0.43640539 0.00017391468            0   0.43623147    1.4384036    1.8748089    3.3612925 
18405000    0.9124084 3.3759876e-05   0.55588204  0.004685941            0    0.5511961    1.3515049     1.907387    3.6358926 
18410000    0.9724542 -2.1590301e-05   0.48064027  0.014291342            0   0.46634893    1.4404478    1.9210881   0.81566466 
18415000   0.96029648 7.8281122e-05   0.46909073   0.01065804            0   0.45843269    1.4224392    1.8915299    5.8995234 
18420000   0.95565945 0.00012388773   0.48022357 0.0037930821            0   0.47643049    1.4155706    1.8957941     8.238846 
18425000   0.98753597 4.070384e-05    0.4387449 0.0030606237            0   0.43568428    1.4627877    1.9015326    3.9855691 
18430000   0.94815273 -0.0001199289   0.52411371  0.016729822            0   0.50738389    1.4044512    1.9285649   -4.2117945 
18435000    1.0175783 -2.4712916e-05   0.43266873  0.012210877            0   0.42045785    1.5072878    1.9399565   0.67465522 
18440000   0.92009188 -4.5569377e-05    0.5620056 0.0030532335            0   0.55895237    1.3628861    1.9248917   -0.4082604 
18445000   0.94987115 4.4038839e-05   0.53233115            0            0   0.53233115    1.4069966    1.9393278    4.1941164 
18450000   0.91113772 -7.4881642e-05   0.59747953 0.00019397079            0   0.59728556    1.3496228    1.9471023   -1.8868378 
18455000   0.94096693 -6.3125384e-05   0.55943876 0.0094322231            0   0.55000654    1.3938073     1.953246   -1.2787736 
18460000   0.98841584 0.0001907376   0.51427829  0.014415294            0     0.499863     1.464091    1.9783692    11.744135 
18465000    1.0029681 3.0147508e-05   0.50237652 0.0013097345            0   0.50106679    1.4856466    1.9880231    3.5315755 
18470000    1.0195757 -8.5340862e-06   0.47365489 2.7514607e-05            0   0.47362738    1.5102464    1.9839013    1.5469561 
18475000   0.89592431 0.00010229518    0.6318753 0.0001997085            0   0.63167559    1.3270879    1.9589632    7.1964765 
18480000   0.91089324 -2.6482697e-05   0.62438059 0.00089310614            0   0.62348748    1.3492606    1.9736412   0.61772711 
18485000   0.96714157 -1.9060769e-05   0.56077074 0.0013783759            0   0.55939236    1.4325785    1.9933492    1.0174378 
18490000   0.98780554 8.1706356e-05   0.56417572 0.0019140489            0   0.56226167     1.463187    2.0273627    6.2107281 
18495000   0.98341707 -4.3586175e-05   0.59140016 0.0030634229            0   0.58833674    1.4566865    2.0480867  -0.18352546 
18500000   0.95952011 1.7534327e-05   0.59843787  0.021075996            0   0.57736187    1.4212892     2.019727    2.9174846 
18505000   0.94920007 3.365593e-05     0.617379  0.063689132            0   0.55368986    1.4060026    2.0233816    3.7465652 
18510000    1.0202122 -1.0108406e-05   0.51331343 0.0089631788            0   0.50435025    1.5111894    2.0245028    1.5069524 
18515000    1.0376767 0.00010683184   0.47642015  0.016878034            0   0.45954212    1.5370587    2.0134788    7.4832688 
18520000   0.97553065 2.5867637e-05   0.55551433  0.010033913            0   0.54548041    1.4450048    2.0005191    3.3249421 
18525000    1.0240783 3.0055137e-05   0.47077489 0.0017776474            0   0.46899724    1.5169159    1.9876908    3.5265138 
18530000   0.98415714 -2.6894903e-05   0.54069785  0.010592459            0   0.53010539    1.4577828    1.9984806   0.62146157 
18535000   0.98623425 -7.6358851e-05   0.52609874  0.023805425            0   0.50229331    1.4608595    1.9869582   -1.9226149 
18540000   0.94014326 7.140958e-05   0.55947228  0.011521177            0   0.54795111    1.3925872    1.9520595      5.60823 
18545000   0.90446597 -9.4224806e-05   0.59160398 0.0099834436            0   0.58162054    1.3397402    1.9313442   -2.8929659 
18550000    0.8508069 -0.00022538366   0.66669997   0.01431454            0   0.65238543    1.2602577    1.9269577   -9.6126857 
18555000   0.89630534 1.7761037e-05   0.55852094  0.022814025            0   0.53570692    1.3276523    1.8861732    2.7955383 
18560000   0.97965681 6.1102505e-05   0.45602955  0.014035701            0   0.44199385    1.4511167    1.9071462    5.0355945 
18565000   0.98935786 -2.2931321e-05   0.44059063 0.0029162656            0   0.43767437    1.4654863     1.906077   0.73199333 
18570000   0.95065247 -1.5456033e-06   0.50973188 0.0035772847            0    0.5061546     1.408154    1.9178859     1.838751 
18575000     1.046514 -9.3217196e-05   0.38700196 0.0099343296            0   0.37706763    1.5501489    1.9371509   -2.8355696 
18580000      0.95117 -3.918531e-05   0.52321659  0.015045521            0   0.50817107    1.4089206    1.9321372 -0.074150712 
18585000   0.91734643 4.5989203e-05   0.58279241 0.0092041477            0   0.57358826    1.3588194    1.9416118     4.296259 
18590000   0.98686429 -3.6249107e-05   0.49927601 0.0023555912            0   0.49692042    1.4617927    1.9610687   0.10511449 
18595000   0.97808802 -6.3373826e-05   0.47857791 0.0022410207            0   0.47633689    1.4487929    1.9273708   -1.3173691 
18600000   0.98995134 -3.1206469e-05    0.4584115 0.0072968035            0    0.4511147    1.4663654    1.9247769   0.32700573 
18605000   0.92135549 6.2096872e-05   0.55367968 0.0082794869            0   0.54540019    1.3647578    1.9184375    5.0977973 
18610000   0.95492528 4.6484043e-05   0.50367604  0.015094732            0   0.48858131    1.4144831    1.9181591    4.2981421 
18615000   0.84209675 5.778092e-05    0.6574857  0.046748224            0   0.61073747    1.2473558    1.9048415    4.8632246 
18620000   0.94064236 6.4392318e-05   0.51073984  0.015908498            0   0.49483134    1.3933265    1.9040663     5.200953 
18625000   0.95717408 0.0001272135   0.50789218 0.0050887993            0   0.50280338    1.4178141    1.9257063    8.4390374 
18630000   0.91807785 5.4124466e-05   0.56527632 0.0015698407            0   0.56370648    1.3599028    1.9251791    4.6963518 
18635000   0.94062323 -8.6121205e-05   0.50977996 0.00033699199            0   0.50944297    1.3932982    1.9030781   -2.5063276 
18640000   0.94505218 -0.00015523979   0.52499414 0.0052994239            0   0.51969471    1.3998585    1.9248527   -6.0234245 
18645000    0.9344738 -7.1433388e-05   0.55497405 0.0092456915            0   0.54572836    1.3841893    1.9391634   -1.7182261 
18650000    1.0046195 2.0080674e-05   0.48216794 0.0026471376            0    0.4795208    1.4880926    1.9702606    2.9983911 
18655000   0.94710888 9.8354226e-05   0.58207058 0.0047241664            0   0.57734641     1.402905    1.9849756    7.0207119 
18660000    1.0054118 -3.7107586e-06   0.50187838  0.011821569            0   0.49005681    1.4892662    1.9911446    1.8011538 
18665000    1.0453028 -6.9377934e-06   0.44996951 0.0057096487            0   0.44425986    1.5483547    1.9983243    1.6431092 
18670000   0.89745111 -2.5212515e-06   0.71091201 0.00031442209            0   0.71059759    1.3293495    2.0402615    1.9111734 
18675000    1.0317716 -1.2112321e-05   0.52405507            0            0   0.52405507    1.5283117    2.0523667    1.4322159 
18680000     1.057478 3.4200519e-05   0.47759991 0.0002054006            0   0.47739451    1.5663892    2.0439891    3.7950557 
18685000   0.99309773 0.00013837607   0.59522816 0.0019183477            0   0.59330981     1.471026    2.0662542    9.1511087 
18690000   0.97948872 0.00013008521   0.61960109  0.005960726            0   0.61364037    1.4508677    2.0704688    8.7308315 
18695000   0.95333661 -4.1211465e-05   0.64294256  0.029308886            0   0.61363367    1.4121299    2.0550724 -0.054954622 
18700000    1.0123649 6.9072375e-05   0.55130802 0.0077807232            0   0.54352729    1.4995655    2.0508735    5.5873791 
18705000   0.97098424 -5.1154545e-05   0.62335955  0.003487658            0   0.61987189    1.4382704      2.06163  -0.55748274 
18710000   0.99593599 7.1609605e-05    0.5923615  0.011288283            0   0.58107322    1.4752302    2.0675917    5.7340034 
18715000    1.0113256 -3.5711824e-05   0.58069266  0.060893457            0    0.5197992    1.4980261    2.0787187   0.25027331 
18720000    1.0759668 -4.9240228e-06   0.48436994  0.039358003            0   0.44501194    1.5937758    2.0781457    1.8260358 
18725000    1.0363623 -2.6293801e-05   0.52614663  0.025862871            0   0.50028376    1.5351117    2.0612583   0.71501568 
18730000   0.95083149 -0.0001045486   0.65986704  0.083402306            0   0.57646474    1.4084191    2.0682862   -3.2846019 
18735000   0.93820985 1.692233e-05   0.67138548   0.05687999            0   0.61450549    1.3897233    2.0611088    2.9275321 
18740000     1.045622 -9.2961827e-05    0.5085214  0.014597198            0    0.4939242    1.5488276     2.057349   -2.7022965 
18745000     1.022802 -3.9818627e-05   0.54776646  0.043000379            0   0.50476608    1.5150255    2.0627919   0.02407821 
18750000   0.99748899 0.0001127849    0.5875009  0.016477664            0   0.57102324    1.4775306    2.0650315    7.8396182 
18755000    1.0125417 0.00010627791   0.56031529  0.006320003            0   0.55399529    1.4998274    2.0601427    7.5015718 
18760000     1.010023 8.2722489e-05   0.58041062 0.0089386443            0   0.57147198    1.4960966    2.0765072    6.3118987 
18765000    1.0343087 -7.6117717e-05   0.56823812  0.010003721            0    0.5582344    1.5320697    2.1003078   -1.7969193 
18770000     1.060587 -2.319171e-05   0.50464867  0.038302218            0   0.46634645    1.5709946    2.0756432   0.88822766 
18775000    1.0936441 2.400255e-05   0.48416741  0.011481143            0   0.47268627    1.6199603    2.1041277    3.3330583 
18780000   0.93723245 -7.8383218e-05   0.71079895 0.0053064534            0   0.70549249    1.3882756    2.0990745   -1.9141463 
18785000   0.99447435 -0.00010256887   0.63142206 0.0040676471            0   0.62735441    1.4730651    2.1044872   -3.1470387 
18790000    1.1081376 -6.3411888e-05   0.47583845  0.012382529            0   0.46345593    1.6414288    2.1172673   -1.1294214 
18795000    1.0858528 0.0001267479    0.5473996 0.0095870068            0   0.53781259    1.6084194     2.155819    8.6453115 
18800000    1.0209308 0.00011057363   0.65310828  0.019752946            0   0.63335533    1.5122538    2.1653621    7.8267321 
18805000    1.0503896 3.9682774e-05   0.58722403  0.031368895            0   0.55585514    1.5558896    2.1431136    4.1748716 
18810000    1.0826955 -8.6344324e-05   0.55548273  0.006740077            0   0.54874265    1.6037427    2.1592254   -2.2616039 
18815000    1.0607967 -0.0001214422   0.61997648  0.013624459            0   0.60635202     1.571305    2.1912815    -4.026559 
18820000    1.0937695 -5.3090043e-05   0.56278996  0.032438598            0   0.53035137    1.6201461    2.1829361  -0.53527409 
18825000    1.0050501 4.4388297e-06   0.70049133  0.011037877            0   0.68945346    1.4887305    2.1892218    2.4164899 
18830000    1.1074778 -3.975781e-05    0.5490801  0.027270781            0   0.52180932    1.6404515    2.1895316   0.15393173 
18835000    1.1014662 -4.7517685e-05   0.57021486  0.011028686            0   0.55918618    1.6315468    2.2017616  -0.23114387 
18840000    1.0434315 -9.1374378e-05   0.68323481  0.020152872            0   0.66308194     1.545583    2.2288178   -2.4495504 
18845000    1.0125679 -6.8273242e-06   0.73140539  0.027321748            0   0.70408364    1.4998662    2.2312716    1.8817126 
18850000    1.1261282 -2.1569423e-05   0.55447424  0.014645769            0   0.53982847    1.6680774    2.2225516    1.1181972 
18855000     1.080203 2.076674e-05   0.62162101  0.024962054            0   0.59665896    1.6000506    2.2216717    3.2849288 
18860000    1.0556048 -4.468206e-05   0.68806221  0.013477562            0   0.67458465    1.5636147    2.2516769 -0.036044606 
18865000    1.0896114 0.00017037058   0.61668615  0.015161109            0   0.60152504    1.6139869    2.2306731    10.953647 
18870000    1.0962326 0.00014086847   0.62592681 0.0043468238            0   0.62157998    1.6237945    2.2497213    9.4621868 
18875000    1.2041081 -1.1287226e-05   0.44421381  0.015503528            0   0.42871029    1.7835852     2.227799     1.649893 
18880000   0.99864391 3.3704887e-05   0.73126939   0.03864241            0   0.69262698    1.4792413    2.2105107    3.9362009 
18885000    1.0886284 -7.0588172e-05   0.64335772  0.033305462            0   0.61005225    1.6125309    2.2558886   -1.3582258 
18890000     1.161407 5.7719521e-06   0.55087175 0.0096124604            0   0.54125929    1.7203341    2.2712059    2.5667298 
18895000     1.122749 1.8324676e-05   0.60831384 0.0054256254            0   0.60288822     1.663072    2.2713858    3.2096092 
18900000    1.1146219 4.9105489e-05   0.66163855 0.0041425778            0   0.65749598    1.6510337    2.3126723    4.8268733 
18905000    1.1451795 0.00012805531   0.64852507  0.013551055            0   0.63497402    1.6962971    2.3448222    8.9012542 
18910000    1.1495826 -3.0027626e-05   0.61870646 0.0077609639            0    0.6109455    1.7028192    2.3215256   0.78411117 
18915000    1.1249931 0.00012399892   0.63425067 0.0052029649            0    0.6290477     1.666396    2.3006466    8.6493913 
18920000     1.106818 6.7058285e-05   0.64989043  0.013828068            0   0.63606236    1.6394742    2.2893646    5.7227488 
18925000    1.1349992 8.6070074e-05    0.6006475  0.023765748            0   0.57688176    1.6812175     2.281865    6.6886528 
18930000      1.17953 -7.0573872e-06   0.49124465  0.015315007            0   0.47592965    1.7471789    2.2384235    1.8770853 
18935000    1.1067023 -6.2116462e-05   0.58486681  0.017080979            0   0.56778583    1.6393027    2.2241695  -0.95619331 
18940000   0.99982588 -6.4868026e-05   0.68444368  0.010046595            0   0.67439708    1.4809921    2.1654358   -1.1558072 
18945000    1.0556968 5.313615e-05   0.58401107 0.0081865648            0    0.5758245    1.5637509     2.147762    4.8683329 
18950000     1.071193 0.00026616139   0.55938478  0.042268356            0   0.51711642    1.5867046    2.1460894    15.773552 
18955000    1.0818663 9.0959442e-05   0.54107249  0.037196767            0   0.50387572    1.6025145     2.143587    6.8007104 
18960000    1.0007844 1.5662545e-05   0.63901422  0.013220229            0   0.62579399    1.4824118     2.121426    2.9233483 
18965000    1.0022832 7.7957575e-05   0.62512424 0.0055462943            0   0.61957795    1.4846319    2.1097562     6.101184 
18970000    1.0841672 0.00013241329   0.50088532  0.014986986            0   0.48589833    1.6059226     2.106808    8.8863684 
18975000    1.0422671 7.622088e-05   0.57478478  0.021991067            0   0.55279372    1.5438582     2.118643     6.021152 
18980000    1.0454123 -4.925297e-05   0.55975028 0.0034000806            0    0.5563502    1.5485169    2.1082672  -0.41348484 
18985000    1.0095769 -7.4027425e-05   0.59522511 0.0029832853            0   0.59224183    1.4954357    2.0906608   -1.6995433 
18990000    1.0521425 -0.00012454533   0.53111205 0.0006448078            0   0.53046724    1.5584861    2.0895981   -4.2871228 
18995000    1.0120684 -0.00010698146   0.56588735 0.0060290603            0   0.55985829    1.4991263    2.0650137   -3.4124371 
19000000   0.94597792 -8.7424827e-05   0.64511216  0.028319854            0    0.6167923    1.4012298     2.046342   -2.4298092 
19005000    1.0261478 -9.5514925e-05   0.52137482  0.029109389            0   0.49226543    1.5199815    2.0413563   -2.8490079 
19010000    1.0129303 -3.1823936e-05   0.52122224  0.011525192            0   0.50969705     1.500403    2.0216252   0.39223969 
19015000    1.0047919 2.3610945e-05   0.55781323 0.0054424277            0    0.5523708     1.488348    2.0461612    3.2550416 
19020000    1.1059183  9.88052e-05   0.44602151 0.00076058688            0   0.44526092    1.6381414    2.0841629    7.1429892 
19025000    1.0021916 4.5428867e-05   0.62498148 0.0092994182            0   0.61568206    1.4844963    2.1094778    4.4354358 
19030000    0.9487577 2.0109011e-05   0.69956028  0.022190771            0   0.67736951    1.4053473    2.1049076     3.134489 
19035000    1.0733363 0.00015395211   0.51480034 0.0069574405            0    0.5078429    1.5898794    2.1046797    9.9870276 
19040000    1.0405358 0.00016716763   0.56684421 2.5094083e-05            0   0.56681912    1.5412937    2.1081379    10.667121 
19045000    1.0135278 5.4952009e-05   0.58253686 0.0034955981            0   0.57904127     1.501288    2.0838249    4.8973678 
19050000     1.022165 -9.1832488e-05   0.57093741  0.013250259            0   0.55768715    1.5140819    2.0850193   -2.6168041 
19055000    1.0679803 1.0833358e-06   0.54699232 0.0080823298            0   0.53890999    1.5819459    2.1289382     2.184405 
19060000    1.0182046 -2.4606004e-05   0.62620228  0.012055796            0   0.61414648    1.5082156    2.1344178   0.87459047 
19065000    1.0265041 -0.00012048658   0.62493423  0.027307857            0   0.59762638    1.5205092    2.1454435   -4.0234693 
19070000    1.0251234 -7.5034715e-05   0.59857042  0.018068619            0    0.5805018     1.518464    2.1170345   -1.7247429 
19075000   0.98751908 -7.5441773e-05   0.62799523  0.004937875            0   0.62305735    1.4627626    2.0907579   -1.7718609 
19080000    1.0193772 4.3286161e-05   0.60170279   0.01475993            0   0.58694286    1.5099524    2.1116552    4.3279067 
19085000    1.0312679 0.00020984988   0.62987422  0.033794671            0   0.59607955    1.5275656    2.1574398    12.901753 
19090000    1.0771131 0.00019681549   0.56960692 0.0091375106            0   0.56046941    1.5954738    2.1650807    12.242034 
19095000    1.0652328 2.0786644e-05   0.58294262 0.00030917672            0   0.58263344     1.577876    2.1608187    3.2250948 
19100000    1.0095071 -0.00016072638   0.64203518  0.003449067            0   0.63858611    1.4953324    2.1373676   -6.0918233 
19105000    1.0710497 -4.880327e-05   0.52676766 0.0095807809            0   0.51718688    1.5864923      2.11326  -0.38546741 
19110000    1.0601527 4.163436e-05   0.58754101   0.01458202            0     0.572959    1.5703512    2.1578922    4.2895715 
19115000    1.0290618 -0.00011985245   0.63608623  0.013596975            0   0.62248925    1.5242977     2.160384   -3.9760615 
19120000    1.0158067 -0.00010608833   0.65775349  0.013107518            0   0.64464597    1.5046636    2.1624171   -3.2693053 
19125000    1.0789476 -3.2882796e-05   0.57569028  0.024770152            0   0.55092013    1.5981911    2.1738814   0.49028229 
19130000    1.0489483 0.00014625587   0.59127894  0.046089742            0    0.5451892    1.5537547    2.1450336    9.6333344 
19135000   0.95824249 0.00020986736   0.71532515  0.076120825            0   0.63920432    1.4193967    2.1347218     12.87993 
19140000   0.99735334 1.5975737e-05    0.6585099  0.022699597            0    0.6358103    1.4773296    2.1358395    2.9537973 
19145000    1.0210013 -0.00015808097   0.64920829 0.0047057775            0   0.64450251    1.5123581    2.1615664   -5.9321791 
19150000    1.0475985 -6.6356196e-05   0.61841247  0.004610926            0   0.61380154    1.5517552    2.1701677   -1.2272695 
19155000    1.0322791 2.4338866e-05   0.64401075  0.038506468            0   0.60550428    1.5290634    2.1730741    3.4192241 
19160000    1.1159784 5.9972505e-05   0.51823611  0.016202851            0   0.50203326     1.653043    2.1712792    5.2418714 
19165000    1.0278691 -2.9045059e-05   0.61702892 0.0062139471            0   0.61081497    1.5225311      2.13956   0.65245299 
19170000    1.0179387 1.9632994e-05   0.61199484 0.0010851397            0    0.6109097    1.5078217    2.1198166    3.1250259 
19175000   0.95058515 1.6258307e-05    0.7046767            0            0    0.7046767    1.4080543     2.112731    2.9451563 
19180000    1.0360593 -3.5725391e-05    0.5671602            0            0    0.5671602    1.5346629    2.1018231   0.27268304 
19185000    1.0214038 0.00016775586   0.60650411 0.0017046569            0   0.60479945    1.5129544    2.1194585    10.708558 
19190000    0.9974001 0.00024756996   0.66320314  0.012007501            0   0.65119564    1.4773989     2.140602    14.816184 
19195000   0.95545999 1.3869068e-05   0.69433207  0.016499599            0   0.67783247    1.4152751    2.1096072    2.8197034 
19200000    1.0299677 -0.00011063657   0.59358997   0.01240406            0   0.58118591    1.5256396    2.1192296   -3.5453628 
19205000   0.97613425 -0.00011297013   0.65650073 0.0093297354            0   0.64717099    1.4458989    2.1023996   -3.6816713 
19210000   0.95955441 -4.3177906e-05   0.67089545 0.0042220115            0   0.66667343      1.42134    2.0922354  -0.11847337 
19215000   0.96157761 0.00010240839   0.64170931 0.0054860756            0   0.63622324    1.4243368    2.0660461    7.3093558 
19220000   0.99315047 3.3996847e-05   0.61175147  0.022192353            0   0.58955912    1.4711041    2.0828556    3.8234942 
19225000   0.99005432 -5.69664e-05   0.61502748  0.058873484            0   0.55615399     1.466518    2.0815454  -0.83513424 
19230000    1.0188737 8.6772866e-05    0.5487373  0.042235547            0   0.50650175    1.5092067     2.057944    6.5007147 
19235000   0.96812168 3.9200848e-05   0.61954692 0.0049820508            0   0.61456487    1.4340302    2.0535772    4.0606606 
19240000    1.0140882 -1.684865e-05   0.54854507  0.035665438            0   0.51287963    1.5021181    2.0506632    1.1880123 
19245000   0.97070782 5.2668853e-06   0.62062191  0.073920523            0   0.54670139     1.437861    2.0584829    2.3281474 
19250000    0.9278906 -6.0669498e-05   0.67620573   0.01883888            0   0.65736686     1.374438    2.0506437   -1.0556346 
19255000   0.94415353 -2.0822615e-05   0.67261265 0.0039180656            0   0.66869458    1.3985274    2.0711401    1.0050222 
19260000    1.0275103 3.3880246e-05   0.54437561  0.001175135            0   0.54320047    1.5219996    2.0663752    3.8010438 
19265000   0.98363455 -2.0621059e-06   0.59485553  0.010076937            0   0.58477859    1.4570087    2.0518642    1.9462844 
19270000   0.96409972 -3.6873124e-05   0.59932815  0.016169401            0   0.58315875    1.4280727    2.0274009   0.13949691 
19275000   0.89497003 -0.00011019798   0.68077952 0.0044166718            0   0.67636285    1.3256744    2.0064539   -3.6356829 
19280000   0.99287367 -4.6725688e-06   0.53817989  0.002155175            0   0.53602471    1.4706941     2.008874    1.7696385 
19285000    1.0064901 7.7148837e-05   0.52130161 0.0012112675            0   0.52009035    1.4908635    2.0121651    5.9621855 
19290000   0.96750658 -4.5647506e-05   0.58750334 0.00023209457            0   0.58727124    1.4331191    2.0206225  -0.31652987 
19295000   0.89267947 -5.5408668e-05    0.7031586  0.010322032            0   0.69283657    1.3222815    2.0254401  -0.81148374 
19300000   0.98853477 9.4990726e-05   0.54693726   0.01852579            0   0.52841147    1.4642671    2.0112044    6.8747295 
19305000   0.96509968 -4.4106689e-05    0.5934087 0.0034177998            0    0.5899909    1.4295539    2.0229626  -0.23529987 
19310000   0.94453481 -3.2230522e-05   0.60828151 0.0023613732            0   0.60592013    1.3990922    2.0073737   0.35717097 
19315000    1.0415447 6.5017973e-05   0.48937589 0.0031440983            0   0.48623179    1.5427881     2.032164    5.3610842 
19320000   0.95735188 1.0041773e-05    0.6322581 0.0057596936            0    0.6264984    1.4180775    2.0503356    2.5644743 
19325000    1.0025116 0.00010914857   0.55802707  0.015389858            0   0.54263721    1.4849702    2.0429973    7.6314041 
19330000   0.95361229 4.2135577e-05   0.62564498  0.020321812            0   0.60532317    1.4125382    2.0381832    4.1955247 
19335000   0.92191748 7.4796004e-06   0.65599828  0.031703583            0    0.6242947    1.3655903    2.0215885    2.4045441 
19340000   0.96833182 2.880851e-05   0.55798092   0.01483451            0   0.54314641    1.4343415    1.9923224    3.4673182 
19345000   0.93604011 -0.00010221107   0.58236066  0.010832555            0   0.57152811    1.3865094    1.9688701   -3.2643367 
19350000   0.91766614 -7.0475428e-05   0.62929447 0.00098036748            0    0.6283141     1.359293    1.9885874   -1.6197545 
19355000   0.98669318 -2.6703196e-05   0.54525331  0.004646673            0   0.54060664    1.4615393    2.0067926   0.63958894 
19360000   0.96593672 4.4202746e-05   0.59708987 0.0047915951            0   0.59229827    1.4307938    2.0278836    4.2910642 
19365000    0.9988019 0.0001259692   0.56979211  0.001121183            0   0.56867093    1.4794753    2.0492674    8.4988905 
19370000    1.0341389 3.9966564e-05   0.52360508 1.5278244e-05            0   0.52358981    1.5318182    2.0554233    4.1017114 
19375000    1.0650559 5.3324283e-05   0.53891482 0.0005075716            0   0.53840725    1.5776141    2.1165289    4.8467322 
19380000    1.0400598 3.9418594e-05   0.57886889 0.0011302066            0   0.57773868    1.5405886    2.1194575    4.1376895 
19385000    1.0354027 -7.1036051e-07   0.54133603 0.0049328881            0   0.53640315    1.5336903    2.0750263    2.0386558 
19390000    1.0870414 2.0890644e-05   0.45994221  0.022808757            0   0.43713345      1.61018    2.0701222    3.1397232 
19395000   0.99586741 -3.0097984e-05   0.59404477  0.055954396            0   0.53809038    1.4751286    2.0691734   0.52815659 
19400000    1.0499974 8.940798e-05   0.47783217  0.015586924            0   0.46224525    1.5553086    2.0331408    6.6108293 
19405000   0.96853487 7.6715522e-05   0.61812572     0.028498            0   0.58962772    1.4346423     2.052768    5.9806027 
19410000    1.0306863 9.2011682e-06    0.5173189  0.015153254            0   0.50216565    1.5267041     2.044023    2.5151228 
19415000   0.97077947 3.8382848e-05    0.6151873  0.047090779            0   0.56809652    1.4379671    2.0531544    4.0183562 
19420000    1.0303265 -6.8936577e-05   0.49784441 0.0097004164            0   0.48814399    1.5261712    2.0240156   -1.5055372 
19425000   0.99995523 1.124377e-05   0.54098387 0.00014359999            0   0.54084027    1.4811837    2.0221676    2.5978486 
19430000   0.94875326 6.0643302e-05   0.59528958 0.0009881367            0   0.59430144    1.4053408    2.0006303    5.1055674 
19435000   0.97203401 -2.3823256e-05    0.5695478 0.0012646459            0   0.56828316    1.4398254    2.0093732   0.78962247 
19440000    1.0124086 3.1787148e-05   0.48676282 0.0070143082            0   0.47974851    1.4996302     1.986393     3.613895 
19445000    1.0324873 -8.939406e-05   0.48230617  0.021826717            0   0.46047946    1.5293718    2.0116779   -2.5652979 
19450000   0.96584883 -0.00012741034   0.59882852  0.013742519            0     0.585086    1.4306636    2.0294921   -4.4939175 
19455000   0.97851797 2.553282e-05   0.55804367  0.001751597            0   0.55629207    1.4494297    2.0074734    3.3147538 
19460000    1.0340713 -1.7410901e-05   0.46722882  0.004042138            0   0.46318668    1.5317181    1.9989469    1.1075087 
19465000   0.99730843 -5.2475568e-06   0.53005733 0.0098047731            0   0.52025255    1.4772631    2.0073204    1.7386455 
19470000   0.98280815 4.870366e-05   0.57084918  0.013898675            0   0.55695051    1.4557846    2.0266338    4.5202611 
19475000     1.032804 -0.00011402316   0.48785359  0.011814102            0   0.47603949    1.5298409    2.0176945   -3.8202915 
19480000   0.88265051 -0.00015743045   0.67951287 0.0043936165            0   0.67511925    1.3074261    1.9869389   -6.0734999 
19485000    1.0140729 -1.4199191e-05   0.48517679 0.0001860191            0   0.48499077    1.5020954    1.9872722    1.2602736 
19490000   0.95605339 5.0459057e-06    0.5994719  0.001781943            0   0.59768996    1.4161541     2.015626    2.2739764 
19495000   0.94800131 0.00014097928   0.60632823 0.0036022128            0   0.60272602    1.4042269    2.0105552    9.2286944 
19500000    1.0259998 -7.7699016e-05   0.49896746 0.0013489176            0   0.49761855    1.5197622    2.0187296     -1.95946 
19505000    1.0318127 -5.5594422e-05   0.46694322  0.011953879            0   0.45498934    1.5283725    1.9953158  -0.85111863 
19510000   0.96092784 -3.8894523e-05   0.57206443   0.05592337            0   0.51614106    1.4233744    1.9954388 0.0040392326 
19515000   0.90804345 2.926855e-05   0.60249492  0.047922223            0    0.5545727    1.3450394    1.9475343    3.4460841 
19520000   0.96131343 3.8106877e-05   0.50618419  0.022166895            0   0.48401729    1.4239455    1.9301297    3.8812018 
19525000   0.97109536 6.9282252e-05   0.52555042  0.033833281            0   0.49171714     1.438435    1.9639854    5.5112367 
19530000   0.98558339 0.00011675912   0.49433078  0.014681459            0   0.47964932    1.4598954    1.9542262    7.9322929 
19535000   0.98233986 -1.4861831e-05   0.52144091  0.013392462            0   0.50804844    1.4550909    1.9765318    1.2156061 
19540000   0.96473454 4.8714821e-05   0.55485469  0.041867491            0    0.5129872     1.429013    1.9838677    4.4780666 
19545000    1.0157767 -2.5008409e-05   0.50977751  0.027687671            0   0.48208984    1.5046193    2.0143968   0.73396625 
19550000     1.078227 5.2152404e-05   0.42517524  0.015159237            0     0.410016    1.5971238     2.022299    4.6925021 
19555000    1.0099101 7.7275294e-05   0.54154099  0.017486836            0   0.52405415    1.4959294    2.0374704    5.9939654 
19560000    1.0231735 5.9989854e-05   0.54130813  0.041243968            0   0.50006416    1.5155757    2.0568838    5.1283643 
19565000    1.0099572 4.0198227e-06   0.55327334  0.032485176            0   0.52078816    1.4959992    2.0492725    2.2550874 
19570000   0.99695028 7.7516889e-05   0.59276721  0.092313028            0   0.50045418    1.4767326    2.0694998    6.0383645 
19575000     1.013991 -4.6162608e-05   0.58044148  0.022424132            0   0.55801734    1.5019742    2.0824157  -0.28110984 
19580000    1.0258355 -0.00017802113   0.57420416 0.0025017223            0   0.57170243    1.5195189     2.093723    -7.020959 
19585000    1.0570139 -0.00014210019   0.51727581  0.007231372            0   0.51004443    1.5657018    2.0829776   -5.1925524 
19590000   0.94354979 5.5800386e-05   0.68860777  0.005483138            0   0.68312463    1.3976331    2.0862409    4.9432207 
19595000    1.0716845 4.6110724e-05   0.52323545  0.010974215            0   0.51226124    1.5874327    2.1106681    4.4715372 
19600000     1.096731 -6.13214e-05   0.49305378  0.019803415            0   0.47325036    1.6245328    2.1175866   -1.0220691 
19605000   0.96628516 9.8749763e-06   0.66494109  0.027356522            0   0.63758457    1.4313099     2.096251    2.6018498 
19610000   0.97729891 9.4970385e-05   0.66158007  0.073367695            0   0.58821237     1.447624    2.1092041    6.9716878 
19615000    1.0603636 5.592984e-05   0.53990531  0.015344705            0    0.5245606    1.5706636    2.1105689    4.9741767 
19620000    1.0619362 9.3748015e-05   0.52732844 0.0053235937            0   0.52200485     1.572993    2.1003215    6.9002198 
19625000      1.06152 -5.5110659e-05   0.55344627  0.015466409            0   0.53797986    1.5723766    2.1258228  -0.69584291 
19630000    1.0103059 -0.00017492798   0.63145634  0.013261961            0   0.61819438    1.4965156     2.127972   -6.8283409 
19635000     1.065464 -9.9274058e-05   0.54623541  0.014954413            0   0.53128099    1.5782185    2.1244539   -2.9583779 
19640000    1.0462189 -9.5360323e-05    0.5640674  0.014242274            0   0.54982512    1.5497118    2.1137792   -2.7686694 
19645000    1.1103499 -0.00011320245    0.5007304 0.0023365589            0   0.49839385    1.6447057    2.1454361   -3.6505292 
19650000    1.0103734 1.6467101e-05    0.6406939 0.00082210719            0   0.63987179    1.4966156    2.1373095    2.9804251 
19655000    1.0895251 2.9288472e-05   0.51266137  0.015836954            0   0.49682442    1.6138591    2.1265205    3.6260902 
19660000    1.1107378 1.3293868e-05   0.44726687  0.015342689            0   0.43192418    1.6452804    2.0925472    2.7731933 
19665000    1.0452965 2.0722918e-05   0.55591657 0.0015162909            0   0.55440028    1.5483455    2.1042621    3.1652755 
19670000    1.0731153 2.5720702e-05   0.51140272 0.0013574344            0   0.51004528     1.589552    2.1009547    3.4178547 
19675000    1.0113156 -5.2501393e-05    0.5920199 0.0040223709            0   0.58799753    1.4980113    2.0900312  -0.59804014 
19680000    1.0372399 2.9895097e-06   0.59127576  0.018180421            0   0.57309534    1.5364117    2.1276874    2.2807503 
19685000    1.0909835 3.9109337e-05   0.49824911   0.01188432            0   0.48636479    1.6160194    2.1142685    4.1166665 
19690000    1.0847253 3.1289371e-05   0.51924753 0.0040625539            0   0.51518498    1.6067493    2.1259968    3.7280126 
19695000   0.98878105 9.4399941e-06    0.6371052 0.0014369486            0   0.63566825    1.4646319    2.1017371    2.5850648 
19700000    1.0867603  6.61399e-07   0.48737654 0.0099052099            0   0.47747133    1.6097636    2.0971402    2.1310038 
19705000    1.0373738 1.034121e-05   0.56308293   0.01036601            0   0.55271692    1.5366099    2.0996929    2.6291628 
19710000    1.0695884 1.4738569e-05   0.54347242  0.012167925            0   0.53130449    1.5843278    2.1278002    2.8824149 
19715000    1.0188614 1.0370002e-05   0.62060318  0.074724974            0   0.54587821    1.5091884    2.1297916    2.6607357 
19720000     1.066384 -7.9061691e-05   0.55233919  0.045425353            0   0.50691384    1.5795814    2.1319206    -1.916038 
19725000    1.0235323 -0.0001160785   0.61769171  0.015584184            0   0.60210753    1.5161073     2.133799   -3.8094202 
19730000    1.0645033 9.5758034e-05   0.53845452  0.012891942            0   0.52556258    1.5767955      2.11525    7.0180614 
19735000    1.0228011 0.00015241478   0.64525773   0.04302393            0    0.6022338    1.5150241    2.1602818    9.9639188 
19740000    1.0517503 -4.7812832e-05   0.60501897  0.028343303            0   0.57667566    1.5579051    2.1629241  -0.28509288 
19745000    1.0292412 -3.7526545e-05   0.61444996  0.024882905            0   0.58956706    1.5245636    2.1390135   0.21765442 
19750000    1.0700261 7.0629475e-05   0.54943379  0.034702178            0   0.51473161    1.5849761    2.1344099     5.750639 
19755000    1.0802122 6.9512576e-05   0.53881748  0.013278884            0    0.5255386    1.6000644    2.1388819    5.6979258 
19760000    1.0581909 -9.7746287e-05   0.55508901  0.001112337            0   0.55397668    1.5674453    2.1225343   -2.8820756 
19765000    1.1116189 -0.00012431559   0.49007379  0.013536205            0   0.47653759    1.6465855    2.1366593   -4.2282989 
19770000    1.0886194 1.0684899e-05   0.56090822  0.018864559            0   0.54204366    1.6125175    2.1734257    2.7204926 
19775000    1.0422939 4.4437525e-06   0.64396851  0.024765256            0   0.61920326    1.5438978    2.1878663    2.4153864 
19780000    1.0890792 9.9146124e-06   0.59312195  0.022299211            0   0.57082274    1.6131986    2.2063205    2.7139487 
19785000    1.0974764 -9.8245221e-05    0.6006447 0.0056730583            0   0.59497164    1.6256369    2.2262817   -2.8038737 
19790000    1.1118555 -0.00010710671   0.60689352  0.020159038            0   0.58673448     1.646936    2.2538295   -3.2300341 
19795000     1.113272 4.8460482e-05   0.57750803  0.014942944            0   0.56256508    1.6490342    2.2265422    4.7077189 
19800000    1.1338335 1.3973441e-05   0.57020584  0.022678119            0   0.54752772    1.6794908    2.2496967    2.9651369 
19805000    1.0805455 -8.6659992e-05   0.63549107  0.087354199            0   0.54813687    1.6005581    2.2360491   -2.2009424 
19810000    1.0733666 -0.00015229824   0.65293995  0.046441401            0   0.60649855    1.5899243    2.2428643   -5.5548056 
19815000    1.0804163 -9.6785926e-05   0.64378145  0.043122448            0   0.60065901    1.6003667    2.2441481   -2.7112913 
19820000    1.1063377 -1.8838511e-05   0.57887415  0.024253771            0   0.55462038    1.6387627    2.2176369    1.2531051 
19825000    1.0574176 0.00011935709   0.64711613  0.023819833            0    0.6232963    1.5662998    2.2134159    8.3244988 
19830000    1.0167243 5.7915582e-05   0.68018664  0.040945745            0    0.6392409    1.5060228    2.1862095    5.1514873 
19835000    1.0836432 -6.0606836e-06   0.58610377  0.059046615            0   0.52705715    1.6051464    2.1912502    1.8809432 
19840000    1.0748377 2.0055997e-05   0.60580135  0.026565513            0   0.57923583    1.5921034    2.1979047    3.2247718 
19845000    1.0142109 -4.156921e-05   0.72264735  0.020973939            0   0.70167341    1.5022999    2.2249472  0.096603684 
19850000    1.0670767 -6.860345e-05   0.68641969  0.053390076            0   0.63302961    1.5806074     2.267027   -1.2454696 
19855000     1.091161 -8.9542961e-05   0.66152906  0.026330388            0   0.63519867    1.6162822    2.2778112   -2.3067884 
19860000    1.1192887 -5.354886e-05   0.64290136   0.01875224            0   0.62414912    1.6579463    2.3008477  -0.44085394 
19865000    1.0655454 -8.289621e-05   0.71595833  0.037478072            0   0.67848026    1.5783391    2.2942974   -1.9499885 
19870000    1.1278636 -1.4744858e-05   0.64723083  0.051042033            0    0.5961888     1.670648    2.3178788    1.5629421 
19875000      1.18164 0.00014134447    0.5892763   0.02791804            0   0.56135826    1.7503043    2.3395806    9.5764177 
19880000    1.1454676 9.5657456e-05   0.63043008  0.052959949            0   0.57747014    1.6967238    2.3271539    7.2248157 
19885000    1.1432639 0.00010490902   0.63506033   0.05843002            0   0.57663031    1.6934596      2.32852    7.6998618 
19890000    1.0968333 -3.4099078e-05   0.75138617  0.022083557            0   0.72930261    1.6246844    2.3760705   0.63019774 
19895000    1.1127678 -0.00018625211   0.71557773  0.014585325            0    0.7009924    1.6482873     2.363865   -7.1722429 
19900000    1.1500448 -3.9087675e-05   0.66370362  0.013162671            0   0.65054095    1.7035038    2.3672074   0.36591849 
19905000    1.1773921 6.572119e-05   0.64850401  0.015431163            0   0.63307285     1.744012     2.392516     5.757441 
19910000    1.2553306 -3.4612657e-05   0.49448039  0.010765509            0   0.48371489    1.8594584    2.3539388   0.58177074 
19915000     1.199611 4.9982958e-05    0.5797375  0.011514057            0   0.56822345    1.7769238    2.3566613    4.9157887 
19920000        1.117 0.00013999946   0.67355152  0.040432296            0   0.63311922    1.6545562    2.3281077    9.4960801 
19925000    1.1559653 -5.4783206e-06   0.60239795  0.075349178            0   0.52704877    1.7122736    2.3146715    2.0341815 
19930000     1.071432 -5.9610778e-05   0.68984177   0.05464422            0   0.63519755    1.5870586    2.2769004  -0.77517144 
19935000    1.1294287 -8.1087827e-05   0.63100854  0.024945838            0    0.6060627    1.6729663    2.3039749   -1.8477218 
19940000    1.0748786 -7.0449377e-05   0.68436486  0.048171442            0   0.63619342    1.5921639    2.2765288   -1.3304793 
19945000    1.0311715 5.4641721e-05   0.72545365    0.0451382            0   0.68031545    1.5274228    2.2528764    5.0505325 
19950000    1.0393508 0.00015128463   0.67964147  0.032997494            0   0.64664397    1.5395384    2.2191799    9.9649532 
19955000    1.0548338 0.00011347853   0.64349244  0.099489755            0   0.54400269    1.5624726    2.2059651    8.0160656 
19960000   0.98153758 2.2871163e-05   0.73565784  0.071263554            0   0.66439429    1.4539025    2.1895604     3.360564 
19965000    1.0344641 5.1926284e-05    0.6499613  0.021631425            0   0.62832987    1.5322999    2.1822612    4.8408869 
19970000    1.1221365 5.0122305e-05   0.53579833  0.026437851            0   0.50936048    1.6621646     2.197963     4.764225 
19975000    1.1090456 3.3814819e-05   0.54339147   0.06068757            0   0.48270391    1.6427738    2.1861653     3.917484 
19980000    1.0307236 -2.0739112e-06   0.63928579  0.026106131            0   0.61317966    1.5267594    2.1660452    2.0598609 
19985000    1.0005149 3.4871156e-05   0.68162773  0.013428054            0   0.66819968    1.4820127    2.1636404    3.9490436 
19990000    1.0869353 -0.00010508313   0.55356914  0.034381912            0   0.51918723    1.6100229     2.163592    -3.216664 
19995000    1.1360136 -1.3668916e-05   0.52169005  0.045854667            0   0.47583539    1.6827201    2.2044102    1.5045616 
20000000     1.147346 9.5370166e-06    0.4974979   0.06019905            0   0.43729885    1.6995062    2.1970041    2.6852994 
Loop time of 181.797 on 1 procs for 20000000 steps with 80 atoms

Performance: 95050.998 tau/day, 110012.729 timesteps/s
99.4% CPU use with 1 MPI tasks x no OpenMP threads

MPI task timing breakdown:
Section |  min time  |  avg time  |  max time  |%varavg| %total
---------------------------------------------------------------
Pair    | 8.2164     | 8.2164     | 8.2164     |   0.0 |  4.52
Bond    | 23.834     | 23.834     | 23.834     |   0.0 | 13.11
Neigh   | 20.406     | 20.406     | 20.406     |   0.0 | 11.22
Comm    | 50.656     | 50.656     | 50.656     |   0.0 | 27.86
Output  | 0.48756    | 0.48756    | 0.48756    |   0.0 |  0.27
Modify  | 71.197     | 71.197     | 71.197     |   0.0 | 39.16
Other   |            | 7          |            |       |  3.85

Nlocal:        80.0000 ave          80 max          80 min
Histogram: 1 0 0 0 0 0 0 0 0 0
Nghost:        0.00000 ave           0 max           0 min
Histogram: 1 0 0 0 0 0 0 0 0 0
Neighs:        33.0000 ave          33 max          33 min
Histogram: 1 0 0 0 0 0 0 0 0 0

Total # of neighbors = 33
Ave neighs/atom = 0.4125
Ave special neighs/atom = 5.8500000
Neighbor list builds = 3910
Dangerous builds = 0
write_restart restart.equil
System init for write_restart ...
WARNING: Communication cutoff 1.4200000000000002 is shorter than a bond length based estimate of 1.8. This may lead to errors. (../comm.cpp:667)
#--------------End of Input file ------------------
Total wall time: 0:03:01
