LAMMPS (29 Oct 2020)
###################### polyelectrolyte complexation ######################
clear

#Initialization
#------------------------------------
units				lj
dimension			3
atom_style			full
boundary			p p p

#Atom Definition
#-------------------------------------
read_data			data.complexation
Reading data file ...
  orthogonal box = (-80.000000 -80.000000 -80.000000) to (80.000000 80.000000 80.000000)
  1 by 1 by 1 MPI processor grid
  reading atoms ...
  120 atoms
  scanning bonds ...
  1 = max bonds/atom
  reading bonds ...
  119 bonds
Finding 1-2 1-3 1-4 neighbors ...
  special bond factors lj:    0.0      0.0      0.0     
  special bond factors coul:  0.0      0.0      0.0     
     2 = max # of 1-2 neighbors
     2 = max # of 1-3 neighbors
     4 = max # of 1-4 neighbors
     6 = max # of special neighbors
  special bonds CPU = 0.000 seconds
  read_data CPU = 0.002 seconds

#Force definition
#----------------------------------------------
#Bond definition
bond_style			harmonic
bond_coeff			1 5000 1
#Pair definition
special_bonds	lj 0 1 1
Finding 1-2 1-3 1-4 neighbors ...
  special bond factors lj:    0.0      1.0      1.0     
  special bond factors coul:  0.0      0.0      0.0     
     2 = max # of 1-2 neighbors
     2 = max # of 1-3 neighbors
     4 = max # of 1-4 neighbors
     6 = max # of special neighbors
  special bonds CPU = 0.000 seconds
pair_style		 lj/cut 1.12
pair_modify 		 shift yes
pair_coeff	1 1 1 1 1.12

#Timestep etc
#--------------------------------------------
timestep		1e-05
run_style		verlet
velocity		all	create	1	12

#Fix
#---------------------------------------
group polymers type 1
120 atoms in group polymers
fix 1 all nve
fix 2 all langevin 1	1	10	12
fix 3 polymers recenter INIT INIT INIT units box

#Dump
#------------------------------------------------
compute  1 all gyration
variable  myRg2 equal c_1
variable  i equal step
fix  mythermofile all print 5000 "$i ${myRg2}" file radius_of_gyration.dat screen no

thermo_style		 custom step temp press pe evdwl ecoul ebond ke etotal enthalpy
thermo 	5000
dump	3 all custom 5000 dump.lammpstrj id mol type xu yu zu
run		20000000
Neighbor list info ...
  update every 1 steps, delay 10 steps, check yes
  max neighbors/atom: 2000, page size: 100000
  master list distance cutoff = 1.42
  ghost atom cutoff = 1.42
  binsize = 0.71, bins = 226 226 226
  1 neighbor lists, perpetual/occasional/extra = 1 0 0
  (1) pair lj/cut, perpetual
      attributes: half, newton on
      pair build: half/bin/newton
      stencil: half/bin/3d/newton
      bin: standard
WARNING: Communication cutoff 1.4200000000000002 is shorter than a bond length based estimate of 1.8. This may lead to errors. (../comm.cpp:667)
Per MPI rank memory allocation (min/avg/max) = 54.72 | 54.72 | 54.72 Mbytes
Step Temp Press PotEng E_vdwl E_coul E_bond KinEng TotEng Enthalpy 
       0            1 2.9052734e-05            0            0            0            0       1.4875       1.4875    2.4791667 
    5000   0.78956937 -0.00049601833   0.32265709            0            0   0.32265709    1.1744844    1.4971415   -15.433618 
   10000   0.41092731 -0.0010751921   0.87822699            0            0   0.87822699   0.61125437    1.4894814   -35.210409 
   15000   0.70756039 -0.00047943937   0.44764178            0            0   0.44764178    1.0524961    1.5001379   -14.864726 
   20000   0.76769675 -0.00035830165   0.37112597            0            0   0.37112597    1.1419489    1.5130749   -10.716955 
   25000   0.55106971 -0.00088201541   0.71486481            0            0   0.71486481   0.81971619     1.534581   -28.571545 
   30000   0.72231103 -0.00056142284   0.46386481            0            0   0.46386481    1.0744377    1.5383025   -17.624931 
   35000   0.79494768 -0.0001619397    0.3357845            0            0    0.3357845    1.1824847    1.5182692   -4.0092726 
   40000   0.68008681 -0.0004116496   0.50248817            0            0   0.50248817    1.0116291    1.5141173   -12.536856 
   45000   0.58079534 -0.00080849802   0.64009372            0            0   0.64009372   0.86393308    1.5040268   -26.092705 
   50000   0.75654344 -0.00034130767   0.37688422            0            0   0.37688422    1.1253584    1.5022426   -10.147726 
   55000   0.74820942 -0.00021723147   0.37639649            0            0   0.37639649    1.1129615     1.489358   -5.9254763 
   60000   0.70593428 -0.00043627803   0.44962511            0            0   0.44962511    1.0500772    1.4997023   -13.391921 
   65000   0.75952877 -0.0004550424   0.36650806            0            0   0.36650806     1.129799    1.4963071   -14.035807 
   70000   0.82623442 -0.00015392815   0.27550218            0            0   0.27550218    1.2290237    1.5045259    -3.749555 
   75000   0.77577442 -0.00017431834   0.32200319            0            0   0.32200319    1.1539645    1.4759676   -4.4740983 
   80000    0.7668142 -0.0003710094    0.3301706            0            0    0.3301706    1.1406361    1.4708067   -11.192981 
   85000   0.77518701 -0.00016524695   0.32673803            0            0   0.32673803    1.1530907    1.4798287   -4.1606007 
   90000   0.80090723 4.4581445e-06   0.28302194            0            0   0.28302194    1.1913495    1.4743715    1.6265428 
   95000   0.81224938 -0.00023196063   0.27336758            0            0   0.27336758     1.208221    1.4815885   -6.4360011 
  100000   0.75879629 -0.00027710789   0.35809374            0            0   0.35809374    1.1287095    1.4868032   -7.9718128 
  105000   0.81351521 1.401203e-05   0.28961618            0            0   0.28961618    1.2101039      1.49972    1.9779973 
  110000   0.84425233 1.6838467e-05   0.22222743            0            0   0.22222743    1.2558253    1.4780528    2.0528058 
  115000   0.81043409 -0.00012826101   0.29830801            0            0   0.29830801    1.2055207    1.5038287   -2.8741472 
  120000   0.78445669 -4.6175487e-05   0.33502375            0            0   0.33502375    1.1668793    1.5019031 -0.074220191 
  125000   0.85521782 -8.7186641e-06   0.23303633            0            0   0.23303633    1.2721365    1.5051728    1.2075758 
  130000   0.80266004 -3.8408051e-05   0.32051526            0            0   0.32051526    1.1939568    1.5144721   0.20347726 
  135000   0.83769148 5.9358833e-05    0.2735061            0            0    0.2735061    1.2460661    1.5195722     3.545687 
  140000   0.83314006 -6.5446975e-05   0.30749569            0            0   0.30749569    1.2392958    1.5467915  -0.68713188 
  145000   0.79085513 -0.00018762279   0.36337595            0            0   0.36337595     1.176397     1.539773   -4.8644181 
  150000   0.85846771 0.00010468824   0.27118083            0            0   0.27118083    1.2769707    1.5481516    5.1215101 
  155000   0.86343056 4.8786043e-05   0.25510452            0            0   0.25510452     1.284353    1.5394575    3.2046878 
  160000   0.81217332 -0.00020913679   0.32111729            0            0   0.32111729    1.2081078    1.5292251   -5.6093105 
  165000   0.83735868 -4.7280135e-05   0.27560083            0            0   0.27560083     1.245571    1.5211719 -0.092656726 
  170000   0.82077487 6.4203185e-05    0.2939815            0            0    0.2939815    1.2209026    1.5148841    3.7063529 
  175000   0.79244502 -8.8618883e-05   0.32936005            0            0   0.32936005     1.178762     1.508122   -1.5167359 
  180000   0.81986011 -6.2605004e-07   0.28371505            0            0   0.28371505    1.2195419     1.503257    1.4818878 
  185000   0.82444603 -1.5063312e-05   0.27475916            0            0   0.27475916    1.2263635    1.5011226   0.98696157 
  190000   0.77829919 -1.2155886e-05   0.34859142            0            0   0.34859142    1.1577201    1.5063115    1.0913906 
  195000   0.84656031 5.2644256e-05   0.24964838            0            0   0.24964838    1.2592585    1.5089068    3.3058308 
  200000   0.79185499 4.2775934e-05   0.31417302            0            0   0.31417302    1.1778843    1.4920573    2.9521425 
  205000   0.78206928 -0.00017198371   0.35640055            0            0   0.35640055    1.1633281    1.5197286   -4.3506488 
  210000   0.82717413 -1.8557567e-05   0.31147328            0            0   0.31147328    1.2304215    1.5418948    0.9084632 
  215000   0.81461688 0.00021208633    0.3497673            0            0    0.3497673    1.2117426    1.5615099    8.8007233 
  220000   0.85762706 -0.00022626192   0.30107996            0            0   0.30107996    1.2757202    1.5768002   -6.1462733 
  225000   0.84571486 -2.7104061e-05   0.31523794            0            0   0.31523794    1.2580008    1.5732388   0.64808683 
  230000   0.87910428 0.00022470397   0.28901065            0            0   0.28901065    1.3076676    1.5966783    9.2665737 
  235000    0.8536065 -0.00019888591   0.36556153            0            0   0.36556153    1.2697397    1.6353012   -5.1533378 
  240000   0.85161154 -1.8723835e-05   0.35975699            0            0   0.35975699    1.2667722    1.6265292   0.98742226 
  245000   0.86794707 0.00013275995   0.32267664            0            0   0.32267664    1.2910713    1.6137479    6.1452877 
  250000   0.83656986 -0.00011640594   0.38638046            0            0   0.38638046    1.2443977    1.6307781   -2.3425446 
  255000   0.84032234 4.9355114e-05   0.36618907            0            0   0.36618907    1.2499795    1.6161685    3.3008231 
  260000   0.86997705 -0.00010351613   0.32063762            0            0   0.32063762    1.2940909    1.6147285    -1.918622 
  265000   0.81097618 0.00011936263   0.41736945            0            0   0.41736945    1.2063271    1.6236965    5.6979409 
  270000   0.88518133 6.7151955e-05   0.31956243            0            0   0.31956243    1.3167072    1.6362697    3.9283897 
  275000   0.83241503 -0.000195754   0.40883662            0            0   0.40883662    1.2382174     1.647054   -5.0346827 
  280000   0.84574928 9.3893821e-05   0.38754055            0            0   0.38754055     1.258052    1.6455926    4.8505017 
  285000   0.78594251 1.2743888e-05   0.48730682            0            0   0.48730682    1.1690895    1.6563963    2.0913877 
  290000   0.83506648 -8.480348e-05   0.39875352            0            0   0.39875352    1.2421614    1.6409149   -1.2537105 
  295000   0.82486554 -0.00011396626   0.40004782            0            0   0.40004782    1.2269875    1.6270353   -2.2630129 
  300000   0.81659919 0.00017997953   0.43043215            0            0   0.43043215    1.2146913    1.6451234    7.7884247 
  305000   0.86154575 -2.193861e-05   0.37258118            0            0   0.37258118    1.2815493    1.6541305   0.90529261 
  310000    0.8069635 -0.0002513693   0.45432049            0            0   0.45432049    1.2003582    1.6546787   -6.9253933 
  315000   0.86039798 0.00020583027   0.38278174 3.0595725e-05            0   0.38275115     1.279842    1.6626237     8.688297 
  320000   0.89907485 3.7454597e-06   0.34530555 0.00044838008            0   0.34485717    1.3373738    1.6826794    1.8105244 
  325000   0.89491707 -0.00024137691   0.33673882 0.00068087081            0   0.33605795    1.3311891     1.667928   -6.5710707 
  330000   0.88859084 0.0002503371   0.35462098 7.9405093e-05            0   0.35454157    1.3217789    1.6763998     10.22124 
  335000   0.85530728 -8.1371636e-05   0.39793933            0            0   0.39793933    1.2722696    1.6702089   -1.1072763 
  340000   0.81255623 -0.0001298211    0.4611023 3.7319128e-06            0   0.46109857    1.2086774    1.6697797   -2.7614472 
  345000   0.85196403  0.000226945   0.39237079 0.0010980007            0   0.39127279    1.2672965    1.6596673    9.4060565 
  350000   0.85819378 -5.0175949e-05   0.38954988 0.0013681835            0    0.3881817    1.2765632    1.6661131 -0.046559276 
  355000     0.859739 6.2920767e-05   0.37843475 0.00067127889            0   0.37776347    1.2788618    1.6572965     3.804992 
  360000   0.82778999 -0.00016121449   0.42168739 0.00016243672            0   0.42152496    1.2313376     1.653025   -3.8497628 
  365000   0.85040449 0.00012319159   0.39233398            0            0   0.39233398    1.2649767    1.6573107    5.8622502 
  370000   0.86007151 -3.0922079e-05   0.37939062            0            0   0.37939062    1.2793564     1.658747   0.60327337 
  375000   0.84057596 -4.4561654e-05   0.45154024            0            0   0.45154024    1.2503567     1.701897    0.1808592 
  380000   0.87671578 2.8055261e-05   0.40748114            0            0   0.40748114    1.3041147    1.7115959    2.6692154 
  385000   0.88320533 8.0534531e-06   0.39426577            0            0   0.39426577    1.3137679    1.7080337    1.9829249 
  390000   0.91455816 6.9390243e-06    0.3725958            0            0    0.3725958    1.3604053    1.7330011    1.9698531 
  395000   0.84554423 -6.5609224e-05   0.47753221            0            0   0.47753221     1.257747    1.7352793  -0.50418225 
  400000   0.90687425 6.300809e-05   0.39644992            0            0   0.39644992    1.3489754    1.7454254    3.8961015 
  405000   0.88383274 -0.0001236278   0.41174498            0            0   0.41174498    1.3147012    1.7264462   -2.4933828 
  410000   0.92850869 -1.9526537e-05   0.36497596            0            0   0.36497596    1.3811567    1.7461326    1.0796268 
  415000   0.89139936 0.00019480604   0.41393542            0            0   0.41393542    1.3259565     1.739892    8.3892716 
  420000    0.9058867 -0.00015180345   0.40845663            0            0   0.40845663    1.3475065    1.7559631   -3.4255945 
  425000   0.89666344 7.518058e-05   0.42024205            0            0   0.42024205    1.3337869    1.7540289    4.3201927 
  430000   0.87771319 -0.00010374074    0.4663349            0            0    0.4663349    1.3055984    1.7719333   -1.7690838 
  435000   0.86939006 4.9956182e-06   0.48142917            0            0   0.48142917    1.2932177    1.7746469     1.945164 
  440000   0.92335802 1.9538827e-06   0.39564208            0            0   0.39564208    1.3734951    1.7691371    1.8358297 
  445000   0.86457922 4.307647e-05   0.47947995            0            0   0.47947995    1.2860616    1.7655415     3.235885 
  450000   0.82233294 -0.0002245889   0.54985226            0            0   0.54985226    1.2232202    1.7730725   -5.8928954 
  455000   0.89869949 0.00012694376   0.44726509            0            0   0.44726509    1.3368155    1.7840806    6.1170943 
  460000   0.90084211 -7.4436215e-05    0.4545519            0            0    0.4545519    1.3400026    1.7945545   -0.7462016 
  465000   0.91455149 4.8963761e-06   0.45162413            0            0   0.45162413    1.3603953    1.8120195    1.9791491 
  470000   0.90153973 -3.3346621e-05   0.46929611            0            0   0.46929611    1.3410403    1.8103365   0.67210514 
  475000   0.95637887 -1.2425682e-05   0.41035612            0            0   0.41035612    1.4226136    1.8329697    1.4088397 
  480000   0.91020352 -0.00010437725   0.47913916            0            0   0.47913916    1.3539277    1.8330669   -1.7296764 
  485000   0.94060349 0.00010395298   0.43013528            0            0   0.43013528    1.3991477     1.829283    5.3775447 
  490000    0.9372034 -0.0001111927   0.44578067            0            0   0.44578067    1.3940901    1.8398707   -1.9555068 
  495000   0.95250812 0.00014678963   0.44560731            0            0   0.44560731    1.4168558    1.8624631    6.8728825 
  500000   0.96585085 -0.00011799184   0.42910061 3.8720765e-05            0   0.42906189    1.4367031    1.8658037   -2.1616509 
  505000   0.96610284 -3.2925014e-06   0.43473194 0.00018795835            0   0.43454398     1.437078    1.8718099    1.7594259 
  510000   0.90093459 4.3496992e-06   0.53822182 0.00027387339            0   0.53794795    1.3401402     1.878362    2.0268318 
  515000    1.0144249 -3.3012481e-05   0.38415146 3.4577653e-05            0   0.38411688    1.5089571    1.8931086   0.76628253 
  520000   0.99242338 3.1952682e-05   0.39897257 3.9679239e-06            0    0.3989686    1.4762298    1.8752024    2.9658539 
  525000     1.045485 3.2571131e-05   0.33370673            0            0   0.33370673     1.555159    1.8888657     3.000627 
  530000     1.022655 -3.4966522e-05    0.3815369            0            0    0.3815369    1.5211992    1.9027361   0.70921219 
  535000   0.97006982 -3.0672987e-05   0.44039638            0            0   0.44039638    1.4429789    1.8833752   0.83640393 
  540000   0.97239942 -5.777917e-05   0.42910983            0            0   0.42910983    1.4464441     1.875554  -0.09664172 
  545000   0.94703188 -8.5111002e-05   0.45583745            0            0   0.45583745    1.4087099    1.8645474   -1.0405748 
  550000    0.9783085 0.00029502939   0.42285515            0            0   0.42285515    1.4552339     1.878089    11.948425 
  555000   0.96471038 -0.0002626184   0.45152228 0.00050918995            0   0.45101309    1.4350067     1.886529   -7.0775123 
  560000   0.93617342 8.9591269e-05   0.48571701 0.0042190348            0   0.48149798     1.392558     1.878275    4.9363236 
  565000   0.94496371 -5.033073e-05   0.45320026 0.0060293839            0   0.44717088    1.4056335    1.8588338   0.14087821 
  570000   0.91852914 -1.3304036e-05   0.49670711 0.0019712319            0   0.49473588    1.3663121    1.8630192    1.4089081 
  575000   0.92353018 0.00012883629   0.49122161            0            0   0.49122161    1.3737511    1.8649728    6.2625847 
  580000   0.96579104 -0.00015828141   0.43046676            0            0   0.43046676    1.4366142    1.8670809   -3.5355913 
  585000   0.95587946 7.2283415e-06   0.45293664            0            0   0.45293664    1.4218707    1.8748073    2.1215347 
  590000   0.96973315 -2.9249266e-06   0.44466175            0            0   0.44466175    1.4424781    1.8871398    1.7873023 
  595000    1.0006822 -5.6567204e-05   0.42864864            0            0   0.42864864    1.4885148    1.9171634 -0.013663781 
  600000   0.98286576 1.8586756e-06   0.45656995            0            0   0.45656995    1.4620128    1.9185828    1.9820256 
  605000    0.9983508 7.6470607e-05   0.44984116            0            0   0.44984116    1.4850468     1.934888    4.5450847 
  610000    1.0004253 -5.6610247e-06   0.43684377            0            0   0.43684377    1.4881326    1.9249764    1.7317468 
  615000   0.95633568 -3.1924282e-05    0.4968849            0            0    0.4968849    1.4225493    1.9194342   0.82975205 
  620000   0.97245616 -0.00012670243   0.47260503            0            0   0.47260503    1.4465285    1.9191336   -2.4056426 
  625000   0.96480668 0.00012043068   0.47625718            0            0   0.47625718    1.4351499    1.9114071    6.0221076 
  630000   0.91984874 -0.00013969213   0.52330169            0            0   0.52330169     1.368275    1.8915767   -2.8765814 
  635000   0.97473024 0.00011774268   0.46550764            0            0   0.46550764    1.4499112    1.9154189    5.9343689 
  640000   0.98484885 -5.1563308e-05   0.42849642            0            0   0.42849642    1.4649627    1.8934591    0.1334315 
  645000   0.89706551 0.0001207608   0.53228128            0            0   0.53228128    1.3343849    1.8666662    5.9886349 
  650000   0.97186899 5.2548653e-05   0.43197461            0            0   0.43197461    1.4456551    1.8776297    3.6712904 
  655000   0.93155352 9.1924274e-05   0.48528938            0            0   0.48528938    1.3856859    1.8709752    5.0086571 
  660000   0.98789086 -0.00019112467   0.41236829 0.00036432083            0   0.41200397    1.4694876    1.8818559    -4.641866 
  665000    1.0077658 7.4548123e-05   0.37084697 0.00047796055            0   0.37036901    1.4990517    1.8698986    4.4144746 
  670000   0.98290104 -1.3792903e-05   0.42799732 4.182135e-05            0    0.4279555    1.4620653    1.8900626    1.4192649 
  675000   0.97222629 -0.00014000616    0.4433886 0.00073672623            0   0.44265187    1.4461866    1.8895752   -2.8893019 
  680000   0.99695495 1.9201378e-05   0.41617247 0.0039296766            0   0.41224279    1.4829705     1.899143      2.55455 
  685000    0.9660315 -2.6808467e-05   0.45655751 0.0042790604            0   0.45227845    1.4369719    1.8935294   0.97846704 
  690000   0.96385885 8.9560388e-05   0.44677346 0.0014194041            0   0.44535405      1.43374    1.8805135    4.9375081 
  695000   0.93672494 -0.00015280072    0.5048851            0            0    0.5048851    1.3933783    1.8982635   -3.3173344 
  700000   0.97859022 0.00016621464   0.44400348            0            0   0.44400348     1.455653    1.8996564     7.573116 
  705000    0.9715631 -6.8387195e-05    0.4341256            0            0    0.4341256    1.4452001    1.8793257  -0.45495722 
  710000     0.967513 9.6948625e-05   0.42045321            0            0   0.42045321    1.4391756    1.8596288    5.1688085 
  715000   0.94395338 -4.2958201e-05   0.45283456 3.6621502e-06            0    0.4528309    1.4041307    1.8569652   0.39065862 
  720000   0.94953654 -0.00016620395   0.43595435 2.3204688e-05            0   0.43593115    1.4124356      1.84839   -3.8247049 
  725000   0.91402108 0.00012703264   0.51008264 3.6426963e-06            0     0.510079    1.3596064     1.869689    6.2057364 
  730000   0.93218706 -0.0001946231   0.47095237            0            0   0.47095237    1.3866282    1.8575806   -4.7855545 
  735000   0.93733265 5.0411793e-05   0.44539602            0            0   0.44539602    1.3942823    1.8396783    3.5604009 
  740000   0.94027772 0.00012416335   0.44774711            0            0   0.44774711    1.3986631    1.8464102    6.0845193 
  745000   0.95168829 -0.00021935971   0.43295522            0            0   0.43295522    1.4156363    1.8485916   -5.6388865 
  750000   0.97200473 -1.2479689e-05   0.41184385            0            0   0.41184385     1.445857    1.8577009    1.4317275 
  755000   0.91421253 5.905577e-05    0.5115428            0            0    0.5115428    1.3598911    1.8714339    3.8872042 
  760000   0.94408609 -3.1172271e-05   0.42860161 0.00058557841            0   0.42801604    1.4043281    1.8329297   0.76891616 
  765000   0.89786957 -8.836622e-05   0.48808842 0.0043283594            0   0.48376006     1.335581    1.8236694   -1.1925642 
  770000   0.91508605 -5.6864817e-05   0.47772098 0.0041048988            0   0.47361608    1.3611905    1.8389115  -0.10207428 
  775000   0.91749882 0.0001153822   0.47939494 0.0019266874            0   0.47746825    1.3647795    1.8441744    5.7825536 
  780000   0.92823649 -9.2678643e-05   0.46256105 0.0049471222            0   0.45761393    1.3807518    1.8433128   -1.3201182 
  785000   0.91629898 -0.00010466172   0.50711437  0.005950485            0   0.50116389    1.3629947    1.8701091   -1.7023443 
  790000   0.91552527 7.0634823e-05   0.51893118 0.00071477808            0    0.5182164    1.3618438     1.880775     4.291777 
  795000   0.91588562 -8.4093641e-06   0.50986601            0            0   0.50986601    1.3623799    1.8722459    1.5852062 
  800000   0.93553316 0.00010492638   0.43414824 0.00059096114            0   0.43355728    1.3916056    1.8257538    5.4072408 
  805000   0.90066196 -0.00012573834   0.46807077 0.0019839484            0   0.46608683    1.3397347    1.8078054   -2.4840633 
  810000   0.91486487 4.7113753e-05   0.47304678 0.0021950159            0   0.47085176    1.3608615    1.8339083    3.4420577 
  815000   0.95036508 4.8471566e-05   0.43090626 0.0023511422            0   0.42855512    1.4136681    1.8445743    3.4990704 
  820000   0.93422246 -7.7859084e-05   0.42976743 0.0039762788            0   0.42579115    1.3896559    1.8194233  -0.83816672 
  825000   0.96882745 -0.00010457401   0.37202001 0.0023952575            0   0.36962475    1.4411308    1.8131508   -1.7563088 
  830000    0.9185842 -7.5442045e-05   0.42926965 0.00018493649            0   0.42908471     1.366394    1.7956637   -0.7794248 
  835000   0.94588228 -0.00011154635   0.40647508            0            0   0.40647508    1.4069999     1.813475   -1.9939737 
  840000   0.97292753 -0.00012689159   0.39425844            0            0   0.39425844    1.4472297    1.8414881    -2.489745 
  845000   0.92246037 -7.1276084e-10   0.43870011 9.8052224e-06            0    0.4386903    1.3721598    1.8108599    1.8108356 
  850000   0.89178961 3.7680223e-05   0.48528223 0.0039078707            0   0.48137436     1.326537    1.8118193    3.0979709 
  855000   0.88060602 9.2417817e-05   0.49672812 0.0098464521            0   0.48688167    1.3099014    1.8066296    4.9611577 
  860000   0.89779767 -8.1614765e-05   0.47382809 0.0047134366            0   0.46911465     1.335474    1.8093021  -0.97648185 
  865000   0.87745471 -0.00013005231   0.49237438 0.00039312179            0   0.49198126    1.3052139    1.7975883   -2.6415305 
  870000   0.93831161 -1.1984631e-05   0.39672797 4.3263344e-05            0   0.39668471    1.3957385    1.7924665    1.3833911 
  875000   0.88810237 -3.6767689e-05   0.46821587 0.00027274957            0   0.46794312    1.3210523    1.7892682   0.53426436 
  880000   0.90139456 8.1258682e-05   0.44438451 0.0005667957            0   0.44381771    1.3408244    1.7852089    4.5588386 
  885000   0.89680423 4.4892575e-05   0.43957211 0.00050831354            0   0.43906379    1.3339963    1.7735684    3.3059016 
  890000   0.90760137 -0.00011949252   0.43567217 0.00035583943            0   0.43531633     1.350057    1.7857292   -2.2929489 
  895000   0.84621709 7.7021171e-05   0.49982072 0.00010437424            0   0.49971634    1.2587479    1.7585686     4.387558 
  900000   0.83502183 1.529224e-06   0.50320075            0            0   0.50320075     1.242095    1.7452957    1.7974932 
  905000     0.847731 -5.7860554e-05   0.48726255            0            0   0.48726255    1.2609999    1.7482624  -0.22671116 
  910000   0.87762536 5.2227445e-05   0.44901622            0            0   0.44901622    1.3054677    1.7544839    3.5371808 
  915000   0.89083232 -0.00014228308   0.42092413 1.3787212e-06            0   0.42092275    1.3251131    1.7460372   -3.1105585 
  920000   0.88907543 9.2590527e-05   0.44643131 0.0004769134            0   0.44595439    1.3224997     1.768931    4.9293543 
  925000   0.88835994 5.9978571e-05   0.44044412 0.0025109306            0   0.43793319    1.3214354    1.7618795    3.8091481 
  930000   0.87507478 4.7001071e-05   0.44618487 0.0044231326            0   0.44176174    1.3016737    1.7478586    3.3521618 
  935000   0.83754983 -8.991361e-05   0.50845895 0.0023990685            0   0.50605988    1.2458554    1.7543143   -1.3147369 
  940000   0.88056009 6.4885441e-05   0.43795272 0.0015866757            0   0.43636605    1.3098331    1.7477859    3.9625422 
  945000   0.84935951 -8.1238075e-05   0.50787144  0.001835138            0    0.5060363    1.2634223    1.7712937   -1.0016326 
  950000   0.90072926 0.00020076947   0.43693572 0.0015459998            0   0.43538972    1.3398348    1.7767705    8.6297016 
  955000    0.8594982 -5.182575e-05   0.50923674 0.0036420958            0   0.50559464    1.2785036    1.7877403  0.018754716 
  960000   0.86052808 8.1746521e-05   0.49592844 0.0040121343            0   0.49191631    1.2800355     1.775964    4.5662452 
  965000   0.89667994 3.5956973e-05   0.44178222 0.0015362702            0   0.44024595    1.3338114    1.7755936     3.002925 
  970000   0.88302932 7.9899207e-05    0.4671916 0.0029583631            0   0.46423323    1.3135061    1.7806977     4.507924 
  975000   0.86754101 -8.219592e-05   0.50391172 0.0043253705            0   0.49958635    1.2904673     1.794379   -1.0112418 
  980000   0.84635419 0.00010141594   0.52329603 0.0050631887            0   0.51823284    1.2589519    1.7822479    5.2439121 
  985000   0.91254456 1.1124787e-05   0.43021657  0.006890851            0   0.42332571      1.35741    1.7876266    2.1673526 
  990000   0.91959208 -8.1455579e-05   0.43549237 0.0068873695            0     0.428605    1.3678932    1.8033856  -0.97696482 
  995000   0.90755201 8.9614726e-05   0.46307209  0.007421463            0   0.45565063    1.3499836    1.8130557     4.871905 
 1000000   0.90921556 -1.8325178e-05   0.45559876 0.0093876867            0   0.44621107    1.3524581    1.8080569    1.1825575 
 1005000   0.89519404 9.4707448e-05    0.5050954   0.02138733            0   0.48370807    1.3316011    1.8366965    5.0693774 
 1010000   0.94842305 -5.6413014e-05   0.44760096  0.014966289            0   0.43263467    1.4107793    1.8583803 -0.067183955 
 1015000   0.90650619 3.9886619e-05   0.51373311  0.010763507            0    0.5029696     1.348428    1.8621611    3.2236243 
 1020000    0.8868647 -7.6194112e-05   0.54072772 0.0044991841            0   0.53622854    1.3192112     1.859939  -0.74082006 
 1025000   0.94639885 2.7758513e-05   0.46283338 0.00058859049            0   0.46224479    1.4077683    1.8706017    2.8180923 
 1030000   0.92341858 -7.3758508e-05   0.48365696 0.0021269989            0   0.48152996    1.3735851    1.8572421  -0.66038164 
 1035000   0.90551028 -2.7101178e-05   0.48907642 0.0035746135            0    0.4855018    1.3469465     1.836023   0.91096941 
 1040000   0.89622062 2.5220629e-05   0.50283157 0.0023535333            0   0.50047804    1.3331282    1.8359597    2.6968239 
 1045000   0.88917597 -0.00013807186   0.51916421 0.0014355405            0   0.51772867    1.3226493    1.8418135   -2.8710394 
 1050000   0.88721954 6.0638077e-06   0.52901175 0.00076764046            0   0.52824411    1.3197391    1.8487508    2.0557288 
 1055000   0.91632972 -2.0335437e-05   0.50394488 0.00024426086            0   0.50370061    1.3630405    1.8669853    1.1728691 
 1060000   0.88230719 -4.9606538e-05   0.54676148 6.7905701e-05            0   0.54669358    1.3124319    1.8591934   0.16595692 
 1065000   0.89943257 -9.3663757e-06   0.52274676            0            0   0.52274676     1.337906    1.8606527    1.5409471 
 1070000   0.89763055 0.00012252362   0.52227452            0            0   0.52227452    1.3352254       1.8575    6.0396396 
 1075000   0.94958931 -6.4191979e-05   0.43835402            0            0   0.43835402    1.4125141    1.8508681  -0.34021809 
 1080000   0.89234568 0.00013010175   0.52253359 0.00031560919            0   0.52221798    1.3273642    1.8498978    6.2907043 
 1085000   0.90634553 1.108929e-05   0.49624087 0.0053117116            0   0.49092916     1.348189    1.8444298    2.2229443 
 1090000   0.89862018 -7.0505266e-05   0.49310083 0.0084302959            0   0.48467053    1.3366975    1.8297983   -0.5767814 
 1095000   0.94543042 3.929846e-05   0.43996598 0.0024173271            0   0.43754865    1.4063277    1.8462937    3.1876812 
 1100000   0.89366722 -5.1468931e-05    0.5257623 0.00032594833            0   0.52543635      1.32933    1.8550923  0.098286113 
 1105000   0.91955174 -4.9244277e-05   0.48592833 6.2215594e-05            0   0.48586611    1.3678332    1.8537615   0.17289023 
 1110000   0.93756836 -0.00012980684   0.45816434  0.000325628            0   0.45783871    1.3946329    1.8527973   -2.5779428 
 1115000    0.8985642 -0.00017672047   0.51898914 0.0070613758            0   0.51192777    1.3366143    1.8556034   -4.1764552 
 1120000   0.90569199 0.00017894224   0.49098918  0.010072826            0   0.48091635    1.3472168     1.838206    7.9461013 
 1125000   0.86102218 0.00016781626   0.53727595 0.0018709222            0   0.53540503    1.2807705    1.8180464    7.5461746 
 1130000    0.8748197 -6.3819897e-05   0.52212253 0.0056686353            0    0.5164539    1.3012943    1.8234168  -0.35496898 
 1135000   0.90422393 -3.0605944e-05   0.47669811  0.024858879            0   0.45183923    1.3450331    1.8217312   0.77704829 
 1140000    0.9280613 -2.4898024e-05   0.44607218 0.0045278894            0   0.44154429    1.3804912    1.8265634   0.97671081 
 1145000   0.88409305 0.0001529515   0.52723505 0.00053521325            0   0.52669983    1.3150884    1.8423235    7.0630681 
 1150000   0.87413597 1.5892265e-05   0.55957521 0.0047099379            0   0.55486527    1.3002773    1.8598525    2.4023085 
 1155000   0.94267629 7.7492201e-05   0.47514574  0.010505485            0   0.46464025     1.402231    1.8773767    4.5224439 
 1160000   0.89948815 -3.6942582e-05   0.54910486    0.0189228            0   0.53018206    1.3379886    1.8870935   0.62612002 
 1165000   0.94098441 -5.742332e-05   0.49156767 0.0068861628            0   0.48468151    1.3997143     1.891282  -0.06876736 
 1170000   0.93118324 -3.4524116e-05   0.51956312 0.0016290963            0   0.51793402    1.3851351    1.9046982   0.72627502 
 1175000   0.95243275 7.8031573e-05   0.49405438  0.002030703            0   0.49202367    1.4167437    1.9107981    4.5742758 
 1180000   0.95357587 0.00011656455   0.46372394  0.006119371            0   0.45760457    1.4184441    1.8821681    5.8609047 
 1185000   0.96372302 -7.6695587e-05   0.44566743 0.0036332144            0   0.44203422     1.433538    1.8792054  -0.73867061 
 1190000   0.92273697 -2.572221e-05   0.53435231 0.0001672303            0   0.53418508    1.3725712    1.9069236    1.0289388 
 1195000   0.94320244 2.4341595e-05   0.49611771  0.000604446            0   0.49551326    1.4030136    1.8991313    2.7299911 
 1200000   0.99060692 -6.9936552e-05   0.45499674 0.0013785813            0   0.45361816    1.4735278    1.9285245  -0.45864308 
 1205000    1.0223514 -2.5364189e-05   0.40601649 0.0022334444            0   0.40378304    1.5207477    1.9267642    1.0609999 
 1210000   0.97570348 8.4361741e-05   0.49273709 0.0078351914            0   0.48490189    1.4513589     1.944096    4.8236434 
 1215000   0.99607228 -0.0001943838   0.48870812  0.010008415            0    0.4786997    1.4816575    1.9703656   -4.6646015 
 1220000   0.94043096 -0.00018484422   0.55419223  0.018961579            0   0.53523065    1.3988911    1.9530833   -4.3562661 
 1225000   0.97226396 -1.7992498e-05   0.51072191  0.011396644            0   0.49932527    1.4462426    1.9569646    1.3428206 
 1230000   0.94837551 -0.00019997743   0.56093379  0.017097799            0   0.54383599    1.4107086    1.9716424    -4.854254 
 1235000     0.975645 1.6365537e-06   0.52367929 0.0087212029            0   0.51495809    1.4512719    1.9749512    2.0308123 
 1240000   0.96904597 -0.00016900363    0.5178274 0.0039301168            0   0.51389728    1.4414559    1.9592833   -3.8093739 
 1245000   0.94169355 -4.1421978e-05   0.59762098 0.00067519285            0   0.59694579    1.4007692    1.9983901   0.58451994 
 1250000   0.90845096 -0.00022340309   0.61152426 0.0012618585            0    0.6102624    1.3513208    1.9628451   -5.6626471 
 1255000   0.94029921 0.00012105048   0.56650797 0.0068392979            0   0.55966867    1.3986951     1.965203    6.0970596 
 1260000   0.92069681 1.8996718e-06   0.56248667  0.021653653            0   0.54083302    1.3695365    1.9320232    1.9968653 
 1265000   0.92539888 0.00020554968   0.56292066  0.018203856            0    0.5447168    1.3765308    1.9394515    8.9555473 
 1270000   0.95886649 8.8835187e-06    0.4988378 0.0090553495            0   0.48978245    1.4263139    1.9251517    2.2283758 
 1275000   0.91084312 -0.00015176788   0.56916579 0.0023386433            0   0.56682714    1.3548791    1.9240449   -3.2562986 
 1280000   0.98652205 7.7516899e-05   0.45815124 0.0026625748            0   0.45548867    1.4674515    1.9256028    4.5715129 
 1285000   0.94962451 3.1271001e-05   0.52949668 0.0053623772            0    0.5241343    1.4125665    1.9420631    3.0094466 
 1290000   0.93471191 -3.6694371e-05   0.55075539  0.012019258            0   0.53873613     1.390384    1.9411394   0.68863815 
 1295000   0.99611914 0.00010288129   0.48447802  0.018034425            0   0.46644359    1.4817272    1.9662052    5.4778866 
 1300000   0.98146141 -0.00012466741   0.51278853 0.0064214302            0    0.5063671    1.4599238    1.9727124   -2.2826019 
 1305000   0.99543622 -1.18746e-05   0.47640756 0.0020994528            0    0.4743081    1.4807114    1.9571189    1.5517992 
 1310000    1.0320663 0.00021183808   0.43715192  0.012967074            0   0.42418485    1.5351987    1.9723506    9.2030906 
 1315000   0.94756151 -2.4141751e-06   0.55769817  0.008186138            0   0.54951203    1.4094977    1.9671959    1.8847921 
 1320000   0.97969457 -7.0161526e-05   0.49720667  0.017220654            0   0.47998601    1.4572957    1.9545023  -0.44034441 
 1325000   0.97207601 -7.7807132e-05    0.4930295 0.0034885142            0   0.48954099    1.4459631    1.9389926   -0.7168242 
 1330000    1.0155179 -0.00016950931   0.44412974 8.9348472e-06            0    0.4441208    1.5105828    1.9547126   -3.8312051 
 1335000   0.95222544 8.8364557e-05   0.53605152 0.00043549905            0   0.53561602    1.4164353    1.9524869    4.9686638 
 1340000    1.0432807 -9.3127844e-05   0.38395324 0.00090067299            0   0.38305256    1.5518801    1.9358333   -1.2429304 
 1345000   0.98785688 4.661823e-05   0.45653093 0.0015015796            0   0.45502935    1.4694371     1.925968    3.5172036 
 1350000   0.95221681 -0.00010784831   0.50663206 0.0021168253            0   0.50451523    1.4164225    1.9230546   -1.7581677 
 1355000   0.94207256 -6.0620818e-05   0.51180036 0.0066570562            0   0.50514331    1.4013329    1.9131333  -0.15605729 
 1360000   0.97711168 0.00012337168   0.44094457 0.0060202747            0    0.4349243    1.4534536    1.8943982    6.1054848 
 1365000   0.96431425 0.00016304462   0.46743024  0.014298728            0   0.45313151    1.4344174    1.9018477    7.4671041 
 1370000   0.94368477 -8.303018e-05    0.5166332  0.015380277            0   0.50125292    1.4037311    1.9203643  -0.91373251 
 1375000   0.91676198 -3.3034477e-05    0.5364932 0.0022772863            0   0.53421592    1.3636834    1.9001766   0.77259982 
 1380000   0.91930125 3.5001933e-05   0.52943807  0.006421834            0   0.52301624    1.3674606    1.8968987    3.0916313 
 1385000   0.95023034 -9.6073945e-05    0.4933556 0.0084564435            0   0.48489915    1.4134676    1.9068232   -1.3725008 
 1390000   0.93533267 -0.00015075167   0.53232554 0.0083204994            0   0.52400504    1.3913073    1.9236329   -3.2220242 
 1395000    0.9992745 -1.3166627e-05   0.43719987 0.0086316697            0    0.4285682    1.4864208    1.9236207    1.4741998 
 1400000   0.96138209 5.3949128e-05   0.49902511  0.019165002            0   0.47986011    1.4300559     1.929081    3.7705445 
 1405000   0.90698939 7.5706218e-06   0.59263577  0.047399701            0   0.54523607    1.3491467    1.9417825     2.200193 
 1410000   0.85453722 -1.5305474e-05   0.66815112  0.041192036            0   0.62695908    1.2711241    1.9392752    1.4168484 
 1415000   0.90736414 -5.1771133e-05    0.5376689  0.025838269            0   0.51183063    1.3497042    1.8873731   0.12025172 
 1420000   0.88899047 -0.00011058411   0.55791706 0.0038041451            0   0.55411292    1.3223733    1.8802904   -1.8943139 
 1425000   0.92199753 2.4018465e-05   0.50484534 0.0047765532            0   0.50006879    1.3714713    1.8763167    2.6961469 
 1430000   0.94438875 -7.6541659e-05   0.49833488  0.012136079            0    0.4861988    1.4047783    1.9031131  -0.70950882 
 1435000   0.92857579 -1.1234235e-05   0.54095273  0.014214587            0   0.52673815    1.3812565    1.9222092    1.5387473 
 1440000   0.90888732 -9.5925642e-05   0.57896518 0.0039175981            0   0.57504758    1.3519699    1.9309351   -1.3433269 
 1445000   0.99192216 6.6278113e-05   0.45556743 0.0044509616            0   0.45111647    1.4754842    1.9310516    4.1933446 
 1450000    1.0009924 -0.00011058769   0.45781217 0.00097066269            0    0.4568415    1.4889762    1.9467883   -1.8279382 
 1455000   0.97559178 7.2034526e-05   0.49883431 0.00040966895            0   0.49842464    1.4511928    1.9500271    4.4088056 
 1460000   0.96295796 -3.8335601e-05   0.51004209 0.0097283346            0   0.50031375       1.4324    1.9424421   0.63392022 
 1465000   0.93445501 -3.765173e-06   0.53463279  0.025239639            0   0.50939315    1.3900018    1.9246346    1.7961167 
 1470000    0.9575399 -3.058555e-05   0.49531724 0.0036115145            0   0.49170573    1.4243406    1.9196578   0.87567107 
 1475000   0.89669852 -0.00013079272   0.55810416 0.0032628097            0   0.55484136     1.333839    1.8919432   -2.5724482 
 1480000   0.93454215 -9.9063628e-05   0.48949547 0.0090818936            0   0.48041358    1.3901314    1.8796269   -1.5017449 
 1485000   0.85079378 6.0150006e-05    0.5892061  0.055674389            0   0.53353171    1.2655558    1.8547619     3.907882 
 1490000    0.9097046 -4.2503539e-05   0.51242686  0.012089025            0   0.50033784    1.3531856    1.8656125     0.414825 
 1495000   0.89561976 -0.00011758879   0.53644597 0.0015092975            0   0.53493667    1.3322344    1.8686804   -2.1450171 
 1500000   0.92048582 -4.1101031e-06   0.51831933 0.0075098661            0   0.51080946    1.3692227     1.887542    1.7472505 
 1505000   0.97110546 -2.4710224e-05   0.42734473  0.015075428            0    0.4122693    1.4445194    1.8718641    1.0284218 
 1510000    0.9678853 -5.9697677e-05   0.43699451  0.017667003            0   0.41932751    1.4397294    1.8767239  -0.16095683 
 1515000    1.0127559 -3.3464881e-05   0.37078007  0.010285775            0    0.3604943    1.5064744    1.8772544    0.7349865 
 1520000     0.929991 6.0667277e-05   0.48304383  0.013378456            0   0.46966538    1.3833616    1.8664055    3.9371818 
 1525000    0.9489393 -1.5039156e-05   0.45438998 0.0069411826            0    0.4474488    1.4115472    1.8659372    1.3526007 
 1530000   0.91530136 5.010269e-05   0.50682592 0.00057235028            0   0.50625357    1.3615108    1.8683367    3.5785085 
 1535000   0.93569597 -6.3824051e-06   0.46477734  0.002541488            0   0.46223586    1.3918477    1.8566251    1.6387723 
 1540000   0.88490701 0.00017571008   0.53450931 0.0030800894            0   0.53142922    1.3162992    1.8508085    7.8483792 
 1545000   0.87548242 -0.00016668327   0.54994539  0.015356364            0   0.53458902    1.3022801    1.8522255   -3.8372302 
 1550000    0.9378453 9.5991861e-05   0.45508231  0.019364488            0   0.43571782    1.3950449    1.8501272    5.1266494 
 1555000   0.93957018 5.1047797e-05   0.44981535 0.0057926444            0    0.4440227    1.3976106     1.847426    3.5898574 
 1560000   0.94502465 -4.442154e-05   0.44861024 0.0035474804            0   0.44506276    1.4057242    1.8543344   0.33807918 
 1565000   0.88962971 -0.00012200126   0.53880447  0.027984023            0   0.51082045    1.3233242    1.8621287   -2.3021809 
 1570000   0.93850203 -3.7728862e-05   0.47306268  0.020188346            0   0.45287434    1.3960218    1.8690845   0.58127262 
 1575000   0.98684504 -0.00014197501   0.41886009  0.008383315            0   0.41047678     1.467932    1.8867921   -2.9592883 
 1580000   0.98250196 -3.2215204e-05   0.45112649 0.0095150686            0   0.44161142    1.4614717    1.9125982   0.81298586 
 1585000   0.92658985 5.9140654e-05   0.53314245 0.0042575753            0   0.52888487    1.3783024    1.9114449    3.9301125 
 1590000   0.95688535 0.00013257151   0.50708958  0.010681206            0   0.49640838     1.423367    1.9304565    6.4555642 
 1595000   0.94572015 -0.00015276438   0.52778036 0.0036001743            0   0.52418019    1.4067587    1.9345391   -3.2798183 
 1600000    1.0047825 1.8956877e-05   0.46599638 0.00013574935            0   0.46586063     1.494614    1.9606104    2.6076718 
 1605000    1.0230894 6.5045263e-05   0.42303374 0.00016517941            0   0.42286856    1.5218455    1.9448792    4.1650908 
 1610000   0.96302654 4.8922335e-05   0.48911651 0.0026020452            0   0.48651447     1.432502    1.9216185    3.5915009 
 1615000   0.97520395 6.5442683e-05   0.47582403  0.010812854            0   0.46501117    1.4506159    1.9264399    4.1602168 
 1620000    1.0012357 6.903422e-05   0.43808958 0.0083827411            0   0.42970684    1.4893382    1.9274277    4.2837958 
 1625000   0.98395395 -0.00016193975   0.45386139 0.0059734907            0    0.4478879    1.4636315    1.9174929   -3.6100507 
 1630000   0.93511334 5.1123393e-05   0.49732239 0.0046490886            0    0.4926733    1.3909811    1.8883035    3.6333153 
 1635000   0.94681178 -9.9920991e-05   0.49641433  0.014374689            0   0.48203964    1.4083825    1.9047968   -1.5058396 
 1640000   0.91537117 -7.0677417e-05   0.53862064  0.031170198            0   0.50745044    1.3616146    1.9002353  -0.51222057 
 1645000   0.91560007 -0.0001379126    0.5316539  0.015919219            0   0.51573468    1.3619551     1.893609   -2.8138077 
 1650000   0.97298375 0.00010255638   0.43657827 0.0039213745            0   0.43265689    1.4473133    1.8838916    5.3844828 
 1655000   0.92733881 4.8942681e-05   0.51445433  0.003051141            0   0.51140319    1.3794165    1.8938708    3.5644477 
 1660000   0.92683612 0.00010237078   0.50166882 0.0034644113            0   0.49820441    1.3786687    1.8803375    5.3745934 
 1665000   0.94891018 6.7824995e-05   0.47911651 0.0034900493            0   0.47562646    1.4115039    1.8906204    4.2057136 
 1670000    1.0117865 0.00012781094   0.41604365 0.0016875121            0   0.41435614    1.5050324     1.921076    6.2836896 
 1675000   0.93569097  5.87248e-07   0.52441041 0.0012491636            0   0.52316124    1.3918403    1.9162507    1.9362955 
 1680000    0.9505406 -0.00010349914   0.48958265 0.0014986135            0   0.48808404    1.4139291    1.9035118   -1.6292589 
 1685000   0.91354511 1.0664236e-05   0.56209345  0.006113555            0    0.5559799    1.3588984    1.9209918    2.2849977 
 1690000   0.93841605 -8.9387812e-05   0.53645078  0.026449448            0   0.51000133    1.3958939    1.9323447   -1.1187593 
 1695000   0.94801777 -0.00014066214   0.50828109  0.030346529            0   0.47793456    1.4101764    1.9184575   -2.8828102 
 1700000   0.92404219 -0.00013863853   0.54605316  0.018427261            0    0.5276259    1.3745128    1.9205659   -2.8116291 
 1705000   0.93634375 -0.00013591283   0.53577223 0.0056687502            0   0.53010348    1.3928113    1.9285836   -2.7105745 
 1710000   0.95090277 -1.3755802e-05    0.5205359 0.00060338145            0   0.51993252    1.4144679    1.9350038    1.4654724 
 1715000   0.99124164 0.00010603843   0.46021775  0.004475019            0   0.45574273    1.4744719    1.9346897    5.5541346 
 1720000   0.92231018 -9.4494383e-05   0.55967305  0.009595166            0   0.55007788    1.3719364    1.9316094   -1.2937988 
 1725000   0.98899176 6.7817652e-05   0.46441576  0.002972085            0   0.46144368    1.4711252     1.935541    4.2503835 
 1730000   0.95136055 -3.1992523e-05   0.52266669 0.0023218783            0   0.52034481    1.4151488    1.9378155   0.84580407 
 1735000    0.9081122 -0.00013617471   0.57359256 0.0072515243            0   0.56634103    1.3508169    1.9244095   -2.7236874 
 1740000    0.9244028 -8.3945593e-05   0.52488181  0.012943611            0    0.5119382    1.3750492     1.899931  -0.96541193 
 1745000   0.91385746 6.6788015e-05   0.54782992  0.010817957            0   0.53701196     1.359363    1.9071929    4.1868905 
 1750000   0.97911513 7.9213261e-05   0.45196353 0.0060128233            0   0.44595071    1.4564338    1.9083973    4.6122099 
 1755000   0.91052544 4.4164396e-05   0.55345109  0.010995635            0   0.54245545    1.3544066    1.9078577    3.4153357 
 1760000   0.92331962 1.3991555e-05   0.55008923  0.013679192            0   0.53641004    1.3734379    1.9235272    2.4011056 
 1765000   0.94852915 0.00011688248   0.51044976 0.0042585958            0   0.50619117    1.4109371    1.9213869    5.9109755 
 1770000   0.93193202 0.00010553147   0.52050985 0.00024075719            0   0.52026909    1.3862489    1.9067587    5.5088995 
 1775000   0.94932224 6.286396e-05   0.51461911 0.00019184947            0   0.51442726    1.4121168    1.9267359    4.0724924 
 1780000   0.98431961 -0.00010360281   0.45331729 0.0053423396            0   0.44797495    1.4641754    1.9174927   -1.6188164 
 1785000   0.95668711 -2.5591921e-05   0.50969051 0.0077503568            0   0.50194015    1.4230721    1.9327626     1.059225 
 1790000   0.92982031 -2.9679136e-05   0.55500705  0.011635373            0   0.54337168    1.3831077    1.9381148   0.92506694 
 1795000   0.97021147 -6.5127925e-05   0.53100267  0.022017605            0   0.50898507    1.4431896    1.9741922  -0.24884095 
 1800000    1.0156401 -1.8900665e-05   0.47883339  0.014483131            0   0.46435026    1.5107647    1.9895981    1.3444554 
 1805000   0.94295393 -6.9558925e-05   0.57116905 0.0039676869            0   0.56720136     1.402644     1.973813  -0.40046498 
 1810000   0.99697223 -7.0628767e-05   0.51666127 0.0038057669            0   0.51285551    1.4829962    1.9996575  -0.41113778 
 1815000    1.0353928 -0.00013063615   0.45720573  0.014973553            0   0.44223217    1.5401467    1.9973524   -2.4616947 
 1820000    1.0284959 -0.00015427326   0.46712568  0.013365163            0   0.45376051    1.5298876    1.9970133   -3.2688474 
 1825000   0.98334503 -6.739757e-05   0.53209428 0.0073725593            0   0.52472172    1.4627257      1.99482  -0.30568372 
 1830000   0.96386432 3.8639406e-05   0.55073725  0.016688904            0   0.53404835    1.4337482    1.9844854    3.3033772 
 1835000    1.0081567 4.436704e-05   0.49044692  0.019398654            0   0.47104827     1.499633    1.9900799    3.5044749 
 1840000   0.98400284 -0.00019312497   0.49274723 0.0081595971            0   0.48458764    1.4637042    1.9564515   -4.6355477 
 1845000   0.95841387 -2.2009289e-05   0.51424641 0.0024637792            0   0.51178263    1.4256406     1.939887    1.1886366 
 1850000     1.034498 0.00021528973   0.43146243  0.002260857            0   0.42920157    1.5388157    1.9702782    9.3188344 
 1855000   0.99827544 0.00030288069   0.47327339 0.0078809571            0   0.46539243    1.4849347    1.9582081    12.296536 
 1860000   0.95974019 0.00011871992   0.51952987  0.022381505            0   0.49714836    1.4276135    1.9471434      5.99945 
 1865000   0.93669997 -2.3858045e-05   0.54162505 0.0086367785            0   0.53298827    1.3933412    1.9349662    1.1206117 
 1870000   0.95908901 6.1265946e-05   0.50206741 0.0076799329            0   0.49438748    1.4266449    1.9287123    4.0199233 
 1875000   0.93463733 -0.00014703955   0.54141251 0.0081509208            0   0.53326159     1.390273    1.9316855   -3.0872645 
 1880000   0.94166461 0.00016596246   0.53692221  0.012920997            0   0.52400121    1.4007261    1.9376483    7.6025003 
 1885000   0.98011074 0.00014272404   0.47917634 0.0080309165            0   0.47114542    1.4579147    1.9370911    6.8087383 
 1890000   0.98800663 -0.00010571961   0.46909438 0.0041857175            0   0.46490866    1.4696599    1.9387542   -1.6698084 
 1895000   0.97279873 4.3202195e-05   0.50678811 0.0029016733            0   0.50388644    1.4470381    1.9538262    3.4284611 
 1900000   0.96682547 0.00014364741   0.50860761  0.014428012            0    0.4941796    1.4381529    1.9467605    6.8499254 
 1905000   0.95915168 0.00010577513   0.50253363  0.030493146            0   0.47204048    1.4267381    1.9292718    5.5397295 
 1910000   0.94982045 -0.00010201554   0.49625094  0.024709792            0   0.47154115    1.4128579    1.9091089   -1.5730216 
 1915000   0.97381469 3.5623996e-05   0.46505205  0.015023931            0   0.45002812    1.4485494    1.9136014    3.1295671 
 1920000   0.95361307 -7.5178032e-05   0.49901223  0.013652416            0   0.48535982    1.4184994    1.9175117  -0.64856514 
 1925000   0.96790919 9.8313281e-07   0.49206486  0.017987251            0   0.47407761    1.4397649    1.9318298    1.9653874 
 1930000   0.95973179 -2.9869892e-05   0.51064421 0.0024766985            0   0.50816751     1.427601    1.9382452   0.91868626 
 1935000    1.0039749 2.718627e-05    0.4677736 0.0054431446            0   0.46233046    1.4934127    1.9611863    2.8891443 
 1940000   0.98743121 8.7199113e-05   0.49275301 0.0095541355            0   0.48319887    1.4688039    1.9615569    4.9379533 
 1945000    1.0146166 -1.1494101e-05   0.45948766 0.0026708284            0   0.45681683    1.5092422    1.9687298    1.5763979 
 1950000   0.95422449 8.7990137e-05   0.55097037 0.0075304794            0   0.54343989    1.4194089    1.9703793     4.973776 
 1955000   0.99251558 -9.3244345e-05   0.49194145  0.021983597            0   0.46995785    1.4763669    1.9683084   -1.2144319 
 1960000   0.98298069 0.00010007821   0.49821102  0.019338371            0   0.47887265    1.4621838    1.9603948    5.3763977 
 1965000   0.98998744 0.00014227256   0.48516565  0.002365582            0   0.48280007    1.4726063     1.957772    6.8140086 
 1970000   0.94827625 -5.105972e-05   0.53561218 0.0046930086            0   0.53091918    1.4105609    1.9461731   0.20333465 
 1975000   0.96509017 1.5335741e-05     0.519076 0.0099863674            0   0.50908963    1.4355716    1.9546476    2.4781076 
 1980000   0.98895083 1.6183954e-05   0.49297307 0.0071818945            0   0.48579118    1.4710644    1.9640374    2.5164497 
 1985000   0.93084396 -0.00015849514   0.56465715 0.0064490785            0   0.55820807    1.3846304    1.9492875   -3.4606799 
 1990000   0.94592267 1.4162289e-05   0.55476023  0.010407953            0   0.54435228      1.40706    1.9618202    2.4452263 
 1995000   0.98869385 -7.5622709e-05   0.49467999  0.010894603            0   0.48378539    1.4706821    1.9653621  -0.61589303 
 2000000   0.97717385 -6.4081213e-05   0.51765028 0.0037379776            0    0.5139123    1.4535461    1.9711964  -0.21610904 
 2005000   0.96943245 0.00010665762    0.5459786 0.00013298604            0   0.54584562    1.4420308    1.9880094    5.6285896 
 2010000   0.98931248 -6.3079945e-05   0.51246196   0.00123071            0   0.51123125    1.4716023    1.9840643  -0.16906451 
 2015000   0.96294745 -9.6643534e-05    0.5165334 0.0023879203            0   0.51414548    1.4323843    1.9489177   -1.3498482 
 2020000   0.94187644 -4.2854915e-05   0.52094476 0.0087388653            0    0.5122059    1.4010412     1.921986   0.45920486 
 2025000   0.93671344 -1.2324658e-05   0.52386269   0.02483597            0   0.49902672    1.3933612    1.9172239    1.4965423 
 2030000     1.005306 -3.4255723e-05   0.40690595 0.00083405753            0   0.40607189    1.4953926    1.9022986   0.73303656 
 2035000   0.92969361 5.5347713e-05   0.51842679 0.0052783584            0   0.51314843    1.3829192     1.901346     3.790548 
 2040000   0.92656446 3.9721526e-05   0.52818904  0.021035229            0   0.50715381    1.3782646    1.9064537    3.2622818 
 2045000   0.91219171 -2.5721789e-05   0.55583305  0.039846875            0   0.51598617    1.3568852    1.9127182    1.0347478 
 2050000   0.92446298 5.0394398e-05     0.510781  0.018281923            0   0.49249908    1.3751387    1.8859197    3.6060485 
 2055000   0.92564283 -0.00013284949   0.49357751 0.0072009459            0   0.48637656    1.3768937    1.8704712   -2.6641248 
 2060000   0.94061487 0.0001381597   0.48042748  0.004785069            0   0.47564242    1.3991646    1.8795921    6.5954433 
 2065000   0.91173945 8.0644929e-05   0.52131647 0.0073497466            0   0.51396672    1.3562124    1.8775289    4.6302091 
 2070000   0.95487638 -3.5848534e-05   0.48204867   0.01787816            0   0.46417051    1.4203786    1.9024273   0.67879733 
 2075000   0.97453635 1.3874952e-06   0.45317371  0.014597003            0   0.43857671    1.4496228    1.9027965    1.9501564 
 2080000     0.908496 2.0487502e-05   0.55079804  0.010894996            0   0.53990304    1.3513878    1.9021858    2.6014926 
 2085000   0.94484837 -3.0023034e-05   0.48350073  0.025378899            0   0.45812183     1.405462    1.8889627   0.86417646 
 2090000   0.89795199 -0.00012177821   0.52758921  0.026832017            0   0.50075719    1.3357036    1.8632928   -2.2934033 
 2095000   0.82560049 -0.00019503052    0.6406465  0.016951394            0   0.62369511    1.2280807    1.8687272   -4.7883145 
 2100000   0.93477338 1.1145478e-05    0.4902676  0.011069071            0   0.47919853    1.3904754     1.880743    2.2611753 
 2105000   0.93035453 0.0001302735   0.49883657 0.0052359365            0   0.49360063    1.3839024    1.8827389    6.3294078 
 2110000    0.9245203 -2.4503988e-05   0.52777219  0.006984191            0     0.520788     1.375224    1.9029961    1.0665934 
 2115000   0.90207099 0.00010870975   0.54583662  0.014181086            0   0.53165554    1.3418306    1.8876672    5.5982933 
 2120000   0.89152248 4.5023516e-06   0.55034372  0.019832924            0    0.5305108    1.3261397    1.8764834    2.0301637 
 2125000   0.95497398 -4.3804421e-06   0.46329583  0.013126488            0   0.45016935    1.4205238    1.8838196    1.7343005 
 2130000   0.91983529 0.00018647744   0.52972649   0.01368921            0   0.51603728     1.368255    1.8979815    8.2630782 
 2135000   0.98330458 0.0001686644   0.42521499 0.0095662949            0   0.41564869    1.4626656    1.8878805    7.6449586 
 2140000   0.96743947 -1.9760123e-05    0.4427169 0.0061542936            0    0.4365626    1.4390662    1.8817831    1.2073042 
 2145000   0.91577879 -0.00014338017   0.49701963 0.0020626702            0   0.49495696     1.362221    1.8592406   -3.0348026 
 2150000   0.88679899 -0.00011601933   0.54504638 0.0061620897            0    0.5388843    1.3191135    1.8641599   -2.0959667 
 2155000   0.90833513 9.554072e-06   0.51415103 0.0078296224            0   0.50632141    1.3511485    1.8652995    2.1914119 
 2160000   0.93798392 7.7887123e-05   0.43465845 0.0038155776            0   0.43084287    1.3952511    1.8299095    4.4884567 
 2165000    0.9192431 3.8494941e-05   0.47916306  0.015815768            0   0.46334729    1.3673741    1.8465372    3.1604978 
 2170000   0.85963418 -9.9365357e-05   0.57160642  0.037431701            0   0.53417472    1.2787058    1.8503123   -1.5413586 
 2175000   0.91020346 -3.8180912e-05   0.50752265 0.0099731404            0   0.49754951    1.3539276    1.8614503    0.5582085 
 2180000    0.9546054 0.00018580502   0.45911655 0.0060741835            0   0.45304237    1.4199755    1.8790921    8.2212369 
 2185000   0.89971081 -0.00011787686   0.54965467 0.0090622965            0   0.54059237    1.3383198    1.8879745   -2.1355558 
 2190000   0.98511982 -8.4483253e-05   0.44318549  0.001902132            0   0.44128336    1.4653657    1.9085512  -0.97514381 
 2195000   0.93840433 -9.5500585e-05   0.48843549 0.0049264052            0   0.48350909    1.3958764    1.8843119   -1.3754414 
 2200000   0.85448772 -2.8797397e-05   0.61731025 0.0093833952            0   0.60792686    1.2710505    1.8883607   0.90540959 
 2205000   0.90889906 4.5165256e-05   0.52879451 0.0036858542            0   0.52510865    1.3519873    1.8807819    3.4224226 
 2210000   0.92161023 -4.2379947e-05   0.51327308 0.0083971358            0   0.50487594    1.3708952    1.8841683   0.43759945 
 2215000   0.95525873 -5.2283874e-05    0.4409157  0.016671367            0   0.42424434    1.4209474    1.8618631  0.077240173 
 2220000   0.83903382 -0.00011490858    0.6205864 0.0063162908            0    0.6142701    1.2480628    1.8686492   -2.0535636 
 2225000   0.88882159 4.4976716e-05   0.53148092 0.0053105456            0   0.52617037    1.3221221     1.853603    3.3888083 
 2230000   0.84380145 6.7197016e-05   0.62100708 0.0050632229            0   0.61594386    1.2551547    1.8761617    4.1698199 
 2235000   0.91651513 -4.0387093e-05   0.52657703  0.011642949            0   0.51493408    1.3633163    1.8898933   0.51134719 
 2240000   0.87239018 -0.00011541299   0.59838846  0.023483328            0   0.57490514    1.2976804    1.8960689   -2.0433612 
 2245000   0.89960364 1.6166272e-05   0.54956615  0.018716569            0   0.53084958    1.3381604    1.8877266    2.4395353 
 2250000   0.87345559 0.00016344236    0.5693201  0.013864026            0   0.55545607    1.2992652    1.8685853     7.447418 
 2255000   0.93877419 6.2314753e-05   0.48989865  0.018761003            0   0.47113765    1.3964266    1.8863253    4.0133355 
 2260000   0.93483551 -7.3681521e-05    0.4920872 0.0067404987            0    0.4853467    1.3905678     1.882655  -0.63234089 
 2265000   0.93936216 -0.00011384875   0.49631203  0.012705274            0   0.48360675    1.3973012    1.8936132    -1.992424 
 2270000   0.97506823 -1.3448061e-06   0.45885343  0.011430307            0   0.44742313     1.450414    1.9092674    1.8633647 
 2275000   0.94484728 0.00012245774   0.51762573 0.0054160684            0   0.51220966    1.4054603    1.9230861     6.102977 
 2280000   0.98448452 6.2634645e-05   0.44750514 0.0021852862            0   0.44531985    1.4644207    1.9119259    4.0498551 
 2285000   0.87948328 -0.00012127726   0.62559948  0.010309816            0   0.61528966    1.3082314    1.9338309   -2.2057664 
 2290000   0.98171875 -7.7310065e-05   0.47244103  0.012257777            0   0.46018326    1.4603066    1.9327477  -0.70610256 
 2295000   0.92626353 -4.6774098e-05   0.55462133 0.0072677837            0   0.54735355     1.377817    1.9324383   0.33588245 
 2300000   0.95702832 -4.4527562e-05   0.49356709 0.0083532564            0   0.48521384    1.4235796    1.9171467   0.39727259 
 2305000   0.93284949 3.1462854e-05   0.54618815 0.0044333025            0   0.54175485    1.3876136    1.9338018    3.0077339 
 2310000    1.0098957 0.00016161972   0.45365607   0.00250592            0   0.45115015    1.5022199    1.9558759    7.4724958 
 2315000    1.0352058 0.00020492871   0.44876269 0.0018371371            0   0.44692556    1.5398687    1.9886314    8.9835313 
 2320000   0.97948888 2.9105422e-05   0.53867168 0.0061376766            0     0.532534    1.4569897    1.9956614    2.9891265 
 2325000    1.0500902 -4.4025392e-05    0.4340661  0.013078505            0    0.4209876    1.5620092    1.9960753   0.49334195 
 2330000   0.99028455 -1.1925098e-05   0.52966494  0.041227135            0   0.48843781    1.4730483    2.0027132    1.5956699 
 2335000   0.99708667 -0.00012997455   0.53410366  0.012323306            0   0.52178036    1.4831664    2.0172701   -2.4191945 
 2340000    1.0238299 -0.00011838699   0.48772804 0.0072703156            0   0.48045773    1.5229469     2.010675   -2.0302676 
 2345000    1.0291692 -8.0189102e-06   0.48641179  0.012179182            0   0.47423261    1.5308892     2.017301    1.7435889 
 2350000    1.0315141 2.168827e-05   0.51587856   0.01364969            0   0.50222887    1.5343772    2.0502558    2.7905488 
 2355000    1.0427089 7.2003151e-05    0.4706415  0.010241404            0    0.4604001    1.5510295     2.021671    4.4793785 
 2360000     1.060183 0.0001707446    0.4602665 0.0058647261            0   0.45440178    1.5770222    2.0372887    7.8653711 
 2365000    1.0142571 -5.7803509e-07   0.48191877 0.0070912919            0   0.47482748    1.5087074    1.9906261    1.9708959 
 2370000     1.069509 -0.00012005229   0.40681119  0.017705559            0   0.38910563    1.5908946    1.9977058   -2.1000792 
 2375000    1.0089379 -9.9696514e-05   0.49106859  0.029237714            0   0.46183088    1.5007952    1.9918638   -1.4111106 
 2380000   0.99705609 4.0550669e-05   0.52546204  0.023005688            0   0.50245635    1.4831209     2.008583    3.3927125 
 2385000    1.0419237 -4.9795331e-05   0.48762247  0.020543298            0   0.46707917    1.5498614    2.0374839    0.3378033 
 2390000    1.0095999 -0.00011935748   0.51830379 0.0067381172            0   0.51156567    1.5017799    2.0200837   -2.0539849 
 2395000   0.98369197 6.4456093e-06   0.53764675 0.0040808615            0   0.53356589    1.4632418    2.0008886    2.2208987 
 2400000     1.054291 -1.1586915e-05   0.42950163   0.00417395            0   0.42532768    1.5682579    1.9977595    1.6022595 
 2405000    1.0352001 3.6545881e-06    0.4694577 0.0084761418            0   0.46098156    1.5398601    2.0093178    2.1340611 
 2410000    1.0251873 1.8448714e-05   0.51630726  0.014486722            0   0.50182053    1.5249661    2.0412733    2.6709894 
 2415000    1.0076295 5.9840438e-05   0.54393494   0.01363577            0   0.53029917    1.4988489    2.0427838    4.0853375 
 2420000    1.0149276 -4.632599e-05   0.48651127  0.020646039            0   0.46586523    1.5097048    1.9962161   0.41495563 
 2425000     1.042287 -0.00013994844   0.44826765  0.018963133            0   0.42930452    1.5504019    1.9986696   -2.7782371 
 2430000     1.071647 9.4126003e-05   0.42360081  0.018469897            0   0.40513091    1.5940749    2.0176757    5.2305099 
 2435000   0.99746714 6.6547494e-05   0.51895874 0.0090271352            0   0.50993161    1.4837324    2.0026911    4.2741789 
 2440000    1.0320231 -3.4582474e-05   0.48582244 0.0029194113            0   0.48290303    1.5351344    2.0209568   0.84054169 
 2445000    1.0146231 1.7918377e-05    0.5164113  0.012968397            0    0.5034429    1.5092518    2.0256631    2.6372771 
 2450000    1.0883954 -1.6864339e-05   0.40513866  0.009903177            0   0.39523549    1.6189881    2.0241268    1.4484907 
 2455000    1.0242563 -2.069151e-05   0.50237562  0.019067961            0   0.48330765    1.5235813    2.0259569    1.3196867 
 2460000   0.97281398 -0.00012482382   0.58833007  0.011385977            0   0.57694409    1.4470608    2.0353909    -2.225262 
 2465000    1.0564931 2.7312876e-05   0.45304392 0.0025991174            0    0.4504448    1.5715335    2.0245774    2.9568569 
 2470000    1.0267308 9.8391021e-05   0.49140673 0.0031984604            0   0.48820827     1.527262    2.0186687    5.3770822 
 2475000    1.0499407 0.00012587641   0.44009817  0.012257021            0   0.42784115    1.5617868     2.001885    6.2984664 
 2480000   0.98677648 3.5851959e-05   0.51927528 0.0095660674            0   0.50970921      1.46783    1.9871053    3.2108522 
 2485000     1.024154 -0.00014300264   0.44709524 0.0079795096            0   0.43911573     1.523429    1.9705243   -2.9106323 
 2490000    1.0257743 -1.5342817e-05   0.45388562 0.0017232321            0   0.45216238    1.5258393    1.9797249    1.4560235 
 2495000    1.0180111 5.2819391e-05   0.47244527 0.00075611981            0   0.47168915    1.5142915    1.9867368    3.7896387 
 2500000    1.0142808 -4.106203e-05   0.47875116 0.0099666887            0   0.46878447    1.5087427    1.9874939    0.5859099 
 2505000    1.0285257 0.0001246489   0.45954979  0.025549153            0   0.43400064     1.529932    1.9894818    6.2441641 
 2510000    1.0031315 0.00015110385   0.47879737  0.026823991            0   0.45197338    1.4921582    1.9709555    7.1286336 
 2515000   0.98701421 7.6175819e-05   0.50239056  0.029618269            0   0.47277229    1.4681836    1.9705742    4.5707088 
 2520000   0.98102912 2.6193699e-05   0.49997728 0.0090392732            0   0.49093801    1.4592808    1.9592581    2.8533364 
 2525000   0.96241802 -9.2643494e-05   0.53898194  0.007564935            0     0.531417    1.4315968    1.9705787   -1.1916525 
 2530000    1.0465336 7.511358e-05   0.41110563   0.01211558            0   0.39899005    1.5567187    1.9678244    4.5317012 
 2535000    1.0259071 1.6681489e-05   0.47111793  0.014868825            0   0.45624911    1.5260368    1.9971547    2.5665495 
 2540000    1.0351488 5.6716396e-05   0.43667305  0.011433658            0    0.4252394    1.5397838    1.9764569    3.9123765 
 2545000    1.0099087 7.8665901e-05   0.48767273  0.015565033            0   0.47210769    1.5022392    1.9899119    4.6750413 
 2550000    1.0124947 1.0853547e-05   0.51286853  0.013784473            0   0.49908405    1.5060858    2.0189543    2.3894221 
 2555000    1.0088693 0.0002254738   0.51438988  0.021305126            0   0.49308475    1.5006931     2.015083    9.7112552 
 2560000    1.0624598 0.00010851641   0.42715805  0.019290006            0   0.40786804    1.5804089     2.007567    5.7115936 
 2565000    1.0289299 -8.3856864e-05   0.48098527 0.0083920293            0   0.47259324    1.5305333    2.0115186  -0.85079573 
 2570000    1.0146056 -4.0197213e-05   0.51001599 0.0090837212            0   0.50093227    1.5092258    2.0192418   0.64717696 
 2575000    1.0297585 -2.7179454e-05   0.46891735 0.0042432661            0   0.46467409    1.5317658    2.0006832    1.0729578 
 2580000   0.98905716 8.4403601e-05   0.51414629 0.0045047237            0   0.50964156    1.4712225    1.9853688     4.866345 
 2585000   0.95232488 -5.0553113e-05   0.52780763   0.02187373            0    0.5059339    1.4165833    1.9443909   0.21884462 
 2590000    0.9626876 -4.8451959e-05   0.49986365  0.011391754            0   0.48847189    1.4319978    1.9318615   0.27803458 
 2595000   0.95714082 -6.6104135e-05   0.49717259 0.0066262108            0   0.49054638     1.423747    1.9209196  -0.33543492 
 2600000   0.94916056 -0.00011039818   0.49219221  0.012485607            0   0.47970661    1.4118763    1.9040685   -1.8641894 
 2605000   0.96655653 -2.7518165e-05   0.46281076  0.014899418            0   0.44791134    1.4377528    1.9005636   0.96127691 
 2610000   0.95228483 0.00010692282   0.50562762  0.007403733            0   0.49822388    1.4165237    1.9221513    5.5717836 
 2615000   0.97056542 -3.0413378e-05   0.49213205  0.024427401            0   0.46770465    1.4437161    1.9358481   0.89773815 
 2620000    1.0500211 -0.00010421715    0.3802575  0.012627387            0   0.36763011    1.5619065     1.942164   -1.6151148 
 2625000   0.95945886 -9.587084e-05   0.49491771 0.0010234467            0   0.49389426    1.4271951    1.9221128   -1.3502786 
 2630000   0.99895438 -2.6448247e-05   0.44327292 0.0011613113            0   0.44211161    1.4859446    1.9292176    1.0264507 
 2635000     1.001127 4.9833587e-05   0.43076803 0.0077712832            0   0.42299675    1.4891764    1.9199444    3.6209308 
 2640000   0.91501192 -3.0175745e-05    0.5457558  0.020443318            0   0.52531248    1.3610802     1.906836   0.87683727 
 2645000   0.95592923 -6.0071727e-06   0.47515376  0.025693487            0   0.44946028    1.4219447    1.8970985    1.6920537 
 2650000    1.0011992 0.0001934395   0.42855219  0.019167164            0   0.40938503    1.4892838     1.917836    8.5205708 
 2655000   0.95526469 3.717765e-05   0.46818304 0.0072322833            0   0.46095076    1.4209562    1.8891393    3.1581364 
 2660000   0.97162593 -9.3777369e-05   0.43129501  0.011831517            0   0.41946349    1.4452936    1.8765886   -1.3243456 
 2665000   0.94111827 -2.3153021e-05   0.46649804  0.009274424            0   0.45722362    1.3999134    1.8664115    1.0761217 
 2670000   0.88660555 -5.0533725e-05   0.53979137 0.0010919984            0   0.53869937    1.3188258    1.8586171   0.13373266 
 2675000   0.94986433 -8.1303745e-05   0.46379125 0.0012662126            0   0.46252503    1.4129232    1.8767144  -0.89845339 
 2680000   0.94115283 -0.00013186536   0.46864266 0.0017505506            0    0.4668921    1.3999648    1.8686075   -2.6323969 
 2685000   0.89780344 -6.4294322e-05   0.55950677  0.008314043            0   0.55119272    1.3354826    1.8949894  -0.29959014 
 2690000   0.98764771 -0.00010461659   0.44796632  0.017983405            0   0.42998291     1.469126    1.9170923   -1.6538207 
 2695000   0.93879743 -3.2913306e-05   0.50931919  0.020017699            0   0.48930149    1.3964612    1.9057804   0.78233952 
 2700000   0.92385577 0.00015701876   0.54949422  0.028692534            0   0.52080169    1.3742355    1.9237297    7.2833033 
 2705000   0.90920396 5.2019742e-06   0.58934672  0.011946801            0   0.57739992    1.3524409    1.9417876    2.1193483 
 2710000   0.93295878 -6.163105e-05   0.54768916  0.040420064            0   0.50726909    1.3877762    1.9354653  -0.16820784 
 2715000   0.99199086 1.2098434e-05   0.46490241  0.020634156            0   0.44426825    1.4755864    1.9404888    2.3534487 
 2720000   0.94574532 0.00010858885   0.51816024  0.010638073            0   0.50752217    1.4067962    1.9249564    5.6314559 
 2725000   0.94681606 0.00015593482   0.49478576  0.010127548            0   0.48465821    1.4083889    1.9031747    7.2257498 
 2730000   0.95918622 0.00010251883   0.46600054 0.0086407211            0   0.45735982    1.4267895      1.89279    5.3920993 
 2735000   0.92957125 -0.00017841414   0.52195874  0.019132091            0   0.50282665    1.3827372     1.904696   -4.1851733 
 2740000   0.96666831 -0.00012610486   0.48199881  0.028844222            0   0.45315459    1.4379191    1.9199179   -2.3844612 
 2745000    1.0103286 1.9253279e-05    0.4327644  0.022485072            0   0.41027933    1.5028638    1.9356282    2.5928068 
 2750000   0.97607185 -0.00011519459   0.48344434   0.02238672            0   0.46105762    1.4519069    1.9353512    -1.996624 
 2755000   0.93267164 1.1992551e-05   0.55755805  0.013352348            0    0.5442057    1.3873491    1.9449071    2.3542528 
 2760000   0.94798871 3.176911e-06   0.58139427 0.0058802587            0   0.57551401    1.4101332    1.9915275     2.099966 
 2765000      1.00541 -0.00020044907   0.48915698 0.0033769687            0   0.48578001    1.4955473    1.9847043   -4.8572906 
 2770000   0.97004443 -0.0001348998   0.55488423  0.012221278            0   0.54266295    1.4429411    1.9978253   -2.6067546 
 2775000    1.0055587 0.00025761857   0.50815861  0.035035561            0   0.47312305    1.4957686    2.0039272    10.797308 
 2780000    1.0249474 -2.753013e-05   0.48193924  0.010846083            0   0.47109315    1.5246092    2.0065484    1.0668533 
 2785000   0.98064757 1.3337258e-05   0.52733213  0.014534602            0   0.51279753    1.4587133    1.9860454    2.4412904 
 2790000   0.95880693 -2.0127289e-06   0.59096259  0.017099571            0   0.57386302    1.4262253    2.0171879    1.9484868 
 2795000   0.94005498 -0.00011589144   0.61077511 0.0082380075            0    0.6025371    1.3983318    2.0091069   -1.9466543 
 2800000    1.0948401 8.7545547e-05   0.40453261 0.0070079684            0   0.39752464    1.6285746    2.0331072    5.0213286 
 2805000    1.0414277 0.00015848167   0.48551015  0.023113348            0    0.4623968    1.5491237    2.0346338    7.4441414 
 2810000   0.96366133 1.055705e-05   0.58729033  0.044360357            0   0.54292997    1.4334462    2.0207366    2.3810838 
 2815000    1.0189872 5.9693975e-05   0.51062947  0.020104716            0   0.49052475    1.5157435     2.026373    4.0639273 
 2820000   0.97642735 3.1057649e-05   0.56015319  0.018295034            0   0.54185815    1.4524357    2.0125889      3.07269 
 2825000    1.0158723 -0.00015634458   0.49662277  0.014861437            0   0.48176133    1.5111101    2.0077329   -3.3288288 
 2830000   0.96294611 3.2023461e-05   0.55162868  0.023630572            0    0.5279981    1.4323823     1.984011    3.0770785 
 2835000   0.98022785 3.7510719e-05   0.52062472  0.053765482            0   0.46685924    1.4580889    1.9787137    3.2590795 
 2840000   0.91479683 2.3335872e-05   0.60582003  0.066564053            0   0.53925597    1.3607603    1.9665803    2.7631114 
 2845000   0.95536739  2.62343e-05   0.55017344  0.028406359            0   0.52176708     1.421109    1.9712824    2.8667465 
 2850000    1.0149557 4.5267215e-06     0.490558  0.013349819            0   0.47720818    1.5097465    2.0003045    2.1548166 
 2855000    1.0052177 0.00013113452   0.52172129 0.0024319136            0   0.51928938    1.4952614    2.0169827    6.4930409 
 2860000    1.0053935 -7.412087e-05   0.52859836 0.00078530593            0   0.52781305    1.4955228    2.0241212   -0.5058712 
 2865000   0.97112221 3.5879019e-05   0.58919101 0.0015822211            0   0.58760879    1.4445443    2.0337353    3.2584058 
 2870000    1.0154061 -6.2283358e-05    0.5418774  0.010272342            0   0.53160506    1.5104166     2.052294 -0.073644634 
 2875000   0.93320163 -5.4717817e-05   0.64861336  0.056199873            0   0.59241348    1.3881374    2.0367508   0.16904929 
 2880000   0.97157208 -8.5128507e-05   0.60656415  0.033580527            0   0.57298363    1.4452135    2.0517776   -0.8539421 
 2885000    1.0288647 0.00022144837   0.51072334 0.0054204066            0   0.50530293    1.5304363    2.0411597    9.5999308 
 2890000    1.0139291 3.351072e-05   0.51512339 0.00022408079            0   0.51489931    1.5082195    2.0233429    3.1671754 
 2895000   0.99877555 9.6063491e-05   0.54241242 0.0050022757            0   0.53741015    1.4856786    2.0280911    5.3070582 
 2900000   0.98706876 2.5156311e-05   0.57225747  0.012603498            0   0.55965397    1.4682648    2.0405222     2.899191 
 2905000   0.99671458 7.5989501e-05   0.56322995 0.0065911232            0   0.55663883    1.4826129    2.0458429    4.6396179 
 2910000    1.0797232 3.0714393e-05   0.46002326  0.011949958            0    0.4480733    1.6060882    2.0661115    3.1144961 
 2915000   0.96860636 1.594283e-05   0.61022716  0.042987962            0    0.5672392     1.440802    2.0510291     2.595211 
 2920000    1.0145827 -0.00017669891   0.56178061  0.028169125            0   0.53361148    1.5091918    2.0709724   -3.9603504 
 2925000    1.0703117 -0.00013919129   0.48182793  0.030520816            0   0.45130712    1.5920887    2.0739166   -2.6771461 
 2930000   0.99850893 0.00010911758   0.56963557 0.0043019691            0    0.5653336     1.485282    2.0549176    5.7794643 
 2935000   0.99951984 2.3691862e-06   0.55848558  0.016221863            0   0.54226372    1.4867858    2.0452713    2.1261396 
 2940000      1.00596 -1.9935639e-05   0.56049341  0.027724506            0   0.53276891    1.4963655    2.0568589    1.3763891 
 2945000   0.98165271 -0.00011674169   0.58920604   0.04381574            0    0.5453903    1.4602084    2.0494144   -1.9353685 
 2950000    1.0269229 -9.6245818e-05   0.51540851  0.032778617            0   0.48262989    1.5275479    2.0429564   -1.2422342 
 2955000   0.97385822 -5.5217723e-05    0.5752886  0.017043163            0   0.55824543    1.4486141    2.0239027   0.13913777 
 2960000    1.0303992 8.0388827e-05   0.51969175  0.021364569            0   0.49832718    1.5327188    2.0524105    4.7963492 
 2965000    1.0262131 -8.9993216e-05   0.51169436 0.0084419283            0   0.50325243    1.5264921    2.0381864    -1.033582 
 2970000    1.0085202 9.3393632e-05   0.53159505  0.028782988            0   0.50281206    1.5001737    2.0317688    5.2196047 
 2975000   0.96747782 6.6430233e-05   0.58114029  0.019941581            0   0.56119871    1.4391233    2.0202635    4.2877488 
 2980000   0.99124891 4.7504002e-08   0.53979943   0.02723635            0   0.51256308    1.4744827    2.0142822    2.0159036 
 2985000   0.97172136 -2.3467552e-05   0.56771761  0.021087624            0   0.54662998    1.4454355    2.0131531    1.2121274 
 2990000    0.9873436 6.9247738e-05   0.55612233  0.028732193            0   0.52739013    1.4686736    2.0247959    4.3884521 
 2995000    1.0247569 -8.1216469e-05   0.51005754  0.012261925            0   0.49779562    1.5243258    2.0343834  -0.73780546 
 3000000    1.0482111 -1.5912042e-05   0.47926249  0.011270032            0   0.46799246     1.559214    2.0384765    1.4953454 
 3005000    1.0482607 1.5760703e-05   0.48106646 0.0048254621            0     0.476241    1.5592878    2.0403542    2.5783196 
 3010000    1.0488232 -1.6958022e-05   0.49537671  0.025280643            0   0.47009606    1.5601246    2.0555013    1.4766675 
 3015000    1.0342721 4.3897299e-05   0.53209709  0.039891508            0   0.49220558    1.5384798    2.0705769     3.568938 
 3020000    1.0816718 6.7178411e-05    0.4700569 0.0057887871            0   0.46426811    1.6089868    2.0790437    4.3720668 
 3025000    1.0217787 0.00014486207     0.571335 0.0018464327            0   0.56948857    1.5198958    2.0912308     7.035856 
 3030000    1.0591776 8.8386761e-05    0.4940074  0.008219398            0     0.485788    1.5755267    2.0695341    5.0864688 
 3035000    1.0510374 -0.00014752305   0.51489457   0.01390352            0   0.50099105    1.5634181    2.0783127   -2.9571407 
 3040000    1.0768629 -3.6805011e-05   0.45219633 0.0082076805            0   0.44398864    1.6018336    2.0540299   0.79775224 
 3045000    1.0506648 7.1233464e-05   0.48766954 0.0028825832            0   0.48478696    1.5628638    2.0505334     4.481969 
 3050000    1.0396997 -8.4332872e-05   0.49969154 0.0067259706            0   0.49296557    1.5465533    2.0462448   -0.8323172 
 3055000    1.0005691 -1.5559184e-05   0.55695409  0.011208942            0   0.54574515    1.4883465    2.0453006    1.5142138 
 3060000    1.0623814 2.0665022e-05   0.44211634 0.0085583849            0   0.43355796    1.5802924    2.0224087    2.7277748 
 3065000   0.97679813 -5.8117159e-05   0.57286928  0.021710787            0   0.55115849    1.4529872    2.0258565  0.042124134 
 3070000    1.0224011 -7.9224243e-05   0.51021832   0.02782575            0   0.48239257    1.5208216      2.03104  -0.67314754 
 3075000    1.0484849  7.23248e-06   0.47126937  0.038913511            0   0.43235586    1.5596212    2.0308906    2.2777592 
 3080000     1.021682 -5.1754197e-05   0.52407953  0.030402308            0   0.49367723     1.519752    2.0438315   0.27728829 
 3085000    1.0026532 1.6156168e-05   0.53091731  0.024328285            0   0.50658902    1.4914466    2.0223639    2.5738278 
 3090000   0.97764889 0.00012082387   0.56824352  0.039768895            0   0.52847462    1.4542527    2.0224962    6.1466175 
 3095000    1.0169919 4.5288776e-05   0.49126078  0.010559676            0    0.4807011    1.5127755    2.0040363    3.5498931 
 3100000    1.0496268 -5.7912636e-05   0.42131306  0.010240802            0   0.41107226    1.5613198    1.9826329 0.0058815543 
 3105000   0.96215556 4.8421455e-05   0.53489289  0.033381945            0   0.50151095    1.4312064    1.9660993    3.6188849 
 3110000     1.019681  7.29471e-05    0.4497054  0.052917551            0   0.39678785    1.5167754    1.9664808    4.4564085 
 3115000    1.0057191 -4.2064381e-05   0.48459532  0.020195774            0   0.46439955    1.4960072    1.9806025   0.54480498 
 3120000    1.0157867 5.0973852e-05    0.4572987 0.0082254177            0   0.44907329    1.5109827    1.9682814    3.7081888 
 3125000   0.99292297 0.00016043665   0.48879395 0.0048685917            0   0.48392535    1.4769729    1.9657669    7.4420045 
 3130000    1.0741526 -1.9064823e-05   0.36736638  0.022565572            0   0.34480081    1.5978019    1.9651683    1.3144224 
 3135000   0.98572522 -0.00016781404   0.49212466  0.017761902            0   0.47436275    1.4662663    1.9583909   -3.7696618 
 3140000    1.0273953 1.367963e-05    0.4476967  0.016388556            0   0.43130815    1.5282505    1.9759473    2.4428786 
 3145000   0.99651027 -6.2665656e-06   0.50995533  0.018302004            0   0.49165332     1.482309    1.9922643    1.7783656 
 3150000    1.0366785 3.2244849e-05   0.44502192 0.0064388329            0   0.43858309    1.5420593    1.9870812    3.0877054 
 3155000   0.99413915 7.2002911e-05   0.50181884   0.01879064            0    0.4830282     1.478782    1.9806008    4.4383002 
 3160000    1.0196926 -2.7326674e-05    0.4799135  0.025814836            0   0.45409867    1.5167928    1.9967063    1.0639558 
 3165000    1.0005271 2.3723323e-05   0.50417931  0.020694645            0   0.48348466     1.488284    1.9924633    2.8022195 
 3170000    1.0285931 6.5538991e-05   0.43228741  0.031883502            0   0.40040391    1.5300323    1.9623197    4.1993839 
 3175000    1.0527621 -8.495374e-05   0.39715003  0.026506342            0   0.37064368    1.5659836    1.9631337  -0.93662066 
 3180000    1.0128822 -7.221863e-05   0.44861092  0.017252168            0   0.43135875    1.5066623    1.9552732  -0.50978933 
 3185000   0.99324014 6.0794305e-05   0.47009591   0.02322951            0    0.4468664    1.4774447    1.9475406    4.0226529 
 3190000    1.0027956 -2.2551388e-05   0.43000321 0.0065809397            0   0.42342227    1.4916584    1.9216616    1.1519076 
 3195000    1.0214858 5.4266946e-05   0.42249901 0.0078713873            0   0.41462762    1.5194601    1.9419591    3.7942708 
 3200000     1.020082 0.00013346204    0.4234957  0.008138919            0   0.41535678     1.517372    1.9408677     6.496372 
 3205000   0.98394063 1.6043379e-05   0.48464224  0.010338121            0   0.47430412    1.4636117    1.9482539    2.4958679 
 3210000   0.99319643 9.432157e-05   0.48337649  0.029400599            0   0.45397589    1.4773797    1.9607562    5.1802658 
 3215000    0.9937631 0.00012099697   0.47084607  0.017466811            0   0.45337926    1.4782226    1.9490687    6.0790986 
 3220000   0.93619529 0.00016435953   0.56061747  0.011011479            0   0.54960599    1.3925905     1.953208    7.5633465 
 3225000   0.94341229 2.3686255e-05   0.56384653 0.0096740423            0   0.55417249    1.4033258    1.9671723    2.7756631 
 3230000    1.0405844 0.00014887331   0.42573207  0.010308943            0   0.41542313    1.5478693    1.9736013    7.0551436 
 3235000    1.0269131 -2.8675907e-05    0.4626346 0.0087059403            0   0.45392866    1.5275333    1.9901679    1.0113636 
 3240000   0.97670698 1.3516547e-05   0.52211695  0.032929808            0   0.48918714    1.4528516    1.9749686    2.4363334 
 3245000   0.98782895 -5.1739868e-06   0.53213545  0.048433721            0   0.48370173    1.4693956     2.001531    1.8249256 
 3250000    1.0048987 2.2426456e-05   0.49057948  0.019852992            0   0.47072648    1.4947868    1.9853663     2.750856 
 3255000    1.0595513 3.1032795e-05   0.42557859  0.018136729            0   0.40744186    1.5760826    2.0016612     3.060914 
 3260000   0.97767362 0.00011402334   0.54063475  0.049241188            0   0.49139356    1.4542895    1.9949243     5.886921 
 3265000    1.0526712 -4.7166175e-05   0.41859159  0.017506259            0   0.40108534    1.5658484      1.98444   0.37450121 
 3270000    1.0302716 -3.1163856e-05   0.46669405 0.0045479331            0   0.46214611    1.5325291    1.9992231   0.93549682 
 3275000    1.0357211 5.9166148e-05   0.46046325 0.0053943788            0   0.45506887    1.5406351    2.0010984    4.0206362 
 3280000    1.0187334 -3.2504425e-05   0.47647482 0.0080317502            0   0.46844307    1.5153659    1.9918408   0.88235638 
 3285000     1.015517 -8.8558019e-05   0.46228553 0.0078777325            0    0.4544078    1.5105815     1.972867   -1.0499133 
 3290000   0.98467074 -0.00016028575   0.50347022  0.019269602            0   0.48420062    1.4646977     1.968168    -3.502919 
 3295000    1.0051017 -8.216633e-05    0.4701278  0.015337929            0   0.45478987    1.4950888    1.9652166  -0.83939412 
 3300000    1.0268381 9.7304968e-05   0.42725846 0.0044593326            0   0.42279912    1.5274217    1.9546802    5.2760231 
 3305000   0.97249748 0.00011147597   0.49699939 0.0068710911            0    0.4901283      1.44659    1.9435894     5.748636 
 3310000   0.94987435 2.5916459e-07   0.51895719  0.034200085            0   0.48475711    1.4129381    1.9318953    1.9407414 
 3315000   0.99441897 -1.0406413e-05   0.44374967  0.010819888            0   0.43292978    1.4791982    1.9229479    1.5677423 
 3320000    1.0006859 -1.1490126e-05    0.4457908  0.011458256            0   0.43433255    1.4885203    1.9343111    1.5421148 
 3325000    1.0586645 2.6704822e-05   0.35813863  0.013461451            0   0.34467718    1.5747634     1.932902    2.8444266 
 3330000   0.99510786 0.0001196673   0.45903736  0.031820726            0   0.42721664    1.4802229    1.9392603     6.023904 
 3335000   0.97616191 -5.7491618e-05   0.48488191  0.016918928            0   0.46796298    1.4520408    1.9369228 -0.025457796 
 3340000    1.0119488 9.7473419e-06   0.44479125  0.010087206            0   0.43470405    1.5052739    1.9500652    2.2827744 
 3345000    1.0328448 6.7020214e-06    0.4131291 0.0060922433            0   0.40703686    1.5363566    1.9494857     2.178248 
 3350000   0.97952977 -5.1872446e-05   0.48698682  0.026810183            0   0.46017663    1.4570505    1.9440373   0.17345785 
 3355000   0.94442738 0.00012922833   0.51456741  0.021568012            0    0.4929994    1.4048357    1.9194031    6.3303969 
 3360000    1.0421124 3.134004e-05    0.3671412  0.016583572            0   0.35055763    1.5501422    1.9172834    2.9870235 
 3365000    1.0210561 -1.8149488e-05   0.39853694  0.013852596            0   0.38468434     1.518821    1.9173579    1.2978554 
 3370000   0.93824837 5.658158e-05   0.50492497 0.0052436301            0   0.49968134    1.3956444    1.9005694    3.8318873 
 3375000   0.93651441 -0.00010701868   0.52276385 0.0099426594            0   0.51282119    1.3930652     1.915829   -1.7370752 
 3380000    1.0091342 -4.0594233e-05   0.44185688  0.042709398            0   0.39914748    1.5010872    1.9429441   0.55732758 
 3385000   0.99110332  0.000133112   0.48102496  0.036209939            0   0.44481502    1.4742662    1.9552911    6.4988476 
 3390000   0.93077196 -2.2867477e-05   0.55504877  0.024703916            0   0.53034485    1.3845233    1.9395721    1.1590288 
 3395000   0.92563199 2.161184e-06   0.53850332  0.049781643            0   0.48872167    1.3768776    1.9153809    1.9891493 
 3400000   0.94636217 8.9429801e-05   0.49854727  0.029818552            0   0.46872872    1.4077137     1.906261    4.9587982 
 3405000    1.0101128 -4.3392146e-05   0.41912144 0.0082724495            0   0.41084899    1.5025428    1.9216642   0.44054565 
 3410000   0.98609867 1.3805565e-05   0.45892485 0.0047995338            0   0.45412531    1.4668218    1.9257466    2.3969766 
 3415000    1.0307173 0.0001044842   0.38739916 0.0042692041            0   0.38312996    1.5331919    1.9205911    5.4869851 
 3420000    1.0097677 4.8664588e-05   0.42449193  0.001424321            0   0.42306761    1.5020295    1.9265214     3.587606 
 3425000    1.0081594 5.1028536e-05   0.42081574 0.0011780577            0   0.41963768    1.4996371    1.9204529    3.6622269 
 3430000   0.96768921 5.4779288e-05   0.44905371 0.0016534823            0   0.44740023    1.4394377    1.8884914    3.7582911 
 3435000    1.0155501 2.2306978e-05   0.38469056 0.0090889535            0   0.37560161    1.5106308    1.8953214    2.6567329 
 3440000   0.97883618 -3.036744e-05   0.43777704  0.020221563            0   0.41755548    1.4560188    1.8937959   0.85725391 
 3445000    1.0054964 1.1745429e-05   0.39877066  0.029698173            0   0.36907248     1.495676    1.8944466    2.2953573 
 3450000   0.97614498 3.7772442e-05   0.45728964  0.043948652            0   0.41334099    1.4520157    1.9093053    3.1986046 
 3455000   0.93439685 -8.8650925e-05   0.51462262  0.032657741            0   0.48196488    1.3899153    1.9045379   -1.1214136 
 3460000   0.94208966 -2.1496938e-05   0.52673697 0.0091045453            0   0.51763243    1.4013584    1.9280953    1.1943332 
 3465000     1.054507 5.5565627e-06   0.36769251 0.0067125375            0   0.36097998    1.5685792    1.9362717    2.1259357 
 3470000   0.97901095 2.5191171e-05   0.47340554  0.027332802            0   0.44607273    1.4562788    1.9296843     2.789543 
 3475000   0.96495239 8.5401154e-05    0.4821698  0.024403213            0   0.45776659    1.4353667    1.9175365    4.8325625 
 3480000    1.0097594 -1.4486939e-05   0.42921938  0.015666603            0   0.41355277    1.5020172    1.9312366     1.436749 
 3485000   0.94720376 -5.2153052e-05    0.5214354  0.027308473            0   0.49412693    1.4089656     1.930401   0.15024348 
 3490000   0.97692181 3.0616065e-05   0.50528757 0.0029918053            0   0.50229576    1.4531712    1.9584588    3.0034871 
 3495000    1.0764251 5.8453582e-05   0.38169151 0.00095910522            0   0.38073241    1.6011823    1.9828739    3.9780894 
 3500000    1.0918875 8.2427536e-05   0.38032841 0.0045891251            0   0.37573929    1.6241827    2.0045111    4.8180376 
 3505000    1.0778567 7.3257455e-05   0.39246038  0.034442958            0   0.35801742    1.6033119    1.9957723    4.4962934 
 3510000    0.9954084 -4.3314027e-05   0.51091408  0.036411948            0   0.47450214      1.48067    1.9915841   0.51313195 
 3515000    1.0190415 -0.00010151829   0.47159357  0.021042597            0   0.45055097    1.5158243    1.9874179   -1.4777398 
 3520000    1.0518645 4.2978327e-05   0.45040043  0.048856056            0   0.40154437    1.5646484    2.0150489    3.4820424 
 3525000    1.0081695 -2.2729556e-06   0.48937204  0.041715881            0   0.44765616    1.4996522    1.9890242    1.9114407 
 3530000   0.98970135 -8.7014698e-05   0.52671983  0.047220389            0   0.47949944    1.4721808    1.9989006  -0.97120109 
 3535000     1.056302 -1.4383865e-05     0.412902  0.026335615            0   0.38656639    1.5712493    1.9841513     1.493182 
 3540000    1.0401524 -0.00015522369   0.42260184 0.0040328824            0   0.41856896    1.5472267    1.9698286   -3.3284734 
 3545000    1.0068712 -8.4933639e-05   0.48552408  0.028292654            0   0.45723143    1.4977209     1.983245  -0.91582319 
 3550000    1.0164322 2.7301488e-05   0.44545477  0.028399359            0   0.41705541    1.5119429    1.9573976    2.8892884 
 3555000   0.98928691 0.0001293137    0.4798192 0.0093721104            0   0.47044709    1.4715643    1.9513835    6.3652911 
 3560000   0.98280852 4.6550351e-05   0.49829023 0.0089105974            0   0.48937963    1.4619277    1.9602179    3.5491365 
 3565000    1.0118509 -6.6086123e-05   0.44886789  0.020454168            0   0.42841373    1.5051282    1.9539961  -0.30174358 
 3570000   0.99926436 2.9544255e-05   0.49044048  0.037748297            0   0.45269219    1.4864057    1.9768462    2.9852901 
 3575000    1.0390682 -3.5679008e-05   0.44701253   0.02929089            0   0.41772164     1.545614    1.9926265   0.77478305 
 3580000   0.97538887 1.8764141e-05   0.52587206  0.029700897            0   0.49617116    1.4508909     1.976763    2.6172457 
 3585000    1.0085147 4.7970093e-05   0.51013345  0.019195408            0   0.49093804    1.5001656    2.0102991    3.6476783 
 3590000    1.0251475 5.0687593e-05   0.46973676  0.021511446            0   0.44822532    1.5249069    1.9946436    3.7247801 
 3595000    1.0363537 3.7538323e-05   0.43164599 0.0056281733            0   0.42601782    1.5415761    1.9732221    3.2545302 
 3600000    1.0825616 5.5458749e-05   0.38139951 0.0027695232            0   0.37862999    1.6103104    1.9917099    3.8847018 
 3605000    1.0164783 4.2299902e-05   0.51027962 0.0052437811            0   0.50503584    1.5120114     2.022291    3.4661277 
 3610000     1.061337 -8.0883884e-05   0.41437515 0.0073344079            0   0.40704074    1.5787388     1.993114  -0.76772264 
 3615000    1.0752808 -1.9837197e-05   0.39467871  0.010454978            0   0.38422373    1.5994802    1.9941589    1.3170492 
 3620000    1.1167554 -0.00012008137   0.34188128  0.016561724            0   0.32531955    1.6611736    2.0030549   -2.0957226 
 3625000   0.96647603 -0.00023484083   0.55893924  0.032904782            0   0.52603446    1.4376331    1.9965723    -6.019328 
 3630000    1.0179753 -4.9596582e-05   0.46753096   0.02163653            0   0.44589443    1.5142383    1.9817693    0.2888726 
 3635000    1.0182324 4.0217888e-05   0.49031613  0.024992587            0   0.46532354    1.5146207    2.0049368    3.3777074 
 3640000    1.0486338 0.00013059744   0.44369349  0.015507418            0   0.42818607    1.5598428    2.0035363    6.4612621 
 3645000    1.0316871 -4.9530927e-06   0.47418423   0.01532416            0   0.45886007    1.5346345    2.0088188    1.8397532 
 3650000    1.0318824 4.9242544e-05   0.47162472 0.0076116952            0   0.46401302    1.5349251    2.0065498     3.687362 
 3655000    1.0043503 0.00015880794    0.5311438 0.00042450403            0    0.5307193    1.4939711    2.0251149    7.4457593 
 3660000    1.0377943 -0.00012631361   0.46741621 0.0012623833            0   0.46615383     1.543719    2.0111352   -2.3003694 
 3665000    1.0901614 -9.4823404e-05   0.40031077 0.0032361514            0   0.39707462    1.6216151    2.0219258    -1.214713 
 3670000    1.0423952 -1.3688613e-05   0.43957079 0.0054763472            0   0.43409444    1.5505629    1.9901337    1.5228957 
 3675000    1.0619088 -4.8829714e-05   0.41262896  0.017314453            0    0.3953145    1.5795893    1.9922183   0.32549735 
 3680000    1.0385016 -2.8919345e-05   0.44225588  0.013042843            0   0.42921303    1.5447712    1.9870271   0.99991342 
 3685000     1.063427 -1.8625059e-05   0.40788447   0.02089112            0   0.38699335    1.5818477    1.9897321    1.3539968 
 3690000    1.0449541 2.3212827e-05   0.43732568  0.020079097            0   0.41724659    1.5543692    1.9916949     2.784026 
 3695000    1.0006294 -0.00014171277   0.50272639  0.049861464            0   0.45286492    1.4884363    1.9911626   -2.8459665 
 3700000    1.0095595 -0.00012422308   0.48874101  0.035667123            0   0.45307389    1.5017197    1.9904607    -2.249687 
 3705000    1.0685546 5.3571385e-05   0.40338721  0.017745449            0   0.38564176    1.5894749    1.9928621    3.8214321 
 3710000    1.0214426 -2.3687943e-05   0.47091933  0.038739154            0   0.43218018    1.5193959    1.9903152    1.1817667 
 3715000    1.0124301 -1.1554102e-05   0.48015802  0.031767491            0   0.44839053    1.5059898    1.9861478    1.5917678 
 3720000   0.99543953 -4.3178011e-05   0.50041647  0.028366796            0   0.47204968    1.4807163    1.9811328   0.50732332 
 3725000    1.0618671 -0.00011053602   0.41477479  0.031496432            0   0.38327836    1.5795274    1.9943022   -1.7786607 
 3730000    1.0467778 -1.5692863e-05   0.45459016  0.012425692            0   0.44216447     1.557082    2.0116721    1.4760224 
 3735000    1.0763561 1.8008286e-05   0.41983135  0.045178137            0   0.37465321    1.6010798    2.0209111    2.6355939 
 3740000     1.055398 6.8385739e-05   0.45478759  0.049050426            0   0.40573716    1.5699046    2.0246921    4.3589254 
 3745000    1.0271339 0.00018519991   0.49371173  0.033539652            0   0.46017207    1.5278617    2.0215735    8.3430637 
 3750000    1.0306374 0.00011228117   0.50726956  0.048278681            0   0.45899088    1.5330731    2.0403427    5.8728732 
 3755000    1.0932421 -0.00010295456   0.41146299    0.0391638            0   0.37229919    1.6261977    2.0376607   -1.4765216 
 3760000    1.0784857 -1.1939027e-06   0.42629638   0.01372845            0   0.41256793    1.6042475    2.0305439     1.989792 
 3765000    1.0888715 -7.2575777e-05   0.42752427  0.030820912            0   0.39670335    1.6196963    2.0472206  -0.43003261 
 3770000    1.0390093 -0.0001411426   0.48644764  0.025416364            0   0.46103128    1.5455264     2.031974   -2.7856934 
 3775000    1.0306659 -2.9537871e-05   0.47729879  0.027002408            0   0.45029638    1.5331155    2.0104143    1.0021883 
 3780000    1.0777158 -1.3817321e-05   0.42254053  0.034947217            0   0.38759331    1.6031022    2.0256427    1.5540115 
 3785000    1.0967661 -3.4435737e-05   0.42404601  0.020169501            0   0.40387651    1.6314396    2.0554856   0.88007917 
 3790000     1.098773 -0.00011090127   0.43978098  0.020122737            0   0.41965824    1.6344249    2.0742059   -1.7112242 
 3795000    1.1106207 -9.4676893e-05   0.40235998  0.015390369            0   0.38696961    1.6520483    2.0544083   -1.1772297 
 3800000    1.0730976 3.8367021e-05    0.4434374  0.043999332            0   0.39943807    1.5962327    2.0396701    3.3492644 
 3805000     1.046886 -9.5692113e-05   0.47555186  0.023864993            0   0.45168687    1.5572429    2.0327947   -1.2334961 
 3810000    1.0662293 4.3282536e-05    0.4375723  0.033680903            0    0.4038914     1.586016    2.0235883    3.5009655 
 3815000    1.0545925 0.00013253016   0.45604049  0.053052009            0   0.40298848    1.5687063    2.0247468    6.5484429 
 3820000    1.0395242 -7.0048691e-05    0.4937885 0.0062915641            0   0.48749694    1.5462922    2.0400807  -0.35091459 
 3825000    1.0894895 2.0206758e-06   0.43498283 0.0066178905            0   0.42836494    1.6206156    2.0555985    2.1245709 
 3830000    1.0479161 4.379253e-06   0.48453179 0.0094431218            0   0.47508866    1.5587752     2.043307    2.1927855 
 3835000    1.0769865 -0.00012835673   0.41220346  0.014601899            0   0.39760157    1.6020174    2.0142208   -2.3670221 
 3840000    1.0752105 -2.1557765e-05   0.43544505  0.031101912            0   0.40434314    1.5993757    2.0348207    1.2989823 
 3845000    1.0440997 9.4207708e-05   0.50207403  0.051031071            0   0.45104295    1.5530983    2.0551724    5.2707955 
 3850000    1.0210051 4.5303448e-05   0.53117639  0.058381465            0   0.47279493    1.5187451    2.0499215    3.5962792 
 3855000    1.0229519 -1.4086984e-06   0.53291777  0.042801819            0   0.49011595    1.5216409    2.0545586    2.0064751 
 3860000    1.0308242 -0.00011137713    0.5203651  0.010424971            0   0.50994013    1.5333509     2.053716   -1.7479567 
 3865000    1.0367058 -1.967263e-05   0.50275415 0.0018088732            0   0.50094527    1.5420999     2.044854    1.3733616 
 3870000    1.0550982 -1.4467096e-05   0.46598311 0.0031589208            0   0.46282418    1.5694585    2.0354416    1.5416314 
 3875000    1.0334004 -6.2646563e-05   0.49698721 0.0029775421            0   0.49400967    1.5371831    2.0341703  -0.10416574 
 3880000     1.069299 -3.9977592e-05   0.44048887 0.0023431571            0   0.43814572    1.5905822    2.0310711   0.66650262 
 3885000    1.0877584 -7.2932081e-05   0.40325652 0.0023813511            0   0.40087517    1.6180406    2.0212971  -0.46811791 
 3890000    1.0062218 -1.123654e-05   0.50144832  0.023188758            0   0.47825956    1.4967549    1.9982033    1.6146627 
 3895000    1.0217538 5.1045217e-06   0.45769466 0.0097015789            0   0.44799308    1.5198588    1.9775534    2.1517878 
 3900000    1.0180406 -5.8005471e-05   0.48107844  0.019624354            0   0.46145409    1.5143354    1.9954138   0.01549373 
 3905000    1.0054354 -5.9448157e-05   0.48445942  0.069515306            0   0.41494412    1.4955851    1.9800445 -0.049119251 
 3910000    1.0072308 2.7890662e-05   0.47267266  0.060701619            0   0.41197104    1.4982558    1.9709285    2.9229298 
 3915000    1.0034543 6.4120474e-05   0.47383949   0.02283864            0   0.45100084    1.4926382    1.9664777    4.1551232 
 3920000   0.98362532 2.2672149e-06   0.49804418  0.013060284            0   0.48498389    1.4631427    1.9611868    2.0385744 
 3925000   0.97349646 -7.5945511e-05    0.5077814   0.02520431            0   0.48257709     1.448076    1.9558574  -0.63641605 
 3930000   0.99354609 3.6782806e-05   0.47945032  0.041373362            0   0.43807696    1.4778998    1.9573501    3.2128699 
 3935000   0.99963085 2.5937771e-05     0.462559  0.015904243            0   0.44665475    1.4869509    1.9495099    2.8348525 
 3940000    1.0304834 0.00012891395   0.41145951  0.003056424            0   0.40840309    1.5328441    1.9443036    6.3445665 
 3945000    1.0057008 7.2035321e-05   0.42179766  0.014141027            0   0.40765663    1.4959799    1.9177776    4.3765832 
 3950000    1.0021858 -9.8046922e-05   0.44167834  0.014677871            0   0.42700047    1.4907514    1.9324298   -1.4142385 
 3955000   0.95892027 -9.5895074e-05   0.50600694  0.010322536            0    0.4956844    1.4263939    1.9324008   -1.3408177 
 3960000   0.96036036 5.415825e-05   0.51574173  0.038139304            0   0.47760243     1.428536    1.9442778    3.7928794 
 3965000   0.97475569 -3.1734929e-06   0.51115474    0.0361347            0   0.47502004    1.4499491    1.9611038    1.8527819 
 3970000   0.99541143 -0.00012123444   0.46409437 0.0073955575            0   0.45669882    1.4806745    1.9447689   -2.1933667 
 3975000    1.0059276 5.6748442e-05   0.43761917 0.0096336774            0    0.4279855    1.4963173    1.9339364    3.8709499 
 3980000   0.96503264 7.5324115e-05   0.47070934  0.016369001            0   0.45434034    1.4354861    1.9061954    4.4772585 
 3985000   0.91439072   1.3425e-05   0.57478138  0.019639093            0   0.55514229    1.3601562    1.9349376    2.3931776 
 3990000    0.9799722 4.6084342e-05   0.48603299  0.023544432            0   0.46248856    1.4577087    1.9437416    3.5167539 
 3995000    1.0080022 8.0869454e-05   0.44439039  0.015960288            0    0.4284301    1.4994033    1.9437937    4.7041377 
 4000000    1.0014799 4.3803714e-06   0.46370158 0.0051731136            0   0.45852847    1.4897014    1.9534029    2.1029196 
 4005000    1.0408725 4.8684066e-06   0.41319365   0.00705374            0   0.40613991    1.5482978    1.9614915    2.1276664 
 4010000   0.99504311 -1.6367397e-05   0.48963921 0.0060476892            0   0.48359152    1.4801266    1.9697658     1.411092 
 4015000    1.0196925 -1.1723157e-05   0.44337019 0.0053647908            0    0.4380054    1.5167926    1.9601628    1.5600124 
 4020000   0.94688292 -6.2889513e-05   0.55680926 0.0086840788            0   0.54812518    1.4084883    1.9652976  -0.18133111 
 4025000   0.98250812 -3.313161e-05   0.50469524  0.026818052            0   0.47787719    1.4614808    1.9661761   0.83528379 
 4030000    0.9549466 -4.2909015e-05   0.52321287  0.028710826            0   0.49450205    1.4204831    1.9436959   0.47906823 
 4035000    0.9906827 -3.4554417e-05   0.46827334  0.011315459            0   0.45695788    1.4736405    1.9419138   0.76245641 
 4040000    1.0046435 6.8125787e-05   0.42360131  0.016643371            0   0.40695794    1.4944072    1.9180085    4.2433687 
 4045000   0.96384831 5.5497335e-05   0.47306509  0.023067958            0   0.44999713    1.4337244    1.9067895    3.8010985 
 4050000   0.96370941 -4.8457405e-05   0.48385585 0.0068431072            0   0.47701275    1.4335177    1.9173736   0.26336084 
 4055000    1.0042073 -9.9739805e-05   0.46355387  0.014830271            0    0.4487236    1.4937584    1.9573122   -1.4471398 
 4060000   0.94736615 -0.000100618   0.56428859  0.040259382            0   0.52402921    1.4092071    1.9734957   -1.4609319 
 4065000    1.0304079 3.0861232e-05   0.44185141  0.026793105            0    0.4150583    1.5327317    1.9745831    3.0279798 
 4070000    1.0012793 0.0001048879   0.48905883   0.02726692            0   0.46179191    1.4894029    1.9784618    5.5586353 
 4075000    1.0264786 0.00015114306   0.46388818  0.031056737            0   0.43283144    1.5268869     1.990775    7.1497915 
 4080000    0.9331146 2.3964636e-05   0.56819497  0.037478287            0   0.53071669     1.388008    1.9562029    2.7741958 
 4085000    1.0145524 -8.2650948e-05   0.45889538  0.010637213            0   0.44825817    1.5091468    1.9680421   -0.8531102 
 4090000   0.99929175 -3.0623374e-05   0.50897717   0.02156079            0   0.48741638    1.4864465    1.9954236   0.95014579 
 4095000    1.0189821 -2.0304686e-05   0.50883167  0.027613003            0   0.48121866    1.5157358    2.0245675    1.3315009 
 4100000   0.98542038 -9.272033e-06   0.54041519  0.022288951            0   0.51812624    1.4658128     2.006228    1.6897426 
 4105000    1.0159887 -2.2810712e-05   0.49576741  0.033291158            0   0.46247625    1.5112831    2.0070505    1.2284449 
 4110000    1.0918223 -7.1516269e-05   0.39285486  0.020628137            0   0.37222672    1.6240856    2.0169405  -0.42414816 
 4115000    1.0358542 -6.8723156e-05   0.45848079  0.017606475            0   0.44087432    1.5408332     1.999314  -0.34643644 
 4120000   0.97493789 -0.00010457753   0.54239146  0.014060249            0   0.52833121    1.4502201    1.9926116    -1.576968 
 4125000   0.99094099 -0.00012809215   0.51445826  0.011103146            0   0.50335511    1.4740247     1.988483    -2.383729 
 4130000     1.040715 4.5086589e-06   0.44731311  0.021011379            0   0.42630173    1.5480636    1.9953767    2.1492723 
 4135000    1.0207837 3.0289044e-05   0.46101009 0.0094552323            0   0.45155486    1.5184158    1.9794259     3.013292 
 4140000   0.99259574 4.1999098e-05   0.50624525  0.003934577            0   0.50231067    1.4764862    1.9827314    3.4163006 
 4145000    1.0248665 0.00014656667   0.45045848 0.0098318167            0   0.44062666    1.5244889    1.9749474    6.9777564 
 4150000    1.0285996 7.8700175e-05   0.44705297  0.017072051            0   0.42998092    1.5300419    1.9770949    4.6633942 
 4155000   0.98120115 -1.5476477e-05   0.50553018  0.034993859            0   0.47053632    1.4595367    1.9650669    1.4368031 
 4160000   0.96870196 -3.6970381e-05   0.48029078  0.048470937            0   0.43181985    1.4409442    1.9212349   0.65931262 
 4165000   0.96810751 -0.0001003314   0.46553339  0.018572044            0   0.44696135    1.4400599    1.9055933   -1.5190518 
 4170000   0.96871561 3.1217853e-05   0.44312447  0.022048873            0    0.4210756    1.4409645    1.8840889    2.9496583 
 4175000   0.95608485 -6.4280275e-06    0.4495859  0.042641764            0   0.40694414    1.4221762    1.8717621    1.6523521 
 4180000   0.95363509 1.6177113e-06   0.45566312   0.02670737            0   0.42895575    1.4185322    1.8741953    1.9294132 
 4185000   0.93604517 8.0993217e-05   0.47454056 0.0062572996            0   0.46828326    1.3923672    1.8669078    4.6314762 
 4190000   0.88598454 -0.00010999239   0.54694486  0.013669411            0   0.53327545     1.317902    1.8648469   -1.8895599 
 4195000   0.97305651 -7.039325e-05   0.42986053  0.020199791            0   0.40966074    1.4474216    1.8772821  -0.52547418 
 4200000   0.94373725 -1.6690578e-05   0.46729151  0.012459336            0   0.45483217    1.4038092    1.8711007    1.3013956 
 4205000   0.91570253 -8.5220786e-05   0.52815314  0.023161239            0    0.5049919    1.3621075    1.8902607   -1.0186088 
 4210000   0.88453485 -7.9268641e-05   0.57745216  0.035731432            0   0.54172073    1.3157456    1.8931978  -0.81250519 
 4215000   0.99930017 -0.0001081246    0.4152539  0.025235408            0   0.39001849     1.486459    1.9017129   -1.7889401 
 4220000   0.92250483 5.0809705e-05   0.51064044  0.023663923            0   0.48697651    1.3722259    1.8828664     3.617171 
 4225000    0.9448527 0.00018746229   0.49416285  0.040868219            0   0.45329463    1.4054684    1.8996312    8.2983441 
 4230000   0.94071627 3.6702627e-05   0.49728097  0.014219385            0   0.48306158    1.3993155    1.8965964    3.1493794 
 4235000   0.94131454 1.4364326e-05   0.47376741  0.038024989            0   0.43574242    1.4002054    1.8739728    2.3642751 
 4240000   0.90340314 -0.0001101934   0.50167035  0.040943662            0   0.46072669    1.3438122    1.8454825   -1.9157854 
 4245000   0.94888555 -8.4058987e-05   0.42364217 0.0092123233            0   0.41442985    1.4114673    1.8351094    -1.034104 
 4250000   0.89310324 0.00014957256   0.49806104 0.0061242777            0   0.49193677    1.3284911    1.8265521    6.9319622 
 4255000   0.90055096 4.5106104e-05   0.47046756  0.028101348            0   0.44236621    1.3395696    1.8100371    3.3496588 
 4260000    0.9190824 -0.0001196055   0.41384607  0.030495948            0   0.38335012    1.3671351    1.7809811   -2.3015533 
 4265000   0.87497772 -1.5298034e-05    0.4724972  0.015963115            0   0.45653409    1.3015294    1.7740266    1.2518537 
 4270000   0.94254202 -5.8474511e-05   0.39627801  0.024990547            0   0.37128746    1.4020313    1.7983093  -0.19762072 
 4275000   0.87118622 -0.00016158654   0.50013179 0.0045493603            0   0.49558243    1.2958895    1.7960213   -3.7194659 
 4280000   0.88994805 -5.3153699e-06   0.48638765 0.0025853114            0   0.48380234    1.3237977    1.8101854    1.6287541 
 4285000   0.91879326 1.802586e-05   0.42367928 0.0065354558            0   0.41714383     1.366705    1.7903843     2.405667 
 4290000   0.89422416 -8.6557913e-06    0.4493906  0.013369833            0   0.43602076    1.3301584     1.779549     1.484098 
 4295000   0.92346692 -0.00013567838   0.40781269  0.008112654            0   0.39970004     1.373657    1.7814697   -2.8496856 
 4300000   0.92525733 -1.9314468e-05   0.37068905  0.014577085            0   0.35611196    1.3763203    1.7470093    1.0877422 
 4305000   0.85185155 6.8392512e-05   0.48357718  0.021944113            0   0.46163307    1.2671292    1.7507064    4.0851708 
 4310000   0.86320423 -8.7112571e-05   0.44057893  0.031978441            0   0.40860049    1.2840163    1.7245952   -1.2488472 
 4315000   0.86827517 4.7618958e-05   0.45179613  0.010554768            0   0.44124136    1.2915593    1.7433554    3.3687492 
 4320000   0.91881535 2.5838095e-05   0.38305651 0.0079710413            0   0.37508547    1.3667378    1.7497944    2.6317347 
 4325000   0.90739511 5.7717934e-05   0.38910656  0.010417452            0   0.37868911    1.3497502    1.7388568    3.7089623 
 4330000   0.83052292 -3.3585592e-05   0.50502585  0.011074133            0   0.49395172    1.2354028    1.7404287   0.59404048 
 4335000   0.91524651 -0.00011032384   0.36713481 0.0065093825            0   0.36062543    1.3614292     1.728564   -2.0371565 
 4340000    0.8813155 4.6102539e-05   0.41986949  0.006421978            0   0.41344752    1.3109568    1.7308263    3.3044596 
 4345000   0.88437639 0.00011864297   0.40325053  0.012929388            0   0.39032114    1.3155099    1.7187604    5.7684406 
 4350000   0.80514792 9.782235e-05   0.54428426 0.0063601894            0   0.53792407    1.1976575    1.7419418    5.0809447 
 4355000   0.87488689 8.1602835e-05   0.47788904 0.0039439613            0   0.47394508    1.3013943    1.7792833    4.5646601 
 4360000   0.88955688 -1.3348073e-05   0.44833427 0.0096216283            0   0.43871264    1.3232159    1.7715501    1.3159359 
 4365000   0.93790909 -3.1367276e-05    0.3869523  0.015819428            0   0.37113287    1.3951398    1.7820921   0.71142239 
 4370000   0.87273808 -4.5820386e-05   0.46284131 0.0086792402            0   0.45416207    1.2981979    1.7610392   0.19703669 
 4375000   0.85132789 -0.00013044352   0.47443067  0.022939943            0   0.45149072    1.2663502    1.7407809   -2.7116913 
 4380000   0.83865083 -9.5270533e-05   0.48888426  0.028477928            0   0.46040634    1.2474931    1.7363774   -1.5155235 
 4385000   0.89463086 -8.8208106e-05   0.41809209   0.01664469            0    0.4014474    1.3307634    1.7488555   -1.2619812 
 4390000   0.91816603 5.8651195e-05    0.3834828  0.021518491            0   0.36196431     1.365772    1.7492548    3.7512156 
 4395000   0.89736173 4.8078398e-05   0.41882861   0.02033472            0   0.39849389    1.3348256    1.7536542    3.3947301 
 4400000   0.93808465 -7.5044852e-05   0.36771457 0.0025784224            0   0.36513615    1.3954009    1.7631155  -0.79841547 
 4405000    1.0008598 3.3309381e-05   0.31540494  0.002569945            0     0.312835     1.488779    1.8041839    2.9411441 
 4410000   0.94789834 -1.6878377e-05   0.37420311  0.014479991            0   0.35972312    1.4099988    1.7842019    1.2080866 
 4415000   0.91094849 -8.9040253e-05   0.41554912  0.019027738            0   0.39652138    1.3550359     1.770585   -1.2686556 
 4420000   0.91274687 7.2951033e-05   0.41828769 0.0064795194            0   0.41180817     1.357711    1.7759987    4.2660606 
 4425000   0.94974467 0.00010028748   0.36746798  0.013148932            0   0.35431904    1.4127452    1.7802132    5.2033592 
 4430000    0.9125417 -0.00010353989   0.43574328  0.010999612            0   0.42474366    1.3574058     1.793149   -1.7410125 
 4435000   0.94711219 4.9466093e-05   0.39012903 0.0022105573            0   0.38791847    1.4088294    1.7989584    3.4874011 
 4440000   0.96665491 8.591578e-05   0.35413405 0.00021529562            0   0.35391876    1.4378992    1.7920332    4.7246252 
 4445000   0.98764027 4.3270651e-05   0.34561862 0.0040986262            0   0.34151999    1.4691149    1.8147335    3.2917051 
 4450000   0.90410792 9.7386069e-05   0.46521794  0.034514411            0   0.43070353    1.3448605    1.8100785    5.1341896 
 4455000   0.94440651 -3.3162909e-05   0.40959456   0.03326641            0   0.37632815    1.4048047    1.8143992   0.68243861 
 4460000   0.92939738 2.1048581e-05   0.42560913  0.021968396            0   0.40364074    1.3824786    1.8080877     2.526546 
 4465000   0.99104053 6.6668034e-05   0.34187742 0.0076409012            0   0.33423652    1.4741728    1.8160502    4.0916524 
 4470000   0.95842484 -6.6390296e-05   0.38901173 0.0043128061            0   0.38469892    1.4256569    1.8146687  -0.45145342 
 4475000   0.93043267 -0.000121179   0.45389535 0.0059583935            0   0.44793696    1.3840186    1.8379139   -2.2983292 
 4480000    0.9600454 -0.00012680641   0.42158867 0.0033925747            0   0.41819609    1.4280675    1.8496562   -2.4786694 
 4485000   0.97313108 8.0762465e-05   0.38787044 0.0061134291            0   0.38175701    1.4475325    1.8354029    4.5920951 
 4490000   0.95982988 -3.1258299e-05   0.44214512    0.0257752            0   0.41636992    1.4277469    1.8698921   0.80294213 
 4495000   0.97484012 2.1474847e-06   0.41575546  0.019882766            0   0.39587269    1.4500747    1.8658301     1.939131 
 4500000   0.97145668 1.8738349e-05   0.44491862   0.01513556            0   0.42978306    1.4450418    1.8899604    2.5295627 
 4505000     1.033682 -5.1751618e-05   0.36437006  0.017836933            0   0.34653313     1.537602    1.9019721   0.13551684 
 4510000     1.000209 -2.8470433e-05   0.39299069  0.021094011            0   0.37189668    1.4878109    1.8808016   0.90901082 
 4515000   0.94149138 7.7821298e-05   0.47529988  0.020933134            0   0.45436674    1.4004684    1.8757683    4.5320686 
 4520000   0.99537283 0.00019773781   0.39796586  0.035242919            0   0.36272294    1.4806171    1.8785829    8.6280335 
 4525000   0.97002018 6.4237796e-05   0.43355258 0.0089238355            0   0.42462874     1.442905    1.8764576    4.0691077 
 4530000    0.9570069 -6.7894216e-05   0.43663089 0.0018451889            0    0.4347857    1.4235478    1.8601787  -0.45727727 
 4535000   0.96518229 4.919879e-05    0.4269161 0.0026627996            0    0.4242533    1.4357087    1.8626248    3.5419435 
 4540000   0.94971383 0.00013215185   0.43858602 0.0057687419            0   0.43281728    1.4126993    1.8512853    6.3620686 
 4545000    0.9620144 -7.9221127e-05   0.44723065 0.0050374481            0   0.44219321    1.4309964    1.8782271  -0.82585408 
 4550000   0.97064223 -6.5998078e-06   0.43425836 0.0042938482            0   0.42996451    1.4438303    1.8780887    1.6528152 
 4555000   0.98924263 0.00013010797   0.39507737  0.010843859            0   0.38423351    1.4714984    1.8665758    6.3075945 
 4560000   0.93946072 0.00012508451   0.47185213  0.026856506            0   0.44499562    1.3974478       1.8693    6.1388511 
 4565000   0.95256037 3.9273561e-05   0.47334806  0.015882246            0   0.45746582    1.4169336    1.8902816    3.2308192 
 4570000   0.98577241 -0.00011893397   0.43943152  0.016474386            0   0.42295713    1.4663365     1.905768   -2.1538448 
 4575000   0.98211727 -0.00010187515    0.4224998  0.010903959            0   0.41159584    1.4608994    1.8833992   -1.5939393 
 4580000   0.96359696 -5.3628003e-05   0.46508173  0.015777686            0   0.44930404    1.4333505    1.8984322  0.067929696 
 4585000   0.95900375 2.680227e-05   0.47327025  0.021691203            0   0.45157904    1.4265181    1.8997883    2.8146391 
 4590000   0.97741371 -0.00011688361   0.46324494  0.014929051            0   0.44831589    1.4539029    1.9171478   -2.0724795 
 4595000   0.96563254 -0.00016621847   0.49540294  0.032305988            0   0.46309696    1.4363784    1.9317814   -3.7418092 
 4600000   0.95898974 -7.2592645e-05   0.52425553  0.021155701            0   0.50309983    1.4264972    1.9507528  -0.52707619 
 4605000    1.0681732 -3.7378752e-05   0.36350805  0.016546427            0   0.34696162    1.5889077    1.9524157   0.67655435 
 4610000   0.98908697 7.3588611e-06   0.48157666  0.010495569            0   0.47108109    1.4712669    1.9528435     2.204026 
 4615000   0.95749362 -4.0970195e-05   0.53363746  0.014175261            0    0.5194622    1.4242718    1.9579092   0.55945988 
 4620000    1.0177912 -0.00012876505   0.45491488  0.010901895            0   0.44401298    1.5139644    1.9688793   -2.4263009 
 4625000    1.0287196 4.2921387e-05   0.42354138  0.015257394            0   0.40828398    1.5302204    1.9537618    3.4188118 
 4630000   0.98444326 4.2970136e-05   0.49204157 0.0064987386            0   0.48554283    1.4643593    1.9564009    3.4231149 
 4635000   0.93475753 -5.7413579e-05    0.5580306  0.012509188            0   0.54552141    1.3904518    1.9484824 -0.011234415 
 4640000    1.0498185 2.1080281e-05   0.37119056 0.0058573282            0   0.36533323     1.561605    1.9327956    2.6523358 
 4645000     1.032761 -7.0065552e-05   0.42823471 0.0031927627            0   0.42504194    1.5362319    1.9644666  -0.42710422 
 4650000    1.0028827 -2.1569863e-05    0.4804378  0.001235162            0   0.47920263     1.491788    1.9722258    1.2359745 
 4655000    1.0356526 8.7423145e-05   0.44264186 0.0021961884            0   0.44044567    1.5405332    1.9831751    4.9672184 
 4660000     1.045612 2.7557934e-05   0.45309785 0.0064001929            0   0.44669766    1.5553479    2.0084457    2.9490899 
 4665000    1.0705981 3.6651051e-05   0.43280979  0.014515667            0   0.41829412    1.5925147    2.0253244     3.276347 
 4670000    1.0705751 -0.00017819185     0.429047 0.0076767473            0   0.42137025    1.5924805    2.0215275   -4.0607543 
 4675000     1.088096 -0.00010393144   0.39497127 0.00073804276            0   0.39423323    1.6185428    2.0135141   -1.5340124 
 4680000    1.0438508 0.00015152078   0.41631036   0.01064159            0   0.40566877     1.552728    1.9690384    7.1409478 
 4685000   0.96701585 4.6061489e-08   0.52585015   0.03720146            0   0.48864869    1.4384361    1.9642862    1.9658585 
 4690000    1.0480126 8.6684745e-05   0.41864128  0.038963311            0   0.37967797    1.5589188    1.9775601    4.9363994 
 4695000    1.0437008 6.0058908e-05   0.44041999 0.0049601531            0   0.43545984     1.552505     1.992925    4.0429357 
 4700000    1.0640959 9.9684858e-05   0.43030924  0.001822716            0   0.42848653    1.5828426    2.0131519    5.4157284 
 4705000    1.0407619 2.036563e-05   0.46696903  0.011128002            0   0.45584103    1.5481333    2.0151023    2.7102491 
 4710000    1.0588572 8.4511887e-05   0.44541475  0.014770855            0    0.4306439      1.57505    2.0204648    4.9051372 
 4715000    1.0641146 5.3499624e-05   0.42504789 0.0049031325            0   0.42014476    1.5828704    2.0079183    3.8340388 
 4720000    1.1088665 6.442585e-05   0.34843243 0.0023554956            0   0.34607694     1.649439    1.9978714    4.1969404 
 4725000    1.0292398 -0.00014394932    0.4328772  0.015517108            0    0.4173601    1.5309942    1.9638714   -2.9495986 
 4730000   0.98603967 -2.2358828e-05   0.49194049  0.068281696            0    0.4236588     1.466734    1.9586745    1.1954932 
 4735000    1.0451548 0.00015490935   0.39366863  0.036807979            0   0.35686065    1.5546677    1.9483364    7.2359089 
 4740000    1.0327879 9.6802224e-05   0.38575648  0.011207956            0   0.37454853     1.536272    1.9220285    5.2262111 
 4745000    1.0503682 8.6656292e-06   0.36469893  0.020017595            0   0.34468133    1.5624227    1.9271216    2.2229085 
 4750000   0.97226459 -3.3076047e-05   0.47679079  0.032274235            0   0.44451656    1.4462436    1.9230344   0.79403862 
 4755000    1.0034291 0.00011133943   0.41872341  0.022489896            0   0.39623351    1.4926007    1.9113241    5.7117101 
 4760000    1.0018651 0.00015281732   0.43737343 0.0071022754            0   0.43027115    1.4902743    1.9276478    7.1438123 
 4765000    1.0251902 -1.732408e-05   0.40368645  0.010426217            0   0.39326023    1.5249705    1.9286569    1.3373283 
 4770000   0.97417869 -0.00015182257   0.45980477  0.019471425            0   0.44033334    1.4490908    1.9088956    -3.273315 
 4775000   0.97087486 -0.00015383416   0.45213814  0.028923133            0     0.423215    1.4441764    1.8963145   -3.3545582 
 4780000   0.97419306 -2.3382762e-05    0.4186606  0.017045054            0   0.40161555    1.4491122    1.8677728    1.0696412 
 4785000   0.98988804 0.0001088967   0.37883353   0.01200029            0   0.36683324    1.4724585     1.851292    5.5682992 
 4790000    1.0013435 0.00014171678   0.38023687 0.0072099695            0    0.3730269    1.4894984    1.8697353    6.7070015 
 4795000   0.97917316 3.2023942e-05   0.40869366  0.020055291            0   0.38863837    1.4565201    1.8652137    2.9582976 
 4800000   0.99082519 -0.00014362032   0.40484692  0.013978089            0   0.39086883    1.4738525    1.8786994   -3.0235409 
 4805000   0.96857371 -0.00011934068   0.42656885   0.04504763            0   0.38152122    1.4407534    1.8673222   -2.2061731 
 4810000   0.98208286 6.3099012e-05   0.41489785  0.030561312            0   0.38433654    1.4608483    1.8757461    4.0295257 
 4815000   0.97307529 0.00013118869   0.42394327  0.028587048            0   0.39535622    1.4474495    1.8713928    6.3493001 
 4820000    0.9460729 -0.00010768964   0.47076207  0.029836723            0   0.44092535    1.4072834    1.8780455    -1.797761 
 4825000   0.97584901 -4.229428e-05   0.41773484  0.010850842            0     0.406884    1.4515754    1.8693102   0.42566548 
 4830000   0.98674762 5.4229379e-06   0.39507443 0.0091225878            0   0.38595185    1.4677871    1.8628615    2.0479645 
 4835000   0.91555383 4.4612464e-06   0.47940167  0.015469347            0   0.46393233    1.3618863     1.841288    1.9935652 
 4840000   0.91695506 0.00019504663   0.47900489  0.012906861            0   0.46609803    1.3639706    1.8429755     8.500567 
 4845000    1.0165627 6.1573891e-05   0.32754995 0.0032538122            0   0.32429614    1.5121371     1.839687    3.9414092 
 4850000   0.96025805 8.6203496e-06   0.40763818  0.010374301            0   0.39726388    1.4283838     1.836022    2.1302633 
 4855000   0.91868156 4.4135498e-05   0.46712329  0.020983829            0   0.44613947    1.3665388    1.8336621    3.3401538 
 4860000   0.96664956 1.1848269e-05   0.41297276  0.015420893            0   0.39755187    1.4378912     1.850864    2.2552849 
 4865000   0.94665455 7.9985817e-05   0.45219831  0.017230652            0   0.43496766    1.4081486     1.860347    4.5905295 
 4870000    0.9592362 8.2616847e-05   0.43372924  0.015443339            0   0.41828591    1.4268638    1.8605931    4.6805815 
 4875000   0.91163632 3.9270371e-05   0.49476079 0.0023139567            0   0.49244683     1.356059    1.8508198    3.1912485 
 4880000   0.95232003 -1.3843326e-05   0.42738338  0.012418224            0   0.41496516     1.416576    1.8439594    1.3714406 
 4885000   0.94924205 0.00016906429   0.43252116  0.029278155            0   0.40324301    1.4119976    1.8445187    7.6152466 
 4890000   0.96561801 9.4702912e-05   0.43915937  0.031862667            0    0.4072967    1.4363568    1.8755162    5.1080422 
 4895000   0.91704692 -7.7427504e-05   0.52807351  0.018510066            0   0.50956345    1.3641073    1.8921808    -0.750678 
 4900000   0.96395783 -1.5503392e-05   0.44931501  0.031882203            0   0.41743281    1.4338873    1.8832023    1.3540199 
 4905000   0.97262133 -4.6442679e-05   0.46630286  0.013312812            0   0.45299005    1.4467742    1.9130771   0.32783363 
 4910000    0.9688598 6.1284408e-05   0.48140083 0.0042957064            0   0.47710513     1.441179    1.9225798    4.0144209 
 4915000   0.97029309 9.6064528e-05   0.47228226  0.017954935            0   0.45432732     1.443311    1.9155932    5.1945958 
 4920000   0.96494923 -4.0069213e-05    0.4679043  0.019964356            0   0.44793995     1.435362    1.9032663    0.5355705 
 4925000   0.94871226 -8.1116154e-05   0.48793971  0.006607906            0   0.48133181    1.4112095    1.8991492  -0.86961553 
 4930000   0.96309196 -6.550335e-05    0.4635265 0.0029885334            0   0.46053797    1.4325993    1.8961258   -0.3397219 
 4935000   0.97360485 9.7789626e-05    0.4100305 0.0047028028            0    0.4053277    1.4482372    1.8582677    5.1961536 
 4940000   0.91252178 5.6302931e-05    0.5200141 0.0089261375            0   0.51108796    1.3573761    1.8773902    3.7991969 
 4945000   0.94129495 -5.9990669e-05   0.48366071  0.012336977            0   0.47132373    1.4001762    1.8838369  -0.16384457 
 4950000   0.97559352 -4.0845553e-05   0.43969318 0.0081078718            0   0.43158531    1.4511954    1.8908885   0.49669365 
 4955000   0.97479359 4.894146e-05   0.45676355   0.02038333            0   0.43638023    1.4500055     1.906769    3.5773042 
 4960000    1.0152663 0.00010147349   0.38505852  0.014566631            0   0.37049189    1.5102087    1.8952672    5.3588955 
 4965000   0.98388636 0.00016080899   0.41563532  0.013912563            0   0.40172275     1.463531    1.8791663    7.3681131 
 4970000   0.91633587 0.00015517342   0.51670142  0.037605056            0   0.47909636    1.3630496     1.879751    7.1763373 
 4975000   0.95131123 5.191919e-05   0.43753535  0.041572679            0   0.39596267    1.4150755    1.8526108    3.6247858 
 4980000   0.95263408 -2.5688032e-05   0.44744974   0.01520024            0    0.4322495    1.4170432    1.8644929   0.98767477 
 4985000   0.94546529 1.8050729e-06   0.45101599  0.014877346            0   0.43613865    1.4063796    1.8573956    1.9190088 
 4990000   0.93846865 6.6133572e-05   0.47196815  0.021140012            0   0.45082814    1.3959721    1.8679403    4.1252995 
 4995000   0.97273918 3.934892e-05   0.42170868  0.030415495            0   0.39129319    1.4469495    1.8686582     3.211768 
 5000000   0.92876659 1.3456916e-05   0.51140346  0.038716663            0    0.4726868    1.3815403    1.8929438    2.3522732 
 5005000    0.9703018 -0.00017007689   0.47201134  0.032584629            0   0.43942671    1.4433239    1.9153353    -3.889956 
 5010000   0.94646339 -0.00021566009   0.50358181  0.031368553            0   0.47221326    1.4078643    1.9114461   -5.4497515 
 5015000   0.95594076 -4.8296525e-05   0.49252819  0.025310265            0   0.46721792    1.4219619    1.9144901    0.2659687 
 5020000   0.98022932 0.00020708261   0.45865515  0.041638115            0   0.41701704    1.4580911    1.9167463    8.9851661 
 5025000   0.98807763 4.4322412e-05   0.47051783    0.0251265            0   0.44539133    1.4697655    1.9402833     3.453155 
 5030000    0.9656425 -5.0459739e-05   0.51370736  0.022376432            0   0.49133092    1.4363932    1.9501006    0.2277415 
 5035000   0.96007879 0.00018626918   0.49470524 0.0036251488            0   0.49108009    1.4281172    1.9228224    8.2808106 
 5040000   0.93036161 0.00015354447   0.52247673 0.0043063068            0   0.51817042    1.3839129    1.9063896     7.147374 
 5045000    1.0016927 -7.5658303e-05   0.41992288 0.0076038578            0   0.41231902    1.4900179    1.9099408  -0.67252928 
 5050000   0.99271561 -0.0001114693    0.4432201  0.012275704            0   0.43094439    1.4766645    1.9198846   -1.8849342 
 5055000   0.90399044 7.6432217e-05   0.57842226  0.019170456            0    0.5592518    1.3446858     1.923108    4.5319944 
 5060000   0.99356904 9.3831604e-05   0.44897734  0.014727983            0   0.43424936    1.4779339    1.9269113    5.1296967 
 5065000    1.0104189 1.2949775e-05   0.44564241  0.022852895            0   0.42278951    1.5029982    1.9486406    2.3906596 
 5070000    1.0252601 5.4634169e-05   0.45052268  0.018272666            0   0.43225002    1.5250743     1.975597    3.8404433 
 5075000   0.97393338 0.00018685882   0.53220268  0.017973461            0   0.51422922    1.4487259    1.9809286    8.3590429 
 5080000   0.99882907 8.7747975e-05   0.50341414  0.016402299            0   0.48701184    1.4857582    1.9891724    4.9843033 
 5085000    1.0246136 -3.5426967e-05     0.452255 0.0068747424            0   0.44538026    1.5241128    1.9763678   0.76712729 
 5090000    1.0509669 -2.9820153e-05   0.40412527  0.025136659            0   0.37898861    1.5633132    1.9674385    0.9495773 
 5095000    1.0576884 0.00010651751    0.3962041  0.011975832            0   0.38422827    1.5733114    1.9695155    5.6053131 
 5100000    1.0360907 2.2870333e-05   0.44457391  0.014959159            0   0.42961475     1.541185    1.9857589    2.7663996 
 5105000    1.1019013 -6.759367e-05   0.34938388  0.018005069            0   0.33137881    1.6390781     1.988462  -0.31873525 
 5110000   0.99407162 -0.00027190037   0.49013468  0.025600795            0   0.46453389    1.4786815    1.9688162   -7.3120497 
 5115000   0.99391006 -0.00017794185   0.48505313  0.023030971            0   0.46202216    1.4784412    1.9634943   -4.1102542 
 5120000   0.96877998 2.4606802e-05   0.51164303  0.024209131            0    0.4874339    1.4410602    1.9527033    2.7926154 
 5125000   0.96057545 -4.9575544e-05   0.50825195   0.01881246            0   0.48943949     1.428856    1.9371079   0.24492937 
 5130000    1.0044438 -7.1475651e-06   0.44029127  0.016251466            0   0.42403981    1.4941102    1.9344014    1.6904312 
 5135000    1.0257736 0.00010166738   0.41915422  0.013158446            0   0.40599577    1.5258383    1.9449925    5.4152391 
 5140000    1.0060932 8.8114238e-05   0.44878396 0.0059874189            0   0.44279654    1.4965636    1.9453476    4.9529802 
 5145000   0.99704302 0.00010334268   0.42621013  0.019934834            0   0.40627529    1.4831015    1.9093116    5.4367417 
 5150000   0.98029209 -6.9239647e-05   0.44817411  0.017556579            0   0.43061753    1.4581845    1.9063586  -0.45702136 
 5155000    1.0104933 -0.0001743204   0.42165715 0.0048323089            0   0.41682484    1.5031088    1.9247659   -4.0253703 
 5160000    1.0237784 2.1985557e-06   0.41263247 0.0082556561            0   0.40437681    1.5228704    1.9355028    2.0105469 
 5165000     1.037432 0.0001032885   0.37369739 0.0089160224            0   0.36478136    1.5431801    1.9168775    5.4424581 
 5170000    1.0176521 -3.480498e-05   0.43288791  0.015745423            0   0.41714249    1.5137575    1.9466454   0.75863541 
 5175000    1.0126295 -5.0520907e-05   0.45174931  0.039743835            0   0.41200548    1.5062864    1.9580357   0.23358874 
 5180000   0.95876493 -3.5537286e-05   0.51025276  0.016231672            0   0.49402109    1.4261628    1.9364156   0.72340956 
 5185000   0.97689558 0.00010228577   0.52775878  0.007235735            0   0.52052305    1.4531322     1.980891    5.4722453 
 5190000    1.0597852 0.0001893862   0.42716423  0.006085705            0   0.42107853    1.5764305    2.0035948    8.4679771 
 5195000    1.0291846 -2.4448775e-05   0.46487066 0.0088960943            0   0.45597457    1.5309121    1.9957827    1.1612645 
 5200000   0.98974815 -5.8168702e-05   0.52992321  0.022227356            0   0.50769585    1.4722504    2.0021736  0.016681894 
 5205000   0.99400253 8.9905383e-05   0.52899556  0.035426717            0   0.49356884    1.4785788    2.0075743    5.0763447 
 5210000    1.0803658 -2.6887217e-05   0.40762404  0.027198555            0   0.38042549    1.6070441    2.0146681    1.0969178 
 5215000    1.1037713 -0.00018288683   0.36705333  0.014212789            0   0.35284054    1.6418599    2.0089132   -4.2336238 
 5220000   0.99614051 -8.4051403e-05   0.52496117  0.042019264            0   0.48294191     1.481759    2.0067202  -0.86223439 
 5225000    1.0419453 8.305544e-05   0.45913725  0.043477458            0    0.4156598    1.5498937    2.0090309    4.8439899 
 5230000    1.0650251 -2.5426943e-05   0.43471176  0.010616992            0   0.42409477    1.5842248    2.0189366    1.1510302 
 5235000    1.0369745 -0.00011048416   0.45534309 0.0089362442            0   0.44640685    1.5424996    1.9978427     -1.77335 
 5240000    1.0428197 9.1043019e-06   0.46255595   0.01857776            0   0.44397819    1.5511943    2.0137502    2.3245104 
 5245000    1.0294393 2.7425795e-05   0.50608761  0.031445163            0   0.47464245     1.531291    2.0373786    2.9735124 
 5250000     1.058708 -6.9121183e-05   0.45641139  0.028063814            0   0.42834757    1.5748281    2.0312395  -0.32809687 
 5255000    1.0338686 -3.4624143e-05   0.50528047  0.028031413            0   0.47724905    1.5378796    2.0431601   0.86132266 
 5260000    1.0749146 -9.1193775e-05   0.44254312 0.0067790617            0   0.43576406    1.5989354    2.0414785    -1.071269 
 5265000    1.0309273 -0.00012988593   0.51935924 0.00086924272            0      0.51849    1.5335043    2.0528636   -2.3805762 
 5270000    1.1251692 -1.3672307e-05   0.42482897   0.00241707            0    0.4224119    1.6736891    2.0985181    1.6318367 
 5275000    1.0794598 -3.4356235e-05   0.51586466  0.037223244            0   0.47864141    1.6056965    2.1215611    0.9488683 
 5280000    1.0363936 -5.7025514e-05   0.57012055  0.032936295            0   0.53718426    1.5416354     2.111756   0.16528513 
 5285000    1.0495024 1.8655413e-05   0.54390597  0.014437993            0   0.52946797    1.5611348    2.1050407    2.7418122 
 5290000    1.0648705 -6.2547576e-05   0.52021756  0.055740662            0   0.46447689    1.5839949    2.1042124 -0.030744843 
 5295000    1.0375836 -7.0873259e-05   0.58507675  0.051321754            0     0.533755    1.5434056    2.1284823  -0.29065823 
 5300000    1.1117019 8.3346937e-05   0.45716649  0.041502165            0   0.41566432    1.6536565     2.110823    4.9557318 
 5305000    1.0586827 6.5228645e-05   0.53395854  0.025667458            0   0.50829109    1.5747906    2.1087491    4.3352202 
 5310000    1.0913478 -6.9158645e-05   0.47994821  0.019685364            0   0.46026285    1.6233798     2.103328  -0.25728706 
 5315000    1.1350973 -4.8099279e-05    0.4277787  0.023666019            0   0.40411268    1.6884572    2.1162359   0.47444718 
 5320000    1.0790273 6.3182652e-06   0.48260053  0.021687679            0   0.46091285    1.6050531    2.0876537    2.3033171 
 5325000    1.0689991 -4.0549128e-05   0.47740016  0.021535348            0   0.45586481    1.5901362    2.0675363   0.68345942 
 5330000    1.0490533 -5.1651688e-05   0.49720234  0.028921306            0   0.46828103    1.5604668    2.0576691   0.29462482 
 5335000    1.0463556 -4.2896095e-05   0.51406889  0.020416734            0   0.49365216     1.556454    2.0705229    0.6063362 
 5340000    1.0151707 1.6623262e-05   0.54752894  0.014163912            0   0.53336503    1.5100663    2.0575953    2.6250026 
 5345000    1.0670933 -3.8337296e-06   0.47485271  0.012662374            0   0.46219033    1.5873013     2.062154     1.931296 
 5350000    1.0188076 -7.6515504e-06   0.54136606   0.02133885            0   0.52002721    1.5154763    2.0568424    1.7956694 
 5355000    1.0694418 6.5788749e-05   0.48900551  0.032676952            0   0.45632855    1.5907946    2.0798002    4.3253895 
 5360000    1.1089294 6.1837394e-05   0.43834176  0.029530887            0   0.40881087    1.6495325    2.0878742    4.1985906 
 5365000    1.0755732 0.00010307097   0.50976842  0.021103483            0   0.48866494    1.5999152    2.1096836    5.6278393 
 5370000   0.99659932 9.1649568e-05    0.6248689  0.019840151            0   0.60502875    1.4824415    2.1073104    5.2356157 
 5375000    1.1468583 -1.3958952e-05   0.40941946  0.030355138            0   0.37906432    1.7059518    2.1153712    1.6389057 
 5380000    1.0957675 -2.7594585e-05   0.47298765  0.029499646            0     0.443488    1.6299542    2.1029418    1.1610467 
 5385000    1.0490366 -7.4622315e-05   0.51313815 0.0061407706            0   0.50699738     1.560442    2.0735802  -0.47352819 
 5390000    1.0661165 -6.954904e-05   0.49782242  0.013272067            0   0.48455035    1.5858483    2.0836707  -0.29026983 
 5395000    1.1144225 2.3182888e-05   0.44185867  0.023222166            0    0.4186365    1.6577035    2.0995621    2.8908714 
 5400000    1.0671706 3.9242766e-05   0.50588024  0.043191602            0   0.46268863    1.5874163    2.0932965    3.4327829 
 5405000    1.0517105 0.00011851333   0.52559643  0.021943323            0   0.50365311    1.5644193    2.0900158    6.1352707 
 5410000    1.0891733 3.2712388e-05    0.4640593  0.033460315            0   0.43059899    1.6201453    2.0842046    3.2007874 
 5415000    1.1218803 6.3869383e-05   0.40487097  0.028537341            0   0.37633363     1.668797     2.073668    4.2537429 
 5420000   0.99437315 8.2623187e-05   0.59480818  0.034150819            0   0.56065736    1.4791301    2.0739382     4.894143 
 5425000    1.0539797 -1.7410023e-05   0.50212869  0.043375131            0   0.45875356    1.5677947    2.0699234    1.4756613 
 5430000    1.0810386 5.2223674e-05   0.45416438  0.053167427            0   0.40099696    1.6080449    2.0622092    3.8447773 
 5435000    1.0442078 -4.1045367e-05   0.50854187  0.022279874            0     0.486262    1.5532591     2.061801   0.66078581 
 5440000    1.0693787 -5.7314961e-05   0.48683835  0.033339946            0    0.4534984    1.5907009    2.0775392   0.12118853 
 5445000   0.99116513 1.4955021e-05   0.60025771  0.038682963            0   0.56157475    1.4743581    2.0746158    2.5850805 
 5450000    1.0588983 5.8330684e-05   0.49673931   0.04970145            0   0.44703786    1.5751112    2.0718505    4.0628712 
 5455000    1.0304478 2.9125785e-06    0.5276682  0.030178405            0   0.49748979     1.532791    2.0604592    2.1598752 
 5460000    1.0367603 -0.00012415034    0.5277006  0.040733736            0   0.48696687     1.542181    2.0698816   -2.1677835 
 5465000    1.0390787 -3.0994609e-05   0.53867042  0.028929009            0   0.50974141    1.5456296       2.0843    1.0263507 
 5470000    1.0461024 4.4951907e-05   0.54953201  0.059908458            0   0.48962355    1.5560774    2.1056094    3.6399678 
 5475000     1.071344 6.6562769e-05   0.50697995   0.07064648            0   0.43633347    1.5936242    2.1006042    4.3726133 
 5480000    1.0248473 6.2762408e-05   0.58345471   0.02749404            0   0.55596067    1.5244603    2.1079151    4.2502052 
 5485000    1.0781071 -4.7457935e-05   0.50095666  0.040409143            0   0.46054751    1.6036844     2.104641   0.48474349 
 5490000     1.073507 -4.757532e-05   0.49926257  0.018307998            0   0.48095458    1.5968417    2.0961043   0.47220002 
 5495000    1.1161557 2.490546e-05   0.43070425  0.009457989            0   0.42124626    1.6602817    2.0909859    2.9410923 
 5500000     1.084391 -2.3496534e-06   0.48257137  0.021642489            0   0.46092888    1.6130316     2.095603    2.0154015 
 5505000    1.0607734 2.2882182e-05   0.50192683  0.014343971            0   0.48758286    1.5779004    2.0798273    2.8608724 
 5510000    1.0865229 -2.2956363e-05   0.49246503  0.049241215            0   0.44322382    1.6162028    2.1086678    1.3250906 
 5515000    1.0905776 -2.1220008e-05    0.4637326  0.038963497            0   0.42476911    1.6222342    2.0859668    1.3616572 
 5520000    1.1061542 -2.2679129e-05   0.46447872  0.013304791            0   0.45117393    1.6454043     2.109883    1.3357688 
 5525000    1.1104974 -7.6951727e-05   0.45581992  0.019936587            0   0.43588333    1.6518649    2.1076848  -0.51893412 
 5530000    1.0828456 -5.5285278e-05   0.49889922    0.0258222            0   0.47307702    1.6107328    2.1096321   0.22256126 
 5535000    1.1361241 -7.8639194e-06   0.43036217  0.016126037            0   0.41423613    1.6899846    2.1203468     1.851925 
 5540000    1.0446833 3.5363342e-05   0.58736386  0.027731811            0   0.55963205    1.5539664    2.1413302     3.348399 
 5545000    1.0744789 0.00010859602   0.55344958  0.010994764            0   0.54245482    1.5982873    2.1517369    5.8584811 
 5550000    1.1280047 7.0572801e-05   0.46240701  0.033596908            0   0.42881011    1.6779069    2.1403139    4.5491989 
 5555000    1.0898489 1.209505e-05   0.52205881   0.05885008            0   0.46320873    1.6211503    2.1432091    2.5560534 
 5560000    1.1406114 5.7320951e-05   0.45060534    0.0338608            0   0.41674454    1.6966595    2.1472648      4.10382 
 5565000    1.1098654 0.0001233704   0.46766477  0.032754618            0   0.43491015    1.6509248    2.1185895    6.3296327 
 5570000    1.0929588 1.5683863e-05   0.48644338  0.029640964            0   0.45680241    1.6257762    2.1122195    2.6475621 
 5575000    1.0565677 -0.00012515839   0.53979838   0.01682586            0   0.52297252    1.5716445    2.1114429   -2.1606302 
 5580000    1.0329345 -9.2661063e-05   0.55680616  0.023204595            0   0.53360157    1.5364901    2.0932962   -1.0695347 
 5585000    1.0813125 -3.5537794e-05   0.46968696  0.013093693            0   0.45659327    1.6084524    2.0781393   0.86511599 
 5590000    1.0367975 -6.9301727e-05   0.56770534  0.057735711            0   0.50996963    1.5422363    2.1099417   -0.2555573 
 5595000    1.0301044 -2.1940447e-05   0.56601422  0.053615402            0   0.51239882    1.5322802    2.0982945    1.3493939 
 5600000    1.1158368 0.00012956916   0.45151679  0.019205829            0   0.43231096    1.6598072     2.111324    6.5339514 
 5605000    1.1621068 9.9708974e-05   0.38575654  0.013314826            0   0.37244171    1.7286339    2.1143904    5.5177901 
 5610000    1.0945006 -3.6488479e-05   0.50303465  0.023044476            0   0.47999017    1.6280696    2.1311042    0.8856308 
 5615000    1.0455319 3.7655989e-05   0.58126904  0.029536658            0   0.55173238    1.5552286    2.1364977    3.4218221 
 5620000    1.1091387 0.00010975939    0.4590224  0.039671771            0   0.41935063    1.6498439    2.1088663    5.8553202 
 5625000    1.0835937 -6.3619205e-05   0.49645507  0.030148063            0     0.466307    1.6118456    2.1083007 -0.063234825 
 5630000    1.0999667 -5.4411088e-05   0.47835578  0.018566996            0   0.45978879    1.6362005    2.1145563    0.2573245 
 5635000    1.1021748 -5.1312002e-06   0.47621645   0.01915115            0    0.4570653    1.6394851    2.1157015    1.9405565 
 5640000     1.119852 5.0954428e-05   0.46281126  0.037480475            0   0.42533079    1.6657799    2.1285912    3.8678356 
 5645000    1.1352866 0.00018107962   0.46870939  0.052630715            0   0.41607867    1.6887388    2.1574482    8.3382991 
 5650000    1.1475044 6.0531787e-05   0.45494174  0.010698791            0   0.44424295    1.7069129    2.1618546    4.2280063 
 5655000    1.1055653 1.8557863e-05   0.48085926  0.028600649            0   0.45225862    1.6445283    2.1253876    2.7588293 
 5660000     1.077927 -3.5655768e-05   0.53425386   0.02376994            0   0.51048392    1.6034165    2.1376703   0.92062011 
 5665000    1.1389543 -5.2573703e-05   0.43116729  0.015117345            0   0.41604994    1.6941945    2.1253618   0.33084605 
 5670000     1.106168 -8.3531995e-05   0.48452999   0.01177724            0   0.47275275    1.6454249    2.1299549  -0.72127056 
 5675000     1.035951 -7.6966929e-05   0.57754133  0.032649373            0   0.54489196    1.5409772    2.1185185  -0.50861933 
 5680000    1.0733375 -9.7505503e-05   0.51607654  0.018521459            0   0.49755508    1.5965896    2.1126661   -1.2155217 
 5685000    1.1112602 3.5125319e-05   0.48074284 0.0084735921            0   0.47226925    1.6529995    2.1337423    3.3326865 
 5690000    1.1717243 1.7748291e-05   0.42915398  0.018639376            0   0.41051461    1.7429399    2.1720939    2.7779023 
 5695000    1.1193222 -0.00012437071   0.48608549  0.026501193            0    0.4595843    1.6649918    2.1510773   -2.0941095 
 5700000    1.1307126 -4.6248616e-05   0.45768636  0.013927462            0    0.4437589    1.6819349    2.1396213   0.56100187 
 5705000    1.0969247 9.0008007e-05   0.50482242  0.015663706            0   0.48915871    1.6316755     2.136498    5.2087713 
 5710000    1.1317383 0.0001831916   0.43784256  0.035873606            0   0.40196895    1.6834607    2.1213032    8.3742433 
 5715000    1.0613174 6.735864e-05   0.50883904  0.032184672            0   0.47665437    1.5787096    2.0875487    4.3867236 
 5720000    1.0639739 4.3273394e-05   0.48938806  0.020638956            0    0.4687491    1.5826612    2.0720493    3.5491144 
 5725000    1.1265757 9.1461208e-05   0.39944039  0.023355898            0   0.37608449    1.6757814    2.0752218    5.1970977 
 5730000    1.1141064 -7.1250301e-05   0.42044931   0.02495029            0   0.39549902    1.6572333    2.0776826  -0.35432766 
 5735000    1.0571236 -0.00013435152   0.48678061  0.020184259            0   0.46659635    1.5724713    2.0592519   -2.5266132 
 5740000    1.0029634 -6.8102705e-05   0.55422138  0.026187094            0   0.52803429    1.4919081    2.0461295  -0.27844287 
 5745000    1.0915977 2.6864572e-05   0.41577414  0.013249998            0   0.40252414    1.6237516    2.0395258    2.9565031 
 5750000    1.0657712 7.3601676e-05   0.46285362 0.0066525598            0   0.45620106    1.5853347    2.0481884    4.5604589 
 5755000    1.0556215 -9.7706349e-06    0.4928301  0.015456051            0   0.47737405    1.5702369     2.063067    1.7295627 
 5760000    1.0076546 -2.9409505e-05   0.55208507  0.014526831            0   0.53755824    1.4988862    2.0509713    1.0471268 
 5765000    1.0415393 7.2309274e-05   0.46778733 0.0090576924            0   0.45872964    1.5492897     2.017077    4.4852336 
 5770000     1.075545 6.0282991e-05   0.40824642  0.018100818            0    0.3901456    1.5998732    2.0081197    4.0657791 
 5775000    1.0038993 8.9760698e-06   0.52755468  0.050922046            0   0.47663263    1.4933002    2.0208548     2.327238 
 5780000    1.0302428 4.9557563e-05   0.49538772  0.043188936            0   0.45219879    1.5324862    2.0278739    3.7194387 
 5785000    1.0460072 -1.9326787e-05   0.46521012  0.012844978            0   0.45236514    1.5559357    2.0211458    1.3614581 
 5790000     1.097869 -0.00013183637   0.42402819 0.0098514753            0   0.41417671    1.6330801    2.0571083   -2.4429065 
 5795000    1.0630701 -9.0357043e-05   0.47788362 0.0044662721            0   0.47341734    1.5813168    2.0592004   -1.0249867 
 5800000     1.086698 -0.00015247033   0.44463672 0.0040209831            0   0.44061574    1.6164633       2.0611   -3.1432206 
 5805000    1.0416942 -7.6526648e-05   0.49467867 0.0098441598            0   0.48483451    1.5495201    2.0441987  -0.56791086 
 5810000     1.056672 4.5173376e-05   0.46570544 0.0085034369            0     0.457202    1.5717997    2.0375051     3.579423 
 5815000    1.0351456 8.7062252e-06   0.48760908  0.024452664            0   0.46315642    1.5397791    2.0273882    2.3245607 
 5820000    1.0656163 -3.7003357e-05   0.42977465  0.031564855            0   0.39820979    1.5851042    2.0148788   0.75183091 
 5825000    0.9704366 8.6369908e-05   0.56525073  0.052166958            0   0.51308377    1.4435244    2.0087752     4.956868 
 5830000    1.0430227 6.7641172e-05   0.48804047  0.022721547            0   0.46531893    1.5514962    2.0395367    4.3483553 
 5835000     1.069673 4.790439e-05   0.46187731  0.028014829            0   0.43386248    1.5911386    2.0530159    3.6881524 
 5840000    1.1214004 3.9757415e-05   0.37970345  0.020784423            0   0.35891902     1.668083    2.0477865    3.4048396 
 5845000    1.0108321 -6.2887709e-05   0.52843398  0.030230184            0    0.4982038    1.5036128    2.0320468  -0.11452035 
 5850000    1.0671343 -4.9244663e-05   0.46434071  0.016850387            0   0.44749032    1.5873622     2.051703   0.37081845 
 5855000    1.0647738 -7.7147018e-05   0.46121446  0.024637991            0   0.43657647     1.583851    2.0450655  -0.58821939 
 5860000    1.0096187 -2.1938646e-05   0.54076587  0.030845439            0   0.50992044    1.5018078    2.0425737    1.2937345 
 5865000    1.0549219 5.7494715e-05   0.51166033  0.047029525            0    0.4646308    1.5691963    2.0808567     4.043343 
 5870000    1.0291778 4.3821232e-05   0.54372166  0.047800566            0   0.49592109     1.530902    2.0746237    3.5703884 
 5875000    1.0576562 -0.00012216299   0.53267924  0.061845354            0   0.47083389    1.5732637    2.1059429   -2.0638872 
 5880000    1.0333893 -0.00010607526   0.57696125  0.052866615            0   0.52409464    1.5371666    2.1141278   -1.5065743 
 5885000    1.0476567 -2.4381579e-05    0.5518018  0.035414414            0   0.51638739    1.5583894    2.1101912    1.2779666 
 5890000    1.0528483 3.3011748e-05   0.56764502  0.042529866            0   0.52511515    1.5661119    2.1337569    3.2605579 
 5895000    1.1119943 -2.8673589e-05   0.46140004  0.029814121            0   0.43158591    1.6540916    2.1154916    1.1367664 
 5900000    1.0450616 4.5377119e-05   0.54670807  0.030537705            0   0.51617037    1.5545291    2.1012372    3.6501095 
 5905000    1.1217004 0.00014211326   0.43800297  0.028461906            0   0.40954107    1.6685294    2.1065324    6.9573317 
 5910000     1.094329 -5.6106555e-05   0.43166526  0.026551384            0   0.40511387    1.6278144    2.0594796   0.14437588 
 5915000    1.0518738 -0.00011128649    0.4918359   0.02853706            0   0.46329884    1.5646623    2.0564982   -1.7420806 
 5920000    1.0303231 -4.0139025e-05   0.50695052   0.03843522            0    0.4685153    1.5326056    2.0395561   0.66947741 
 5925000    1.0978321 -2.3629596e-05   0.42554347  0.017646044            0   0.40789742    1.6330252    2.0585687    1.2520118 
 5930000    1.0694821 -6.4928883e-05   0.44506926   0.02340565            0   0.42166361    1.5908547    2.0359239  -0.18031526 
 5935000    1.0594377 -6.4654474e-05   0.47595083  0.033493117            0   0.44245772    1.5759136    2.0518644  -0.15500829 
 5940000     1.041096 5.2956908e-06   0.51175292  0.038302111            0   0.47345081    1.5486303    2.0603832    2.2411428 
 5945000    1.0252807 -3.8206941e-06    0.5012751  0.060505472            0   0.44076963    1.5251051    2.0263802    1.8959672 
 5950000    1.0552077 -1.3207179e-05     0.442816  0.021741519            0   0.42107448    1.5696214    2.0124374    1.5616324 
 5955000    1.0525086 -4.0392631e-05   0.44124697  0.006932982            0   0.43431398    1.5656065    2.0068535   0.62811835 
 5960000    1.0548254 -0.00015876149   0.42495494  0.013634345            0    0.4113206    1.5690528    1.9940077   -3.4250512 
 5965000    1.0322628 -0.00012775769   0.45359558   0.01326464            0   0.44033094     1.535491    1.9890865   -2.3717094 
 5970000    1.0429472 7.5638866e-05   0.43937914  0.015969124            0   0.42341002    1.5513839     1.990763    4.5725697 
 5975000   0.98014499 3.0361247e-05   0.55833833    0.0511488            0   0.50718953    1.4579657     2.016304    3.0526345 
 5980000   0.93803337 -0.00018310462   0.63733602   0.05729129            0   0.58004473    1.3953246    2.0326606   -4.2173105 
 5985000    1.0347134 -2.1605809e-05   0.47370628   0.03633552            0   0.43737076    1.5391362    2.0128425    1.2753642 
 5990000    1.0162825 0.00016629238   0.49245935   0.05485818            0   0.43760117    1.5117202    2.0041796    7.6802928 
 5995000   0.99301811 -6.086215e-05   0.52072122  0.034511711            0    0.4862095    1.4771144    1.9978357 -0.079592382 
 6000000     1.068896 -0.00014393857   0.41198475  0.015267203            0   0.39671754    1.5899828    2.0019675   -2.9111356 
 6005000    1.0137814 9.2950498e-06     0.515925 0.0078401046            0    0.5080849    1.5079999    2.0239249    2.3411959 
 6010000    1.0290741 0.0001350834   0.49045462  0.016721552            0   0.47373307    1.5307478    2.0212024    6.6320491 
 6015000    1.0373175 0.00010915953   0.47947802   0.00598797            0   0.47349005    1.5430098    2.0224878    5.7484664 
 6020000    1.0763827 -8.7604992e-05   0.44547976  0.031903856            0    0.4135759    1.6011192     2.046599  -0.94365137 
 6025000     1.006949 2.7369756e-05   0.55854142  0.045193216            0    0.5133482    1.4978367    2.0563781    2.9905991 
 6030000    1.0519606 0.00014154939   0.48997729  0.055499252            0   0.43447804    1.5647915    2.0547688    6.8863213 
 6035000    1.0873096 7.9673504e-05   0.46734351  0.042131849            0   0.42521166    1.6173731    2.0847166    4.8042388 
 6040000    1.0556275 6.3440595e-05   0.49873494  0.058795939            0     0.439939    1.5702459    2.0689808    4.2344198 
 6045000    1.0624532 4.7820847e-05   0.51004003  0.054599812            0   0.45544022    1.5803992    2.0904392    3.7227241 
 6050000    1.0679308 7.8865968e-05   0.50784818  0.047359172            0   0.46048901    1.5885471    2.0963953    4.7883536 
 6055000    1.0720248 2.5106952e-05   0.49820892  0.031866501            0   0.46634242    1.5946369    2.0928458    2.9498298 
 6060000    1.0917086 9.1562309e-05    0.4571911  0.021256093            0     0.435935    1.6239165    2.0811076    5.2064345 
 6065000    1.0150565 0.00014711888   0.56318009  0.020865096            0   0.54231499    1.5098965    2.0730766    7.0947343 
 6070000    1.0585434   5.7491e-05   0.50324854  0.031588739            0   0.47165981    1.5745833    2.0778319    4.0401913 
 6075000    1.0800904 -5.1384131e-05   0.47144388  0.024629094            0   0.44681478    1.6066344    2.0780783   0.32416664 
 6080000    1.0351961 -7.1710496e-05   0.53176119  0.039530045            0   0.49223114    1.5398542    2.0716154  -0.37610287 
 6085000    1.0659975 -5.0195959e-05   0.47244097  0.022988011            0   0.44945296    1.5856713    2.0581123   0.34475689 
 6090000    1.0269304 2.908071e-05    0.5317488  0.030156473            0   0.50159233    1.5275589    2.0593077    3.0519293 
 6095000    1.0839297 2.6305385e-05   0.44261715  0.029027529            0   0.41358962    1.6123454    2.0549626    2.9528531 
 6100000    1.0531919 -4.8004379e-05   0.48990733  0.018960418            0   0.47094691     1.566623    2.0565303   0.41798083 
 6105000    1.0501422 1.5959109e-05   0.47448171 0.0098464449            0   0.46463527    1.5620866    2.0365683    2.5813059 
 6110000     1.040127 -3.4757414e-05   0.49029275 0.0034757515            0   0.48681699    1.5471889    2.0374817   0.85109529 
 6115000    1.0595611 -5.0533233e-05   0.48356575  0.027934128            0   0.45563162    1.5760972     2.059663   0.33479527 
 6120000    1.0547654 -3.8729417e-05   0.50483129  0.015381068            0   0.48945022    1.5689636    2.0737949   0.75183077 
 6125000    1.0140044 -4.023267e-05    0.5575584  0.026886671            0   0.53067173    1.5083316      2.06589   0.69261484 
 6130000    1.0185667 0.00010224945   0.57185563  0.024741354            0   0.54711428    1.5151179    2.0869735     5.577088 
 6135000    1.0396153  0.000140366   0.55339183   0.02135182            0   0.53204001    1.5464278    2.0998196    6.8909789 
 6140000    1.0928133 0.00015232592   0.49243899  0.035540161            0   0.45689882    1.6255597    2.1179987    7.3173901 
 6145000    1.0339168 -3.0438932e-05   0.57431066  0.049584592            0   0.52472607    1.5379512    2.1122618    1.0732796 
 6150000    1.0713383 -5.1105418e-05   0.51582813  0.018655124            0     0.497173    1.5936158    2.1094439   0.36504563 
 6155000    1.0930796 1.970069e-05   0.50180416  0.035762058            0    0.4660421    1.6259559    2.1277601    2.8002103 
 6160000    1.0146487 -8.2874322e-05    0.6216567  0.039055083            0   0.58260162      1.50929    2.1309467  -0.69783016 
 6165000    1.1398166 -2.9878603e-05   0.42899198 0.0054365499            0   0.42355543    1.6954772    2.1244692    1.1046129 
 6170000    1.0726502 0.00011669674   0.55209805 0.0018017045            0   0.55029635    1.5955671    2.1476652    6.1309139 
 6175000    1.1177465 0.00010094248   0.45662576 0.0068761009            0   0.44974966    1.6626479    2.1192737    5.5647769 
 6180000    1.0505446 5.495872e-05   0.54884251  0.029017653            0   0.51982486    1.5626851    2.1115277     3.987452 
 6185000    1.0951768 -4.7699313e-05   0.49160346   0.03638575            0   0.45521771    1.6290755     2.120679   0.49254244 
 6190000    1.1307376 -0.00011576461    0.4611477 0.0058144392            0   0.45533326    1.6819722    2.1431199   -1.8083121 
 6195000    1.0515568 -0.00012502142   0.59345483 0.0052442965            0   0.58821053    1.5641907    2.1576455   -2.1097522 
 6200000    1.1769426 -7.7261577e-05   0.42027748  0.031987841            0   0.38828964    1.7507021    2.1709796  -0.46621555 
 6205000    1.1147914 -0.00013724043    0.5335826 0.0059505509            0   0.52763205    1.6582522    2.1918348   -2.4926387 
 6210000    1.1321124 -0.0001268578   0.49796287  0.019660628            0   0.47830225    1.6840172      2.18198   -2.1480994 
 6215000    1.1097189 5.3908736e-05   0.54678816  0.029049607            0   0.51773855    1.6507068     2.197495    4.0375798 
 6220000    1.1607266 9.5866175e-06   0.45051511  0.018958383            0   0.43155673    1.7265809     2.177096    2.5043192 
 6225000    1.0775125 -4.3063521e-05   0.55117865  0.031462487            0   0.51971616    1.6027999    2.1539785     0.684077 
 6230000    1.0710435 -2.9181707e-05   0.54942756  0.020545642            0   0.52888192    1.5931771    2.1426047    1.1465358 
 6235000    1.1302298 8.3737845e-06   0.44977981 0.0053615683            0   0.44441824    1.6812169    2.1309967    2.4168218 
 6240000    1.0457394 -8.5417707e-05     0.579775  0.016222222            0   0.56355277    1.5555373    2.1353123  -0.78027874 
 6245000    1.0570359 -6.2906709e-05   0.53062545  0.027305222            0   0.50332023    1.5723408    2.1029663 -0.044249377 
 6250000    1.0713601 -8.3517716e-05   0.50014385  0.026415048            0    0.4737288    1.5936481     2.093792  -0.75694607 
 6255000   0.98619164 -0.00014911383   0.62502428  0.019176887            0   0.60584739    1.4669601    2.0919843   -2.9977678 
 6260000    1.0321946 5.4368497e-06   0.55754645  0.021013623            0   0.53653283    1.5353895     2.092936    2.2785138 
 6265000    1.1300951 6.5828434e-05   0.40308407  0.016424111            0   0.38665996    1.6810165    2.0841005    4.3310444 
 6270000    1.0248276 -3.6324929e-05   0.55268311  0.017042617            0    0.5356405     1.524431    2.0771141   0.83722322 
 6275000    1.0181417 5.6074094e-05   0.55642296  0.028669171            0   0.52775378    1.5144858    2.0709088    3.9849045 
 6280000    1.0975721 4.3359734e-05   0.46691572  0.017946661            0   0.44896906    1.6326385    2.0995542    3.5795664 
 6285000    1.0316715 -0.000149537   0.54240958  0.015390889            0   0.52701869    1.5346113    2.0770209   -3.0271756 
 6290000    1.0705984 -0.00012051852   0.49377896  0.020573737            0   0.47320522    1.5925151     2.086294   -2.0274046 
 6295000   0.99557461 2.6837683e-05   0.61555576  0.039115018            0   0.57644074    1.4809172     2.096473    3.0125326 
 6300000     1.024378 0.00011059103   0.57349618   0.01031655            0   0.56317962    1.5237623    2.0972585    5.8720988 
 6305000    1.0008662 8.2208574e-06   0.61498179 0.0086207689            0   0.60636102    1.4887885    2.1037703    2.3843755 
 6310000    1.0596122 -2.587299e-05   0.52127167  0.014726468            0    0.5065452    1.5761732    2.0974448    1.2143134 
 6315000    0.9992347 -5.7145555e-05   0.60862682  0.038415174            0   0.57021164    1.4863616    2.0949884   0.14442015 
 6320000    1.0755686 -0.00016974011   0.51713658  0.041703592            0   0.47543298    1.5999083    2.1170449    -3.676751 
 6325000    1.0576471 -0.00011213039   0.53291259  0.025603239            0   0.50730935    1.5732501    2.1061627   -1.7212214 
 6330000   0.98092842 7.6855894e-06   0.64590796  0.001305653            0   0.64460231     1.459131     2.105039    2.3673738 
 6335000    1.0377543 5.0934276e-05   0.56826983 0.0090614658            0   0.55920836    1.5436596    2.1119294     3.850486 
 6340000    1.0725941 4.4763848e-05   0.51823034  0.023986167            0   0.49424418    1.5954838    2.1137141    3.6416535 
 6345000   0.94996098 1.4438636e-05    0.6523988  0.021242494            0   0.63115631     1.413067    2.0654658    2.5583045 
 6350000   0.96262655 2.222059e-05   0.63792561  0.035950166            0   0.60197544     1.431907    2.0698326    2.8282954 
 6355000    1.1122273 1.3868974e-05   0.43098724 0.0099329777            0   0.42105426    1.6544382    2.0854254    2.5588197 
 6360000    1.0334602 3.3454394e-05   0.53584794 0.0045162729            0   0.53133167    1.5372721      2.07312      3.21503 
 6365000   0.93184357 8.670954e-05   0.67874346   0.04072626            0    0.6380172    1.3861173    2.0648608    5.0245464 
 6370000    1.0518248 3.0797084e-05   0.51343553  0.026645947            0   0.48678958    1.5645894     2.078025    3.1292321 
 6375000   0.98293147 -0.00011531677   0.62128069  0.017438542            0   0.60384215    1.4621106    2.0833913   -1.8527544 
 6380000   0.98770373 -1.4333078e-05   0.61969465  0.027803075            0   0.59189157    1.4692093    2.0889039    1.5996682 
 6385000     1.019983 4.006109e-05    0.5543993  0.023670939            0   0.53072836    1.5172248    2.0716241    3.4390426 
 6390000   0.98842795 -1.3548603e-05    0.6068966  0.014329737            0   0.59256686    1.4702866    2.0771832    1.6147242 
 6395000    0.9842645 0.00018337484   0.62341748 0.0093778411            0   0.61403964    1.4640934    2.0875109    8.3467054 
 6400000    1.0437715 0.00012811429   0.55166107 0.0047563372            0   0.54690473    1.5526101    2.1042712     6.477239 
 6405000    1.0711839 -6.1244565e-05   0.49061835 0.0030052851            0   0.48761306    1.5933861    2.0840044 -0.0064767166 
 6410000   0.99479298 -3.1591737e-05    0.5932778  0.012466006            0   0.58081179    1.4797546    2.0730324   0.99470108 
 6415000    1.0413652 -8.7736421e-05   0.55097854   0.01954165            0   0.53143689    1.5490307    2.1000092  -0.89472731 
 6420000    1.0452905 -8.8902494e-05   0.54308837  0.024106859            0   0.51898151    1.5548696     2.097958  -0.93658045 
 6425000    1.0747032 -6.0386009e-05   0.49480621  0.019840561            0   0.47496565     1.598621    2.0934273  0.032251488 
 6430000   0.99342841 -0.00010427363   0.63996442  0.040303814            0    0.5996606    1.4777248    2.1176892   -1.4415174 
 6435000    1.0073406 9.2689332e-05   0.58847644  0.042295631            0   0.54618081    1.4984192    2.0868956    5.2506915 
 6440000     1.079515 3.2749604e-05   0.47973361  0.022245587            0   0.45748802    1.6057785    2.0855121    3.2033652 
 6445000   0.98550532 0.00014074397   0.61506034  0.037390949            0   0.57766939    1.4659392    2.0809995    6.8850603 
 6450000   0.99701808 9.9068377e-05   0.59441783  0.046870528            0    0.5475473    1.4830644    2.0774822    5.4590161 
 6455000   0.99956166 -3.6118658e-05   0.60621817  0.053416959            0   0.55280121     1.486848    2.0930661   0.86021595 
 6460000    1.0788924 1.0030472e-05   0.48752673  0.029148086            0   0.45837864    1.6048524    2.0923791    2.4347525 
 6465000    1.0389717 -0.00017199032   0.51856839  0.022593509            0   0.49597488    1.5454705    2.0640389   -3.8065639 
 6470000   0.98833196 -0.00015977785   0.57559325  0.014185736            0   0.56140752    1.4701438     2.045737   -3.4080135 
 6475000    1.0450931 9.3107774e-05   0.47639757 0.0028724008            0   0.47352517     1.554576    2.0309736    5.2090523 
 6480000    1.0651301 -1.1276967e-05   0.46012329 0.0015714002            0   0.45855189     1.584381    2.0445043    1.6595838 
 6485000    1.0325022 -0.00014446971   0.49943496 0.0023395185            0   0.49709544    1.5358471     2.035282   -2.8959508 
 6490000   0.99298663 -1.9628204e-05   0.55206076  0.011392997            0   0.54066777    1.4770676    2.0291284    1.3591523 
 6495000    1.0139505 8.1082046e-05   0.52525763  0.014973927            0    0.5102837    1.5082514     2.033509    4.8011096 
 6500000    1.0057088 6.5940343e-05   0.54540618  0.010938488            0   0.53446769    1.4959918     2.041398    4.2921617 
 6505000    1.0025455 3.0237568e-05   0.56682738  0.034292109            0   0.53253527    1.4912864    2.0581138    3.0902228 
 6510000    1.0393669 7.2026447e-05   0.54232002  0.028126626            0   0.51419339    1.5460582    2.0883782    4.5468809 
 6515000     1.046067 -2.0303751e-05   0.52721101   0.02241039            0   0.50480062    1.5560246    2.0832356    1.3902009 
 6520000    1.1042532 -9.3770556e-05   0.47370475  0.012572878            0   0.46113187    1.6425766    2.1162814   -1.0844203 
 6525000    1.0593672 -8.8507672e-05   0.52992926 0.0074155314            0   0.52251373    1.5758087     2.105738  -0.91532394 
 6530000    1.1027345 3.475224e-05   0.45698709 0.0052605919            0    0.4517265    1.6403175    2.0973046    3.2835144 
 6535000    1.0916555 0.00014096041   0.48903677  0.012911482            0   0.47612529    1.6238375    2.1128743    6.9243231 
 6540000    1.0910085 6.7947505e-05   0.49845028  0.031266568            0   0.46718371    1.6228751    2.1213254    4.4406002 
 6545000    1.0321888 -1.7041678e-05   0.57371416  0.014802048            0   0.55891211    1.5353809     2.109095    1.5274057 
 6550000    1.0540662 -0.00013296431   0.54474257  0.028830909            0   0.51591166    1.5679235     2.112666   -2.4258491 
 6555000    1.0195315 -2.0285351e-05   0.59545483  0.036847819            0   0.55860702    1.5165531    2.1120079    1.4196013 
 6560000    1.0341934 1.0497612e-05   0.58232209  0.014010223            0   0.56831186    1.5383627    2.1206848    2.4790033 
 6565000    1.0736507 -2.0188513e-05   0.53020258  0.039942563            0   0.49026001    1.5970554     2.127258    1.4381567 
 6570000    1.0551537 -2.4266692e-05   0.55601114  0.051618234            0   0.50439291    1.5695412    2.1255523    1.2972492 
 6575000    1.0195266 2.5839415e-05   0.58902149  0.031366357            0   0.55765513    1.5165458    2.1055672    2.9875526 
 6580000    1.0323664 0.00014290142   0.55826949  0.035617912            0   0.52265158     1.535645    2.0939144    6.9716161 
 6585000    1.0464216 -3.0164291e-06   0.51282386   0.02310258            0   0.48972128    1.5565521     2.069376    1.9664152 
 6590000    1.0079167 -0.00010349612   0.57063995 0.0085026336            0   0.56213732    1.4992761    2.0699161   -1.4627515 
 6595000    1.0133571 -3.2368383e-06   0.54567048 0.0099344479            0   0.53573603    1.5073686    2.0530391     1.942555 
 6600000    1.0419512 0.00015284078   0.51839173  0.027057954            0   0.49133378    1.5499024    2.0682941    7.2852595 
 6605000    1.0212218 0.00020681056    0.5662954  0.033984692            0   0.53231071    1.5190675    2.0853629    9.1444965 
 6610000    1.0580351 0.00015017281   0.51896914 0.0067091781            0   0.51225996    1.5738272    2.0927963    7.2186948 
 6615000    1.0618062 0.0001438477    0.5211943 0.0046543045            0   0.51653999    1.5794367     2.100631    7.0106323 
 6620000    1.0160806 0.00013272482   0.60091602  0.030784578            0   0.57013144    1.5114199    2.1123359    6.6426765 
 6625000    1.0535428 -2.040499e-05   0.53539497  0.035368009            0   0.50002696    1.5671449    2.1025398    1.4060495 
 6630000   0.98324528 -0.00013761519   0.63133613  0.043331804            0   0.58800432    1.4625774    2.0939135   -2.6033516 
 6635000    1.0447657 -0.00012227439   0.54746861    0.0326764            0   0.51479221     1.554089    2.1015576    -2.072075 
 6640000    1.0997043 -6.7752528e-05   0.45994282  0.032591022            0    0.4273518    1.6358101    2.0957529   -0.2168667 
 6645000    1.0214849 -4.2447754e-05   0.59849759  0.024596176            0   0.57390142    1.5194587    2.1179563   0.66907302 
 6650000   0.96452371 9.3016353e-05   0.68410363  0.018153576            0   0.66595006     1.434729    2.1188327    5.2937908 
 6655000    1.0850393 0.0001849251   0.49920159  0.024278419            0   0.47492317     1.613996    2.1131976    8.4253076 
 6660000    1.0586794 0.00012822929   0.53216446 0.0073289617            0    0.5248355    1.5747857    2.1069501    6.4838432 
 6665000    1.0370864 -6.3478171e-05   0.55706584 0.0061107402            0    0.5509551     1.542666    2.0997318 -0.066989773 
 6670000    1.0276323 -0.00019931139    0.5692425  0.037557366            0   0.53168513     1.528603    2.0978455   -4.7053166 
 6675000    1.0792001 -0.00011223196   0.49761223  0.020254155            0   0.47735807    1.6053101    2.1029223   -1.7279285 
 6680000    1.0423659 -6.5571301e-05    0.5466943  0.059752519            0   0.48694178    1.5505192    2.0972135  -0.14095354 
 6685000   0.99680426 -3.1273813e-05   0.59869197   0.03619838            0   0.56249359    1.4827463    2.0814383    1.0139588 
 6690000    1.0498577 0.00017045204   0.53956583   0.02244546            0   0.51712037    1.5616634    2.1012292    7.9193255 
 6695000    1.0403742 0.00022272679   0.57364297  0.045804201            0   0.52783877    1.5475566    2.1211996    9.7236073 
 6700000    1.1025677 0.00011671165    0.4815904  0.031509873            0   0.45008053    1.6400695    2.1216599    6.1054176 
 6705000   0.99021609 7.0910758e-06   0.63043953   0.04266307            0   0.58777646    1.4729464     2.103386     2.345428 
 6710000   0.98101488 -2.0061665e-05   0.64941646  0.034752522            0   0.61466394    1.4592596    2.1086761    1.4239046 
 6715000    1.1110589 7.4633859e-06   0.42553864 0.0088344532            0   0.41670419    1.6527001    2.0782387     2.332989 
 6720000    1.0388544 0.00010742522   0.54791938  0.023546168            0   0.52437321    1.5452959    2.0932153     5.759996 
 6725000    1.0660057 0.00015010249    0.5099956   0.01941063            0   0.49058497    1.5856834     2.095679    7.2191772 
 6730000    1.0384451 -1.2368888e-05   0.56014859  0.019120408            0   0.54102818     1.544687    2.1048356    1.6826442 
 6735000    1.0477042 -0.0001287086    0.5363189  0.031695984            0   0.50462291    1.5584599    2.0947788   -2.2984748 
 6740000    1.0491908 -6.2260133e-05   0.53590515  0.032646513            0   0.50325864    1.5606714    2.0965765  -0.02856932 
 6745000    1.0668147 4.9495043e-05    0.5212544  0.024684252            0   0.49657015    1.5868868    2.1081412     3.797572 
 6750000    1.0642369 -6.821711e-05   0.54458445    0.0412176            0   0.50336685    1.5830524    2.1276369  -0.20084048 
 6755000    1.0084208 -0.00012536264   0.63579615  0.014766859            0   0.62102929    1.5000259    2.1358221   -2.1432226 
 6760000    1.0832122 1.1326708e-05   0.51968924 0.0039116364            0   0.51577761    1.6112782    2.1309674    2.5175857 
 6765000    1.1086652 -9.8927964e-05   0.48536074 0.0061302967            0   0.47923044    1.6491395    2.1345002    -1.242241 
 6770000    1.0950123 1.6689767e-05   0.50050574 0.0082301689            0   0.49227557    1.6288308    2.1293365    2.6990139 
 6775000    1.0651756 0.00013442403     0.540903  0.020859202            0    0.5200438    1.5844487    2.1253517    6.7136919 
 6780000    1.0677464 2.868842e-07   0.55690278  0.017475083            0    0.5394277    1.5882727    2.1451755    2.1549678 
 6785000    1.1422768 4.9651755e-05   0.43896735  0.028512733            0   0.41045462    1.6991368    2.1381041     3.832884 
 6790000    1.1419555 -6.0558667e-05   0.45303778  0.015787408            0   0.43725037    1.6986587    2.1516965  0.084627344 
 6795000     1.099742 -9.0086757e-05   0.52574136  0.029860546            0   0.49588081    1.6358663    2.1616076  -0.91335367 
 6800000    1.0800219 4.3251792e-05   0.55496694  0.036973279            0   0.51799366    1.6065326    2.1614995    3.6378273 
 6805000    1.0916909 -2.1932342e-05   0.55324479  0.011669871            0   0.54157492    1.6238903    2.1771351    1.4285111 
 6810000    1.1396066 -3.3167276e-05   0.50121037  0.029252136            0   0.47195823    1.6951648    2.1963752    1.0642655 
 6815000    1.1391828 -3.8130335e-06   0.50805086   0.02258759            0   0.48546327    1.6945344    2.2025853    2.0724337 
 6820000    1.0897646 -7.8457362e-05   0.55049053 0.0066596112            0   0.54383092    1.6210249    2.1715154  -0.50649592 
 6825000    1.0945663 -4.8256947e-05   0.55412376  0.011626863            0   0.54249689    1.6281674    2.1822912   0.53512073 
 6830000    1.1236779 2.6369274e-05   0.50883591  0.017388635            0   0.49144728    1.6714709    2.1803068     3.080378 
 6835000    1.1249057 -5.4790823e-05   0.50921122  0.020595525            0    0.4886157    1.6732972    2.1825084   0.31231498 
 6840000    1.0171169 -3.1266419e-05   0.66237043  0.042310093            0   0.62006034    1.5129614    2.1753319    1.1081048 
 6845000    1.1194916 -0.00011097396   0.53088167  0.020045988            0   0.51083568    1.6652437    2.1961254   -1.5917859 
 6850000    1.0671584 -0.00019784619   0.61476024  0.021111662            0   0.59364857    1.5873982    2.2021584   -4.5509915 
 6855000    1.1044123 -5.3198364e-05   0.58907884  0.053729525            0   0.53534932    1.6428133    2.2318921   0.41605465 
 6860000    1.0772607 9.3535582e-05   0.63653747  0.035389254            0   0.60114822    1.6024254    2.2389628     5.431644 
 6865000    1.0994814 1.0894945e-05   0.59577836  0.040105192            0   0.55567316    1.6354785    2.2312569    2.6031377 
 6870000    1.1540847 1.4809303e-05   0.51572925  0.040651338            0   0.47507791     1.716701    2.2324302    2.7379211 
 6875000    1.1251786 -1.9271113e-05   0.52239522  0.029994198            0   0.49240102    1.6737032    2.1960984    1.5383111 
 6880000      1.05006 -5.0221125e-05   0.63237676  0.027076744            0   0.60530001    1.5619642     2.194341    0.4801266 
 6885000    1.1460873 -2.8741146e-05   0.51190502  0.034114994            0   0.47779002    1.7048049    2.2167099    1.2356788 
 6890000    1.0913065 -2.02302e-05   0.58220995  0.057060097            0   0.52514986    1.6233185    2.2055284    1.5150043 
 6895000    1.0794359 -2.3105027e-05   0.60337886  0.010681762            0   0.59269709    1.6056609    2.2090397    1.4203881 
 6900000    1.0842109 1.7342777e-05    0.5760814    0.0316309            0    0.5444505    1.6127637    2.1888451    2.7808118 
 6905000    1.0821704 7.6115762e-05   0.59954377  0.031026127            0   0.56851764    1.6097284    2.2092722    4.8073569 
 6910000    1.0815321 -1.1729758e-05   0.58953672  0.013382024            0    0.5761547     1.608779    2.1983157    1.7979399 
 6915000    1.0694189 -9.2659615e-05   0.58896056  0.016901349            0   0.57205921    1.5907606    2.1797211   -0.9830604 
 6920000    0.9740648 -4.8840841e-05   0.72072723 0.0098806231            0    0.7108466    1.4489214    2.1696486   0.50254792 
 6925000    1.0537795 0.00013832521   0.60145807  0.025785103            0   0.57567297     1.567497    2.1689551    6.8904554 
 6930000    1.0364468 0.00019384906   0.60441157  0.018107286            0   0.58630429    1.5417145    2.1461261    8.7628405 
 6935000    1.0725221 -7.355853e-06   0.54470886  0.039413465            0   0.50529539    1.5953766    2.1400854    1.8890056 
 6940000    1.0563425 -8.7946868e-05   0.53526456  0.026764259            0    0.5085003    1.5713095    2.1065741  -0.89534569 
 6945000    1.0624619 2.1780344e-05   0.54547751    0.0101549            0   0.53532261     1.580412    2.1258895    2.8693253 
 6950000    1.0733928 0.00016793582   0.50610353  0.013743054            0   0.49236047    1.5966718    2.1027753    7.8349848 
 6955000    1.0025723 6.7296019e-05   0.61092084  0.013591428            0   0.59732941    1.4913262    2.1022471    4.3992845 
 6960000    1.0986573 -0.00011227232   0.48574352 0.0066337078            0   0.47910982    1.6342528    2.1199963   -1.7122322 
 6965000    1.0944869 -0.00021101552   0.49581427 0.0059836353            0   0.48983063    1.6280492    2.1238635   -5.0787996 
 6970000    1.0117785 -0.00022394096    0.6120705 0.0061505028            0   0.60591999    1.5050206    2.1170911   -5.5267602 
 6975000    1.0248693 3.0199339e-05   0.57255507 0.0032828134            0   0.56927226    1.5244931    2.0970482    3.1278523 
 6980000    1.0139566 0.00013106477   0.60958985 0.0028301452            0    0.6067597    1.5082604    2.1178502    6.5915279 
 6985000    1.0510815 -4.0312901e-05   0.53464571 0.0063705792            0   0.52827513    1.5634838    2.0981295   0.72211578 
 6990000    1.0570783 4.189756e-05   0.52640176  0.004142865            0   0.52225889    1.5724039    2.0988057    3.5289091 
 6995000    1.0614057 2.7493272e-06   0.55538754 0.0040602206            0   0.55132731     1.578841    2.1342285    2.2280722 
 7000000    1.0276432 -2.8109346e-05   0.60913639 0.0076648174            0   0.60147158    1.5286192    2.1377556    1.1782899 
 7005000     0.961699 5.5148981e-05   0.70334781  0.017085427            0   0.68626239    1.4305273    2.1338751    4.0162936 
 7010000    1.0366183 7.0548014e-05   0.61190749   0.02315114            0   0.58875635    1.5419697    2.1538772    4.5619161 
 7015000     1.077004 -1.1968994e-05   0.55206475  0.020669333            0   0.53139542    1.6020435    2.1541082    1.7455666 
 7020000   0.93356592 -4.8288998e-05   0.71278937  0.018107881            0   0.69468149    1.3886793    2.1014687   0.45320422 
 7025000    1.0290003 6.8626971e-06   0.53325982  0.011932407            0   0.52132741    1.5306379    2.0638978    2.2981445 
 7030000     1.036434 -0.00010470991   0.51542142 0.0086495452            0   0.50677187    1.5416956     2.057117   -1.5169812 
 7035000    0.9859666 -3.5718993e-05   0.62022669  0.035205912            0   0.58502078    1.4666253     2.086852   0.86764371 
 7040000   0.98066988 0.00015123484   0.60816319    0.0193769            0   0.58878629    1.4587465    2.0669096    7.2290589 
 7045000    0.9921629 5.7043451e-05   0.58539545  0.019351668            0   0.56604378    1.4758423    2.0612378    4.0083209 
 7050000   0.99599745 -0.00010770359   0.57159584  0.012580915            0   0.55901493    1.4815462    2.0531421   -1.6231404 
 7055000    1.0045233 -0.00018674057   0.58412995  0.027174783            0   0.55695516    1.4942284    2.0783583   -4.2957197 
 7060000   0.99382281 -0.00014155968   0.58427114    0.0177455            0   0.56652564    1.4783114    2.0625826   -2.7693213 
 7065000    1.0241334 -0.00011992126   0.52703761  0.014393441            0   0.51264417    1.5233985    2.0504361   -2.0428762 
 7070000   0.98932891 4.8264624e-05   0.58781504   0.04006052            0   0.54775452    1.4716268    2.0594418    3.7068743 
 7075000   0.99824402 8.7097776e-05   0.60079279  0.030699244            0   0.57009355     1.484888    2.0856808    5.0586182 
 7080000    1.0596991 0.00010598438   0.52614751   0.01441793            0   0.51172958    1.5763025      2.10245    5.7200502 
 7085000    1.0489181 2.1561802e-05   0.51405154  0.025264641            0    0.4887869    1.5602657    2.0743173    2.8102934 
 7090000    1.0261636 -0.00016667403   0.53307005  0.023852908            0   0.50921714    1.5264183    2.0594883    -3.629652 
 7095000    1.0198667 2.1749167e-05   0.52598461   0.05581581            0   0.47016881    1.5170517    2.0430364    2.7854079 
 7100000      1.03456 0.00011373501   0.50820437 0.0089034176            0   0.49930095     1.538908    2.0471124    5.9292675 
 7105000    1.0118833 6.9170936e-05   0.56292428 0.0040970187            0   0.55882726    1.5051765    2.0681007    4.4291353 
 7110000    1.0071089 -1.3659444e-05   0.56725351  0.017158078            0   0.55009543    1.4980745     2.065328    1.5990856 
 7115000    1.0250526 -5.0637114e-05   0.53777222 0.0085047086            0   0.52926751    1.5247658     2.062538   0.33412452 
 7120000    1.0618944 0.00010450828       0.4653  0.013527382            0   0.45177261    1.5795679    2.0448679    5.6120839 
 7125000   0.98400014 0.00015544137   0.56624087  0.020002675            0    0.5462382    1.4637002    2.0299411    7.3356731 
 7130000   0.94905134 6.3695929e-05   0.61137994  0.033322742            0    0.5780572    1.4117139    2.0230938    4.1972482 
 7135000   0.99845651 2.8620776e-05   0.55641233  0.014149128            0    0.5422632    1.4852041    2.0416164    3.0185389 
 7140000   0.97427536 -0.00010010297   0.58741909  0.017143372            0   0.57027571    1.4492346    2.0366537   -1.3801943 
 7145000    1.0209263 -4.6247967e-05   0.52317203  0.019769779            0   0.50340225    1.5186279       2.0418   0.46320267 
 7150000    1.0134905 0.00015007093   0.54116902  0.035798407            0   0.50537061    1.5075671    2.0487361    7.1711571 
 7155000    0.9989028 5.4438727e-05   0.57031268  0.017405303            0   0.55290738    1.4858679    2.0561806    3.9143558 
 7160000    1.0100189 -0.00010096252   0.55863489  0.008186052            0   0.55044884    1.5024032     2.061038   -1.3851495 
 7165000       1.1023 -4.1753655e-05   0.43277475 0.0051221944            0   0.42765256    1.6396712     2.072446   0.64725456 
 7170000    1.0333932 6.0716328e-05   0.55366932  0.046688014            0   0.50698131    1.5371723    2.0908416    4.1632923 
 7175000    1.0071461 8.5069415e-06   0.59985608  0.058004512            0   0.54185157    1.4981299     2.097986    2.3883562 
 7180000      1.06472 2.5015712e-05   0.51087253  0.022259982            0   0.48861255     1.583771    2.0946435    2.9485132 
 7185000    1.0035297 4.8118288e-05   0.59729642  0.031076829            0    0.5662196    1.4927504    2.0900468    3.7324844 
 7190000   0.98570197 6.5471517e-06   0.59203084  0.033860224            0   0.55817062    1.4662317    2.0582625    2.2817386 
 7195000   0.96285662 -0.00010785262   0.61243184  0.039059395            0   0.57337244    1.4322492    2.0446811   -1.6366885 
 7200000    1.0750895 1.5855675e-06    0.4413777   0.05429828            0   0.38707942    1.5991957    2.0405734    2.0946941 
 7205000    1.0382168 0.00018021251   0.50551715  0.030064089            0   0.47545306    1.5443475    2.0498646    8.2011183 
 7210000    1.0067572 0.00014548104    0.5852949 0.0098770412            0   0.57541786    1.4975514    2.0828463    7.0485991 
 7215000   0.96980965 0.00012762546   0.64302918  0.034985571            0   0.60804361    1.4425919     2.085621    6.4419035 
 7220000    1.0797404 0.00018097288   0.49573639  0.022874862            0   0.47286153    1.6061139    2.1018502    8.2790578 
 7225000    1.0759608 7.255962e-05   0.50679651  0.010571359            0   0.49622515    1.6004917    2.1072883    4.5839899 
 7230000    1.0013531 -0.00012525486   0.61724427  0.011630515            0   0.60561375    1.4895127     2.106757   -2.1686089 
 7235000    1.0887846 -8.7723028e-05   0.52451518  0.041057042            0   0.48345814    1.6195671    2.1440823  -0.85019703 
 7240000   0.96524496 -9.991624e-05   0.68468068  0.047737246            0   0.63694343    1.4358019    2.1204826   -1.2899918 
 7245000    1.0347095 -4.1356489e-05   0.56938748  0.075723136            0   0.49366434    1.5391304    2.1085178   0.69688301 
 7250000    1.1154176 9.9931878e-05    0.4562473  0.014709629            0   0.44153767    1.6591836    2.1154309     5.526439 
 7255000    1.0718335 0.00010175814   0.52839845  0.021408141            0   0.50699031    1.5943524    2.1227508    5.5960955 
 7260000    1.0238314 2.5277114e-05   0.60047003  0.022230688            0   0.57823934    1.5229493    2.1234193    2.9862114 
 7265000    1.0716711 5.2365024e-05   0.52851919  0.023549247            0   0.50496995    1.5941108      2.12263    3.9100228 
 7270000    1.0599639 -1.1274267e-05   0.57528597   0.03233857            0    0.5429474    1.5766963    2.1519822    1.7671539 
 7275000   0.99536948 -6.1110107e-05     0.669307   0.10238478            0   0.56692222    1.4806121    2.1499191  0.064027457 
 7280000    1.0561247 -5.8452977e-05   0.59746227  0.025249971            0    0.5722123    1.5709854    2.1684477   0.17325277 
 7285000    1.0769895 6.135335e-05   0.56648374  0.030217378            0   0.53626636    1.6020219    2.1685056       4.2627 
 7290000    1.0831565 0.00012351793   0.55128744  0.031412287            0   0.51987515    1.6111953    2.1624828    6.3785614 
 7295000    1.0291919 8.4016232e-05   0.63395717  0.035635848            0   0.59832133     1.530923    2.1648802    5.0326342 
 7300000    1.0943902 -0.00014365161   0.52603495  0.046665422            0   0.47936953    1.6279054    2.1539404    -2.749368 
 7305000    1.0435801 3.8891532e-06   0.59289258   0.08364821            0   0.50924437    1.5523255     2.145218    2.2779678 
 7310000    1.0752195 0.00020808883   0.54282399  0.031554788            0    0.5112692    1.5993891    2.1422131    9.2449784 
 7315000    1.0176134 5.9929767e-05   0.65016448  0.063243088            0   0.58692139       1.5137    2.1638644    4.2094671 
 7320000    1.0807801 -6.08136e-06   0.57253761  0.029128085            0   0.54340953    1.6076604     2.180198    1.9726209 
 7325000    1.0886075 -2.4447851e-05   0.54643029  0.010102749            0   0.53632754    1.6193037     2.165734    1.3312473 
 7330000    1.0933752 0.00011065244   0.54672812  0.018003524            0    0.5287246    1.6263955    2.1731237    5.9500602 
 7335000   0.96951276 0.00024861795   0.70901136  0.041608785            0   0.66740257    1.4421502    2.1511616    10.637321 
 7340000     1.029486 6.0974004e-05   0.63292302  0.020661604            0   0.61226141    1.5313604    2.1642834    4.2455294 
 7345000    1.0140467 -2.6614553e-05   0.64299935  0.022940364            0   0.62005898    1.5083944    2.1513938    1.2429503 
 7350000    1.0621747 3.9169739e-05   0.56440256  0.018422009            0   0.54598055    1.5799849    2.1443874    3.4813812 
 7355000    1.0619877 8.0861441e-05   0.57265004  0.023255443            0    0.5493946    1.5797068    2.1523568    4.9124273 
 7360000    1.0508326 1.1106671e-05   0.59446477  0.061587637            0   0.53287714    1.5631134    2.1575782    2.5366859 
 7365000    1.1229299 1.3741567e-05   0.50516729   0.02622977            0   0.47893752    1.6703583    2.1755256    2.6445711 
 7370000    1.0604079 4.4099336e-07   0.57233841  0.021072674            0   0.55126574    1.5773568    2.1496952    2.1647478 
 7375000     1.014764 9.3127489e-05    0.6315929   0.03264523            0   0.59894767    1.5094615    2.1410544     5.319806 
 7380000   0.99087799 3.3322775e-05   0.67675574    0.0668993            0   0.60985644     1.473931    2.1506868    3.2881042 
 7385000     1.048414 -0.00011725028    0.5819796  0.039631647            0   0.54234796    1.5595159    2.1414955   -1.8606475 
 7390000    1.0841569 3.8063594e-05   0.52117892  0.030059954            0   0.49111897    1.6126834    2.1338623    3.4330996 
 7395000    1.0575874 3.8790244e-05   0.57908643  0.011872041            0   0.56721439    1.5731612    2.1522476     3.476288 
 7400000    1.0579691 -0.0001324611   0.59823023  0.006194535            0   0.59203569    1.5737291    2.1719593   -2.3493797 
 7405000    1.1384219 -3.3580096e-05   0.46012408  0.010790489            0   0.44933359    1.6934025    2.1535266     1.007326 
 7410000    1.0363688 2.1190214e-05   0.60115656  0.020251372            0   0.58090519    1.5415986    2.1427552    2.8660478 
 7415000    1.0469022 -3.2321408e-05   0.59385335  0.025778393            0   0.56807496     1.557267    2.1511204     1.047883 
 7420000    1.1105756 1.0443966e-05   0.48120411  0.010034728            0   0.47116938    1.6519813    2.1331854    2.4896727 
 7425000    1.0241436 -4.750706e-05    0.5777679  0.014220311            0   0.56354759    1.5234136    2.1011815   0.47960724 
 7430000    1.0681618 6.943376e-05      0.50387   0.02589905            0   0.47797095    1.5888907    2.0927607    4.4627664 
 7435000   0.96236702 2.007097e-05   0.64126293   0.02674608            0   0.61451685    1.4315209    2.0727839     2.757873 
 7440000    1.0317864 -7.4453714e-05    0.5363948  0.021385999            0    0.5150088    1.5347823    2.0711771  -0.47017637 
 7445000    1.0901772 3.3317505e-06   0.46157999  0.024101354            0   0.43747863    1.6216386    2.0832186    2.1969423 
 7450000    1.0436467 -1.4789288e-05   0.51474922  0.017976019            0    0.4967732    1.5524245    2.0671737     1.562366 
 7455000   0.99999351 4.5235201e-05   0.56205954  0.010157799            0   0.55190174    1.4874904    2.0495499    3.5935781 
 7460000    1.0121078 0.00010147855   0.56691396  0.040803533            0   0.52611043    1.5055104    2.0724243    5.5362257 
 7465000    1.0010504 1.6425855e-05   0.58259986  0.025315391            0   0.55728447    1.4890625    2.0716623    2.6323315 
 7470000    1.0671081 -5.6841824e-05   0.47971079  0.019865016            0   0.45984578    1.5873232     2.067034   0.12683309 
 7475000   0.98189867 -5.6709785e-05   0.59306874  0.025342412            0   0.56772632    1.4605743     2.053643     0.117949 
 7480000   0.98489328 7.0130048e-05   0.58826983    0.0169229            0   0.57134693    1.4650288    2.0532986    4.4470709 
 7485000    1.0254276 0.0001853602   0.51151345  0.030479864            0   0.48103359    1.5253236     2.036837    8.3637985 
 7490000   0.99984407 0.00015058841   0.55022615  0.036596886            0   0.51362926     1.487268    2.0374942    7.1775786 
 7495000   0.98654793 -0.00012442613    0.5785817  0.014939391            0   0.56364231      1.46749    2.0460717   -2.2010068 
 7500000    1.0235575 -0.00010869938   0.52397642    0.0391889            0   0.48478752    1.5225418    2.0465182    -1.663754 
 7505000    1.0413946 4.0021761e-05   0.51669451  0.043624504            0      0.47307    1.5490744     2.065769     3.431845 
 7510000    1.0008705 0.00010583343   0.56482709  0.032749828            0   0.53207727    1.4887949     2.053622    5.6660696 
 7515000    1.0599974 0.00016538235   0.48467755  0.024790981            0   0.45988657    1.5767462    2.0614237    7.7064746 
 7520000    1.0291763 6.6468366e-06   0.54487691  0.028619742            0   0.51625717    1.5308998    2.0757767    2.3026553 
 7525000    1.0211636 -0.00011249122   0.58122623   0.03653336            0   0.54469287    1.5189808     2.100207   -1.7394931 
 7530000    1.0157208 -1.0845156e-05    0.5966555 0.0097363561            0   0.58691914    1.5108847    2.1075402    1.7373589 
 7535000     1.021832 9.5590075e-05   0.59549139  0.016047845            0   0.57944354    1.5199751    2.1154665    5.3782744 
 7540000    1.0393805 -1.3765444e-06   0.55629963 0.0067110493            0   0.54958858    1.5460785    2.1023782    2.0553921 
 7545000    1.1402322 1.4158227e-06   0.42442639 0.0064799644            0   0.41794643    1.6960954    2.1205218    2.1688485 
 7550000   0.98264741 -6.6045704e-05   0.63943308  0.016857339            0   0.62257574     1.461688    2.1011211  -0.15323891 
 7555000    1.0465342 -0.00020929135   0.55291254  0.023369306            0   0.52954323    1.5567197    2.1096322   -5.0341791 
 7560000    1.0267431 -0.00016096375   0.57425716   0.04299371            0   0.53126345    1.5272803    2.1015375   -3.3926919 
 7565000    1.0136107 -9.0561423e-05   0.59384367  0.034888813            0   0.55895486    1.5077459    2.1015895  -0.98957372 
 7570000    1.0355659  1.68357e-05   0.55641616 0.0087616592            0    0.5476545    1.5404042    2.0968204     2.671479 
 7575000    1.0738094 -5.7358102e-07   0.47890558  0.030580409            0   0.44832517    1.5972915    2.0761971    2.0566188 
 7580000    0.9837996 -0.00011047815   0.55959591  0.032661931            0   0.52693398    1.4634019    2.0229978   -1.7479897 
 7585000   0.99212278 -5.1284013e-05   0.57887064  0.012140265            0   0.56673037    1.4757826    2.0546533   0.30415895 
 7590000    1.0180245 1.0790701e-05   0.53146561 0.0091330871            0   0.52233252    1.5143115    2.0457771    2.4140997 
 7595000     1.014675 -3.4479234e-05   0.54578547 0.0085899289            0   0.53719554     1.509329    2.0551145   0.87822331 
 7600000    1.0322031 -7.0944324e-06   0.54360157 0.0072413923            0   0.53636018    1.5354021    2.0790037     1.836847 
 7605000    1.0579509 6.6968411e-05   0.50852188  0.020197556            0   0.48832432    1.5737019    2.0822238    4.3680789 
 7610000     1.000384 0.00012309946   0.58506044 0.0093389149            0   0.57572153    1.4880711    2.0731316    6.2749263 
 7615000    1.0926982 3.5826179e-05   0.45401228  0.014265294            0   0.43974698    1.6253885    2.0794008    3.3022677 
 7620000    0.9881909 -5.1845325e-05   0.59037463  0.015952389            0   0.57442224     1.469934    2.0603086   0.29065485 
 7625000    1.0857706 3.5978698e-06   0.46154405 0.0093244805            0   0.45221957    1.6150838    2.0766279    2.1994352 
 7630000    0.9904318 -7.6964867e-06   0.60709249 0.0059081188            0   0.60118437    1.4732673    2.0803598     1.817653 
 7635000    1.0819871 -4.0452998e-05   0.48420607  0.011773125            0   0.47243294    1.6094558    2.0936618   0.71286615 
 7640000    1.1279736 2.6246307e-05   0.40534649 0.0049040956            0   0.40044239    1.6778608    2.0832073    2.9790812 
 7645000    1.0354293 0.00010555579   0.55259392  0.013264023            0    0.5393299    1.5402012    2.0927951    5.6957659 
 7650000    1.0354255 3.3255568e-05   0.56596258  0.011508128            0   0.55445445    1.5401954     2.106158    3.2412814 
 7655000    1.0576687 -9.8958179e-05   0.51723274  0.010973753            0   0.50625899    1.5732822    2.0905149   -1.2872576 
 7660000    1.0011274 -0.00012939377   0.58547097  0.025267425            0   0.56020355     1.489177     2.074648   -2.3419926 
 7665000    1.0392583 -0.00015464327   0.54698723  0.034983546            0   0.51200369    1.5458968     2.092884   -3.1856063 
 7670000    1.0895284 -9.3107719e-05   0.48904185  0.029593847            0     0.459448    1.6206735    2.1097153   -1.0683615 
 7675000    1.0345932 -5.9578522e-05   0.59703754  0.018214577            0   0.57882297    1.5389573    2.1359949   0.10238133 
 7680000    1.1482694 -1.7483717e-05   0.44061067   0.00206852            0   0.43854215    1.7080508    2.1486615    1.5518839 
 7685000    1.0335022 6.3273685e-05   0.60680975 0.0052074395            0   0.60160231    1.5373346    2.1441443    4.3038861 
 7690000    1.0471848 3.6705649e-05   0.57153114  0.032431935            0   0.53909921    1.5576873    2.1292185    3.3821046 
 7695000    1.0556528 -2.075179e-05     0.573804   0.06517889            0   0.50862511    1.5702835    2.1440875    1.4357597 
 7700000    1.0900004 0.00012717891   0.51233723  0.031789039            0   0.48054819    1.6213757    2.1337129    6.4747531 
 7705000     1.044297 4.1681621e-05   0.56057373  0.012983686            0   0.54759005    1.5533918    2.1139655    3.5366982 
 7710000    1.0663094 -7.5443719e-05   0.51896847  0.014103376            0   0.50486509    1.5861353    2.1051037  -0.47004187 
 7715000    1.0531925 7.0506552e-06   0.52283307  0.011714254            0   0.51111882    1.5666238    2.0894568    2.3301192 
 7720000    1.0754337 -8.2435059e-06   0.47255338  0.015664158            0   0.45688922    1.5997076     2.072261    1.7908827 
 7725000   0.98636091 -5.15877e-05   0.59981944  0.028889441            0      0.57093    1.4672119    2.0670313   0.30617114 
 7730000   0.99725788 -5.5632103e-05   0.59477587  0.017166204            0   0.57760966    1.4834211     2.078197   0.17928786 
 7735000     1.028841 -2.2425043e-05    0.5272233  0.013401621            0   0.51382168     1.530401    2.0576244    1.2921829 
 7740000    1.0115984  7.38153e-05   0.55099944  0.014894208            0   0.53610524    1.5047526     2.055752    4.5753143 
 7745000    1.0151132 0.00014798331   0.54084202  0.040275449            0   0.50056657    1.5099809     2.050823    7.1019865 
 7750000    1.0684466 8.6353497e-05   0.45247901  0.013882137            0   0.43859687    1.5893143    2.0417934    4.9893261 
 7755000    1.0398753 8.3161346e-05    0.5167701  0.012853487            0   0.50391661    1.5468145    2.0635845    4.9021585 
 7760000    1.0008789 -2.7702997e-05   0.59089926  0.028256886            0   0.56264238    1.4888074    2.0797067     1.134111 
 7765000    1.0507355 -2.1422638e-05   0.52376571  0.020293227            0   0.50347249    1.5629691    2.0867348    1.3555088 
 7770000     1.032953 -8.7419147e-06   0.56725206 0.0027688171            0   0.56448325    1.5365176    2.1037696    1.8053789 
 7775000    1.0595216 -6.498335e-05   0.52351367 0.0020444991            0   0.52146917    1.5760384    2.0995521  -0.11854627 
 7780000    1.0642034 2.5341452e-05    0.4955947 0.0073157866            0   0.48827892    1.5830026    2.0785973    2.9435855 
 7785000   0.98191368 3.8503055e-05   0.61652858   0.01763948            0    0.5988891    1.4605966    2.0771252    3.3913628 
 7790000    1.0117858 -7.886573e-05   0.57894846   0.04062999            0   0.53831847    1.5050313    2.0839798  -0.60797045 
 7795000   0.98283449 -0.00018835332   0.59904025  0.025554494            0   0.57348576    1.4619663    2.0610066   -4.3681201 
 7800000    1.0015899 -5.4335379e-05   0.60085995  0.013617251            0    0.5872427     1.489865     2.090725   0.23607738 
 7805000    1.0367311 8.4522688e-05   0.57360174  0.023516026            0   0.55008571    1.5421375    2.1157392    5.0007803 
 7810000    1.0260993 -2.700653e-06   0.60747905   0.01925521            0   0.58822384    1.5263227    2.1338017    2.0416194 
 7815000    1.0595042 -7.4530711e-05   0.56618194  0.026757274            0   0.53942466    1.5760125    2.1421944  -0.40178715 
 7820000    1.0231827 -7.6095928e-05    0.6204108  0.025508926            0   0.59490187    1.5219843    2.1423951  -0.45501254 
 7825000    1.0001708 -0.00017834835   0.67190225  0.039095719            0   0.63280653    1.4877541    2.1596564   -3.9279674 
 7830000    1.0211906 -0.00020509244   0.64633019  0.015924162            0   0.63040602    1.5190209    2.1653511   -4.8351373 
 7835000    1.0941559 2.7082878e-05   0.51903726  0.026119329            0   0.49291793    1.6275569    2.1465942    3.0710231 
 7840000    1.0575878 0.0001684435   0.59991025  0.047011647            0    0.5528986    1.5731619    2.1730721    7.9226104 
 7845000    1.0122311 0.0001100118     0.667793   0.03214378            0   0.63564922    1.5056937    2.1734867    5.9285563 
 7850000    1.0741987 2.860582e-06   0.56752205  0.031603741            0   0.53591831    1.5978705    2.1653926    2.2630337 
 7855000    1.0138222 -0.00020268146   0.66452467  0.015329052            0   0.64919562    1.5080606    2.1725852   -4.7456085 
 7860000    1.0671161 -0.00013123946    0.5781633  0.028598454            0   0.54956485    1.5873352    2.1654985   -2.3141416 
 7865000    1.0560642 0.00015514334   0.57733952  0.046387356            0   0.53095217    1.5708955     2.148235    7.4437944 
 7870000   0.97354862 6.1878543e-05   0.68161158  0.040204143            0   0.64140744    1.4481536    2.1297652    4.2418861 
 7875000    1.0692762 3.5833621e-05   0.53370051  0.021569991            0   0.51213052    1.5905484    2.1242489    3.3473698 
 7880000    1.0699728 4.8340933e-05   0.54729934 0.0014087225            0   0.54589062    1.5915845    2.1388839     3.788921 
 7885000    1.0171886 3.0400459e-05   0.63038884 0.0068378651            0   0.62355097     1.513068    2.1434569    3.1811259 
 7890000    1.0845343 9.2333016e-05   0.53428103  0.040969724            0   0.49331131    1.6132448    2.1475258    5.2991594 
 7895000    1.0342634 9.8633852e-05   0.59253744  0.038236455            0   0.55430099    1.5384668    2.1310043    5.4977064 
 7900000   0.98141483 3.9095321e-05   0.69876242   0.03403851            0   0.66472391    1.4598546     2.158617    3.4930706 
 7905000    1.1330298 4.2818016e-05   0.47678917   0.01943386            0   0.45735531    1.6853819    2.1621711    3.6236927 
 7910000     1.054711 -9.3386172e-05   0.58864747  0.012830107            0   0.57581736    1.5688826    2.1575301   -1.0300512 
 7915000    1.0979034 -0.00010459013   0.51491491  0.019359181            0   0.49555573    1.6331313    2.1480462   -1.4219637 
 7920000     1.070772 -8.917421e-05   0.57367472  0.027307174            0   0.54636755    1.5927733     2.166448  -0.87736501 
 7925000    1.0880569 7.2925284e-05   0.53555121  0.025913018            0   0.50963819    1.6184847    2.1540359    4.6432189 
 7930000    1.0662154 0.00011325205   0.56819502 0.0090307978            0   0.55916422    1.5859954    2.1541904    6.0198606 
 7935000    1.0460315 4.3670436e-05    0.5933397 0.0054396524            0   0.58790005    1.5559718    2.1493115    3.6399291 
 7940000    1.0235846 0.00019714474   0.62591452 0.0085156273            0   0.61739889    1.5225821    2.1484966    8.8777039 
 7945000    1.0095995 -8.4768898e-05   0.64181053   0.01936169            0   0.62244884    1.5017793    2.1435898   -0.7498552 
 7950000    1.0770071 -2.5272746e-05   0.55173471  0.024042257            0   0.52769245    1.6020481    2.1537828    1.2911397 
 7955000    1.0750794 0.00016707411   0.53725749  0.039763935            0   0.49749356    1.5991805     2.136438    7.8392344 
 7960000     1.010295 0.00012257549   0.64677845  0.032998327            0   0.61378012    1.5028138    2.1495922    6.3335023 
 7965000    1.0052268 -1.576398e-05   0.62723341  0.034323137            0   0.59291027    1.4952749    2.1225083    1.5844311 
 7970000    1.0330775 -3.7578624e-05   0.59184068  0.028665822            0   0.56317486    1.5367027    2.1285434   0.84585972 
 7975000    1.0614826 0.00013728891   0.56576197  0.030357822            0   0.53540415    1.5789554    2.1447174    6.8308456 
 7980000    1.0501588 -0.00010072768   0.58699161 0.0087474922            0   0.57824412    1.5621112    2.1491028   -1.2890688 
 7985000    1.1105513 -1.1985981e-05   0.51403907  0.011527853            0   0.50251121     1.651945    2.1659841    1.7568626 
 7990000    1.0445536 -1.4392678e-06   0.62157076 0.0053309683            0   0.61623979    1.5537734    2.1753442    2.1262172 
 7995000    1.0879637 -0.00012953104   0.55016537 0.0099317348            0   0.54023363     1.618346    2.1685113   -2.2528149 
 8000000    1.0694036 -0.00016014036   0.56972206  0.014789903            0   0.55493216    1.5907378    2.1604599   -3.3056645 
 8005000    1.0856929 2.8515978e-05   0.56383603  0.027057465            0   0.53677856    1.6149682    2.1788042    3.1521496 
 8010000    1.0136716 -0.00014239137   0.64244538  0.037470822            0   0.60497456    1.5078365    2.1502819   -2.7100103 
 8015000    1.1148694 2.9768573e-05   0.48235727 0.0073261995            0   0.47503107    1.6583682    2.1407255    3.1568262 
 8020000    1.0445606 0.00011324443   0.55838508 0.0054174382            0   0.55296764    1.5537839    2.1121689    5.9775789 
 8025000    1.0533548 -8.5251648e-06   0.50044691  0.008790823            0   0.49165609    1.5668653    2.0673122    1.7763199 
 8030000    1.0358772 -3.4782394e-05   0.50356405   0.01218299            0   0.49138106    1.5408674    2.0444314   0.85719238 
 8035000   0.99911585 -3.5779042e-05   0.55060536  0.015403206            0   0.53520215    1.4861848    2.0367902   0.81553223 
 8040000    1.0072296 -6.1087059e-06   0.54462689  0.017229555            0   0.52739733     1.498254    2.0428808    1.8343704 
 8045000    1.0183944 1.5367537e-05   0.54082933   0.01152747            0   0.52930186    1.5148617     2.055691    2.5802363 
 8050000   0.94203523 0.00026794763   0.65553476  0.010878125            0   0.64465663    1.4012774    2.0568122    11.202758 
 8055000    1.0668351 3.2566626e-05   0.48802125 0.0082409601            0   0.47978029    1.5869173    2.0749385     3.186546 
 8060000    1.0414135 -6.9997562e-05   0.50440814  0.017573141            0     0.486835    1.5491026    2.0535107  -0.33573939 
 8065000    1.0326467 2.3719202e-06    0.5291569  0.022605479            0   0.50655142    1.5360619    2.0652188    2.1461804 
 8070000   0.98210419 3.3306367e-06    0.6338611  0.012972233            0   0.62088886      1.46088    2.0947411    2.2084268 
 8075000    1.1193151 5.2275061e-05   0.44155429  0.025454667            0   0.41609963    1.6649812    2.1065355    3.8908576 
 8080000    1.0144164 -1.6436073e-05   0.58752565  0.028693008            0   0.55883265    1.5089444      2.09647    1.5354521 
 8085000   0.97202462 -2.6407712e-05   0.64428985  0.030429907            0   0.61385994    1.4458866    2.0901765    1.1887932 
 8090000    1.0688037 6.0864851e-05   0.49444638  0.015321203            0   0.47912517    1.5898456    2.0842919    4.1618122 
 8095000    1.0574861 0.00018318652   0.51244589  0.012766956            0   0.49967894    1.5730106    2.0854565     8.338223 
 8100000     1.053537 0.00012798278   0.55680522   0.01365874            0   0.54314648    1.5671363    2.1239416    6.4924204 
 8105000    1.0828526 -1.7842236e-05   0.51583881   0.01278115            0   0.50305766    1.6107433    2.1265821    1.5175671 
 8110000    1.1412073 0.0001093283   0.44104794  0.028776986            0   0.41227096    1.6975459    2.1385938    5.8703332 
 8115000    1.0326187 5.6971681e-05   0.62509655  0.057503539            0   0.56759301    1.5360203    2.1611169    4.1057502 
 8120000    1.1005657 -9.3139839e-05   0.52310063  0.015033012            0   0.50806761    1.6370915    2.1601922    -1.018981 
 8125000    1.1180259 0.00012722994   0.51995078 0.0051455947            0   0.51480518    1.6630635    2.1830143    6.5257961 
 8130000    1.1131862 -2.7822084e-05   0.56012171  0.010348871            0   0.54977284    1.6558645    2.2159862    1.2663257 
 8135000    1.1290051 -0.00013494799   0.55541036  0.013404171            0   0.54200619    1.6793952    2.2348055   -2.3714192 
 8140000    1.0972695 -4.6428791e-05   0.56586802  0.032125575            0   0.53374244    1.6321884    2.1980564   0.61328704 
 8145000    1.0553696 -0.00017781609   0.61846665  0.040248511            0   0.57821814    1.5698623    2.1883289    -3.881127 
 8150000    1.0942603 7.1587095e-05   0.58803011  0.032385072            0   0.55564504    1.6277122    2.2157423    4.6592485 
 8155000    1.1591644 7.0100501e-05   0.51143184  0.022824371            0   0.48860747     1.724257    2.2356889    4.6284526 
 8160000    1.0552091 -0.00013041413   0.63587269  0.067433512            0   0.56843918    1.5696236    2.2054963   -2.2459726 
 8165000    1.0573401 8.2709848e-05   0.62854046  0.068827783            0   0.55971268    1.5727935    2.2013339    5.0244967 
 8170000    1.1379386 9.8735124e-05   0.49704319  0.073321664            0   0.42372153    1.6926837    2.1897269    5.5598858 
 8175000    1.1591916 5.437547e-05   0.44534485  0.016717957            0   0.42862689    1.7242975    2.1696423    4.0256584 
 8180000    1.0459801 -1.5562017e-05   0.62893763 0.0052802188            0   0.62365741    1.5558954    2.1848331    1.6536496 
 8185000    1.1071281 -4.0336447e-05   0.54351922  0.036520892            0   0.50699833    1.6468531    2.1903723   0.81355492 
 8190000    1.1308012 8.2826191e-05   0.51029814  0.014150734            0    0.4961474    1.6820668     2.192365     5.019499 
 8195000    1.1019736 9.4672955e-05   0.56645872 0.0042330854            0   0.56222563    1.6391857    2.2056444     5.437148 
 8200000     1.106328 1.0352252e-05   0.52025415  0.017785518            0   0.50246863     1.645663    2.1659171     2.519274 
 8205000    1.1186057 -3.0849373e-05   0.51685615  0.025464673            0   0.49139148     1.663926    2.1807822    1.1277902 
 8210000    1.0969855 0.00013673155   0.55281675 0.0087759261            0   0.54404082    1.6317659    2.1845827    6.8516862 
 8215000    1.0795252 6.229817e-05   0.58895404  0.018837624            0   0.57011642    1.6057937    2.1947478    4.3211919 
 8220000    1.0538267 -0.00020020996   0.62515957  0.025071047            0   0.60008852    1.5675671    2.1927267   -4.6411067 
 8225000    1.1457095 -1.3124356e-06   0.49389668  0.011307054            0   0.48258962    1.7042428    2.1981395    2.1533417 
 8230000    1.0452495 -1.4963733e-05   0.61791067  0.020272441            0   0.59763823    1.5548086    2.1727193    1.6619572 
 8235000    1.0351298 -0.00026001447   0.63170812   0.02395316            0   0.60775496    1.5397555    2.1714636   -6.7036969 
 8240000    1.0917779 -0.00010578561   0.55252039  0.022441946            0   0.53007844    1.6240197    2.1765401   -1.4342755 
 8245000    1.1071329 -6.1211481e-05   0.55014033 0.0099596563            0   0.54018067    1.6468602    2.1970005   0.10764866 
 8250000    1.0595991 -2.0304767e-05   0.60922184  0.019030549            0   0.59019129    1.5761537    2.1853756    1.4923062 
 8255000    1.0271176 -1.5337888e-05   0.65265088  0.024385017            0   0.62826586    1.5278374    2.1804883    1.6569551 
 8260000    1.1125814 -8.2352675e-05   0.52607432  0.014673833            0   0.51140048    1.6549649    2.1810392  -0.62993209 
 8265000    1.1174192 9.0562296e-05   0.54457991  0.013684542            0   0.53089537    1.6621611     2.206741    5.2979341 
 8270000     1.063087 -8.15735e-05   0.62792108   0.05013305            0   0.57778803    1.5813419    2.2092629  -0.57511255 
 8275000    1.0743551 4.6106758e-05   0.61423382  0.056523183            0   0.55771064    1.5981032     2.212337    3.7861143 
 8280000    1.0953656 -3.6994446e-05   0.56902532  0.024849336            0   0.54417598    1.6293563    2.1983816   0.93563786 
 8285000     1.139144 -0.00015362465   0.51197201  0.025999623            0   0.48597238    1.6944767    2.2064488   -3.0372727 
 8290000    1.0806264 -1.5937842e-05   0.60358428  0.024011215            0   0.57957306    1.6074317     2.211016    1.6670043 
 8295000    1.0993823 -3.8756036e-05   0.55447416 0.0056961439            0   0.54877801    1.6353312    2.1898054    0.8669327 
 8300000    1.0962573 -8.0577878e-05   0.54476972  0.016447736            0   0.52832198    1.6306827    2.1754524  -0.57493914 
 8305000    1.0642113 3.2405626e-05   0.60893682  0.020985437            0   0.58795138    1.5830143    2.1919511    3.2980631 
 8310000      1.08745 3.083169e-05   0.57837414  0.025082447            0   0.55329169    1.6175819     2.195956    3.2483444 
 8315000     1.159109 2.9765621e-05   0.47406959 0.0063014163            0   0.46776818    1.7241746    2.1982442     3.214244 
 8320000    1.0934577 3.2538842e-05    0.5698959  0.021242874            0   0.54865303    1.6265184    2.1964143    3.3070734 
 8325000    1.0646863 -4.7628927e-05    0.6232523  0.062446611            0   0.56080569    1.5837209    2.2069732   0.58123914 
 8330000    1.1189553 1.3222825e-05   0.55058574  0.038278432            0   0.51230731     1.664446    2.2150317    2.6663708 
 8335000    1.1108286 5.5884151e-05   0.56298339  0.033524301            0   0.52945909    1.6523575    2.2153409    4.1228532 
 8340000    1.1391422 -8.902328e-06   0.51536166  0.022506617            0   0.49285505     1.694474    2.2098356    1.9059695 
 8345000    1.1244065 -4.6764071e-05   0.50085403  0.011032668            0   0.48982136    1.6725547    2.1734087   0.57719506 
 8350000    1.0956196 8.2817885e-05   0.53057958  0.037700924            0   0.49287865    1.6297341    2.1603137    4.9871642 
 8355000    1.0003751 7.442289e-05    0.6777392  0.083386481            0   0.59435272    1.4880579    2.1657971    4.7060984 
 8360000    1.0879195 -1.9802759e-05   0.52098671  0.024265319            0   0.49672139    1.6182802    2.1392669    1.4633327 
 8365000    1.0464858 -4.2887844e-05   0.57871193  0.054152324            0   0.52455961    1.5566476    2.1353595   0.67145442 
 8370000    1.0157694 -8.3471104e-05   0.61043065  0.067931052            0   0.54249959     1.510957    2.1213877  -0.72775934 
 8375000     1.101507 1.5138653e-05   0.48540407  0.025040186            0   0.46036388    1.6384917    2.1238958    2.6406284 
 8380000    1.1379412 6.4094653e-05   0.44933351 0.0053168195            0   0.44401669    1.6926875     2.142021    4.3297852 
 8385000    1.0327864 0.0001270322   0.59975339  0.013662693            0   0.58609069    1.5362698    2.1360232    6.4720558 
 8390000    1.1158672 0.00016555734   0.45885246  0.013818564            0    0.4450339    1.6598524    2.1187049    7.7697286 
 8395000    1.0844441 9.2812147e-05   0.50613092 0.0083092651            0   0.49782166    1.6131106    2.1192415    5.2872295 
 8400000    1.0500584 0.00013031266   0.52805304  0.021893254            0   0.50615979    1.5619619    2.0900149    6.5380203 
 8405000    1.0729005 -1.2970808e-06   0.49420474  0.025641885            0   0.46856285    1.5959395    2.0901442    2.0458706 
 8410000    1.0513696 -9.2001278e-05    0.5444393  0.037073312            0   0.50736599    1.5639122    2.1083515   -1.0319588 
 8415000    1.1029775 2.8548587e-05    0.4848246  0.014423943            0   0.47040066     1.640679    2.1255036    3.0999621 
 8420000    1.0705233 8.0940795e-05   0.52143225  0.027598227            0   0.49383402    1.5924034    2.1138357    4.8766148 
 8425000    1.0254256 -3.1351673e-05   0.56702211  0.041208956            0   0.52581315    1.5253207    2.0923428    1.0222056 
 8430000   0.97474532 -2.646383e-05    0.6263009  0.040985998            0   0.58531491    1.4499337    2.0762346    1.1729358 
 8435000   0.98639937 8.8547572e-05   0.60444096  0.041609291            0   0.56283167    1.4672691      2.07171    5.0941338 
 8440000    1.0161598 9.217923e-05   0.54172952  0.024827351            0   0.51690217    1.5115378    2.0532673    5.1996517 
 8445000   0.99868608 1.9554956e-05   0.56215942  0.036449078            0   0.52571035    1.4855455     2.047705    2.7151808 
 8450000     1.011604 -1.7695889e-05   0.52659091  0.012677404            0    0.5139135     1.504761    2.0313519    1.4273323 
 8455000    1.0519607 2.9458692e-05   0.46139856  0.018940452            0    0.4424581    1.5647915    2.0261901    3.0317134 
 8460000    1.0215343 5.015437e-05   0.50603391  0.024578509            0    0.4814554    1.5195322    2.0255661     3.737502 
 8465000   0.99723328 -5.9232073e-05    0.5239141  0.031841266            0   0.49207284    1.4833845    2.0072986 -0.014489482 
 8470000   0.97857745 -5.1972527e-05   0.52394762  0.057351354            0   0.46659626     1.455634    1.9795816     0.205586 
 8475000   0.94083777 6.7279988e-05   0.58011966  0.070292463            0    0.5098272    1.3994962    1.9796158    4.2761061 
 8480000    1.0288632 0.0001139437   0.47101363  0.037064497            0   0.43394913    1.5304341    2.0014477    5.8907259 
 8485000   0.98182058 5.2471382e-05   0.54608246   0.03256211            0   0.51352035    1.4604581    2.0065406    3.7975637 
 8490000     1.072647 3.8574635e-05   0.42661831  0.019334406            0   0.40728391    1.5955625    2.0221808    3.3388617 
 8495000   0.96107932 -9.8715009e-05   0.60439044  0.030212925            0   0.57417752    1.4296055    2.0339959   -1.3354764 
 8500000    1.0836405 -4.90331e-05   0.42687538 0.0097455705            0   0.41712981    1.6119152    2.0387906   0.36512748 
 8505000    1.0554214 1.0033801e-05   0.49117646  0.025701398            0   0.46547506    1.5699394    2.0611158    2.4036029 
 8510000     1.064392 -3.828609e-05   0.48522581  0.010795131            0   0.47443068     1.583283    2.0685089     0.761677 
 8515000    1.0615362 0.00013143017   0.47697366  0.016519643            0   0.46045402    1.5790352    2.0560088    6.5421586 
 8520000   0.98977464 0.00024934512   0.60417867  0.022332564            0   0.58184611    1.4722898    2.0764684    10.587448 
 8525000    1.0608529 1.221715e-05   0.49918717 0.0050628125            0   0.49412436    1.5780187    2.0772059    2.4942179 
 8530000    1.0482194 -0.00017155389   0.53039714  0.014215348            0   0.51618179    1.5592263    2.0896234   -3.7660825 
 8535000   0.98377963 -2.0205432e-05   0.60936194  0.044963936            0     0.564398    1.4633722    2.0727341    1.3830554 
 8540000    1.0282456 8.2824131e-05   0.52923712 0.0080569312            0   0.52118019    1.5295154    2.0587525    4.8858162 
 8545000   0.99287334 3.0642284e-05   0.57967013 0.0048425252            0   0.57482761    1.4768991    2.0565692    3.1024925 
 8550000    1.0110994 8.7841603e-06   0.56471501  0.010828803            0    0.5538862    1.5040104    2.0687254    2.3685581 
 8555000    1.0717859 -0.00010322626   0.47089149  0.016671474            0   0.45422002    1.5942815     2.065173   -1.4582834 
 8560000   0.98592153 -5.1856614e-05   0.56707519  0.032471846            0   0.53460334    1.4665583    2.0336335   0.26359437 
 8565000    1.0165487 4.752075e-05   0.53626225  0.023261065            0   0.51300119    1.5121162    2.0483784      3.67042 
 8570000    1.0047637 0.00017266035   0.56075601  0.016658519            0   0.54409749     1.494586     2.055342    7.9488152 
 8575000    1.0359671 0.00022905704      0.51924 0.0028843137            0   0.51635569     1.541001     2.060241    9.8787214 
 8580000    1.0429872 -1.1207371e-05   0.51656359 0.00019829404            0   0.51636529    1.5514435    2.0680071    1.6854621 
 8585000    1.0386826 -0.0001633984   0.55102187  0.014756113            0   0.53626576    1.5450403    2.0960622   -3.4812699 
 8590000    1.0062744 -1.6789604e-05   0.58636242  0.067802259            0   0.51856016    1.4968332    2.0831956    1.5101104 
 8595000   0.99326143 0.00011528926   0.60358236  0.018824994            0   0.58475737    1.4774764    2.0810587    6.0162655 
 8600000    1.0481944 5.5960164e-05   0.53092012  0.043442159            0   0.48747796    1.5591891    2.0901092    4.0002162 
 8605000    1.0447812 -0.00013577858   0.55044194  0.015107187            0   0.53533476    1.5541121    2.1045541   -2.5300214 
 8610000    1.0215494 -0.00018964938   0.58632997   0.01222584            0   0.57410413    1.5195547    2.1058847   -4.3674808 
 8615000    1.0614185 -4.3270314e-05   0.49499171 0.0095302702            0   0.48546144      1.57886    2.0738518   0.59689169 
 8620000    1.0217223 4.4426286e-05   0.55473158 0.0069338393            0   0.54779775    1.5198119    2.0745435    3.5909607 
 8625000    1.0453985 -1.1944244e-05    0.5130451  0.016101515            0   0.49694359    1.5550303    2.0680754    1.6603785 
 8630000    1.0640656 -6.702645e-05   0.47675675  0.021926833            0   0.45482991    1.5827976    2.0595544  -0.22828181 
 8635000   0.96541178  5.64777e-06   0.63375338   0.03262503            0   0.60112835      1.43605    2.0698034    2.2625806 
 8640000      1.03291 -9.8994746e-05   0.52601454  0.063304907            0   0.46270964    1.5364536    2.0624681   -1.3165526 
 8645000    1.0427929 -0.00012342261   0.51332099  0.025422813            0   0.48789817    1.5511544    2.0644754   -2.1483497 
 8650000    1.0011722 -9.3143385e-06   0.57998179   0.00979109            0    0.5701907    1.4892437    2.0692255    1.7512961 
 8655000    1.0455823 -8.2857647e-05   0.53222614  0.026296973            0   0.50592916    1.5553037    2.0875298   -0.7406779 
 8660000    1.0739721 -4.8316327e-05   0.48883641 0.0054391929            0   0.48339722    1.5975335      2.08637   0.43717267 
 8665000     1.057402 -6.6444856e-05   0.51393989  0.025776961            0   0.48816293    1.5728855    2.0868254  -0.18115897 
 8670000   0.98800334 -5.170733e-06   0.60405907  0.029359395            0   0.57469967     1.469655     2.073714    1.8972197 
 8675000    1.1054009 5.5788948e-05   0.43360283  0.016455476            0   0.41714735    1.6442838    2.0778866    3.9821494 
 8680000    1.0613155 5.8713677e-05   0.49012936  0.021585647            0   0.46854372    1.5787069    2.0688362    4.0729298 
 8685000   0.96549273 0.00010896353   0.62695405  0.036034188            0   0.59091987    1.4361704    2.0631245     5.782413 
 8690000    1.0055327 -5.3522046e-05   0.56496115  0.034118797            0   0.53084235      1.49573    2.0606911   0.23380529 
 8695000    1.0677717 1.9277994e-05   0.46268427  0.018816333            0   0.44386794    1.5883104    2.0509946    2.7090168 
 8700000   0.98934039 -6.4055802e-05   0.55337031  0.012286904            0    0.5410834    1.4716438    2.0250141  -0.16142389 
 8705000    1.0055206 -9.5687842e-05   0.53754063  0.017139853            0   0.52040077    1.4957119    2.0332525   -1.2328925 
 8710000   0.99799667 4.6418533e-05   0.54570319  0.013373753            0   0.53232943    1.4845201    2.0302232    3.6146425 
 8715000   0.97789624 2.2837758e-05   0.58120369  0.029828158            0   0.55137553    1.4546207    2.0358243    2.8153531 
 8720000    1.0070788 -3.3852581e-05   0.53899322  0.029335172            0   0.50965804    1.4980298     2.037023   0.88152155 
 8725000    1.0002688 -8.0804714e-08   0.54964726  0.028215736            0   0.52143152    1.4878998    2.0375471     2.034789 
 8730000    0.9841571 -4.2165626e-05   0.56366783  0.033374053            0   0.53029377    1.4639337    2.0276015   0.58834812 
 8735000    1.0477625 -5.6777632e-05    0.4606675   0.02787523            0   0.43279227    1.5585467    2.0192142  0.081204375 
 8740000    1.0102017 -6.5440979e-05   0.53161491  0.053793732            0   0.47782118     1.502675      2.03429   -0.1994288 
 8745000   0.94570903 -0.00017615014   0.62202419  0.023285019            0   0.59873917    1.4067422    2.0287664   -3.9838252 
 8750000    1.0010571 -9.4514346e-05   0.51709507   0.01523507            0      0.50186    1.4890724    2.0061675   -1.2199222 
 8755000     1.005527 -5.8818183e-07   0.54190216  0.040887259            0    0.5010149    1.4957214    2.0376235    2.0175469 
 8760000     1.010034 7.6509333e-05   0.52266046  0.020563901            0   0.50209656    1.5024255     2.025086    4.6366046 
 8765000   0.99367388 0.00018230529   0.53498838   0.01908644            0   0.51590194    1.4780899    2.0130783    8.2357656 
 8770000    1.0650157 0.0001014956   0.44673927  0.013696639            0   0.43304263    1.5842109    2.0309501    5.4953332 
 8775000    1.0297495 -0.00013952921   0.51586275   0.01506046            0   0.50080229    1.5317523    2.0476151   -2.7149818 
 8780000    1.0533918 -0.00011889879   0.47085987  0.024596796            0   0.44626307    1.5669203    2.0377802   -2.0206318 
 8785000    1.0211098 1.8687926e-05   0.51457566  0.037372157            0   0.47720351    1.5189009    2.0334765    2.6713577 
 8790000    1.0254772 5.8935775e-05   0.49007907    0.0552567            0   0.43482237    1.5253973    2.0154764    4.0271508 
 8795000   0.98486533 7.7187951e-05   0.53438138  0.014014173            0   0.52036721    1.4649872    1.9993686    4.6340506 
 8800000       1.0694 -2.1475476e-05   0.41241806 0.0032483053            0   0.40916976    1.5907325    2.0031506     1.270121 
 8805000   0.99075246 -5.3301893e-05   0.51819155  0.014350574            0   0.50384098    1.4737443    1.9919358   0.17256454 
 8810000    1.0504512 3.8228038e-05   0.42679765  0.037843073            0   0.38895458    1.5625462    1.9893438    3.2941942 
 8815000   0.98111665 6.4582098e-05   0.52485096  0.022022739            0   0.50282822     1.459411     1.984262    4.1886642 
 8820000    1.0189183 -6.2728335e-05   0.48505871   0.02619851            0    0.4588602    1.5156409    2.0006996  -0.14042755 
 8825000   0.99756488 -0.00017050063   0.52141661  0.041234978            0   0.48018163    1.4838778    2.0052944   -3.8144603 
 8830000   0.98659583 -9.2203187e-05    0.5248926  0.010966084            0   0.51392652    1.4675613    1.9924539   -1.1547482 
 8835000   0.97389257 2.1594723e-05   0.56304053  0.035903251            0   0.52713728    1.4486652    2.0117057    2.7488056 
 8840000    1.0188559 3.9091104e-05   0.50108695  0.022201299            0   0.47888565    1.5155481    2.0166351    3.3509447 
 8845000    1.0029082 -6.6888905e-05   0.52951227  0.011931608            0   0.51758066    1.4918259    2.0213382  -0.26180311 
 8850000    1.0328951 -9.2342533e-05   0.47493532  0.019227458            0   0.45570786    1.5364315    2.0113668   -1.1405916 
 8855000    1.0780059  5.57492e-05   0.42312327  0.016675752            0   0.40644752    1.6035338     2.026657    3.9295631 
 8860000   0.99862248 9.499837e-05   0.53901941  0.010360152            0   0.52865926    1.4854509    2.0244703    5.2670814 
 8865000   0.99739988 5.1762073e-07   0.55956105 0.0093291814            0   0.55023187    1.4836323    2.0431934    2.0608615 
 8870000    1.0279398 -4.5638048e-05   0.48577416  0.010510148            0   0.47526401    1.5290605    2.0148346   0.45705593 
 8875000    1.0537062 -5.0983429e-05   0.45790623  0.026044366            0   0.43186186     1.567388    2.0252942   0.28505981 
 8880000    1.0015854 2.0452763e-05   0.51175923  0.046060383            0   0.46569885    1.4898582    2.0016175    2.6997384 
 8885000   0.99016634 -3.1107246e-05   0.55532071  0.021068323            0   0.53425239    1.4728724    2.0281931   0.96639913 
 8890000    1.0290315 -9.4926167e-05   0.53106332  0.023382955            0   0.50768037    1.5306843    2.0617477   -1.1783989 
 8895000   0.99543632 -0.00020640042   0.58967412 0.0081622858            0   0.58151184    1.4807115    2.0703856   -4.9747487 
 8900000    1.0515088 -0.00018070127   0.49563803 0.0068586475            0   0.48877938    1.5641193    2.0597574   -4.1081794 
 8905000    1.0353974 0.00012276385   0.51748922  0.003538338            0   0.51395088    1.5401536    2.0576428    6.2479821 
 8910000    1.0114897 0.00016969883   0.51948338 0.0087471761            0   0.51073621    1.5045909    2.0240743    7.8164611 
 8915000    1.0451227 -0.00016861657   0.43168949  0.013003981            0   0.41868551    1.5546199    1.9863094   -3.7691361 
 8920000    1.0176158 -0.00010800542   0.47405603 0.0052343451            0   0.46882169    1.5137035    1.9877596   -1.6988253 
 8925000   0.95341286 5.0444303e-05   0.54705539  0.012486405            0   0.53456898    1.4182016     1.965257    3.6870892 
 8930000    1.0286632 -1.7117237e-05   0.44840049   0.01304241            0   0.43535808    1.5301365     1.978537    1.3942687 
 8935000    1.0062971 -3.1313732e-05   0.46177796 0.0027209558            0   0.45905701    1.4968669    1.9586449   0.88980287 
 8940000   0.95849577 -6.9337383e-05    0.5180346 0.0021222197            0   0.51591238    1.4257625    1.9437971  -0.42291894 
 8945000    1.0057628 -1.7664206e-06   0.42159841  0.019032815            0    0.4025656    1.4960721    1.9176706    1.8573767 
 8950000   0.98753137 2.2618139e-05   0.45961283   0.04370918            0   0.41590365    1.4689529    1.9285657    2.7005982 
 8955000   0.93061601 -2.6515255e-05   0.55549956  0.032142152            0   0.52335741    1.3842913    1.9397909    1.0347368 
 8960000    1.0174175 0.00012042266   0.42717466 0.0099661363            0   0.41720852    1.5134086    1.9405832    6.0510099 
 8965000    1.0184068 0.00013918341   0.41099403 0.0029104237            0   0.40808361    1.5148802    1.9258742     6.676668 
 8970000    1.0004743 -2.5070492e-05   0.45477682 0.0017736446            0   0.45300317    1.4882056    1.9429824    1.0872429 
 8975000   0.94009348 2.1951386e-05   0.53400899  0.020899192            0    0.5131098    1.3983891     1.932398     2.681672 
 8980000   0.94201855 6.1800824e-05   0.53338041  0.054467541            0   0.47891287    1.4012526     1.934633    4.0441011 
 8985000    0.9855019 -6.7028796e-05   0.46810869  0.023868827            0   0.44423987    1.4659341    1.9340428  -0.35387347 
 8990000   0.98402753 4.3281894e-06   0.47075286 0.0076174096            0   0.46313545     1.463741    1.9344938    2.0822293 
 8995000   0.98508119 4.2315855e-05   0.46271125  0.014103587            0   0.44860766    1.4653083    1.9280195    3.3724007 
 9000000    1.0010694 -3.3506943e-05   0.47172953 0.0088013075            0   0.46292823    1.4890908    1.9608203   0.81711662 
 9005000   0.99090321 -6.000815e-05   0.50825357  0.012864667            0   0.49538891    1.4739685    1.9822221 -0.066056085 
 9010000   0.99636571 -5.2196996e-05   0.49977017  0.010896585            0   0.48887358     1.482094    1.9818642   0.20020668 
 9015000    1.0105678 7.5440434e-07   0.48885113  0.011627835            0   0.47722329    1.5032196    1.9920707    2.0178211 
 9020000     0.980905 -3.6456719e-06   0.53227804   0.01337643            0   0.51890161    1.4590962    1.9913742    1.8669353 
 9025000   0.96625574 -4.1302031e-05   0.54500446  0.028766384            0   0.51623807    1.4373054    1.9823099   0.57253386 
 9030000   0.94589204 8.3516733e-05   0.58035922  0.023327983            0   0.55703123    1.4070144    1.9873736    4.8380781 
 9035000    1.0314117 0.00017767709   0.42527196  0.023430326            0   0.40184164     1.534225    1.9594969    8.0242082 
 9040000   0.95099805 3.0051355e-05   0.54097653 0.0078702982            0   0.53310623    1.4146096    1.9555861     2.981339 
 9045000   0.97733369 -9.6761665e-05   0.48464834  0.015799273            0   0.46884907    1.4537839    1.9384322   -1.3643659 
 9050000   0.92718878 -8.119046e-05   0.54323105  0.017274539            0   0.52595651    1.3791933    1.9224244  -0.84887667 
 9055000   0.94090405 -8.6857813e-05   0.51213317  0.017227933            0   0.49490523    1.3995948    1.9117279   -1.0530188 
 9060000   0.89955239 -1.1580419e-05   0.60022209  0.022266171            0   0.57795592    1.3380842    1.9383063     1.543028 
 9065000   0.97674791 -4.1123623e-05   0.48732535  0.024931685            0   0.46239367    1.4529125    1.9402379   0.53655155 
 9070000   0.92584607 -0.00010568828   0.55000351  0.013889693            0   0.53611382     1.377196    1.9271995   -1.6802939 
 9075000    1.0005128 -8.8887629e-05   0.45210662  0.016942497            0   0.43516412    1.4882628    1.9403694   -1.0936617 
 9080000    1.0003418 -5.1100767e-05   0.46667728 0.0038183029            0   0.46285898    1.4880085    1.9546857   0.21044623 
 9085000   0.99899073 1.6058219e-05   0.47110487    0.0117481            0   0.45935677    1.4859987    1.9571036    2.5052241 
 9090000   0.95603255 -5.9076286e-05    0.5265059  0.045096347            0   0.48140955    1.4220984    1.9486043 -0.067866246 
 9095000   0.97156599 -6.4882995e-05    0.4848885  0.029782878            0   0.45510562    1.4452044    1.9300929  -0.28457997 
 9100000   0.94957391 4.1572656e-05   0.52511585   0.02453002            0   0.50058583    1.4124912     1.937607    3.3566204 
 9105000   0.94866017 -3.9921895e-06   0.52403572  0.014817101            0   0.50921862     1.411132    1.9351677     1.798901 
 9110000   0.98457195 1.3100294e-05   0.46454404  0.020083425            0   0.44446062    1.4645508    1.9290948    2.3762515 
 9115000   0.92823506 0.00019761011   0.56140186  0.020582861            0     0.540819    1.3807496    1.9421515    8.6872431 
 9120000   0.97016896 0.00017380552   0.50327175  0.020634471            0   0.48263728    1.4431263    1.9463981    7.8789599 
 9125000   0.93922921 2.7788535e-05   0.51293528  0.014115344            0   0.49881994    1.3971035    1.9100387    2.8585541 
 9130000   0.93841926 3.4190151e-05   0.49550293  0.027866301            0   0.46763663    1.3958987    1.8914016    3.0584254 
 9135000   0.93397785 8.2940137e-05   0.50681962  0.016712855            0   0.49010676    1.3892921    1.8961117     4.727135 
 9140000   0.88652995 8.3665975e-05   0.54603195  0.014263761            0   0.53176819    1.3187133    1.8647453    4.7205439 
 9145000   0.93619996 -1.106331e-05   0.47642009     0.010754            0   0.46566609    1.3925974    1.8690175    1.4913899 
 9150000   0.90800259 -0.00011824704   0.54208602  0.020064467            0   0.52202155    1.3506538    1.8927399   -2.1434258 
 9155000   0.91382561 8.3699681e-06    0.5455893  0.046443178            0   0.49914612    1.3593156    1.9049049    2.1905998 
 9160000   0.88386124 8.4184623e-05   0.58139683  0.045688645            0   0.53570819    1.3147436    1.8961404    4.7696422 
 9165000   0.92280125 4.8482407e-05   0.52182556  0.030227114            0   0.49159845    1.3726669    1.8944924    3.5493586 
 9170000   0.92804123 -6.2531554e-05    0.5033325  0.040510383            0   0.46282212    1.3804613    1.8837938  -0.25061655 
 9175000   0.91754219 -8.0043609e-05    0.4984217  0.032230088            0   0.46619161     1.364844    1.8632657  -0.86888948 
 9180000   0.88230981 0.00012872749   0.54795275  0.034873445            0    0.5130793    1.3124358    1.8603886    6.2542868 
 9185000   0.89408702 -4.5864233e-05   0.53109658  0.046448835            0   0.48464774    1.3299544     1.861051   0.29555187 
 9190000   0.92465642 -0.00014304318   0.46316562  0.014226767            0   0.44893886    1.3754264    1.8385921   -3.0439483 
 9195000   0.85183577 -7.6892902e-05   0.57161945   0.03033164            0   0.54128781    1.2671057    1.8387252  -0.78588591 
 9200000    0.9223542 -0.00014900569   0.44776587    0.0355005            0   0.41226537    1.3720019    1.8197677   -3.2662931 
 9205000   0.94200146 9.4144567e-05    0.4185038  0.030926525            0   0.38757728    1.4012272     1.819731    5.0331989 
 9210000   0.91752621 0.00016481999   0.47108557  0.052033799            0   0.41905177    1.3648202    1.8359058    7.4617616 
 9215000   0.89487751 -5.9819126e-05   0.49922664  0.022377237            0    0.4768494    1.3311303    1.8303569  -0.21146926 
 9220000   0.90145903 7.1615313e-05   0.49721073  0.016399095            0   0.48081164    1.3409203     1.838131    4.2826004 
 9225000    0.9067314 4.0518447e-05   0.45366574   0.02680418            0   0.42686156     1.348763    1.8024287    3.1854583 
 9230000     0.891954 -4.7995289e-05   0.47354499  0.046003364            0   0.42754163    1.3267816    1.8003266   0.16208735 
 9235000   0.87013783 -5.5723346e-05   0.49231453  0.049540447            0   0.44277409      1.29433    1.7866446  -0.11537899 
 9240000   0.86069762 1.002268e-07   0.50636738  0.039076297            0   0.46729109    1.2802877    1.7866551    1.7900762 
 9245000   0.82728221 0.0001412138   0.54981055 0.0066095318            0   0.54320102    1.2305823    1.7803928    6.6004906 
 9250000    0.8723694 5.3449796e-05    0.4726614  0.015127333            0   0.45753407    1.2976495    1.7703109    3.5947306 
 9255000   0.83513299 8.613541e-05   0.50414644  0.021453401            0   0.48269304    1.2422603    1.7464068    4.6864954 
 9260000    0.8294477 3.2519081e-05   0.49484279 0.0050410301            0   0.48980176    1.2338034    1.7286462    2.8386309 
 9265000   0.81390436 8.0514994e-05   0.53579595  0.022193945            0   0.51360201    1.2106827    1.7464787    4.4947238 
 9270000   0.94894969 -5.778764e-05   0.32209123 0.0024240446            0   0.31966719    1.4115627    1.7336539  -0.23883086 
 9275000   0.84659438 9.5815194e-06   0.46209691  0.010507053            0   0.45158985    1.2593091    1.7214061    2.0484552 
 9280000   0.91304117 4.5223375e-05   0.37803565  0.013816077            0   0.36421958    1.3581487    1.7361844    3.2798089 
 9285000   0.84198871 -5.5913049e-05   0.46203655  0.010704999            0   0.45133155    1.2524582    1.7144948    -0.194004 
 9290000   0.83629231 5.0582996e-05   0.47503353 0.0058542753            0   0.46917925    1.2439848    1.7190183    3.4455846 
 9295000   0.88271194 8.0695877e-06   0.43558928   0.01165132            0   0.42393796     1.313034    1.7486233    2.0240652 
 9300000   0.88279596 8.1580062e-05     0.410124  0.015912386            0   0.39421161     1.313159     1.723283    4.5078824 
 9305000   0.83486243 2.4469482e-06    0.4533355  0.036781857            0   0.41655365    1.2418579    1.6951934    1.7787159 
 9310000   0.83277233 -7.1118108e-05   0.46368844  0.026478053            0   0.43721038    1.2387488    1.7024373  -0.72506081 
 9315000   0.83866118 -3.6740492e-05   0.44695408 0.0044891758            0   0.44246491    1.2475085    1.6944626   0.44038713 
 9320000   0.83063755 -0.00015424293    0.4448991 0.0033611833            0   0.44153792    1.2355734    1.6804725   -3.5843528 
 9325000   0.88460693  2.94353e-05   0.37653961 0.0046737824            0   0.37186583    1.3158528    1.6923924    2.6971173 
 9330000   0.80907664 0.00012558051   0.49296541  0.018566167            0   0.47439924    1.2035015    1.6964669    5.9829483 
 9335000   0.80253663 -0.00016325739   0.50566196  0.035706694            0   0.46995526    1.1937732    1.6994352   -3.8730839 
 9340000   0.85739189 -1.6535458e-05   0.41823451  0.043089442            0   0.37514507    1.2753704     1.693605    1.1291947 
 9345000   0.80717861 4.4806525e-05   0.48446064   0.03668078            0   0.44777986    1.2006782    1.6851388    3.2145349 
 9350000   0.83160833 4.3838345e-05   0.42765691  0.020077596            0   0.40757932    1.2370174    1.6646743    3.1610232 
 9355000   0.87478358 -1.9799451e-05   0.37948194  0.014199616            0   0.36528232    1.3012406    1.6807225    1.0049013 
 9360000    0.8426872 -7.1108217e-05   0.44587681 0.0078365601            0   0.43804025    1.2534972     1.699374  -0.72778645 
 9365000   0.84915239 1.3713702e-05   0.41199775 0.0073250301            0   0.40467272    1.2631142    1.6751119    2.1432063 
 9370000   0.80214389 2.176888e-05   0.47942778  0.020575215            0   0.45885256     1.193189    1.6726168    2.4156612 
 9375000   0.78789457 3.3000019e-05   0.48430415  0.049451498            0   0.43485265    1.1719932    1.6562973     2.782698 
 9380000   0.78890247 -9.3607158e-05    0.5109973  0.041218174            0   0.46977912    1.1734924    1.6844897   -1.5106346 
 9385000   0.82758587 7.9292338e-05   0.45421512  0.031239009            0   0.42297611     1.231034    1.6852491    4.3917609 
 9390000   0.86702456 -6.7141125e-05   0.40618085  0.020375326            0   0.38580552     1.289699    1.6958799  -0.59587053 
 9395000   0.84513404 5.2756454e-06    0.4301655  0.030399708            0   0.39976579    1.2571369    1.6873024    1.8673778 
 9400000   0.84626033 -3.0710925e-05   0.42974453  0.010279098            0   0.41946544    1.2588122    1.6885568   0.64029053 
 9405000   0.86036091 7.1747299e-05    0.4179139  0.014545917            0   0.40336799    1.2797869    1.6977008    4.1466752 
 9410000   0.82093701 3.1727747e-05   0.46408776  0.020089398            0   0.44399837    1.2211438    1.6852316    2.7682053 
 9415000   0.85383668 -2.8460762e-05   0.41389536  0.016734153            0   0.39716121    1.2700821    1.6839774   0.71251675 
 9420000   0.79473359 9.467389e-05   0.47632201  0.013347976            0   0.46297403    1.1821662    1.6584882    4.8900237 
 9425000   0.82998477 -0.00010319981   0.43315518 0.0058887049            0   0.42726648    1.2346023    1.6677575    -1.854796 
 9430000   0.87140054 2.2883656e-05   0.37437609 0.0061850389            0   0.36819105    1.2962083    1.6705844    2.4516799 
 9435000   0.80849837 -4.2810902e-05   0.47517504  0.014213726            0   0.46096132    1.2026413    1.6778164   0.21653757 
 9440000   0.85253057 -0.00011365933     0.408027  0.035628093            0   0.37239891    1.2681392    1.6761662   -2.2034055 
 9445000   0.78479277 4.7177478e-05   0.48976788  0.063299644            0   0.42646824    1.1673792    1.6571471    3.2674717 
 9450000    0.7630135 -1.6446178e-05   0.53438357  0.067548492            0   0.46683508    1.1349826    1.6693662    1.1080033 
 9455000   0.83389924 -3.2443797e-06   0.42682417  0.016605654            0   0.41021851    1.2404251    1.6672493    1.5565078 
 9460000    0.8094402 3.9640036e-05   0.46380337  0.049418913            0   0.41438446    1.2040423    1.6678457    3.0208922 
 9465000   0.80427726 3.0252942e-05   0.46985868  0.025475876            0   0.44438281    1.1963624    1.6662211    2.6988549 
 9470000   0.80937122 0.00011915056   0.47129337  0.019625818            0   0.45166755    1.2039397    1.6752331    5.7422389 
 9475000   0.85256156 8.0068376e-05   0.39632482  0.013269281            0   0.38305554    1.2681853    1.6645101    4.3975107 
 9480000   0.81084418 -6.8432289e-05   0.44290113  0.020717416            0   0.42218371    1.2061307    1.6490319  -0.68679027 
 9485000   0.80980548 -0.00010607661   0.47132408  0.020442154            0   0.45088193    1.2045856    1.6759097   -1.9448387 
 9490000   0.80872756 -4.6280749e-05   0.46429429 0.0094455637            0   0.45484872    1.2029822    1.6672765  0.087560299 
 9495000   0.81317294 -5.2864312e-05   0.44386164  0.018992413            0   0.42486922    1.2095948    1.6534564   -0.1509788 
 9500000   0.77053614 -5.6204638e-05   0.52378056  0.024166312            0   0.49961425    1.1461725    1.6699531  -0.24849857 
 9505000    0.7981328 5.3563451e-05    0.4884256  0.030279954            0   0.45814565    1.1872225    1.6756481    3.5039473 
 9510000   0.84484805 -5.5262666e-05   0.42717671  0.014304394            0   0.41287231    1.2567115    1.6838882   -0.2024108 
 9515000   0.80304813 -0.0001420812   0.50439294  0.020350422            0   0.48404252    1.1945341     1.698927   -3.1507778 
 9520000   0.86150721 2.8803897e-05   0.43476996  0.023462882            0   0.41130708     1.281492    1.7162619    2.6994349 
 9525000   0.87295198 1.5051593e-05   0.40777109 0.0046373557            0   0.40313374    1.2985161    1.7062872    2.2200482 
 9530000   0.84918032 -0.00014085903   0.45780722  0.004805773            0   0.45300145    1.2631557    1.7209629   -3.0870254 
 9535000   0.83653182 -0.0001114995   0.47968439 0.0076929136            0   0.47199148    1.2443411    1.7240255   -2.0818242 
 9540000   0.86438652 4.1957678e-05   0.43924872  0.035057421            0    0.4041913     1.285775    1.7250237    3.1571791 
 9545000   0.88150573 5.0668925e-05   0.41759485   0.04135032            0   0.37624453    1.3112398    1.7288346    3.4583339 
 9550000    0.8214878 2.7206017e-05   0.51609903  0.025031004            0   0.49106803    1.2219631    1.7380621    2.6666942 
 9555000   0.91242767 8.8953464e-05   0.41554214 0.0095795447            0   0.40596259    1.3572362    1.7727783    4.8090565 
 9560000   0.88445625 0.00016371287   0.47800863  0.013291791            0   0.46471684    1.3156287    1.7936373    7.3817033 
 9565000    0.9467539 -7.5110788e-05   0.40240016  0.021012386            0   0.38138777    1.4082964    1.8106966  -0.75308498 
 9570000   0.84948886 -0.00022020086    0.5473622  0.015338255            0   0.53202394    1.2636147    1.8109769   -5.7052126 
 9575000   0.92568762 7.2891412e-05   0.45943804  0.028359317            0   0.43107872    1.3769603    1.8363984    4.3244252 
 9580000   0.90888899 4.4398995e-05   0.47853626  0.022113382            0   0.45642288    1.3519724    1.8305086    3.3459943 
 9585000   0.91212558 -1.1467506e-06   0.45999603 0.0051381882            0   0.45485784    1.3567868    1.8167828    1.7776404 
 9590000   0.87000885 -0.00011543436   0.53334002 0.0050891619            0   0.52825085    1.2941382    1.8274782   -2.1126813 
 9595000   0.95648377 4.3637585e-05   0.38196183  0.019415679            0   0.36254615    1.4227696    1.8047314    3.2942277 
 9600000   0.91166037 -9.0813179e-07   0.43810296  0.012945642            0   0.42515732    1.3560948    1.7941978    1.7632002 
 9605000    0.8886775 -3.3533006e-05   0.48540392 0.0033707457            0   0.48203318    1.3219078    1.8073117   0.66271844 
 9610000   0.91727103 0.00016471083   0.43858585 0.0040468947            0   0.43453895    1.3644407    1.8030265    7.4251561 
 9615000   0.88578246 -0.00010802262   0.50010708  0.013351388            0   0.48675569    1.3176014    1.8177085   -1.8694636 
 9620000   0.85226284 -7.4128027e-05   0.55838072  0.025724798            0   0.53265593     1.267741    1.8261217  -0.70411496 
 9625000   0.94639244 -4.5360731e-05   0.43111019  0.013764839            0   0.41734535    1.4077587    1.8388689   0.29055599 
 9630000   0.89774368 6.4804552e-06    0.5162522   0.02131251            0   0.49493969    1.3353937    1.8516459    2.0728455 
 9635000   0.95566181 7.0016985e-05   0.41053536   0.02469732            0   0.38583804    1.4215469    1.8320823    4.2219954 
 9640000   0.93123825 5.2327126e-05   0.48089822  0.015768315            0    0.4651299    1.3852169    1.8661151    3.6522143 
 9645000   0.94315267 2.1052436e-05   0.44840541 0.0068620211            0   0.44154339    1.4029396     1.851345    2.5699348 
 9650000   0.87482453 -7.77927e-07    0.5553666  0.018476945            0   0.53688965    1.3013015    1.8566681    1.8301148 
 9655000   0.89096226 -1.0961301e-06   0.52399635  0.007227745            0    0.5167686    1.3253064    1.8493027    1.8118881 
 9660000   0.96521401 3.9069535e-05   0.41223524  0.017765218            0   0.39447002    1.4357558    1.8479911    3.1815646 
 9665000   0.86349937 -4.0523645e-05   0.55880388  0.029829862            0   0.52897401    1.2844553    1.8432592   0.46005211 
 9670000   0.91931898 4.0556855e-05   0.45162663 0.0081450299            0    0.4434816     1.367487    1.8191136    3.2034543 
 9675000   0.91315157 -2.9255067e-05   0.47311883   0.01959026            0   0.45352857     1.358313    1.8314318   0.83285883 
 9680000   0.89073625 -9.0806802e-05   0.50556019  0.030200421            0   0.47535977    1.3249702    1.8305304   -1.2690085 
 9685000   0.89297955 -4.2898377e-05   0.48475326   0.02179693            0   0.46295633    1.3283071    1.8130603   0.34879575 
 9690000   0.88683885 -5.3300884e-05    0.5020158  0.012972523            0   0.48904328    1.3191728    1.8211886 0.0018517605 
 9695000   0.88952402 2.5221578e-05   0.50150613  0.014512414            0   0.48699371     1.323167    1.8246731    2.6855696 
 9700000   0.90483421 7.1149097e-05   0.49104424 0.0081748602            0   0.48286938    1.3459409    1.8369851     4.265541 
 9705000   0.93247988 -7.1253853e-05   0.43957086 0.0087619145            0   0.43080894    1.3870638    1.8266347  -0.60549683 
 9710000   0.88992406 -0.00010994897   0.52034292  0.012008372            0   0.50833455     1.323762     1.844105   -1.9088199 
 9715000   0.94596661 -2.8251234e-05   0.42721437  0.024275281            0   0.40293909    1.4071253    1.8343397   0.87003092 
 9720000   0.90567982 7.9427088e-05   0.49592252  0.025807678            0   0.47011485    1.3471987    1.8431213    4.5542325 
 9725000   0.86056607 0.00010752688   0.57999599  0.017794959            0   0.56220103     1.280092     1.860088    5.5303389 
 9730000   0.92905684 8.3004082e-05   0.46505032  0.017824407            0   0.44722591     1.381972    1.8470224    4.6802284 
 9735000   0.92362056 1.6949034e-05    0.4521034   0.02180657            0   0.43029683    1.3738856     1.825989     2.404516 
 9740000   0.87511893 -1.8713596e-05   0.52697968  0.013255543            0   0.51372414    1.3017394    1.8287191    1.1899617 
 9745000   0.87472568 9.4845014e-05   0.53250401  0.048049429            0   0.48445458    1.3011545    1.8336585    5.0710349 
 9750000   0.80328703 7.4060396e-05   0.61135057  0.045992538            0   0.56535803    1.1948895      1.80624    4.3341682 
 9755000   0.95782982 -2.8952232e-05   0.40804693 0.0060728259            0   0.40197411    1.4247719    1.8328188   0.84458262 
 9760000   0.89011512 -6.4850926e-06   0.52759666  0.003397188            0   0.52419947    1.3240462    1.8516429    1.6302851 
 9765000   0.91592792 -8.3060304e-05   0.50080632  0.013019142            0   0.48778718    1.3624428    1.8632491  -0.97187595 
 9770000   0.87991745 -0.00013574314   0.53412306  0.031225706            0   0.50289735    1.3088772    1.8430003   -2.7903656 
 9775000   0.91341379 3.965838e-05   0.46997702  0.015081094            0   0.45489593     1.358703      1.82868    3.1823528 
 9780000   0.92330672 8.0971466e-05    0.4503985   0.01411517            0   0.43628333    1.3734188    1.8238173    4.5876433 
 9785000   0.93555277 -6.8168139e-05    0.4268961  0.011333017            0   0.41556309    1.3916347    1.8185308  -0.50827496 
 9790000   0.91811111 -0.00014068766   0.43935678  0.006187933            0   0.43316885    1.3656903    1.8050471   -2.9970917 
 9795000   0.92194691 -7.1491651e-06   0.40653611 0.0045841591            0   0.40195195     1.371396    1.7779321    1.5339073 
 9800000    0.8564691 6.8293054e-05   0.49060589 0.0044882717            0   0.48611762    1.2739978    1.7646037    4.0956732 
 9805000   0.80966914 -7.7375987e-05   0.55355215  0.012232241            0   0.54131991    1.2043829     1.757935  -0.88316535 
 9810000   0.90557772 2.3036385e-05   0.41710023 0.0077610378            0   0.40933919    1.3470469    1.7641471    2.5504557 
 9815000   0.86572557 6.4781858e-05    0.4815184 0.0029086112            0   0.47860979    1.2877668    1.7692852    3.9805059 
 9820000   0.85128346 -4.5824146e-05   0.49231295 0.0039748722            0   0.48833808    1.2662841    1.7585971   0.19446625 
 9825000   0.86852615 0.00013824066   0.46833955 0.0085766619            0   0.45976289    1.2919327    1.7602722    6.4788866 
 9830000   0.89849538 -3.5959543e-05   0.44996601  0.015580974            0   0.43438504    1.3365119    1.7864779   0.55905882 
 9835000   0.94301388 -0.00016968292   0.39150551  0.019632205            0    0.3718733    1.4027331    1.7942387    -3.997605 
 9840000    0.9389458 -0.00010856814   0.39610923  0.016489368            0   0.37961987    1.3966819    1.7927911   -1.9130012 
 9845000   0.92359503 6.7773473e-05   0.42603897  0.018430566            0    0.4076084    1.3738476    1.7998866    4.1132211 
 9850000   0.92375312 0.00018659673   0.46636767  0.010150494            0   0.45621717    1.3740828    1.8404504    8.2096188 
 9855000   0.94951912 9.8151651e-06   0.41669691 0.0055095269            0   0.41118738    1.4124097    1.8291066    2.1641309 
 9860000   0.95450152 2.1974455e-05   0.41615679  0.012497975            0   0.40365881     1.419821    1.8359778    2.5860392 
 9865000   0.87468191 -3.1781171e-05    0.5528345  0.029748196            0    0.5230863    1.3010893    1.8539238   0.76912655 
 9870000   0.95851943 -3.5633652e-05   0.43199819  0.019859395            0   0.41213879    1.4257977    1.8577958   0.64150053 
 9875000   0.92479379 -1.9308416e-05   0.47375015 0.0038015182            0   0.46994863    1.3756308    1.8493809    1.1903203 
 9880000    0.9272435 0.0001250671   0.47831374  0.021963707            0   0.45635003    1.3792747    1.8575884    6.1265454 
 9885000   0.96857611 5.7485098e-05   0.41892483  0.057329075            0   0.36159576     1.440757    1.8596818    3.8218398 
 9890000    0.9059924 -0.00016021373    0.5213996   0.01680846            0   0.50459114    1.3476637    1.8690633   -3.5995653 
 9895000   0.94557969 -4.793742e-05   0.47683661 0.0058605731            0   0.47097604    1.4065498    1.8833864   0.24712247 
 9900000   0.96167039 9.3144025e-06   0.44419392  0.007978773            0   0.43621515    1.4304847    1.8746786    2.1926102 
 9905000   0.93441655 6.0358804e-05   0.45637129  0.023421234            0   0.43295005    1.3899446    1.8463159    3.9065631 
 9910000    0.9265443 0.00012888283    0.4253292  0.054991423            0   0.37033778    1.3782346    1.8035638    6.2027645 
 9915000   0.92247733 -1.9146952e-05   0.44999765  0.036397645            0       0.4136     1.372185    1.8221827    1.1686334 
 9920000   0.93341985 -6.8732347e-05   0.43543259  0.016524293            0    0.4189083     1.388462    1.8238946  -0.52216951 
 9925000   0.94805348 -6.5998707e-05   0.41018966  0.015788011            0   0.39440165    1.4102295    1.8204192  -0.43233667 
 9930000   0.89373252 1.5724089e-05    0.4767801 0.0091249216            0   0.46765518    1.3294271    1.8062072    2.3429228 
 9935000    0.9594343 0.00010129953   0.38411999  0.033719597            0    0.3504004    1.4271585    1.8112785    5.2689691 
 9940000   0.88835723 4.8977163e-05   0.49994318  0.023860275            0    0.4760829    1.3214314    1.8213746    3.4931284 
 9945000    0.9115564 -7.7524619e-07   0.47240194  0.017449857            0   0.45495209    1.3559401    1.8283421    1.8018804 
 9950000   0.92314628 5.9585909e-05   0.44909639 0.0018151236            0   0.44728127    1.3731801    1.8222765    3.8561422 
 9955000   0.92885484 9.7107362e-06   0.45228985 0.0094158348            0   0.44287402    1.3816716    1.8339614    2.1654212 
 9960000   0.90928699 0.00015415842   0.46145599  0.010498502            0   0.45095749    1.3525644    1.8140204    7.0759613 
 9965000   0.93516688 0.00013273268   0.44181196 0.0040679818            0   0.43774398    1.3910607    1.8328727    6.3634815 
 9970000   0.95943974 -0.00017736811   0.40571495 0.0040048382            0   0.40171011    1.4271666    1.8328816   -4.2212831 
 9975000   0.91063035 -0.00015885979   0.48699507  0.017893405            0   0.46910166    1.3545626    1.8415577   -3.5808564 
 9980000   0.93517577 -4.2390185e-05   0.44156922   0.02871525            0   0.41285397     1.391074    1.8326432   0.38572486 
 9985000   0.90938851 -8.0864514e-05   0.45689932  0.025185025            0   0.43171429    1.3527154    1.8096147  -0.95056068 
 9990000   0.89291535 -2.7995173e-06   0.48085137  0.010085277            0   0.47076609    1.3282116     1.809063    1.7135061 
 9995000   0.86877977 0.00010211604   0.49079922  0.029922796            0   0.46087642    1.2923099    1.7831091    5.2686698 
10000000   0.86418056 6.5463247e-05   0.50419762  0.041383123            0    0.4628145    1.2854686    1.7896662     4.024145 
10005000   0.91686244 -6.3574942e-05   0.42767447  0.027076992            0   0.40059748    1.3638329    1.7915074  -0.37851733 
10010000   0.98830434 1.5820047e-05   0.34333967  0.019254437            0   0.32408523    1.4701027    1.8134424    2.3534333 
10015000   0.91681901 3.9764779e-05   0.46628859 0.0073825621            0   0.45890603    1.3637683    1.8300569    3.1873613 
10020000   0.84494489 -4.4728714e-05   0.59290658 0.0086926602            0   0.58421392    1.2568555    1.8497621   0.32302199 
10025000   0.97420986 1.6577176e-05     0.405213 0.0070989903            0   0.39811401    1.4491372    1.8543502    2.4201845 
10030000   0.95318183 6.7208876e-05   0.43165864 0.0053246906            0   0.42633394     1.417858    1.8495166    4.1435796 
10035000   0.97041141 1.8476959e-05   0.42017241   0.03525174            0   0.38492067     1.443487    1.8636594    2.4943396 
10040000   0.91829785 -9.7623485e-05   0.46173389  0.032821752            0   0.42891214     1.365968    1.8277019    -1.504513 
10045000    0.9316956 -5.5927559e-05   0.41201035  0.018269735            0   0.39374062    1.3858972    1.7979076  -0.11108644 
10050000   0.89934901 2.3994518e-05   0.47032312  0.012163582            0   0.45815954    1.3377817    1.8081048    2.6271177 
10055000   0.96390261 3.6631956e-06   0.36166893 0.0057376233            0   0.35593131    1.4338051    1.7954741    1.9205111 
10060000   0.91470022 -8.7451974e-06   0.44985649  0.017687942            0   0.43216855    1.3606166    1.8104731    1.5119703 
10065000   0.96274674 3.5715313e-05   0.39022619  0.012064346            0   0.37816185    1.4320858     1.822312    3.0413947 
10070000   0.93313455 2.2142319e-05   0.41784885   0.01116888            0   0.40667997    1.3880376    1.8058865    2.5616776 
10075000   0.88419179 -8.3564892e-05   0.48733303  0.026772464            0   0.46056057    1.3152353    1.8025683     -1.04978 
10080000   0.94192639 -2.8493639e-05   0.39592679  0.014183905            0   0.38174289    1.4011155    1.7970423   0.82445941 
10085000   0.92990652 3.1585819e-05   0.41368917  0.006107605            0   0.40758156     1.383236    1.7969251    2.8750544 
10090000   0.92799534 1.5498096e-05   0.43182436 0.0079806486            0   0.42384372    1.3803931    1.8122174    2.3412191 
10095000   0.91918009 6.5872869e-05   0.42843936  0.039475926            0   0.38896343    1.3672804    1.7957197    4.0441803 
10100000   0.93999071 4.4871667e-05   0.40551722 0.0065538936            0   0.39896333    1.3982362    1.8037534     3.335373 
10105000   0.92230589 -6.7322744e-06   0.43247469  0.018043882            0   0.41443081      1.37193    1.8044047    1.5746097 
10110000    0.9792877 -4.439269e-05   0.36083265  0.011373371            0   0.34945928    1.4566905    1.8175231   0.30225262 
10115000   0.95077167 -7.8238229e-05   0.41916196  0.012398619            0   0.40676334    1.4142729    1.8334348  -0.83709672 
10120000   0.91823237 -1.7133388e-05   0.47031462   0.01432407            0   0.45599055    1.3658707    1.8361853    1.2513656 
10125000   0.96636977 -7.4410112e-05   0.41956593  0.028602772            0   0.39096316     1.437475     1.857041   -0.6828242 
10130000    0.9483109 -1.8508257e-05   0.44195508  0.042218438            0   0.39973664    1.4106125    1.8525676    1.2208191 
10135000   0.93618411 1.8138776e-05   0.44525277  0.013033368            0    0.4322194    1.3925739    1.8378266    2.4569635 
10140000   0.92444358 -5.3534622e-05    0.4743744  0.016728158            0   0.45764624    1.3751098    1.8494842  0.022169133 
10145000   0.98179614 -0.00010507693   0.37832423  0.021816149            0   0.35650808    1.4604218     1.838746   -1.7478798 
10150000   0.93043656 5.2332548e-05   0.45951542   0.01496948            0   0.44454594    1.3840244    1.8435398    3.6298241 
10155000   0.96270126 2.0909754e-05   0.42334282  0.002086085            0   0.42125674    1.4320181     1.855361    2.5690806 
10160000   0.93983293 -0.0001637142   0.45517638 0.0058767383            0   0.44929964    1.3980015    1.8531779   -3.7349334 
10165000   0.96501162 2.578066e-05   0.42595683  0.020500643            0   0.40545619    1.4354548    1.8614116    2.7413915 
10170000     1.012361 -6.2993914e-05   0.36380346  0.014035198            0   0.34976826     1.505887    1.8696904  -0.28050184 
10175000    0.9025424 -3.004685e-05   0.54100952  0.021930844            0   0.51907868    1.3425318    1.8835413    0.8579422 
10180000   0.92851699 4.2755247e-05   0.49118343  0.021500243            0   0.46968318     1.381169    1.8723524    3.3317316 
10185000    0.9385403 1.1325303e-05   0.47185304   0.01252125            0   0.45933179    1.3960787    1.8679317    2.2545021 
10190000   0.95343223 0.00011861018   0.43167107  0.011859314            0   0.41981176    1.4182304    1.8499015    5.8984623 
10195000   0.95551665 8.2953287e-05   0.45959334  0.025015707            0   0.43457763     1.421331    1.8809244    4.7123965 
10200000    0.9371467 1.8502779e-05    0.4732347  0.039172197            0    0.4340625    1.3940057    1.8672404    2.4988019 
10205000    0.9134285 -4.4472877e-05   0.50783519  0.054925819            0   0.45290937    1.3587249    1.8665601   0.34855257 
10210000   0.95920586 -0.00018239098    0.4154527  0.021569225            0   0.39388347    1.4268187    1.8422714   -4.3833406 
10215000   0.95664654 -6.8669448e-06   0.43597522 0.0025310972            0   0.43344412    1.4230117     1.858987    1.6245952 
10220000   0.96100725 9.0484008e-05   0.45974191 0.00078402863            0   0.45895788    1.4294983    1.8892402     4.977761 
10225000   0.97207774 1.5424405e-05   0.44653152  0.012694628            0   0.43383689    1.4459656    1.8924972    2.4189835 
10230000   0.92032821 6.3908339e-05    0.5223766  0.037368625            0   0.48500798    1.3689882    1.8913648    4.0727694 
10235000   0.94575789 -6.0149865e-05    0.4685769  0.015215876            0   0.45336102    1.4068149    1.8753918  -0.17772363 
10240000     1.001829 9.2751784e-05    0.4112495  0.023408113            0   0.38784139    1.4902206    1.9014701    5.0673977 
10245000   0.94134596 2.9844384e-05   0.50300255  0.028873165            0   0.47412938    1.4002521    1.9032547     2.921943 
10250000    1.0152138 -6.8786314e-05   0.40663768 0.0072370994            0   0.39940058    1.5101306    1.9167682  -0.43113797 
10255000   0.94477936 7.9332772e-05   0.49741409  0.020725016            0   0.47668907    1.4053593    1.9027734    4.6106653 
10260000   0.95741202 1.9418471e-05   0.46562787  0.039538362            0   0.42608951    1.4241504    1.8897783    2.5525954 
10265000   0.90041736 -2.4043856e-05   0.55151348  0.015486652            0   0.53602682    1.3393708    1.8908843    1.0701874 
10270000   0.99561572 2.9367819e-05    0.4480292  0.016008448            0   0.43202075    1.4809784    1.9290076    2.9314291 
10275000   0.94014187 -1.2103669e-05   0.56303638  0.026323903            0   0.53671247     1.398461    1.9614974    1.5483588 
10280000    1.0211254 -5.0602635e-07   0.44679581   0.05000995            0   0.39678586    1.5189241    1.9657199    1.9484475 
10285000    1.0336177 -0.00012706837   0.45174244  0.020498666            0   0.43124377    1.5375063    1.9892488   -2.3480182 
10290000   0.97965214 -0.00010682954   0.50937292  0.014673447            0   0.49469947    1.4572326    1.9666055   -1.6798427 
10295000    1.0219313 0.00011738308   0.46535107   0.01717759            0   0.44817348    1.5201228    1.9854738    5.9921497 
10300000   0.98350609 0.00013972543   0.50492744  0.014168783            0   0.49075866    1.4629653    1.9678927    6.7371875 
10305000    1.0287876 5.0645891e-05   0.42804992  0.029490452            0   0.39855947    1.5303216    1.9583715    3.6870846 
10310000    1.0003883 1.9848076e-05   0.46518388  0.033106317            0   0.43207757    1.4880775    1.9532614    2.6307424 
10315000    0.9934763 3.969827e-05   0.48618247  0.048781344            0   0.43740113     1.477796    1.9639785    3.3190128 
10320000    1.0267414 -4.8569435e-05   0.44322922  0.012844717            0   0.43038451    1.5272778    1.9705071   0.31267037 
10325000    1.0556776 -6.8768867e-05   0.40028114 0.0065570302            0   0.39372411    1.5703204    1.9706016  -0.37670908 
10330000    1.0240995 -2.8818268e-05   0.44323825  0.028783056            0   0.41445519    1.5233481    1.9665863   0.98292276 
10335000   0.98823838 -5.4746531e-05   0.50126212  0.024929886            0   0.47633224    1.4700046    1.9712667   0.10258514 
10340000   0.98956682 -7.1315864e-05   0.49791227  0.019691534            0   0.47822073    1.4719806    1.9698929  -0.46435525 
10345000    1.0434355 -4.2235318e-05   0.42210769  0.028516211            0   0.39359148    1.5521103     1.974218   0.53258586 
10350000    1.0194474 6.0618524e-05    0.4625348  0.035927877            0   0.42660693     1.516428    1.9789628    4.0480751 
10355000    1.0156522 6.0563805e-06   0.46034529  0.023384426            0   0.43696086    1.5107826    1.9711279    2.1778524 
10360000    1.0270262 -3.6580007e-06   0.44070947  0.017625448            0   0.42308403    1.5277015     1.968411    1.8435512 
10365000    1.0650015 8.4086607e-06   0.39206725  0.013398728            0   0.37866852    1.5841897    1.9762569    2.2632725 
10370000     1.009955 9.1401894e-05   0.46064774 0.00062322911            0   0.46002451     1.502308    1.9629557     5.082807 
10375000    1.0295967 1.3047924e-05   0.43672942 0.0041052678            0   0.43262416    1.5315252    1.9682546    2.4136237 
10380000    1.0303582 -4.518565e-06   0.41334741  0.016896362            0   0.39645105    1.5326578    1.9460052    1.7917715 
10385000    1.0108996 -0.00012269867   0.43394423  0.017118534            0   0.41682569    1.5037132    1.9376574   -2.2504573 
10390000    1.0193181 -0.00010022084   0.45130181 0.0075235967            0   0.44377822    1.5162357    1.9675375   -1.4533339 
10395000    1.0258445 -7.2097826e-05   0.45344984 0.00026514661            0   0.45318469    1.5259438    1.9793936  -0.48154552 
10400000    1.0468955 4.9213803e-05    0.4050041 0.00029729115            0   0.40470681     1.557257    1.9622611    3.6420922 
10405000      1.05929 3.399609e-05   0.40139345 0.0039420548            0   0.39745139    1.5756938    1.9770873    3.1374871 
10410000    1.0249449 6.043921e-06   0.45559654  0.013139042            0   0.44245749    1.5246056    1.9802021    2.1865013 
10415000    1.0006718 -2.976513e-05    0.4903034  0.023391399            0     0.466912    1.4884993    1.9788027   0.96281961 
10420000    1.0236741 5.3113383e-05   0.47202897  0.031541572            0    0.4404874    1.5227153    1.9947443    3.8076811 
10425000   0.99580234 6.824743e-05   0.53889574  0.022070985            0   0.51682475     1.481256    2.0201517     4.349664 
10430000    1.0145161 -0.00011710882   0.48590402  0.023755483            0   0.46214854    1.5090926    1.9949966   -2.0023178 
10435000   0.95275058 -0.0001896154    0.5672475  0.045504065            0   0.52174343    1.4172165     1.984464   -4.4877416 
10440000   0.99617812 5.8959324e-05   0.48600433   0.05439753            0    0.4316068     1.481815    1.9678193    3.9802976 
10445000    1.0610846 -5.9620708e-05   0.41369452 0.0048653589            0   0.40882916    1.5783634    1.9920579 -0.042995601 
10450000    1.0425731 -0.00011730615   0.45140744 0.0021636226            0   0.44924382    1.5508275     2.002235   -2.0018148 
10455000    1.0181876 1.0302658e-05   0.48439918  0.011727744            0   0.47267144    1.5145541    1.9989532    2.3506173 
10460000   0.96713375 -9.7712607e-05   0.54576284  0.008365984            0   0.53739686    1.4386115    1.9843743   -1.3508827 
10465000    1.0428599 -0.00011619486   0.45532584 0.0008509504            0   0.45447489    1.5512541      2.00658   -1.9595378 
10470000    1.0302328 6.1076174e-05   0.46091121 0.0069296962            0   0.45398152    1.5324713    1.9933825    4.0781159 
10475000    1.0403736 0.00014994567     0.462901  0.031738701            0    0.4311623    1.5475558    2.0104568    7.1286024 
10480000    1.0581481 5.7653748e-05   0.42494226  0.021397251            0   0.40354501    1.5739953    1.9989375    3.9668522 
10485000    1.0431333 -7.4151509e-05   0.45985454 0.0060784031            0   0.45377614    1.5516608    2.0115154  -0.51952278 
10490000    1.0615853 -5.1312489e-05   0.42423317  0.012051224            0   0.41218195    1.5791081    2.0033412   0.25187493 
10495000    1.0440545 -8.9345325e-05   0.48485668  0.023271652            0   0.46158502    1.5530311    2.0378878    -1.011766 
10500000    1.0426101 6.1564426e-05   0.47886637  0.031199297            0   0.44766707    1.5508826    2.0297489     4.131148 
10505000    1.1088173 0.00014386574   0.40288843  0.022490694            0   0.38039774    1.6493657    2.0522541    6.9628713 
10510000    1.0666751 3.8110649e-05   0.44838993   0.01634562            0   0.43204431    1.5866792    2.0350692    3.3359126 
10515000    1.0592229 1.0726473e-05   0.45670537 0.0099027839            0   0.44680259    1.5755941    2.0322995    2.3984298 
10520000    1.0787277 -7.3381796e-05   0.44856604 0.0079641977            0   0.44060184    1.6046075    2.0531735  -0.45159176 
10525000    1.0380076 1.4146208e-05   0.52010752  0.009187078            0   0.51092044    1.5440363    2.0641438     2.547001 
10530000    1.0632211 -2.5439078e-05   0.47943005  0.031459434            0   0.44797061    1.5815413    2.0609714    1.1926509 
10535000    1.0788229 -2.6689941e-05   0.44686326  0.031580092            0   0.41528317    1.6047491    2.0516123    1.1405957 
10540000    1.0983142 8.6545074e-06   0.41897669  0.010926897            0   0.40804979    1.6337423     2.052719    2.3481262 
10545000    1.0458686 1.0910453e-05   0.50384202  0.017030485            0   0.48681154    1.5557296    2.0595716    2.4319817 
10550000    1.0582604 -8.6929727e-05   0.48582882  0.010500751            0   0.47532807    1.5741624    2.0599912  -0.90721014 
10555000     1.071998 -7.4725258e-05    0.4750407 0.0038606337            0   0.47118007     1.594597    2.0696377  -0.48098446 
10560000    1.1043939 -1.9361268e-05   0.41653594   0.01032471            0   0.40621123    1.6427859    2.0593218    1.3984572 
10565000    1.0322636 3.3996361e-06   0.51107756  0.024519457            0    0.4865581    1.5354921    2.0465697    2.1626106 
10570000    1.0327911 7.6622928e-05   0.48145765  0.019985775            0   0.46147187    1.5362768    2.0177344    4.6331304 
10575000     1.009068 5.2698406e-05   0.50400501  0.014914869            0   0.48909014    1.5009887    2.0049937     3.803766 
10580000    1.0116598 5.2346198e-05   0.48955598   0.02480688            0    0.4647491    1.5048439    1.9943999    3.7811502 
10585000    1.0214317 0.00011006093   0.46713156  0.049033005            0   0.41809855    1.5193797    1.9865113    5.7432578 
10590000    1.0063309 1.0954277e-06   0.45788287  0.034539084            0   0.42334378    1.4969172    1.9548001    1.9921907 
10595000   0.96849936 -2.5895869e-05   0.49955846  0.011460269            0   0.48809819    1.4406428    1.9402012    1.0562889 
10600000    1.0144457 -0.00020339808   0.42166717 0.0056334892            0   0.41603368    1.5089879    1.9306551   -5.0119992 
10605000   0.99786592 -0.00015760388   0.42163043 0.0052276338            0   0.41640279    1.4843256     1.905956   -3.4735898 
10610000    0.9628349 -5.7458726e-05   0.47740351 0.0091612264            0   0.46824229    1.4322169    1.9096204 -0.051637418 
10615000    0.9575394 0.00010652185   0.50355378  0.012864253            0   0.49068953    1.4243399    1.9278936    5.5638393 
10620000    1.0386778 0.0002537244    0.3888404 0.0097504459            0   0.37908995    1.5450332    1.9338736    10.594333 
10625000   0.97718684 4.9258118e-05   0.45152771    0.0233574            0   0.42817031    1.4535654    1.9050931    3.5864369 
10630000   0.95794042 -0.00018544492   0.49846364  0.033176524            0   0.46528711    1.4249364       1.9234   -4.4064534 
10635000   0.95078347 -0.00022420313   0.51608615  0.041621149            0     0.474465    1.4142904    1.9303766   -5.7224235 
10640000    1.0094306 -8.6391518e-05   0.44735352  0.036814137            0   0.41053939     1.501528    1.9488815  -0.99994898 
10645000    0.9996139 -6.6135977e-05   0.46711113  0.026736693            0   0.44037444    1.4869257    1.9540368  -0.30340454 
10650000    1.0158994 -5.5709838e-05   0.45058724  0.029307851            0   0.42127939    1.5111503    1.9617375  0.060175087 
10655000   0.94766978 1.7455365e-05   0.51901974  0.027807456            0   0.49121228    1.4096588    1.9286785    2.5244883 
10660000   0.90703974 0.00015340844   0.56783194  0.061186454            0   0.50664548    1.3492216    1.9170535    7.1533949 
10665000   0.98440804 0.00011783733    0.4880276  0.063798204            0   0.42422939     1.464307    1.9523346    5.9745154 
10670000    1.0383175 -1.924715e-05   0.38304998  0.023723807            0   0.35932617    1.5444973    1.9275472    1.2705779 
10675000    1.0488965 -2.9355043e-06   0.37389581 0.0091339765            0   0.36476183    1.5602336    1.9341294    1.8339308 
10680000   0.98637512 4.3665626e-05   0.46168817  0.010761278            0   0.45092689     1.467233    1.9289212    3.4193745 
10685000   0.97803103 -3.2218203e-05   0.47346074  0.028938769            0   0.44452197    1.4548212    1.9282819   0.82856724 
10690000    1.0243049 3.8363548e-05   0.42603463  0.021338974            0   0.40469565    1.5236536    1.9496882     3.259164 
10695000    1.0612576 2.9529163e-05   0.39347554  0.015146884            0   0.37832866    1.5786207    1.9720962     2.980025 
10700000    1.0234355 5.670596e-06   0.48467974  0.029266382            0   0.45541336    1.5223603    2.0070401    2.2005964 
10705000    1.0201852 0.00012852936   0.49753906   0.02332003            0   0.47421903    1.5175255    2.0150646    6.4022002 
10710000    1.0740982 0.00011885231   0.42339125  0.032939153            0    0.3904521    1.5977211    2.0211123     6.077938 
10715000    1.0360177 2.3213426e-05   0.46384412  0.036940717            0    0.4269034    1.5410764    2.0049205    2.7972721 
10720000    1.0190708 -5.9214969e-05   0.49585504 0.0098125448            0   0.48604249    1.5158678    2.0117228 -0.0094814351 
10725000    1.0752846 -6.3535947e-05   0.42641641  0.012628045            0   0.41378837    1.5994859    2.0259023  -0.14279134 
10730000     1.070992 -8.799318e-05   0.44062328  0.020684732            0   0.41993855    1.5931007    2.0337239   -0.9697766 
10735000    1.0717284 3.0602856e-05   0.41917329  0.019676161            0   0.39949713    1.5941959    2.0133692    3.0579467 
10740000    1.0558406 2.8919276e-05   0.42283689 0.0080720287            0   0.41476486    1.5705629    1.9933997     2.980511 
10745000    1.0669392 -6.699117e-05   0.40562996  0.011888792            0   0.39374117    1.5870721     1.992702  -0.29392988 
10750000    1.0835192 -0.00012205695   0.37194084  0.014313882            0   0.35762696    1.6117348    1.9836757   -2.1825348 
10755000    1.0042713 6.116589e-05   0.47630868  0.067027713            0   0.40928097    1.4938536    1.9701622    4.0579579 
10760000   0.99607986 4.691625e-05    0.4939949  0.039452811            0   0.45454209    1.4816688    1.9756637    3.5770717 
10765000    1.0771367 3.8351239e-05   0.38293519 0.0062015535            0   0.37673364    1.6022409    1.9851761    3.2942317 
10770000    1.0764832 0.00021758698    0.3828686 0.0017473629            0   0.38112124    1.6012687    1.9841373    9.4111061 
10775000     1.008181 0.00011017104   0.46202758  0.011175149            0   0.45085243    1.4996693    1.9616969    5.7222016 
10780000   0.99783848 0.00011665026   0.46401662  0.040451501            0   0.42356512    1.4842847    1.9483014    5.9299637 
10785000   0.96111675 7.1961303e-05   0.53870808  0.045569231            0   0.49313885    1.4296612    1.9683693    4.4246484 
10790000    1.0514551 -2.2476509e-05   0.40476883  0.026153656            0   0.37861518    1.5640394    1.9688083    1.2016101 
10795000    1.0134497 -0.00018311293   0.46420229  0.025398719            0   0.43880357    1.5075065    1.9717088   -4.2785459 
10800000   0.98204535 3.2428156e-05   0.50988671  0.014088279            0   0.49579843    1.4607925    1.9706792    3.0775602 
10805000   0.98658718 0.00010026871   0.47293842   0.02761314            0   0.44532528    1.4675484    1.9404868    5.3629921 
10810000   0.99824488 -3.2225238e-05   0.44428125  0.019051942            0   0.42522931    1.4848893    1.9291705   0.82921572 
10815000    1.0250523 -6.5665279e-05   0.40928068 0.0062712999            0   0.40300938    1.5247653     1.934046  -0.30732887 
10820000     0.979982 5.6064261e-05   0.49145562 0.0079838826            0   0.48347173    1.4577232    1.9491788    3.8628389 
10825000   0.98004953 0.00014110751   0.47547729 0.0092321175            0   0.46624517    1.4578237     1.933301    6.7497708 
10830000    1.0241234 2.8222509e-05   0.42558228  0.019886551            0   0.40569572    1.5233836    1.9489659    2.9122942 
10835000    1.0357775 1.174283e-05   0.40141891   0.03293752            0   0.36848139    1.5407191     1.942138    2.3429599 
10840000   0.95576467 -2.8827167e-05    0.5074669  0.019611407            0   0.48785549    1.4216999    1.9291668   0.94519955 
10845000    0.9546331 -0.00011922121    0.5209778  0.035246814            0   0.48573099    1.4200167    1.9409945   -2.1284229 
10850000    1.0254137 4.3565603e-05   0.41453361  0.012000769            0   0.40253284    1.5253029    1.9398365    3.4268758 
10855000    1.0019586 0.0001742207   0.45514916  0.017169381            0   0.43797978    1.4904134    1.9455626    7.8922958 
10860000     1.013456 3.1114754e-05    0.4286874  0.017537386            0   0.41115001    1.5075158    1.9362032    2.9982535 
10865000    1.0050631 1.2900887e-05   0.46077033  0.035618874            0   0.42515146    1.4950314    1.9558017     2.396152 
10870000     0.979659 -8.3849943e-05   0.50727608  0.021864587            0   0.48541149    1.4572428    1.9645188  -0.89755921 
10875000    1.0162109 -0.00016876932   0.44360839  0.014893192            0    0.4287152    1.5116137    1.9552221   -3.8054374 
10880000    1.0129262 -1.3406055e-05   0.46692434  0.022807661            0   0.44411668    1.5067277     1.973652    1.5160587 
10885000     1.041559 1.601121e-05   0.40619471  0.023642928            0   0.38255178     1.549319    1.9555137    2.5020297 
10890000    0.9612673 -3.7821653e-05   0.54796724  0.026600868            0   0.52136637    1.4298851    1.9778523   0.68687325 
10895000    1.0234486 1.7390036e-05   0.45005927  0.011282537            0   0.43877674    1.5223798    1.9724391     2.566019 
10900000    1.0586838 3.5156236e-05   0.39316657  0.021016636            0   0.37214993    1.5747921    1.9679587    3.1679582 
10905000    1.0197292 -3.3919771e-05   0.44545021  0.015426718            0   0.43002349    1.5168472    1.9622974   0.80450251 
10910000    1.0853297 0.00013217781   0.35372637 0.0022902447            0   0.35143612     1.614428    1.9681543    6.4798236 
10915000     1.039539 0.00014046459   0.42664446    0.0156228            0   0.41102166    1.5463143    1.9729587    6.7674833 
10920000   0.94454432 -4.2653568e-07   0.55987385  0.023649903            0   0.53622395    1.4050097    1.9648835    1.9503244 
10925000    1.0797725 -1.2662681e-05   0.34992839  0.020467001            0   0.32946139    1.6061616      1.95609    1.5238705 
10930000   0.98677236 -5.501726e-05   0.48255241  0.031382976            0   0.45116944    1.4678239    1.9503763  0.072453836 
10935000    1.0134011 -5.1074424e-05   0.44050776  0.051894446            0   0.38861332    1.5074341    1.9479419   0.20460152 
10940000   0.95302265 -1.1512406e-05   0.49885375  0.054017288            0   0.44483646    1.4176212    1.9164749    1.5235182 
10945000    1.0304107 6.0358904e-05    0.4042689  0.010530971            0   0.39373793     1.532736    1.9370049    3.9972555 
10950000    1.0415503 -1.8895843e-05   0.39957337  0.012545601            0   0.38702777     1.549306    1.9488794    1.3039013 
10955000    1.0071209 -4.3896508e-05   0.45119528  0.013780729            0   0.43741455    1.4980923    1.9492876   0.45095344 
10960000   0.99654237 3.5683496e-05   0.44100262  0.011791231            0   0.42921139    1.4823568    1.9233594     3.141356 
10965000    0.9566377 -1.6025502e-06    0.4901146  0.031032051            0   0.45908255    1.4229986    1.9131132    1.8584128 
10970000   0.90796296 4.5077346e-05    0.5542667  0.030000786            0   0.52426591    1.3505949    1.9048616    3.4435017 
10975000   0.99656501 0.00014147019   0.43508671  0.027700965            0   0.40738575    1.4823905    1.9174772    6.7463265 
10980000   0.99900606 5.2236764e-05   0.45427168  0.046623055            0   0.40764862    1.4860215    1.9402932    3.7233081 
10985000    0.9455883 -9.4208675e-05   0.53070655  0.043452027            0   0.48725452    1.4065626    1.9372692   -1.2783869 
10990000   0.93332489 -0.00015452708   0.54867498  0.044124701            0   0.50455027    1.3883208    1.9369957   -3.3375285 
10995000    0.9976937 2.0485385e-06   0.45811218  0.046837571            0   0.41127461    1.4840694    1.9421816     2.012105 
11000000    0.9679867 -4.4759337e-05   0.49350292  0.035666842            0   0.45783608    1.4398802    1.9333831   0.40559777 
11005000   0.95312945 -7.5181148e-05   0.51173937  0.013874862            0   0.49786451    1.4177801    1.9295194  -0.63666374 
11010000   0.96815265 4.8233414e-05   0.48339374  0.032559071            0   0.45083467    1.4401271    1.9235208     3.569888 
11015000   0.96214045 -1.4145315e-05   0.48434923  0.022959981            0   0.46138925    1.4311839    1.9155331    1.4327064 
11020000   0.97378799 1.4873555e-05   0.45747436  0.027897829            0   0.42957653    1.4485096     1.905984     2.413668 
11025000   0.95258313 7.6552529e-05   0.48197873  0.033315409            0   0.44866332    1.4169674    1.8989461    4.5119391 
11030000    0.9209347 -1.376125e-06   0.52299837  0.035346179            0   0.48765219    1.3698904    1.8928887     1.845917 
11035000      0.96308 -2.1436436e-05   0.43045452  0.015629801            0   0.41482472    1.4325815     1.863036     1.131339 
11040000   0.92350525 3.1709579e-05   0.50451701  0.012091211            0    0.4924258    1.3737141    1.8782311    2.9605847 
11045000   0.93427291 3.3149141e-05   0.48621054  0.019788756            0   0.46642178     1.389731    1.8759415    3.0074322 
11050000   0.95276352 -3.4333245e-06   0.45150989   0.03482771            0   0.41668218    1.4172357    1.8687456    1.7515548 
11055000    0.9226948 -4.3099024e-05   0.50579246  0.036624866            0   0.46916759    1.3725085     1.878301   0.40718763 
11060000    0.9675583 2.006528e-05   0.45626436  0.032193271            0   0.42407109     1.439243    1.8955073    2.5804022 
11065000   0.99686023 0.00010695243   0.42730028  0.030714545            0   0.39658573    1.4828296    1.9101299    5.5607729 
11070000   0.96450325 2.5156042e-05    0.4709406  0.034395821            0   0.43654478    1.4346986    1.9056392    2.7642988 
11075000   0.93358668 -6.5524013e-05   0.50631486  0.016434944            0   0.48987991    1.3887102     1.895025  -0.34152793 
11080000   0.96375126 -2.4640715e-05   0.45238792  0.017440674            0   0.43494725      1.43358    1.8859679    1.0448982 
11085000   0.88886038 5.1242819e-05   0.52896579  0.033263498            0   0.49570229    1.3221798    1.8511456    3.6002338 
11090000   0.91198407 4.8735471e-05   0.48031753  0.033010257            0   0.44730727    1.3565763    1.8368938    3.5003979 
11095000   0.92336864 0.00010008406    0.5108447  0.019043447            0   0.49180126    1.3735109    1.8843556    5.3005581 
11100000   0.96769284 2.995003e-05    0.4934976  0.023265952            0   0.47023165    1.4394431    1.9329407     2.955235 
11105000   0.94289966 -0.0001399507   0.51427903  0.017273381            0   0.49700565    1.4025632    1.9168423   -2.8601416 
11110000   0.96036798 -4.9131168e-05   0.48003247  0.006340292            0   0.47369218    1.4285474    1.9085798   0.23156931 
11115000   0.99580947 4.0719129e-05   0.41857384 0.0038932734            0   0.41468057    1.4812666    1.8998404      3.28972 
11120000   0.95820058 -1.9598314e-05   0.48412637 0.0065965472            0   0.47752983    1.4253234    1.9094497     1.240494 
11125000   0.92078607 7.1899148e-05   0.50837743  0.026768624            0   0.48160881    1.3696693    1.8780467    4.3322043 
11130000   0.92180939   7.8682e-05   0.48078813  0.020937198            0   0.45985093    1.3711915    1.8519796    4.5376585 
11135000   0.94166342 6.0503808e-05   0.46535155 0.0077552517            0    0.4575963    1.4007243    1.8660759    3.9312726 
11140000   0.91487165 0.00014381085   0.50712879 0.0020554873            0    0.5050733    1.3608716    1.8680004    6.7767442 
11145000    0.9362839 0.00015404972   0.46941686 0.0034399253            0   0.46597693    1.3927223    1.8621392    7.1203696 
11150000    0.9846539 3.1147729e-05   0.40772888 0.0096404935            0   0.39808839    1.4646727    1.8724016    2.9355774 
11155000   0.92411441 -8.186059e-05   0.46939892  0.010530088            0   0.45886884    1.3746202    1.8440191  -0.95015569 
11160000   0.91555991 3.7036667e-06   0.48667548  0.014620673            0   0.47205481    1.3618954    1.8485708    1.9749893 
11165000   0.88363414 2.7638779e-05   0.56168353  0.058799498            0   0.50288404    1.3144058    1.8760893     2.819493 
11170000   0.95431561 -1.0327801e-05   0.45748791  0.043463696            0   0.41402421    1.4195445    1.8770324    1.5245101 
11175000   0.90367468 6.3387936e-05    0.5241125  0.014346719            0   0.50976578    1.3442161    1.8683286    4.0319701 
11180000   0.90113172 0.00010914325   0.49664981  0.023570184            0   0.47307963    1.3404334    1.8370833    5.5625061 
11185000   0.88202478 2.6414252e-05   0.52716069  0.027892252            0   0.49926844    1.3120119    1.8391725     2.740779 
11190000   0.90699214 -0.00014905728   0.47854369  0.016584584            0    0.4619591    1.3491508    1.8276945   -3.2601273 
11195000   0.91378855 -0.00015889497   0.45195054  0.024289005            0   0.42766153    1.3592605     1.811211   -3.6124041 
11200000   0.91120911 7.9010807e-05   0.44373187  0.026515197            0   0.41721667    1.3554236    1.7991554    4.4960576 
11205000   0.91542383 0.00012354623   0.43498062  0.019499158            0   0.41548147    1.3616929    1.7966736    6.0137181 
11210000   0.87592474 4.9116277e-05   0.47373532  0.030261488            0   0.44347383    1.3029381    1.7766734    3.4531756 
11215000    0.8553795 8.9211026e-06    0.5001209  0.018446931            0   0.48167397     1.272377    1.7724979    2.0770049 
11220000    0.8814995 -0.00014197653   0.45365264 0.0059717392            0   0.44768091    1.3112305    1.7648831   -3.0812489 
11225000   0.89382124 -0.00011126618   0.43049143  0.008775905            0   0.42171552    1.3295591    1.7600505   -2.0378352 
11230000   0.90001377 4.0066522e-05   0.41932482  0.018066652            0   0.40125817    1.3387705    1.7580953    3.1256993 
11235000   0.88566308 4.8831621e-05   0.44700534  0.010664733            0   0.43634061    1.3174238    1.7644292    3.4312152 
11240000   0.87040228 -6.0688415e-05   0.49311737   0.01508645            0   0.47803092    1.2947234    1.7878408  -0.28365714 
11245000   0.90625462 -7.6746761e-05   0.42061517  0.011145871            0    0.4094693    1.3480537    1.7686689  -0.85095388 
11250000   0.92706085 4.2732624e-05   0.40467289  0.013280069            0   0.39139282     1.379003    1.7836759    3.2422828 
11255000   0.83638542 8.0875109e-05   0.50998476  0.033784236            0   0.47620053    1.2441233    1.7541081    4.5146451 
11260000   0.83007731 2.0139788e-05   0.52740109  0.051504134            0   0.47589696      1.23474    1.7621411    2.4495792 
11265000   0.83027147 -8.9083828e-05   0.53023469  0.023865673            0   0.50636902    1.2350288    1.7652635   -1.2754645 
11270000   0.85539977 -0.0002225803    0.4961996  0.013173423            0   0.48302618    1.2724072    1.7686068   -5.8288008 
11275000   0.87291725 -0.00011900122   0.47328504  0.021040833            0   0.45224421    1.2984644    1.7717494   -2.2901587 
11280000   0.83665004 -1.5055088e-05   0.54936158  0.018297392            0   0.53106419    1.2445169    1.7938785    1.2799982 
11285000   0.92691422 1.6620296e-05   0.41473774 0.0095185028            0   0.40521923    1.3787849    1.7935226    2.3608287 
11290000   0.89042483 9.2142706e-05   0.46450462 0.0078594542            0   0.45664516    1.3245069    1.7890116    4.9341492 
11295000   0.83732382 -3.2600084e-05   0.53145038  0.024153083            0    0.5072973    1.2455192    1.7769696   0.66422002 
11300000   0.87836094 -0.00010177562   0.47008661 0.0090942992            0   0.46099231    1.3065619    1.7766485   -1.6972925 
11305000   0.90201499 -6.8907326e-05   0.46046558  0.019013369            0   0.44145221    1.3417473    1.8022129  -0.54982385 
11310000   0.86753422 -0.0001538879   0.52626454  0.020567933            0   0.50569661    1.2904572    1.8167217   -3.4359852 
11315000   0.83314085 -5.645412e-05   0.56527217 0.0085923687            0    0.5566798     1.239297    1.8045692  -0.12239811 
11320000   0.92129094 -8.0056368e-05   0.43645013 0.0093593439            0   0.42709079    1.3704203    1.8068704  -0.92572029 
11325000   0.91075381 -4.8637396e-05   0.44420596  0.028963225            0   0.41524274    1.3547463    1.7989523    0.1387958 
11330000   0.87824432 9.8158429e-05   0.49286774 0.0051417475            0   0.48772599    1.3063884    1.7992562    5.1497305 
11335000   0.86180085 -6.5144137e-05   0.51043587  0.011806764            0   0.49862911    1.2819288    1.7923646   -0.4312219 
11340000   0.87272234 -0.00022132567   0.51670904  0.035640021            0   0.48106901    1.2981745    1.8148835   -5.7396993 
11345000   0.92962785 -1.7133397e-05   0.45282033  0.015418075            0   0.43740226    1.3828214    1.8356418    1.2508218 
11350000   0.87852432 9.6519472e-05   0.54248915  0.011475039            0   0.53101411    1.3068049    1.8492941    5.1438254 
11355000   0.85681781 -9.2859742e-05   0.56441127  0.018123424            0   0.54628785    1.2745165    1.8389278   -1.3306848 
11360000   0.88818667 -2.4599802e-05   0.52899106  0.023776103            0   0.50521496    1.3211777    1.8501687    1.0104955 
11365000   0.95337157 -9.8230493e-06   0.44728417 0.0099548022            0   0.43732937    1.4181402    1.8654244     1.530131 
11370000   0.92713256 -0.00011430446   0.48893162 0.0020666285            0     0.486865    1.3791097    1.8680413    -2.033551 
11375000    0.9500682 -1.3912361e-06   0.47194579 0.0012802157            0   0.47066557    1.4132265    1.8851722    1.8376847 
11380000   0.96476475 4.3655328e-05   0.44760834 0.0024811245            0   0.44512722    1.4350876    1.8826959    3.3727978 
11385000   0.96004287 4.7539695e-06   0.47443751 0.0072276618            0   0.46720984    1.4280638    1.9025013    2.0647701 
11390000    0.9767646 -8.0807998e-06   0.43295403  0.029245271            0   0.40370876    1.4529373    1.8858914    1.6100667 
11395000   0.85469695 4.738793e-05   0.61083008  0.044446581            0   0.56638349    1.2713617    1.8821918    3.4996998 
11400000   0.88089224 -1.9344412e-05   0.57438344  0.016064747            0   0.55831869    1.3103272    1.8847106    1.2244214 
11405000   0.87115119 -7.6210527e-05   0.60974972  0.037202722            0     0.572547    1.2958374    1.9055871  -0.69573222 
11410000    0.9155473 5.0556192e-05   0.53378106   0.03849568            0   0.49528538    1.3618766    1.8956577     3.621309 
11415000   0.91089456 5.0250312e-05   0.55569594  0.028955191            0   0.52674075    1.3549557    1.9106516    3.6258622 
11420000   0.91272692 -6.893175e-05   0.54689493 0.0078881539            0   0.53900678    1.3576813    1.9045762  -0.44829418 
11425000   0.87492945 -7.6664281e-05   0.58759648 0.0014265497            0   0.58616993    1.3014576     1.889054  -0.72775342 
11430000   0.89612303 4.2056873e-05    0.5157673 0.0034240062            0    0.5123433     1.332983    1.8487503    3.2842916 
11435000   0.89762744 0.00010309355   0.52606738  0.019774901            0   0.50629248    1.3352208    1.8612882    5.3802146 
11440000   0.88064669 0.00018313516   0.52986483  0.040446628            0    0.4894182     1.309962    1.8398268    8.0908402 
11445000   0.88911736 0.00012330157   0.52595507  0.047933243            0   0.47802183    1.3225621    1.8485171    6.0572106 
11450000   0.86567456 -0.0001400244   0.54596735  0.037819468            0   0.50814788    1.2876909    1.8336583   -2.9458414 
11455000   0.81690829 -0.00018987312   0.61934129  0.019349028            0   0.59999226    1.2151511    1.8344924     -4.64651 
11460000    0.8575323 -2.1681589e-05   0.54339876 0.0054565522            0   0.53794221    1.2755793    1.8189781    1.0789131 
11465000   0.84490683 -9.8406108e-06   0.56187295  0.016293354            0   0.54557959    1.2567989    1.8186719     1.482779 
11470000   0.87815601 -2.3843091e-05   0.49415576  0.019407219            0   0.47474854    1.3062571    1.8004128   0.98656865 
11475000   0.89726466 -2.102901e-05   0.48055785 0.0059142174            0   0.47464363    1.3346812     1.815239    1.0974488 
11480000   0.86007892 -0.0001267711   0.52530827 0.0094312398            0   0.51587703    1.2793674    1.8046757   -2.5224447 
11485000   0.90603775 -8.3045259e-05   0.45877842 0.0076267759            0   0.45115165    1.3477312    1.8065096   -1.0281019 
11490000   0.81001297 9.9459886e-05   0.59901228 0.0073667068            0   0.59164557    1.2048943    1.8039066     5.198804 
11495000   0.89836747 -7.808772e-05    0.4635672  0.033058031            0   0.43050917    1.3363216    1.7998888  -0.86550537 
11500000   0.86402267 -8.6561809e-05   0.51858272   0.01291516            0   0.50566756    1.2852337    1.8038164   -1.1508266 
11505000   0.89713595 0.00013123918   0.47873776  0.008167404            0   0.47057035    1.3344897    1.8132275    6.2928581 
11510000   0.85786549 -9.1766749e-05   0.55151895  0.014934852            0    0.5365841    1.2760749    1.8275939   -1.3047112 
11515000   0.91175009 -3.183865e-05   0.48762629  0.013789601            0   0.47383669    1.3562283    1.8438546   0.75709531 
11520000   0.89566078 7.0011143e-05   0.51715083 0.0096236308            0    0.5075272    1.3322954    1.8494462    4.2391599 
11525000   0.82645417 -3.0298716e-05   0.59949438 0.0070402619            0   0.59245412    1.2293506     1.828845   0.79464879 
11530000   0.83343345 6.6621074e-05   0.57941481  0.014560184            0   0.56485463    1.2397323    1.8191471    4.0931464 
11535000   0.88994488 -8.7031886e-05   0.50878628 0.0074278255            0   0.50135845     1.323793    1.8325793   -1.1381091 
11540000   0.90849679 -6.0960541e-05   0.48735614  0.015496924            0   0.47185922     1.351389    1.8387451  -0.24204134 
11545000   0.85117298 -2.8281568e-05   0.56996292  0.035558597            0   0.53440432    1.2661198    1.8360827   0.87073853 
11550000   0.81905213 2.1847429e-05   0.61409888  0.029385756            0   0.58471312      1.21834    1.8324389    2.5781645 
11555000   0.95068594 7.7461305e-05   0.42600084  0.010013589            0   0.41598725    1.4141453    1.8401462    4.4841587 
11560000   0.90866353 -1.0733507e-05    0.4882204 0.0064199738            0   0.48180042     1.351637    1.8398574     1.473487 
11565000   0.87621201 1.3210234e-05   0.55661241  0.017299968            0   0.53931245    1.3033654    1.8599778    2.3108871 
11570000   0.86781594 2.9251482e-05   0.57172343  0.016020386            0   0.55570305    1.2908762    1.8625997    2.8610502 
11575000   0.89304372 -9.9527463e-05   0.54379651  0.010857858            0   0.53293866    1.3284025    1.8721991    -1.525005 
11580000   0.90112502 -0.00022256191   0.54624656  0.023931301            0   0.52231526    1.3404235      1.88667     -5.71011 
11585000   0.84834314 -0.00019997102   0.62334523   0.01832621            0   0.60501902    1.2619104    1.8852557   -4.9404217 
11590000   0.86870132 -0.00010743409   0.60304559 0.0090677168            0   0.59397787    1.2921932    1.8952388   -1.7718448 
11595000   0.87554391 -5.6987583e-05   0.59731786   0.02637915            0   0.57093871    1.3023716    1.8996894  -0.04548674 
11600000   0.89387706 -2.0798547e-05   0.56846697  0.019338353            0   0.54912862    1.3296421    1.8981091    1.1881854 
11605000   0.90301683 -0.00010562931   0.56628876 0.0064463012            0   0.55984246    1.3432375    1.9095263   -1.6959542 
11610000   0.93052489 -0.00010229454   0.53409076 0.0021491218            0   0.53194163    1.3841558    1.9182465   -1.5734069 
11615000   0.95792123 2.2705996e-05   0.51054245 0.0014953156            0   0.50904713    1.4249078    1.9354503    2.7104816 
11620000    0.9592075 7.9284023e-05   0.49778909 0.0033281905            0    0.4944609    1.4268212    1.9246102    4.6308382 
11625000   0.95898879 2.683391e-05   0.51105403  0.005037836            0   0.50601619    1.4264958    1.9375499    2.8534806 
11630000   0.91045261 -8.5345663e-05   0.58457296 0.0020343822            0   0.58253858    1.3542983    1.9388712  -0.97426076 
11635000   0.95943174 1.2908692e-05   0.48644774 0.0036889806            0   0.48275876    1.4271547    1.9136025    2.3542191 
11640000   0.95127692 0.0001934522   0.51137123  0.015755131            0    0.4956161    1.4150244    1.9263956    8.5295641 
11645000   0.91077335 5.7132176e-05   0.56103476  0.015818015            0   0.54521675    1.3547754    1.9158101    3.8659217 
11650000   0.91226294 -0.0001864528    0.5533782  0.017734513            0   0.53564369    1.3569911    1.9103693   -4.4538862 
11655000   0.89456856 -0.00019264119   0.58923965  0.011094507            0   0.57814514    1.3306707    1.9199104   -4.6555755 
11660000   0.92394365 8.5197765e-06   0.54810666  0.011901039            0   0.53620562    1.3743662    1.9224728    2.2132812 
11665000   0.95167287 2.950606e-05   0.50622474  0.020738391            0   0.48548635    1.4156134    1.9218381    2.9289783 
11670000   0.89336717 -2.9948963e-05   0.57690311   0.01446757            0   0.56243554    1.3288837    1.9057868   0.88352885 
11675000   0.98123615 0.00012114467   0.47603018 0.0094882357            0   0.46654194    1.4595888     1.935619    6.0706903 
11680000   0.91736095 0.00014865787   0.58179721  0.028954769            0   0.55284244    1.3645744    1.9463716    7.0205603 
11685000   0.90189732 -5.8365325e-05   0.62008716  0.076220722            0   0.54386644    1.3415723    1.9616594 -0.030543658 
11690000   0.94125939 3.1540566e-05   0.56057122  0.035746202            0   0.52482502    1.4001233    1.9606946    3.0372792 
11695000    1.0047839 8.4073694e-05   0.48351054 0.0056220451            0    0.4778885    1.4946161    1.9781266     4.847842 
11700000    1.0014471 -3.1165122e-05   0.50980549 0.0081561862            0    0.5016493    1.4896525     1.999458    0.9356885 
11705000   0.95794966 5.7164601e-05   0.56334162  0.013293097            0   0.55004852    1.4249501    1.9882917    3.9395101 
11710000   0.96406298 -0.00010685639   0.55229101  0.018814747            0   0.53347626    1.4340437    1.9863347   -1.6610301 
11715000   0.95949683 -7.3516174e-05   0.54315831  0.033827282            0   0.50933103    1.4272515    1.9704098  -0.53894222 
11720000   0.96983777 8.4087098e-05   0.55237221  0.038074872            0   0.51429734    1.4426337    1.9950059    4.8651789 
11725000   0.94785187 0.00011958266   0.61409036   0.05935483            0   0.55473553    1.4099297      2.02402     6.105775 
11730000   0.98885927 5.4726384e-05   0.52198094  0.042481583            0   0.47949935    1.4709282    1.9929091     3.860903 
11735000   0.96682123 -2.8049239e-05   0.57996127  0.015070207            0   0.56489106    1.4381466    2.0181078    1.0606938 
11740000    1.0007247 -8.8526007e-06   0.54153894 0.0029391329            0    0.5385998     1.488578     2.030117    1.7279482 
11745000   0.99719418 -9.8543676e-05   0.55264511 0.0079690272            0   0.54467608    1.4833263    2.0359714   -1.3276527 
11750000   0.97902038 2.4685691e-05   0.58830873  0.024994596            0   0.56331413    1.4562928    2.0446015    2.8872065 
11755000   0.98447351 7.3309869e-05    0.5895076  0.045588333            0   0.54391927    1.4644043    2.0539119    4.5562221 
11760000    1.0317068 4.0236489e-06    0.5068591   0.02709102            0   0.47976808    1.5346639     2.041523    2.1788635 
11765000   0.96786323 -4.4690259e-06   0.59098213   0.03654805            0   0.55443408    1.4396966    2.0306787    1.8781359 
11770000    1.0060839 -4.4271642e-05   0.55287027  0.038042007            0   0.51482827    1.4965498    2.0494201   0.53828139 
11775000    1.0057031 0.00018115851   0.55969128  0.059930281            0     0.499761    1.4959834    2.0556747    8.2392184 
11780000    1.0229958 8.8676807e-05    0.5285224  0.043614994            0    0.4849074    1.5217063    2.0502287    5.0770637 
11785000   0.95103288 -6.2787639e-05   0.62432554  0.012044566            0   0.61228098    1.4146614     2.038987  -0.10416445 
11790000   0.89425232 1.9433629e-05   0.69182981  0.025900821            0   0.66592899    1.3302003    2.0220301    2.6853647 
11795000   0.99535843 3.1028533e-05   0.54934124  0.031045054            0   0.51829618    1.4805957    2.0299369    3.0890442 
11800000   0.95872876 -3.6535692e-05      0.62632   0.02321219            0    0.6031078     1.426109     2.052429   0.80534407 
11805000   0.99368332 -6.0081891e-05    0.5616431  0.015464227            0   0.54617887    1.4781039     2.039747 -0.011048176 
11810000   0.92903243 -9.7978178e-06   0.66479743  0.011881329            0    0.6529161    1.3819357    2.0467332     1.712301 
11815000    1.0064846 2.9778677e-05   0.57766164  0.029908209            0   0.54775343    1.4971458    2.0748074    3.0912529 
11820000   0.99001857 -2.665462e-05   0.59555284  0.028457544            0   0.56709529    1.4726526    2.0682055    1.1583944 
11825000    1.0552956 1.3091577e-06    0.5270456  0.022328694            0   0.50471691    1.5697522    2.0967978    2.1414838 
11830000   0.99346597 9.5021402e-05   0.61978632  0.044738941            0   0.57504738    1.4777806     2.097567    5.3409641 
11835000   0.96834723 5.3644229e-05   0.67356537   0.03555096            0   0.63801441    1.4404165    2.1139819    3.9450382 
11840000    1.1097305 2.4003947e-05    0.5011455 0.0064781024            0   0.49466739    1.6507241    2.1518696    2.9712043 
11845000    1.0959523 -7.9434551e-05   0.52192629 0.0012450759            0   0.52068122     1.630229    2.1521553  -0.55921069 
11850000    1.0440143 -0.00011564829   0.59390233 0.0066885975            0   0.58721374    1.5529713    2.1468736   -1.8005879 
11855000     1.094568 6.9163049e-07   0.55187301  0.027760351            0   0.52411266    1.6281699    2.1800429    2.2036505 
11860000    1.1091369 -1.853765e-05   0.51404572  0.022979278            0   0.49106644    1.6498411    2.1638868     1.531135 
11865000    1.0383099 -3.4425822e-05   0.62315318  0.015966582            0    0.6071866     1.544486    2.1676391    0.9925711 
11870000    1.0392709 4.5128213e-06   0.60860457  0.018625735            0   0.58997883    1.5459154      2.15452    2.3085576 
11875000    1.0418712 -5.7903044e-05   0.60401398  0.028835585            0   0.57517839    1.5497835    2.1537974   0.17737356 
11880000    1.0220612 -2.691386e-05   0.64059095  0.050657661            0   0.58993329     1.520316    2.1609069    1.2422472 
11885000    1.0859867 7.9868214e-05   0.54025475  0.021557574            0   0.51869718    1.6154053      2.15566    4.8818284 
11890000    1.0309523 8.3667734e-05   0.63972064  0.016660867            0   0.62305977    1.5335415    2.1732621    5.0291208 
11895000    1.1510448 3.5636271e-05   0.46533763   0.02594114            0   0.43939649    1.7121791    2.1775167    3.3939015 
11900000    1.1028264 -8.4777869e-05   0.54840972  0.019806521            0    0.5286032    1.6404543     2.188864  -0.70488728 
11905000   0.95755114 -0.00015559936   0.73567472 0.0054962117            0   0.73017851    1.4243573     2.160032   -3.1510927 
11910000    1.1066154 -1.6230092e-05   0.52601188 0.00088878265            0    0.5251231    1.6460904    2.1721023    1.6181152 
11915000     1.045717 0.00015719532     0.582682 0.0030965638            0   0.57958543    1.5555041    2.1381861    7.5037862 
11920000     1.076686 7.3263302e-05   0.54007617 0.0050960477            0   0.53498012    1.6015705    2.1416466    4.6423674 
11925000    1.0265626 -2.2098519e-05   0.62415943 0.0068672818            0   0.61729215    1.5270119    2.1511713    1.3968752 
11930000    1.0088502 7.7443973e-05   0.65753007  0.033952357            0   0.62357771    1.5006647    2.1581948    4.8016157 
11935000    1.0674104 -2.2679663e-05   0.55393662  0.030582486            0   0.52335414     1.587773    2.1417096    1.3675771 
11940000    1.0150074 -7.9384368e-05   0.62514262  0.023097165            0   0.60204546    1.5098235    2.1349661  -0.57468698 
11945000    1.0124526 0.00012266314   0.61354401   0.03378515            0   0.57975886    1.5060232    2.1195672    6.3064689 
11950000    1.0985888 7.249719e-05    0.4936562  0.010736212            0   0.48291999    1.6341509    2.1278071    4.6023779 
11955000   0.93789986 3.7663472e-05   0.70083286 0.0078276354            0   0.69300523     1.395126    2.0959589    3.3815387 
11960000     1.009417 6.4455721e-05   0.57767755 0.0075193885            0   0.57015816    1.5015077    2.0791853    4.2792739 
11965000     1.011953 0.00012542448   0.57133469 0.0072228291            0   0.56411186    1.5052801    2.0766148    6.3577705 
11970000   0.97836987 8.5122755e-05   0.61387609  0.017001111            0   0.59687498    1.4553252    2.0692013    4.9747246 
11975000   0.95970585 9.0107735e-06   0.63653244   0.02316595            0   0.61336649    1.4275624    2.0640949    2.3716626 
11980000    1.0047292 -4.1681921e-05   0.56582205  0.012532586            0   0.55328946    1.4945347    2.0603568   0.63761385 
11985000    1.0918698 -1.1961658e-05   0.43027358 0.0089444609            0   0.42132912    1.6241564      2.05443    1.6461387 
11990000    0.9634893 1.8220951e-05   0.62084803  0.012983886            0   0.60786415    1.4331903    2.0540384    2.6759802 
11995000   0.92079519 -0.00016250183   0.66767859  0.018997623            0   0.64868096    1.3696828    2.0373614   -3.5093677 
12000000   0.94478409 -9.2428351e-05   0.63239231  0.006386215            0   0.62600609    1.4053663    2.0377586   -1.1171291 
12005000    1.0514175 -1.2759453e-05   0.48481475 0.0094037866            0   0.47541096    1.5639835    2.0487982    1.6132756 
12010000    1.0487549 -4.717305e-05   0.47826817  0.009046242            0   0.46922192    1.5600229    2.0382911   0.42811763 
12015000    1.0275349 -3.2427956e-05   0.54180408 0.0070616859            0   0.53474239    1.5284582    2.0702623   0.96338805 
12020000   0.98997315 3.2895111e-07    0.6142096  0.016851654            0   0.59735795    1.4725851    2.0867947    2.0980229 
12025000    1.0160861 0.0001274697   0.57284616  0.019635814            0   0.55321034    1.5114281    2.0842742      6.43524 
12030000   0.94559653 7.556597e-05   0.67490217  0.067975518            0   0.60692665    1.4065748     2.081477    4.6607954 
12035000    1.0292966 3.5589223e-05   0.58186217  0.049743227            0   0.53211895    1.5310787    2.1129409    3.3277197 
12040000   0.97156586 -0.00010853613   0.63220915  0.011521947            0    0.6206872    1.4452042    2.0774134   -1.6272865 
12045000   0.99027598 -0.00027925608   0.61858055  0.018644082            0   0.59993647    1.4730355    2.0916161   -7.4403249 
12050000    1.0950031 -7.1561549e-05   0.43366733  0.018121593            0   0.41554574    1.6288171    2.0624844  -0.38014979 
12055000   0.95211688 0.00019934329   0.65619161  0.048749912            0    0.6074417    1.4162739    2.0724655    8.8767166 
12060000    1.0501388 -1.7109351e-05   0.52629368  0.035016348            0   0.49127733    1.5620814    2.0883751    1.5043759 
12065000      1.04652 -0.00013121912   0.54311087 0.0026283064            0   0.54048257    1.5566985    2.0998093   -2.3791364 
12070000    1.0040432 -3.7048755e-05   0.59150399 0.0015108421            0   0.58999315    1.4935142    2.0850182   0.82042073 
12075000    1.0512831 -0.00012684853   0.53515543  0.004846116            0   0.53030931    1.5637837    2.0989391    -2.230824 
12080000    1.0704692 -2.6171463e-05   0.52703338 0.0087275117            0   0.51830587    1.5923229    2.1193563     1.226037 
12085000    1.0524584 9.9958571e-05   0.55154222  0.011887014            0   0.53965521    1.5655319    2.1170741    5.5289933 
12090000    1.0466571 3.969717e-05   0.56703532 0.0094494641            0   0.55758585    1.5569025    2.1239378    3.4789346 
12095000    1.0769151 -9.1641277e-05   0.52255147 0.0077673737            0   0.51478409    1.6019113    2.1244628   -1.0035595 
12100000    1.0991743 -9.1188147e-05   0.48409266 0.0029987496            0   0.48109391    1.6350217    2.1191144  -0.99344104 
12105000    1.0425611 1.8214627e-05   0.57559697 0.0054133925            0   0.57018358    1.5508097    2.1264067    2.7481326 
12110000    1.0547485 4.9618839e-05   0.57672565  0.013751075            0   0.56297458    1.5689384     2.145664    3.8393204 
12115000    1.0602309 -0.00015517056   0.56414901  0.017152143            0   0.54699686    1.5770935    2.1412425   -3.1552458 
12120000    1.0106115 -0.00021456701   0.60442071  0.028423144            0   0.57599757    1.5032847    2.1077054    -5.216182 
12125000    1.0275865 -9.8359516e-05   0.58487197   0.02508523            0   0.55978674    1.5285349    2.1134069   -1.2439313 
12130000      1.02504 0.00014682323   0.58397938  0.028351603            0   0.55562778     1.524747    2.1087264    7.1202926 
12135000     1.051803 3.3548699e-05   0.55707875  0.025116837            0   0.53196191     1.564557    2.1216357    3.2667647 
12140000    1.0298115 -2.7162709e-05   0.58415132  0.037223682            0   0.54692764    1.5318446    2.1159959    1.1888421 
12145000   0.98182431 -1.9326394e-06   0.64901581  0.048572328            0   0.60044349    1.4604637    2.1094795    2.0435121 
12150000    1.0218183 -7.5939101e-05    0.5693718  0.042677763            0   0.52669403    1.5199547    2.0893265  -0.50272818 
12155000     1.032685 -0.0001149744   0.57174042  0.050989867            0   0.52075055    1.5361189    2.1078593   -1.8166003 
12160000    1.0153674 -0.00014852476   0.62912566  0.028290371            0   0.60083529     1.510359    2.1394847   -2.9301605 
12165000    1.0395369 -0.00011587772   0.57627567 0.0046982964            0   0.57157738    1.5463112    2.1225869    -1.832706 
12170000    1.0183411 2.6036415e-05   0.59707036   0.00151558            0   0.59555478    1.5147823    2.1118527    3.0005623 
12175000    1.0119349 6.6004683e-05   0.58075926 0.0022159828            0   0.57854328    1.5052532    2.0860125    4.3389723 
12180000    1.0722337 5.2780118e-05   0.48878903 0.0093361518            0   0.47945288    1.5949477    2.0837367    3.8852981 
12185000    1.0062414 -1.79097e-05   0.57687253  0.028173412            0   0.54869912    1.4967841    2.0736567    1.4623389 
12190000     1.030034 -6.2963325e-05   0.52619009  0.048862317            0   0.47732777    1.5321756    2.0583657 -0.090782464 
12195000    1.0014086 -6.9255485e-05   0.56211509 0.0080941982            0   0.55402089    1.4895953    2.0517104  -0.31221018 
12200000    1.0160854 4.0624462e-05   0.55751785 0.0057791925            0   0.55173866     1.511427    2.0689449    3.4555932 
12205000    1.0260133 8.6197871e-05   0.56461477 0.0050068671            0    0.5596079    1.5261948    2.0908095    5.0330302 
12210000    1.0666646 7.039055e-05   0.49428373 0.0048076076            0   0.48947612    1.5866636    2.0809473    4.4836115 
12215000    1.0196147 -2.656977e-05   0.53357366   0.02761187            0   0.50596179    1.5166768    2.0502505    1.1433357 
12220000   0.97142492 -9.3723909e-05   0.60645316   0.02165117            0   0.58480199    1.4449946    2.0514477   -1.1476617 
12225000   0.92848369 -0.00010172315    0.6462133 0.0076898552            0   0.63852344    1.3811195    2.0273328   -1.4448173 
12230000    1.0450108 -3.9894834e-05    0.5146859  0.014541536            0   0.50014436    1.5544536    2.0691395   0.70739579 
12235000   0.94584981 5.6566699e-05   0.67316951  0.040427389            0   0.63274212    1.4069516    2.0801211    4.0109311 
12240000   0.98185247 4.9509766e-05   0.62428877  0.043062979            0    0.5812258    1.4605055    2.0847943    3.7747277 
12245000      1.03335 1.4374472e-05   0.56230396  0.014206897            0   0.54809707    1.5371081     2.099412    2.5900606 
12250000   0.99028147 -8.1829857e-05   0.61953667  0.064144499            0   0.55539217    1.4730437    2.0925804  -0.70054543 
12255000   0.99737951 -4.927676e-05   0.59043095  0.033274509            0   0.55715644     1.483602     2.074033   0.39205288 
12260000    1.0017037 -2.3725402e-05   0.58819556  0.036280664            0    0.5519149    1.4900342    2.0782298    1.2684027 
12265000   0.98513318 -0.00016561527     0.594399  0.023779948            0   0.57061905    1.4653856    2.0597846   -3.5932167 
12270000    1.0151831 -0.0001777758   0.52466967   0.01417423            0   0.51049544    1.5100849    2.0347546    -4.033326 
12275000   0.99415453 6.2169476e-05   0.57148104 0.0078632117            0   0.56361783    1.4788049    2.0502859    4.1723373 
12280000    0.9503491 0.00017044557   0.64058064  0.013448069            0   0.62713257    1.4136443    2.0542249    7.8721004 
12285000    1.0352372 -8.5114144e-06   0.48221231 0.0084574192            0   0.47375489    1.5399153    2.0221276    1.7316047 
12290000   0.96747503 -7.2021331e-05   0.55571385 0.0046427409            0   0.55107111    1.4391191     1.994833  -0.46349516 
12295000    1.0008569 -6.9547675e-05   0.52489102  0.027523848            0   0.49736717    1.4887747    2.0136657  -0.36022827 
12300000    1.0051821 -6.3159121e-05   0.56149869  0.050497867            0   0.51100082    1.4952083     2.056707 -0.099124331 
12305000   0.98459897 -1.0493832e-05   0.57913768  0.015162726            0   0.56397495     1.464591    2.0437286    1.6855392 
12310000    1.0472298 8.410416e-05    0.4954426 0.0021774825            0   0.49326512    1.5577544     2.053197    4.9239523 
12315000    1.0586233 6.4875348e-05   0.48120413 0.00092965262            0   0.48027448    1.5747022    2.0559063    4.2703182 
12320000    1.0029694 -5.1933112e-05   0.56966937 0.0015770224            0   0.56809234     1.491917    2.0615864   0.28893616 
12325000    1.0880256 -8.1715518e-05   0.43822375  0.008494112            0   0.42972964    1.6184381    2.0566618  -0.73256121 
12330000    1.0108172 -0.00019622633   0.55938261  0.011662326            0   0.54772029    1.5035906    2.0629733   -4.6348854 
12335000   0.99812275 3.4230835e-05   0.56545203  0.015493612            0   0.54995842    1.4847076    2.0501596    3.2185721 
12340000    1.0252681 5.7365841e-05    0.5536421 0.0092078562            0   0.54443425    1.5250863    2.0787284    4.0368157 
12345000    1.0198919 -2.9510757e-05   0.54319414  0.048290668            0   0.49490347    1.5170892    2.0602833    1.0529828 
12350000    1.0255907 -9.9606354e-05   0.52167857  0.031039398            0   0.49063917    1.5255662    2.0472448   -1.3526521 
12355000   0.97188534 -7.5677306e-05   0.57980149   0.03845685            0   0.54134464    1.4456794    2.0254809  -0.55763776 
12360000    1.0059586 2.2820799e-05   0.52756243  0.040583887            0   0.48697854    1.4963634    2.0239259    2.8028758 
12365000    1.0343471 9.0978446e-06   0.47971098  0.016462923            0   0.46324806    1.5385913    2.0183022     2.328842 
12370000   0.99010569 -4.302272e-05    0.5481079  0.010121479            0   0.53798642    1.4727822    2.0208901   0.55238127 
12375000   0.99811681 -6.4128125e-05   0.54880942  0.011452289            0   0.53735714    1.4846988    2.0335082  -0.15539849 
12380000    1.0955321 4.5956003e-05   0.39692932 0.0086273442            0   0.38830197    1.6296041    2.0265334    3.5951649 
12385000     1.057867 4.8269818e-05   0.43429792  0.013829956            0   0.42046797    1.5735771     2.007875    3.6554848 
12390000    1.0143141 -1.243136e-06   0.48612372  0.011728131            0   0.47439559    1.5087923     1.994916    1.9524836 
12395000     1.036882 -1.530081e-05    0.4558876 0.0086838578            0   0.44720374    1.5423619    1.9982495    1.4759819 
12400000   0.97809639 8.0515926e-05   0.53130929 0.0068826674            0   0.52442662    1.4549184    1.9862277    4.7345046 
12405000    1.0069658 9.0415622e-05    0.4788407  0.013864101            0    0.4649766    1.4978616    1.9767023    5.0628888 
12410000    1.0010856 -9.8904026e-05   0.47153128  0.012805824            0   0.45872545    1.4891149    1.9606462   -1.4152779 
12415000   0.96805718 -7.1104191e-05   0.54108363 0.0014278079            0   0.53965582    1.4399851    1.9810687  -0.44595436 
12420000   0.95630936 0.0001079548   0.56479298 0.0020238486            0   0.56276913    1.4225102    1.9873032    5.6721602 
12425000    1.0353806 3.8748971e-05   0.44446167   0.03140219            0   0.41305948    1.5401287    1.9845903    3.3072219 
12430000    1.0039873 1.6895247e-05   0.50169601  0.043924274            0   0.45777174    1.4934311    1.9951271    2.5718182 
12435000   0.98744615 3.6869339e-05   0.52700811 0.0091261489            0   0.51788196    1.4688261    1.9958343    3.2543077 
12440000    1.0405333 3.9197664e-06   0.42491271 0.0084729402            0   0.41643977    1.5477933     1.972706    2.1065007 
12445000     1.002883 -2.8979236e-05   0.47961104    0.0195907            0   0.46002034    1.4917884    1.9713995   0.98224157 
12450000    1.0223888 -1.8498178e-05   0.43436328  0.018865446            0   0.41549784    1.5208034    1.9551666    1.3237622 
12455000   0.99803576 6.7690642e-05   0.46340494  0.049549011            0   0.41385593    1.4845782    1.9479831    4.2584904 
12460000   0.94906025 3.3783309e-05   0.55531355   0.04552533            0   0.50978822    1.4117271    1.9670407    3.1201776 
12465000    1.0037843 1.2587702e-05   0.46456984  0.014006953            0   0.45056289    1.4931291     1.957699    2.3873592 
12470000   0.98505891 0.00012234036   0.49436844 0.0095740673            0   0.48479437    1.4652751    1.9596436    6.1355279 
12475000   0.98512759 -3.5840469e-05   0.50102401  0.026463347            0   0.47456066    1.4653773    1.9664013   0.74304664 
12480000   0.98172061 2.2086189e-05   0.48273971  0.033443876            0   0.44929584    1.4603094    1.9430491    2.6969244 
12485000     1.008774 0.00028452978   0.44888413  0.027287422            0    0.4215967    1.5005513    1.9494354    11.661385 
12490000   0.97624875 0.00012656493   0.48768678  0.023358878            0    0.4643279      1.45217    1.9398568    6.2599397 
12495000   0.99478481 -5.851815e-06   0.47423803  0.022486474            0   0.45175155    1.4797424    1.9539804    1.7542385 
12500000   0.99017639 2.4009808e-05    0.4780131  0.032205689            0   0.44580741    1.4728874    1.9509005    2.7704353 
12505000   0.98198956 2.6520951e-05   0.49261739  0.030622841            0   0.46199455    1.4607095    1.9533269    2.8585753 
12510000   0.96086306 -4.7200592e-06   0.55083419  0.016129532            0   0.53470465    1.4292838     1.980118    1.8190066 
12515000    1.0089119 -4.8434342e-05   0.44851376 0.0046913041            0   0.44382245    1.5007564    1.9492702    0.2960446 
12520000    1.0102562 -2.1864363e-05   0.43533879 0.0040677366            0   0.43127106    1.5027561    1.9380949    1.1917913 
12525000    1.0153341 -8.4019995e-05   0.44482392 0.0095808981            0   0.43524302    1.5103094    1.9551334  -0.91274915 
12530000   0.95548262 -4.0989855e-05   0.52279168  0.014115599            0   0.50867608    1.4212804    1.9440721    0.5449517 
12535000   0.98841316 -6.0201574e-05    0.4596363  0.023504863            0   0.43613143    1.4702646    1.9299009  -0.12497952 
12540000   0.99189196 -5.5266212e-05   0.43781134  0.040332825            0   0.39747851    1.4754393    1.9132506  0.026830584 
12545000   0.94553987 2.2832754e-05   0.50896051   0.02247831            0    0.4864822    1.4064906    1.9154511    2.6948091 
12550000   0.94499329 -4.009311e-05    0.4998971  0.012389073            0   0.48750803    1.4056775    1.9055746   0.53706315 
12555000   0.95748953 8.6878928e-05   0.44453076 0.0070651702            0   0.43746559    1.4242657    1.8687964    4.8342639 
12560000   0.96581223 0.00022075344   0.44664228 0.0033718541            0   0.44327043    1.4366457     1.883288    9.4183386 
12565000    0.9555487 -5.7124436e-05   0.44671286 0.0081527835            0   0.43856007    1.4213787    1.8680916 -0.081755851 
12570000   0.92303587 -0.00010277323    0.4856656  0.032475881            0   0.45318972    1.3730159    1.8586815   -1.6493113 
12575000   0.88876302 -3.7869397e-06   0.52176823  0.020291504            0   0.50147672     1.322035    1.8438032    1.7145423 
12580000   0.92369815 -0.00017678201    0.4583416  0.017695192            0   0.44064641     1.374001    1.8323426   -4.2018165 
12585000    0.9011137 1.4206419e-05   0.49579377  0.017512637            0   0.47828113    1.3404066    1.8362004    2.3211128 
12590000   0.95113784 6.9144178e-05   0.41229047  0.014246313            0   0.39804416    1.4148175     1.827108    4.1872293 
12595000   0.88510913 7.5703748e-05   0.50733414  0.016215304            0   0.49111883    1.3165998     1.823934    4.4079552 
12600000   0.87311172 0.00013761269   0.54827832   0.02083092            0    0.5274474    1.2987537     1.847032    6.5442117 
12605000   0.93979332 -6.9757957e-05   0.45721532  0.037707686            0   0.41950764    1.3979426    1.8551579  -0.52591371 
12610000   0.91338195 -1.9447906e-05    0.5470676  0.022372469            0   0.52469513    1.3586557    1.9057233    1.2419014 
12615000   0.97709058 8.9808491e-05   0.44556012  0.014878144            0   0.43068198    1.4534222    1.8989824    4.9644455 
12620000   0.95423663 4.9635518e-05   0.46300156  0.027788874            0   0.43521269     1.419427    1.8824285    3.5766542 
12625000   0.94905356 0.0001118011     0.467562  0.024440387            0   0.44312161    1.4117172    1.8792792    5.6954234 
12630000   0.98765237 -3.4096922e-05   0.43857402  0.021559003            0   0.41701501    1.4691329    1.9077069   0.74386532 
12635000   0.94943807 2.5851466e-05    0.5092854  0.039442158            0   0.46984325    1.4122891    1.9215745    2.8039712 
12640000   0.93096394 -5.9536328e-05   0.55080807  0.052054964            0    0.4987531    1.3848089    1.9356169   -0.0965564 
12645000   0.93206858 -9.7034052e-05   0.54039296  0.015132492            0   0.52526047     1.386452     1.926845   -1.3852507 
12650000   0.90383696 3.0520003e-05   0.57145517 0.00024316898            0     0.571212    1.3444575    1.9159126    2.9576621 
12655000   0.94116933 -0.00011373799   0.50553235 0.0006953565            0     0.504837    1.3999894    1.9055217    -1.976735 
12660000   0.95053441 -2.1333048e-05   0.47190197  0.016241681            0   0.45566029    1.4139199    1.8858219    1.1576539 
12665000   0.99451156 3.4444348e-05   0.39743786  0.047064812            0   0.35037305    1.4793359    1.8767738    3.0524742 
12670000   0.88715133 -7.3572254e-05   0.55613296  0.021943055            0    0.5341899    1.3196376    1.8757706   -0.6354957 
12675000    0.9022617 1.5484954e-05   0.52315442 0.0019572567            0   0.52119717    1.3421143    1.8652687    2.3938218 
12680000   0.91890949 3.1638172e-05    0.5010289 0.0045559222            0   0.49647298    1.3668779    1.8679068     2.947823 
12685000   0.89616148 8.3863706e-05   0.53062931   0.01384117            0   0.51678814    1.3330402    1.8636695    4.7262173 
12690000   0.91371772 9.7298898e-05   0.51424654  0.032856823            0   0.48138971    1.3591551    1.8734016    5.1945374 
12695000   0.96943813 4.003708e-05   0.45361608  0.018623865            0   0.43499221    1.4420392    1.8956553    3.2622543 
12700000   0.95985182 -0.00010084342   0.46657912 0.0026942406            0   0.46388488    1.4277796    1.8943587   -1.5477635 
12705000   0.92000453 -8.3974899e-05   0.51802647 0.0072485809            0   0.51077789    1.3685067    1.8865332  -0.97980999 
12710000   0.92842617 -6.4573934e-05   0.51364701  0.019402294            0   0.49424471    1.3810339    1.8946809   -0.3094427 
12715000   0.97761052 -5.0096662e-05   0.41201479  0.018692984            0    0.3933218    1.4541957    1.8662104   0.15624436 
12720000    0.9221127 2.3935769e-06   0.48854753 0.0098446425            0   0.47870289    1.3716426    1.8601902    1.9418909 
12725000   0.87810679 -5.6673221e-06   0.54502781 0.0098748125            0     0.535153    1.3061839    1.8512117    1.6577671 
12730000   0.94644482 -0.00010014596   0.45016936   0.02212548            0   0.42804388    1.4078367     1.858006   -1.5603093 
12735000   0.97909416 1.3642517e-05   0.42758331  0.018702547            0   0.40888076    1.4564026    1.8839859    2.3496505 
12740000   0.92918761 2.0578246e-05   0.49122544  0.017400171            0   0.47382527    1.3821666     1.873392    2.5757961 
12745000   0.92171117 7.6433883e-06   0.46895334   0.02281062            0   0.44614272    1.3710454    1.8399987     2.100893 
12750000   0.84330967 -0.00013293578   0.57646899  0.012167873            0   0.56430111    1.2544231    1.8308921   -2.7066493 
12755000   0.83821926 -9.3933666e-05   0.57875566 0.0022619795            0   0.57649368    1.2468511    1.8256068   -1.3806623 
12760000   0.94658786 8.9917602e-05   0.42128022 0.0042323916            0   0.41704783    1.4080494    1.8293297    4.8985171 
12765000   0.90890329 -6.6588622e-05   0.47331253  0.018837621            0    0.4544749    1.3519936    1.8253062  -0.44758545 
12770000   0.90374507 -9.2017324e-05   0.46832898  0.040610186            0   0.42771879    1.3443208    1.8126498   -1.3282082 
12775000   0.90913495 0.00016963916   0.45817921  0.027642113            0    0.4305371    1.3523382    1.8105174    7.6008675 
12780000   0.82737114 0.00017122182    0.5711791  0.014903651            0   0.55627545    1.2307146    1.8018937     7.646265 
12785000   0.86042486 5.4906487e-05    0.5133512  0.011576189            0   0.50177501     1.279882    1.7932332    3.6673746 
12790000    0.8613926 -4.6707489e-05   0.52263469   0.01175635            0   0.51087834    1.2813215    1.8039562    0.2096739 
12795000   0.89967189 1.9969717e-06   0.45380168 0.0088542647            0   0.44494742    1.3382619    1.7920636    1.8602269 
12800000     0.846298 -1.8134893e-05   0.52557928  0.012904574            0    0.5126747    1.2588683    1.7844476    1.1654432 
12805000   0.86502621 -3.3829094e-05    0.4838164  0.012359178            0   0.47145722    1.2867265    1.7705429   0.61584314 
12810000   0.87922525 -8.2672546e-05   0.47252275 0.0059569475            0    0.4665658    1.3078476    1.7803703   -1.0415193 
12815000   0.86181346 -3.1837934e-05   0.50593151   0.02682448            0   0.47910703    1.2819475     1.787879   0.70114423 
12820000   0.88166372 -4.190519e-06   0.48657773  0.019154494            0   0.46742323    1.3114748    1.7980525    1.6550161 
12825000   0.91454132 2.7882011e-05   0.45769229  0.023942575            0   0.43374971    1.3603802    1.8180725    2.7697785 
12830000   0.88180606 6.7368723e-05    0.5206745  0.014747804            0    0.5059267    1.3116865     1.832361    4.1318801 
12835000   0.92098436 -4.2785898e-05   0.46290853  0.013697412            0   0.44921112    1.3699642    1.8328728   0.37244745 
12840000   0.89227882 -9.4353553e-05   0.49888943 0.0076575232            0    0.4912319    1.3272647    1.8261542   -1.3944471 
12845000   0.85420535 -6.9920097e-05   0.55775275 0.0037163027            0   0.55403645    1.2706305    1.8283832  -0.55822276 
12850000   0.90665897 -1.1625358e-06   0.47503443 0.0056118685            0   0.46942256    1.3486552    1.8236897    1.7840084 
12855000   0.88510571 -2.5801499e-05   0.49842138 0.0049692201            0   0.49345216    1.3165947    1.8150161   0.93432496 
12860000   0.95330962 -1.3428043e-05   0.41905381 0.0048831082            0   0.41417071    1.4180481    1.8371019     1.378758 
12865000   0.82333738 8.1195405e-05   0.61351304  0.015082445            0   0.59843059    1.2247144    1.8382274    4.6096972 
12870000   0.87164128 3.4471745e-05   0.52857795  0.032887727            0   0.49569022    1.2965664    1.8251443    3.0017799 
12875000   0.86822598 -0.00010284231   0.50931916  0.044423321            0   0.46489584    1.2914862    1.8008053   -1.7095457 
12880000   0.88911421 9.4160855e-05   0.51249403  0.020764473            0   0.49172955    1.3225574    1.8350514    5.0490753 
12885000   0.89705425 0.00017669813   0.50669746 0.0082984997            0   0.49839896    1.3343682    1.8410657    7.8723617 
12890000   0.86894209 -6.1461326e-05   0.56300365  0.014310209            0   0.54869344    1.2925514     1.855555  -0.24232491 
12895000   0.97019649 4.4923962e-05   0.41524957 0.0054408943            0   0.40980867    1.4431673    1.8584168    3.3918214 
12900000   0.88580424 0.00012349359   0.55912887 0.00064886699            0      0.55848    1.3176338    1.8767627    6.0920104 
12905000   0.93049944 0.00011794865   0.50397541 0.0035762733            0   0.50039914    1.3841179    1.8880933     5.914074 
12910000   0.94195523 0.00011083274   0.46876076  0.016549582            0   0.45221117    1.4011584    1.8699192    5.6530101 
12915000   0.86215003 -0.00012626885    0.5975244  0.037706709            0   0.55981769    1.2824482    1.8799726   -2.4300042 
12920000   0.97016737 -3.7673546e-05   0.44262163  0.051653265            0   0.39096836     1.443124    1.8857456    0.5998219 
12925000   0.93943571 0.00010790483   0.47991945 0.0088908462            0    0.4710286    1.3974106    1.8773301    5.5604814 
12930000   0.92155353 7.0667306e-05   0.51410431 0.0089769673            0   0.50512734    1.3708109    1.8849152    4.2970259 
12935000   0.94801833 1.3184023e-05   0.48022735  0.023504606            0   0.45672274    1.4101773    1.8904046    2.3404193 
12940000   0.89581567 -7.1531591e-05   0.56427934  0.025226718            0   0.53905262    1.3325258    1.8968052  -0.54480648 
12945000   0.95660674 2.7889841e-05   0.47421226  0.018094723            0   0.45611754    1.4229525    1.8971648     2.849138 
12950000   0.92291186 3.8525022e-05    0.5439441  0.022775163            0   0.52116894    1.3728314    1.9167755    3.2317629 
12955000   0.92519765 5.8096415e-05   0.56057638  0.037341516            0   0.52323487    1.3762315    1.9368079    3.9198322 
12960000   0.92599183 0.00013645363   0.55252712  0.052291153            0   0.50023597    1.3774128      1.92994    6.5875574 
12965000   0.90982772 -1.558327e-05   0.58472173  0.031211492            0   0.55351023    1.3533687    1.9380905    1.4061815 
12970000   0.93439312 -0.00012199013   0.55836173   0.01259225            0   0.54576948    1.3899098    1.9482715   -2.2156584 
12975000   0.99299759 3.1866074e-05   0.49077647 0.0054051315            0   0.48537134    1.4770839    1.9678604    3.0555557 
12980000    1.0001737 2.4572385e-05   0.49470407 0.0028785185            0   0.49182555    1.4877583    1.9824624    2.8211998 
12985000    1.0299092 -1.1780257e-05   0.46809301 0.0043362579            0   0.46375676    1.5319899    2.0000829    1.5979835 
12990000   0.95831316 -4.5431055e-05   0.57335531  0.012677252            0   0.56067806    1.4254908    1.9988461   0.44813281 
12995000   0.98743469 -1.9188904e-05   0.51717711  0.037086852            0   0.48009026    1.4688091    1.9859862     1.331005 
13000000   0.96752711 -3.8816695e-05   0.52636916  0.052817661            0    0.4735515    1.4391966    1.9655657   0.64062254 
13005000   0.99742528 -7.068176e-05   0.50283024  0.018920724            0   0.48390952    1.4836701    1.9865003  -0.42610374 
13010000   0.99172774 6.2184213e-06    0.5019619 0.0094475593            0   0.49251434     1.475195    1.9771569    2.1894124 
13015000   0.95102364 -0.00016576529   0.53289803 0.0028733475            0   0.53002469    1.4146477    1.9475457   -3.7105763 
13020000   0.95882568 -0.00021268664   0.50578205 0.0050397196            0   0.50074233    1.4262532    1.9320353   -5.3276687 
13025000   0.93020288 -8.2003787e-05   0.56771837   0.01664746            0   0.55107091    1.3836768    1.9513952  -0.84766744 
13030000   0.99417836 9.0986979e-05   0.46805048  0.032678995            0   0.43537148    1.4788403    1.9468908    5.0525797 
13035000   0.93512123 0.00018787716   0.53441439  0.022005021            0   0.51240937    1.3909928    1.9254072     8.338281 
13040000   0.92635436 6.0858942e-05   0.51745595  0.013760493            0   0.50369545    1.3779521    1.8954081    3.9727266 
13045000   0.92478198 -0.00013583475   0.53483842   0.03786208            0   0.49697634    1.3756132    1.9104516   -2.7260413 
13050000   0.91996131 -0.00015070055   0.55922313    0.0201268            0   0.53909633    1.3684424    1.9276656   -3.2162465 
13055000   0.96425369 -4.8504656e-06   0.48985912 0.0079820793            0   0.48187704    1.4343274    1.9241865    1.7586239 
13060000   0.94014527 -4.7742443e-05   0.54075586  0.028187426            0   0.51256844    1.3984661     1.939222   0.30961325 
13065000   0.87299998 -3.057015e-05   0.62170995   0.02016196            0   0.60154799    1.2985875    1.9202974   0.87683631 
13070000   0.98555566 0.00020932157   0.44828689 0.0090079536            0   0.43927893     1.466014    1.9143009    9.0591438 
13075000   0.88428867 0.00013853504   0.59903395   0.01095879            0   0.58807516    1.3153794    1.9144133    6.6430761 
13080000   0.90980342 -0.00011584512   0.55588777  0.013451927            0   0.54243584    1.3533326    1.9092204   -2.0449596 
13085000   0.94730023 -0.00011911903   0.51235254   0.01514186            0   0.49721068    1.4091091    1.9214616   -2.1444679 
13090000    1.0136042 -0.00010028364   0.42184598 0.0095851367            0   0.41226085    1.5077362    1.9295822   -1.4934327 
13095000   0.98728885 -8.6512772e-05   0.46655536   0.01540378            0   0.45115158    1.4685922    1.9351475   -1.0178218 
13100000   0.90999811 3.4471116e-05   0.59845571  0.039305069            0   0.55915064    1.3536222    1.9520779     3.128692 
13105000   0.94740323 1.905686e-06   0.55849253  0.052377995            0   0.50611454    1.4092623    1.9677548    2.0328023 
13110000   0.96873947 0.00014673119   0.53396403  0.021269138            0   0.51269489        1.441     1.974964    6.9833885 
13115000   0.97807391 0.00018310065   0.52272928  0.011055902            0   0.51167338    1.4548849    1.9776142    8.2274497 
13120000   0.97568837 -7.5501694e-05   0.52112138  0.012527265            0   0.50859411    1.4513364    1.9724578  -0.60466666 
13125000   0.92906107 -6.4017001e-05   0.56425795 0.0059247832            0   0.55833317    1.3819783    1.9462363  -0.23887734 
13130000   0.98387879 -7.4884062e-05   0.47373374 0.0080097967            0   0.46572394    1.4635197    1.9372534  -0.61878923 
13135000   0.96032942 -0.00014324791   0.49853147  0.016564903            0   0.48196657      1.42849    1.9270215   -2.9625072 
13140000   0.97016533 -5.8649162e-05    0.4984818 0.0099879458            0   0.48849385    1.4431209    1.9416027 -0.060288667 
13145000   0.95619243 0.00012809767    0.5224582  0.022170821            0   0.50028738    1.4223362    1.9447944    6.3171951 
13150000   0.99644979 2.2391173e-07   0.47368844  0.039210394            0   0.43447804    1.4822191    1.9559075    1.9635504 
13155000    0.9763644 -4.1099554e-05   0.49517614  0.016742868            0   0.47843328     1.452342    1.9475182   0.54465342 
13160000   0.94345381 -4.3680201e-06   0.58106711   0.01598144            0   0.56508567    1.4033875    1.9844547    1.8353596 
13165000    0.9898327 1.7498957e-05    0.5153548  0.022228455            0   0.49312634    1.4723761    1.9877309    2.5850287 
13170000    1.0045038 -4.609088e-05   0.49076832  0.029218958            0   0.46154936    1.4941995    1.9849678   0.41173241 
13175000   0.96429854 -0.0001965556   0.56833711   0.02199021            0    0.5463469    1.4343941    2.0027312   -4.7063668 
13180000    1.0190594 6.6700192e-05   0.48967405 0.0094104943            0   0.48026356    1.5158508    2.0055249    4.2822248 
13185000   0.97212212 0.0001680729   0.57194907  0.019661517            0   0.55228756    1.4460317    2.0179807    7.7548689 
13190000   0.98510086 0.00015771197   0.55240527  0.028877321            0   0.52352795    1.4653375    2.0177428     7.400978 
13195000    1.0447217 9.0851549e-05   0.45086893  0.028014847            0   0.42285409    1.5540236    2.0048925    5.1059587 
13200000    0.9814881 -2.6875552e-06   0.52930901  0.019490115            0    0.5098189    1.4599636    1.9892726    1.8975373 
13205000    1.0049442 7.6900765e-06   0.50691296 0.0098021418            0   0.49711081    1.4948545    2.0017675    2.2642554 
13210000   0.99004895 4.4108952e-05   0.53396176 0.0018399168            0   0.53212184    1.4726978    2.0066596    3.5122451 
13215000   0.98438778 0.00013922077   0.54853776  0.013525624            0   0.53501214    1.4642768    2.0128146    6.7648836 
13220000   0.97773503 -1.5756154e-06   0.56801782  0.028374439            0   0.53964338    1.4543809    2.0223987    1.9686177 
13225000    1.0025822 -6.3813447e-05    0.5422732  0.020552396            0    0.5217208     1.491341    2.0336142  -0.14455144 
13230000    1.0261773 0.00011677414   0.47874041  0.023009709            0    0.4557307    1.5264387    2.0051791    5.9910698 
13235000    1.0078372 -6.9426538e-06   0.51192746  0.026533727            0   0.48539373    1.4991579    2.0110853    1.7741094 
13240000   0.97051235 -8.964374e-05   0.55429871  0.014802012            0    0.5394967    1.4436371    1.9979358   -1.0619038 
13245000   0.98173483 -5.7844894e-05   0.54277733   0.01322167            0   0.52955566    1.4603306    2.0031079  0.028668834 
13250000   0.96985524 -9.812408e-05   0.56895125  0.051400292            0   0.51755096    1.4426597    2.0116109    -1.337691 
13255000   0.99339547 -4.0054461e-05   0.52270152  0.039845396            0   0.48285613    1.4776758    2.0003773   0.63318502 
13260000   0.98526262 0.00015971462   0.51110224  0.015319802            0   0.49578244    1.4655781    1.9766804    7.4282726 
13265000    1.0017302 0.00024684704   0.48825252  0.012802266            0   0.47545025    1.4900737    1.9783262    10.404038 
13270000   0.97390288 6.9334769e-05   0.49931194  0.021714533            0   0.47759741    1.4486805    1.9479925    4.3146193 
13275000   0.93976134 -5.2232727e-05    0.5396961  0.031491586            0   0.50820451     1.397895    1.9375911   0.15471401 
13280000    1.0161229 8.3360583e-05   0.44401046  0.025710143            0   0.41830032    1.5114829    1.9554933    4.8008679 
13285000   0.94178389 8.1629503e-05   0.56834383  0.034699931            0    0.5336439    1.4009035    1.9692474    4.7555344 
13290000   0.99587787 1.8839142e-05   0.47696067  0.010143426            0   0.46681724    1.4813683     1.958329    2.6013717 
13295000   0.99825307 -0.00012225203   0.47849089 0.0087894381            0   0.46970145    1.4849014    1.9633923   -2.2094771 
13300000   0.97007685 0.00011532627   0.52911262  0.035465283            0   0.49364733    1.4429893    1.9721019     5.908572 
13305000    1.0269517 3.6697057e-06   0.44051622   0.02567778            0   0.41483844    1.5275906    1.9681069    2.0933662 
13310000   0.96354537 5.1576139e-06   0.53597184  0.025332913            0   0.51063893    1.4332737    1.9692456    2.1452921 
13315000   0.99704275 0.00013411172    0.4714988  0.026409548            0   0.44508925    1.4831011    1.9545999    6.5322798 
13320000   0.96460473 0.00010754231   0.49890264   0.08468331            0   0.41421933    1.4348495    1.9337522    5.6045297 
13325000   0.98298232 2.7339458e-05     0.497404  0.015768008            0   0.48163599    1.4621862    1.9595902     2.892777 
13330000    1.0065066 -1.194529e-05    0.4656239  0.015343653            0   0.45028024    1.4971785    1.9628024    1.5550699 
13335000   0.95559057 -2.1845258e-05   0.56562009 0.0059434991            0   0.55967659     1.421441    1.9870611    1.2414096 
13340000     0.968018 -6.0626554e-05    0.5284733  0.010729792            0   0.51774351    1.4399268    1.9684001  -0.10098628 
13345000    1.0308844 1.6313043e-06   0.42504408  0.016613051            0   0.40843103    1.5334406    1.9584847    2.0141665 
13350000    1.0139381 0.00023392943   0.46586014 0.0073451451            0     0.458515    1.5082329    1.9740931    9.9588843 
13355000    1.0002064 0.00014194834   0.47156121 0.0025300964            0   0.46903111     1.487807    1.9593682    6.8045381 
13360000   0.99161663 -6.1442162e-05    0.4859081 0.0092355967            0    0.4766725    1.4750297    1.9609378  -0.13628797 
13365000   0.95729052 -0.00017679405   0.52765015  0.041250336            0   0.48639981    1.4239696    1.9516198   -4.0829506 
13370000   0.95088459 -0.00017563437   0.51594331  0.045840401            0   0.47010291    1.4144408    1.9303841   -4.0646022 
13375000   0.94140675 -3.5994986e-05   0.51736111 0.0094433619            0   0.50791775    1.4003425    1.9177036   0.68907478 
13380000   0.98184111 -3.5483131e-05   0.47395738 0.0065447529            0   0.46741263    1.4604887     1.934446   0.72328851 
13385000    1.0118775 -5.169674e-05   0.40742716  0.012373974            0   0.39505319    1.5051678     1.912595   0.14801293 
13390000     0.972339 -8.7556967e-05   0.45695376  0.013048431            0   0.44390533    1.4463543     1.903308   -1.0853031 
13395000   0.95755375 0.00010199026   0.47315937  0.018277584            0   0.45488179    1.4243612    1.8975206    5.3787882 
13400000   0.93978902 -1.2879701e-05   0.49372652  0.036861818            0   0.45686471    1.3979362    1.8916627    1.4520356 
13405000   0.94491654 1.1023293e-05   0.49546739 0.0056460873            0    0.4898213    1.4055634    1.9010307    2.2772925 
13410000    0.9198972 -1.1648479e-05   0.50055465 0.0043461567            0   0.49620849    1.3683471    1.8689017    1.4713003 
13415000   0.94828094 3.2111914e-05   0.45790548  0.023469208            0   0.43443628    1.4105679    1.8684734      2.96456 
13420000   0.95214523 -5.1109397e-05   0.45011107  0.031647033            0   0.41846403     1.416316    1.8664271     0.121893 
13425000   0.95128028 0.00010238915   0.43770221 0.0073442961            0   0.43035791    1.4150294    1.8527316    5.3476145 
13430000   0.96963493 0.00017670458   0.40631068 0.0022283148            0   0.40408237     1.442332    1.8486426    7.8801588 
13435000   0.97237308 8.4957403e-05   0.41305053  0.013886209            0   0.39916432     1.446405    1.8594555    4.7593348 
13440000   0.90986277 1.9509181e-05   0.53388003  0.028103958            0   0.50577607    1.3534209    1.8873009    2.5532143 
13445000   0.88896906 -6.2321506e-05   0.56062065  0.041579814            0   0.51904083    1.3223415    1.8829621  -0.24427862 
13450000   0.93564976 -7.7814071e-05   0.47604169  0.032394378            0   0.44364731     1.391779    1.8678207   -0.7882329 
13455000   0.93825276 4.0720687e-05   0.45174502  0.017942506            0   0.43380251     1.395651     1.847396    3.2373288 
13460000   0.95819415 0.00010798523   0.44456018  0.025653187            0     0.418907    1.4253138     1.869874    5.5557697 
13465000   0.95388063 -7.3098439e-05   0.44584952  0.032026778            0   0.41382275    1.4188974     1.864747  -0.63034641 
13470000   0.96256572 0.00012176221   0.44172536  0.045618283            0   0.39610708    1.4318165    1.8735419    6.0296921 
13475000    1.0106804 -3.5636176e-06   0.37256581  0.017431684            0   0.35513412     1.503387    1.8759528    1.7543147 
13480000   0.95706372 3.2661096e-05   0.43970803  0.017065972            0   0.42264205    1.4236323    1.8633403    2.9781724 
13485000   0.94185856 0.0001126214   0.47665579  0.041114727            0   0.43554106    1.4010146    1.8776704     5.721814 
13490000   0.92011314 0.00010909204   0.51546538  0.040992802            0   0.47447258    1.3686683    1.8841337    5.6078087 
13495000   0.93066746 0.00023838967   0.47348575  0.022537914            0   0.45094783    1.3843678    1.8578536    9.9948877 
13500000   0.97807724 8.8172548e-05   0.39639178  0.053276594            0   0.34311519    1.4548899    1.8512817    4.8609046 
13505000   0.92243426 -2.4444924e-05   0.46312926  0.042737588            0   0.42039167     1.372121    1.8352502    1.0008635 
13510000   0.85144905 -9.5134144e-06   0.55891813  0.019205416            0   0.53971271    1.2665305    1.8254486    1.5007241 
13515000   0.89397295 -8.5059775e-05   0.50637684  0.015409275            0   0.49096756    1.3297848    1.8361616   -1.0672121 
13520000   0.90996093 -7.1680513e-05   0.47850449  0.029150628            0   0.44935386    1.3535669    1.8320714  -0.61462346 
13525000   0.90668858 -2.137162e-05    0.5217611 0.0062338074            0   0.51552729    1.3486993    1.8704604    1.1409757 
13530000   0.95314422 -9.1990239e-05    0.4732625  0.018121502            0     0.455141     1.417802    1.8910645    -1.248869 
13535000   0.95169063 -4.9566011e-05   0.46571598   0.02222322            0   0.44349276    1.4156398    1.8813558   0.18950264 
13540000   0.98098821 0.00012855473   0.42637065 0.0069969281            0   0.41937372      1.45922    1.8855906    6.2735921 
13545000   0.91229616 0.00011666637    0.5141268  0.019937805            0   0.49418899    1.3570405    1.8711673    5.8533795 
13550000   0.91176772 0.00010122263   0.50463865   0.03023249            0   0.47440616    1.3562545    1.8608931     5.315959 
13555000    0.9247618 2.6765383e-05   0.46669121  0.027309585            0   0.43938163    1.3755832    1.8422744    2.7558661 
13560000   0.89037017 -0.00010911816    0.5086961   0.01688546            0   0.49181064    1.3244256    1.8331217   -1.8914449 
13565000   0.98090014 9.1950359e-05    0.3977831  0.012133637            0   0.38564947     1.459089    1.8568721    4.9954443 
13570000   0.89723185 7.9243506e-07   0.50920025  0.049253741            0    0.4599465    1.3346324    1.8438326    1.8708811 
13575000   0.95396094 -1.9189243e-05   0.44565685   0.05025458            0   0.39540227    1.4190169    1.8646738    1.2096809 
13580000    0.9694821 3.5423299e-05   0.42056514  0.031649475            0   0.38891567    1.4421046    1.8626698     3.071785 
13585000   0.91024715 -0.00010704515   0.49428324  0.027293641            0    0.4669896    1.3539926    1.8482759    -1.805532 
13590000   0.94059875 -4.7183383e-06   0.44831972  0.011873498            0   0.43644622    1.3991406    1.8474604    1.6864077 
13595000   0.91442234 -3.6984745e-05   0.49756024 0.0087614482            0   0.48879879    1.3602032    1.8577635   0.59535085 
13600000    0.9347952 -6.5202657e-05   0.45414361 0.0046108704            0   0.44953274    1.3905079    1.8446515  -0.38093258 
13605000   0.95303974 4.6720025e-05   0.43427221  0.011482303            0    0.4227899    1.4176466    1.8519188     3.446629 
13610000   0.92314663 3.6371182e-05    0.4880623  0.003396717            0   0.48466558    1.3731806    1.8612429    3.1027126 
13615000   0.92723542 -3.9793963e-05   0.46186311 0.0064080998            0   0.45545501    1.3792627    1.8411258   0.48282521 
13620000   0.95706001 -0.00010909312   0.42797163  0.015869561            0   0.41210207    1.4236268    1.8515984   -1.8721136 
13625000   0.93971304 4.798666e-05   0.48168205   0.01065509            0   0.47102696    1.3978232    1.8795052    3.5174499 
13630000   0.96214914 0.00014912953   0.46263823  0.012368454            0   0.45026978    1.4311969    1.8938351    6.9841229 
13635000   0.95476365 -6.0628411e-06   0.46113382 0.0070244844            0   0.45410933    1.4202109    1.8813448    1.6743998 
13640000   0.94820445 -3.0612315e-05   0.47239868  0.011711669            0   0.46068701    1.4104541    1.8828528   0.83795246 
13645000   0.91305503 -2.8237109e-05   0.52916887  0.030447057            0   0.49872181    1.3581694    1.8873382   0.92351159 
13650000   0.93098199 -7.9930399e-05   0.50124803  0.026477607            0   0.47477043    1.3848357    1.8860837  -0.84220722 
13655000   0.99721838 1.2495484e-05   0.40643787  0.022872315            0   0.38356555    1.4833623    1.8898002    2.3163127 
13660000   0.92633566 -3.9964002e-05   0.50679447  0.015119696            0   0.49167478    1.3779243    1.8847188   0.52061415 
13665000   0.90140949 -2.4353102e-05   0.53655029 0.0069296124            0   0.52962068    1.3408466    1.8773969    1.0461444 
13670000   0.89808281 -2.7654915e-05    0.5437539 0.0040197092            0   0.53973419    1.3358982    1.8796521   0.93569762 
13675000    0.9277614 2.8474493e-05   0.47826214  0.019200814            0   0.45906133    1.3800451    1.8583072    2.8302366 
13680000   0.91455762 -2.2226014e-05   0.51405324  0.026386458            0   0.48766678    1.3604045    1.8744577    1.1158097 
13685000   0.90056872 1.5067128e-05   0.54406613  0.029161257            0   0.51490488     1.339596    1.8836621    2.3979534 
13690000   0.94338901 -2.8538641e-05   0.48785517  0.014573674            0   0.47328149    1.4032912    1.8911463   0.91702738 
13695000   0.90419206 -4.5416776e-05   0.55901418  0.019756537            0   0.53925764    1.3449857    1.9039999   0.35377392 
13700000   0.90857114 -8.0377221e-05   0.56933004  0.037494873            0   0.53183516    1.3514996    1.9208296  -0.82271288 
13705000    1.0108466 -5.3011509e-05   0.42819196  0.023462611            0   0.40472935    1.5036344    1.9318263   0.12236681 
13710000   0.99744681 1.8031404e-05   0.45701382  0.024547204            0   0.43246662    1.4837021     1.940716    2.5561879 
13715000   0.94897408 4.4875835e-05   0.52501973  0.019746121            0    0.5052736    1.4115989    1.9366187    3.4683805 
13720000   0.97265952 -4.8056696e-05   0.47810487  0.012487156            0   0.46561771     1.446831    1.9249359    0.2846007 
13725000   0.96214087  1.57105e-05   0.49659416  0.025744581            0   0.47084958    1.4311845    1.9277787    2.4640304 
13730000   0.96513799 0.00014054598   0.49494994  0.027177633            0   0.46777231    1.4356428    1.9305927    6.7278956 
13735000   0.98080142 0.00011787338    0.4791652  0.017997592            0    0.4611676    1.4589421    1.9381073    5.9615186 
13740000   0.91606407 -6.8585987e-06   0.57164236  0.030139038            0   0.54150333    1.3626453    1.9342877    1.7001808 
13745000   0.97557065 -2.0912691e-05   0.46873173  0.024081141            0   0.44465059    1.4511613    1.9198931    1.2060732 
13750000   0.95512034 5.3536195e-05   0.51630588  0.003165351            0   0.51314053    1.4207415    1.9370474    3.7644162 
13755000   0.96022404 9.6838371e-05   0.50026162 0.0070139198            0    0.4932477    1.4283333    1.9285949    5.2340113 
13760000   0.93884243 5.7523936e-05   0.52810597  0.013357484            0   0.51474848    1.3965281    1.9246341    3.8881178 
13765000   0.98160772 -3.9997885e-05   0.47985861 0.0072499966            0   0.47260861    1.4601415    1.9400001   0.57473897 
13770000   0.95534914 7.1748128e-05   0.51370915   0.01118468            0   0.50252447    1.4210818     1.934791    4.3837938 
13775000   0.91112597 0.00010700932   0.56385468  0.019969671            0   0.54388501    1.3552999    1.9191546    5.5717394 
13780000   0.93632373 3.7564337e-05   0.51071777  0.015917644            0   0.49480013    1.3927816    1.9034993    3.1856954 
13785000   0.91221702 -2.1657132e-06   0.54608909  0.014229303            0   0.53185978    1.3569228    1.9030119    1.8290889 
13790000   0.95701928 -6.921897e-05   0.48196434  0.025580738            0    0.4563836    1.4235662    1.9055305  -0.45714366 
13795000   0.94141116 -2.4004123e-05   0.52724121  0.030761846            0   0.49647937    1.4003491    1.9275903    1.1082496 
13800000   0.93353078 -0.00014503609   0.53863944  0.049567041            0    0.4890724     1.388627    1.9272665   -3.0232986 
13805000   0.91424541 -0.00018442689   0.53605196  0.032881696            0   0.50317026      1.35994     1.895992   -4.3991125 
13810000    0.9556068 -1.8094817e-05   0.48721793  0.025998153            0   0.46121978    1.4214651     1.908683    1.2910466 
13815000    1.0068836 8.4734807e-06   0.43794462  0.027712799            0   0.41023183    1.4977393    1.9356839    2.2249121 
13820000   0.90373718 -8.7616772e-05   0.57741879   0.01755902            0   0.55985977    1.3443091    1.9217279   -1.0689246 
13825000    1.0070543 1.879075e-05   0.42440001  0.012953832            0   0.41144617    1.4979933    1.9223933    2.5637842 
13830000   0.97316372 3.6221348e-05   0.48806073 0.0095314258            0   0.47852931     1.447581    1.9356418    3.1719971 
13835000    0.9720634 5.4017131e-06   0.49070519  0.010756506            0   0.47994869    1.4459443    1.9366495     2.121028 
13840000   0.92828351 9.0552142e-06   0.52196311  0.020852513            0    0.5011106    1.3808217    1.9027848    2.2118695 
13845000   0.95126269 7.5064145e-05   0.49002226  0.047596136            0   0.44242612    1.4150033    1.9050255     4.467215 
13850000   0.91305564 5.0489726e-05   0.54699761  0.013205342            0   0.53379227    1.3581703    1.9051679    3.6285505 
13855000    0.9443059 -8.5193023e-05   0.47047421 0.0031804798            0   0.46729373     1.404655    1.8751292   -1.0327926 
13860000   0.96014841 -0.00014549948   0.47450771 0.0025788665            0   0.47192884    1.4282208    1.9027285   -3.0636538 
13865000   0.99007683 5.2666095e-05    0.4147382 0.0063407055            0   0.40839749    1.4727393    1.8874775    3.6851468 
13870000   0.95271487 6.0750082e-05    0.4801566  0.009408273            0   0.47074833    1.4171634      1.89732    3.9709228 
13875000   0.94732194 -3.3734517e-05   0.51201824  0.017628315            0   0.49438993    1.4091414    1.9211596   0.76968812 
13880000    1.0086868 1.4305551e-05   0.41020875  0.059951928            0   0.35025682    1.5004216    1.9106304    2.3989265 
13885000    0.9300411 -5.1473226e-06   0.50979304  0.010281199            0   0.49951184    1.3834361    1.8932292    1.7175339 
13890000   0.96179731 8.6454826e-05   0.47645373  0.029287873            0   0.44716586    1.4306735    1.9071272    4.8581186 
13895000   0.92735482 6.5526305e-05   0.53597621  0.060980083            0   0.47499612    1.3794403    1.9154165    4.1520477 
13900000   0.95812534 -4.3814329e-05   0.47328849  0.023149604            0   0.45013889    1.4252114    1.8984999   0.40297084 
13905000   0.92926258 -9.9741595e-05   0.51502588 0.0071172311            0   0.50790865    1.3822781     1.897304   -1.5072091 
13910000   0.96451895 1.1386576e-05   0.43748861  0.017888248            0   0.41960037    1.4347219    1.8722106    2.2608724 
13915000   0.93533468 -3.8980928e-06   0.45801672   0.02782439            0   0.43019233    1.3913103    1.8493271    1.7162722 
13920000   0.92916584 1.743319e-05   0.44727214  0.021442751            0   0.42582939    1.3821342    1.8294063    2.4244592 
13925000   0.90500194 2.1313031e-05   0.46098215   0.02349516            0   0.43748699    1.3461904    1.8071725    2.5346573 
13930000   0.94864387 -5.5115057e-05   0.40802316   0.01352061            0   0.39450255    1.4111078    1.8191309 -0.062129684 
13935000    0.9255469 -1.9451467e-05   0.42447389  0.017702085            0   0.40677181     1.376751    1.8012249    1.1372815 
13940000   0.86333164 5.486028e-05   0.51043408  0.014779011            0   0.49565507    1.2842058    1.7946399    3.6672041 
13945000   0.90930791 5.4342582e-05   0.47400111  0.027579994            0   0.44642112    1.3525955    1.8265966    3.6814901 
13950000   0.85264538 6.3413851e-05   0.56697743  0.074263477            0   0.49271395      1.26831    1.8352874    3.9998136 
13955000   0.93003453 2.3643312e-06   0.42716272  0.020023115            0   0.40713961    1.3834264    1.8105891    1.8912916 
13960000   0.94380597 1.8513014e-05   0.43289561   0.02054322            0   0.41235239    1.4039114     1.836807    2.4687179 
13965000   0.85265828 -4.4849364e-06   0.56674901  0.022136957            0   0.54461206    1.2683292    1.8350782    1.6819924 
13970000   0.92198978 4.5496818e-06   0.47057449  0.019818832            0   0.45075566    1.3714598    1.8420343    1.9973301 
13975000   0.89129438 4.0440377e-06   0.51893073  0.026352706            0   0.49257803    1.3258004    1.8447311    1.9827676 
13980000   0.93596692 -5.1431977e-05   0.47776779  0.011346189            0   0.46642161    1.3922508    1.8700186   0.11447376 
13985000   0.94114789 -3.899352e-05   0.46178013  0.007211046            0   0.45456909    1.3999575    1.8617376   0.53075879 
13990000   0.87428909 -2.9915036e-05    0.5582282  0.018512057            0   0.53971614     1.300505    1.8587332   0.83763332 
13995000   0.96489946 2.9957739e-05   0.42937637  0.035882873            0    0.3934935    1.4352879    1.8646643    2.8872218 
14000000   0.92016861 4.3760737e-05   0.48884958  0.013161631            0   0.47568795    1.3687508    1.8576004    3.3513002 
14005000   0.88020835 1.3073984e-05   0.54730003 0.0045292387            0   0.54277079    1.3093099      1.85661    2.3028686 
14010000   0.99577752 9.1645893e-05   0.37063731 0.0060496258            0   0.36458768    1.4812191    1.8518564    4.9800362 
14015000   0.93104175 0.00012732539   0.47223429 0.0042512947            0   0.46798299    1.3849246    1.8571589     6.203199 
14020000   0.93274904 0.0001033042    0.4414503  0.006230714            0   0.43521959    1.3874642    1.8289145    5.3550311 
14025000   0.89534931 6.1237875e-05   0.50332531 0.0099278876            0   0.49339742    1.3318321    1.8351574    3.9254102 
14030000   0.90527209 5.2419078e-05    0.4795122  0.018689572            0   0.46082262    1.3465922    1.8261044    3.6153423 
14035000   0.87461476 3.1662063e-05    0.5566356  0.029748036            0   0.52688756    1.3009895    1.8576251    2.9383568 
14040000   0.92028331 3.1018463e-05   0.47004945    0.0276906            0   0.44235885    1.3689214    1.8389709    2.8977344 
14045000   0.93619877 -3.8596959e-05     0.451893  0.035551729            0   0.41634127    1.3925957    1.8444887    0.5270458 
14050000    0.9165478 -7.8527848e-06   0.48853025  0.024675415            0   0.46385483    1.3633649    1.8518951    1.5838534 
14055000   0.91340857 7.833317e-05   0.47892061  0.038724292            0   0.44019631    1.3586952    1.8376159    4.5113881 
14060000   0.91947779 0.00010530011   0.47019649  0.060265859            0   0.40993063    1.3677232    1.8379197    5.4321635 
14065000     0.919155 0.00012239452    0.4839939  0.033847454            0   0.45014644    1.3672431     1.851237    6.0289701 
14070000   0.94860396 7.515611e-05   0.42279155  0.027866864            0   0.39492469    1.4110484    1.8338399    4.3991685 
14075000   0.89042872 -9.3085709e-05   0.52776355  0.026274168            0   0.50148938    1.3245127    1.8522763   -1.3250493 
14080000   0.87087935 -0.00013277242   0.55235287  0.019365317            0   0.53298755     1.295433    1.8477859   -2.6841792 
14085000   0.89978133 -2.4366535e-05   0.49813243  0.018220115            0   0.47991232    1.3384247    1.8365572    1.0048461 
14090000   0.98438319 2.7028832e-05   0.39242299  0.016619157            0   0.37580384      1.46427     1.856693    2.7792771 
14095000   0.92109939 -8.9984244e-05   0.49055074    0.0241979            0   0.46635284    1.3701353    1.8606861   -1.2107761 
14100000   0.88997617 2.023064e-06   0.54597782  0.020927244            0   0.52505057    1.3238396    1.8698174    1.9388713 
14105000   0.89891423 0.00023491869   0.51781404  0.035899349            0    0.4819147    1.3371349     1.854949     9.873507 
14110000   0.89881178 -4.9107745e-05   0.51350665  0.025568599            0   0.48793806    1.3369825    1.8504892   0.17427815 
14115000   0.89312605 -0.00017522149   0.52645443 0.0042630632            0   0.52219136     1.328525    1.8549794   -4.1259141 
14120000   0.95208903 -1.6103498e-07    0.4332962 0.0042369601            0   0.42905924    1.4162324    1.8495286     1.844032 
14125000   0.92907034 8.6479133e-05   0.48580611  0.007483839            0   0.47832227    1.3819921    1.8677982    4.8196193 
14130000   0.89999544 0.00010216945   0.51753602  0.014473648            0   0.50306237    1.3387432    1.8562792    5.3436631 
14135000   0.90115464 0.00013011053   0.52827788 0.0070244101            0   0.52125347    1.3404675    1.8687454    6.3098516 
14140000   0.90961607 7.0125214e-05   0.50114569 0.0081794757            0   0.49296622    1.3530539    1.8541996    4.2478069 
14145000   0.92029854 7.2085524e-05   0.48833959  0.017482617            0   0.47085697    1.3689441    1.8572837    4.3178029 
14150000    0.9286422 0.00016146751   0.44033107  0.018596302            0   0.42173476    1.3813553    1.8216863    7.3331106 
14155000   0.94895302 0.00010464064   0.39198793  0.018429487            0   0.37355844    1.4115676    1.8035555    5.3752893 
14160000   0.91518576 1.9426878e-05   0.43664245  0.023396354            0    0.4132461    1.3613388    1.7979813    2.4610854 
14165000   0.85905548 -2.2065338e-05   0.52334202  0.012459875            0   0.51088215     1.277845     1.801187    1.0480235 
14170000   0.86649304 -6.8341368e-05   0.48732972  0.024621365            0   0.46270835    1.2889084    1.7762381  -0.55648057 
14175000   0.88648946 -3.7844874e-05   0.43471921  0.028761347            0   0.40595786    1.3186531    1.7533723   0.46160058 
14180000    0.8787605 -8.6714769e-05   0.43398891  0.013254597            0   0.42073431    1.3071562    1.7411452    -1.218719 
14185000   0.84629513 -2.4504756e-05   0.49018217   0.02410938            0   0.46607279     1.258864    1.7490462   0.91261717 
14190000   0.82561052 7.1498038e-05   0.50641054  0.030165797            0   0.47624474    1.2280957    1.7345062    4.1749725 
14195000   0.89179559 -5.1093933e-05   0.41751746  0.013514245            0   0.40400321    1.3265459    1.7440634 5.7148295e-05 
14200000     0.841436 2.9741349e-05   0.47468071  0.019489307            0    0.4551914     1.251636    1.7263168    2.7414881 
14205000   0.89917233 7.5927181e-05   0.39529185  0.023518005            0   0.37177384    1.3375188    1.7328107    4.3244585 
14210000   0.82470071 -5.5877516e-05   0.52528616  0.022883726            0   0.50240243    1.2267423    1.7520285  -0.15525742 
14215000    0.8830193 -3.7137864e-05   0.41603383  0.018611194            0   0.39742263    1.3134912     1.729525   0.46188596 
14220000   0.85159233 9.024181e-05   0.46681577  0.030753423            0   0.43606235    1.2667436    1.7335594    4.8138131 
14225000   0.87801654 0.00010131855   0.44793519  0.033035482            0   0.41489971    1.3060496    1.7539848    5.2123246 
14230000   0.90142064 8.4380989e-05   0.42916039  0.020424875            0   0.40873551    1.3408632    1.7700236     4.650228 
14235000   0.88599105 -3.4190533e-05   0.44277241 0.0068589788            0   0.43591343    1.3179117    1.7606841   0.59364722 
14240000   0.90038357 -8.4174974e-05   0.44030624  0.014346402            0   0.42595984    1.3393206    1.7796268   -1.0935456 
14245000   0.89009147 -4.5770992e-05   0.45057819  0.022476065            0   0.42810213    1.3240111    1.7745893   0.21227272 
14250000   0.93700413 -6.5244638e-05   0.36871734  0.020772752            0   0.34794458    1.3937936     1.762511  -0.46450599 
14255000    0.9033007 7.1045755e-05    0.4337799  0.015764461            0   0.41801544    1.3436598    1.7774397    4.2024681 
14260000   0.88135393 5.1638456e-05   0.46630772  0.012098666            0   0.45420905     1.311014    1.7773217    3.5399143 
14265000   0.90523844 0.0001697602   0.45619176  0.024476479            0   0.43171528    1.3465422    1.8027339    7.5972154 
14270000   0.98870255 8.5045992e-05   0.35581177  0.031745188            0   0.32406659     1.470695    1.8265068      4.72941 
14275000   0.92299276 -2.0477089e-05   0.46097746  0.010059471            0   0.45091799    1.3729517    1.8339292    1.1349779 
14280000   0.94897461 -0.00016202429   0.42808537  0.021208843            0   0.40687653    1.4115997    1.8396851   -3.6907439 
14285000   0.91514645 -2.1410126e-05   0.49200938  0.019366566            0   0.47264282    1.3612803    1.8532897    1.1224908 
14290000   0.96557879 0.00013458734   0.38417205  0.015539044            0   0.36863301    1.4362984    1.8204705    6.4143851 
14295000    0.9488188 1.957391e-05   0.42540956  0.034854391            0   0.39055517     1.411368    1.8367775    2.5049003 
14300000   0.93249973 -5.4630864e-05   0.45557592  0.048238235            0   0.40733769    1.3870934    1.8426693 -0.022064226 
14305000   0.91418375 -1.5466125e-05   0.47143717   0.01244679            0   0.45899038    1.3598483    1.8312855    1.3033751 
14310000   0.87037213 -2.1226374e-05   0.54715472  0.025188425            0   0.52196629    1.2946785    1.8418333    1.1173064 
14315000   0.96450963 -2.5943552e-05   0.41478248  0.029463225            0   0.38531925    1.4347081    1.8494905   0.96395064 
14320000   0.92666069 1.0158467e-05    0.4627329  0.029729846            0   0.43300305    1.3784078    1.8411407     2.187883 
14325000   0.93405561 4.0514554e-05    0.4554677  0.027598948            0   0.42786875    1.3894077    1.8448754    3.2277722 
14330000   0.93019593 7.9474386e-05   0.47534008  0.035083366            0   0.44025672    1.3836664    1.8590065    4.5717322 
14335000   0.92539639 3.8126948e-05   0.47569717  0.034281415            0   0.44141576    1.3765271    1.8522243    3.1536241 
14340000   0.96105971 1.2774668e-05   0.43558773  0.009168778            0   0.42641896    1.4295763    1.8651641     2.301206 
14345000   0.90082623 9.4609876e-05   0.51737896  0.025411165            0    0.4919678     1.339979     1.857358    5.0867084 
14350000   0.91209804 -9.5354227e-05   0.51425863  0.030135548            0   0.48412308    1.3567458    1.8710045   -1.3837531 
14355000   0.94538397 9.5173629e-05   0.46703422  0.020534137            0   0.44650008    1.4062587    1.8732929    5.1218861 
14360000   0.93908475 8.4210054e-05   0.49647358  0.018777062            0   0.47769652    1.3968886    1.8933621     4.767732 
14365000   0.92762787 -8.8509139e-05    0.5318812  0.031768617            0   0.50011258    1.3798465    1.9117277   -1.1093843 
14370000   0.96318144 -0.00014602156   0.49219843  0.026621759            0   0.46557667    1.4327324    1.9249308   -3.0592716 
14375000   0.99007689 2.6983451e-05   0.46203335 0.0068494155            0   0.45518393    1.4727394    1.9347727    2.8558079 
14380000      0.96753 -1.3772058e-05   0.49062554  0.033667493            0   0.45695805    1.4392009    1.9298264    1.4597402 
14385000   0.94164907 -0.00010698575   0.53504364  0.026932957            0   0.50811068     1.400703    1.9357466   -1.7160336 
14390000    1.0331921 -2.5926868e-05    0.4077067  0.018561626            0   0.38914508    1.5368732    1.9445799    1.0596095 
14395000   0.99378555 0.0001733557   0.46714148 0.00061379636            0   0.46652768     1.478256    1.9453975    7.8626052 
14400000   0.99429635 -3.3068169e-05   0.47048839  0.010731162            0   0.45975722    1.4790158    1.9495042   0.82077737 
14405000   0.96249546 -6.1550862e-05   0.52384705  0.031894186            0   0.49195287     1.431712    1.9555591  -0.14537702 
14410000   0.99142908 -0.0001937935   0.48141335  0.013871764            0   0.46754158    1.4747508    1.9561641   -4.6586542 
14415000      0.98423 3.9718529e-05   0.49625102  0.010191237            0   0.48605978    1.4640421    1.9602931    3.3160189 
14420000   0.96790349 5.0262439e-06   0.53428804  0.012605839            0    0.5216822    1.4397564    1.9740445    2.1456069 
14425000   0.98905692 -5.8610464e-05   0.48520116  0.016472154            0   0.46872901    1.4712222    1.9564233 -0.044147177 
14430000   0.99490916 -0.00014377479   0.47479447  0.027164082            0   0.44763038    1.4799274    1.9547218    -2.952791 
14435000    1.0604713 1.0865513e-05     0.387134 0.0097001474            0   0.37743385    1.5774511    1.9645851    2.3354613 
14440000    1.0056067 7.7817698e-05   0.46964017  0.011462408            0   0.45817776      1.49584    1.9654801    4.6216576 
14445000   0.98407551 -0.00011495792     0.485877  0.013657772            0   0.47221923    1.4638123    1.9496893   -1.9742076 
14450000    1.0034906 -3.3372296e-05    0.4610156  0.023857548            0   0.43715805    1.4926922    1.9537078   0.81460009 
14455000   0.99125881 -0.00010519824    0.4934489 0.0095335381            0   0.48391536    1.4744975    1.9679464     -1.62282 
14460000   0.98786907 2.9846051e-05   0.50654813  0.010503262            0   0.49604487    1.4694552    1.9760034    2.9947486 
14465000    1.0271123 0.00010277806   0.43387237  0.011033624            0   0.42283874    1.5278296     1.961702    5.4698598 
14470000   0.92284497 -6.5347953e-05   0.57290472  0.016254606            0   0.55665011    1.3727319    1.9456366  -0.28490686 
14475000   0.91464899 -0.00020897607   0.55407713 0.0082870472            0   0.54579008    1.3605404    1.9146175   -5.2184324 
14480000   0.95927232 -0.00014888519   0.48517037  0.010015437            0   0.47515493    1.4269176    1.9120879   -3.1698599 
14485000   0.96696413 -1.6282573e-05   0.47881659 0.0070562017            0   0.47176038    1.4383591    1.9171757    1.3613972 
14490000   0.99236386 -4.9546519e-05   0.42219366  0.012495251            0   0.40969841    1.4761412    1.8983349   0.20714706 
14495000   0.93904882 -5.0065267e-05   0.51538972  0.016778963            0   0.49861076    1.3968351    1.9122248   0.20333041 
14500000    1.0010302 -3.2072194e-05   0.41253461  0.009966268            0   0.40256834    1.4890324     1.901567   0.80683616 
14505000   0.91498283 -2.1138596e-05   0.54942135 0.0045464628            0   0.54487489     1.361037    1.9104583    1.1889276 
14510000   0.88812692 8.5000306e-05   0.55218273  0.023578128            0   0.52860461    1.3210888    1.8732715    4.7746153 
14515000   0.90563218 0.00024731831   0.54599765  0.029995617            0   0.51600203    1.3471279    1.8931255    10.334924 
14520000   0.89954179 0.00011292897   0.53530722  0.029187397            0   0.50611982    1.3380684    1.8733756    5.7280176 
14525000   0.87404646 3.3392769e-05   0.57831323  0.018692224            0   0.55962101    1.3001441    1.8784573    3.0182639 
14530000   0.93053948 0.00019119464   0.49629741  0.016437032            0   0.47986038    1.3841775    1.8804749    8.4065852 
14535000   0.92911018 1.4404749e-05   0.50762146   0.01274416            0    0.4948773    1.3820514    1.8896729     2.381355 
14540000   0.95846493 -2.0804511e-05   0.48559003 0.0077321419            0   0.47785789    1.4257166    1.9113066    1.2011793 
14545000   0.92451552 -2.7998431e-05   0.53323496 0.0093206677            0   0.52391429    1.3752168    1.9084518   0.95277204 
14550000    0.9654021 -0.000165955    0.5012005   0.03343319            0   0.46776731    1.4360356    1.9372361   -3.7273613 
14555000      0.93002 -1.1822914e-05   0.53462441  0.023310136            0   0.51131427    1.3834048    1.9180292    1.5144737 
14560000   0.93597616 7.9581971e-05   0.51919312  0.033073743            0   0.48611938    1.3922645    1.9114577    4.6278556 
14565000   0.90163298 0.00018579707   0.57560779  0.045353451            0   0.53025434    1.3411791    1.9167868    8.2586602 
14570000   0.92384176 0.00021254163   0.53199423 0.0085917849            0   0.52340244    1.3742146    1.9062088    9.1609633 
14575000   0.97756601 -1.7000113e-05   0.48313355  0.018803543            0   0.46433001    1.4541294     1.937263    1.3569925 
14580000   0.96132812 7.5485191e-05   0.52320353   0.02097867            0   0.50222486    1.4299756    1.9531791    4.5297403 
14585000   0.93945643 2.8757278e-05   0.55197065  0.013012663            0   0.53895799    1.3974414    1.9494121    2.9309938 
14590000   0.98481586 -5.5252603e-05   0.49951306  0.012346548            0   0.48716651    1.4649136    1.9644267  0.078471144 
14595000    1.0130241 9.9962768e-05   0.47912475  0.023705317            0   0.45541944    1.5068734    1.9859982    5.3980606 
14600000   0.95311191 -4.8513033e-06   0.56600684  0.020937728            0   0.54506911     1.417754    1.9837608    1.8181697 
14605000    1.0292805 -0.00011012909   0.47244238  0.029026623            0   0.44341576    1.5310548    2.0034971   -1.7555758 
14610000   0.98520622 -6.3246126e-06   0.56687657 0.0085560202            0   0.55832055    1.4654942    2.0323708    1.8164907 
14615000   0.99781384 7.2781664e-05   0.53973866  0.027096357            0    0.5126423    1.4842481    2.0239867    4.5082675 
14620000   0.99091449 -2.7080922e-05   0.56367168  0.023539122            0   0.54013256    1.4739853     2.037657    1.1132948 
14625000   0.95378628 -0.00014348859   0.60191368  0.011507571            0   0.59040611    1.4187571    2.0206708   -2.8770731 
14630000    1.0045929 9.6240161e-05   0.52840121  0.013671463            0   0.51472975    1.4943319    2.0227331    5.3077306 
14635000    1.0217138 0.00024505193   0.53078927 0.0069883131            0   0.52380096    1.5197993    2.0505886    10.415028 
14640000    1.0392564 0.00025244683   0.50083431 0.0051078272            0   0.49572648    1.5458939    2.0467282     10.66358 
14645000    1.0104916 0.00020010594   0.53740433 0.0098602651            0   0.52754406    1.5031063    2.0405106    8.8707935 
14650000   0.98161848 0.00011843061    0.5929299 0.0063862976            0    0.5865436    1.4601575    2.0530874     6.095519 
14655000    0.9950932 9.3643442e-05   0.57380369 0.0018831753            0   0.57192052    1.4802011    2.0540048    5.2503677 
14660000    1.0657026 -6.0567978e-05   0.49812501 0.0027598273            0   0.49536519    1.5852326    2.0833577  0.015970685 
14665000    1.0206978 -0.00011893641   0.55758511  0.035203742            0   0.52238136     1.518288    2.0758731   -1.9838229 
14670000   0.93110691 -3.0122635e-06   0.68475635  0.028467831            0   0.65628852    1.3850215    2.0697779    1.9669593 
14675000   0.96226426 5.3475792e-05    0.6234521  0.008835907            0   0.61461619    1.4313681    2.0548202    3.8801272 
14680000    1.0455474 8.3972508e-05   0.51204185 0.0033851421            0   0.50865671    1.5552518    2.0672937    4.9335553 
14685000    1.0088705 9.185891e-05   0.58532572 0.0087307117            0   0.57659501    1.5006948    2.0860205    5.2214713 
14690000   0.99085476 4.9474056e-05    0.6326758  0.027566348            0   0.60510945    1.4738965    2.1065723    3.7952867 
14695000   0.99973894 6.5149977e-05   0.61103425  0.017597024            0   0.59343723    1.4871117    2.0981459    4.3219318 
14700000    1.0714523 0.00010742724   0.50534642  0.018010471            0   0.48733594    1.5937853    2.0991317    5.7659814 
14705000    1.0056614 9.8273021e-05   0.61628773  0.044960861            0   0.57132687    1.4959213     2.112209    5.4665948 
14710000   0.97582561 0.00011833096   0.66489035  0.025193654            0   0.63969669    1.4515406    2.1164309    6.1554609 
14715000    1.0331636  0.000136159   0.59034938  0.014645387            0   0.57570399    1.5368308    2.1271802    6.7747406 
14720000     1.041324 2.335393e-05   0.57753632  0.033210124            0    0.5443262    1.5489694    2.1265058    2.9236532 
14725000     1.043351 -5.0336418e-05   0.59265564  0.021518993            0   0.57113665    1.5519846    2.1446402   0.42649049 
14730000     1.046242 2.4031263e-05   0.59301416  0.011863505            0   0.58115066     1.556285    2.1492992    2.9695663 
14735000    1.0480886 -2.0210713e-07   0.57998118 0.0054558429            0   0.57452534    1.5590317    2.1390129    2.1321143 
14740000    1.0062572 -5.7805851e-05   0.65844023 0.0075062219            0   0.65093401    1.4968075    2.1552478   0.18214137 
14745000    1.0694055 1.6838629e-06   0.55696327  0.011484792            0   0.54547848    1.5907407    2.1477039    2.2051798 
14750000    1.0369233 0.00017493182   0.61967253  0.026596935            0   0.59307559    1.5424234     2.162096    8.1331022 
14755000     1.028467 0.0001081673   0.62019149  0.014877601            0   0.60531389    1.5298447    2.1500362    5.8421466 
14760000    1.0106179 -7.4213997e-05   0.61411624 0.0032263745            0   0.61088987    1.5032942    2.1174104  -0.41576067 
14765000    1.0281375 -1.4345145e-05   0.59373896 0.0022844901            0   0.59145447    1.5293545    2.1230935    1.6334459 
14770000    1.0534299 -5.9204081e-05   0.55296996 0.0019093806            0   0.55106058     1.566977    2.1199469  0.099114306 
14775000    1.0471707 -2.9064046e-06   0.54080516 0.0030167784            0   0.53778838    1.5576663    2.0984715    1.9992662 
14780000    1.0120439 -8.865182e-06   0.58836639 0.0087027774            0   0.57966361    1.5054153    2.0937817    1.7911835 
14785000   0.95628966 2.7945968e-05   0.67206157  0.055382146            0   0.61667942    1.4224809    2.0945424    3.0484315 
14790000    1.0356403 0.00019887251   0.56700336  0.057707387            0   0.50929597     1.540515    2.1075184    8.8957001 
14795000   0.98985726 0.00010736938   0.62637644  0.021840008            0   0.60453643    1.4724127    2.0987891    5.7636641 
14800000   0.99385524 5.1709415e-05   0.61839262   0.01314996            0   0.60524266    1.4783597    2.0967523     3.861767 
14805000    1.0273773 -3.5110568e-05   0.56097552  0.021017091            0   0.53995842    1.5282237    2.0891992   0.89075852 
14810000   0.97875377 -3.2618143e-05   0.64111808  0.033887507            0   0.60723057    1.4558962    2.0970143   0.98364837 
14815000    1.0878741 9.4964546e-05   0.47092768  0.019566327            0   0.45136135    1.6182127    2.0891404    5.3305969 
14820000    1.0080269 7.4493663e-05   0.63339528  0.052758281            0     0.580637      1.49944    2.1328353    4.6755523 
14825000   0.98990319 -6.1930792e-05   0.65480075  0.037598553            0    0.6172022     1.472481    2.1272818  0.013377399 
14830000    1.0155294 0.00013880073   0.59779995  0.013714789            0   0.58408516    1.5105999    2.1083999    6.8461315 
14835000    1.0640296 3.6994118e-05   0.53713806  0.017946034            0   0.51919203    1.5827441    2.1198821    3.3826147 
14840000    1.0469332 -0.00012730636   0.60065235  0.017368905            0   0.58328344    1.5573132    2.1579655   -2.1874248 
14845000      1.01832 0.00011710782   0.65085906 0.0096016157            0   0.64125744     1.514751      2.16561    6.1628904 
14850000    1.0225571 0.00011242814   0.63399942 0.0072303911            0   0.62676902    1.5210537    2.1550531    5.9926002 
14855000    1.0647087 -0.00013155882   0.53730182  0.012905397            0   0.52439642    1.5837542     2.121056   -2.3694852 
14860000    1.0031123 -3.9371146e-05   0.63076947  0.026976613            0   0.60379285    1.4921295     2.122899   0.77903051 
14865000    1.0070535 7.2993253e-05   0.62973263  0.045667473            0   0.58406516    1.4979921    2.1277247    4.6192277 
14870000    1.0603321 -9.1919831e-05   0.55448811  0.009783255            0   0.54470485     1.577244    2.1317321   -1.0057981 
14875000    1.0288332 -0.00020852132   0.60206733   0.01453837            0   0.58752896    1.5303893    2.1324567   -4.9850712 
14880000    1.0319384 -0.00011294327   0.62463567   0.01221186            0   0.61242381    1.5350083     2.159644   -1.6954861 
14885000    1.1167187 0.00014960522    0.5163943 0.0032851723            0   0.51310912     1.661119    2.1775133    7.2840382 
14890000    1.1111992 -5.3132794e-05   0.56122881  0.020360021            0   0.54086879    1.6529088    2.2141376   0.40053825 
14895000    1.0468815 -0.00016159197   0.65021087  0.032617402            0   0.61759347    1.5572362    2.2074471   -3.3082256 
14900000    1.0559449 -0.00010383484   0.64674398  0.044944004            0   0.60179998     1.570718     2.217462   -1.3267671 
14905000    1.0677457 -7.6192183e-05   0.63203661  0.047131398            0   0.58490521    1.5882718    2.2203084  -0.38038481 
14910000    1.0886033 -0.00013970468    0.6123624  0.039093513            0   0.57326889    1.6192975    2.2316599   -2.5369265 
14915000    1.0733608 9.0246207e-05   0.62875631  0.042537446            0   0.58621886    1.5966242    2.2253805    5.3057844 
14920000    1.0859714 8.3086733e-05   0.61142181   0.04505274            0   0.56636907    1.6153824    2.2268042    5.0628314 
14925000    1.1462521 -7.5828245e-05   0.56594415  0.021805039            0   0.54413911      1.70505    2.2709941  -0.31727664 
14930000    1.1229804 -8.203688e-06   0.59846129  0.013931613            0   0.58452967    1.6704334    2.2688947    1.9888755 
14935000    1.0263976 -5.0588983e-05   0.71916279  0.019633172            0   0.69952962    1.5267664    2.2459292   0.51915857 
14940000    1.1633728 -2.5129824e-05   0.51583913  0.016149562            0   0.49968957     1.730517    2.2463561    1.3885915 
14945000   0.98821876 -6.8799062e-05   0.80182104  0.035970148            0   0.76585089    1.4699754    2.2717964 -0.076544876 
14950000    1.1258644 -5.9016287e-05   0.59556489  0.042925629            0   0.55263926    1.6747233    2.2702882   0.25586556 
14955000    1.2388373 4.197327e-05   0.43484879  0.046864621            0   0.38798417    1.8427705    2.2776193    3.7103069 
14960000    1.1290029 0.00017367435   0.59116576  0.011274041            0   0.57989172    1.6793918    2.2705575    8.1986421 
14965000    1.1147681 9.7876202e-05   0.60250912 0.0035993075            0   0.59890981    1.6582176    2.2607267    5.6015678 
14970000    1.1196832 2.5326216e-05   0.57233083 0.0097578387            0   0.56257299    1.6655287    2.2378595    3.1023277 
14975000    1.1805773 -7.9678113e-05   0.50905825  0.015647156            0   0.49341109    1.7561088     2.265167  -0.45451259 
14980000     1.150816 4.4932413e-05   0.57050851  0.028852495            0   0.54165601    1.7118387    2.2823472    3.8160403 
14985000    1.1356196 8.5204845e-05   0.59066051  0.029412306            0   0.56124821    1.6892341    2.2798947      5.18822 
14990000    1.1626016 0.00010261148   0.54404321  0.011163158            0   0.53288006    1.7293699    2.2734131     5.775885 
14995000    1.0816245 0.00014786482   0.66314671 0.0045467305            0   0.65859998    1.6089164    2.2720631    7.3191823 
15000000    1.1149356 7.6333858e-05   0.61572137  0.019173184            0   0.59654818    1.6584667    2.2741881    4.8797171 
15005000    1.1724061 2.6237052e-05   0.54634746  0.029132584            0   0.51721487     1.743954    2.2903015    3.1858595 
15010000    1.0872027 -9.5030216e-05   0.64764743  0.029656237            0    0.6179912    1.6172139    2.2648614  -0.97883666 
15015000    1.0747394 -0.00014588705   0.66278631  0.024544768            0   0.63824154    1.5986748    2.2614611   -2.7181502 
15020000   0.97773191 0.00010403478   0.81139621  0.047281418            0   0.76411479    1.4543762    2.2657724    5.8168262 
15025000    1.0919853 0.00023412691   0.63461699 0.0070124866            0    0.6276045    1.6243281    2.2589451    10.250477 
15030000    1.1178761 7.4920198e-05   0.61560583  0.008072531            0    0.6075333    1.6628407    2.2784466    4.8357227 
15035000    1.0822728 -0.00010544583   0.68312909 0.0087527907            0    0.6743763    1.6098808    2.2930098   -1.3062077 
15040000    1.0613634 -0.00016319659   0.70253306  0.014635998            0   0.68789706     1.578778    2.2813111   -3.2891324 
15045000    1.0851361 -0.00010659479   0.66456834  0.024038069            0   0.64053027    1.6141399    2.2787083   -1.3597272 
15050000    1.1247381 -0.00010267186   0.60383709  0.028127568            0   0.57570952    1.6730479     2.276885   -1.2276479 
15055000    1.1025666 -9.8183104e-05   0.62366371  0.040211681            0   0.58345203    1.6400679    2.2637316    -1.087585 
15060000   0.97746561 5.5014518e-05   0.79528379  0.018890322            0   0.77639347    1.4539801    2.2492639    4.1270928 
15065000    1.1120462 5.3838443e-06   0.58627218   0.02220325            0   0.56406894    1.6541687    2.2404409    2.4242095 
15070000    1.0372369 0.00012986728   0.67922855  0.040978774            0   0.63824978    1.5428898    2.2221184    6.6549216 
15075000     1.108522 0.00012397142   0.59700339  0.018843876            0   0.57815951    1.6489264    2.2459298    6.4774877 
15080000    1.0498359 -0.00010347119   0.66577216 0.0019676052            0   0.66380456     1.561631    2.2274031   -1.3044135 
15085000    1.0352232 -3.242956e-05   0.67450717 0.0019437537            0   0.67256342    1.5398946    2.2144017    1.1074728 
15090000    1.1032973 9.6302932e-06   0.57232101 0.0086454316            0   0.56367558    1.6411548    2.2134758    2.5421898 
15095000    1.1158721 -2.7434359e-05   0.53434767 0.0074341098            0   0.52691356    1.6598597    2.1942074    1.2577813 
15100000    1.0325149 -0.0001878471   0.66206164 0.0028260766            0   0.65923557    1.5358659    2.1979276   -4.2139202 
15105000    1.0663996 -0.00015366479   0.62975499 0.0049971658            0   0.62475782    1.5862694    2.2160244   -3.0290673 
15110000   0.97747952 -1.2486732e-05   0.74102711 0.0069112642            0   0.73411585    1.4540008    2.1950279    1.7688141 
15115000    1.1112621 9.0979725e-05   0.57344843  0.014023822            0   0.55942461    1.6530024    2.2264509    5.3318921 
15120000    1.1045978 0.00012226446   0.62211559  0.020047686            0    0.6020679    1.6430893    2.2652049    6.4384983 
15125000    1.0360053 -6.0142537e-05   0.74856071  0.033875286            0   0.71468543     1.541058    2.2896187   0.23675341 
15130000    1.1353669 -0.00021288355   0.61573548  0.037458823            0   0.57827666    1.6888583    2.3045938   -4.9618313 
15135000    1.1053157 -0.00018722141    0.6795872  0.024485152            0   0.65510205    1.6441571    2.3237443   -4.0667464 
15140000    1.1039171 -8.5773861e-05   0.67443507  0.022538086            0   0.65189699    1.6420767    2.3165117  -0.61123607 
15145000    1.1430311 -4.427544e-05   0.61604117  0.028433117            0   0.58760805    1.7002588    2.3162999   0.80503158 
15150000    1.1993739 -3.9494275e-05   0.53339547  0.016382392            0   0.51701308    1.7840687    2.3174642   0.96939294 
15155000    1.1516076 2.3364999e-05   0.61333522 0.0098273806            0   0.60350784    1.7130163    2.3263515    3.1238768 
15160000    1.1080416 -6.2843917e-05   0.68402846   0.03710151            0   0.64692695    1.6482118    2.3322403    0.1871679 
15165000    1.1150018 -5.7580012e-05   0.67108717  0.042495399            0   0.62859177    1.6585651    2.3296523   0.36425458 
15170000    1.1771329 -0.00011761746   0.58894967 0.0066235686            0    0.5823261    1.7509852    2.3399348    -1.674741 
15175000    1.1119459 -9.598726e-05   0.68590803 0.0069345217            0   0.67897351    1.6540195    2.3399275   -0.9364376 
15180000    1.1362879 -8.926564e-05   0.62601871  0.013832907            0    0.6121858    1.6902282    2.3162469  -0.73068697 
15185000    1.1909561 -1.8715278e-05    0.5479389  0.022816968            0   0.52512193    1.7715473    2.3194862    1.6806713 
15190000    1.0874014 0.00010019062   0.70179234  0.020842159            0   0.68095018    1.6175095    2.3193019    5.7391418 
15195000    1.0987032 3.9007217e-05    0.7092541  0.012141178            0   0.69711293     1.634321    2.3435751    3.6750215 
15200000    1.0773266 6.621073e-06   0.73269832 0.0036468456            0   0.72905147    1.6025234    2.3352217     2.561221 
15205000    1.1963739 -2.801567e-05   0.54723418 0.0076262044            0   0.53960797    1.7796062    2.3268404    1.3705722 
15210000    1.2250074 9.5232532e-05    0.4953594   0.01558935            0   0.47977005    1.8221985    2.3175579    5.5681617 
15215000    1.1614135 -7.6256932e-05   0.62853812  0.010999456            0   0.61753866    1.7276026    2.3561407  -0.24676259 
15220000     1.107432 -0.00025293452   0.72815508  0.017736809            0   0.71041827    1.6473052    2.3754602   -6.2580379 
15225000    1.1616687 -4.2471434e-05   0.62345812  0.013771933            0   0.60968619    1.7279822    2.3514403    0.9017487 
15230000    1.1822327 0.00022919494   0.57220187 0.0090820848            0   0.56311979    1.7585711     2.330773     10.15396 
15235000    1.1368963 9.143784e-05   0.63620743  0.015987267            0   0.62022017    1.6911332    2.3273406    5.4484189 
15240000    1.1407024 0.00010007519   0.62644606 0.0086884293            0   0.61775763    1.6967948    2.3232408    5.7391405 
15245000    1.1148814 3.2780855e-06   0.67534845  0.012178408            0   0.66317004    1.6583861    2.3337345    2.4456265 
15250000    1.1562091 -0.000150622   0.62732177  0.018353202            0   0.60896857    1.7198611    2.3471828   -2.7940481 
15255000    1.1804001 0.0001174604   0.59689187  0.021695176            0   0.57519669    1.7558452    2.3527371    6.3620522 
15260000    1.1738488 4.4588532e-05   0.61939771  0.020709888            0   0.59868782    1.7461001    2.3654978    3.8874531 
15265000    1.0770155 -9.4784308e-05    0.7484573  0.022564558            0   0.72589274    1.6020606    2.3505179  -0.88478653 
15270000    1.1267754 9.2071088e-05   0.66116591  0.029058131            0   0.63210777    1.6760784    2.3372443    5.4799374 
15275000    1.2027735 1.1629204e-05   0.54455926  0.011329626            0   0.53322964    1.7891255    2.3336848    2.7306283 
15280000    1.0934994 -9.318369e-06   0.70152495 0.0069224096            0   0.69460255    1.6265803    2.3281053    2.0100383 
15285000    1.1496198 0.00015502265   0.64323471 0.0064452491            0   0.63678947    1.7100594    2.3532941    7.6447341 
15290000    1.1122803 6.4454745e-05   0.70552244  0.013969513            0   0.69155293     1.654517    2.3600394    4.5600947 
15295000    1.1175038 -0.00012039121   0.67949014  0.040025141            0     0.639465     1.662287    2.3417771   -1.7675764 
15300000    1.1715892 -2.2680737e-05   0.58855496  0.049803154            0    0.5387518    1.7427389    2.3312938    1.5571247 
15305000    1.0827224 8.283584e-05   0.70334846  0.036493351            0   0.66685511    1.6105496    2.3138981    5.1413614 
15310000    1.0747507 9.2504188e-05   0.71350946  0.023965723            0   0.68954374    1.5986917    2.3122012    5.4696775 
15315000    1.1710338 5.8545162e-05   0.57861674  0.010086653            0   0.56853008    1.7419127    2.3205295     4.318871 
15320000     1.155675 2.5562431e-05    0.5950743  0.017963501            0    0.5771108    1.7190665    2.3141408    3.1866718 
15325000    1.1411992 -4.6044748e-05   0.64791463  0.018535722            0   0.62937891    1.6975338    2.3454484    0.7737877 
15330000    1.0724256 -7.4881879e-05   0.71695378  0.023699246            0   0.69325454    1.5952331    2.3121869  -0.24378123 
15335000    1.1502417 3.069712e-05   0.61102695  0.022803107            0   0.58822384    1.7109846    2.3220115    3.3698065 
15340000    1.1216933 3.880733e-05   0.66539138  0.051178662            0   0.61421272    1.6685187    2.3339101    3.6585336 
15345000    1.1184237 -3.9448646e-05   0.68372421  0.034166009            0    0.6495582    1.6636552    2.3473794    1.0008657 
15350000    1.1235692 4.2293712e-05   0.67307901  0.022182074            0   0.65089693    1.6713092    2.3443882    3.7880136 
15355000    1.1551189 0.00019684789   0.60835932  0.010085141            0   0.59827418    1.7182394    2.3265987    9.0456734 
15360000    1.1976907 0.00013176622   0.53906694 0.0068838682            0   0.53218307     1.781565    2.3206319    6.8182523 
15365000    1.1946675 5.5639547e-05   0.57268197  0.006658304            0   0.56602367    1.7770679    2.3497498     4.248913 
15370000    1.1297155 7.7656866e-05   0.68441095 0.0030623823            0   0.68134857    1.6804519    2.3648628    5.0155505 
15375000    1.1220544 -1.4629884e-05   0.68187732  0.014663825            0   0.66721349    1.6690559    2.3509332    1.8515665 
15380000    1.2123104 -0.00010215728   0.55300717  0.027478495            0   0.52552867    1.8033118    2.3563189   -1.1306497 
15385000    1.1746034 -8.649332e-05   0.60708205   0.02128152            0   0.58580053    1.7472226    2.3543047  -0.59800067 
15390000    1.1265546 -1.6700307e-05   0.66152316  0.010998561            0    0.6505246    1.6757499    2.3372731     1.767236 
15395000     1.196115 1.8501986e-06   0.57504378  0.018377816            0   0.55666597    1.7792211    2.3542649    2.4174183 
15400000    1.2372467 -4.9010672e-05   0.53228209  0.024363252            0   0.50791884    1.8404045    2.3726866   0.69978896 
15405000    1.1895232 6.2236607e-05   0.61151015  0.026720956            0   0.58478919    1.7694158    2.3809259    4.5052688 
15410000     1.127049 -2.7434194e-05   0.67841758  0.012594301            0   0.66582328    1.6764854     2.354903    1.4184825 
15415000     1.172544 -1.2947593e-05   0.60832802  0.020473363            0   0.58785465    1.7441592    2.3524872    1.9105427 
15420000    1.1809682 -5.3507208e-06   0.61280397  0.017006727            0   0.59579724    1.7566902    2.3694942    2.1868563 
15425000    1.1646234 -2.9323013e-06   0.64489062  0.031604134            0   0.61328649    1.7323773    2.3772679    2.2771787 
15430000    1.2083273 1.2550541e-05   0.54436307 0.0090339439            0   0.53532912    1.7973869      2.34175    2.7701418 
15435000    1.1290919 4.275758e-05   0.65351813  0.027591333            0   0.62592679    1.6795242    2.3330424    3.7925011 
15440000    1.2213723 0.00018987898   0.55083713  0.020077343            0   0.53075979    1.8167913    2.3676284    8.8488309 
15445000    1.2072924 6.6715798e-05   0.57727073 0.0047458559            0   0.57252487    1.7958474    2.3731181    4.6503507 
15450000    1.1613757 8.1857961e-05   0.63937018 0.0057080066            0   0.63366217    1.7275464    2.3669166    5.1610016 
15455000    1.1680912 -3.7000583e-06   0.61454205   0.01159097            0   0.60295108    1.7375357    2.3520777    2.2257824 
15460000     1.190953 3.7406615e-05   0.58621178  0.037663793            0   0.54854799    1.7715427    2.3577544    3.6345669 
15465000    1.1414273 0.00024862143   0.69046144  0.048298128            0   0.64216331    1.6978732    2.3883346    10.874613 
15470000    1.1526713 0.00010355752   0.65622369  0.018523947            0   0.63769974    1.7145985    2.3708222    5.9055854 
15475000    1.0841114 6.4066661e-06    0.7716284  0.013869622            0   0.75775878    1.6126158    2.3842442     2.602925 
15480000    1.2249767 6.4515417e-05   0.60174794  0.027865687            0   0.57388225    1.8221528    2.4239007     4.626027 
15485000    1.1873046 -3.9585532e-05   0.64989536  0.025165099            0   0.62473026    1.7661155    2.4160109    1.0648247 
15490000    1.1823231 -0.00018472621   0.65714272  0.024922294            0   0.63222042    1.7587056    2.4158484   -3.8894729 
15495000    1.2440909 -9.766364e-05   0.56454324    0.0202119            0   0.54433134    1.8505852    2.4151284  -0.91845715 
15500000     1.182804 -1.2247462e-05   0.64481183  0.050686746            0   0.59412508     1.759421    2.4042328    1.9861861 
15505000    1.1861837 -1.4071082e-05   0.63653037  0.062422141            0   0.57410823    1.7644482    2.4009786    1.9206856 
15510000     1.296518 0.00017869333   0.48862635 0.0082273768            0   0.48039897    1.9285706    2.4171969    8.5165959 
15515000    1.1751633 0.00017716465    0.6505295   0.02041693            0   0.63011257    1.7480554    2.3985848     8.445805 
15520000    1.1522404 3.0924528e-05   0.68991093  0.031934141            0   0.65797679    1.7139576    2.4038685    3.4594257 
15525000    1.1547149 1.7411675e-05   0.70112833  0.026737012            0   0.67439131    1.7176384    2.4187667    3.0130852 
15530000    1.2022474 -3.9345138e-05   0.64814973  0.020196347            0   0.62795339    1.7883429    2.4364927    1.0935119 
15535000    1.2009242 -5.6349499e-05     0.662441  0.030708621            0   0.63173237    1.7863748    2.4488158   0.52541957 
15540000    1.1322168 -2.8075114e-05   0.73451895  0.020154043            0    0.7143649    1.6841726    2.4186915    1.4603943 
15545000    1.1437797 -6.8954336e-05   0.70735702  0.017508459            0   0.68984856    1.7013723    2.4087293  0.055087985 
15550000    1.1307224 -5.7539046e-05   0.73616541  0.014971162            0   0.72119425    1.6819496     2.418115   0.45411558 
15555000    1.1973231 -3.0179582e-05   0.62628052  0.031058624            0    0.5952219    1.7810181    2.4072986    1.3771689 
15560000     1.213727 0.00011370179   0.62068671  0.032137488            0   0.58854922    1.8054189    2.4261056    6.3071267 
15565000    1.2023723 8.5646471e-05   0.64470354 0.0083629041            0   0.63634063    1.7885288    2.4332324    5.3566319 
15570000    1.2287871 -0.00010371462   0.62965073  0.019889062            0   0.60976167    1.8278208    2.4574715   -1.0826541 
15575000    1.2026647 -0.00011841129   0.68674122  0.021920732            0   0.66482049    1.7889637    2.4757049   -1.5660673 
15580000    1.2083411 -9.0008497e-05   0.65957256  0.012873075            0   0.64669949    1.7974073    2.4569799  -0.61531015 
15585000    1.2270627 -8.9015512e-05    0.6483373 0.0083567009            0    0.6399806    1.8252558    2.4735931  -0.56480302 
15590000    1.2157334 -5.5633112e-05   0.67616597  0.058849784            0   0.61731618    1.8084035    2.4845695   0.58562592 
15595000    1.2206319 1.3773937e-05   0.64628935  0.069724191            0   0.57656516    1.8156899    2.4619793    2.9321297 
15600000    1.2775009 9.7565629e-05   0.56975065  0.030605538            0   0.53914511    1.9002825    2.4700332    5.8002733 
15605000    1.2355521 5.9934795e-05   0.64935493  0.012108749            0   0.63724618    1.8378837    2.4872387     4.533013 
15610000    1.2405763 9.3364031e-05   0.66499222  0.025975967            0   0.63901625    1.8453572    2.5103494     5.697175 
15615000    1.2073176 2.3197185e-05   0.71651647  0.024910506            0   0.69160596    1.7958849    2.5124014    3.3041986 
15620000    1.3367478 5.9013421e-05   0.54546076  0.017368669            0   0.52809209    1.9884124    2.5338731    4.5481979 
15625000    1.2645048 0.00019332261   0.63753986  0.030059436            0   0.60748042    1.8809509    2.5184908    9.1172357 
15630000    1.1983994 5.1943027e-05   0.72703699  0.021463505            0   0.70557348    1.7826192    2.5096562    4.2826448 
15635000    1.2097028 -4.9975767e-05   0.71403579  0.005008615            0   0.70902718    1.7994329    2.5134687   0.80762915 
15640000    1.2416553 6.5209766e-05   0.65305414  0.011760749            0   0.64129339    1.8469623    2.5000164    4.7258431 
15645000    1.3194324 -1.9677337e-06   0.51801357  0.021373476            0    0.4966401    1.9626558    2.4806693     2.413504 
15650000    1.2257091 -0.00017912488   0.68175514  0.011442452            0   0.67031269    1.8232423    2.5049975   -3.6091319 
15655000    1.2827985 -3.791119e-05   0.59373266 0.0017020292            0   0.59203063    1.9081628    2.5018955    1.2078602 
15660000    1.2983763 -8.6813636e-07   0.56406389 0.0036949782            0   0.56036891    1.9313347    2.4953986    2.4657662 
15665000     1.231807 -0.00010164429   0.62907666  0.006792568            0   0.62228409     1.832313    2.4613896   -1.0080689 
15670000    1.2569035 -0.00010425724    0.5829952  0.010321553            0   0.57267365    1.8696439    2.4526391    -1.106008 
15675000    1.1892588 -7.1008265e-05   0.68311458  0.016412265            0   0.66670232    1.7690225    2.4521371  0.028388331 
15680000     1.197683 -0.00021089049   0.66747073  0.006457376            0   0.66101335    1.7815535    2.4490243   -4.7493713 
15685000     1.250236 -0.00013817541   0.60328477 0.0032944711            0    0.5999903     1.859726    2.4630108   -2.2533764 
15690000    1.2394529 6.483753e-05   0.61928608  0.021113264            0   0.59817282    1.8436862    2.4629723    4.6760933 
15695000    1.2341269 0.00020199428   0.66258144    0.0397223            0   0.62285914    1.8357638    2.4983452    9.3930834 
15700000    1.3121275 0.00011838754   0.56238992 0.0054056595            0   0.55698426    1.9517896    2.5141796     6.555141 
15705000     1.240685 -5.2745482e-05   0.67229354  0.022137841            0    0.6501557    1.8455189    2.5178125   0.71743335 
15710000    1.2237185 4.3841649e-05    0.6898053  0.073338244            0   0.61646705    1.8202812    2.5100865    4.0065481 
15715000     1.264315 -0.00015941731   0.63750109  0.061760632            0   0.57574046    1.8806685    2.5181696   -2.9232745 
15720000    1.2790815 -0.00028739771   0.62833134  0.016810017            0   0.61152133    1.9026337    2.5309651   -7.2788767 
15725000    1.2499407 1.893908e-05   0.65960834  0.023046587            0   0.63656175    1.8592867    2.5188951     3.165349 
15730000    1.2301808 0.00010338666   0.66666154  0.038154504            0   0.62850704    1.8298939    2.4965554    6.0254868 
15735000    1.2419516 0.00014698459   0.66493043  0.039689782            0   0.62524064    1.8474029    2.5123334    7.5294074 
15740000    1.2168002 7.1949959e-05   0.67798703  0.048488647            0   0.62949838    1.8099903    2.4879773    4.9438693 
15745000    1.3074723 4.7402957e-05   0.54965425   0.02431014            0   0.52534411    1.9448651    2.4945193    4.1125402 
15750000    1.1911936 0.0002134666    0.6855348  0.028942793            0     0.656592    1.7719004    2.4574352    9.7437619 
15755000    1.2675572 6.2563719e-06   0.57125963 0.0063472981            0   0.56491233    1.8854914     2.456751    2.6703018 
15760000    1.2407411 1.1954379e-07   0.61766214  0.017594955            0   0.60006719    1.8456024    2.4632645     2.467345 
15765000    1.2359413 5.757399e-05   0.61873066  0.010703946            0   0.60802672    1.8384626    2.4571933    4.4223855 
15770000    1.2057384 2.9439728e-05   0.66976474 0.0027704636            0   0.66699428    1.7935359    2.4633006    3.4681766 
15775000    1.2612795 -2.3239215e-05   0.56795329 0.0071901882            0    0.5607631    1.8761532    2.4441065    1.6508746 
15780000    1.2021928 0.00010642296   0.63763722  0.018480778            0   0.61915644    1.7882618     2.425899    6.0584694 
15785000    1.1998554 8.8771422e-06   0.66784888  0.023448994            0   0.64439989    1.7847849    2.4526338    2.7556403 
15790000    1.2026487 -7.645309e-06   0.68165573  0.028462366            0   0.65319337    1.7889399    2.4705956    2.2096357 
15795000    1.2564244 9.191249e-05   0.61415867  0.018528105            0   0.59563057    1.8689312    2.4830899    5.6203696 
15800000    1.2096628 -9.0201951e-05    0.6468911  0.024186199            0   0.62270491    1.7993734    2.4462645  -0.63262875 
15805000    1.2707134 8.6410796e-05    0.5521671  0.033279444            0   0.51888766    1.8901862    2.4423533    5.3918418 
15810000    1.2842224 0.00010933784   0.51914372  0.014864672            0   0.50427905    1.9102808    2.4294245    6.1614896 
15815000    1.2242409 2.1627468e-05   0.60886578  0.026105079            0    0.5827607    1.8210584    2.4299241    3.1681417 
15820000    1.2066189 8.8726149e-05    0.6204452   0.02774445            0   0.59270075    1.7948456    2.4152908      5.44381 
15825000    1.2062149 -5.4513686e-05   0.62931064  0.033278222            0   0.59603242    1.7942447    2.4235554   0.56282156 
15830000    1.2268084 0.00011577067   0.59337328  0.018155542            0   0.57521773    1.8248775    2.4182508    6.3698897 
15835000    1.2445484 0.00029965091   0.57211932   0.03138016            0   0.54073916    1.8512657     2.423385    12.651469 
15840000    1.2728893 5.215602e-05   0.57046183  0.040375031            0    0.5300868    1.8934229    2.4638847    4.2441435 
15845000    1.2284986 -5.1548618e-05    0.6251409  0.023559371            0   0.60158153    1.8273917    2.4525326   0.69300642 
15850000    1.2036617 -0.00011599255   0.65256766  0.034231468            0   0.61833619    1.7904468    2.4430145   -1.5161978 
15855000     1.220368 -0.00021794484   0.63205714  0.072204636            0   0.55985251    1.8152973    2.4473545   -4.9918295 
15860000    1.1470384 0.00010840944   0.73578515  0.033798815            0   0.70198633    1.7062196    2.4420048    6.1423802 
15865000    1.2121819 5.7728219e-05   0.66093416  0.032900784            0   0.62803338    1.8031205    2.4640547    4.4345113 
15870000    1.2850323 8.0116889e-05   0.51771653  0.018955186            0   0.49876135    1.9114855    2.4292021    5.1638585 
15875000    1.2415991 2.9056766e-05   0.57624057  0.030442366            0   0.54579821    1.8468786    2.4231192    3.4149235 
15880000    1.2116869 -0.0001334505   0.61667485  0.034875055            0    0.5817998    1.8023842    2.4190591   -2.1360513 
15885000    1.2476388 -8.8854493e-05    0.5692333  0.028332621            0   0.54090068    1.8558627     2.425096  -0.60780405 
15890000    1.1492978 1.496264e-05   0.74252818   0.03474033            0   0.70778785    1.7095805    2.4521087    2.9628335 
15895000     1.286415 7.5344236e-05   0.54744905   0.01559367            0   0.53185538    1.9135422    2.4609913    5.0327412 
15900000    1.2490687 -0.00014423717   0.61192244  0.035216126            0   0.57670631    1.8579897    2.4699122   -2.4533834 
15905000    1.2412364 -8.5347973e-05   0.62494709   0.03614192            0   0.58880517    1.8463391    2.4712862  -0.44192461 
15910000    1.2930059 -5.5090745e-05   0.53197936  0.020463086            0   0.51151627    1.9233463    2.4553257   0.57489491 
15915000    1.2552351 -0.00010880941    0.5960448  0.023357108            0   0.57268769    1.8671621    2.4632069   -1.2508211 
15920000    1.2061162 0.00012054785   0.68095476  0.016642312            0   0.66431245    1.7940978    2.4750525    6.5897524 
15925000    1.3006863 9.5839947e-05   0.52410909   0.01323698            0   0.51087211    1.9347709      2.45888    5.7302169 
15930000     1.223268 -6.1344974e-05   0.59803837  0.029721823            0   0.56831655    1.8196111    2.4176495   0.32374102 
15935000    1.1429581 1.2554552e-06   0.70340442  0.011472647            0   0.69193178    1.7001502    2.4035547    2.4464075 
15940000    1.2138439 0.00011893999     0.596558  0.019200239            0   0.57735776    1.8055928    2.4021508    6.4619693 
15945000     1.240662 0.00012563676    0.5764041  0.079906602            0    0.4964975    1.8454847    2.4218888    6.7102902 
15950000    1.2086045 4.3922108e-05    0.6286027  0.026680216            0   0.60192249    1.7977993     2.426402    3.9256099 
15955000    1.2350282 2.5863307e-05   0.56753321  0.020188835            0   0.54734438    1.8371045    2.4046377    3.2874386 
15960000     1.203912 -3.0045549e-05   0.61853234  0.027270529            0   0.59126181     1.790819    2.4093514    1.3837966 
15965000    1.2145812 4.9943853e-06   0.59938193 0.0082811929            0   0.59110074    1.8066896    2.4060715    2.5765466 
15970000    1.2505337 1.637517e-05    0.5241935  0.018948994            0   0.50524451    1.8601689    2.3843624    2.9433015 
15975000     1.184193 -3.3977118e-05   0.62978831   0.02481176            0   0.60497655    1.7614871    2.3912754    1.2315231 
15980000     1.163295 -6.8182909e-05   0.64254359  0.031242518            0   0.61130107    1.7304013    2.3729449  0.045634982 
15985000    1.2526217 -2.5262716e-05   0.50624123  0.029268266            0   0.47697297    1.8632748     2.369516    1.5072153 
15990000    1.1659326 1.3389257e-05   0.58233817 0.0098327429            0   0.57250543    1.7343248    2.3166629    2.7736829 
15995000    1.2034363 -5.8721696e-05   0.56879068  0.011050719            0   0.55773996    1.7901114    2.3589021   0.35453489 
16000000    1.2526885 -4.1456011e-05   0.48758565   0.02099412            0   0.46659153    1.8633742    2.3509598     0.935928 
16005000    1.1330322 -0.00010033618   0.64472233 0.0099110792            0   0.63481125    1.6853854    2.3301077   -1.0947006 
16010000    1.1685295 -1.6014294e-05   0.58579236 0.0036291029            0   0.58216326    1.7381876    2.3239799    1.7773587 
16015000    1.1576129 8.5373622e-05   0.57474971 0.0044294365            0   0.57032027    1.7219492    2.2966989    5.2107852 
16020000    1.1940516 6.8731068e-05   0.51576339  0.011331006            0   0.50443238    1.7761517    2.2919151    4.6379356 
16025000    1.1714943 6.5201875e-05   0.57099681  0.020753721            0   0.55024309    1.7425977    2.3135945    4.5391519 
16030000    1.1741908 -8.1050059e-05   0.57602255  0.027188387            0   0.54883417    1.7466088    2.3226313  -0.44387734 
16035000    1.1798337 -8.1114487e-05   0.54373219  0.041316434            0   0.50241576    1.7550027    2.2987349  -0.46997293 
16040000    1.1313296 -2.800939e-06   0.60639756  0.051606358            0    0.5547912    1.6828527    2.2892503    2.1936449 
16045000    1.2244819 1.7638581e-05   0.46186753  0.030647686            0   0.43121984    1.8214168    2.2832843    2.8853479 
16050000    1.1504901 0.00013527367   0.57845669   0.04058102            0   0.53787567     1.711354    2.2898107    6.9071519 
16055000    1.1524615 -5.2370187e-05   0.57810204  0.034002784            0   0.54409926    1.7142865    2.2923885    0.5048195 
16060000    1.1578631 -0.00013075556   0.59116138  0.028323192            0   0.56283819    1.7223214    2.3134827   -2.1496404 
16065000    1.1410564 8.2145729e-05   0.60382754 0.0060100155            0   0.59781752    1.6973214    2.3011489    5.1050565 
16070000    1.1601335 7.5580134e-05   0.55710921  0.035570681            0   0.52153852    1.7256986    2.2828078    4.8626097 
16075000    1.2035939 3.0617112e-05   0.51111734  0.016687043            0    0.4944303     1.790346    2.3014633    3.3465274 
16080000    1.1751903 7.1038964e-05   0.54465389  0.049479654            0   0.49517424    1.7480956    2.2927495    4.7175462 
16085000    1.1362977 -8.4504672e-05   0.57295524  0.036907934            0   0.53604731    1.6902428     2.263198   -0.6212281 
16090000     1.167091 -0.00017902932   0.52492947  0.007496512            0   0.51743296    1.7360479    2.2609774   -3.8498901 
16095000    1.0729295 -2.0591623e-05   0.65774785  0.024995157            0   0.63275269    1.5959827    2.2537305    1.5508698 
16100000    1.1605259 6.2366466e-05   0.52910141  0.043955701            0   0.48514571    1.7262823    2.2553837    4.3841591 
16105000    1.1721974 4.5850087e-05   0.51226078  0.053227184            0    0.4590336    1.7436436    2.2559044    3.8209206 
16110000    1.0616861 0.0001259903   0.64747425  0.021400425            0   0.62607383     1.579258    2.2267323     6.527201 
16115000    1.1019779 -4.3155786e-05   0.54451794  0.046880766            0   0.49763718    1.6391921      2.18371   0.71065918 
16120000     1.070544 -0.00018705159   0.58464525  0.047928162            0   0.53671709    1.5924342    2.1770795   -4.2076147 
16125000    1.1139423 9.8970599e-05   0.52054333  0.015501241            0   0.50504209    1.6569892    2.1775326     5.555729 
16130000     1.073307 0.00020735009   0.57674746  0.032819438            0   0.54392802    1.5965442    2.1732917    9.2508415 
16135000     1.121148 -7.863425e-05   0.51510235  0.031500373            0   0.48360198    1.6677076      2.18281   -0.5012391 
16140000    1.1032426 -0.00015927219    0.5523046  0.015582749            0   0.53672185    1.6410733    2.1933779    -3.243113 
16145000    1.0703253 1.5142207e-05   0.57693757  0.034190192            0   0.54274737    1.5921089    2.1690464    2.6859004 
16150000    1.1095988 0.00010376659   0.54289471  0.033526254            0   0.50936845    1.6505282    2.1934229    5.7353224 
16155000    1.1400795 0.00010326207   0.50621654  0.039089585            0   0.46712695    1.6958682    2.2020848    5.7267636 
16160000    1.1326402 7.5924257e-05   0.51286495  0.024929068            0   0.48793588    1.6848024    2.1976673    4.7892153 
16165000    1.2053899 -7.0644576e-05   0.39361349  0.005597728            0   0.38801577    1.7930175     2.186631  -0.22470385 
16170000    1.0689355 -0.00023298891   0.57678903  0.010671891            0   0.56611714    1.5900415    2.1668305   -5.7858575 
16175000    1.0687538 -7.4088142e-05   0.59777013  0.027247844            0   0.57052229    1.5897713    2.1875414   -0.3413338 
16180000    1.1116274 0.00020557656    0.5042148  0.019700612            0   0.48451419    1.6535457    2.1577605    9.1747737 
16185000    1.0965135 0.00013579133   0.53521736  0.012946075            0   0.52227128    1.6310639    2.1662812     6.801292 
16190000    1.0551177 7.2331796e-06   0.57840743  0.021870775            0   0.55653665    1.5694876    2.1478951    2.3947876 
16195000    1.0831753 0.00015131339   0.56778608  0.063351204            0   0.50443487    1.6112232    2.1790093    7.3438396 
16200000    1.0417956 0.00022865706   0.61324584  0.034332219            0   0.57891362    1.5496709    2.1629167    9.9677445 
16205000    1.0972353 8.6550347e-06   0.53663998  0.019593419            0   0.51704657    1.6321375    2.1687775    2.4642027 
16210000    1.1178503 -2.7595861e-06   0.51123837  0.040576879            0   0.47066149    1.6628023    2.1740407    2.0798468 
16215000    1.1479335 -3.9936071e-05     0.485667  0.039241539            0   0.44642546     1.707551     2.193218    0.8300668 
16220000    1.0764293 1.787646e-05   0.59712864   0.02923648            0   0.56789216    1.6011885    2.1983172    2.8085003 
16225000    1.1021336 -6.6953942e-06   0.59149443  0.025181803            0   0.56631263    1.6394237    2.2309181     2.002382 
16230000    1.1382258 5.0026227e-05   0.52164307    0.0211961            0   0.50044697    1.6931109     2.214754    3.9223158 
16235000    1.1031245 0.00011363667   0.57720981  0.022085775            0   0.55512403    1.6408977    2.2181076    6.0969059 
16240000    1.1752491 -2.2365018e-05   0.47198962 0.0032073872            0   0.46878223    1.7481831    2.2201727    1.4567801 
16245000     1.104793 -9.1590984e-05   0.58655082  0.025843893            0   0.56070693    1.6433796    2.2299304  -0.89637516 
16250000     1.095552 -6.5739621e-05   0.59577289  0.031418969            0   0.56435392    1.6296335    2.2254064 -0.018505969 
16255000    1.0636671 3.0010524e-05   0.63044057  0.020735146            0   0.60970542    1.5822048    2.2126454    3.2370046 
16260000    1.1134695 -5.5808779e-05   0.55524014  0.013022992            0   0.54221715    1.6562858     2.211526   0.30658633 
16265000    1.1515571 5.2733076e-05   0.47508845 0.0095190485            0    0.4655694    1.7129412    2.1880297    3.9879853 
16270000    1.0949877 -9.5617344e-05   0.54840793 0.0098821774            0   0.53852575    1.6287943    2.1772022   -1.0865365 
16275000    1.1406412 -0.00012113535   0.45692841  0.014819195            0   0.44210921    1.6967037    2.1536321   -1.9811212 
16280000    1.0889572 0.00011174789   0.52918192 0.0044520096            0   0.52472991    1.6198239    2.1490058    5.9633338 
16285000    1.1741392 8.9948321e-05   0.42700408 0.00024807437            0     0.426756     1.746532    2.1735361    5.2437721 
16290000    1.1047107 -7.2339848e-05   0.50229086 0.00061667787            0   0.50167418    1.6432572     2.145548  -0.32365212 
16295000    1.0290399 -0.00015079856   0.59179474 0.0070652858            0   0.58472946    1.5306968    2.1224915    -3.024766 
16300000     1.067474 -5.2952825e-05    0.5275268   0.02207979            0   0.50544701    1.5878675    2.1153943   0.30793788 
16305000    1.1026881 -7.78537e-05   0.49061918 0.0040880085            0   0.48653117    1.6402485    2.1308677  -0.52653858 
16310000    1.0836792 -0.00012268434   0.52346074  0.017370522            0   0.50609022    1.6119728    2.1354335    -2.052192 
16315000    1.0361732 0.00012557857   0.59312041   0.04558768            0   0.54753273    1.5413077    2.1344281    6.4208432 
16320000    1.0874323 7.7004876e-05   0.53162434  0.025092606            0   0.50653174    1.6175556      2.14918    4.7776131 
16325000    1.0602565 -4.3638444e-06   0.57504441  0.020548304            0   0.55449611    1.5771315    2.1521759    2.0032234 
16330000    1.0343225 -2.4953614e-05   0.57237816   0.02541008            0   0.54696808    1.5385547    2.1109329    1.2591829 
16335000    1.0569388 -1.2917189e-05   0.53666539  0.033579311            0   0.50308608    1.5721964    2.1088618    1.6679551 
16340000    1.0865393 4.4749607e-05   0.50210255 0.0072116249            0   0.49489093    1.6162271    2.1183297    3.6457829 
16345000     1.069247 -5.7242417e-05   0.52114545 0.0046481382            0   0.51649731    1.5905049    2.1116504   0.15777591 
16350000    1.0880235 -7.096906e-06   0.49572332 0.0041793361            0   0.49154399     1.618435    2.1141583    1.8719173 
16355000    1.0504437 5.5277424e-05   0.56718596 0.0030021228            0   0.56418383    1.5625351     2.129721    4.0165237 
16360000    1.1316199 -4.1306621e-05   0.45753303 0.0077309784            0   0.44980205    1.6832847    2.1408177   0.73088502 
16365000    1.0970183 -2.3696289e-06    0.4756796  0.018371968            0   0.45730764    1.6318147    2.1074943     2.026611 
16370000     1.030285 -3.4487725e-05    0.5824203  0.053527528            0   0.52889277    1.5325489    2.1149692   0.93778823 
16375000      1.10836 -0.00011663872   0.47329781  0.040510117            0   0.43278769    1.6486856    2.1219834   -1.8592848 
16380000    1.0512806 0.00011980235   0.57531809  0.092146709            0   0.48317138    1.5637799     2.139098    6.2283515 
16385000    1.0994055 7.6547503e-05   0.50232782  0.033584857            0   0.46874296    1.6353657    2.1376936     4.750515 
16390000    1.0755644 -0.00018428975   0.53168269  0.012873085            0   0.51880961     1.599902    2.1315847   -4.1588388 
16395000    1.0801243 -6.8630612e-05   0.51062819  0.015739677            0   0.49488852    1.6066848     2.117313  -0.22527853 
16400000     1.127053 1.5595293e-05   0.46845242  0.015021842            0   0.45343057    1.6764914    2.1449438    2.6772631 
16405000    1.1211687 -9.3008787e-05   0.49440297 0.0088656677            0    0.4855373    1.6677385    2.1621414   -1.0125585 
16410000    1.1630408 5.213997e-05   0.43381072 0.0063869712            0   0.42742375    1.7300232    2.1638339    3.9435449 
16415000    1.1489015 0.00019271591    0.4422327  0.012630015            0   0.42960268     1.708991    2.1512237    8.7292602 
16420000    1.1183202 -0.00012392758   0.52115687   0.00676027            0    0.5143966    1.6635013    2.1846582   -2.0454032 
16425000    1.0318278 -0.00010888276   0.63771214  0.018251961            0   0.61946018    1.5348438    2.1725559   -1.5439756 
16430000    1.0814323 -3.168539e-05    0.5490152  0.015781506            0   0.53323369    1.6086306    2.1576458    1.0761178 
16435000    1.1185292 4.4689559e-05   0.51066228 0.0046865248            0   0.50597575    1.6638121    2.1744744     3.699878 
16440000    1.1453111 -9.9135145e-06   0.47160368 0.0053784881            0   0.46622519    1.7036503     2.175254    1.8368727 
16445000    1.1179238 -9.0727449e-05   0.52753233 0.0015866107            0   0.52594571    1.6629117     2.190444  -0.90638624 
16450000    1.1109061 4.8204629e-05   0.55267092  0.011715098            0   0.54095582    1.6524728    2.2051437    3.8505283 
16455000    1.0571052 4.4943042e-05   0.62906061  0.022125558            0   0.60693505     1.572444    2.2015046    3.7355605 
16460000     1.166966 1.6820539e-05   0.48430069  0.017968974            0   0.46633172     1.735862    2.2201627    2.7943038 
16465000    1.1651993 -2.4466338e-05   0.48268895 0.0075618386            0   0.47512711    1.7332339    2.2159228    1.3808052 
16470000    1.1095181 1.0770502e-05   0.59395567  0.034278549            0   0.55967712    1.6504082    2.2443638     2.611997 
16475000     1.098422 9.0165786e-05   0.61614614  0.016842897            0   0.59930324    1.6339027    2.2500488    5.3277077 
16480000    1.0947346 -4.7544289e-05   0.63562078  0.022258938            0   0.61336184    1.6284177    2.2640385   0.64119347 
16485000    1.0756106 -1.4622043e-05   0.68192433  0.026475763            0   0.65544856    1.5999708    2.2818951     1.782796 
16490000    1.1594705 6.3145195e-05   0.54297621  0.020575349            0   0.52240086    1.7247124    2.2676886    4.4230446 
16495000    1.1381811 8.7977749e-05   0.59290422  0.015014782            0   0.57788943    1.6930444    2.2859486    5.2889224 
16500000    1.1443921 4.8902471e-05   0.57652007  0.025441786            0   0.55107828    1.7022833    2.2788034    3.9480077 
16505000    1.1509483 -4.664507e-05   0.58629966    0.0230869            0   0.56321276    1.7120355    2.2983352   0.70618348 
16510000    1.1485562 -2.4741406e-05   0.59094103  0.024591622            0   0.56634941    1.7084774    2.2994184    1.4549118 
16515000    1.1557103 7.2395934e-05   0.57652477  0.020781331            0   0.55574344     1.719119    2.2956438    4.7667583 
16520000    1.1654412 3.4594888e-05   0.58120258  0.015296069            0   0.56590651    1.7335939    2.3147964    3.4956353 
16525000    1.1229874 -0.0001666956   0.63598551  0.031569015            0    0.6044165    1.6704438    2.3064293    -3.383447 
16530000    1.1444271 -0.00013256561   0.57578259  0.012562705            0   0.56321989    1.7023354     2.278118   -2.2467883 
16535000    1.1163323 1.1202924e-05   0.59741307  0.023630484            0   0.57378259    1.6605443    2.2579573    2.6403505 
16540000    1.1852835 1.7165062e-05   0.49957096  0.026018775            0   0.47355219    1.7631092    2.2626801    2.8485809 
16545000    1.1932273 -6.0614569e-05   0.50302332   0.02082628            0   0.48219704    1.7749256    2.2779489   0.20897161 
16550000    1.0924568 -0.00010716802   0.64652703  0.017511475            0   0.62901555    1.6250296    2.2715566   -1.3864451 
16555000    1.1292646 -0.00013729188   0.61262937 0.0078721302            0   0.60475724    1.6797811    2.2924104    -2.393819 
16560000    1.1751782 -8.746897e-05   0.54720949  0.011612612            0   0.53559688    1.7480776    2.2952871  -0.69032045 
16565000    1.1749027 7.1174806e-05    0.5542265  0.016248491            0   0.53797801    1.7476677    2.3018942    4.7313276 
16570000    1.1671707 1.7674794e-05   0.56810097  0.038376976            0     0.529724    1.7361664    2.3042673     2.907567 
16575000    1.1637174 -5.9221822e-05   0.60117172  0.014459756            0   0.58671196    1.7310297    2.3322014   0.31076319 
16580000    1.1723303 5.4588377e-05     0.569466  0.013551097            0    0.5559149    1.7438413    2.3133073    4.1765906 
16585000    1.1322736 -1.9824723e-05   0.59820311  0.040443289            0   0.55775982     1.684257    2.2824601    1.6057762 
16590000    1.1216046 -7.4565437e-05   0.61445154  0.042146685            0   0.57230486    1.6683869    2.2828384   -0.2623285 
16595000    1.1812511  2.73703e-05   0.50090144  0.027231376            0   0.47367006    1.7571111    2.2580125    3.1922521 
16600000    1.1456738 8.2648948e-05    0.5318297  0.018721708            0   0.51310799    1.7041897    2.2360194    5.0571035 
16605000    1.1344159 -9.1542152e-06   0.55755777 0.0082248032            0   0.54933297    1.6874437    2.2450015    1.9325376 
16610000    1.1606739 5.8445939e-05   0.49514387  0.006851506            0   0.48829236    1.7265025    2.2216463     4.216601 
16615000    1.1215096 7.3487403e-05   0.55732193 0.0080361665            0   0.54928576    1.6682455    2.2255675    4.7339375 
16620000    1.1428509 -3.0026077e-05   0.52614485   0.01557374            0   0.51057111    1.6999906    2.2261355    1.2012454 
16625000    1.0707128 -0.00022850452   0.60890819  0.045282844            0   0.56362534    1.5926853    2.2015935   -5.5980274 
16630000     1.103993 -0.00013046511   0.57196311  0.061997314            0    0.5099658    1.6421896    2.2141527   -2.2390563 
16635000     1.028567 -1.6677777e-05   0.66487725  0.030032763            0   0.63484449    1.5299935    2.1948707    1.6256026 
16640000    1.0492617 -8.8406523e-05   0.63083912  0.021217814            0   0.60962131    1.5607767    2.1916159  -0.82599344 
16645000    1.0980185 -1.8072289e-06   0.55824969  0.038732022            0   0.51951767    1.6333025    2.1915522    2.1298654 
16650000   0.98024843 3.7021597e-05   0.74062716  0.074739184            0   0.66588797    1.4581195    2.1987467    3.4624172 
16655000    1.0938973 2.5169183e-05   0.54743852  0.018479821            0    0.5289587    1.6271723    2.1746108    3.0337189 
16660000    1.0120934 1.0997674e-05   0.65071619 0.0081961401            0   0.64252005     1.505489    2.1562052    2.5315925 
16665000    1.0717618 3.6862193e-05   0.57381468  0.046819554            0   0.52699513    1.5942457    2.1680604    3.4262899 
16670000    1.0780605 -9.4646533e-05    0.6076323  0.015616695            0   0.59201561     1.603615    2.2112473   -1.0193544 
16675000    1.1287819 1.5258076e-05   0.53088406 0.0028405914            0   0.52804347    1.6790631    2.2099471    2.7307561 
16680000    1.0847992 -3.0077889e-05   0.59736454 0.0021255698            0   0.59523897    1.6136387    2.2110033    1.1843447 
16685000    1.0581873 0.00011722528    0.6382772 0.0075141504            0   0.63076305    1.5740536    2.2123308    6.2136203 
16690000    1.0714748 -1.5640845e-05    0.6154105  0.029303995            0   0.58610651    1.5938187    2.2092292     1.675355 
16695000     1.178151 -4.4127895e-05   0.48504824  0.042722569            0   0.44232567    1.7524996    2.2375479   0.73131573 
16700000    1.2038319 -0.00010570221    0.4598367  0.019626454            0   0.44021025       1.7907    2.2505367    -1.357432 
16705000    1.0508227 -6.1693878e-05   0.69101801  0.040967757            0   0.65005025    1.5630987    2.2541167     0.148299 
16710000    1.0969307 4.4289298e-06   0.61358525  0.022365946            0    0.5912193    1.6316844    2.2452696    2.3964437 
16715000    1.1522127 -0.00016299983   0.53171797  0.010935956            0   0.52078201    1.7139164    2.2456344   -3.3180932 
16720000    1.1625849 6.8012478e-08   0.52201961  0.016844355            0   0.50517525     1.729345    2.2513646    2.2536861 
16725000    1.0483813 9.4262081e-05   0.66566436  0.020760465            0    0.6449039    1.5594672    2.2251316    5.4426106 
16730000    1.1077999 5.6767633e-06   0.59881465  0.019436639            0   0.57937801    1.6478524     2.246667    2.4404339 
16735000    1.1104949 -0.00011226586   0.59632734  0.026250963            0   0.57007638    1.6518612    2.2481886   -1.5838193 
16740000    1.0648338 5.455373e-05   0.65147594  0.013444454            0   0.63803148    1.5839402    2.2354162    4.0975168 
16745000     1.111845 1.5332497e-05   0.59360194  0.012162602            0   0.58143933    1.6538695    2.2474714    2.7708207 
16750000    1.1299234 -8.1963499e-05   0.52317493 0.0075356852            0   0.51563924    1.6807611     2.203936   -0.5937514 
16755000    1.0394468 -5.9242429e-05   0.64961613  0.010030643            0   0.63958548    1.5461771    2.1957933   0.17365171 
16760000    1.0728823   2.0329e-05   0.60282546   0.01006657            0   0.59275889    1.5959125    2.1987379    2.8926345 
16765000     1.096383 4.4218179e-05   0.58919696 0.0019069593            0      0.58729    1.6308697    2.2200666    3.7293805 
16770000     1.041093 -1.1049562e-05   0.65281129 0.0019141645            0   0.65089713    1.5486259    2.2014372    1.8242788 
16775000      1.09515 -0.00014431416   0.56245675 0.00079832364            0   0.56165843    1.6290356    2.1914924   -2.7344311 
16780000    1.0795921 2.8386039e-05   0.57798727 0.0020132624            0   0.57597401    1.6058933    2.1838805    3.1527907 
16785000    1.0546131 -2.8351197e-05   0.61075967  0.012692887            0   0.59806679     1.568737    2.1794967    1.2117758 
16790000    1.0683126 2.3406638e-05   0.58459391  0.014071829            0   0.57052209     1.589115    2.1737089    2.9726555 
16795000    1.0681027 -1.0418328e-05   0.56277631 0.0086875612            0   0.55408875    1.5888028    2.1515791    1.7959669 
16800000    1.0185911 -8.1627903e-05   0.62208306 0.0025626777            0   0.61952038    1.5151543    2.1372374  -0.64899503 
16805000    1.0393271 4.3463895e-05   0.56482067 0.0016786097            0   0.56314206    1.5459991    2.1108198    3.5943874 
16810000     1.069122 4.7311476e-05   0.53402436  0.011459674            0   0.52256469     1.590319    2.1243433    3.7392417 
16815000    1.0441935 0.00010398796   0.57280074  0.010038934            0   0.56276181    1.5532378    2.1260386    5.6754943 
16820000     1.053207 -7.3566367e-05   0.57283811 0.0026408595            0   0.57019725    1.5666454    2.1394835  -0.37158183 
16825000    1.0013149 -0.00015155834   0.65583042  0.010063891            0   0.64576653     1.489456    2.1452864    -3.027905 
16830000     1.110509 -5.9198576e-05   0.50993008  0.020874327            0   0.48905575    1.6518821    2.1618122    0.1411675 
16835000    1.0162496 -1.4829816e-06   0.65235715  0.027039884            0   0.62531727    1.5116713    2.1640285    2.1134094 
16840000    1.1286475 -5.324609e-05   0.49172491  0.008658069            0   0.48306684    1.6788632    2.1705881   0.35312159 
16845000    1.0742089 -4.0656421e-05   0.59658499  0.002314179            0   0.59427081    1.5978857    2.1944707   0.80673152 
16850000    1.0786608 -5.3944499e-05   0.59315736  0.016816526            0   0.57634084    1.6045079    2.1976653   0.35635973 
16855000    1.0585224 -5.5485807e-05   0.63713381  0.043162435            0   0.59397137    1.5745521    2.2116859   0.31777031 
16860000     1.043633 -0.00014822557    0.6799005  0.052465495            0     0.627435    1.5524041    2.2323046   -2.8271283 
16865000    1.1226106 8.5614792e-06   0.56865135    0.0339492            0   0.53470215    1.6698833    2.2385347    2.5307665 
16870000    1.0951327 0.00017464437   0.58871592  0.029802232            0   0.55891369    1.6290099    2.2177258    8.1789204 
16875000    1.0918543 8.2025874e-05   0.57911021 0.0047981191            0    0.5743121    1.6241333    2.2032436    5.0030601 
16880000      1.03271 2.7331563e-05   0.67241908 0.0053307619            0   0.66708832    1.5361561    2.2085752    3.1414926 
16885000    1.0987711 1.0014972e-05   0.59050208  0.033409533            0   0.55709254     1.634422    2.2249241    2.5667685 
16890000    1.1250459 6.4787352e-05   0.55641225  0.042489735            0   0.51392252    1.6735058     2.229918    4.4413263 
16895000   0.99715585 0.00020120929   0.74131939  0.021573344            0   0.71974605    1.4832693    2.2245887    9.0925326 
16900000    1.0634985 5.0745102e-05   0.61312521  0.054497422            0   0.55862778     1.581954    2.1950792    3.9271787 
16905000    1.0876793 -3.845433e-05   0.55925211  0.020804053            0   0.53844806    1.6179229     2.177175   0.86460055 
16910000    1.0556598 -8.5284368e-05   0.58211794 0.0041208953            0   0.57799705    1.5702939    2.1524119   -0.7586279 
16915000      1.06516 0.00013519623   0.53925762   0.01679797            0   0.52245965    1.5844254     2.123683    6.7383812 
16920000    1.0292783 0.00011427415   0.57440833  0.032561049            0   0.54184729    1.5310515    2.1054598    6.0060174 
16925000    1.0014856 8.9036248e-05   0.61338329  0.020894389            0    0.5924889    1.4897099    2.1030932    5.1421971 
16930000    1.1140206 0.00010234284   0.47376533 0.0024793647            0   0.47128597    1.6571057     2.130871    5.6241734 
16935000   0.99366371 -0.00018743607   0.65794923 0.0064525645            0   0.65149667    1.4780748     2.136024    -4.261794 
16940000    1.0550351 -9.2698443e-05   0.57726272  0.013655798            0   0.56360692    1.5693647    2.1466274   -1.0174794 
16945000    1.0138445 -4.8138796e-05   0.63750344  0.026105362            0   0.61139808    1.5080936    2.1455971   0.50245951 
16950000   0.96289987 -8.9586998e-06   0.70100922  0.040728482            0   0.66028074    1.4323136    2.1333228    1.8275325 
16955000    1.0558103 -3.4223307e-05   0.55469823   0.02295936            0   0.53173886    1.5705178     2.125216   0.95706052 
16960000   0.95659229 -9.4954708e-05   0.69002458  0.024523408            0   0.66550117     1.422931    2.1129556   -1.1281651 
16965000   0.96686964 -0.00022274751   0.69562842  0.038604686            0   0.65702373    1.4382186     2.133847   -5.4692681 
16970000    1.0497278 -0.00015505443   0.58012725  0.029083146            0   0.55104411    1.5614701    2.1415974   -3.1509273 
16975000    1.0289349 -1.4086444e-05   0.60490969  0.017455896            0    0.5874538    1.5305407    2.1354503    1.6546331 
16980000    1.0311782 0.00021757777   0.59883224  0.016149518            0   0.58268272    1.5338776    2.1327098    9.5593645 
16985000   0.99343159 0.00023032999   0.65369366  0.029028795            0   0.62466487    1.4777295    2.1314231    9.9933536 
16990000    1.0437866 -2.1975229e-05   0.59102321  0.021552236            0   0.56947098    1.5526326    2.1436558     1.393568 
16995000    1.0655849 -0.00018705497   0.55191215  0.006953015            0   0.54495913    1.5850575    2.1369696   -4.2478402 
17000000    1.0318719 -0.00013265129   0.62259915  0.038608584            0   0.58399056    1.5349095    2.1575087    -2.370322 
17005000   0.93284903 -9.8349943e-05   0.76157402  0.083337718            0    0.6782363    1.3876129    2.1491869   -1.2078244 
17010000   0.96447883 5.3875357e-05   0.69110864  0.063124547            0   0.62798409    1.4346623    2.1257709    3.9647164 
17015000    1.0196442 -9.9039892e-06   0.61330594  0.074669041            0    0.5386369    1.5167208    2.1300267    1.7919705 
17020000   0.95021209 -3.9256861e-05   0.68829196  0.053965266            0   0.63432669    1.4134405    2.1017324   0.76176493 
17025000     1.058044 -6.0043455e-05   0.49466651  0.011741202            0   0.48292531    1.5738405     2.068507  0.019023774 
17030000   0.96435638 0.00011522348   0.64583145  0.008011673            0   0.63781978    1.4344801    2.0803116    6.0132731 
17035000    1.0008652 3.6162106e-05   0.60791646  0.017320855            0   0.59059561     1.488787    2.0967034    3.3310366 
17040000    0.9049767 -2.0626828e-06   0.73894269  0.040330592            0   0.69861209    1.3461528    2.0850955    2.0146893 
17045000    1.0840144 0.0001807777   0.49099416  0.012898446            0   0.47809571    1.6124714    2.1034656     8.274011 
17050000   0.99699451 -6.543579e-05   0.61203795  0.029112833            0   0.58292512    1.4830293    2.0950673  -0.13847437 
17055000   0.95435074 -7.0266115e-05    0.6624556  0.026321351            0   0.63613425    1.4195967    2.0820523   -0.3163644 
17060000    1.0173385 -2.5166149e-05   0.55225932 0.0061986914            0   0.54606063     1.513291    2.0655503    1.2065457 
17065000   0.94007233 1.9085052e-05   0.65966906  0.016902476            0   0.64276659    1.3983576    2.0580266    2.7094631 
17070000    1.0305041 0.00015633123   0.53120994  0.020858632            0   0.51035131    1.5328749    2.0640848    7.4001909 
17075000    0.9839159 -5.4499436e-05   0.59862141 0.0082483485            0   0.59037306    1.4635749    2.0621963    0.2019489 
17080000   0.90974405 -0.00011736505   0.71467654  0.021175105            0   0.69350144    1.3532443    2.0679208   -1.9381396 
17085000   0.99137285 0.00010295047   0.60389853  0.025701046            0   0.57819749    1.4746671    2.0785657    5.5926085 
17090000    1.0097437 0.00010723271   0.57686981  0.019478756            0   0.55739106    1.5019937    2.0788635    5.7390735 
17095000   0.93361449 0.00013957773   0.68814146 0.0093537187            0   0.67878774    1.3887515     2.076893    6.8411462 
17100000    1.0706719 3.9576413e-05   0.50488579 0.0062751554            0   0.49861063    1.5926245    2.0975103    3.4483852 
17105000    1.0683416 -1.0722847e-05    0.5162669 0.0051620344            0   0.51110487    1.5891582    2.1054251    1.7394186 
17110000     1.014643 -3.614913e-05   0.59653931  0.004961978            0   0.59157733    1.5092814    2.1058207   0.87193042 
17115000    1.0503983 1.2766193e-06   0.53735743 0.0046633794            0   0.53269405    1.5624675    2.0998249    2.1434002 
17120000    1.0086123 0.00021174903   0.63852084 0.0050019194            0   0.63351892    1.5003108    2.1388316    9.3665319 
17125000    1.0192189 7.0199357e-05   0.62623852 0.0012653551            0   0.62497317    1.5160881    2.1423266    4.5384647 
17130000   0.94342154 3.5886113e-05   0.73403845   0.00104834            0   0.73299011    1.4033395     2.137378    3.3622906 
17135000    1.0284231 3.3845702e-05   0.62447236  0.016674805            0   0.60779756    1.5297794    2.1542518    3.3095184 
17140000   0.99686488 -0.00016124732   0.68991045  0.062535871            0   0.62737458    1.4828365     2.172747   -3.3311615 
17145000    1.0321498 -1.7338839e-05   0.66764458  0.054824649            0   0.61281993    1.5353229    2.2029674     1.611135 
17150000    1.0429256 4.2762919e-05   0.66065601  0.026331978            0   0.63432403    1.5513518    2.2120078    3.6716487 
17155000    1.0403903 -4.666056e-05   0.70084597  0.005760916            0   0.69508505    1.5475806    2.2484265   0.65574608 
17160000    1.1006492 4.8544138e-05   0.58569969  0.024131458            0   0.56156823    1.6372156    2.2229153    3.8798886 
17165000    1.0455337 -2.8934291e-07   0.67734104  0.056214879            0   0.62112616    1.5552314    2.2325724    2.2226962 
17170000    1.0477162 5.3306863e-05   0.66860855 0.0084456036            0   0.66016295    1.5584778    2.2270864    4.0466273 
17175000    1.1006651 -7.0117442e-05   0.63486921 0.0043122204            0   0.63055699    1.6372393    2.2721085  -0.12123352 
17180000    1.1151275 6.3814935e-06   0.62150851  0.019336799            0   0.60217171    1.6587521    2.2802606    2.4980822 
17185000    1.1441881 -1.6394155e-05   0.55313106  0.022135596            0   0.53099546    1.7019797    2.2551108    1.6955236 
17190000    1.1371283 -5.5362187e-05   0.56375804  0.001975773            0   0.56178227    1.6914784    2.2552365   0.36554048 
17195000    1.0699993 5.1631627e-05    0.6692905 0.0023606564            0   0.66692985    1.5916239    2.2609144    4.0232739 
17200000    1.1262822 8.4952456e-05   0.58694085 0.0035606686            0   0.58338018    1.6753447    2.2622856    5.1619961 
17205000    1.1303605 0.0001382004   0.54590175 0.0081817881            0   0.53771996    1.6814112     2.227313    6.9445534 
17210000    1.0560602 -2.7351442e-05   0.64112906  0.025412336            0   0.61571672    1.5708895    2.2120186    1.2784227 
17215000    1.0788995 -0.00013796675   0.62192755  0.031126474            0   0.59080108     1.604863    2.2267906   -2.4824745 
17220000    1.1243144 -6.9932184e-05   0.55273493  0.045805834            0   0.50692909    1.6724177    2.2251527  -0.16186589 
17225000    0.9913319 5.1634257e-05   0.73423071  0.078242731            0   0.65598798    1.4746062    2.2088369    3.9712862 
17230000    1.0644252 -2.326722e-05    0.6478267  0.027772418            0   0.62005428    1.5833325    2.2311592    1.4369715 
17235000    1.1117443 0.00014874248   0.57252648  0.020073587            0   0.55245289    1.6537196    2.2262461    7.3033227 
17240000    1.0854459 8.2620451e-05   0.62168808  0.017948551            0   0.60373953    1.6146008    2.2362889    5.0564002 
17245000    1.0735085 0.00012983631   0.65611223  0.013194976            0   0.64291725    1.5968438    2.2529561    6.6847022 
17250000    1.1395382 -0.00012711285   0.57976518  0.009283882            0    0.5704813    1.6950631    2.2748282    -2.063957 
17255000    1.1314295 -8.6818401e-05   0.58590602  0.025631167            0   0.56027486    1.6830013    2.2689074  -0.69449407 
17260000     1.070494 -5.982825e-06   0.66958935  0.024846816            0   0.64474253    1.5923598    2.2619491    2.0577354 
17265000    1.1637864 3.398398e-05   0.51876868  0.020383224            0   0.49838546    1.7311323    2.2499009    3.4098875 
17270000    1.1133858 -0.0001743754   0.58225295  0.031215805            0   0.55103715    1.6561614    2.2384144   -3.7135994 
17275000    1.1219422 6.8333501e-05   0.58190889  0.020291505            0   0.56161738     1.668889    2.2507978     4.583248 
17280000    1.1526306 4.1638259e-05   0.54356178  0.019548679            0    0.5240131     1.714538    2.2580998    3.6793524 
17285000    1.0705899 0.00014363138   0.64208336  0.019127896            0   0.62295546    1.5925025    2.2345859    7.1372038 
17290000    1.1172123 6.3449848e-05   0.56065146  0.010694955            0    0.5499565    1.6618532    2.2225047    4.3882595 
17295000    1.1441136 6.3309107e-06   0.52452718  0.026311975            0   0.49821521     1.701869    2.2263962    2.4424912 
17300000    1.1086467 -3.1142696e-05   0.56521169  0.016006815            0   0.54920488     1.649112    2.2143237    1.1513196 
17305000    1.0262584 -9.5615382e-05   0.66191304  0.009940209            0   0.65197284    1.5265594    2.1884724   -1.0751993 
17310000    1.0841158 0.00012996077   0.59178162  0.034692743            0   0.55708888    1.6126222    2.2044039    6.6403982 
17315000     1.004784 2.8297688e-06    0.6779091  0.041436584            0   0.63647252    1.4946161    2.1725252    2.2691147 
17320000    1.1316471 4.185946e-05   0.49576439  0.019541139            0   0.47622326    1.6833251    2.1790895    3.6078924 
17325000    1.1074967 -5.4621425e-05   0.53147179  0.046110483            0   0.48536131    1.6474014    2.1788732   0.31446186 
17330000    1.1080509 -0.0002124206   0.53710337  0.055490069            0    0.4816133    1.6482258    2.1853291    -5.065294 
17335000    1.0876345 -5.5509955e-05    0.5691341  0.015545784            0   0.55358832    1.6178564    2.1869905    0.2922507 
17340000    1.0842178 -1.7396914e-05   0.55528205  0.019295437            0   0.53598661    1.6127739     2.168056    1.5742413 
17345000    1.1129488 -7.3928607e-05   0.52297382    0.0221489            0   0.50082492    1.6555114    2.1784852  -0.34494455 
17350000    1.1034007 0.00015672743   0.55797095 0.0069450643            0   0.55102588    1.6413086    2.1992795     7.548909 
17355000    1.1497978 0.00017501723   0.49732556 0.0071063841            0   0.49021917    1.7103243    2.2076498    8.1815712 
17360000    1.0831453 -3.1479213e-05   0.57492317  0.050610851            0   0.52431232    1.6111786    2.1861018    1.1116113 
17365000    1.0642436 -1.9515107e-05   0.60236114  0.031507254            0   0.57085389    1.5830624    2.1854235    1.5193079 
17370000    1.0475787 -0.00012333846   0.64041613  0.021320013            0   0.61909612    1.5582733    2.1986894   -2.0112634 
17375000    1.1439154 -6.4687123e-05   0.51428594  0.022976008            0   0.49130993    1.7015742    2.2158601 0.0078729711 
17380000     1.055994 0.00020865481   0.63713521  0.022866043            0   0.61426917    1.5707911    2.2079263    9.3300105 
17385000    1.1171736 6.0845027e-05   0.57725417  0.041855827            0   0.53539835    1.6617958      2.23905    4.3158935 
17390000    1.0303655 -9.7030642e-05   0.71007286  0.034740698            0   0.67533216    1.5326686    2.2427415   -1.0692378 
17395000    1.0901771 -5.7423964e-05   0.64243822  0.018823122            0    0.6236151    1.6216385    2.2640767   0.30400538 
17400000    1.1439846 2.8051247e-05   0.54022085  0.014605008            0   0.52561584     1.701677    2.2418979    3.1993804 
17405000    1.0797483 -3.1064834e-05   0.62223483  0.015857318            0   0.60637751    1.6061257    2.2283605    1.1680141 
17410000    1.0911418 0.00011183047   0.57890836  0.015072034            0   0.56383632    1.6230734    2.2019818    6.0191283 
17415000    1.0839046 0.00013275703   0.58191795  0.017674673            0   0.56424328    1.6123081     2.194226     6.725666 
17420000    1.0948889 -2.4947127e-05   0.59659745 0.0099872586            0   0.58661019    1.6286472    2.2252447    1.3737161 
17425000    1.1792748 -2.4045631e-05   0.47620389 0.0094176759            0   0.46678622    1.7541713    2.2303752    1.4096176 
17430000    1.0899555 -5.3596886e-05   0.63089524   0.02777874            0    0.6031165    1.6213088     2.252204   0.42276367 
17435000    1.1101159 -3.1205167e-06   0.56478685  0.029032279            0   0.53575457    1.6512973    2.2160842    2.1095705 
17440000    1.0500049 2.2684529e-05   0.65986775  0.039113542            0   0.62075421    1.5618823      2.22175    2.9960486 
17445000      1.13437 9.6784681e-05   0.54365441  0.023459834            0   0.52019458    1.6873754    2.2310298    5.5346136 
17450000    1.1503022 0.00011567576   0.52846351  0.021428056            0   0.50703546    1.7110745     2.239538    6.1879372 
17455000     1.092337 3.6601132e-05   0.59192512   0.02780364            0   0.56412148    1.6248512    2.2167764     3.466095 
17460000    1.1321325 1.1335769e-05   0.51852729  0.013605941            0   0.50492135    1.6840472    2.2025745     2.589502 
17465000    1.0713712 1.0622069e-05   0.61337896  0.028860828            0   0.58451813    1.5936646    2.2070436    2.5696102 
17470000    1.1039914 7.714921e-06   0.56551578  0.041598793            0   0.52391699    1.6421873     2.207703     2.471039 
17475000    1.0806969 1.896108e-05   0.59939211  0.043544649            0   0.55584747    1.6075367    2.2069288    2.8541337 
17480000    1.1011771 -8.2092866e-05   0.58379156  0.029742728            0   0.55404883     1.638001    2.2217925  -0.58031064 
17485000      1.09019 -0.00027191675   0.62162842  0.015976622            0    0.6056518    1.6216577    2.2432861   -7.0381391 
17490000    1.1388717 -0.00029311948   0.55622154 0.0033432545            0   0.55287829    1.6940717    2.2502933   -7.7548516 
17495000    1.1022474 -0.00013093086    0.6038665 0.0079403698            0   0.59592613    1.6395929    2.2434594   -2.2256473 
17500000    1.1234937 -9.5323167e-05   0.58924946  0.015921178            0   0.57332829    1.6711968    2.2604463  -0.99325117 
17505000    1.2262737 -6.4952995e-05   0.46754016 0.0095903319            0   0.45794983    1.8240822    2.2916223  0.074560096 
17510000    1.1501511 -8.7957413e-05   0.58880076  0.010028067            0   0.57877269    1.7108498    2.2996506  -0.70262913 
17515000     1.175272 -0.00015725718   0.56169852  0.009238277            0   0.55246024    1.7482171    2.3099156    -3.057796 
17520000    1.2026932 -2.2937853e-05   0.51463551  0.019917497            0   0.49471801    1.7890061    2.3036416    1.5206962 
17525000    1.1479706 5.6715546e-05   0.57132291  0.019591008            0    0.5517319    1.7076062    2.2789291    4.2148198 
17530000     1.164565 -7.4408887e-05   0.53055546  0.018307795            0   0.51224767    1.7322904    2.2628459  -0.27697746 
17535000    1.0970693 -5.9617914e-05   0.62153891  0.035193415            0    0.5863455    1.6318906    2.2534295   0.21847139 
17540000    1.1287089 8.1458461e-05   0.56599065  0.060383049            0    0.5056076    1.6789545    2.2449451    5.0253939 
17545000    1.1776733 -8.3513441e-05   0.52631572   0.01453338            0   0.51178234     1.751789    2.2781047  -0.57248741 
17550000    1.1501564 -4.4890206e-05   0.58259034 0.0098011313            0   0.57278921    1.7108577     2.293448   0.76119567 
17555000    1.2153983 1.0831039e-05   0.51056797  0.034558705            0   0.47600926     1.807905     2.318473    2.6881724 
17560000    1.2061326 -2.2809991e-05   0.51766695  0.037317549            0    0.4803494    1.7941222    2.3117892    1.5332081 
17565000    1.1110801 -8.2269509e-05   0.64107117  0.058191145            0   0.58288002    1.6527317    2.2938029  -0.51432969 
17570000    1.0920118 -0.0001324508   0.65734568  0.039690676            0   0.61765501    1.6243675    2.2817132   -2.2392742 
17575000    1.2272847 -2.1826458e-05   0.47836855  0.020932349            0    0.4574362     1.825586    2.3039545    1.5589448 
17580000    1.2122606 -2.0983498e-05   0.49909821  0.015767285            0   0.48333092    1.8032376    2.3023358    1.5860991 
17585000    1.0988675 -2.0487473e-05   0.65985255   0.05349547            0   0.60635708    1.6345654     2.294418    1.5951122 
17590000    1.0905182  3.08809e-05   0.65072134  0.019378727            0   0.63134261    1.6221458    2.2728671    3.3269352 
17595000    1.1385185 -1.3014538e-05   0.58080645  0.045252638            0   0.53555381    1.6935462    2.2743527    1.8301231 
17600000    1.1645234 -5.2519223e-05   0.53052445  0.036866357            0   0.49365809    1.7322286     2.262753   0.47009689 
17605000    1.1739827 6.852533e-05   0.50036223  0.027987058            0   0.47237517    1.7462993    2.2466615    4.5856595 
17610000     1.110559 -2.6875548e-05   0.60046632  0.038227049            0   0.56223927    1.6519565    2.2524228    1.3350708 
17615000    1.1125096 1.6010667e-05   0.58496636  0.031870948            0   0.55309541     1.654858    2.2398244    2.7863218 
17620000    1.0859636 8.2300615e-05   0.64415669  0.060291438            0   0.58386525    1.6153709    2.2595276    5.0687219 
17625000    1.1640186 -2.7833821e-05   0.51651448  0.032241168            0   0.48427331    1.7314777    2.2479922    1.2979311 
17630000    1.1179361 3.6874288e-05   0.58665728  0.015548134            0   0.57110914    1.6629299    2.2495872    3.5082296 
17635000       1.1768 -5.0189116e-05   0.48724487  0.011486912            0   0.47575795    1.7504901    2.2377349   0.52461311 
17640000    1.1504826 -2.192507e-05   0.52644262  0.030928847            0   0.49551377    1.7113429    2.2377855    1.4894098 
17645000    1.1402101 0.00014436272   0.53292068  0.024162437            0   0.50875824    1.6960626    2.2289833    7.1565641 
17650000    1.1102101 0.00011251896   0.54605169  0.043652039            0   0.50239965    1.6514375    2.1974891    6.0381364 
17655000    1.0527162 9.6862651e-05   0.62884391  0.033892931            0   0.59495098    1.5659153    2.1947592    5.5010044 
17660000    1.1307417 7.3193085e-05   0.51111678  0.017656773            0      0.49346    1.6819783    2.1930951     4.691419 
17665000    1.1114068 -2.1224376e-05   0.53816386  0.020800961            0    0.5173629    1.6532176    2.1913814    1.4669227 
17670000    1.1018885 -7.666403e-05   0.55797495  0.013142934            0   0.54483201    1.6390591     2.197034  -0.41976488 
17675000     1.061911 -1.0991294e-05   0.60312426  0.008679069            0   0.59444519    1.5795926    2.1827169    1.8075474 
17680000    1.0943675 -1.3990196e-05   0.55065959  0.015966201            0   0.53469338    1.6278716    2.1785312    1.7009992 
17685000    1.0366947 2.9336292e-05   0.61015674  0.014941484            0   0.59521526    1.5420834    2.1522401    3.1535855 
17690000    1.0873365 7.6905314e-05   0.52913297  0.011028606            0   0.51810437    1.6174131    2.1465461    4.7715808 
17695000    1.0306073 1.5799596e-05   0.61106498  0.019355458            0   0.59170952    1.5330284    2.1440934    2.6833862 
17700000     1.046778 6.4607004e-05   0.58301885  0.047417668            0   0.53560118    1.5570823    2.1401012    4.3453536 
17705000    1.0454783 1.9791224e-05   0.56202796  0.017958512            0   0.54406945    1.5551489    2.1171769    2.7927173 
17710000    1.0416026 -0.0001434714   0.57156115 0.0082693044            0   0.56329185    1.5493838     2.120945   -2.7762121 
17715000    1.0872651 -0.00013588097    0.4952713  0.012669354            0   0.48260194    1.6173068    2.1125781   -2.5254923 
17720000   0.99694821 7.2018021e-05   0.65035865 0.0094741688            0   0.64088448    1.4829605    2.1333191    4.5915342 
17725000    1.0739713 0.00019436854   0.54771107  0.010269076            0   0.53744199    1.5975323    2.1452434    8.7796895 
17730000    1.1230955 8.6321203e-05   0.48814424 0.0063298431            0   0.48181439    1.6706046    2.1587489    5.1051793 
17735000    1.0143142 4.7990835e-05   0.65454436  0.036875792            0   0.61766857    1.5087924    2.1633367    3.8014239 
17740000    1.0990085 -2.4229425e-05   0.52956637  0.058286889            0   0.47127948    1.6347751    2.1643415    1.3373105 
17745000    1.1075112 -0.00019445138   0.53002886  0.021993827            0   0.50803503    1.6474229    2.1774518   -4.4598221 
17750000     1.057794 -1.1587189e-05   0.61320341  0.026486161            0   0.58671725    1.5734685    2.1866719    1.7911626 
17755000    1.1026776 3.6364678e-05   0.52477397  0.011082832            0   0.51369114    1.6402329    2.1650069    3.4062546 
17760000     1.090037 -2.4953833e-05   0.57131993  0.015869642            0   0.55545029    1.6214301      2.19275    1.3409925 
17765000    1.0802852 -0.00010783809   0.56864896  0.028774819            0   0.53987414    1.6069242    2.1755731   -1.5053005 
17770000    1.1030086 0.00011034411   0.54918645  0.024134458            0   0.52505199    1.6407253    2.1899118     5.956324 
17775000    1.0653806 0.00011982168   0.59467459  0.022718308            0   0.57195629    1.5847536    2.1794282    6.2693417 
17780000    1.0624737 -9.2740732e-06   0.57268007  0.011452553            0   0.56122752    1.5804296    2.1531097    1.8365547 
17785000    1.0795922 -0.00011846184   0.53000323  0.025614101            0   0.50438913    1.6058934    2.1358966    -1.907601 
17790000    1.0993102 -7.9302818e-05     0.511827  0.026063175            0   0.48576383     1.635224     2.147051  -0.55981853 
17795000    1.1070788 -4.7258034e-05   0.51080177  0.027476753            0   0.48332502    1.6467798    2.1575815    0.5445073 
17800000    1.0544998 -4.1274134e-05   0.59533852   0.03226049            0   0.56307803    1.5685685     2.163907    0.7550832 
17805000     1.086789 6.9570163e-05   0.52462109  0.028898474            0   0.49572261    1.6165986    2.1412197    4.5158812 
17810000    1.0235342 0.0002592708   0.58785772  0.020633616            0    0.5672241    1.5225072    2.1103649    10.960142 
17815000    1.0532503 2.9651182e-05   0.50532454 0.0058256086            0   0.49949893    1.5667098    2.0720343     3.084128 
17820000    1.0267788 -0.00027224266   0.52582203  0.020579437            0   0.50524259    1.5273335    2.0531555    -7.239394 
17825000    1.0053864 -0.00015275297   0.56620422  0.036423402            0   0.52978082    1.4955122    2.0617165   -3.1522514 
17830000    1.0261983 1.9485702e-05   0.53798029  0.018890233            0   0.51909006      1.52647    2.0644502    2.7295622 
17835000    1.0327986 0.00010212068   0.52938411 0.0086899405            0   0.52069417    1.5362879     2.065672    5.5513913 
17840000   0.99242958 -2.7725723e-05   0.58891103  0.029200173            0   0.55971085     1.476239      2.06515    1.1187787 
17845000    1.0597555 -7.4519558e-05   0.48697035  0.033933822            0   0.45303653    1.5763863    2.0633566   -0.4802443 
17850000   0.99788884 2.7165928e-05   0.59185823  0.033829578            0   0.55802865    1.4843597    2.0762179    3.0034816 
17855000   0.98729157 -2.7697682e-05   0.61256009  0.029844659            0   0.58271543    1.4685962    2.0811563    1.1357421 
17860000    1.0540453 -7.6131167e-05   0.50170077   0.02262051            0   0.47908026    1.5678925    2.0695932  -0.52901726 
17865000    1.1140763 -4.9400825e-05    0.4196224  0.026018377            0   0.39360402    1.6571885    2.0768109   0.39059609 
17870000    1.0240694 -1.9142474e-05   0.53880891  0.021672251            0   0.51713666    1.5233033    2.0621122    1.4087157 
17875000   0.99562107 0.00011672218    0.5794657     0.029842            0    0.5496237    1.4809863     2.060452     6.044569 
17880000    1.0052686 0.00013372621   0.54055118   0.01574936            0   0.52480182    1.4953371    2.0358882    6.6004095 
17885000   0.99019582 -4.0842198e-05   0.57032678  0.015201827            0   0.55512495    1.4729163    2.0432431   0.64916269 
17890000    1.0441507 6.1761635e-05   0.47546265 0.0094962072            0   0.46596644    1.5531742    2.0286368    4.1367673 
17895000    1.0019593 3.9374741e-05   0.52445935 0.0043294635            0   0.52012989    1.4904145    2.0148738     3.358865 
17900000   0.97059324 7.1569091e-05   0.54308603 0.0044863438            0   0.53859969    1.4437574    1.9868435    4.4297351 
17905000   0.97202459 1.938059e-05   0.55388343  0.010468045            0   0.54341539    1.4458866      1.99977    2.6612942 
17910000   0.98718208 4.5507112e-05   0.51722589  0.037563772            0   0.47966212    1.4684333    1.9856592    3.5389686 
17915000   0.97092068 2.9656284e-05   0.52797694 0.0099608297            0   0.51801611    1.4442445    1.9722215    2.9844893 
17920000   0.95163224 -5.2633322e-05   0.55763374  0.010196124            0   0.54743761     1.415553    1.9731867   0.17663596 
17925000   0.93990003 1.8211332e-05   0.57953401  0.031839822            0   0.54769419    1.3981013    1.9776353    2.5992488 
17930000   0.90503201 -7.0610382e-05   0.63000477  0.027589098            0   0.60241567    1.3462351    1.9762399  -0.43392781 
17935000   0.97273877 -5.5997344e-05   0.54013569  0.011994987            0   0.52814071    1.4469489    1.9870846   0.07570862 
17940000    1.0062784 0.00015234269   0.48118294 0.0090822436            0    0.4721007    1.4968391     1.978022    7.1779859 
17945000   0.97723676 9.8508502e-05   0.53582794 0.0064186209            0   0.52940932    1.4536397    1.9894676    5.3518912 
17950000   0.93339566 7.1157973e-05    0.6120375 0.0048529401            0   0.60718456     1.388426    2.0004635    4.4293224 
17955000   0.96372683 1.1659091e-05    0.5667395 0.0043191735            0   0.56242033    1.4335437    2.0002832    2.3982468 
17960000   0.95007156 -6.1568613e-06   0.57151804  0.028046588            0   0.54347146    1.4132314    1.9847495    1.7745953 
17965000   0.97001168 -1.7318638e-05    0.5310903 0.0089942272            0   0.52209607    1.4428924    1.9739827    1.3828398 
17970000   0.94949743 0.0001436828   0.54634413 0.0099208448            0   0.53642328    1.4123774    1.9587216    6.8630944 
17975000   0.93345071 0.00015998654   0.57589549 0.0046933099            0   0.57120218    1.3885079    1.9644034    7.4252773 
17980000   0.95734587 0.00013122558   0.56285508   0.01366035            0   0.54919473     1.424052    1.9869071    6.4660735 
17985000   0.95034953 1.4862054e-05   0.57482968  0.017820764            0   0.55700892    1.4136449    1.9884746     2.495766 
17990000    1.0150362 3.6959864e-05   0.47867903  0.013787075            0   0.46489195    1.5098664    1.9885454    3.2501088 
17995000    1.0462426 3.2834289e-05   0.39764515  0.022003647            0    0.3756415    1.5562859     1.953931    3.0746748 
18000000      1.01191 -2.7816347e-05   0.44243987 0.0067162031            0   0.43572367    1.5052162     1.947656   0.99819142 
18005000   0.97686638 1.5009866e-05   0.49041489 0.00051013649            0   0.48990475    1.4530887    1.9435036    2.4558404 
18010000   0.96544712 7.0605494e-05   0.51211531 0.0058927042            0   0.50622261    1.4361026    1.9482179    4.3582188 
18015000   0.93356205 0.00021623722   0.56659478  0.024827756            0   0.54176702    1.3886735    1.9552683    9.3361656 
18020000   0.96804063 0.0002327854   0.50493895  0.020528775            0   0.48441018    1.4399604    1.9448994    9.8906411 
18025000   0.95097983 4.1587153e-05   0.53750759  0.012345469            0   0.52516212    1.4145825    1.9520901    3.3715982 
18030000   0.94186821 0.00013164039   0.55957087  0.021846194            0   0.53772467     1.401029    1.9605998     6.453925 
18035000   0.93204204 8.664423e-05   0.58933563  0.030904489            0   0.55843114    1.3864125    1.9757482    4.9332046 
18040000    1.0050327 8.5144682e-05   0.46160671  0.019545147            0   0.44206156    1.4949861    1.9565928    4.8628646 
18045000   0.95910271 0.00013197244   0.52395871  0.025902242            0   0.49805647    1.4266653     1.950624    6.4552832 
18050000   0.95140088 5.2460619e-05   0.53333303  0.032697232            0    0.5006358    1.4152088    1.9485418    3.7391977 
18055000   0.93169225 -8.6590082e-05   0.56372479  0.016801808            0   0.54692298    1.3858922     1.949617   -1.0059911 
18060000   0.98569215 4.672531e-05   0.48263633  0.025197554            0   0.45743877    1.4662171    1.9488534     3.543744 
18065000   0.98337912 0.00013510933   0.50387238  0.015261107            0   0.48861127    1.4627764    1.9666488    6.5783806 
18070000    1.0198435 -2.0442681e-05   0.44931644  0.020949835            0    0.4283666    1.5170172    1.9663336    1.2685568 
18075000   0.98881141 -3.6950015e-05   0.49318128  0.016794936            0   0.47638634     1.470857    1.9640382   0.70281107 
18080000   0.91962715 6.2918029e-05   0.58809803  0.038860945            0   0.54923708    1.3679454    1.9560434    4.1036455 
18085000   0.96647915 0.00028181786   0.53952576  0.033976955            0   0.50554881    1.4376377    1.9771635    11.596546 
18090000   0.96331436 0.00016491791   0.55328562  0.022517515            0   0.53076811    1.4329301    1.9862157    7.6154137 
18095000    1.0306222 8.5534487e-06   0.43492654   0.03346535            0   0.40146119    1.5330505    1.9679771    2.2599348 
18100000   0.93818175 -2.4909556e-05   0.55769065  0.024918653            0     0.532772    1.3955453     1.953236    1.1029898 
18105000   0.95340692 -0.00013564189   0.53117294  0.016950613            0   0.51422233    1.4181928    1.9493657   -2.6805441 
18110000   0.99479834 -0.00010593326   0.45180748  0.011202028            0   0.44060545    1.4797625      1.93157   -1.6842853 
18115000   0.97927861 3.0686723e-05   0.46868564  0.030943123            0   0.43774251    1.4566769    1.9253626    2.9728027 
18120000   0.97304764 0.0001419537   0.48464219  0.048181397            0   0.43646079    1.4474084    1.9320506    6.7774034 
18125000   0.91994897 0.00016590917   0.55014288  0.028099169            0   0.52204371    1.3684241     1.918567    7.5815999 
18130000   0.98995631 3.6234471e-05   0.44471996 0.0093716031            0   0.43534836      1.47256      1.91728    3.1540832 
18135000   0.90098762 3.0571745e-05   0.55867092  0.022581789            0   0.53608913    1.3402191      1.89889    2.9424056 
18140000   0.91012112 4.0561182e-05   0.52094278  0.017107689            0   0.50383509    1.3538052    1.8747479    3.2592363 
18145000    0.9331073 1.3099466e-05   0.51389493 0.0030604214            0   0.51083451    1.3879971     1.901892    2.3490205 
18150000   0.94416306 0.00011487331   0.51348353  0.018345006            0   0.49513853    1.4044425    1.9179261     5.838935 
18155000   0.99695418 6.6053614e-05   0.44605938 0.0073807965            0   0.43867859    1.4829693    1.9290287    4.1836587 
18160000   0.97375144 -0.00010010759   0.45720705 0.0085961387            0   0.44861091    1.4484553    1.9056623   -1.5113433 
18165000   0.94756283 -0.00015497533   0.49047921  0.019970937            0   0.47050827    1.4094997    1.8999789   -3.3898456 
18170000   0.96408736 -0.00010190076   0.47154345  0.024092585            0   0.44745087      1.43408    1.9056234   -1.5725891 
18175000   0.90443059 -1.3362026e-05   0.54684116  0.032089841            0   0.51475132    1.3453405    1.8921817    1.4360912 
18180000   0.89059892 -2.3170524e-05   0.56049641   0.03766904            0   0.52282737    1.3247659    1.8852623    1.0943751 
18185000   0.95679056 -6.9973177e-05   0.46014346  0.026416616            0   0.43372684     1.423226    1.8833694  -0.50504835 
18190000   0.93377066 -0.00010087219   0.50948761  0.012066412            0   0.49742119    1.3889839    1.8984715   -1.5446326 
18195000    1.0056127 6.4538498e-05   0.42932494 0.0046258217            0   0.42469911    1.4958488    1.9251738    4.1280878 
18200000   0.92939334 0.0002432301   0.53593944  0.044421408            0   0.49151804    1.3824726     1.918412    10.220666 
18205000    0.9421467  5.18886e-06   0.49187881  0.027663811            0   0.46421499    1.4014432     1.893322    2.0704351 
18210000   0.95501416 -7.5555618e-05   0.44705771  0.042526008            0    0.4045317    1.4205836    1.8676413  -0.71132383 
18215000   0.90934459 -5.6060156e-05   0.53341377  0.018766116            0   0.51464766    1.3526501    1.8860639 -0.027456154 
18220000   0.92387492 -0.00022731269   0.51052737   0.01434968            0   0.49617769    1.3742639    1.8847913   -5.8741485 
18225000   0.99017924 -0.00017502983   0.40925145  0.010310376            0   0.39894107    1.4728916    1.8821431   -4.0922084 
18230000   0.95127113 1.5391527e-05      0.48523 0.0072798345            0   0.47795017    1.4150158    1.9002458    2.4256099 
18235000   0.95626189 3.4548561e-05   0.46404766  0.016584689            0   0.44746297    1.4224396    1.8864872    3.0657448 
18240000   0.95884737 -7.3818323e-05   0.47479244  0.019942413            0   0.45485002    1.4262855    1.9010779  -0.61858754 
18245000    1.0239249 -2.8437678e-05   0.40232877  0.037007541            0   0.36532123    1.5230883     1.925417   0.95474429 
18250000   0.99057996 1.5863878e-05   0.45941928  0.025349147            0   0.43407014    1.4734877     1.932907     2.474394 
18255000   0.94388994 3.5091974e-05   0.50354344  0.030672222            0   0.47287122    1.4040363    1.9075797    3.1053858 
18260000   0.98637329 6.8949372e-05   0.41306784  0.017864621            0   0.39520322    1.4672303    1.8802981      4.23377 
18265000   0.96963504 -1.0191244e-05   0.41474161  0.020604742            0   0.39413687    1.4423321    1.8570737    1.5092126 
18270000   0.88508536 -0.00010731993   0.52584376  0.034819932            0   0.49102383    1.3165645    1.8424082   -1.8207789 
18275000   0.91122213 -0.0001085564   0.46845387  0.029392053            0   0.43906181    1.3554429    1.8238968   -1.8814952 
18280000   0.91761562 2.3539228e-05   0.45646607   0.01487702            0   0.44158905    1.3649532    1.8214193    2.6248916 
18285000   0.89105206 5.8459444e-05   0.49137394  0.027188125            0   0.46418582    1.3254399    1.8168139    3.8122296 
18290000   0.94036963 -5.9322738e-05   0.40709062  0.022614417            0   0.38447621    1.3987998    1.8058904  -0.21899236 
18295000   0.90315502 -1.6238008e-05   0.47869037 0.0084114382            0   0.47027893    1.3434431    1.8221335    1.2678761 
18300000   0.89456847 6.9243859e-05   0.48764571  0.016880876            0   0.47076483    1.3306706    1.8183163      4.18184 
18305000   0.91138267 5.3557636e-05   0.47013232  0.023259042            0   0.44687328    1.3556817     1.825814    3.6539147 
18310000    0.8934213 -4.412051e-06    0.4443456  0.014499458            0   0.42984614    1.3289642    1.7733098    1.6227118 
18315000   0.92394042 -9.0505781e-05   0.40717771 0.0081239416            0   0.39905376    1.3743614    1.7815391   -1.3077249 
18320000   0.90915879 -5.2064406e-05   0.42569533 0.0067587506            0   0.41893658    1.3523737     1.778069 0.00093731955 
18325000   0.90340268 1.8452072e-05   0.44381163  0.017621776            0   0.42618986    1.3438115    1.7876231    2.4174538 
18330000   0.90396904 -4.0358301e-05   0.41904588 0.0023436115            0   0.41670227    1.3446539    1.7636998   0.38613649 
18335000   0.82462242 -0.00016198168   0.52408391 0.00098863174            0   0.52309528    1.2266259    1.7507098   -3.7782649 
18340000   0.90421857 -0.00017425866   0.42559603  0.011343401            0   0.41425262    1.3450251    1.7706211   -4.1774079 
18345000   0.89298679 2.2773638e-05   0.45436192   0.01642016            0   0.43794176    1.3283179    1.7826798    2.5600199 
18350000   0.88914834 9.6409372e-05   0.46522331  0.010445823            0   0.45477749    1.3226082    1.7878315    5.0786047 
18355000   0.90267701 -8.0643915e-05   0.45108774  0.012364557            0   0.43872318    1.3427321    1.7938198  -0.95882583 
18360000   0.87616537 -9.2854828e-05   0.48757818  0.027011622            0   0.46056656     1.303296    1.7908742   -1.3785706 
18365000   0.84663016 1.3423018e-06   0.53651237  0.054861243            0   0.48165113    1.2593624    1.7958747     1.841692 
18370000   0.97277615 7.6512755e-05   0.34724686  0.013033791            0   0.33421307    1.4470045    1.7942514    4.4058868 
18375000   0.88557855 0.00014104676   0.49659845 0.0062561676            0   0.49034228    1.3172981    1.8138965    6.6282927 
18380000   0.87256612 5.2738632e-05   0.50971495  0.011504784            0   0.49821017    1.2979421    1.8076571    3.6078024 
18385000   0.88204055 4.8726889e-05   0.49061101  0.019519001            0   0.47109201    1.3120353    1.8026463    3.4658575 
18390000   0.88617579 6.4382373e-05   0.48585538  0.023837302            0   0.46201808    1.3181865    1.8040419    4.0016269 
18395000   0.85977481 -3.8319229e-05   0.54280989  0.018212919            0   0.52459697     1.278915    1.8217249   0.51376191 
18400000   0.91081606 -0.0001270488   0.45018626  0.010505476            0   0.43968079    1.3548389    1.8050252   -2.5315738 
18405000   0.94008145 -7.7700432e-05   0.41674222  0.016046819            0    0.4006954    1.3983712    1.8151134  -0.83706135 
18410000    0.9818287 1.693498e-05   0.36602607 0.0053725455            0   0.36065352    1.4604702    1.8264963    2.4045436 
18415000   0.90574186 -0.00010970199   0.48141376 0.0036313811            0   0.47778238     1.347291    1.8287048     -1.91579 
18420000   0.96380062 -2.8668249e-05   0.40879226 0.0029406797            0   0.40585158    1.4336534    1.8424457    0.8639028 
18425000   0.99337914 3.5546941e-05   0.39170939 0.0079668562            0   0.38374254    1.4776515    1.8693609    3.0826964 
18430000    0.9703408 -2.2160262e-05   0.45046368  0.017394964            0   0.43306872    1.4433819    1.8938456     1.137442 
18435000   0.97749688 0.00019271422    0.4548738   0.01328578            0   0.44158802    1.4540266    1.9089004     8.486879 
18440000   0.97006639 7.9768762e-05   0.45020696 0.0031156236            0   0.44709133    1.4429738    1.8931807    4.6159544 
18445000   0.91309382 -0.00017386335   0.51008801  0.019701809            0    0.4903862    1.3582271    1.8683151   -4.0662205 
18450000   0.98171453 -8.8131885e-06   0.42067073  0.030202147            0   0.39046858    1.4603004    1.8809711    1.5801476 
18455000    0.9549592 3.8527123e-05   0.45856477  0.024847773            0     0.433717    1.4205018    1.8790666    3.1941257 
18460000   0.94697834 0.00015168558    0.4857242  0.045360939            0   0.44036326    1.4086303    1.8943545     7.071889 
18465000   0.93624829 0.00015329734   0.50343225  0.030389669            0   0.47304258    1.3926693    1.8961016    7.1286509 
18470000   0.95725301 8.8635563e-05   0.47657192  0.022081147            0   0.45449078    1.4239138    1.9004858     4.925913 
18475000   0.99682655 9.5658718e-05    0.4406317  0.021014354            0   0.41961735    1.4827795    1.9234112    5.1885621 
18480000   0.99279582 5.6525015e-05     0.443522  0.013628234            0   0.42989376    1.4767838    1.9203058     3.849693 
18485000   0.94437301 6.3247194e-05   0.51847897  0.055702003            0   0.46277697    1.4047549    1.9232338    4.0820714 
18490000   0.99936613 0.00010628315   0.43268378  0.037980833            0   0.39470295    1.4865571    1.9192409    5.5470392 
18495000   0.94863671 -8.4451536e-05   0.50356639 0.0051892269            0   0.49837716    1.4110971    1.9146635  -0.96794892 
18500000   0.97973882 -6.945945e-05   0.45154418  0.021617873            0    0.4299263    1.4573615    1.9089057   -0.4619769 
18505000    1.0218207 0.00015639312   0.38289333  0.020637814            0   0.36225552    1.5199584    1.9028517    7.2410701 
18510000    1.0536471 4.1255566e-05   0.34934639  0.012818734            0   0.33652766       1.5673    1.9166464    3.3248364 
18515000   0.98463156 -7.5558113e-05   0.46422554  0.016538904            0   0.44768664    1.4646395     1.928865  -0.65018526 
18520000   0.97251397 -4.7944025e-05   0.46938377  0.018704427            0   0.45067934    1.4466145    1.9159983    0.2795089 
18525000   0.97003867 -3.5042665e-05   0.48157863  0.026395013            0   0.45518362    1.4429325    1.9245112   0.72838818 
18530000   0.96137155 -3.0926391e-05   0.50424348  0.021543898            0   0.48269958    1.4300402    1.9342837   0.87866283 
18535000   0.99769731 5.5774418e-05   0.43234646  0.025385634            0   0.40696082    1.4840748    1.9164212     3.820188 
18540000   0.96986341 -5.8725735e-05   0.43347059  0.024774598            0   0.40869599    1.4426718    1.8761424  -0.12836269 
18545000   0.92832135 -8.0932506e-05   0.50548855  0.019426293            0   0.48606225     1.380878    1.8863666  -0.87612966 
18550000   0.97454464 -2.4680153e-05   0.41995032 0.0097245733            0   0.41022575    1.4496351    1.8695855    1.0271696 
18555000   0.97543801 3.7209038e-05   0.42447391  0.016535326            0   0.40793859     1.450964    1.8754379    3.1455064 
18560000   0.97419712 0.00011854803   0.42020705  0.010918424            0   0.40928863    1.4491182    1.8693253    5.9157646 
18565000   0.96877258 -0.000143004   0.43616415   0.02699226            0   0.40917189    1.4410492    1.8772134   -3.0039898 
18570000   0.95007926 -0.00025326094   0.45563435  0.022190131            0   0.43344422    1.4132429    1.8688772   -6.7757628 
18575000   0.97673552 6.8783773e-05   0.41383096   0.02265341            0   0.39117755    1.4528941     1.866725    4.2145445 
18580000   0.98851206 0.00012416275   0.40569033  0.017340103            0   0.38835023    1.4704117     1.876102    6.1141906 
18585000   0.93423531 -0.00012595546   0.46492427  0.036212481            0   0.42871179     1.389675    1.8545993   -2.4446803 
18590000   0.91956934 -0.00012141168   0.45883149  0.014154264            0   0.44467723    1.3678594    1.8266909   -2.3174943 
18595000   0.91765233 -7.3788112e-05   0.46295153 0.0082573226            0   0.45469421    1.3650078    1.8279594  -0.69067486 
18600000   0.93412364 -7.2865853e-05   0.43991404 0.0045809222            0   0.43533312    1.3895089     1.829423   -0.6577315 
18605000    0.9479889 1.6972011e-05   0.43950587  0.011114035            0   0.42839183    1.4101335    1.8496394    2.4289507 
18610000    0.9533384 0.0001346484   0.42283261  0.027027601            0   0.39580501    1.4180909    1.8409235    6.4369222 
18615000   0.92011808 5.0951997e-05   0.46984558  0.032529157            0   0.43731642    1.3686757    1.8385212    3.5776827 
18620000   0.89554658 -0.00012770175   0.48730817  0.027496498            0   0.45981168    1.3321255    1.8194337   -2.5394527 
18625000   0.94476579 -0.00010057855   0.39618782  0.017014798            0   0.37917303    1.4053391    1.8015269   -1.6315544 
18630000   0.97545875 -9.2749924e-05   0.36641794 0.0090324966            0   0.35738545    1.4509949    1.8174128   -1.3484513 
18635000   0.89822215 -0.00012281031   0.47495156  0.011326208            0   0.46362535    1.3361054     1.811057   -2.3808683 
18640000   0.88050463 -6.0915988e-05   0.52450672  0.028321452            0   0.49618527    1.3097506    1.8342574  -0.24500837 
18645000   0.91645481 -3.6321262e-05   0.45978121  0.044173542            0   0.41560766    1.3632265    1.8230077   0.58324197 
18650000   0.91148737 1.7716596e-05   0.46760201  0.035248642            0   0.43235337    1.3558375    1.8234395    2.4281659 
18655000   0.98240337 7.6469016e-05   0.35171438  0.027883352            0   0.32383103     1.461325    1.8130394    4.4231818 
18660000   0.93048398 1.6581632e-05   0.40605742  0.011014448            0   0.39504298    1.3840949    1.7901523    2.3561387 
18665000   0.87866682 4.4094115e-05   0.48886626  0.029880539            0   0.45898572    1.3070169    1.7958832    3.3009623 
18670000   0.91351266 9.9489085e-05   0.44843759  0.043048163            0   0.40538943    1.3588501    1.8072877    5.2031818 
18675000   0.94677048 8.6894072e-05   0.40109753  0.028553101            0   0.37254443    1.4083211    1.8094186    4.7754029 
18680000   0.90016352 -3.8919528e-05   0.48308024  0.013321123            0   0.46975912    1.3389932    1.8220735   0.49362025 
18685000   0.92109592 -6.3678861e-05   0.46182487  0.021864774            0    0.4399601    1.3701302    1.8319551  -0.34161673 
18690000   0.89405041 -1.6251723e-05   0.51444237  0.011259593            0   0.50318277       1.3299    1.8443424    1.2896169 
18695000   0.96079612 -8.3954883e-05   0.39317308  0.018462991            0   0.37471009    1.4291842    1.8223573   -1.0433027 
18700000   0.90846564 -4.9167156e-05    0.4787171  0.017614733            0   0.46110237    1.3513426    1.8300597   0.15182082 
18705000   0.91188609 0.00013200327    0.4833829  0.011949325            0   0.47143357    1.3564306    1.8398134     6.345525 
18710000   0.94795908 0.00016233451   0.42136468   0.02157703            0   0.39978765    1.4100891    1.8314538    7.3724716 
18715000    0.9250367 -5.3920959e-05   0.47325554   0.03142382            0   0.44183172    1.3759921    1.8492476 0.0087455618 
18720000   0.93614023 -5.7487764e-05    0.4775528  0.012383881            0   0.46516891    1.3925086    1.8700614 -0.092187624 
18725000   0.92598622 1.8350685e-05   0.48896148   0.03031582            0   0.45864566    1.3774045     1.866366     2.492736 
18730000   0.91551449 3.5729219e-05   0.52778881  0.035262437            0   0.49252637    1.3618278    1.8896166    3.1091739 
18735000   0.99305729 2.6646086e-05   0.39858715 0.0059563422            0   0.39263081    1.4771727    1.8757599    2.7852796 
18740000    1.0141251 -0.00019677098   0.37126166  0.020791736            0   0.35046992     1.508511    1.8797727   -4.8366769 
18745000   0.94838293 -9.0197126e-05   0.45954777 0.0088526029            0   0.45069517    1.4107196    1.8702674   -1.2084612 
18750000   0.95042962 7.4185749e-05   0.45902118  0.015208431            0   0.44381275    1.4137641    1.8727852    4.4049921 
18755000   0.95314196 -8.6163688e-06   0.46009138  0.031358852            0   0.42873253    1.4177987      1.87789    1.5837847 
18760000   0.94968246 -1.0470051e-05   0.42836744  0.042136396            0   0.38623105    1.4126527    1.8410201    1.4836424 
18765000   0.88684523 2.2072533e-05   0.48955021 0.0090817604            0   0.48046845    1.3191823    1.8087325    2.5621416 
18770000   0.91535826 -1.0899858e-05    0.4407153 0.0023888505            0   0.43832645    1.3615954    1.8023107    1.4302622 
18775000   0.94877086 0.00012674415   0.39949366  0.005394144            0   0.39409951    1.4112967    1.8107903    6.1369907 
18780000   0.92492957 8.1139184e-05   0.45209196 0.0035946905            0   0.44849727    1.3758327    1.8279247    4.5974755 
18785000   0.90430484 -0.00011573515   0.49399715 0.0058829645            0   0.48811419    1.3451535    1.8391506    -2.111276 
18790000   0.88129116 -5.0034973e-05    0.5220928  0.023314517            0   0.49877829    1.3109206    1.8330134   0.12515301 
18795000   0.94324611 3.3187349e-05   0.42858709  0.014786519            0   0.41380057    1.4030786    1.8316657    2.9644605 
18800000   0.89234039 9.6633464e-06    0.4724647  0.012777093            0   0.45968761    1.3273563     1.799821    2.1296633 
18805000   0.87465449 -1.9284859e-05   0.48160309  0.029997102            0   0.45160598    1.3010486    1.7826516    1.1243951 
18810000    0.9565026 -2.7957358e-05   0.37166348  0.011131848            0   0.36053163    1.4227976    1.7944611   0.84018329 
18815000   0.88615696 -0.00011538047   0.46910112 0.0031748242            0    0.4659263    1.3181585    1.7872596   -2.1510605 
18820000   0.90403991 -1.9312178e-05    0.4573051 0.00034916543            0   0.45695593    1.3447594    1.8020645    1.1428754 
18825000   0.94949382 8.1144854e-05    0.3955199 0.00055334594            0   0.39496655    1.4123721     1.807892    4.5776363 
18830000   0.92653089 2.8187029e-05   0.43167875 0.00055295506            0   0.43112579    1.3782147    1.8098935    2.7720107 
18835000   0.91514006 3.468937e-05   0.46642646  0.012554867            0    0.4538716    1.3612708    1.8276973    3.0117611 
18840000   0.97114782 2.202034e-05   0.40462834  0.027583711            0   0.37704463    1.4445824    1.8492107    2.6008383 
18845000   0.96871828 -6.6587971e-05   0.43499592  0.018362684            0   0.41663324    1.4409684    1.8759644  -0.39690504 
18850000    0.9873341 -0.0001072851   0.39387356 0.0071853373            0   0.38668822    1.4686595     1.862533   -1.7994652 
18855000   0.96620426 -7.6052855e-05   0.42642562  0.018501549            0   0.40792407    1.4372288    1.8636545    -0.732283 
18860000   0.93667242 5.0328371e-06   0.48517506  0.015862596            0   0.46931246    1.3933002    1.8784753    2.0502628 
18865000    1.0445142 -0.0001372499   0.30985351 0.0042569861            0   0.30559652    1.5537149    1.8635684   -2.8212282 
18870000    0.8920252 -4.9880782e-06   0.52094974  0.037277065            0   0.48367267    1.3268875    1.8478372    1.6775775 
18875000   0.92550411 5.1095242e-05   0.47840016  0.053866877            0   0.42453329    1.3766874    1.8550875    3.5991385 
18880000   0.92486009 -2.6121703e-05    0.4800962  0.020844339            0   0.45925186    1.3757294    1.8558256    0.9642048 
18885000   0.95042479 1.2098551e-06   0.42942865  0.026516986            0   0.40291166    1.4137569    1.8431855    1.8844819 
18890000   0.96717947 1.970727e-06   0.44750596   0.02740696            0     0.420099    1.4386795    1.8861854    1.9534529 
18895000   0.97971567 1.2246035e-05   0.42099989  0.041963099            0   0.37903679    1.4573271    1.8783269    2.2963249 
18900000    0.9698781 3.3880509e-05   0.41379503  0.015136843            0   0.39865819    1.4426937    1.8564887    3.0129434 
18905000   0.99039552 3.8784793e-05   0.40331273   0.01714808            0   0.38616465    1.4732133    1.8765261    3.2003803 
18910000   0.98467011 3.7782217e-05     0.416721 0.0059883619            0   0.41073264    1.4646968    1.8814178    3.1710508 
18915000   0.94141779 -0.0001014753   0.51648253  0.017675282            0   0.49880725     1.400359    1.9168415   -1.5468487 
18920000   0.97802082 -0.00013209679   0.46760524  0.010023677            0   0.45758157     1.454806    1.9224112   -2.5864924 
18925000    1.0048957 -8.6102513e-06    0.4454521 0.0056561636            0   0.43979594    1.4947824    1.9402345    1.6463379 
18930000    1.0597032 5.914429e-05   0.38651281  0.012624871            0   0.37388794    1.5763085    1.9628213    3.9816131 
18935000   0.95969656 4.3128094e-07   0.52514127  0.011929841            0   0.51321143    1.4275486    1.9526899     1.967411 
18940000    1.0090091 -0.00010119539   0.45375563  0.019999907            0   0.43375572     1.500901    1.9546566   -1.4994795 
18945000   0.97101715 3.2557482e-05   0.53285412  0.043999111            0   0.48885501     1.444388    1.9772421    3.0885375 
18950000    1.0330142 7.015344e-05   0.42207601  0.024061474            0   0.39801454    1.5366086    1.9586846    4.3532554 
18955000   0.97175838 -6.8270348e-05   0.50599693   0.03522097            0   0.47077596    1.4454906    1.9514875  -0.37880701 
18960000    1.0035925 -5.831398e-05   0.47550019   0.01786738            0   0.45763281    1.4928439    1.9683441 -0.022106427 
18965000    1.0582774 -1.6007827e-05   0.41308919 0.0077344593            0   0.40535473    1.5741876    1.9872768    1.4408763 
18970000     1.018988 4.5877469e-05   0.46418371  0.022372256            0   0.44181145    1.5157447    1.9799284    3.5458794 
18975000    1.0253831 6.4209256e-05   0.45532499  0.016584032            0   0.43874096    1.5252574    1.9805824    4.1722583 
18980000    1.0135403 0.00012956569   0.48020825  0.023272349            0   0.45693591    1.5076412    1.9878495    6.4103582 
18985000    0.9915245 -4.7424301e-05   0.51349335  0.031112249            0    0.4823811    1.4748927     1.988386   0.36963656 
18990000    1.0593292 -0.00014031885   0.44207957  0.027822632            0   0.41425693    1.5757521    2.0178317   -2.7717185 
18995000    1.0096507 2.9465228e-05   0.50593999  0.030043429            0   0.47589657    1.5018554    2.0077954    3.0135418 
19000000     1.066183 -3.1349089e-05   0.44778078  0.020679331            0   0.42710145    1.5859472     2.033728   0.96367905 
19005000    1.0426856 -7.8288593e-05    0.5129778  0.013047844            0   0.49992995    1.5509948    2.0639726  -0.60827807 
19010000    1.1034533 6.109959e-05   0.45354834 0.0070956722            0   0.44645267    1.6413869    2.0949352    4.1804679 
19015000    1.1067418 8.9901208e-05   0.46533701  0.025322507            0    0.4400145    1.6462784    2.1116155    5.1802433 
19020000    1.1048064 0.00011854875   0.43859108  0.031668682            0    0.4069224    1.6433996    2.0819907    6.1284548 
19025000     1.059286 7.5515483e-05   0.51533639  0.034249938            0   0.48108645     1.575688    2.0910244    4.6686195 
19030000    1.1007927 3.8362268e-05   0.45452809  0.030607176            0   0.42392091    1.6374292    2.0919573    3.4013893 
19035000    1.0755772 3.9196183e-05   0.47661211  0.012246823            0   0.46436529    1.5999211    2.0765333    3.4144296 
19040000    1.0671149 0.00011720511    0.5195986  0.039746491            0    0.4798521    1.5873334     2.106932    6.1075331 
19045000    1.0542336 0.00013282808   0.51162975  0.062668797            0   0.44896095    1.5681725    2.0798022    6.6136674 
19050000    1.1341036 1.7166573e-05   0.38314174   0.01383097            0   0.36931077    1.6869791    2.0701209    2.6560732 
19055000    1.0472877 -7.1703009e-05   0.50645763  0.027807608            0   0.47865002    1.5578405    2.0642981   -0.3831646 
19060000    1.0359788 -4.768135e-05   0.53693491  0.038408276            0   0.49852663    1.5410185    2.0779534   0.45042998 
19065000    1.0024007 -1.3348502e-05   0.59360548  0.033033013            0   0.56057247     1.491071    2.0846765    1.6290476 
19070000    1.1099431 7.9138901e-05   0.44240082  0.063565591            0   0.37883523    1.6510403    2.0934411    4.7947156 
19075000    1.0929477 9.5875817e-05   0.45257625  0.052153545            0   0.40042271    1.6257597     2.078336    5.3508972 
19080000    1.0537111 2.8028549e-06   0.51786476  0.032801477            0   0.48506328    1.5673953    2.0852601    2.1809308 
19085000    1.1155894 -1.5475489e-05   0.44350336  0.017599534            0   0.42590383    1.6594392    2.1029425    1.5747125 
19090000    1.0866276 6.7815083e-05   0.51984652  0.021907766            0   0.49793876    1.6163585     2.136205    4.4509599 
19095000    1.1183434 1.0397812e-05   0.46728512  0.024022034            0   0.44326308    1.6635358     2.130821    2.4857329 
19100000    1.1032012 2.3387748e-05   0.47257158  0.015095554            0   0.45747603    1.6410118    2.1135834    2.9118852 
19105000    1.0623384 6.9611288e-05   0.51956513  0.016543905            0   0.50302122    1.5802283    2.0997935    4.4758588 
19110000    1.0350094 2.1488316e-05   0.55795122  0.016859552            0   0.54109167    1.5395765    2.0975277    2.8309956 
19115000    1.1318573 -3.2521039e-05   0.39758514 0.0021619581            0   0.39542318    1.6836378    2.0812229   0.97117148 
19120000    1.0894747 -0.00011475345   0.46448661  0.017910118            0   0.44657649    1.6205936    2.0850802   -1.8318374 
19125000    1.0709879 -1.0574483e-05   0.48178594  0.048740307            0   0.43304563    1.5930945    2.0748805    1.7139381 
19130000    1.0561108 3.6785636e-05    0.5197138  0.030682752            0   0.48903105    1.5709648    2.0906786     3.346295 
19135000    1.0911423 6.5502604e-05   0.46533237  0.048489696            0   0.41684267    1.6230741    2.0884065    4.3242287 
19140000      1.00497 4.8197021e-05   0.57803278  0.052560576            0   0.52547221    1.4948928    2.0729256    3.7180506 
19145000    1.0720751 9.7007762e-05   0.46568475   0.02591388            0   0.43977087    1.5947117    2.0603965    5.3715948 
19150000    1.1030473 0.00017280764   0.39405715   0.01382796            0   0.38022919    1.6407829    2.0348401    7.9333409 
19155000    1.1236811 1.7554032e-05   0.38405746  0.036303419            0   0.34775404    1.6714756    2.0555331    2.6547107 
19160000    1.0252706 -6.9126964e-05   0.54302761  0.035964476            0   0.50706313      1.52509    2.0681176  -0.29141609 
19165000    1.0114716 2.5149947e-05   0.54138714  0.038370453            0   0.50301669     1.504564    2.0459511    2.9044026 
19170000    1.0739334 0.00013372575   0.43652902  0.010225649            0   0.42630337    1.5974759    2.0340049    6.5985105 
19175000    1.0250431 0.00010709147   0.50025859  0.011012686            0   0.48924591    1.5247516    2.0250102    5.6803989 
19180000    1.0486523 8.4148056e-05   0.47577464  0.040851318            0   0.43492332    1.5598704     2.035645    4.9078986 
19185000   0.96526279 -1.8616275e-05   0.57084785  0.050565573            0   0.52028228    1.4358284    2.0066762    1.3712407 
19190000    1.0188385 -7.4681309e-05   0.52486648  0.031876859            0   0.49298962    1.5155223    2.0403888  -0.50873324 
19195000    1.0700805 -3.2586586e-05   0.46033555  0.027266724            0   0.43306882    1.5917448    2.0520804   0.93979154 
19200000    1.0081545 -6.7871655e-05   0.56567069  0.021544415            0   0.54412628    1.4996297    2.0653004  -0.25138539 
19205000    1.0563564 -0.00020759333    0.5096226  0.032867001            0    0.4767556    1.5713302    2.0809528   -5.0048994 
19210000    1.0727878 -0.00020952174   0.47632478  0.014715027            0   0.46160975    1.5957719    2.0720966   -5.0795788 
19215000    0.9977102 -0.00015372994   0.56318749   0.02073353            0   0.54245396    1.4840939    2.0472814   -3.2000339 
19220000     1.028419 -3.1486813e-05   0.51474528  0.042113401            0   0.47263187    1.5297733    2.0445186    0.9697687 
19225000   0.99178331 6.287581e-05   0.53083602  0.088449504            0   0.44238652    1.4752777    2.0061137    4.1522747 
19230000    1.0140871 4.3211728e-05   0.50236343  0.031794313            0   0.47056912    1.5084545     2.010818    3.4857783 
19235000   0.98360153 -5.5000152e-05   0.56433995  0.041132787            0   0.52320716    1.4631073    2.0274472   0.15010871 
19240000   0.99002911 -0.00011768307   0.56639653  0.079658854            0   0.48673768    1.4726683    2.0390648   -1.9778505 
19245000    1.0344911 -1.1896457e-05   0.48509562  0.014733828            0    0.4703618    1.5388055    2.0239012    1.6178354 
19250000    1.0520752 3.0155085e-05    0.4616012 0.0074480493            0   0.45415315    1.5649618     2.026563    3.0558566 
19255000    1.0385611 -2.0273838e-05    0.5064959 0.0077318459            0   0.49876405    1.5448596    2.0513555    1.3593418 
19260000    1.0396537 -0.0001113895    0.5231956   0.01794537            0   0.50525023    1.5464849    2.0696805   -1.7324144 
19265000    1.0639795 6.1096559e-05   0.49453854  0.051882461            0   0.44265608    1.5826695     2.077208    4.1626372 
19270000    1.0665937 0.00010613052   0.50292132  0.061206247            0   0.44171508    1.5865581    2.0894794    5.7120679 
19275000    1.0690291 -8.5225589e-05   0.53003181  0.014842672            0   0.51518914    1.5901808    2.1202126  -0.78882086 
19280000    1.1286761 -0.0001247013   0.44188203  0.017142371            0   0.42473966    1.6789058    2.1207878   -2.1356833 
19285000    1.1209082 -5.0808268e-05   0.43042793 0.0093076063            0   0.42112032    1.6673509    2.0977789   0.36352333 
19290000    1.0205395 3.5248296e-05   0.57792823  0.035618105            0   0.54231012    1.5180525    2.0959808    3.2991226 
19295000    1.1299682 1.6303781e-05   0.44093917  0.034441802            0   0.40649737    1.6808277    2.1217669    2.6782693 
19300000    1.1112068 -1.2981731e-05   0.47317638   0.02185513            0   0.45132125      1.65292    2.1260964    1.6829867 
19305000    1.0420505 7.1318546e-05   0.54389677  0.040235918            0   0.50366085    1.5500501    2.0939469    4.5282866 
19310000    1.0614441 4.3282246e-05   0.50243514  0.037974942            0    0.4644602    1.5788981    2.0813332    3.5587005 
19315000    1.0815074 0.00010522667   0.45832311  0.033988293            0   0.42433482    1.6087423    2.0670654    5.6588025 
19320000    1.1184134 4.9280265e-05   0.41408804  0.029949797            0   0.38413824      1.66364     2.077728    3.7598277 
19325000     1.041703 -0.00011337933   0.53034718  0.035225741            0   0.49512144    1.5495333    2.0798804   -1.7901339 
19330000    1.0792561 2.2356145e-05   0.43363235  0.023853728            0   0.40977863    1.6053935    2.0390259    2.8021156 
19335000    1.0624796 4.8598648e-05     0.454313  0.014862934            0   0.43945006    1.5804384    2.0347514    3.6935852 
19340000    1.0835753 -8.1072239e-05   0.43238167 0.0065724546            0   0.42580922    1.6118182    2.0441999  -0.72306585 
19345000    1.0885629 -7.2910674e-05   0.44120683  0.011908166            0   0.42929867    1.6192373    2.0604441  -0.42824026 
19350000    1.1074859 6.1435496e-05   0.39905062  0.014476335            0   0.38457429    1.6473853    2.0464359    4.1434342 
19355000    1.0510381 4.9390842e-05   0.48498331  0.055755716            0    0.4292276    1.5634191    2.0484024    3.7342765 
19360000    1.0012308 -0.00015127721   0.54908916  0.060615086            0   0.48847407    1.4893309      2.03842   -3.1251755 
19365000    1.0331859 -6.093218e-05   0.49113434   0.06084134            0     0.430293     1.536864    2.0279984 -0.051820036 
19370000     1.056672 -3.274362e-06   0.44721816  0.049634432            0   0.39758373    1.5717996    2.0190178    1.9072529 
19375000    1.0943507 -2.03575e-05   0.38348066  0.034403056            0    0.3490776    1.6278467    2.0113274     1.316458 
19380000    1.0789468 4.7215761e-05   0.42138173  0.039831721            0   0.38155001    1.6049334    2.0263151    3.6379464 
19385000    1.0320516 1.2671103e-05   0.51446015  0.019378938            0   0.49508121    1.5351767    2.0496369    2.4821439 
19390000    1.0368231 -5.7365148e-05   0.51432592  0.054683371            0   0.45964255    1.5422743    2.0566002  0.098536512 
19395000    1.0628324 -4.6208758e-05   0.44482461   0.02594289            0   0.41888173    1.5809632    2.0257878   0.44852885 
19400000    1.0764347 1.3413306e-05   0.40904645  0.019250945            0    0.3897955    1.6011967    2.0102431     2.468084 
19405000    1.0432824 -8.7385473e-05   0.46372953  0.042042664            0   0.42168686    1.5518826    2.0156121  -0.96714537 
19410000    1.0617655 -5.7823199e-05   0.45856089  0.025750505            0   0.43281039    1.5793762    2.0379371  0.064238551 
19415000    1.0396524 0.00012729355   0.47745669 0.0041567134            0   0.47329998    1.5464829    2.0239396    6.3688927 
19420000    1.0883347 0.00014611877   0.41301074  0.011880626            0   0.40113011    1.6188979    2.0319087    7.0194295 
19425000     1.012127 5.9624274e-05   0.52640161  0.035644822            0   0.49075679     1.505539    2.0319406    4.0671158 
19430000     1.081411 0.00011106705   0.40276303  0.016506311            0   0.38625672    1.6085988    2.0113619    5.8024506 
19435000    1.0639115 0.00016137523   0.43501724  0.018335605            0   0.41668164    1.5825683    2.0175856    7.5258601 
19440000    1.0391244 -8.2424376e-05   0.47162588  0.030201981            0    0.4414239    1.5456976    2.0173235  -0.79609522 
19445000    1.0001963 -0.00013993558   0.49647868  0.021869979            0    0.4746087    1.4877919    1.9842706   -2.7921972 
19450000   0.99395827 7.1681338e-05   0.49016047  0.018211266            0    0.4719492    1.4785129    1.9686734    4.4153964 
19455000    1.0377172 4.1358576e-05   0.42974891   0.02152268            0   0.40822623    1.5436044    1.9733533    3.3850593 
19460000    1.0541433 -9.6776694e-06   0.41353667  0.038949675            0     0.374587    1.5680381    1.9815748    1.6512437 
19465000   0.97576508 6.1740076e-05   0.50789688  0.031818129            0   0.47607875    1.4514506    1.9593474     4.066742 
19470000    1.0178452 0.00011745965   0.44416065  0.011198405            0   0.43296225    1.5140448    1.9582055    5.9674947 
19475000    1.0317899 0.00021587214   0.39960603  0.026715217            0   0.37289081    1.5347875    1.9343936    9.3028293 
19480000   0.98549277 0.00013415794   0.43089063  0.028896942            0   0.40199369    1.4659205    1.8968111    6.4760689 
19485000   0.97841811 -4.7243817e-05   0.44292867  0.013511549            0   0.42941712    1.4553969    1.8983256   0.28573667 
19490000    1.0250293 -1.4156925e-05   0.37615129  0.019576421            0   0.35657487    1.5247311    1.9008824    1.4176593 
19495000    1.0088925 -1.143746e-05   0.37663524  0.015220168            0   0.36141507    1.5007276    1.8773629    1.4869642 
19500000     1.014356 -5.6263465e-05   0.38462798 0.0058523859            0    0.3787756    1.5088545    1.8934825 -0.026977088 
19505000   0.97146584 3.5519027e-05   0.44088193  0.035782635            0    0.4050993    1.4450554    1.8859374    3.0983202 
19510000   0.95488596 7.7160862e-05   0.47774131   0.03471436            0   0.44302695    1.4203929    1.8981342    4.5318916 
19515000    0.9851568 -2.8224131e-05   0.43489003  0.020772959            0   0.41411707    1.4654207    1.9003108   0.93692709 
19520000   0.92760997 5.3053255e-05   0.50540807  0.017499728            0   0.48790835    1.3798198    1.8852279    3.6961123 
19525000   0.95707119 9.4773068e-05   0.46412641  0.060796197            0   0.40333022    1.4236434    1.8877698    5.1226905 
19530000   0.96397247 5.2279009e-05    0.4743529   0.03346214            0   0.44089076    1.4339091    1.9082619    3.6927188 
19535000   0.99412162 -9.2399075e-05   0.44448093  0.022693795            0   0.42178714    1.4787559    1.9232368   -1.2306516 
19540000    1.0008879 4.8331332e-07   0.41707846 0.0054312432            0   0.41164722    1.4888207    1.9058992    1.9223962 
19545000   0.96548408 3.3554216e-05   0.46707037 0.0055326545            0   0.46153771    1.4361576    1.9032279    3.0485452 
19550000   0.99553065 1.8395785e-05   0.43428212  0.012467476            0   0.42181465    1.4808518     1.915134    2.5430434 
19555000   0.98248307 9.0111161e-05     0.433319  0.033256455            0   0.40006254    1.4614436    1.8947626    4.9705569 
19560000   0.95379427 2.3328249e-05   0.48713291  0.045757919            0     0.441375     1.418769    1.9059019    2.7021728 
19565000   0.95269567 2.8967177e-05    0.4819857  0.055684922            0   0.42630078    1.4171348    1.8991205    2.8878668 
19570000   0.97338638 2.0242241e-05   0.44463873  0.049079618            0   0.39555912    1.4479122     1.892551    2.5834861 
19575000   0.96282228 5.3649638e-05   0.46081561  0.034562747            0   0.42625286    1.4321981    1.8930138    3.7242547 
19580000    1.0023754 4.7159134e-05   0.40354343   0.02465021            0   0.37889322    1.4910333    1.8945768    3.5042752 
19585000   0.93059182 -4.9576529e-05   0.49513403  0.021134066            0   0.47399996    1.3842553    1.8793894   0.18717717 
19590000   0.93917504 1.189392e-05   0.50874893  0.012417464            0   0.49633146    1.3970229    1.9057718    2.3117509 
19595000   0.94581166 2.5902792e-05   0.49614402  0.025584193            0   0.47055982    1.4068948    1.9030389    2.7871875 
19600000    1.0010582 5.1382482e-07   0.41507345   0.03185239            0   0.38322106    1.4890741    1.9041475    1.9216861 
19605000    1.0184213 6.9645873e-05   0.40729863  0.024772284            0   0.38252634    1.5149016    1.9222003    4.2994461 
19610000   0.94754427 4.1477957e-05    0.5149536  0.038752754            0   0.47620085    1.4094721    1.9244257    3.3402066 
19615000    1.0090697 -0.0001154008   0.43420539  0.039419861            0   0.39478553    1.5009912    1.9351966   -2.0038175 
19620000    0.9801203 -9.3209083e-05   0.49718686  0.014259175            0   0.48292769    1.4579289    1.9551158   -1.2264209 
19625000    1.0397152 2.7402846e-05   0.40494445  0.017263295            0   0.38768116    1.5465764    1.9515209    2.8868714 
19630000   0.99682755 -6.9766466e-05   0.49546147  0.038239073            0    0.4572224     1.482781    1.9782425  -0.40311958 
19635000   0.96479348 -0.00014145164   0.54946495  0.038452342            0   0.51101261    1.4351303    1.9845953   -2.8436208 
19640000    1.0744788 6.8447927e-05   0.35776731  0.027496734            0   0.33027058    1.5982872    1.9560545    4.2924104 
19645000   0.99407973 0.0001070584   0.47377049   0.04825239            0    0.4255181    1.4786936    1.9524641    5.6067241 
19650000   0.95185397 -0.0001051002   0.54142582   0.03646302            0    0.5049628    1.4158828    1.9573086   -1.6301115 
19655000    0.9844871 -3.99768e-05    0.4792924  0.032428958            0   0.44686344    1.4644246     1.943717   0.57917552 
19660000   0.97142626 1.1485101e-05   0.51590218  0.012362619            0   0.50353956    1.4449966    1.9608987    2.3529235 
19665000    1.0275706 3.8185449e-05   0.43778771  0.019677978            0   0.41810973    1.5285113     1.966299    3.2696957 
19670000   0.99593517 0.00010909167   0.44584395  0.034002043            0   0.41184191    1.4814536    1.9272975    5.6509598 
19675000   0.90791508 1.2950111e-05   0.58160586  0.013241421            0   0.56836444    1.3505237    1.9321295      2.37416 
19680000    0.9192303 1.9790841e-05    0.5604676  0.069290804            0    0.4911768    1.3673551    1.9278227      2.60335 
19685000   0.97177229 6.2651945e-05   0.46727648  0.024286835            0   0.44298965    1.4455113    1.9127878    4.0513075 
19690000   0.92447577 9.2342462e-05   0.54282066  0.048473791            0   0.49434687    1.3751577    1.9179784    5.0699344 
19695000    0.9348377 5.9277932e-05   0.53504816  0.037237656            0    0.4978105    1.3905711    1.9256192    3.9489726 
19700000   0.98632223 -9.6201346e-05   0.46044091 0.0091878345            0   0.45125307    1.4671543    1.9275952   -1.3560774 
19705000   0.96439747 -2.7430976e-05   0.46071479  0.037521925            0   0.42319287    1.4345412     1.895256   0.95894539 
19710000    1.0073736 -6.6513335e-05   0.43674449  0.033587455            0   0.40315704    1.4984683    1.9352127  -0.33510911 
19715000   0.97061413 4.1518358e-05   0.52634712  0.031500705            0   0.49484641    1.4437885    1.9701356    3.3872956 
19720000    1.0435484 2.131071e-05   0.42849923  0.015152627            0   0.41334661    1.5522782    1.9807774     2.708183 
19725000    1.0359513 -3.1904175e-05    0.4442506  0.025697655            0   0.41855294    1.5409776    1.9852282   0.89623231 
19730000    1.0254626 -3.2860207e-05   0.47957607  0.044391116            0   0.43518495    1.5253756    2.0049517   0.88332332 
19735000   0.99447339 -1.2724927e-05   0.54706906  0.055971299            0   0.49109776    1.4792792    2.0263482     1.592004 
19740000   0.97127313 0.00010319598   0.58195141  0.043485593            0   0.53846582    1.4447688    2.0267202    5.5491429 
19745000    1.0144051 2.6963191e-05   0.53292416  0.019691909            0   0.51323225    1.5089276    2.0418517    2.9621953 
19750000   0.99999106 0.00010531683    0.5659236  0.022081712            0   0.54384189    1.4874867    2.0534103    5.6482248 
19755000    1.0530662 0.00012532088   0.48365798  0.019204176            0   0.46445381     1.566436    2.0500939    6.3277131 
19760000    1.0175809 0.00013517885   0.54022887  0.012439992            0   0.52778888    1.5136517    2.0538805    6.6679854 
19765000    1.0862337 0.00011638394   0.42601188  0.015261364            0   0.41075051    1.6157726    2.0417845    6.0143562 
19770000    1.0467741 9.7015938e-05   0.51685042  0.012448909            0   0.50440151    1.5570764    2.0739268    5.3854042 
19775000    1.0699061 0.00015039717   0.48298844 0.0094518462            0    0.4735366    1.5914853    2.0744738    7.2080305 
19780000    1.0961929 0.00017575453   0.45596561 0.0021471422            0   0.45381847    1.6305869    2.0865526    8.0856404 
19785000    1.0465664 0.00010431013   0.52437284 0.0076602885            0   0.51671255    1.5567675    2.0811403    5.6415928 
19790000    1.1168481 6.8110853e-06   0.41905948  0.023717711            0   0.39534177    1.6613116    2.0803711    2.3128561 
19795000    1.0876831 -1.1742871e-05   0.48398229  0.033258246            0   0.45072405    1.6179286    2.1019109    1.7010875 
19800000    1.0370485 -9.7387878e-05   0.55232793  0.032551771            0   0.51977616    1.5426097    2.0949376   -1.2292353 
19805000    1.0408274 -0.00013955657   0.54267458  0.042585905            0   0.50008868    1.5482308    2.0909054   -2.6726256 
19810000    1.0751144 -0.00010633832   0.51305398  0.033174589            0   0.47987939    1.5992326    2.1122866   -1.5173946 
19815000    1.0585713 -2.4317354e-05   0.55042327  0.014505475            0   0.53591779    1.5746248    2.1250481    1.2950157 
19820000     1.095438 6.6141903e-05   0.50615063  0.025921751            0   0.48022888     1.629464    2.1356146    4.3932583 
19825000    1.1125902 -2.7744485e-06   0.48840577  0.028559188            0   0.45984658     1.654978    2.1433837    2.0486826 
19830000     1.038161 4.4631956e-05   0.60359119  0.024828141            0   0.57876305    1.5442646    2.1478557    3.6712932 
19835000    1.0589398 -6.0757069e-05    0.5526067  0.014662347            0   0.53794435    1.5751729    2.1277796  0.053938282 
19840000     1.096056 -1.0285485e-05   0.50164596  0.056811089            0   0.44483487    1.6303834    2.1320293    1.7809514 
19845000    1.1199638 -4.7309504e-05    0.4600186   0.02016273            0   0.43985587    1.6659462    2.1259648   0.51113368 
19850000    1.0738295 -9.0277695e-05   0.51887075   0.01299126            0   0.50587949    1.5973214    2.1161922  -0.96528646 
19855000    1.0121404 -3.2794738e-05   0.59437845  0.029344328            0   0.56503413    1.5055588    2.0999373   0.98054352 
19860000    1.0856821 4.2622505e-06   0.49619588  0.015410907            0   0.48078497    1.6149521     2.111148    2.2566328 
19865000     1.111975 0.00011578719   0.48537602  0.014783385            0   0.47059264    1.6540627    2.1394388    6.0916414 
19870000    1.0784968 0.00013998224    0.5172382  0.035759136            0   0.48147907     1.604264    2.1215022    6.8995628 
19875000    1.0859034 7.7033113e-05   0.51223863  0.078628152            0   0.43361048    1.6152813    2.1275199    4.7569169 
19880000    1.1220807 -5.2196934e-05   0.46512781  0.023266562            0   0.44186125     1.669095    2.1342228   0.35256749 
19885000    1.0856077 -8.0775036e-05   0.50532145  0.035126993            0   0.47019446    1.6148414    2.1201628  -0.63695838 
19890000    1.0725816 -2.1676976e-05   0.52889999  0.029210799            0   0.49968919    1.5954652    2.1243652    1.3844577 
19895000     1.047182 -6.1779504e-05   0.54727099  0.014105399            0   0.53316559    1.5576832    2.1049542 -0.0037862174 
19900000    1.0623175 -2.1251385e-05   0.50345681  0.018872941            0   0.48458387    1.5801973    2.0836541    1.3582735 
19905000     1.071999 1.0685743e-05    0.4831241  0.022147172            0   0.46097693    1.5945985    2.0777226    2.4424626 
19910000    1.1288944 -0.00011826369   0.41974349  0.020996337            0   0.39874715    1.6792304    2.0989739   -1.9377599 
19915000     1.047824 -8.8673042e-05   0.51238249 0.0073506884            0    0.5050318    1.5586382    2.0710206  -0.95568586 
19920000    1.0641969 2.6797314e-05   0.48446672  0.024540382            0   0.45992634    1.5829928    2.0674595    2.9821412 
19925000    1.0696513 -9.3108207e-06   0.43609529  0.035438635            0   0.40065666    1.5911063    2.0272016    1.7093922 
19930000     1.069541 -1.5458785e-05    0.4524257   0.04682889            0   0.40559681    1.5909423     2.043368    1.5157081 
19935000    1.0580678 -8.0670149e-05   0.47020636  0.042514284            0   0.42769207    1.5738758    2.0440822   -0.7094589 
19940000    1.0232146 -7.9697506e-06   0.51282043 0.0069126005            0   0.50590783    1.5220317    2.0348521    1.7628179 
19945000    1.0229559 -2.5520865e-05   0.50680255  0.011122554            0      0.49568    1.5216469    2.0284495    1.1573373 
19950000    1.0533196 0.00011940745    0.4745373  0.027691961            0   0.44684534    1.5668129    2.0413502    6.1171246 
19955000    1.0645618 6.7938408e-05   0.45704014  0.028981452            0   0.42805868    1.5835357    2.0405759    4.3595402 
19960000    1.0336213 -8.692913e-05   0.45043625  0.034473409            0   0.41596284    1.5375117     1.987948  -0.97923298 
19965000    1.0498222 -2.0473353e-05   0.44172895  0.016762264            0   0.42496669    1.5616105    2.0033394    1.3045157 
19970000   0.98522733 3.3363004e-05   0.51802288  0.024399756            0   0.49362312    1.4655257    1.9835485    3.1223391 
19975000    1.0521871 3.7535375e-06   0.42891288   0.02880374            0   0.40010914    1.5651283    1.9940412    2.1221619 
19980000    1.0130645 -7.032806e-05   0.46550304   0.01897108            0   0.44653196    1.5069335    1.9724365  -0.42809458 
19985000   0.98061857 -7.5192301e-05   0.50184396  0.027174661            0    0.4746693    1.4586701    1.9605141  -0.60604978 
19990000    1.0084161 3.862588e-05   0.49587768   0.02044863            0   0.47542905    1.5000189    1.9958966    3.3143267 
19995000    1.0444118 7.6449479e-05   0.44834292  0.026512241            0   0.42183068    1.5535626    2.0019055    4.6113811 
20000000    1.0514807 1.9497938e-05   0.43054844  0.016276591            0   0.41427185    1.5640775     1.994626    2.6601556 
Loop time of 227.36 on 1 procs for 20000000 steps with 120 atoms

Performance: 76002.933 tau/day, 87966.357 timesteps/s
99.6% CPU use with 1 MPI tasks x no OpenMP threads

MPI task timing breakdown:
Section |  min time  |  avg time  |  max time  |%varavg| %total
---------------------------------------------------------------
Pair    | 11.628     | 11.628     | 11.628     |   0.0 |  5.11
Bond    | 34.457     | 34.457     | 34.457     |   0.0 | 15.16
Neigh   | 20.108     | 20.108     | 20.108     |   0.0 |  8.84
Comm    | 50.585     | 50.585     | 50.585     |   0.0 | 22.25
Output  | 0.63606    | 0.63606    | 0.63606    |   0.0 |  0.28
Modify  | 101.53     | 101.53     | 101.53     |   0.0 | 44.65
Other   |            | 8.42       |            |       |  3.70

Nlocal:        120.000 ave         120 max         120 min
Histogram: 1 0 0 0 0 0 0 0 0 0
Nghost:        0.00000 ave           0 max           0 min
Histogram: 1 0 0 0 0 0 0 0 0 0
Neighs:        45.0000 ave          45 max          45 min
Histogram: 1 0 0 0 0 0 0 0 0 0

Total # of neighbors = 45
Ave neighs/atom = 0.375
Ave special neighs/atom = 5.9000000
Neighbor list builds = 4083
Dangerous builds = 0
write_restart restart.equil
System init for write_restart ...
WARNING: Communication cutoff 1.4200000000000002 is shorter than a bond length based estimate of 1.8. This may lead to errors. (../comm.cpp:667)
#--------------End of Input file ------------------
Total wall time: 0:03:47
