LAMMPS (29 Oct 2020)
###################### polyelectrolyte complexation ######################
clear

#Initialization
#------------------------------------
units				lj
dimension			3
atom_style			full
boundary			p p p

#Atom Definition
#-------------------------------------
read_data			data.complexation
Reading data file ...
  orthogonal box = (-80.000000 -80.000000 -80.000000) to (80.000000 80.000000 80.000000)
  1 by 1 by 1 MPI processor grid
  reading atoms ...
  40 atoms
  scanning bonds ...
  1 = max bonds/atom
  reading bonds ...
  39 bonds
Finding 1-2 1-3 1-4 neighbors ...
  special bond factors lj:    0.0      0.0      0.0     
  special bond factors coul:  0.0      0.0      0.0     
     2 = max # of 1-2 neighbors
     2 = max # of 1-3 neighbors
     4 = max # of 1-4 neighbors
     6 = max # of special neighbors
  special bonds CPU = 0.000 seconds
  read_data CPU = 0.002 seconds

#Force definition
#----------------------------------------------
#Bond definition
bond_style			harmonic
bond_coeff			1 5000 1
#Pair definition
special_bonds	lj 0 1 1
Finding 1-2 1-3 1-4 neighbors ...
  special bond factors lj:    0.0      1.0      1.0     
  special bond factors coul:  0.0      0.0      0.0     
     2 = max # of 1-2 neighbors
     2 = max # of 1-3 neighbors
     4 = max # of 1-4 neighbors
     6 = max # of special neighbors
  special bonds CPU = 0.000 seconds
pair_style		 lj/cut 1.12
pair_modify 		 shift yes
pair_coeff	1 1 1 1 1.12

#Timestep etc
#--------------------------------------------
timestep		1e-05
run_style		verlet
velocity		all	create	1	12

#Fix
#---------------------------------------
group polymers type 1
40 atoms in group polymers
fix 1 all nve
fix 2 all langevin 1	1	10	12
fix 3 polymers recenter INIT INIT INIT units box

#Dump
#------------------------------------------------
compute  1 all gyration
variable  myRg2 equal c_1
variable  i equal step
fix  mythermofile all print 5000 "$i ${myRg2}" file radius_of_gyration.dat screen no

thermo_style		 custom step temp press pe evdwl ecoul ebond ke etotal enthalpy
thermo 	5000
dump	3 all custom 5000 dump.lammpstrj id mol type xu yu zu
run		20000000
Neighbor list info ...
  update every 1 steps, delay 10 steps, check yes
  max neighbors/atom: 2000, page size: 100000
  master list distance cutoff = 1.42
  ghost atom cutoff = 1.42
  binsize = 0.71, bins = 226 226 226
  1 neighbor lists, perpetual/occasional/extra = 1 0 0
  (1) pair lj/cut, perpetual
      attributes: half, newton on
      pair build: half/bin/newton
      stencil: half/bin/3d/newton
      bin: standard
WARNING: Communication cutoff 1.4200000000000002 is shorter than a bond length based estimate of 1.8. This may lead to errors. (../comm.cpp:667)
Per MPI rank memory allocation (min/avg/max) = 54.71 | 54.71 | 54.71 Mbytes
Step Temp Press PotEng E_vdwl E_coul E_bond KinEng TotEng Enthalpy 
       0            1 9.5214844e-06            0            0            0            0       1.4625       1.4625       2.4375 
    5000   0.82800426 -0.00014236057   0.26423949            0            0   0.26423949    1.2109562    1.4751957   -13.102527 
   10000   0.54516927 -0.00032248396   0.70532591            0            0   0.70532591   0.79731005     1.502636   -31.519722 
   15000   0.84493519 -2.1366514e-05   0.28234364            0            0   0.28234364    1.2357177    1.5180614  -0.66986969 
   20000   0.85654483 6.8120794e-05   0.27112352            0            0   0.27112352    1.2526968    1.5238203    8.4993896 
   25000   0.76145692 -0.0001436492   0.38285271            0            0   0.38285271    1.1136307    1.4964835   -13.213194 
   30000   0.84331329 -8.435974e-05   0.26942577            0            0   0.26942577    1.2333457    1.5027715   -7.1356659 
   35000   0.81058716 0.00010665251   0.32683652            0            0   0.32683652    1.1854837    1.5123202    12.433538 
   40000   0.79454988 0.00014859485   0.32121787            0            0   0.32121787    1.1620292    1.4832471    16.699359 
   45000   0.68660888 -0.00019178935   0.46179874            0            0   0.46179874    1.0041655    1.4659642   -18.173265 
   50000   0.85390045 -7.3440008e-06   0.24770399            0            0   0.24770399    1.2488294    1.4965334   0.74450772 
   55000   0.75316089 0.0001710195   0.42785488            0            0   0.42785488    1.1014978    1.5293527    19.041749 
   60000   0.91693824 -2.8182454e-05   0.22265406            0            0   0.22265406    1.3410222    1.5636762    -1.322207 
   65000    0.8149414 -0.00014200993   0.35226135            0            0   0.35226135    1.1918518    1.5441132   -12.997704 
   70000    0.7987251 2.8257551e-05   0.36546984            0            0   0.36546984    1.1681355    1.5336053    4.4271785 
   75000   0.82539906 9.7294768e-05   0.33284505            0            0   0.33284505    1.2071461    1.5399912    11.502975 
   80000   0.85180723 -0.00010965365   0.33817034            0            0   0.33817034    1.2457681    1.5839384   -9.6445952 
   85000    0.7972373 1.2426231e-05   0.40063692            0            0   0.40063692    1.1659596    1.5665965    2.8390425 
   90000     0.856551 2.213968e-05   0.29695205            0            0   0.29695205    1.2527058    1.5496579    3.8167612 
   95000   0.83911884 5.7261742e-05   0.31100409            0            0   0.31100409    1.2272113    1.5382154    7.4018178 
  100000   0.68563178 -3.229694e-05   0.52245079            0            0   0.52245079    1.0027365    1.5251873   -1.7820194 
  105000   0.84418249 -6.7040644e-05     0.320132            0            0     0.320132    1.2346169    1.5547489   -5.3102131 
  110000   0.71729266 0.00014004253   0.52080218            0            0   0.52080218    1.0490405    1.5698427    15.910197 
  115000   0.81714156 -4.5367579e-05   0.34291912            0            0   0.34291912    1.1950695    1.5379887   -3.1076514 
  120000   0.67398479 -6.0553491e-06   0.51846167            0            0   0.51846167   0.98570276    1.5041644   0.88409667 
  125000   0.71329326 1.0759378e-05   0.43704648            0            0   0.43704648    1.0431914    1.4802379    2.5819981 
  130000   0.71838534 8.1726491e-05   0.47283537            0            0   0.47283537    1.0506386    1.5234739    9.8922666 
  135000   0.69688424 -0.00010117199   0.49940693            0            0   0.49940693    1.0191932    1.5186001   -8.8414115 
  140000   0.77653164 1.9241217e-05    0.3652307            0            0    0.3652307    1.1356775    1.5009082    3.4712088 
  145000   0.83436123 3.5394405e-05   0.30138504            0            0   0.30138504    1.2202533    1.5216383    5.1460254 
  150000   0.89594369 2.2683609e-05   0.19586567            0            0   0.19586567    1.3103176    1.5061833    3.8289848 
  155000   0.70944457 -9.8793294e-05   0.44823714            0            0   0.44823714    1.0375627    1.4857998   -8.6306335 
  160000    0.6922335 0.00010313984   0.47302082            0            0   0.47302082    1.0123915    1.4854123    12.046932 
  165000   0.79302048 5.9822506e-05   0.31634732            0            0   0.31634732    1.1597925    1.4761398    7.6019644 
  170000   0.71744963 -0.0001692529     0.449497            0            0     0.449497    1.0492701    1.4987671    -15.83273 
  175000    0.8699726 3.5203561e-05   0.21759162            0            0   0.21759162    1.2723349    1.4899265    5.0947712 
  180000    0.7420808 0.00011771923   0.44566962            0            0   0.44566962    1.0852932    1.5309628    13.585412 
  185000    0.7872848 -8.6071292e-05   0.34721672            0            0   0.34721672     1.151404    1.4986207   -7.3150796 
  190000   0.78411853 -5.9280098e-05   0.35165798            0            0   0.35165798    1.1467734    1.4984313   -4.5718507 
  195000   0.77236615 8.4625535e-05   0.36052016            0            0   0.36052016    1.1295855    1.4901057     10.15576 
  200000   0.77755414 -1.274679e-05   0.35706476            0            0   0.35706476    1.1371729    1.4942377   0.18896641 
  205000   0.82902593 -6.0869022e-05    0.2964512            0            0    0.2964512    1.2124504    1.5089016   -4.7240863 
  210000    0.7240216 4.5594129e-05   0.42078309            0            0   0.42078309    1.0588816    1.4796647    6.1485034 
  215000   0.85132001 -6.8097189e-05   0.25382044            0            0   0.25382044    1.2450555     1.498876   -5.4742762 
  220000   0.71784525 3.3964621e-05   0.42378246            0            0   0.42378246    1.0498487    1.4736311    4.9516083 
  225000   0.75063751 2.1889832e-05   0.32987889            0            0   0.32987889    1.0978074    1.4276863    3.6692051 
  230000   0.73925097 -1.1876271e-05    0.3668325            0            0    0.3668325    1.0811545    1.4479871    0.2318569 
  235000   0.83359463 -5.1389099e-05   0.22339292            0            0   0.22339292    1.2191321    1.4425251   -3.8197187 
  240000   0.70281303 6.304329e-05   0.41427969            0            0   0.41427969    1.0278641    1.4421437    7.8977766 
  245000   0.71363808 -7.1069235e-05   0.36282309            0            0   0.36282309    1.0436957    1.4065188   -5.8709709 
  250000   0.64193979 -2.6506978e-05   0.46446978            0            0   0.46446978   0.93883694    1.4033067   -1.3110078 
  255000   0.69282032  5.02052e-05   0.38825356            0            0   0.38825356    1.0132497    1.4015033    6.5425158 
  260000   0.75650184 -5.4368258e-05   0.29704723            0            0   0.29704723    1.1063839    1.4034312   -4.1638785 
  265000   0.73479873 7.3072022e-05   0.33504439            0            0   0.33504439    1.0746431    1.4096875    8.8922626 
  270000   0.60219465 -5.3688916e-05   0.46802434 0.00022613038            0   0.46779821   0.88070967     1.348734    -4.149011 
  275000    0.6465412 3.324261e-05   0.43349655 0.00095831776            0   0.43253823    0.9455665    1.3790631    4.7831063 
  280000   0.68356695 -1.5746993e-05   0.38656376 0.0008820119            0   0.38568175   0.99971666    1.3862804  -0.22621163 
  285000   0.69792331 2.465994e-05   0.34594165 0.00018848857            0   0.34575316    1.0207128    1.3666545    3.8918323 
  290000   0.67716142 6.382501e-05   0.40541039            0            0   0.40541039   0.99034858     1.395759    7.9314399 
  295000   0.60818566 1.0491943e-05   0.52965853            0            0   0.52965853   0.88947153    1.4191301     2.493505 
  300000   0.68970745 -1.0762271e-05   0.40671579 0.00031697122            0   0.40639882    1.0086971    1.4154129   0.31335641 
  305000   0.66011687 -4.8169638e-05   0.43675084 0.0015745424            0    0.4351763   0.96542092    1.4021718   -3.5303992 
  310000   0.76809397 -4.8487841e-05   0.29455332 0.00089824494            0   0.29365508    1.1233374    1.4178908   -3.5472642 
  315000   0.66467896 3.1376739e-05   0.46013819  0.002745984            0    0.4573922   0.97209298    1.4322312    4.6452093 
  320000   0.65101656 -1.2498978e-05   0.46297821 0.00061376307            0   0.46236445   0.95211172    1.4150899   0.13519463 
  325000   0.74247383 9.3190955e-05   0.35044396 0.00053237413            0   0.34991159     1.085868    1.4363119    10.979066 
  330000   0.81062325 -4.2532676e-05   0.25702795 0.00017599816            0   0.25685195    1.1855365    1.4425644   -2.9127815 
  335000   0.79631498 3.9308686e-05   0.28101854            0            0   0.28101854    1.1646107    1.4456292    5.4708386 
  340000   0.75040032 1.6155132e-05   0.32468705            0            0   0.32468705    1.0974605    1.4221475     3.076433 
  345000   0.66794316 -9.7654772e-05   0.41856682 0.0010307582            0   0.41753606   0.97686688    1.3954337   -8.6044149 
  350000   0.73623738 0.00010328053   0.33791554 0.0081186267            0   0.32979691    1.0767472    1.4146627    11.990589 
  355000   0.70906565 -0.00010461779   0.39280069  0.015007533            0   0.37779316    1.0370085    1.4298092   -9.2830528 
  360000   0.74408545 2.442985e-05   0.35769257 0.0074990471            0   0.35019352     1.088225    1.4459175    3.9475341 
  365000   0.75926477  -4.3689e-05    0.3441575  0.016376612            0   0.32778088    1.1104247    1.4545822   -3.0191714 
  370000   0.73074455 1.115931e-05    0.3792935  0.020311682            0   0.35898182    1.0687139    1.4480074    2.5907208 
  375000   0.74287591 1.1165621e-05   0.39216186  0.005127433            0   0.38703443     1.086456    1.4786179    2.6219775 
  380000   0.78004078 5.0924363e-06   0.39558216 0.00016645417            0   0.39541571    1.1408096    1.5363918    2.0578573 
  385000   0.79439976 1.3057957e-05   0.41709581 0.0017539429            0   0.41534186    1.1618096    1.5789055    2.9160403 
  390000   0.76779446 -0.00011815933    0.4332495 0.00095782225            0   0.43229168    1.1228994    1.5561489   -10.543366 
  395000   0.83766373 5.5946807e-06   0.31918193 0.0018027893            0   0.31737915    1.2250832    1.5442651    2.1171604 
  400000   0.79329323 5.8252958e-05    0.3896884 0.0017832538            0   0.38790514    1.1601913    1.5498797    7.5149827 
  405000   0.74575934 3.5630555e-05   0.43823437 7.2147158e-05            0   0.43816222     1.090673    1.5289074    5.1774762 
  410000   0.80068627 1.2553874e-05   0.38323271            0            0   0.38323271    1.1710037    1.5542364    2.8397531 
  415000    0.7506841 -6.9265347e-06   0.47194345            0            0   0.47194345    1.0978755     1.569819    0.8605418 
  420000   0.74581665 -4.9521782e-05   0.45916545            0            0   0.45916545    1.0907568    1.5499223   -3.5211082 
  425000   0.70136873 -3.0146995e-05   0.49479402 0.00010412157            0    0.4946899    1.0257518    1.5205458   -1.5665065 
  430000   0.75645644 3.4517497e-05   0.40340975 0.0067275168            0   0.39668223    1.1063175    1.5097273    5.0443189 
  435000   0.80800867 -4.4825556e-05   0.35283724  0.019495168            0   0.33334207    1.1817127    1.5345499    -3.055587 
  440000   0.74124541 5.6113156e-05    0.4593226  0.007800591            0     0.451522    1.0840714     1.543394    7.2893811 
  445000   0.71877772 -0.00011660387   0.46014965 4.9033839e-05            0   0.46010062    1.0512124    1.5113621   -10.428874 
  450000   0.71908051 0.00010830397   0.47949302 0.00064338671            0   0.47884963    1.0516553    1.5311483    12.621475 
  455000   0.80864739 -7.4027778e-05   0.35961254  0.001198727            0   0.35841381    1.1826468    1.5422593   -6.0381851 
  460000   0.80884492 2.0029348e-05   0.37666655 0.0081732637            0   0.36849329    1.1829357    1.5596022    3.6106074 
  465000     0.637905 5.5054119e-05   0.59547959  0.055590429            0   0.53988916   0.93293607    1.5284157    7.1659574 
  470000   0.74243153 -3.6879202e-05   0.42946868   0.02120066            0   0.40826802    1.0858061    1.5152748   -2.2611555 
  475000   0.76010484 -8.9726237e-05    0.3791985 0.0041988706            0   0.37499963    1.1116533    1.4908518   -7.6971148 
  480000   0.74215741 7.3971076e-05   0.38588805  0.011902089            0   0.37398596    1.0854052    1.4712933    9.0459314 
  485000   0.72146148 -4.5883414e-05   0.40808698  0.013458325            0   0.39462866    1.0551374    1.4632244   -3.2352372 
  490000   0.69235955 2.9364667e-05   0.42183534  0.015381801            0   0.40645354    1.0125758    1.4344112    4.4413531 
  495000   0.60896065 -2.2084365e-05    0.5210192 0.0094375969            0    0.5115816   0.89060495    1.4116242  -0.84981485 
  500000   0.67706294 1.9805502e-05   0.41821335 0.0042350207            0   0.41397833   0.99020455    1.4084179    3.4365013 
  505000   0.68290645 -3.7567706e-05   0.40480711  0.010291382            0   0.39451573   0.99875069    1.4035578   -2.4433753 
  510000   0.68189948 8.6711956e-05   0.42973205  0.015280343            0    0.4144517   0.99727799      1.42701    10.306314 
  515000   0.69084379 -5.7998083e-05   0.38908731  0.014005024            0   0.37508229     1.010359    1.3994464   -4.5395573 
  520000     0.669364 7.612047e-05   0.42946791 0.0053086437            0   0.42415927   0.97894485    1.4084128    9.2031489 
  525000    0.6861712 -6.7333687e-05   0.44436746 0.00091326006            0    0.4434542    1.0035254    1.4478928   -5.4470767 
  530000   0.73994858 2.940304e-05   0.38129465            0            0   0.38129465    1.0821748    1.4634695    4.4743408 
  535000   0.72037662 -0.00015872751   0.38632526            0            0   0.38632526    1.0535508    1.4398761   -14.813821 
  540000   0.74084491 -1.4067064e-05   0.32789622            0            0   0.32789622    1.0834857    1.4113819 -0.029085494 
  545000   0.74124238 3.4728979e-05   0.32366414            0            0   0.32366414     1.084067    1.4077311    4.9639785 
  550000   0.68909335 -0.00010235859   0.37929841            0            0   0.37929841     1.007799    1.3870974   -9.0944224 
  555000   0.67647155 0.00010661902   0.41871076            0            0   0.41871076   0.98933963    1.4080504    12.325838 
  560000   0.78091702 -1.4569859e-05   0.26099101 0.0010242134            0    0.2599668    1.1420911    1.4030822 -0.088871448 
  565000   0.69714035 -3.0443462e-05   0.40720907 0.0092308971            0   0.39797818    1.0195678    1.4267768   -1.6906337 
  570000   0.68565366 3.5430441e-05   0.43251653 0.0080764732            0   0.42444006    1.0027685     1.435285    5.0633622 
  575000   0.69654449 -5.98306e-05   0.39869885 0.00049620145            0   0.39820265    1.0186963    1.4173952   -4.7092583 
  580000   0.73822347 2.9637103e-05   0.36810174            0            0   0.36810174    1.0796518    1.4477536    4.4825929 
  585000   0.68833197 -2.0726431e-05    0.4250924            0            0    0.4250924    1.0066855    1.4317779  -0.69060865 
  590000   0.73172331 -1.9555332e-05   0.37730198            0            0   0.37730198    1.0701453    1.4474473  -0.55501869 
  595000   0.78879475 -1.0705321e-05   0.30127502 1.0828174e-05            0    0.3012642    1.1536123    1.4548874   0.35866253 
  600000   0.72238161 6.5873011e-06   0.38195357 0.0061396158            0   0.37581396    1.0564831    1.4384367    2.1129763 
  605000   0.67751109 8.8527219e-05   0.46712938  0.030353192            0   0.43677618   0.99085997    1.4579893    10.523177 
  610000    0.7349814 -6.2667974e-05    0.4219796  0.021018628            0   0.40096097    1.0749103    1.4968899   -4.9203106 
  615000   0.78893281 -1.7694551e-05   0.35263423 0.0091142911            0   0.34351994    1.1538142    1.5064485  -0.30547353 
  620000   0.67619436 -2.4718411e-05   0.52940066  0.020059848            0   0.50934082   0.98893425    1.5183349   -1.0128304 
  625000   0.74383475 2.2690256e-05   0.45769082  0.014679901            0   0.44301092    1.0878583    1.5455491    3.8690314 
  630000   0.74890345 1.8256731e-05   0.45948424 0.0088164293            0   0.45066781    1.0952713    1.5547555    3.4242448 
  635000   0.78705688 6.9367848e-05   0.39726093 0.0060447337            0    0.3912162    1.1510707    1.5483316    8.6515992 
  640000   0.76551963 5.7853081e-05   0.43117786  0.010543613            0   0.42063425    1.1195725    1.5507503    7.4749058 
  645000   0.76636851 3.7001844e-05   0.39740376  0.017100026            0   0.38030374    1.1208139    1.5182177    5.3072066 
  650000   0.76564773 7.4179702e-05   0.41885527  0.014871336            0   0.40398393    1.1197598    1.5386151    9.1346165 
  655000   0.72072243 -3.2242406e-05   0.45526215 0.0054101506            0     0.449852    1.0540566    1.5093187   -1.7923036 
  660000   0.78700446 -2.9099255e-05   0.35239582 0.0030834113            0   0.34931241     1.150994    1.5033898   -1.4763739 
  665000   0.73814977 -4.4119904e-05   0.37832837 0.00060087413            0   0.37772749     1.079544    1.4578724   -3.0600058 
  670000   0.70000717 2.7148298e-05   0.41579654 0.00021385758            0   0.41558268    1.0237605     1.439557    4.2195427 
  675000   0.70668202 -3.0818749e-05   0.40507709 0.00035115023            0   0.40472594    1.0335224    1.4385995   -1.7172404 
  680000   0.73828061 3.8220102e-05   0.41521191 0.00029415906            0   0.41491775    1.0797354    1.4949473    5.4086857 
  685000   0.77305265 -7.8741943e-06   0.35174199 3.3947792e-05            0   0.35170804    1.1305895    1.4823315   0.67601399 
  690000   0.79494824 -3.3177112e-05   0.33747216 0.0023898666            0    0.3350823    1.1626118     1.500084   -1.8972523 
  695000   0.70432178 1.6754175e-05   0.43508009 0.0072677488            0   0.42781234    1.0300706    1.4651507    3.1807783 
  700000   0.72871645 -8.9556388e-05   0.43702553 0.0047660206            0   0.43225951    1.0657478    1.5027733   -7.6678008 
  705000   0.83569672 -1.8695555e-05   0.28609748 0.00091280093            0   0.28518468    1.2222064    1.5083039  -0.40612088 
  710000   0.78856499 6.7484586e-05   0.43061203            0            0   0.43061203    1.1532763    1.5838883    8.4943099 
  715000   0.77305213 -3.2494256e-07   0.43879421 0.0002230875            0   0.43857113    1.1305887     1.569383    1.5361088 
  720000    0.8577922 -2.480053e-06   0.31674393 0.0024294855            0   0.31431444    1.2545211     1.571265    1.3173076 
  725000   0.78293437 9.7024796e-06   0.41422051   0.00298015            0   0.41124036    1.1450415     1.559262    2.5527959 
  730000    0.8164176 -2.0239001e-05   0.35774958  0.001686461            0   0.35606312    1.1940107    1.5517603  -0.52071341 
  735000   0.82015336 -3.1373577e-05   0.38021216  0.015313234            0   0.36489893    1.1994743    1.5796864   -1.6329678 
  740000   0.76172265 2.1610436e-05    0.5132729  0.046779727            0   0.46649318    1.1140194    1.6272923    3.8402009 
  745000   0.88916217 1.8752296e-05   0.34460534  0.012182927            0   0.33242242    1.3003997     1.645005    3.5652402 
  750000   0.89144421 2.3591454e-05   0.35366586  0.029402313            0   0.32426355    1.3037372     1.657403    4.0731679 
  755000   0.88627885 7.474491e-07   0.39269138 0.0096701884            0   0.38302119    1.2961828    1.6888742     1.765413 
  760000   0.89322661 -3.5558116e-05   0.37064245 0.0019451606            0   0.36869729    1.3063439    1.6769864   -1.9641647 
  765000   0.78712649 8.2432778e-06   0.51250396  0.012845446            0   0.49965851    1.1511725    1.6636764    2.5077881 
  770000   0.87907624 3.4616016e-05   0.41122666  0.017621019            0   0.39360564     1.285649    1.6968757    5.2415557 
  775000   0.84349034 1.1551615e-05   0.48805522  0.014184693            0   0.47387053    1.2336046    1.7216598    2.9045452 
  780000   0.83924066 2.6002398e-05   0.53734291   0.03870487            0   0.49863804    1.2273895    1.7647324    4.4273779 
  785000   0.89535052 1.5002587e-05   0.47524347   0.09058885            0   0.38465462    1.3094501    1.7846936    3.3209585 
  790000   0.90424181 -9.2796392e-06   0.45213956  0.053262798            0   0.39887676    1.3224536    1.7745932   0.82435815 
  795000   0.94580934 -1.9180499e-05   0.39269465  0.013140955            0    0.3795537    1.3832462    1.7759408  -0.18814234 
  800000   0.96598135 -2.4810084e-05    0.3791652 0.0077305475            0   0.37143466    1.4127477    1.7919129  -0.74863972 
  805000   0.89826776 2.9462371e-05   0.44290907 0.0058689359            0   0.43704013    1.3137166    1.7566257    4.7735725 
  810000   0.87243372 8.828199e-05   0.49861235 0.0050607276            0   0.49355162    1.2759343    1.7745467    10.814622 
  815000   0.98424907 9.5835613e-05   0.36524578 0.0061680922            0   0.35907769    1.4394643    1.8047101    11.618277 
  820000   0.96403268 -4.9173182e-06   0.40984371 0.0034874874            0   0.40635622    1.4098978    1.8197415    1.3162081 
  825000   0.89497069 -4.8541843e-05   0.57273078 0.0040274045            0   0.56870338    1.3088946    1.8816254   -3.0890593 
  830000    0.9921033 3.5734378e-05    0.4004627 0.0078629198            0   0.39259978    1.4509511    1.8514138    5.5106141 
  835000   0.90669572 5.3236644e-05   0.49243535  0.010236932            0   0.48219842    1.3260425    1.8184778    7.2699102 
  840000    1.0013916 -1.556065e-05   0.37006417 0.0074642629            0   0.36259991    1.4645352    1.8345993   0.24118876 
  845000    0.8951449 -9.3267334e-05   0.49897699 0.00053431781            0   0.49844268    1.3091494    1.8081264   -7.7424486 
  850000   0.96411781 -9.6956538e-06    0.3691681 0.00047819301            0    0.3686899    1.4100223    1.7791904   0.78635544 
  855000   0.89208372 2.8301551e-05   0.49950093 0.0071717083            0   0.49232922    1.3046724    1.8041734    4.7022522 
  860000   0.92816357 -7.3519064e-05   0.45043527   0.03535345            0   0.41508182    1.3574392    1.8078745   -5.7204777 
  865000   0.89090914 1.0874353e-06   0.48381467  0.034334148            0   0.44948052    1.3029546    1.7867693    1.8981227 
  870000    0.9379948 5.928101e-05   0.42421669  0.025660482            0   0.39855621    1.3718174    1.7960341    7.8664095 
  875000   0.96843759 4.2206972e-06   0.40849242  0.011009636            0   0.39748279      1.41634    1.8248324    2.2570318 
  880000   0.96451239 -3.7953431e-05   0.44457127  0.011466908            0   0.43310436    1.4105994    1.8551706   -2.0312606 
  885000   0.90302442 -1.5199493e-06   0.54651573  0.063791316            0   0.48272442    1.3206732    1.8671889    1.7115461 
  890000   0.83228239 6.6726613e-05   0.65855658  0.030688101            0   0.62786848     1.217213    1.8757696    8.7085747 
  895000    0.9978917 3.8254211e-05   0.40778544 0.0014203195            0   0.40636512    1.4594166    1.8672021    5.7844332 
  900000   0.86388452 2.7010058e-05   0.61325215 0.0075390331            0   0.60571312    1.2634311    1.8766833    4.6425132 
  905000   0.93205457 0.00015167842   0.49265624  0.019008852            0   0.47364738    1.3631298    1.8557861    17.387657 
  910000   0.95835816 0.00011776757   0.47374857  0.023487212            0   0.45026136    1.4015988    1.8753474    13.934746 
  915000   0.85879783 -2.6678342e-06    0.6371238  0.052206321            0   0.58491748    1.2559918    1.8931156    1.6199294 
  920000    0.9991062 2.025571e-05   0.49298056  0.036343801            0   0.45663676    1.4611928    1.9541734    4.0283581 
  925000   0.94609742 0.00010798713   0.56218532  0.050989403            0   0.51119592    1.3836675    1.9458528    13.003735 
  930000    1.0061446 2.2032144e-05   0.46680895  0.018776247            0   0.44803271    1.4714865    1.9382955     4.194387 
  935000   0.98513146 -0.0001183586   0.47610664 0.0027698849            0   0.47333675    1.4407548    1.9168614   -10.203059 
  940000   0.95080143 -4.036396e-06   0.51456088 0.0012762315            0   0.51328465    1.3905471     1.905108     1.491781 
  945000   0.96770896 1.0242256e-05    0.4327034 0.0091027364            0   0.42360066    1.4152744    1.8479778    2.8967848 
  950000   0.93537542 -6.0830254e-05   0.50491279  0.017768958            0   0.48714384    1.3679865    1.8728993   -4.3561186 
  955000   0.88884725 7.4509021e-05   0.57946319 0.0081056547            0   0.57135753    1.2999391    1.8794023    9.5091261 
  960000   0.90863099 7.7188011e-05   0.50714616 0.00026435041            0   0.50688181    1.3288728     1.836019    9.7400714 
  965000   0.83092367 -1.50238e-05   0.65764294 0.0053032423            0    0.6523397    1.2152259    1.8728688   0.33443165 
  970000   0.99167705 2.4422516e-05     0.422004  0.016991818            0   0.40501218    1.4503277    1.8723317    4.3731974 
  975000   0.87214313 -5.6879955e-05   0.59035894  0.022539439            0   0.56781951    1.2755093    1.8658683   -3.9586392 
  980000   0.86821769 -0.00011744084   0.54265174  0.010457236            0   0.53219451    1.2697684    1.8124201   -10.213521 
  985000   0.92358969 -7.6447538e-05   0.48210709 0.0031452129            0   0.47896188    1.3507499     1.832857   -5.9953709 
  990000   0.87806026 5.6021815e-05     0.580395 0.0052125157            0   0.57518249    1.2841631    1.8645581     7.601192 
  995000   0.90026835 0.00010235658   0.55966439 0.0075552129            0   0.55210918    1.3166425    1.8763069     12.35762 
 1000000    1.0215093 2.3058532e-05   0.37169854 0.0096330176            0   0.36206552    1.4939573    1.8656558    4.2268495 
 1005000   0.81632483 -0.00010806155   0.66727942  0.031633514            0   0.63564591    1.1938751    1.8611545   -9.2043481 
 1010000   0.90524588 -0.00013996834   0.52287319  0.022968222            0   0.49990497    1.3239221    1.8467953   -12.485962 
 1015000   0.97622188 6.3388234e-05   0.40909909 0.0013872317            0   0.40771186    1.4277245    1.8368236    8.3277788 
 1020000   0.86447107 0.0001210895   0.52928247 0.00047822337            0   0.52880425    1.2642889    1.7935714    14.193136 
 1025000   0.92242065 -8.0197739e-07   0.45004072 0.0024087964            0   0.44763192    1.3490402    1.7990809    1.7169584 
 1030000   0.85981384 1.3094933e-05   0.54882728  0.004287893            0   0.54453939    1.2574777     1.806305    3.1472261 
 1035000   0.89384096 6.5269209e-05   0.51509522 0.00067248972            0   0.51442273    1.3072424    1.8223376    8.5059046 
 1040000   0.81783668 2.1240301e-05    0.5873851            0            0    0.5873851    1.1960861    1.7834713    3.9584781 
 1045000   0.86284637 -4.7011931e-05   0.49136678 0.0026457707            0   0.48872101    1.2619128    1.7532796   -3.0607422 
 1050000   0.88652533 7.030035e-06   0.50377668 0.0026454942            0   0.50113119    1.2965433      1.80032    2.5201956 
 1055000   0.89053969 2.991142e-05   0.47285093            0            0   0.47285093    1.3024143    1.7752652    4.8381946 
 1060000   0.80854184 -8.7517309e-05   0.58837189            0            0   0.58837189    1.1824924    1.7708643   -7.1909082 
 1065000   0.85289935 -6.8526982e-05   0.50285882 0.0019703659            0   0.50088846    1.2473653    1.7502241   -5.2669389 
 1070000   0.87288316 -2.0031688e-05   0.49934554  0.011784496            0   0.48756104    1.2765916    1.7759372  -0.27530764 
 1075000   0.77583154 -7.0224325e-05   0.62186149  0.011519683            0    0.6103418    1.1346536    1.7565151   -5.4344558 
 1080000   0.86045652 6.0133412e-05   0.46080711 0.0004935408            0   0.46031357    1.2584177    1.7192248    7.8768861 
 1085000   0.83144053 3.6235804e-05   0.47885413            0            0   0.47885413    1.2159818    1.6948359    5.4053822 
 1090000   0.81713746 -9.6166828e-05   0.49746157 0.0024776565            0   0.49498392    1.1950635    1.6925251   -8.1549581 
 1095000   0.85437874 1.9287815e-05   0.48006641  0.016447708            0   0.46361871    1.2495289    1.7295953    3.7046676 
 1100000    0.7968989 4.3438034e-05   0.52925078  0.012327588            0   0.51692319    1.1654646    1.6947154    6.1427701 
 1105000   0.77791181 0.00011726077   0.50379842 0.0032816869            0   0.50051673     1.137696    1.6414944    13.648997 
 1110000   0.85451979 3.4252082e-05   0.37645138 0.0024533922            0   0.37399799    1.2497352    1.6261866    5.1335997 
 1115000   0.87619835 -2.9103244e-05   0.35472147 0.00013616637            0    0.3545853    1.2814401    1.6361616   -1.3440107 
 1120000   0.78253235 -0.00011777506   0.51799117            0            0   0.51799117    1.1444536    1.6624447   -10.397722 
 1125000   0.87135942 -0.00012029155   0.40847202    0.0104574            0   0.39801462    1.2743632    1.6828352   -10.635019 
 1130000   0.81071875 2.5912757e-05   0.52155983  0.056544102            0   0.46501573    1.1856762     1.707236    4.3607023 
 1135000   0.84717824 -3.1124258e-05   0.47574552  0.015044209            0   0.46070131    1.2389982    1.7147437   -1.4723804 
 1140000   0.83264994 -5.8486508e-05   0.43732133 0.0028167997            0   0.43450453    1.2177505    1.6550719   -4.3339466 
 1145000   0.78251275 -1.7433845e-05   0.47605467 0.0087564944            0   0.46729818    1.1444249    1.6204796  -0.16474614 
 1150000   0.75578696 3.1985938e-05   0.50524134  0.022992395            0   0.48224894    1.1053384    1.6105798    4.8859399 
 1155000   0.75776177 3.7275718e-05   0.52418861   0.03092533            0   0.49326328    1.1082266    1.6324152    5.4494487 
 1160000   0.78322113 -6.5925898e-06   0.52682348  0.041809939            0   0.48501354    1.1454609    1.6722844   0.99720318 
 1165000   0.71149409 6.7915611e-07   0.66882875  0.056460652            0    0.6123681    1.0405601    1.7093888    1.7789344 
 1170000   0.85385743 2.2924659e-05   0.45816173  0.026091439            0   0.43207029    1.2487665    1.7069282    4.0544133 
 1175000   0.94609514 1.2464225e-05    0.3000437 0.0037109721            0   0.29633272    1.3836641    1.6837078    2.9600445 
 1180000   0.93825639 2.756955e-05   0.30249105 0.0088015139            0   0.29368953       1.3722     1.674691    4.4978129 
 1185000   0.80225076 6.0889085e-05   0.50558988 0.0057869573            0   0.49980292    1.1732917    1.6788816    7.9139239 
 1190000   0.76565623 4.2265218e-05   0.49723274 0.00035850982            0   0.49687423    1.1197722     1.617005    5.9449633 
 1195000   0.80665284 -2.5634732e-05   0.44132661            0            0   0.44132661    1.1797298    1.6210564   -1.0039402 
 1200000   0.84782657 -6.2111588e-05   0.39487779            0            0   0.39487779    1.2399464    1.6348242   -4.7254024 
 1205000   0.83075408 -1.8140863e-05   0.37890725 3.8031554e-05            0   0.37886922    1.2149778    1.5938851   -0.2637393 
 1210000    0.7585212 7.3288175e-05   0.47352661  0.010295951            0   0.46323066    1.1093373    1.5828639     9.087573 
 1215000   0.74741497  0.000109179   0.50420729  0.055587823            0   0.44861947    1.0930944    1.5973017    12.777231 
 1220000    0.7748198 -1.0114261e-05   0.46172677  0.026170959            0   0.43555581     1.133174    1.5949007   0.55920038 
 1225000   0.74478601 -7.5058305e-05   0.44364069  0.004326299            0    0.4393144    1.0892495    1.5328902   -6.1530802 
 1230000   0.77738565 -7.6741548e-05   0.38044151 0.0077654717            0   0.37267604    1.1369265     1.517368   -6.3409665 
 1235000   0.72316953 2.3826444e-05   0.46637169  0.007540864            0   0.45883083    1.0576354    1.5240071     3.963835 
 1240000   0.72440419 8.7623174e-05   0.46177005  0.024942912            0   0.43682714    1.0594411    1.5212112    10.493824 
 1245000   0.81006396 4.1287189e-05   0.33542874   0.01458638            0   0.32084236    1.1847185    1.5201473    5.7479555 
 1250000   0.67165255 9.0957167e-06   0.46188289 0.0059021498            0   0.45598074   0.98229186    1.4441747    2.3755761 
 1255000   0.72748366  1.40416e-05   0.38689929 0.0041580664            0   0.38274123    1.0639449    1.4508442     2.888704 
 1260000   0.77748083 6.0824976e-05   0.33757555  0.011048108            0   0.32652744    1.1370657    1.4746413    7.7031188 
 1265000   0.65828931 4.1122312e-05   0.50247487  0.035675216            0   0.46679965   0.96274812     1.465223    5.6761478 
 1270000   0.64370389 2.0074462e-05   0.52345095  0.022623347            0    0.5008276   0.94141693    1.4648679    3.5204928 
 1275000   0.69084799 -2.7375923e-05   0.43798313  0.024287675            0   0.41369546    1.0103652    1.4483483   -1.3549462 
 1280000   0.70183213 -6.6467526e-05   0.41430467 0.0064191176            0   0.40788555    1.0264295    1.4407342   -5.3655405 
 1285000   0.66830364 -2.2962927e-05   0.46471102  0.013087299            0   0.45162372   0.97739407    1.4421051  -0.90929861 
 1290000   0.66845799 7.3672468e-05   0.44162661   0.02818797            0   0.41343864    0.9776198    1.4192464    8.9633071 
 1295000    0.6980553 0.00013916109   0.41336361  0.028469076            0   0.38489454    1.0209059    1.4342695    15.684365 
 1300000   0.72523215 9.6084717e-05   0.39254787  0.010171917            0   0.38237596     1.060652    1.4531999    11.292275 
 1305000   0.60482622 1.8896657e-05   0.61658954  0.011834025            0   0.60475552   0.88455834    1.5011479    3.4361656 
 1310000   0.61545386 1.7657223e-05   0.57235722  0.010034152            0   0.56232307   0.90010127    1.4724585    3.2805581 
 1315000   0.67893126 4.3133954e-05   0.48724684  0.011353698            0   0.47589314   0.99293697    1.4801838    5.8971007 
 1320000   0.79832358 1.3791559e-05   0.34202701  0.011461602            0   0.33056541    1.1675482    1.5095752    2.9218309 
 1325000   0.83547438 -1.2880345e-05   0.32736335 0.0061215989            0   0.32124175    1.2218813    1.5492446   0.23029733 
 1330000   0.69967829 2.9145994e-05   0.54047242  0.012067612            0    0.5284048    1.0232795    1.5637519    4.5483017 
 1335000   0.72019164 7.8962931e-05    0.5018428  0.019687665            0   0.48215514    1.0532803    1.5551231    9.6409273 
 1340000   0.70110535 0.00014316755   0.54249084  0.012935909            0   0.52955493    1.0253666    1.5678574    16.228215 
 1345000   0.76179505 9.325502e-05   0.46988615 0.0036201076            0   0.46626604    1.1141253    1.5840114    11.133325 
 1350000   0.72622652 -7.1871934e-06   0.49866653 0.00015803742            0    0.4985085    1.0621063    1.5607728   0.82480422 
 1355000   0.72253164 -1.5340357e-05   0.52516905 0.0010010829            0   0.52416797    1.0567025    1.5818716  0.011018992 
 1360000   0.69386393 1.5750201e-06   0.56701608 0.0022205483            0   0.56479553     1.014776    1.5817921    1.7430741 
 1365000   0.78462864 1.9159321e-05   0.42458045 0.0089881858            0   0.41559226    1.1475194    1.5720998    3.5340143 
 1370000   0.83060689 -2.4021634e-07   0.37554947  0.017657681            0   0.35789179    1.2147626     1.590312    1.5657139 
 1375000   0.76171696 1.5936251e-05   0.52305612  0.037470599            0   0.48558552    1.1140111    1.6370672    3.2689393 
 1380000   0.79228626 4.3742474e-05   0.45853549  0.060907861            0   0.39762763    1.1587187    1.6172541    6.0964835 
 1385000   0.79468004 8.1543127e-05   0.48592329  0.030162701            0   0.45576059    1.1622196    1.6481428    9.9981591 
 1390000   0.80289674 4.1944929e-05   0.47533737  0.035398619            0   0.43993875    1.1742365    1.6495738    5.9447346 
 1395000   0.71994768 -2.5473545e-05   0.55773213  0.062964412            0   0.49476772    1.0529235    1.6106556  -0.99783543 
 1400000   0.76443835 -6.131848e-05   0.48722228  0.022838726            0   0.46438355    1.1179911    1.6052134    -4.673799 
 1405000   0.71525925 -7.010391e-05   0.54226587  0.035846282            0   0.50641958    1.0460667    1.5883325   -5.5903078 
 1410000   0.65257727 -6.940556e-05   0.66964999  0.055138685            0   0.61451131   0.95439426    1.6240443   -5.4830851 
 1415000   0.75188075 -9.097365e-05   0.51248926  0.053529878            0   0.45895938    1.0996256    1.6121149   -7.7035869 
 1420000   0.86406163 -1.0191866e-05   0.34981198 0.0021460928            0   0.34766588    1.2636901    1.6135021   0.56985498 
 1425000   0.81043925 6.3930355e-05    0.4169165  0.008873818            0   0.40804268    1.1852674    1.6021839    8.1486523 
 1430000   0.80687235 -5.1073545e-06   0.48004496   0.03404928            0   0.44599568    1.1800508    1.6600958    1.1371027 
 1435000   0.75743094 -4.9342068e-05   0.56079642  0.065544048            0   0.49525238    1.1077427    1.6685392   -3.3840886 
 1440000   0.77609459 7.620839e-07   0.56748099  0.028554033            0   0.53892696    1.1350383    1.7025193    1.7805567 
 1445000   0.79199496 2.727279e-05   0.51435929 0.0080759009            0   0.50628339    1.1582926    1.6726519    4.4653856 
 1450000   0.81914295 -6.4264635e-06   0.48005481  0.005240286            0   0.47481453    1.1979966    1.6780514    1.0199815 
 1455000   0.73934739 -9.5705274e-06   0.55683505  0.015614585            0   0.54122046    1.0812956    1.6381306    0.6581086 
 1460000   0.91623019 5.2483755e-05   0.34090077  0.034615064            0   0.30628571    1.3399867    1.6808874     7.055224 
 1465000   0.81064606 4.8309312e-05   0.52311642  0.010113489            0   0.51300293    1.1855699    1.7086863    6.6555598 
 1470000   0.86820872 -8.2324839e-06    0.4811828  0.014182097            0   0.46700071    1.2697552    1.7509381    0.9079317 
 1475000   0.92003215 -6.9697714e-05   0.45028877  0.013480633            0   0.43680813     1.345547    1.7958358   -5.3412101 
 1480000   0.75069672 -5.2701498e-05   0.70949204  0.038843901            0   0.67064814     1.097894     1.807386   -3.5892474 
 1485000   0.92604469 1.4610244e-05   0.43694569  0.032182151            0   0.40476354    1.3543404     1.791286    3.2873751 
 1490000   0.81632254 -5.4745659e-05   0.63903684  0.034349512            0   0.60468733    1.1938717    1.8329086   -3.7730469 
 1495000   0.78384584 -5.9271773e-05    0.6888735   0.23493003            0   0.45394346    1.1463745     1.835248   -4.2341815 
 1500000   0.92028274 -7.9001615e-05   0.51988548  0.075199325            0   0.44468615    1.3459135     1.865799   -6.2239664 
 1505000   0.90800039 -3.4425643e-05   0.55055093  0.041812037            0    0.5087389    1.3279506    1.8785015   -1.6466844 
 1510000   0.88497771 3.422856e-05    0.5753438  0.027337152            0   0.54800665    1.2942799    1.8696237    5.3746282 
 1515000    0.8777582 1.751286e-05   0.63973726  0.052474074            0   0.58726319    1.2837214    1.9234586    3.7167755 
 1520000   0.90558091 -5.0387658e-06   0.62463801  0.040913809            0    0.5837242    1.3244121    1.9490501    1.4330805 
 1525000    0.9733421 7.1011548e-06   0.53294395  0.050636597            0   0.48230736    1.4235128    1.9564568     2.683615 
 1530000   0.99813547 -5.9261747e-05   0.48955717 0.0061063291            0   0.48345084    1.4597731    1.9493303   -4.1190726 
 1535000    1.0066199 -6.6545539e-05   0.46917065 0.0015515912            0   0.46761906    1.4721816    1.9413523   -4.8729109 
 1540000    1.0170976 -1.8933325e-05    0.4874118 0.0095661906            0   0.47784561    1.4875052     1.974917  0.036144467 
 1545000    1.0890259 -5.5044761e-05   0.44233172  0.025406534            0   0.41692518    1.5927003     2.035032   -3.6015515 
 1550000    1.0655811 -3.7525234e-06   0.48276843  0.032926649            0   0.44984178    1.5584124    2.0411809    1.6569225 
 1555000   0.99645329 2.6077121e-05   0.58424022  0.026325222            0   0.55791499    1.4573129    2.0415531    4.7118503 
 1560000    1.0136491 -4.3648975e-05   0.52097034  0.015025532            0    0.5059448    1.4824619    2.0034322   -2.4662229 
 1565000    1.1018684 -3.6593798e-06   0.42984608  0.019363103            0   0.41048298    1.6114825    2.0413286    1.6666081 
 1570000   0.97109912 -9.660768e-06   0.60140394   0.07948492            0   0.52191902    1.4202325    2.0216364    1.0323738 
 1575000   0.97878203 2.9371911e-05   0.58204683  0.041759725            0    0.5402871    1.4314687    2.0135155    5.0211992 
 1580000    1.0676159 4.5448476e-05   0.47959765 0.0022763231            0   0.47732133    1.5613883    2.0409859    6.6949099 
 1585000   0.96122067 -8.3798471e-05     0.653185 0.00066782405            0   0.65251718    1.4057852    2.0589702   -6.5219932 
 1590000     1.093805 2.7095699e-05   0.44568804 0.0020384497            0   0.44364959    1.5996898    2.0453778    4.8199774 
 1595000    1.0552292 6.7418939e-05   0.53017407 0.00044096634            0   0.52973311    1.5432728    2.0734468    8.9771461 
 1600000    1.1027267 -0.00011887525    0.5202634 0.00026427341            0   0.51999912    1.6127378    2.1330012   -10.039824 
 1605000    1.1138381 -3.1304358e-05   0.49797656 0.00046986554            0    0.4975067    1.6289882    2.1269648   -1.0786015 
 1610000    1.1441715 1.7218392e-06   0.45961085 0.00046385052            0     0.459147    1.6733508    2.1329617     2.309278 
 1615000    1.0735762 -0.00012834284   0.48059501 0.00053240835            0    0.4800626    1.5701051    2.0507001   -11.091606 
 1620000    1.0685962 -5.0063718e-05   0.49734087 0.0084132624            0   0.48892761    1.5628219    2.0601628   -3.0663619 
 1625000    1.0672114 -1.1457973e-05   0.45890802  0.062756921            0    0.3961511    1.5607967    2.0197047    0.8464083 
 1630000   0.98899157 2.0562395e-05   0.57291415  0.082172946            0    0.4907412    1.4464002    2.0193143    4.1249036 
 1635000   0.98208213 -1.9538663e-05   0.52052378  0.019266488            0   0.50125729    1.4362951    1.9568189 -0.043940224 
 1640000    1.0879115 -8.0953713e-05   0.40641286   0.02277283            0   0.38364003    1.5910705    1.9974834   -6.2921768 
 1645000    1.0712588 -5.6156684e-05   0.43045199 0.0084490199            0   0.42200297     1.566716    1.9971679   -3.7532765 
 1650000    1.0496251 -9.7672207e-05   0.42295882            0            0   0.42295882    1.5350767    1.9580355   -8.0435985 
 1655000    1.0064829 -4.1904889e-05    0.4946759            0            0    0.4946759    1.4719812    1.9666571   -2.3244035 
 1660000     1.002912 3.7704225e-05   0.41341672 6.2026698e-05            0    0.4133547    1.4667588    1.8801756    5.7410882 
 1665000     1.019851 3.9096936e-05   0.35562968 0.00012988376            0   0.35549979    1.4915321    1.8471618     5.850688 
 1670000   0.94900418 5.9910811e-06   0.49477009 0.0024852281            0   0.49228486    1.3879186    1.8826887    2.4961754 
 1675000   0.92554984 -6.8798484e-05   0.52117888  0.042428269            0   0.47875061    1.3536166    1.8747955   -5.1701692 
 1680000   0.85829352 -0.00014048585   0.61390531   0.07875824            0   0.53514707    1.2552543    1.8691596   -12.516592 
 1685000   0.92324478 -4.7642733e-05   0.49306983   0.02300994            0   0.47005989    1.3502455    1.8433153   -3.0353005 
 1690000   0.87968204 4.0180719e-05   0.52931752 0.0067213588            0   0.52259616     1.286535    1.8158525    5.9303581 
 1695000   0.88918919 -1.0096083e-05   0.53513842 0.0054846374            0   0.52965378    1.3004392    1.8355776   0.80173875 
 1700000   0.94530304 8.4175908e-06   0.45377549  0.010630154            0   0.44314534    1.3825057    1.8362812    2.6982425 
 1705000   0.80458887 4.4248066e-05    0.6745097  0.031991559            0   0.64251814    1.1767112    1.8512209    6.3822229 
 1710000   0.93563112 -9.6318902e-05   0.46753934  0.020110206            0   0.44742914    1.3683605    1.8358999   -8.0271557 
 1715000    0.8967254 -0.00013274041   0.49236734 0.0094347283            0   0.48293261    1.3114609    1.8038282    -11.78879 
 1720000   0.95061386 -4.5514104e-06   0.41275221  0.011936369            0   0.40081585    1.3902728     1.803025    1.3369606 
 1725000   0.83667589 8.8325821e-05   0.59198552  0.029451729            0   0.56253379    1.2236385     1.815624    10.860188 
 1730000   0.83985418 7.0282713e-05   0.57783173  0.053820943            0   0.52401078    1.2282867    1.8061185    9.0030683 
 1735000   0.98069414 -1.4551646e-05   0.38087079  0.028835696            0   0.35203509    1.4342652     1.815136   0.32504745 
 1740000   0.94162961 -6.5985838e-05   0.40620287 0.0066707949            0   0.39953207    1.3771333    1.7833362   -4.9736137 
 1745000   0.75927182 -3.1646806e-05   0.67740587  0.022766618            0   0.65463925     1.110435    1.7878409    -1.452792 
 1750000   0.81644051 3.2209251e-05   0.60243452  0.051093275            0   0.55134125    1.1940442    1.7964788    5.0947061 
 1755000   0.92827223 2.6145823e-05   0.46924765  0.010222746            0   0.45902491    1.3575981    1.8268458    4.5041781 
 1760000    1.0026458 4.1262206e-05    0.3877187   0.01199584            0   0.37572286    1.4663695    1.8540882    6.0793381 
 1765000   0.87524809 6.9185123e-05   0.58696365   0.02249115            0    0.5644725    1.2800503     1.867014    8.9515706 
 1770000    1.0146286 5.6483691e-05    0.4274411  0.023626254            0   0.40381485    1.4838944    1.9113355    7.6952655 
 1775000   0.89386785 -1.1300064e-05   0.64766433  0.021648127            0    0.6260162    1.3072817    1.9549461   0.79781953 
 1780000    1.0460475 -4.7046503e-05   0.44559324 0.0041723889            0   0.44142085    1.5298445    1.9754377   -2.8421241 
 1785000    1.0178817 1.9813389e-05   0.47343628 0.00014394116            0   0.47329233     1.488652    1.9620883    3.9909793 
 1790000   0.88064582 2.1390479e-05   0.65255088 0.00067452589            0   0.65187635    1.2879445    1.9404954    4.1308804 
 1795000   0.97457285 4.2810982e-05   0.53204175 0.0044712095            0   0.52757054    1.4253128    1.9573545    6.3411991 
 1800000    1.0258967 -1.8441307e-05   0.42508194 0.0028864418            0    0.4221955    1.5003739    1.9254558   0.03706604 
 1805000     1.011908 1.5706488e-05   0.44715512 0.0060471764            0   0.44110794    1.4799155    1.9270706     3.535415 
 1810000    1.0191246 -5.542516e-05   0.45018006  0.016445503            0   0.43373456    1.4904697    1.9406498   -3.7348866 
 1815000   0.85767057 -1.448546e-05   0.69153046  0.013841602            0   0.67768886    1.2543432    1.9458737   0.46256258 
 1820000   0.89008081 8.8157917e-05   0.59404491  0.010899248            0   0.58314567    1.3017432    1.8957881    10.923159 
 1825000   0.82094377 -1.2512227e-05   0.68633185 0.0057525804            0   0.68057927    1.2006303    1.8869621   0.60571011 
 1830000   0.79477334 -5.1312832e-05   0.71913447  0.002920566            0   0.71621391     1.162356    1.8814905   -3.3729435 
 1835000   0.96441506 1.014188e-05   0.45263539 0.0086248056            0   0.44401059     1.410457    1.8630924    2.9016209 
 1840000   0.96268185 -8.704634e-06   0.43080712  0.014782824            0   0.41602429    1.4079222    1.8387293   0.94737479 
 1845000   0.84321188 -3.4253173e-05   0.60050812  0.011019041            0   0.58948908    1.2331974    1.8337055   -1.6738194 
 1850000   0.92735346 7.135983e-05    0.4803431 0.0047373438            0   0.47560576    1.3562544    1.8365975    9.1438441 
 1855000   0.80406332 0.0001032059   0.63542111  0.019254386            0   0.61616673    1.1759426    1.8113637    12.379648 
 1860000   0.94945902 -6.7489044e-06   0.42171464   0.02168063            0   0.40003401    1.3885838    1.8102985    1.1192106 
 1865000   0.81493086 -2.6953231e-05   0.59598053 0.0092673095            0   0.58671322    1.1918364    1.7878169  -0.97219388 
 1870000   0.83023508 4.1649089e-05   0.57865933  0.011051365            0   0.56760796    1.2142188    1.7928781    6.0577449 
 1875000   0.82839213 4.6158218e-05   0.57543449  0.012460754            0   0.56297374    1.2115235     1.786958    6.5135595 
 1880000   0.92720156 -2.5351572e-05   0.45867172 0.0056690401            0   0.45300268    1.3560323     1.814704  -0.78129695 
 1885000   0.79552671 -3.01492e-05   0.64908665 0.0033544323            0   0.64573221    1.1634578    1.8125445   -1.2747337 
 1890000   0.96296712 -2.7977653e-07   0.40586996  0.002144631            0   0.40372533    1.4083394    1.8142094    1.7855603 
 1895000   0.93756943 4.4882502e-05    0.4581883 0.00098593851            0   0.45720236    1.3711953    1.8293836    6.4253518 
 1900000   0.97453612 -4.0607336e-05   0.40415195 0.0010668107            0   0.40308514    1.4252591     1.829411   -2.3287802 
 1905000      0.86114 -0.00013273081   0.54713626  0.021494935            0   0.52564132    1.2594172    1.8065535   -11.785081 
 1910000   0.81561204 -3.7746978e-05   0.60585929  0.045698531            0   0.56016076    1.1928326    1.7986919   -2.0665987 
 1915000   0.87906863 2.3378533e-05   0.51158241   0.02369287            0   0.48788954    1.2856379    1.7972203    4.1911821 
 1920000   0.84502106 3.9630325e-05   0.53627925  0.055615022            0   0.48066423    1.2358433    1.7721226    5.8302678 
 1925000    0.8692584 6.4053238e-05   0.49794015 0.0099008016            0   0.48803935    1.2712904    1.7692306    8.3282821 
 1930000   0.83536289 1.7362528e-05   0.58106599            0            0   0.58106599    1.2217182    1.8027842    3.5807071 
 1935000   0.96084122 4.3131715e-06   0.40473011 3.2427444e-05            0   0.40469768    1.4052303    1.8099604    2.2516292 
 1940000   0.93659398 3.6604315e-05    0.4324969 0.0011183333            0   0.43137856    1.3697687    1.8022656    5.5505474 
 1945000    0.9558056 1.6681727e-05   0.40025038 0.0033524813            0    0.3968979    1.3978657    1.7981161    3.5063249 
 1950000   0.82684315 -4.2913684e-05   0.58253942  0.011586324            0    0.5709531    1.2092581    1.7917975   -2.6025637 
 1955000   0.94587815 -1.3465192e-05   0.38237211  0.021560669            0   0.36081144    1.3833468    1.7657189   0.38688324 
 1960000    0.9281448 4.8562138e-05   0.37296732  0.026733943            0   0.34623337    1.3574118    1.7303791     6.703142 
 1965000   0.86605076 6.4449643e-06   0.41848015  0.030491152            0   0.38798899    1.2665992    1.6850794    2.3450437 
 1970000   0.90659104 4.7782943e-05   0.38944174  0.022189506            0   0.36725223    1.3258894    1.7153311    6.6083045 
 1975000   0.88279446 -1.0844825e-05   0.39530365 0.0012268022            0   0.39407685    1.2910869    1.6863905   0.57588047 
 1980000   0.93628491 -7.3406493e-06    0.3122856            0            0    0.3122856    1.3693167    1.6816023   0.92991979 
 1985000   0.82417726 7.2489161e-05   0.41143154 0.00061669502            0   0.41081484    1.2053592    1.6167908    9.0396808 
 1990000   0.82312689 4.0781255e-05    0.4068936 0.0020806616            0   0.40481294    1.2038231    1.6107167    5.7867172 
 1995000    0.8485816 2.2096748e-05   0.36790835 0.0038567225            0   0.36405162    1.2410506    1.6089589     3.871666 
 2000000   0.80886296 6.097998e-05   0.44349717 0.0014233819            0   0.44207379    1.1829621    1.6264593    7.8708092 
 2005000   0.85943712 5.2588973e-05   0.37409785 0.00024429184            0   0.37385356    1.2569268    1.6310246    7.0161355 
 2010000   0.74686371 2.7076662e-05   0.54239154  0.010164103            0   0.53222743    1.0922882    1.6346797    4.4073299 
 2015000     0.826632 4.0995257e-05   0.41042022  0.017744085            0   0.39267613    1.2089493    1.6193695    5.8172839 
 2020000   0.74146946 -1.0625555e-05   0.52468772  0.035672912            0   0.48901481    1.0843991    1.6090868   0.52102998 
 2025000   0.80529147 -9.729897e-06   0.44699036  0.033365345            0   0.41362502    1.1777388    1.6247291   0.62838768 
 2030000   0.82624476 -4.3118016e-06   0.39115644 0.00029078647            0   0.39086566     1.208383    1.5995394    1.1580109 
 2035000   0.82727266 -2.4704726e-05   0.36869274            0            0   0.36869274    1.2098863     1.578579  -0.95118495 
 2040000    0.8711821 -4.8545905e-05   0.33436437            0            0   0.33436437    1.2741038    1.6084682   -3.3626325 
 2045000   0.82906128 1.0757072e-05   0.44866241 0.0034550388            0   0.44520737    1.2125021    1.6611645    2.7626887 
 2050000   0.73989239 3.5873503e-05   0.58414246   0.01698664            0   0.56715582    1.0820926    1.6662351    5.3396818 
 2055000   0.87382011 -1.6915985e-05   0.39807136  0.032550293            0   0.36552107    1.2779619    1.6760333 -0.056163594 
 2060000   0.74130231 -0.0001153173   0.56806124  0.021875116            0   0.54618612    1.0841546    1.6522159   -10.156276 
 2065000   0.87809848 -2.8761269e-05   0.38580012   0.03276061            0   0.35303951     1.284219    1.6700191   -1.2751348 
 2070000   0.85355952 3.1721775e-05   0.40639075 0.0099215173            0   0.39646923    1.2483308    1.6547215    4.9030313 
 2075000   0.76007371 -4.016579e-05   0.51637865 5.9725804e-07            0   0.51637805    1.1116078    1.6279864   -2.4849905 
 2080000   0.77470295 -5.2991905e-05   0.49423964            0            0   0.49423964    1.1330031    1.6272427   -3.7991284 
 2085000   0.84271649 -2.0495777e-05   0.40283551 3.1602414e-05            0   0.40280391    1.2324729    1.6353084  -0.46345921 
 2090000   0.90846369 -2.8780179e-05   0.32062611 0.00078137163            0   0.31984474    1.3286281    1.6492542   -1.2978361 
 2095000   0.73253341 -6.419626e-05   0.58765153  0.004177529            0     0.583474    1.0713301    1.6589816   -4.9147154 
 2100000   0.92639662 -4.0029665e-05   0.32991349  0.020614878            0   0.30929861    1.3548551    1.6847686   -2.4142692 
 2105000   0.88364085 -1.4712559e-05   0.44791076  0.051290758            0   0.39662001    1.2923247    1.7402355    0.2336695 
 2110000   0.80929202 1.2820992e-05   0.51370412  0.026316644            0   0.48738748    1.1835896    1.6972937    3.0101633 
 2115000   0.92805119 7.5199249e-05   0.36010416  0.013346772            0   0.34675739    1.3572749     1.717379    9.4177821 
 2120000   0.87107236 1.416547e-05   0.46428334  0.016590315            0   0.44769302    1.2739433    1.7382267    3.1887708 
 2125000   0.87974497 -1.6495448e-05    0.4082978  0.063684603            0   0.34461319     1.286627    1.6949248 0.0057909112 
 2130000   0.86908876 -0.00010711173   0.44792991  0.022604853            0   0.42532506    1.2710423    1.7189722   -9.2492691 
 2135000   0.87487887 5.874995e-06    0.4644385  0.002625001            0    0.4618135    1.2795103    1.7439488    2.3455483 
 2140000   0.86193698 -2.8304913e-05   0.44185475 0.00048481142            0   0.44136994    1.2605828    1.7024376   -1.1959855 
 2145000   0.88861837 2.5019149e-05   0.39035295 0.0022843184            0   0.38806863    1.2996044    1.6899573    4.2519182 
 2150000   0.78493121 2.1221048e-05   0.53800529  0.013243629            0   0.52476166    1.1479619    1.6859672    3.8590025 
 2155000   0.81574016 -0.0001139162   0.49782023  0.019031628            0   0.47878861      1.19302    1.6908402    -9.974179 
 2160000   0.74894122 -0.00010029871   0.57259561 0.0092653525            0   0.56333026    1.0953265    1.6679221   -8.6026658 
 2165000   0.80081136 -1.5283884e-05   0.48904024  0.013485486            0   0.47555476    1.1711866    1.6602269  0.095157187 
 2170000   0.71980215 1.6743187e-05   0.57808563  0.012548051            0   0.56553758    1.0527106    1.6307963    3.3452986 
 2175000   0.80989367 6.5871356e-06   0.45298527 0.0056039208            0   0.44738135    1.1844695    1.6374548    2.3119774 
 2180000   0.73326105 1.8583658e-05   0.57548644 0.0011554102            0   0.57433103    1.0723943    1.6478807    3.5508473 
 2185000   0.80636627 3.4155705e-05   0.44611453            0            0   0.44611453    1.1793107    1.6254252    5.1229694 
 2190000   0.82324316 -3.8397984e-05   0.41493067            0            0   0.41493067    1.2039931    1.6189238   -2.3130298 
 2195000   0.77766318 -0.00014779773   0.47811508 5.042696e-05            0   0.47806466    1.1373324    1.6154475    -13.51904 
 2200000    0.8536369 -6.2824655e-05   0.36098494  0.017235335            0    0.3437496     1.248444    1.6094289   -4.8238158 
 2205000   0.68972875 4.3543696e-05   0.59785199  0.063159159            0   0.53469283    1.0087283    1.6065803    6.0654547 
 2210000   0.81032319 7.7040848e-06   0.43227633  0.045771302            0   0.38650503    1.1850977     1.617374    2.4062723 
 2215000    0.7724897 -4.7381483e-05   0.55665314   0.07998749            0   0.47666565    1.1297662    1.6864193   -3.1654445 
 2220000    0.9666497 -5.5328585e-07   0.29592004  0.040085465            0   0.25583457    1.4137252    1.7096452    1.6529888 
 2225000   0.84092069 2.9883605e-05   0.47236959  0.027569258            0   0.44480033    1.2298465    1.7022161    4.7622972 
 2230000   0.77982913 9.9840229e-06   0.52226915  0.027497424            0   0.49477172    1.1405001    1.6627693    2.6851332 
 2235000   0.80699136 2.2604485e-05   0.45694331 0.0018140993            0   0.45512922    1.1802249    1.6371682    3.9518675 
 2240000   0.77686792 1.6844637e-05   0.49466396 0.00020274926            0   0.49446121    1.1361693    1.6308333    3.3557241 
 2245000   0.85848589 3.4286848e-05   0.34329664 0.0017507914            0   0.34154585    1.2555356    1.5988323    5.1098054 
 2250000   0.78319971 5.9850776e-05   0.47827781 0.0091441006            0   0.46913371    1.1454296    1.6237074    7.7524268 
 2255000   0.80634986 4.6862836e-06   0.45129696  0.044157701            0   0.40713926    1.1792867    1.6305836    2.1104591 
 2260000   0.82346744 -4.9756505e-05   0.40551207  0.034131951            0   0.37138011    1.2043211    1.6098332   -3.4852329 
 2265000   0.80621302 2.8336347e-06   0.44059086  0.013064071            0   0.42752679    1.1790865    1.6196774    1.9098416 
 2270000   0.82518411 3.4515791e-05   0.42311692 0.0054904789            0   0.41762644    1.2068318    1.6299487    5.1643657 
 2275000   0.89088895 -1.3956441e-05   0.34489722  0.013175352            0   0.33172186    1.3029251    1.6478223   0.21868277 
 2280000    0.8210945 -1.2880159e-05   0.45083061  0.011286063            0   0.43954455    1.2008507    1.6516813   0.33275306 
 2285000    0.8792413 6.1522558e-06   0.39744128 0.0024984068            0   0.39494287    1.2858904    1.6833317    2.3133227 
 2290000   0.81113608 1.9139545e-08    0.4658505 0.0010972751            0   0.46475322    1.1862865     1.652137    1.6540969 
 2295000   0.81504504 1.4938497e-06   0.49452989 0.0039164412            0   0.49061344    1.1920034    1.6865333    1.8395035 
 2300000   0.84445986 3.0574977e-05    0.5008183 0.0063641138            0   0.49445418    1.2350225    1.7358408    4.8667185 
 2305000   0.82374679 5.4535977e-05   0.51088201 0.0089523652            0   0.50192964    1.2047297    1.7156117    7.3000957 
 2310000   0.75923209 1.9284841e-05    0.6097149  0.016008104            0    0.5937068    1.1103769    1.7200918    3.6948596 
 2315000   0.82692452 -4.9098172e-06   0.52312104  0.030096136            0   0.49302491    1.2093771    1.7324982    1.2297329 
 2320000   0.90694072 3.5350271e-05   0.39633519  0.031211421            0   0.36512377    1.3264008     1.722736    5.3426037 
 2325000   0.86642758 1.0990137e-05    0.4495496  0.026629232            0   0.42292037    1.2671503    1.7166999    2.8420899 
 2330000   0.81312463 -0.00012202777   0.57371872  0.028237925            0    0.5454808    1.1891948    1.7629135    -10.73273 
 2335000   0.80826424 -6.5506458e-05   0.59079051  0.044929785            0   0.54586073    1.1820865     1.772877   -4.9349843 
 2340000   0.80464192 -2.3365377e-05   0.58054888  0.037215853            0   0.54333302    1.1767888    1.7573377  -0.63527697 
 2345000   0.89585089 -1.7835295e-05   0.46367236 0.0017966845            0   0.46187568    1.3101819    1.7738543 -0.052479924 
 2350000   0.91691292 5.8748109e-05   0.40785123 0.0013915207            0   0.40645971    1.3409851    1.7488364    7.7646427 
 2355000   0.91010151 1.0474491e-05   0.37412403 0.0035923713            0   0.37053166    1.3310235    1.7051475    2.7777354 
 2360000   0.80544199 7.3596451e-06   0.52056817 0.0044790268            0   0.51608915    1.1779589    1.6985271    2.4521548 
 2365000   0.76566715 9.5689909e-05   0.55532755 0.0019924153            0   0.55333514    1.1197882    1.6751158    11.473762 
 2370000   0.75249738  6.61698e-05   0.54835234 0.00034267035            0   0.54800967    1.1005274    1.6488798    8.4246672 
 2375000   0.67333989 -1.1521156e-05   0.67390032  0.008924335            0   0.66497599    0.9847596    1.6586599   0.47889351 
 2380000   0.71428849 -1.3784587e-05   0.61044514  0.023020609            0   0.58742453    1.0446469    1.6550921   0.24355031 
 2385000   0.66774524 -6.5843019e-05   0.69242146  0.012610907            0   0.67981055   0.97657741    1.6689989   -5.0733263 
 2390000   0.76604074 -3.7825844e-05   0.54530108 0.0044549427            0   0.54084614    1.1203346    1.6656357   -2.2077307 
 2395000   0.80251939 -2.1302909e-05   0.49249239  0.035382089            0    0.4571103    1.1736846     1.666177  -0.51524086 
 2400000   0.80484019 -3.9024834e-05    0.4592159  0.015608411            0   0.44360749    1.1770788    1.6362947   -2.3598484 
 2405000   0.65262239 -1.8750638e-05    0.6700439 0.0015941239            0   0.66844977   0.95446025    1.6245041  -0.29556118 
 2410000   0.84526721 -2.2205986e-05   0.35410204 1.2111101e-05            0   0.35408992    1.2362033    1.5903053   -0.6835876 
 2415000   0.76949499 3.2136114e-05   0.44971922 0.0011301613            0   0.44858906    1.1253864    1.5751056    4.8658438 
 2420000   0.74407487 1.7242553e-05   0.53013127 0.0043816998            0   0.52574957    1.0882095    1.6183408    3.3839782 
 2425000   0.82456785 -9.0264056e-06   0.44440944 0.0060085683            0   0.43840087    1.2059305    1.6503399   0.72603599 
 2430000   0.80099553 8.970601e-06   0.49485549 0.00089649092            0     0.493959     1.171456    1.6663114     2.584901 
 2435000    0.7744234 2.7557862e-05   0.51215668 0.00052182046            0   0.51163486    1.1325942    1.6447509     4.466676 
 2440000   0.70835134 6.2986966e-05   0.60828056  0.019088896            0   0.58919166    1.0359638    1.6442444    8.0941097 
 2445000   0.87569532 2.5352404e-06   0.34818648  0.029825126            0   0.31836136    1.2807044    1.6288909    1.8884995 
 2450000   0.75499986 -0.0001156475   0.54266074 0.0016435622            0   0.54101717    1.1041873     1.646848   -10.195456 
 2455000   0.81825549 -1.9705991e-05   0.43975907            0            0   0.43975907    1.1966987    1.6364577   -0.3814357 
 2460000   0.79729753 -3.1211977e-06   0.46979411  0.007614145            0   0.46217997    1.1660476    1.6358418    1.3162311 
 2465000   0.71904906 1.0397002e-05   0.58900757  0.037532944            0   0.55147463    1.0516092    1.6406168    2.7052698 
 2470000   0.80087483 1.7282385e-05   0.48732683  0.014256136            0   0.47307069    1.1712794    1.6586063    3.4283225 
 2475000   0.79662785 -7.068017e-05   0.50036542  0.012271883            0   0.48809354    1.1650682    1.6654337   -5.5722158 
 2480000   0.86444054 -1.2455462e-05   0.39922412 0.0089229457            0   0.39030118    1.2642443    1.6634684   0.38802911 
 2485000   0.79121266 -2.8042572e-05   0.52342556 0.0061807791            0   0.51724478    1.1571485    1.6805741   -1.1909853 
 2490000   0.88517391 -6.9218202e-05   0.38872592  0.012818478            0   0.37590744    1.2945668    1.6832928   -5.4046512 
 2495000   0.77416792 3.0148442e-05   0.49465611 0.0080123582            0   0.48664375    1.1322206    1.6268767    4.7140771 
 2500000   0.76274239 5.5329618e-05   0.48856442  0.003092115            0    0.4854723    1.1155107    1.6040752    7.2698281 
 2505000   0.84518193 3.146013e-05   0.35934121 0.0056770835            0   0.35366412    1.2360786    1.5954198     4.816937 
 2510000     0.849687 1.7465039e-05   0.34090591 0.0043708254            0   0.33653508    1.2426672    1.5835731    3.3719932 
 2515000   0.78155329 -6.0361451e-05   0.42644116 0.00067775521            0   0.42576341    1.1430217    1.5694628   -4.6115498 
 2520000   0.78474866 -0.0001329552   0.43048799  0.015380383            0   0.41510761    1.1476949    1.5781829   -12.036429 
 2525000   0.73529206 -9.2595199e-05   0.50150664  0.077391022            0   0.42411562    1.0753646    1.5768713   -7.9048771 
 2530000   0.78691073 1.8626884e-05   0.38573895  0.024489524            0   0.36124942    1.1508569    1.5365959    3.4439888 
 2535000     0.722289 2.6062236e-05   0.47244212 0.00027754537            0   0.47216458    1.0563477    1.5287898    4.1975627 
 2540000   0.70594485 4.421599e-06   0.49035747            0            0   0.49035747    1.0324443    1.5228018    1.9755736 
 2545000   0.76761055 -3.6855734e-05   0.40737163 6.8476932e-05            0   0.40730315    1.1226304    1.5300021   -2.2440251 
 2550000   0.72709079 -0.00013210956    0.4701776 0.0069924467            0   0.46318516    1.0633703    1.5335479   -11.994471 
 2555000   0.69199494 -7.5270458e-05   0.52268245  0.027375746            0   0.49530671    1.0120426    1.5347251   -6.1729699 
 2560000    0.7305739 2.6600302e-05   0.47368964   0.01067502            0   0.46301462    1.0684643     1.542154    4.2660249 
 2565000   0.78066019 -3.4637498e-05   0.43097317 0.0002514141            0   0.43072175    1.1417155    1.5726887   -1.9741911 
 2570000   0.78941642 -5.2853049e-05   0.43144638 0.0050090775            0    0.4264373    1.1545215    1.5859679   -3.8261843 
 2575000   0.79483853 4.4612164e-05   0.38321284  0.020880229            0   0.36233261    1.1624513    1.5456642    6.1139498 
 2580000   0.70989971 8.6961096e-05   0.50078707  0.070765981            0   0.43002109    1.0382283    1.5390154    10.443832 
 2585000   0.76894087 -9.7002233e-06   0.42643724  0.012432646            0    0.4140046     1.124576    1.5510133    0.5577104 
 2590000    0.6549289 -2.0986388e-05   0.60585666            0            0   0.60585666   0.95783351    1.5636902  -0.58531596 
 2595000   0.83031869 2.2068755e-05   0.37244409            0            0   0.37244409    1.2143411    1.5867852    3.8466257 
 2600000   0.84551901 1.3564051e-05   0.37014696            0            0   0.37014696    1.2365715    1.6067185    2.9956773 
 2605000   0.78108706 5.9925364e-06   0.47713424            0            0   0.47713424    1.1423398    1.6194741    2.2331098 
 2610000   0.82013408 3.4770147e-05   0.43567224 0.0018650766            0   0.43380717    1.1994461    1.6351183    5.1955814 
 2615000   0.83001983 2.5112433e-05   0.44138767  0.011349454            0   0.43003822     1.213904    1.6552917    4.2268048 
 2620000   0.74508977 -1.1423527e-05   0.58100985  0.012708382            0   0.56830146    1.0896938    1.6707036   0.50093447 
 2625000   0.87464743 -1.5484007e-05   0.43097623 0.0032908777            0   0.42768535    1.2791719    1.7101481   0.12458577 
 2630000   0.87591224 3.0365809e-05   0.42232328 0.00072835124            0   0.42159493    1.2810217    1.7033449    4.8128038 
 2635000   0.87032655 7.8672133e-05   0.42937396 0.0077267579            0   0.42164721    1.2728526    1.7022265     9.758253 
 2640000   0.82396551 4.7915937e-05   0.44781889  0.037555404            0   0.41026349    1.2050496    1.6528685    6.5594604 
 2645000    0.8083428 -1.239373e-05   0.45910227  0.023433562            0   0.43566871    1.1822014    1.6413036   0.37218568 
 2650000   0.81745242 -2.3759351e-05   0.46017507  0.024056937            0   0.43611813    1.1955242    1.6556992  -0.77725826 
 2655000   0.80755153 -4.0304438e-05   0.51160468   0.01773212            0   0.49387256    1.1810441    1.6926488   -2.4345257 
 2660000   0.80424654 -3.8740426e-05   0.53082028  0.011021748            0   0.51979853    1.1762106    1.7070308   -2.2599888 
 2665000   0.80312949 -1.3379225e-05   0.54329225  0.027523592            0   0.51576866    1.1745769    1.7178691    0.3478365 
 2670000   0.81106975 -3.813973e-05   0.53668495  0.021786567            0   0.51489838    1.1861895    1.7228745   -2.1826339 
 2675000   0.85130995 -1.4663988e-06   0.46333469  0.008607569            0   0.45472712    1.2450408    1.7083755    1.5582163 
 2680000   0.81940695 6.3634947e-05   0.50324734  0.011284876            0   0.49196247    1.1983827      1.70163    8.2178485 
 2685000   0.87187372 4.7085366e-05   0.39787715  0.011123504            0   0.38675364    1.2751153    1.6729925     6.494534 
 2690000   0.71572811 -5.6835701e-05   0.57804889  0.013874845            0   0.56417405    1.0467524    1.6248013   -4.1951745 
 2695000   0.73590422 -0.00010038062   0.54365565  0.028398101            0   0.51525755    1.0762599    1.6199156   -8.6590596 
 2700000   0.68076006 -5.1827077e-05     0.639214  0.068280741            0   0.57093326   0.99561158    1.6348256   -3.6722671 
 2705000    0.6864164 2.5363804e-05   0.62190143  0.071137482            0   0.55076395     1.003884    1.6257854     4.223039 
 2710000   0.69391037 -1.6930725e-05    0.6416044  0.035900571            0   0.60570383    1.0148439    1.6564483 -0.077257964 
 2715000   0.64080969 -9.6497723e-05   0.68234898  0.039705363            0   0.64264362   0.93718417    1.6195332   -8.2618337 
 2720000   0.77836447 -7.0725326e-05   0.53173569  0.032648289            0    0.4990874     1.138358    1.6700937   -5.5721797 
 2725000   0.73860223 -2.6171599e-05   0.57842531  0.028898378            0   0.54952693    1.0802058    1.6586311   -1.0213407 
 2730000   0.82392124 -2.1731169e-06   0.45696381  0.011802555            0   0.44516126    1.2049848    1.6619486    1.4394215 
 2735000   0.81972922 3.2314819e-05   0.44239086  0.016674163            0    0.4257167     1.198854    1.6412448    4.9502823 
 2740000   0.69807526 3.6879317e-05    0.6458118  0.030196496            0   0.61561531    1.0209351    1.6667469    5.4431889 
 2745000   0.85226432 -3.7438934e-05   0.44128545  0.011679017            0   0.42960643    1.2464366     1.687722   -2.1460248 
 2750000   0.79250308 -0.00010551814    0.5477053  0.041807147            0   0.50589816    1.1590358    1.7067411    -9.098317 
 2755000   0.85847755 -6.3636222e-05   0.45299641  0.030737634            0   0.42225878    1.2555234    1.7085198   -4.8078293 
 2760000   0.83080081 4.1166664e-05   0.49849157  0.049614809            0   0.44887676    1.2150462    1.7135378    5.9290041 
 2765000   0.77802695 3.1866585e-05   0.58998595  0.015204887            0   0.57478106    1.1378644    1.7278504    4.9909886 
 2770000   0.83149433 3.3697029e-05   0.52536039 0.0076630185            0   0.51769737    1.2160605    1.7414208    5.1919966 
 2775000   0.89887535 2.1103305e-05   0.44478699 0.0075334336            0   0.43725356    1.3146052    1.7593922    3.9203706 
 2780000   0.74408737 4.4722186e-05   0.70465703  0.015181611            0   0.68947542    1.0882278    1.7928848    6.3724367 
 2785000   0.74515863 6.295137e-05   0.67133413  0.059958684            0   0.61137545    1.0897945    1.7611286    8.2073489 
 2790000    0.9303185 -4.308253e-05   0.37153676  0.046409776            0   0.32512699    1.3605908    1.7321276   -2.6795235 
 2795000    0.7758832 -0.00012275394   0.60154474   0.01272396            0   0.58882078    1.1347292    1.7362739    -10.83373 
 2800000   0.67082762 -4.0182231e-05   0.79438404  0.055745057            0   0.73863899   0.98108539    1.7754694    -2.339191 
 2805000   0.88694022 -7.5681681e-05   0.48948794 0.0043859706            0   0.48510196    1.2971501     1.786638   -5.9631661 
 2810000   0.94576795 -3.4909979e-05   0.36581452            0            0   0.36581452    1.3831856    1.7490001   -1.8257817 
 2815000   0.86643236 3.3018509e-05   0.44990467 0.0011157528            0   0.44878892    1.2671573     1.717062    5.0981573 
 2820000   0.71509189 -2.6354869e-07   0.66901614 0.0050679621            0   0.66394818    1.0458219     1.714838    1.6878506 
 2825000   0.77588314 3.8700884e-05   0.55812613  0.007887615            0   0.55023851    1.1347291    1.6928552    5.6558257 
 2830000   0.87713332 -4.1979972e-05   0.44286071 0.0060074439            0   0.43685326    1.2828075    1.7256682    -2.573081 
 2835000   0.86216932 1.5687015e-05   0.45907822  0.009301368            0   0.44977685    1.2609226    1.7200008    3.3263512 
 2840000   0.76787746 -9.4002334e-06   0.57173419 0.0088062879            0    0.5629279    1.1230208     1.694755   0.73217106 
 2845000     0.918015 -1.2006142e-05   0.32838076 0.0015755214            0   0.32680523    1.3425969    1.6709777   0.44154873 
 2850000   0.90905296 -3.1255477e-05     0.381235            0            0     0.381235    1.3294899    1.7107249   -1.4898359 
 2855000   0.78724138 -2.8005748e-05   0.53187645 0.0016614675            0   0.53021498    1.1513405     1.683217   -1.1845716 
 2860000   0.73390622 2.4362485e-05   0.61946056  0.038573696            0   0.58088686    1.0733378    1.6927984    4.1875169 
 2865000    0.8071411 -4.4894434e-05   0.48105472  0.026051514            0   0.45500321    1.1804439    1.6614986   -2.9356915 
 2870000   0.83170597 -4.1575755e-05   0.46194017 0.00049985598            0   0.46144031      1.21637    1.6783102   -2.5790472 
 2875000   0.84063335 -2.7597541e-05   0.46786701            0            0   0.46786701    1.2294263    1.6972933   -1.1286949 
 2880000   0.92722866 2.0894227e-05   0.36928943 0.00067933486            0   0.36861009    1.3560719    1.7253613    3.8649301 
 2885000   0.83106542 0.0001080091   0.51794038 0.0036906184            0   0.51424976    1.2154332    1.7333736    12.793506 
 2890000   0.87975064 -3.9380289e-05   0.45984334 0.0021986563            0   0.45764469    1.2866353    1.7464787   -2.2860629 
 2895000     0.940504 -8.1980143e-05   0.40192062 0.00092719372            0   0.40099342    1.3754871    1.7774077   -6.6173589 
 2900000   0.93520086 -5.3939788e-05   0.37824137 0.0029133616            0   0.37532801    1.3677313    1.7459726   -3.7774617 
 2905000   0.78116857 -2.4923834e-05     0.632896 0.0017940673            0   0.63110194     1.142459     1.775355  -0.77684554 
 2910000    0.9668581 -1.6359702e-05   0.43809499 0.0040003255            0   0.43409467      1.41403     1.852125   0.17689153 
 2915000   0.93714858 -4.6920323e-05    0.4866632 0.0055074914            0   0.48115571    1.3705798     1.857243   -2.9473981 
 2920000   0.99591541 3.7780397e-05   0.39005853 0.00066660146            0   0.38939192    1.4565263    1.8465848    5.7152975 
 2925000   0.97456325 4.133399e-06   0.41931322 0.0065010863            0   0.41281213    1.4252988     1.844612     2.267872 
 2930000   0.91373994 7.2618389e-05   0.46054319  0.015218927            0   0.44532426    1.3363447    1.7968879    9.2330109 
 2935000   0.94194682 -1.7366635e-05   0.41996594 0.0036116561            0   0.41635428    1.3775972    1.7975632  0.019219768 
 2940000   0.95732851 -5.3302995e-05   0.40811896 0.00075495153            0   0.40736401     1.400093    1.8082119   -3.6500148 
 2945000   0.86896324 -3.3774535e-05    0.5015076 0.0026352199            0   0.49887238    1.2708587    1.7723663   -1.6861461 
 2950000   0.86968181 -4.2824973e-05   0.51528891  0.031869659            0   0.48341925    1.2719096    1.7871985   -2.5980787 
 2955000   0.90781788 4.6536939e-05    0.5205884  0.028823823            0   0.49176458    1.3276837    1.8482721    6.6136546 
 2960000   0.98930777 -1.2543526e-05   0.43435412 0.00014480004            0   0.43420932    1.4468626    1.8812167    0.5967597 
 2965000    0.9392791 6.5392545e-05   0.51326318            0            0   0.51326318    1.3736957    1.8869589    8.5831555 
 2970000    1.0157073 -2.6128166e-06   0.40379885 0.0040602721            0   0.39973858    1.4854719    1.8892707    1.6217183 
 2975000   0.91166024 -9.6061819e-05   0.57733067  0.019439517            0   0.55789115    1.3333031    1.9106338   -7.9260964 
 2980000    1.0226673 9.3634146e-05   0.45067675  0.029702407            0   0.42097434     1.495651    1.9463277    11.534464 
 2985000    1.0385454 8.3037703e-05   0.41619571 0.0046538886            0   0.41154182    1.5188727    1.9350684    10.438129 
 2990000   0.97503519 -9.9150696e-05   0.50124732  0.010878497            0   0.49036882     1.425989    1.9272363    -8.225795 
 2995000    1.0163972 -3.3054024e-05   0.44993541  0.075405197            0   0.37453021    1.4864809    1.9364163   -1.4483157 
 3000000    1.0358624 9.1238667e-05   0.43144406  0.016510279            0   0.41493379    1.5149487    1.9463928    11.289232 
 3005000     0.969149 3.8636002e-06   0.51534149   0.03530264            0   0.48003885    1.4173804    1.9327219    2.3283546 
 3010000    1.0418691 2.8912997e-05   0.38563199  0.012875819            0   0.37275617    1.5237336    1.9093656    4.8700565 
 3015000    0.9797625 3.1725869e-05   0.45419884 0.0056778184            0   0.44852102    1.4329027    1.8871015    5.1358305 
 3020000   0.92228158 4.2201119e-05   0.52640977  0.036344331            0   0.49006544    1.3488368    1.8752466    6.1966411 
 3025000   0.91252642 -3.4860135e-06   0.53564352  0.051597027            0   0.48404649    1.3345699    1.8702134    1.5132456 
 3030000   0.99035822 1.4728322e-05   0.38359749  0.062404896            0    0.3211926    1.4483989    1.8319964    3.3401766 
 3035000   0.97047487 3.8029617e-05   0.40732898  0.032275806            0   0.37505317    1.4193195    1.8266485    5.7208812 
 3040000   0.94000376 7.5728094e-05   0.44649643  0.001137608            0   0.44535882    1.3747555    1.8212519    9.5758087 
 3045000   0.90162633 -5.9705723e-05   0.49895229 0.00081009614            0   0.49814219    1.3186285    1.8175808   -4.2962852 
 3050000   0.92730479 -8.1792296e-05   0.51067932 0.0041908267            0   0.50648849    1.3561833    1.8668626   -6.5086685 
 3055000    0.8640463 1.089357e-05   0.61652978  0.025844691            0   0.59068509    1.2636677    1.8801975    2.9956991 
 3060000   0.93468482 3.4454276e-05   0.56762329  0.019735087            0    0.5478882    1.3669765    1.9345998    5.4627177 
 3065000    1.0460284 8.0666208e-05   0.39703728 0.0041753231            0   0.39286196    1.5298165    1.9268538    10.187073 
 3070000    1.0407373 1.6432318e-05   0.44315436 0.0032894044            0   0.43986496    1.5220783    1.9652327     3.647902 
 3075000    0.9579401 5.0186737e-06   0.57769155 0.0012200134            0   0.57647154    1.4009874    1.9786789    2.4925911 
 3080000    1.0267555 -5.3223995e-05   0.44657794            0            0   0.44657794    1.5016299    1.9482078   -3.5019293 
 3085000    1.0250985 -5.2186355e-05   0.46197649            0            0   0.46197649    1.4992066    1.9611831   -3.3826997 
 3090000   0.97382169 7.6313957e-05   0.52242968            0            0   0.52242968    1.4242142    1.9466439    9.7611932 
 3095000     1.106978 4.1252735e-05    0.3359407 1.8881713e-05            0   0.33592182    1.6189553     1.954896     6.179176 
 3100000    1.0253269 -2.4001201e-05   0.44467167  0.010905386            0   0.43376628    1.4995405    1.9442122  -0.51351076 
 3105000   0.99895621 1.1360504e-05   0.50075733  0.043382684            0   0.45737464    1.4609735    1.9617308    3.1250464 
 3110000   0.98216682 -1.1093514e-05   0.52254532  0.023973056            0   0.49857226     1.436419    1.9589643   0.82298846 
 3115000   0.94506851 -3.5536634e-05   0.56238434 0.0046182872            0   0.55776605    1.3821627     1.944547   -1.6944042 
 3120000   0.95655597 2.4007994e-05   0.56028697   0.01809651            0   0.54219046    1.3989631    1.9592501    4.4176687 
 3125000   0.99971772 5.6030969e-05   0.53484469  0.026371632            0   0.50847306    1.4620872    1.9969318    7.7345031 
 3130000    0.9165851 0.00012787235    0.6705616  0.074456293            0   0.59610531    1.3405057    2.0110673    15.105195 
 3135000   0.98535135 6.0698704e-05   0.60790892   0.03113746            0   0.57677146    1.4410764    2.0489853    8.2645326 
 3140000    1.0577876 -3.8113843e-05   0.50151411 0.0011547592            0   0.50035935    1.5470143    2.0485285   -1.8543291 
 3145000    1.0868843 1.6803426e-05   0.41692355  0.014672494            0   0.40225105    1.5895683    2.0064918    3.7271626 
 3150000   0.95159172 7.9663182e-05   0.58408259  0.027331034            0   0.55675156    1.3917029    1.9757855    10.133295 
 3155000   0.99483957 5.8033141e-05   0.53465386 0.0038692825            0   0.53078458    1.4549529    1.9896067    7.9322004 
 3160000   0.99555558 -2.7373223e-05   0.54325509 0.0072454948            0   0.53600959        1.456    1.9992551  -0.80376286 
 3165000    1.0140409 -2.1474443e-05   0.50672573   0.01387654            0   0.49284919    1.4830348    1.9897606  -0.20922244 
 3170000    0.9438165 -6.9520687e-05   0.56447583  0.004492703            0   0.55998313    1.3803316    1.9448075   -5.1741108 
 3175000   0.94310997 -2.3824654e-05   0.60614107 0.0020952231            0   0.60404585    1.3792983    1.9854394  -0.45420518 
 3180000    1.0901848 -3.4461014e-05   0.42223679   0.01420832            0   0.40802847    1.5943953    2.0166321   -1.5121758 
 3185000    1.0021757 4.5869959e-05   0.50927808  0.025758219            0   0.48351986    1.4656819      1.97496    6.6720437 
 3190000     0.904033  4.94533e-05   0.63827559  0.016545075            0   0.62173052    1.3221483    1.9604239    7.0244418 
 3195000   0.89376661 -8.4116011e-05   0.66610734 0.0090455931            0   0.65706174    1.3071337     1.973241   -6.6402385 
 3200000   0.89899778 -2.498694e-06   0.59798991  0.017769483            0   0.58022043    1.3147843    1.9127742    1.6569079 
 3205000   0.98894358 6.3271042e-05   0.45775575  0.070653894            0   0.38710185      1.44633    1.9040857    8.3830405 
 3210000    0.8882832 7.226804e-05   0.58968625  0.019604139            0   0.57008212    1.2991142    1.8888004    9.2890478 
 3215000    1.0872278 4.8939616e-05   0.31128166 0.0014241589            0    0.3098575    1.5900706    1.9013522    6.9127689 
 3220000    1.0049729 -2.1264912e-06   0.44946968            0            0   0.44946968    1.4697728    1.9192425    1.7014898 
 3225000   0.83652714 -4.3388045e-05   0.67022372            0            0   0.67022372    1.2234209    1.8936447   -2.5492912 
 3230000   0.98388108 -4.8721459e-05   0.44975858            0            0   0.44975858    1.4389261    1.8886847   -3.1003928 
 3235000   0.93623552 7.5214728e-05   0.48292209 0.0001306743            0   0.48279142    1.3692445    1.8521665    9.5541547 
 3240000   0.84624101 -5.1501424e-05    0.6236124 0.00030612785            0   0.62330627    1.2376275    1.8612399    -3.412506 
 3245000   0.85722542 -4.0845526e-05   0.58388447 4.0090043e-05            0   0.58384438    1.2536922    1.8375766   -2.3450053 
 3250000    0.9344802 1.6844977e-06   0.45189078            0            0   0.45189078    1.3666773    1.8185681    1.9910606 
 3255000   0.81603655 -3.8555948e-05   0.58806473            0            0   0.58806473    1.1934535    1.7815182   -2.1666109 
 3260000    0.8622769 6.4753484e-05   0.51623459            0            0   0.51623459      1.26108    1.7773145    8.4080713 
 3265000   0.87581056 7.0515666e-05   0.50263273            0            0   0.50263273    1.2808729    1.7835057    9.0043099 
 3270000   0.95799218 -6.7741383e-05   0.41708991 6.3284908e-05            0   0.41702662    1.4010636    1.8181535   -5.1185641 
 3275000   0.83619615 -6.1644326e-05   0.61016982 0.00032878708            0   0.60984103    1.2229369    1.8331067   -4.4792723 
 3280000    1.0184685 2.4600733e-06   0.36884479 0.0045839357            0   0.36426085    1.4895102     1.858355    2.1102665 
 3285000      0.90925 1.4769235e-05   0.53661267 0.0056953584            0   0.53091731    1.3297781    1.8663908    3.3787605 
 3290000   0.91338021 3.3806866e-05   0.55502098 0.0087620173            0   0.54625897    1.3358186    1.8908395    5.3526626 
 3295000    0.7236666 4.3087543e-05   0.80680044  0.038722995            0   0.76807744    1.0583624    1.8651628    6.2773272 
 3300000   0.97397082 6.7803226e-05   0.50474363  0.015823051            0   0.48892058    1.4244323     1.929176    8.8722263 
 3305000    1.0285451 5.2901712e-05   0.43109623 6.9286255e-06            0    0.4310893    1.5042473    1.9353435    7.3524788 
 3310000   0.87775082 -1.5440457e-05   0.65572527            0            0   0.65572527    1.2837106    1.9394359   0.35833309 
 3315000    0.9964993 -2.1753707e-05   0.44512344 0.00015391252            0   0.44496952    1.4573802    1.9025037  -0.32507591 
 3320000   0.88560581 -2.8539262e-06   0.63989836 0.0016462193            0   0.63825215    1.2951985    1.9350969    1.6428548 
 3325000    1.0299542 5.4806754e-05   0.41947717 0.0035883046            0   0.41588887     1.506308    1.9257851    7.5379968 
 3330000    1.0338666 1.9137167e-05   0.43372643 0.0022795625            0   0.43144686      1.51203    1.9457564    3.9054023 
 3335000   0.94039191 -1.0219073e-05   0.56414859 0.0042860583            0   0.55986253    1.3753232    1.9394718   0.89303864 
 3340000    1.0389361 -5.1023174e-07   0.46752128  0.011389209            0   0.45613207    1.5194441    1.9869654    1.9347177 
 3345000     1.067932 -2.6781482e-05   0.41443418 0.0091113769            0    0.4053228    1.5618506    1.9762848  -0.76613905 
 3350000   0.91553892 -6.5006859e-05   0.63402322  0.010257369            0   0.62376585    1.3389757    1.9729989   -4.6837034 
 3355000   0.94901298 -0.00010005851   0.59648421  0.013446164            0   0.58303805    1.3879315    1.9844157   -8.2615756 
 3360000    1.0303828 -7.2995578e-06   0.48221806  0.023556232            0   0.45866182    1.5069349     1.989153    1.2416782 
 3365000   0.95166817 3.2583787e-05   0.61904521  0.016002192            0   0.60304301    1.3918147    2.0108599    5.3474397 
 3370000   0.99171225 4.3179564e-05   0.58566863 0.0023378493            0   0.58333078    1.4503792    2.0360478    6.4576351 
 3375000   0.98750676 -2.4806408e-05   0.61444681  0.003685758            0   0.61076105    1.4442286    2.0586754  -0.48150073 
 3380000    1.1190416 -7.1788025e-05   0.43307948 0.0026310012            0   0.43044848    1.6365984    2.0696778   -5.2814159 
 3385000    1.0116367 -6.6254105e-05    0.5760295 0.00033799769            0    0.5756915    1.4795187    2.0555482   -4.7288721 
 3390000     1.009928 -4.8217849e-05   0.53110433 0.00086611233            0   0.53023821    1.4770196     2.008124   -2.9293838 
 3395000   0.99900461 -0.00011495282   0.56764935 0.0070364434            0   0.56061291    1.4610442    2.0286936   -9.7424756 
 3400000    1.0105669 -0.00010006916   0.52536516 0.0077163921            0   0.51764876    1.4779541    2.0033193   -8.2437629 
 3405000   0.98951842 1.9472737e-05   0.55989601  0.014500838            0   0.54539518    1.4471707    2.0070667     4.001075 
 3410000    1.0910506 1.7788303e-06   0.36238592  0.025832563            0   0.33655335    1.5956615    1.9580474    2.1401996 
 3415000    1.0744917 -2.0997554e-05   0.35047567 0.0036092868            0   0.34686638    1.5714441    1.9219198  -0.22822971 
 3420000   0.93945087 -1.1365658e-05   0.58806599            0            0   0.58806599    1.3739469    1.9620129    0.7981695 
 3425000    1.0451583 4.9155981e-05    0.4657531 1.054029e-05            0   0.46574256     1.528544    1.9942971    7.0278696 
 3430000    1.0880851 3.5952731e-05    0.4391102 0.0071228289            0   0.43198737    1.5913245    2.0304347    5.7119943 
 3435000    1.0316633 7.7266586e-05    0.5206095  0.035331253            0   0.48527824    1.5088076    2.0294171    9.9415155 
 3440000    1.0137934 0.00010185799   0.55860487  0.043215704            0   0.51538917    1.4826728    2.0412777    12.471536 
 3445000    1.0747663 4.8332932e-05   0.48300637  0.025788143            0   0.45721823    1.5718457     2.054852    7.0041443 
 3450000    1.0567846 -4.63195e-07   0.50823792  0.003744662            0   0.50449326    1.5455475    2.0537855    2.0063543 
 3455000   0.97740776 3.2078142e-06   0.60442668  0.014019268            0   0.59040742    1.4294589    2.0338855    2.3623657 
 3460000    1.0611799 0.0001005008   0.56553897  0.030734972            0     0.534804    1.5519756    2.1175146    12.408797 
 3465000    1.1597985 0.0001069732   0.44084019  0.017587096            0   0.42325309    1.6962053    2.1370455    13.091101 
 3470000    1.0591621 8.0118327e-05   0.53208418  0.019204299            0   0.51287988    1.5490246    2.0811088    10.285225 
 3475000    1.0607894 -2.6103364e-05   0.50925173 0.0083971916            0   0.50085453    1.5514044    2.0606562  -0.61232837 
 3480000    1.0980467 -5.3780954e-05   0.48981929            0            0   0.48981929    1.6058933    2.0957125   -3.4114572 
 3485000    1.1310263 -3.4098261e-05    0.4208827            0            0    0.4208827     1.654126    2.0750087   -1.4166532 
 3490000    1.0727332 2.6518878e-05   0.53502626            0            0   0.53502626    1.5688723    2.1038986    4.8194317 
 3495000    1.1640063 6.0189287e-05   0.42681256            0            0   0.42681256    1.7023592    2.1291718    8.2925548 
 3500000    1.0680695 -2.4368151e-05   0.57575976            0            0   0.57575976    1.5620516    2.1378114   -0.3574873 
 3505000    1.1247752 1.4781556e-05   0.46688654 0.00014330302            0   0.46674324    1.6449837    2.1118703    3.6255016 
 3510000    1.1676999 2.3849326e-05    0.4360675 0.0061772317            0   0.42989027    1.7077611    2.1438286    4.5859996 
 3515000    1.1475046 2.9841727e-05   0.45531012   0.01738572            0    0.4379244    1.6782255    2.1335356    5.1893284 
 3520000    1.1254931 4.2330186e-05   0.48507513 0.0093263964            0   0.47574873    1.6460336    2.1311087    6.4657198 
 3525000   0.98761834 -4.1468953e-05   0.64147875 0.0035044821            0   0.63797427    1.4443918    2.0858706   -2.1605502 
 3530000     1.064658 2.4794894e-05   0.50984326  0.045969252            0   0.46387401    1.5570624    2.0669056    4.6059028 
 3535000    1.1167236 -7.0911674e-06   0.34903064  0.057113005            0   0.29191763    1.6332083    1.9822389    1.2561034 
 3540000   0.98512483 -4.7091621e-05   0.51228055  0.081731548            0     0.430549    1.4407451    1.9530256   -2.8691564 
 3545000   0.92748858 -9.642011e-06   0.56070196  0.040047137            0   0.52065482     1.356452     1.917154   0.92981207 
 3550000   0.97011376 -5.3095992e-05   0.48174691  0.011555555            0   0.47019136    1.4187914    1.9005383   -3.5364913 
 3555000    1.0386023 -2.5583602e-05   0.41404329 0.0054842933            0   0.40855899    1.5189558    1.9329991  -0.68676174 
 3560000   0.96812138 6.3695381e-05   0.54771422  0.014316864            0   0.53339736    1.4158775    1.9635917    8.4859987 
 3565000   0.92682406 5.2976553e-05   0.62087967  0.057599347            0   0.56328032    1.3554802    1.9763599    7.4011588 
 3570000    1.0306631 1.9239926e-05   0.47382383  0.033561796            0   0.44026203    1.5073449    1.9811687    3.9513371 
 3575000    1.0767235 3.2023964e-05   0.39663121  0.020052804            0    0.3765784    1.5747081    1.9713393    5.2505931 
 3580000   0.98333567 4.6455385e-05   0.49024577   0.01649731            0   0.47374846    1.4381284    1.9283742    6.6854057 
 3585000    0.9987963 5.4265732e-05   0.51104307 0.00086178712            0   0.51018129    1.4607396    1.9717827    7.5285937 
 3590000   0.92669122 -5.0832846e-05   0.56139219 2.6756108e-05            0   0.56136544    1.3552859    1.9166781   -3.2886054 
 3595000    0.9406563 1.6127092e-05   0.47129965 0.0070010437            0    0.4642986    1.3757098    1.8470095    3.4984237 
 3600000   0.93235625 5.1081853e-05   0.49176025  0.028824727            0   0.46293552     1.363571    1.8553313     7.086113 
 3605000   0.94885468 2.5619813e-05   0.50604359  0.014154667            0   0.49188892       1.3877    1.8937436    4.5172124 
 3610000   0.88681504 4.3253393e-05   0.60987313 0.0057418364            0   0.60413129     1.296967    1.9068401    6.3359876 
 3615000   0.89939153 -5.4366965e-06    0.5775001   0.04953569            0   0.52796441    1.3153601    1.8928602    1.3361425 
 3620000    1.0262534 -1.007153e-05   0.36265884  0.015901747            0   0.34675709    1.5008956    1.8635544   0.83222976 
 3625000    1.0374711 2.9979055e-05    0.3715721 0.00062798449            0   0.37094411    1.5173015    1.8888736    4.9587288 
 3630000   0.87722522 9.7263149e-06   0.68431169            0            0   0.68431169    1.2829419    1.9672536    2.9632282 
 3635000    1.0258346 -6.4220216e-06   0.48294964 0.00013428263            0   0.48281536    1.5002831    1.9832327    1.3256177 
 3640000    0.9873612 -2.4209605e-05   0.51510666 0.00055053548            0   0.51455613    1.4440158    1.9591224  -0.51994109 
 3645000    1.0474819 -5.7750226e-05   0.43508006 0.00093583884            0   0.43414422    1.5319422    1.9670223   -3.9466009 
 3650000   0.91722227 -1.0358095e-05    0.6031323 0.00050480687            0    0.6026275    1.3414376    1.9445699   0.88390091 
 3655000     1.032344 2.9140481e-06   0.45868025 9.1991465e-05            0   0.45858825    1.5098032    1.9684834    2.2668819 
 3660000   0.94406375 -1.6447664e-05   0.55958267            0            0   0.55958267    1.3806932    1.9402759   0.25603513 
 3665000    1.0582181 -9.2698522e-05   0.37890305 3.5559798e-05            0   0.37886749     1.547644    1.9265471   -7.5657816 
 3670000   0.99590693 -5.9936169e-05   0.45280958 0.0085682145            0   0.44424136    1.4565139    1.9093235   -4.2281403 
 3675000     1.023103 1.729787e-05   0.42139692  0.030007017            0    0.3913899    1.4962882    1.9176851     3.688987 
 3680000   0.98709966 3.6692544e-05   0.48809669  0.030478718            0   0.45761797    1.4436333    1.9317299    5.6890464 
 3685000   0.90902185 -7.063818e-06   0.56971452  0.015074761            0   0.55463976    1.3294445     1.899159     1.175824 
 3690000   0.95113165 3.9943728e-05   0.50513848 0.0095283951            0   0.49561008      1.39103    1.8961685    5.9864062 
 3695000   0.99533086 3.5524183e-05   0.45437158 0.0026065065            0   0.45176508    1.4556714     1.910043    5.5477193 
 3700000   0.98636622 -2.5469711e-05   0.45604308  0.001948703            0   0.45409438    1.4425606    1.8986037  -0.70949468 
 3705000   0.92513252 -1.8110276e-05   0.51424444 0.00072705616            0   0.51351738    1.3530063    1.8672507  0.012758499 
 3710000   0.93659894 6.8495519e-06   0.47200488 0.0014472727            0   0.47055761    1.3697759    1.8417808    2.5431749 
 3715000    1.0219496 -1.6939653e-05   0.34613106  0.014560154            0   0.33157091    1.4946013    1.8407324   0.10611189 
 3720000   0.91794036 3.1237039e-05   0.53170798   0.01242269            0   0.51928529    1.3424878    1.8741958    5.0728685 
 3725000   0.88135601 4.8298475e-05   0.54801917 0.0032127488            0   0.54480642    1.2889832    1.8370023    6.7827661 
 3730000   0.90899926 7.9864076e-06   0.47786633 0.0066454226            0   0.47122091    1.3294114    1.8072777    2.6250859 
 3735000   0.94908893 2.2472287e-05   0.43771407 0.0095766725            0   0.42813739    1.3880426    1.8257566    4.1269188 
 3740000   0.95794211 3.8694044e-05   0.46335865 0.0034960753            0   0.45986257    1.4009903     1.864349    5.8266191 
 3745000   0.84173457 5.7136742e-05   0.64853124  0.012788552            0   0.63574269    1.2310368    1.8795681    7.7303704 
 3750000   0.92111445 4.3029461e-06   0.51340355  0.032227933            0   0.48117562    1.3471299    1.8605334    2.3011551 
 3755000   0.97125298 3.0079886e-06   0.42457216 0.0047259351            0   0.41984622    1.4204575    1.8450296    2.1530477 
 3760000   0.87624879 7.5071411e-05   0.54913433            0            0   0.54913433    1.2815139    1.8306482    9.5179607 
 3765000   0.94502739  6.92342e-05   0.45424736            0            0   0.45424736    1.3821026    1.8363499     8.925932 
 3770000   0.87428032 3.0698935e-05   0.57581395 0.00099225907            0   0.57482169     1.278635    1.8544489    4.9980199 
 3775000   0.99839447 3.9091312e-06   0.41708254 0.0039026903            0   0.41317985    1.4601519    1.8772345    2.2775295 
 3780000   0.96899899 4.8889094e-06   0.46686335  0.014382478            0   0.45248087     1.417161    1.8840244    2.3846487 
 3785000   0.87673175 6.0250931e-05   0.60557435  0.028699649            0    0.5768747    1.2822202    1.8877945    8.0574899 
 3790000   0.90377397 6.476402e-05   0.54622579  0.018356245            0   0.52786955    1.3217694    1.8679952    8.4998308 
 3795000    0.9325944 -8.5506713e-06   0.53035288 0.0015628598            0   0.52879002    1.3639193    1.8942722    1.0186834 
 3800000    1.0171658 2.2493264e-05    0.4334297 0.0077064729            0   0.42572323    1.4876049    1.9210346    4.2243449 
 3805000    1.0222771 -4.8022632e-06   0.45207464  0.019080243            0    0.4329944    1.4950803    1.9471549    1.4554032 
 3810000   0.97382967 -2.1882163e-05   0.47379859 0.0048848318            0   0.46891376    1.4242259    1.8980245  -0.34270897 
 3815000    1.0069827 2.6862564e-05   0.41771218 0.0019183636            0   0.41579382    1.4727122    1.8904243    4.6411509 
 3820000    1.0032611 -7.9277906e-07   0.40743142 0.0051895847            0   0.40224184    1.4672693    1.8747007    1.7935202 
 3825000   0.90896436 -4.6246779e-05    0.5602205  0.047876487            0   0.51234401    1.3293604    1.8895809   -2.8460893 
 3830000   0.90424827 -0.00012439071   0.59912093   0.08541763            0    0.5137033    1.3224631     1.921584   -10.816024 
 3835000   0.94410522 -3.5359037e-05   0.55968128   0.09366708            0    0.4660142    1.3807539    1.9404352   -1.6803302 
 3840000    1.0153036 5.2544399e-05   0.42908353  0.029706382            0   0.39937715    1.4848814     1.913965    7.2945114 
 3845000    1.0004383 2.5174209e-05   0.46874859  0.024784736            0   0.44396385     1.463141    1.9318896    4.5097287 
 3850000   0.97860144 -1.0995969e-05   0.49873751   0.05001093            0   0.44872658    1.4312046    1.9299421    0.8039549 
 3855000   0.98242921 -4.2128938e-05     0.497773 0.00028246768            0   0.49749053    1.4368027    1.9345757   -2.3794275 
 3860000    1.0344935 3.2617089e-05   0.42328131 0.0058085002            0   0.41747281    1.5129468    1.9362281     5.276218 
 3865000    1.0109732 4.5103465e-05   0.45799102  0.040445452            0   0.41754557    1.4785483    1.9365393    6.5551341 
 3870000   0.99264937 4.3087413e-05   0.44690705   0.03614902            0   0.41075803    1.4517497    1.8986567    6.3108079 
 3875000   0.95033892 3.0937909e-05   0.48372906 0.0036561273            0   0.48007294    1.3898707    1.8735997    5.0416416 
 3880000   0.92054458 -6.6904685e-05   0.55306903            0            0   0.55306903    1.3462964    1.8993655   -4.9516742 
 3885000    0.9203041 -4.8665342e-05   0.57830067 0.0046062409            0   0.57369443    1.3459447    1.9242454   -3.0590856 
 3890000   0.94105767 -5.1026732e-06   0.56351948  0.042796043            0   0.52072344    1.3762968    1.9398163    1.4173026 
 3895000   0.91427375 -3.4291427e-06   0.62370697   0.06471722            0   0.55898975    1.3371254    1.9608323    1.6096881 
 3900000   0.90077837 1.2266904e-05   0.63119323  0.065730842            0   0.56546239    1.3173884    1.9485816    3.2047125 
 3905000   0.99237525 -3.8809018e-05   0.47416231  0.017551912            0    0.4566104    1.4513488    1.9255111   -2.0485323 
 3910000    1.0061304 -4.176209e-05     0.425765 0.0026734118            0   0.42309158    1.4714657    1.8972307   -2.3792073 
 3915000   0.90883353 4.1366139e-05   0.53547117 0.0044121505            0   0.53105902     1.329169    1.8646402    6.1005329 
 3920000   0.95856977 7.0220051e-05   0.45473787  0.020107176            0    0.4346307    1.4019083    1.8566462    9.0471793 
 3925000   0.95939531 -8.813648e-07   0.45882388   0.01899574            0   0.43982814    1.4031156    1.8619395    1.7716878 
 3930000    1.0118709 6.9590248e-07   0.38600736  0.010205238            0   0.37580213    1.4798612    1.8658685    1.9371289 
 3935000   0.94993729 3.5632464e-05    0.4930549 0.0087002112            0   0.48435469    1.3892833    1.8823382    5.5311025 
 3940000   0.99016326 1.9196255e-05   0.43413689  0.010400946            0   0.42373594    1.4481138    1.8822507    3.8479472 
 3945000   0.99285865 -5.23762e-06   0.42203399 0.0061713056            0   0.41586269    1.4520558    1.8740898    1.3377575 
 3950000   0.95506403 7.9435658e-06   0.46646557 0.0015503691            0    0.4649152    1.3967811    1.8632467    2.6766679 
 3955000   0.98329794 -3.3499573e-05   0.47597005   0.03320846            0   0.44276159    1.4380732    1.9140433    -1.516313 
 3960000   0.95122729 -7.7261505e-05   0.51134436  0.039268795            0   0.47207557    1.3911699    1.9025143   -6.0090638 
 3965000    1.0450835 1.5500647e-05    0.3631863 0.0044631338            0   0.35872317    1.5284346    1.8916209    3.4788871 
 3970000   0.93923283 0.00012019978   0.51865208 0.00017825719            0   0.51847382     1.373628    1.8922801    14.200737 
 3975000    1.0216513 5.8115811e-05   0.41990386 0.0096376663            0    0.4102662     1.494165    1.9140689    7.8651279 
 3980000   0.98226855 -4.3093945e-05   0.47731551  0.025351437            0   0.45196407    1.4365678    1.9138833   -2.4989367 
 3985000     1.062842 -2.9542454e-06   0.37917677 0.0057382444            0   0.37343853    1.5544065    1.9335832    1.6310685 
 3990000    1.0197032 -3.2033502e-05    0.4266014 0.00067172622            0   0.42592967     1.491316    1.9179174   -1.3623132 
 3995000   0.97370243 -7.7736212e-05   0.49824581 0.00045861485            0    0.4977872    1.4240398    1.9222856   -6.0379025 
 4000000   0.95081844 3.7987654e-05   0.50778068 0.0058001321            0   0.50198054     1.390572    1.8983526    5.7882884 
 4005000   0.92184349 4.3332233e-05   0.53054894 0.0058625608            0   0.52468638    1.3481961     1.878745    6.3159657 
 4010000   0.90453863 2.6719807e-05   0.53970004 0.0024560773            0   0.53724397    1.3228877    1.8625878    4.5986961 
 4015000   0.92819443 7.3799931e-05   0.49705276            0            0   0.49705276    1.3574844    1.8545371    9.4116501 
 4020000   0.99299655 -2.0633732e-05   0.43476248            0            0   0.43476248    1.4522575    1.8870199  -0.22587428 
 4025000   0.85424684 -8.1652264e-05    0.6009588 0.0040197033            0   0.59693909     1.249336    1.8502948   -6.5108971 
 4030000   0.87939006 2.3960705e-05   0.54146819  0.020927499            0   0.52054069     1.286108    1.8275761    4.2811523 
 4035000   0.84505938 5.2319296e-05   0.59437966  0.011713241            0   0.58266642    1.2358993     1.830279    7.1877749 
 4040000   0.87312515 6.0232296e-05   0.58248037 0.0078807946            0   0.57459957    1.2769455    1.8594259     8.027213 
 4045000   0.94639097 9.8165455e-06   0.44474185  0.032476207            0   0.41226564    1.3840968    1.8288386    2.8340529 
 4050000   0.97626653 -5.4178487e-05   0.38633241  0.045435773            0   0.34089664    1.4277898    1.8141222   -3.7337549 
 4055000   0.89924302 -5.2855786e-05   0.46538149 0.0032967727            0   0.46208472    1.3151429    1.7805244    -3.631908 
 4060000   0.80580542 -3.7739124e-05   0.61587666 0.0012416665            0     0.614635    1.1784904    1.7943671   -2.0701192 
 4065000   0.82914249 -2.6310341e-05   0.59440249  0.032209932            0   0.56219256    1.2126209    1.8070234  -0.88715557 
 4070000   0.89253769 -2.2469251e-05   0.50395784  0.032711724            0   0.47124612    1.3053364    1.8092942   -0.4915571 
 4075000   0.97848848 -8.8620037e-05   0.41311179 0.00095750052            0   0.41215429    1.4310394    1.8441512   -7.2305406 
 4080000   0.86427407 -1.642746e-05   0.55865795 8.324111e-05            0   0.55857471    1.2640008    1.8226588   0.14048689 
 4085000   0.81046402 0.00010583462   0.61707157            0            0   0.61707157    1.1853036    1.8023752     12.63984 
 4090000    1.0125324 3.8375413e-05   0.29961129 6.5589675e-05            0    0.2995457    1.4808286    1.7804399    5.7100821 
 4095000   0.86416937 -8.7848995e-05   0.52496155 0.00031267909            0   0.52464887    1.2638477    1.7888092   -7.2069278 
 4100000   0.93961282 -1.5204683e-05   0.41190027 0.0012353243            0   0.41066495    1.3741837     1.786084   0.22912446 
 4105000   0.87282858 9.0708409e-05    0.4943532 0.0045168063            0   0.48983639    1.2765118     1.770865    11.059406 
 4110000   0.90301964 -1.1509603e-05   0.50097838   0.01418164            0   0.48679674    1.3206662    1.8216446   0.64306127 
 4115000   0.84858523 -0.00014804291   0.56985523 0.0096836753            0   0.56017155    1.2410559    1.8109111   -13.348683 
 4120000   0.89727559 -4.7831843e-05   0.50954443   0.00617831            0   0.50336612    1.3122655      1.82181   -3.0761707 
 4125000   0.94077849 1.9407447e-05   0.48938006    0.0380402            0   0.45133986    1.3758885    1.8652686    3.8525911 
 4130000   0.84091031 8.1318367e-05   0.64193081  0.031115528            0   0.61081528    1.2298313    1.8717621    10.198763 
 4135000    1.0294782 7.2369007e-05   0.39623869  0.009567613            0   0.38667108    1.5056119    1.9018506    9.3124369 
 4140000   0.95639142 -1.8003358e-05   0.53285097 0.0048043546            0   0.52804662    1.3987224    1.9315734  0.088029534 
 4145000   0.91182799 -8.140218e-05   0.59353625 0.00064671779            0   0.59288953    1.3335484    1.9270847   -6.4084985 
 4150000   0.94444981 -7.2545819e-05   0.56105584            0            0   0.56105584    1.3812579    1.9423137   -5.4863781 
 4155000    1.0797379 4.1516203e-05   0.39262171 0.0088043766            0   0.38381733    1.5791167    1.9717384    6.2229976 
 4160000   0.86862751 0.00014216512   0.72640488  0.052706634            0   0.67369825    1.2703677    1.9967726    16.554481 
 4165000    1.0089663 1.2043199e-05   0.47613559  0.014903552            0   0.46123204    1.4756132    1.9517488    3.1849724 
 4170000   0.81980002 -0.00010364585   0.77030567  0.021009146            0   0.74929652    1.1989575    1.9692632   -8.6440719 
 4175000     1.086977 5.6638817e-05   0.38407836  0.017858798            0   0.36621956    1.5897039    1.9737822    7.7735971 
 4180000    1.0085669 0.00012323271   0.51146754  0.030511064            0   0.48095647    1.4750291    1.9864966    14.605526 
 4185000    0.9081299 -2.44871e-05   0.63955205  0.043926332            0   0.59562572      1.32814     1.967692  -0.53978704 
 4190000    1.1038552 3.6706637e-05   0.33450864 0.0066328453            0   0.32787579    1.6143882    1.9488968    5.7076565 
 4195000    1.0107142 4.0950248e-05   0.44476202            0            0   0.44476202    1.4781695    1.9229315    6.1162369 
 4200000   0.94082849 -8.9999349e-05   0.52833138            0            0   0.52833138    1.3759617     1.904293   -7.3116403 
 4205000   0.95255598 -8.5652643e-05   0.52035571 0.00029912113            0   0.52005659    1.3931131    1.9134688   -6.8573618 
 4210000    0.8817227 4.9223518e-05   0.64041751  0.026154109            0    0.6142634    1.2895194     1.929937    6.9704252 
 4215000   0.84271963 5.0725152e-05   0.70281852  0.040591219            0    0.6622273    1.2324775     1.935296    7.1295516 
 4220000    1.0281374 2.6039266e-05   0.41171161 0.0092723142            0    0.4024393    1.5036509    1.9153625    4.5817834 
 4225000    1.0241979 1.9216188e-05   0.43907326 0.0096717365            0   0.42940152    1.4978895    1.9369627    3.9047003 
 4230000   0.94756698 -5.6344935e-05   0.54717139  0.017717594            0   0.52945379    1.3858167    1.9329881   -3.8367332 
 4235000    0.9299748 -9.1063784e-05   0.55482183 0.0054923438            0   0.54932949    1.3600881      1.91491   -7.4100215 
 4240000   0.97992805 -1.7022645e-05   0.45239851 0.0095130712            0   0.44288544    1.4331448    1.8855433   0.14242438 
 4245000    0.9208897 -4.227418e-05   0.51916105  0.033097536            0   0.48606351    1.3468012    1.8659622   -2.4629138 
 4250000   0.92936295 4.2766614e-05   0.47851339  0.022440509            0   0.45607288    1.3591933    1.8377067     6.217008 
 4255000   0.87562321 0.00013453124    0.5740215  0.011443612            0   0.56257789    1.2805989    1.8546205    15.630619 
 4260000   0.99302003 6.5303565e-05   0.38079696  0.018971699            0   0.36182526    1.4522918    1.8330888    8.5201738 
 4265000    0.9889706 1.0963866e-05   0.42182817 0.0090918136            0   0.41273636    1.4463695    1.8681977    2.9908975 
 4270000    0.8403423 8.3043771e-05   0.61071373   0.10228721            0   0.50842653    1.2290006    1.8397144    10.343396 
 4275000   0.93768155 8.8613544e-05   0.50962771  0.059512651            0   0.45011506    1.3713593     1.880987    10.955014 
 4280000   0.88968255 5.5420808e-05   0.55022377 0.0095124943            0   0.54071127    1.3011607    1.8513845    7.5264752 
 4285000   0.81560459 0.00010439993   0.67263716 0.0092809283            0   0.66335623    1.1928217    1.8654589    12.556011 
 4290000   0.99031946 2.8621345e-05   0.40450289  0.031441179            0   0.37306171    1.4483422    1.8528451    4.7836708 
 4295000   0.85586933 -2.7138498e-05   0.65659016  0.077553332            0   0.57903683    1.2517089    1.9082991  -0.87068315 
 4300000   0.90889084 -2.152504e-05   0.58488088  0.033828307            0   0.55105257    1.3292528    1.9141337  -0.29003032 
 4305000    0.9891669 -5.122755e-05   0.47176028  0.022675817            0   0.44908446    1.4466566    1.9184169   -3.3272842 
 4310000   0.89605987 -2.78762e-05   0.61418133  0.013296869            0   0.60088446    1.3104876    1.9246689  -0.92985398 
 4315000   0.94686142 3.3170776e-05   0.52834631 0.0034616189            0   0.52488469    1.3847848    1.9131311    5.3098186 
 4320000   0.98601372 -5.1185671e-06   0.47346663  0.001187761            0   0.47227887    1.4420451    1.9155117    1.3913704 
 4325000    0.8579671 -6.019735e-05   0.64234137 0.0011384112            0   0.64120295    1.2547769    1.8971183   -4.2670904 
 4330000    1.0317521 -5.0786429e-06   0.45054592 0.0080672264            0   0.44247869    1.5089374    1.9594833    1.4394303 
 4335000   0.97442872 1.940738e-05   0.58402561  0.025137475            0   0.55888813     1.425102    2.0091276    3.9964434 
 4340000   0.99975915 -9.544444e-06   0.54645065  0.013933766            0   0.53251689    1.4621478    2.0085984    1.0312474 
 4345000   0.97992893 -7.2083338e-05   0.59036197 0.0010731004            0   0.58928887    1.4331461     2.023508   -5.3578258 
 4350000    1.0124336 -4.1732505e-05   0.54599284  0.004629499            0   0.54136334    1.4806842     2.026677   -2.2467315 
 4355000   0.99628961 -1.1194535e-05   0.58871741  0.031588301            0   0.55712911    1.4570736     2.045791   0.89947058 
 4360000    1.0104863 -8.2279775e-05   0.58796257  0.070787821            0   0.51717475    1.4778363    2.0657988   -6.3596502 
 4365000   0.94696123 -0.000133184   0.66272916  0.032853646            0   0.62987552    1.3849308      2.04766   -11.590382 
 4370000   0.98451663 -4.2266355e-05   0.61658184 0.0051938415            0   0.61138799    1.4398556    2.0564374   -2.2716373 
 4375000     1.091343 4.6437483e-05   0.45524606 0.0018010384            0   0.45344502    1.5960891    2.0513352    6.8065334 
 4380000    1.0327807 6.439693e-06   0.58857098   0.04743687            0   0.54113411    1.5104418    2.0990128    2.7584374 
 4385000   0.98570414 1.2674933e-05   0.64255062  0.093094128            0   0.54945649    1.4415923    2.0841429    3.3820561 
 4390000    1.1306022 7.0332281e-05   0.45628456  0.044905001            0   0.41137956    1.6535057    2.1097902    9.3118158 
 4395000    1.0815428 9.3944244e-05   0.52858048  0.049809975            0   0.47877051    1.5817563    2.1103368    11.730227 
 4400000    1.1031058 5.7693486e-05   0.48379084  0.011279863            0   0.47251097    1.6132923    2.0970831     8.004896 
 4405000    1.0232618 -1.9326096e-05   0.57849175 0.0092963833            0   0.56919537    1.4965204    2.0750122  0.096019958 
 4410000    1.0677973 -6.0309316e-05   0.50795395  0.022673795            0   0.48528015    1.5616536    2.0696076   -4.1060663 
 4415000    1.0690535 -7.388372e-06    0.4964324  0.014025783            0   0.48240662    1.5634907    2.0599231    1.3033538 
 4420000    1.0699411 -3.9589362e-05   0.52842939 0.0071271551            0   0.52130224    1.5647888    2.0932182   -1.9607325 
 4425000    1.0896616 -4.6219332e-05   0.46435178 0.0086584375            0   0.45569335    1.5936301    2.0579819   -2.6748777 
 4430000    1.0867315 -5.5737439e-08    0.4749627 0.0028477227            0   0.47211498    1.5893448    2.0643075       2.0586 
 4435000    1.0940683 7.6306882e-05   0.49242335 0.0050464843            0   0.48737687    1.6000749    2.0924982     9.906323 
 4440000    1.0744787 6.8283606e-05   0.52579071 0.0072885916            0   0.51850212    1.5714251    2.0972158     9.089457 
 4445000    1.1504628 -2.5334396e-05   0.39613503 0.0057633653            0   0.39037166    1.6825519    2.0786869  -0.51555521 
 4450000   0.96878086 -7.3732611e-05   0.64266701 0.0047548235            0   0.63791218     1.416842     2.059509   -5.4907103 
 4455000     1.003555 -5.9025313e-06   0.60868176  0.010720102            0   0.59796166    1.4676993     2.076381    1.4719618 
 4460000    1.0027091 0.00010182735   0.60069571  0.025603062            0   0.57509265    1.4664621    2.0671578    12.494278 
 4465000    1.0217094 4.3902172e-05   0.59897817  0.034260119            0   0.56471805      1.49425    2.0932282    6.5888106 
 4470000    1.1052148 9.1672291e-06   0.45473173  0.046632716            0   0.40809901    1.6163766    2.0711083    3.0098326 
 4475000    1.0167152 3.4324282e-05   0.60050852  0.051581336            0   0.54892719    1.4869459    2.0874544    5.6022609 
 4480000    1.0183188 -3.4677772e-05   0.60546757  0.040532849            0   0.56493472    1.4892913    2.0947589    -1.456245 
 4485000    1.0582684 3.1016188e-05   0.54486801  0.022829206            0    0.5220388    1.5477175    2.0925855    5.2686432 
 4490000    1.0061184 0.00012213024   0.62616664 0.0050550575            0   0.62111159    1.4714481    2.0976148    14.603751 
 4495000    1.0905057 5.364111e-05   0.52574404            0            0   0.52574404    1.5948646    2.1206086    7.6134582 
 4500000    1.0165999 -4.5171567e-06   0.65151018            0            0   0.65151018    1.4867773    2.1382875    1.6757307 
 4505000    1.0209099 2.0580129e-05   0.68473539 6.2515727e-05            0   0.68467287    1.4930808    2.1778162    4.2852214 
 4510000    1.1579695 -1.0379518e-05   0.43585035 0.0011456179            0   0.43470473    1.6935304    2.1293808    1.0665181 
 4515000    1.1241562 -1.1993204e-06   0.46271113 0.0042547331            0    0.4584564    1.6440785    2.1067896    1.9839792 
 4520000   0.96523608 -1.4171268e-05   0.69306351  0.005098232            0   0.68796528    1.4116578    2.1047213   0.65358342 
 4525000   0.98391202 -0.00010772104   0.66000582 0.00095190131            0   0.65905392    1.4389713    2.0989772   -8.9316574 
 4530000   0.96910314 -8.4677749e-05   0.69154485 0.0020560938            0   0.68948876    1.4173133    2.1088582   -6.5621434 
 4535000   0.97060708 3.0749269e-06   0.69512116  0.030560286            0   0.66456088    1.4195128     2.114634    2.4295065 
 4540000   0.95381767  2.74968e-06    0.6920387  0.072686688            0   0.61935201    1.3949583     2.086997    2.3685643 
 4545000   0.99990668 -7.0402919e-05   0.61745714  0.034885552            0   0.58257158    1.4623635    2.0798207   -5.1294382 
 4550000    1.0538171 2.7340028e-05   0.57041676  0.024483538            0   0.54593323    1.5412075    2.1116243    4.9112431 
 4555000    0.9897418 2.4289374e-05   0.73135917  0.027346454            0   0.70401271    1.4474974    2.1788565    4.6660885 
 4560000   0.99364718 -5.9920644e-06   0.75713827  0.015429387            0   0.74170888     1.453209    2.2103473    1.5967599 
 4565000    1.1762874 9.2708369e-06    0.5307281 0.0024457683            0   0.52828233    1.7203203    2.2510484    3.2003821 
 4570000    1.0308856 2.0670256e-05   0.77593625 0.00086727085            0   0.77506898    1.5076701    2.2836064    4.4002406 
 4575000    1.2177531 1.5026823e-05     0.561939 0.0031691618            0   0.55876984    1.7809638    2.3429028    3.8816495 
 4580000    1.1948808 6.1465377e-05   0.59759009 0.0047020703            0   0.59288802    1.7475132    2.3451033    8.6391579 
 4585000    1.1508417 8.3082785e-05   0.67799172  0.002785045            0   0.67520668    1.6831061    2.3610978    10.868775 
 4590000    1.2345509 -4.6929048e-05    0.5472733            0            0    0.5472733    1.8055307     2.352804   -2.4527305 
 4595000    1.0983183 -0.00013746316   0.76428214 7.1947995e-05            0   0.76421019    1.6062906    2.3705727   -11.705655 
 4600000    1.2525158 -3.5971964e-05   0.58804964 0.0009594454            0   0.58709019    1.8318044     2.419854   -1.2636751 
 4605000    1.1305348 6.7202394e-05   0.73045578  0.015235181            0    0.7152206    1.6534071    2.3838629     9.265388 
 4610000      1.23485 8.770969e-06   0.63718307  0.036058766            0   0.60112431    1.8059681    2.4431512    3.3412984 
 4615000   0.99026367 -0.00010089124    0.9899685  0.054371174            0   0.93559732    1.4482606    2.4382291   -7.8930335 
 4620000    1.3121457 -5.1135743e-05   0.52747091  0.034059836            0   0.49341108    1.9190131     2.446484   -2.7898161 
 4625000    1.2212422 6.3936135e-05   0.67549857  0.022242398            0   0.65325617    1.7860668    2.4615654    9.0086256 
 4630000    1.1274869 3.0388361e-05   0.82879505  0.019765883            0   0.80902917    1.6489496    2.4777447    5.5895128 
 4635000    1.2636622 2.1928822e-05   0.62358568 0.0097053899            0   0.61388029     1.848106    2.4716917    4.7172031 
 4640000     1.312083 6.1796686e-05    0.5226651  0.017833824            0   0.50483128    1.9189213    2.4415864    8.7695671 
 4645000    1.3066701 8.1358902e-06   0.55100725  0.032033024            0   0.51897422     1.911005    2.4620123    3.2951274 
 4650000    1.1926811 -2.8391655e-05   0.70428075  0.017246684            0   0.68703407    1.7442961    2.4485769  -0.45872855 
 4655000    1.1634601 1.533417e-05   0.71699392 5.0317075e-05            0    0.7169436    1.7015604    2.4185543    3.9887734 
 4660000    1.0392356 -6.2754925e-05   0.89026313 0.0035287367            0   0.88673439     1.519882    2.4101451   -4.0159592 
 4665000    1.2405952 4.206828e-05   0.59277089  0.020322663            0   0.57244823    1.8143705    2.4071414    6.7149333 
 4670000    1.2290921 9.6901767e-06   0.59685591   0.05020939            0   0.54664652    1.7975472    2.3944031    3.3866772 
 4675000    1.2463058 -5.6949337e-05   0.58289576  0.010377941            0   0.57251782    1.8227222    2.4056179   -3.4259942 
 4680000    1.2106085 8.4984656e-07   0.60368258 0.0086024663            0   0.59508011    1.7705149    2.3741975    2.4612218 
 4685000    1.1366108 1.6547562e-05   0.68690604  0.013718317            0   0.67318772    1.6622934    2.3491994    4.0436697 
 4690000    1.1520503 4.3570436e-05    0.6803645 0.0060348883            0   0.67432961    1.6848735     2.365238    6.8268507 
 4695000     1.214829 -6.8933934e-06   0.53528297 0.0059603385            0   0.52932263    1.7766875    2.3119704    1.6060869 
 4700000    1.1995143  5.38104e-05   0.56291575  0.007806542            0    0.5551092    1.7542897    2.3172054    7.8273904 
 4705000    1.2247479 2.9612872e-05   0.52281105  0.021346735            0   0.50146431    1.7911939    2.3140049     5.346363 
 4710000     1.156864 3.9450243e-06   0.60460107   0.02109339            0   0.58350768    1.6919136    2.2965147    2.7004852 
 4715000    1.1056225 -3.376809e-05   0.70752381  0.022132493            0   0.68539132    1.6169729    2.3244967   -1.1333558 
 4720000    1.1967746 -6.3794699e-05   0.57066408 0.0081920609            0   0.56247201    1.7502828    2.3209469   -4.2116303 
 4725000     1.158631 -8.5792564e-05   0.63609185  0.020762776            0   0.61532907    1.6944978    2.3305896   -6.4545689 
 4730000    1.0873073 -2.0088621e-06   0.74355753  0.051560047            0   0.69199748    1.5901869    2.3337444    2.1280369 
 4735000    1.2022526 -2.0255321e-05   0.54438984   0.04022917            0   0.50416067    1.7582945    2.3026843   0.22853943 
 4740000    1.1686764 -0.00016046802    0.5956824   0.01420546            0   0.58147694    1.7091892    2.3048716   -14.127054 
 4745000    1.2251657 6.3063983e-05   0.49890545 0.00077017045            0   0.49813528    1.7918048    2.2907102    8.7484621 
 4750000    1.1424159 8.3379781e-05   0.59720386 0.0017456786            0   0.59545818    1.6707833    2.2679871    10.806077 
 4755000    1.1518686 1.118763e-05     0.640213 0.0087167655            0   0.63149624    1.6846079    2.3248209    3.4704342 
 4760000     1.264304 3.1101493e-05   0.47565517 0.0095636087            0   0.46609156    1.8490446    2.3246998    5.5094927 
 4765000    1.1769012 9.358641e-05   0.59444525 0.0040098011            0   0.59043545     1.721218    2.3156633    11.898912 
 4770000    1.1252917 0.00014388208   0.66244316  0.011644363            0    0.6507988    1.6457392    2.3081823    17.041707 
 4775000    1.1758954  7.12799e-05   0.57479838  0.016790218            0   0.55800816    1.7197471    2.2945455    9.5936072 
 4780000    1.1257072 5.0302239e-06   0.65278972  0.018900206            0   0.63388952    1.6463468    2.2991365    2.8142315 
 4785000    1.1140028 -2.5602364e-05   0.66052644 0.0095621958            0   0.65096424    1.6292291    2.2897555  -0.33192654 
 4790000    1.1455738 4.3592449e-05   0.63023611 0.0014707218            0   0.62876538    1.6754017    2.3056378    6.7695045 
 4795000    1.1940185 -4.0711545e-06    0.5340135 0.0022038714            0   0.53180963    1.7462521    2.2802656    1.8633794 
 4800000    1.1928056 -8.8752866e-05   0.50911444  0.002242778            0   0.50687166    1.7444782    2.2535927   -6.8347008 
 4805000    1.2382225 -0.0001333807   0.48707454  0.021949963            0   0.46512458    1.8109005     2.297975   -11.360208 
 4810000    1.2229865 -8.9819762e-05   0.54621306    0.0822377            0   0.46397536    1.7886178    2.3348308   -6.8627129 
 4815000    1.2613953 -1.2182682e-05   0.42568977  0.020478145            0   0.40521163    1.8447906    2.2704803    1.0229737 
 4820000    1.1348307 2.646411e-05   0.60054295  0.022849068            0   0.57769388    1.6596899    2.2602329    4.9701577 
 4825000    1.1189103 4.6673619e-05   0.63382033 0.0089325261            0   0.62488781    1.6364063    2.2702267    7.0496053 
 4830000    1.1825393 2.4328035e-05   0.48425985 0.0015485788            0   0.48271127    1.7294637    2.2137236    4.7049144 
 4835000    1.0636713 6.8527373e-05   0.64592042  0.023987697            0   0.62193272    1.5556193    2.2015397    9.2187427 
 4840000    1.0144128 3.9619483e-05   0.72626737  0.069408846            0   0.65685852    1.4835788    2.2098461    6.2668812 
 4845000    1.0831213 2.8587559e-05   0.59414069  0.015263025            0   0.57887767    1.5840649    2.1782056    5.1055717 
 4850000    1.0796909 6.2100683e-05    0.6463351  0.021827411            0   0.62450769    1.5790479     2.225383    8.5844929 
 4855000    1.0439408 2.4550556e-05   0.69716672  0.012806274            0   0.68436044    1.5267634    2.2239301    4.7379071 
 4860000    1.2054278 2.0593205e-05   0.44113599 0.00020754558            0   0.44092844    1.7629381    2.2040741    4.3128183 
 4865000    1.1834476 -1.2853117e-05   0.40790857 0.0025655819            0   0.40534299    1.7307921    2.1387007   0.82254149 
 4870000    1.0694698 -0.00010175261    0.5769856  0.023035956            0   0.55394964    1.5640996    2.1410852   -8.2783825 
 4875000    1.0900946 -2.8903391e-05   0.56867254  0.058982591            0   0.50968994    1.5942634    2.1629359  -0.79677133 
 4880000    1.0508838 9.0861949e-05   0.63331212  0.038094848            0   0.59521727    1.5369176    2.1702297    11.474493 
 4885000    1.1335922 1.3694251e-06   0.55520947  0.037013878            0   0.51819559    1.6578786     2.213088    2.3533172 
 4890000    1.0573327 -8.9453608e-05   0.64235656  0.018556778            0   0.62379978    1.5463491    2.1887057   -6.9713438 
 4895000    1.0349116 -6.2107085e-05   0.68966378 0.00033182668            0   0.68933196    1.5135583     2.203222   -4.1565435 
 4900000    1.1405976 -0.00010729524    0.5119292            0            0    0.5119292     1.668124    2.1800532   -8.8069791 
 4905000    1.1347595 -5.9550526e-05   0.50743063 0.0058835354            0    0.5015471    1.6595858    2.1670165   -3.9309574 
 4910000    1.1121863 -3.6413286e-05   0.56683454  0.045231308            0   0.52160323    1.6265725    2.1934071   -1.5353134 
 4915000   0.99486763 -0.00010800485   0.75126781  0.082846487            0   0.66842132    1.4549939    2.2062617   -8.8534348 
 4920000    1.1110109 -2.0077338e-05   0.54277529  0.012637518            0   0.53013777    1.6248534    2.1676287   0.11170925 
 4925000    1.0771242 1.9978907e-05   0.62883515  0.029300329            0   0.59953482    1.5752941    2.2041292    4.2499693 
 4930000   0.95338689 -1.4398085e-05   0.76939029  0.070296783            0    0.6990935    1.3943283    2.1637186   0.68935468 
 4935000    1.0405418 8.3007922e-05   0.63343909  0.015990522            0   0.61744856    1.5217924    2.1552315    10.655243 
 4940000    1.1061532 4.3272876e-05   0.50878978 0.0024766297            0   0.50631315     1.617749    2.1265388    6.5576813 
 4945000    1.1086862 0.00014385648   0.48308013 0.0026812607            0   0.48039887    1.6214536    2.1045338    16.835438 
 4950000    1.1793376 -2.5801542e-05   0.44368278 0.0050996396            0   0.43858314    1.7247813    2.1684641  -0.47361378 
 4955000    1.1996342 -2.9803302e-05   0.40122332 0.0041669714            0   0.39705635    1.7544651    2.1556884  -0.89616973 
 4960000    1.1843699 -4.393865e-05   0.45520286  0.010319701            0   0.44488316     1.732141    2.1873439   -2.3119738 
 4965000    1.0954256 -7.0116292e-05   0.59688506  0.058408353            0   0.53847671    1.6020599    2.1989449   -4.9809633 
 4970000    1.1829914 -0.00012149163   0.48617278  0.025078969            0   0.46109381     1.730125    2.2162978   -10.224445 
 4975000    1.1372406 2.4247296e-05   0.54835211 5.455331e-05            0   0.54829755    1.6632144    2.2115665    4.6944896 
 4980000    1.1669953 -3.6082033e-05   0.48537194 2.1359775e-05            0   0.48535058    1.7067306    2.1921025   -1.5026977 
 4985000    1.1807093 1.0152225e-05   0.43131085 0.00010632156            0   0.43120453    1.7267874    2.1580982     3.197686 
 4990000    1.0929076 -2.3518579e-05   0.57005078 0.0070001678            0   0.56305061    1.5983774    2.1684282  -0.23987429 
 4995000    1.1365583 -5.0508748e-05   0.54943766  0.030023655            0     0.519414    1.6622165    2.2116542   -2.9604416 
 5000000    1.1324715 -7.2655017e-05   0.55954584  0.013464831            0   0.54608101    1.6562396    2.2157854   -5.2240883 
 5005000    1.2017679 3.6879929e-05   0.51305733  0.010662028            0    0.5023953    1.7575856    2.2706429    6.0471477 
 5010000     1.288997 -6.5445981e-05    0.4057409 0.0079638137            0   0.39777709    1.8851582    2.2908991   -4.4107694 
 5015000    1.1794059 -2.4289222e-05   0.50161982 0.00078333091            0   0.50083649    1.7248812     2.226501  -0.26071537 
 5020000    1.1532122 2.9347812e-05    0.5114495            0            0    0.5114495    1.6865729    2.1980224    5.2032384 
 5025000    1.2846238 0.00010056843   0.33123332            0            0   0.33123332    1.8787624    2.2099957    12.508203 
 5030000    1.2770232 6.3720808e-05   0.34191814            0            0   0.34191814    1.8676464    2.2095645    8.7345752 
 5035000    1.2234099 -7.0809664e-05   0.43656459  0.014570576            0   0.42199401    1.7892369    2.2258015   -5.0251081 
 5040000    1.1859315 3.2122994e-05   0.52076953  0.092532438            0   0.42823709    1.7344248    2.2551943    5.5445889 
 5045000    1.2193662 -1.3149543e-06   0.49427073  0.017047018            0   0.47722371    1.7833231    2.2775938    2.1429425 
 5050000    1.3274438 9.8208074e-06   0.31919333 0.00046658538            0   0.31872675    1.9413865    2.2605799    3.2662305 
 5055000    1.1890287 -2.37118e-05   0.51294985  0.031138082            0   0.48181176    1.7389545    2.2519043    -0.176184 
 5060000    1.1320542 -6.2520302e-05   0.58558539  0.040051073            0   0.54553432    1.6556293    2.2412147   -4.1608642 
 5065000    1.1806956 3.9617101e-05   0.52757052  0.048629046            0   0.47894147    1.7267673    2.2543378     6.311129 
 5070000     1.186415 1.9465338e-06   0.51288327  0.039079563            0   0.47380371     1.735132    2.2480153    2.4473403 
 5075000    1.2400781 -3.3464093e-05    0.4525705  0.024390962            0   0.42817954    1.8136143    2.2661848   -1.1605383 
 5080000    1.3070875 6.6724195e-05   0.35873716 0.0087516403            0   0.34998552    1.9116155    2.2703527    9.1029103 
 5085000    1.1743793 3.4988678e-05   0.55618345  0.011659494            0   0.54452395    1.7175297    2.2737132    5.8565538 
 5090000    1.2100394 1.1389679e-06   0.50526822   0.02908013            0   0.47618809    1.7696826    2.2749509    2.3915812 
 5095000    1.1935713 2.4352773e-05   0.52258266   0.11686979            0   0.40571287     1.745598    2.2681806    4.7619045 
 5100000    1.3138269 4.6796243e-05   0.37311687  0.016435765            0    0.3566811    1.9214718    2.2945887    7.0865239 
 5105000    1.2150585 -2.2123078e-06   0.52732106  0.010094623            0   0.51722644    1.7770231    2.3043441    2.0778038 
 5110000    1.1779959 -0.0001173856   0.56002016 0.0083592861            0   0.55166087    1.7228189    2.2828391   -9.7374462 
 5115000    1.1722816 8.0756228e-05   0.55221875  0.085650835            0   0.46656792    1.7144618    2.2666806    10.536118 
 5120000    1.2121982 4.9688469e-06   0.48587856 0.0062132575            0    0.4796653    1.7728399    2.2587185    2.7675284 
 5125000    1.2184114 6.1982492e-05   0.49648264 0.0048633176            0   0.49161932    1.7819267    2.2784093    8.6254165 
 5130000    1.2877347 -6.1954159e-05   0.39624205  0.004063775            0   0.39217827     1.883312     2.279554   -4.0645519 
 5135000    1.2334521 6.2225674e-05   0.52378525  0.026581863            0   0.49720338    1.8039238     2.327709     8.699618 
 5140000    1.1597758 4.8870905e-05   0.58781236  0.071463603            0   0.51634875    1.6961721    2.2839845    7.2883652 
 5145000    1.1973279 6.9891123e-05   0.53649888 0.0077988973            0   0.52869999     1.751092    2.2875909    9.4444419 
 5150000     1.284656 1.0031632e-05   0.42212887  0.019027768            0    0.4031011    1.8788095    2.3009383    3.3281775 
 5155000    1.2464249 5.6937907e-05   0.53209315   0.06746764            0   0.46462551    1.8228965    2.3549896    8.1854313 
 5160000    1.2706184 2.4676361e-05   0.49291266  0.037172183            0   0.45574048    1.8582795    2.3511921    4.8780514 
 5165000    1.1872924 -3.4154596e-06   0.58484098 0.0032319561            0   0.58160902    1.7364151    2.3212561     1.971513 
 5170000     1.275999 -3.1692459e-06   0.45904303 0.00071057516            0   0.45833246    1.8661485    2.3251915    2.0006607 
 5175000    1.3075903 7.7033549e-06   0.43319612 0.0017254839            0   0.43147063    1.9123509     2.345547    3.1343705 
 5180000    1.3313171 1.2573308e-05   0.37758071 0.0043583343            0   0.37322238    1.9470512    2.3246319    3.6121387 
 5185000    1.2111058 4.0781837e-05   0.57617111 0.0072397953            0   0.56893131    1.7712422    2.3474133    6.5234734 
 5190000    1.2852899 -4.1767872e-05   0.47958612  0.055184578            0   0.42440154    1.8797365    2.3593226   -1.9177074 
 5195000    1.2195182 -6.8061659e-05   0.53045823  0.052012644            0   0.47844559    1.7835454    2.3140036   -4.6555103 
 5200000     1.242319 -4.5292982e-05   0.47686758  0.021465543            0   0.45540204    1.8168915    2.2937591   -2.3442423 
 5205000    1.1548572 -0.00010570614    0.6208398  0.082574827            0   0.53826497    1.6889787    2.3098185   -8.5144898 
 5210000    1.2404318 1.8139209e-05   0.50712271   0.12704445            0   0.38007826    1.8141315    2.3212542    4.1787092 
 5215000    1.2420563 1.3461119e-05    0.4951208  0.023688433            0   0.47143237    1.8165074    2.3116282    3.6900468 
 5220000    1.0948131 3.5021524e-05   0.69561911  0.034124014            0    0.6614951    1.6011642    2.2967833    5.8829874 
 5225000    1.1579715 0.0001108463   0.63298339  0.026032991            0    0.6069504    1.6935334    2.3265168    13.677178 
 5230000    1.2511909 -4.7592084e-05   0.48356044  0.011553552            0   0.47200689    1.8298666    2.3134271   -2.5600023 
 5235000    1.3022599 -3.6361242e-05   0.40070721 0.0075015223            0   0.39320568    1.9045551    2.3052623   -1.4181288 
 5240000    1.2637093 5.9809135e-05   0.43297106  0.012639077            0   0.42033198    1.8481749     2.281146    8.4056014 
 5245000    1.1142974 -3.5429635e-05   0.62353208  0.031180177            0    0.5923519      1.62966    2.2531921   -1.3748025 
 5250000    1.3079922 5.4163618e-06   0.31444536  0.016844482            0   0.29760088    1.9129385    2.2273839    2.7820193 
 5255000    1.1937096 -2.8464565e-05   0.45589641  0.010898714            0    0.4449977    1.7458003    2.2016967  -0.71307476 
 5260000    1.1679731 4.6956874e-05    0.4970327  0.050167378            0   0.44686532    1.7081606    2.2051933    7.0135772 
 5265000    1.1358141 3.8388682e-06   0.56682472  0.028649547            0   0.53817517    1.6611281    2.2279528    2.6210529 
 5270000    1.2435994 2.6298478e-05   0.43223383 0.00081500706            0   0.43141883    1.8187641     2.250998    4.9439621 
 5275000    1.1746472 6.8626869e-05   0.50279596 0.0041531165            0   0.49864285    1.7179215    2.2207175    9.2481088 
 5280000    1.0693412 -8.2902246e-05   0.65282998  0.009779661            0   0.64305032    1.5639115    2.2167415   -6.2724485 
 5285000      1.13764 2.0664879e-05   0.52044202 0.0045877777            0   0.51585424    1.6637985    2.1842405    4.3003241 
 5290000    1.1387393 -3.5706416e-07   0.50710037 0.0013082311            0   0.50579214    1.6654062    2.1725066    2.1359432 
 5295000      1.15084 -1.0781424e-05   0.45902762  0.039718223            0    0.4193094    1.6831035    2.1421311    1.0381133 
 5300000     1.094833 -1.6969415e-05   0.48859939  0.036961188            0    0.4516382    1.6011933    2.0897926   0.35212459 
 5305000    1.0455314 -5.5958956e-05   0.51297915 0.00075869363            0   0.51222046    1.5290897    2.0420689   -3.6881282 
 5310000    1.0229107 1.2898791e-06   0.51125786            0            0   0.51125786    1.4960069    2.0072648    2.1393484 
 5315000    1.0596994 6.2645359e-05   0.46674383            0            0   0.46674383    1.5498103    2.0165541    8.4314389 
 5320000   0.92523278 6.8125451e-05   0.65904347            0            0   0.65904347    1.3531529    2.0121964    8.9882426 
 5325000   0.98343383 8.8380556e-05   0.55520592 1.3796575e-05            0   0.55519213     1.438272    1.9934779    11.043647 
 5330000    1.0778315 2.6081101e-05   0.42167191 0.0033733465            0   0.41829856    1.5763285    1.9980004    4.6687052 
 5335000    1.1021108 -8.8546104e-06   0.33359331 0.0045412847            0   0.32905203     1.611837    1.9454303    1.0387182 
 5340000    1.0502997 -9.1984526e-06   0.39014027 0.00024183135            0   0.38989844    1.5360633    1.9262036   0.98428204 
 5345000    1.0726145 -8.772921e-05   0.36101401            0            0   0.36101401    1.5686987    1.9297127   -7.0537583 
 5350000    1.0442516 -1.7752394e-05   0.40193128            0            0   0.40193128     1.527218    1.9291493   0.11130418 
 5355000    1.0797236 -5.1555233e-05   0.33075626            0            0   0.33075626    1.5790958    1.9098521   -3.3694038 
 5360000    1.0813576 -5.2849697e-05    0.3363443            0            0    0.3363443    1.5814855    1.9178298   -3.4939792 
 5365000   0.94521425 2.1953278e-05    0.5301437 0.0027464387            0   0.52739726    1.3823758    1.9125195    4.1605352 
 5370000    1.0557146 -1.6532109e-05   0.37648823   0.01719022            0   0.35929801    1.5439826    1.9204708   0.22758282 
 5375000    1.0247021 6.7457395e-05   0.43499553  0.033852525            0     0.401143    1.4986268    1.9336223    8.8412596 
 5380000    1.0090246 -2.7681146e-05   0.47927008  0.033801432            0   0.44546865    1.4756985    1.9549685  -0.87958075 
 5385000    1.0875537 -6.5679084e-05   0.38281111  0.018923328            0   0.36388778    1.5905472    1.9733584   -4.7521799 
 5390000    1.0825859 -1.4654411e-05   0.40563251 0.0019248692            0   0.40370764    1.5832818    1.9889143   0.48830264 
 5395000     1.018678 1.3631744e-05   0.47228721            0            0   0.47228721    1.4898166    1.9621038    3.3579944 
 5400000    1.0498194 3.1910586e-05   0.43617755 0.00087433361            0   0.43530322    1.5353609    1.9715385    5.2391825 
 5405000    1.0644601 -6.0396433e-05   0.39703249 0.0056576856            0   0.39137481    1.5567729    1.9538054   -4.2307893 
 5410000    1.1286909 3.8512049e-05   0.27814496  0.007194859            0    0.2709501    1.6507105    1.9288554    5.8724892 
 5415000    1.0635974 -2.894976e-06   0.35693199 0.0035233655            0   0.35340862    1.5555112    1.9124432    1.6159976 
 5420000   0.97913771 -0.00010588844   0.42951504 0.0018587569            0   0.42765629    1.4319889    1.8615039    -8.981472 
 5425000   0.97691683 6.474592e-06   0.45238505   0.01017795            0    0.4422071    1.4287409    1.8811259    2.5441241 
 5430000   0.94994963 1.2333368e-05   0.46246535   0.01634363            0   0.44612171    1.3893013    1.8517667    3.1147036 
 5435000   0.99134474 -4.58293e-05   0.43755012 0.0022091904            0   0.43534093    1.4498417    1.8873918   -2.8055285 
 5440000    1.0108815 3.3208783e-05   0.38411585 0.0011568014            0   0.38295905    1.4784142    1.8625301    5.2631094 
 5445000    1.0051569 1.7817532e-05   0.36449584  0.010701282            0   0.35379456     1.470042    1.8345378    3.6590532 
 5450000    1.0124024 -1.5379207e-05   0.36603414  0.040090569            0   0.32594357    1.4806385    1.8466727   0.27184185 
 5455000    1.0067924 1.3553143e-05   0.40052559  0.017387199            0    0.3831384    1.4724338    1.8729594    3.2608012 
 5460000   0.93957757 -3.1664683e-06   0.48032946 0.0088642411            0   0.47146521    1.3741322    1.8544617    1.5302153 
 5465000   0.84987014 -9.8080624e-05   0.56217575 0.0055228312            0   0.55665291    1.2429351    1.8051108   -8.2383451 
 5470000   0.88401595 -2.7012123e-05   0.49630466 0.00022368646            0   0.49608097    1.2928733     1.789178  -0.97686339 
 5475000   0.95362911 -3.595711e-05   0.44935071            0            0   0.44935071    1.3946826    1.8440333   -1.8379748 
 5480000     1.008623 -6.4574147e-06   0.38824058            0            0   0.38824058    1.4751111    1.8633517    1.2021125 
 5485000    1.0800979 4.138254e-05   0.32362084            0            0   0.32362084    1.5796432     1.903264    6.1408361 
 5490000    1.0202467 -7.1360018e-06   0.42307982            0            0   0.42307982    1.4921108    1.9151906    1.1844641 
 5495000    1.0533219 8.1364269e-05    0.3847835            0            0    0.3847835    1.5404833    1.9252668    10.256968 
 5500000     1.056609 1.3345204e-05   0.37489682            0            0   0.37489682    1.5452907    1.9201876    3.2867364 
 5505000   0.95922682 -1.5210723e-05     0.424428            0            0     0.424428    1.4028692    1.8272972   0.26971922 
 5510000   0.97546109 5.6228617e-05   0.36792137            0            0   0.36792137    1.4266118    1.7945332    7.5523436 
 5515000   0.92062994 3.4222304e-05   0.39550177            0            0   0.39550177    1.3464213    1.7419231     5.246287 
 5520000   0.84869748 1.4053355e-06    0.4492491 0.0027199852            0   0.44652911    1.2412201    1.6904692    1.8343755 
 5525000   0.93371107 2.0848442e-05   0.32352719  0.023946255            0   0.29958094    1.3655524    1.6890796    3.8239601 
 5530000   0.92193058 -3.6925832e-05   0.32434181 0.0096507145            0   0.31469109    1.3483235    1.6726653   -2.1085399 
 5535000    0.8270552 -4.3683016e-05   0.41521202            0            0   0.41521202    1.2095682    1.6247803   -2.8483605 
 5540000   0.83110981 3.2843646e-05    0.4631801            0            0    0.4631801    1.2154981    1.6786782    5.0418675 
 5545000   0.87151296 -1.6573076e-06   0.37963921            0            0   0.37963921    1.2745877    1.6542269    1.4845186 
 5550000   0.90503059 -6.8106188e-05   0.34824007            0            0   0.34824007    1.3236072    1.6718473   -5.3022263 
 5555000   0.93212796 -3.1343812e-05   0.29623567 0.00094707454            0    0.2952886    1.3632371    1.6594728   -1.5501335 
 5560000   0.80624945 -2.5075648e-05   0.44204068  0.005505952            0   0.43653473    1.1791398    1.6211805  -0.94656587 
 5565000   0.82726702 -2.8703697e-05   0.39251727 0.0070547803            0   0.38546249     1.209878    1.6023953   -1.3368633 
 5570000    0.8092626 -7.6300035e-05   0.40201819  0.002795709            0   0.39922248    1.1835465    1.5855647   -6.2275588 
 5575000   0.82540408 -3.8821903e-05   0.38678707 0.0048761469            0   0.38191092    1.2071535    1.5939405   -2.3814223 
 5580000   0.89463481 3.7614762e-05   0.31265714 0.0080269848            0   0.30463016    1.3084034    1.6210606    5.4728122 
 5585000   0.77264457 -8.196583e-05   0.49777161 0.0027253657            0   0.49504625    1.1299927    1.6277643   -6.7655367 
 5590000   0.92857089 -8.2945165e-05   0.26751869 0.00022628967            0    0.2672924    1.3580349    1.6255536   -6.8680313 
 5595000    0.8874714 3.9881667e-05   0.32016551 0.0016320919            0   0.31853342    1.2979269    1.6180924    5.7019752 
 5600000   0.89252828 3.1245269e-05   0.31451419 0.0024773728            0   0.31203682    1.3053226    1.6198368    4.8193524 
 5605000   0.89220646 -1.7134226e-05   0.34898576 0.00059365719            0   0.34839211    1.3048519    1.6538377  -0.10070699 
 5610000   0.88182879 -4.0691826e-06   0.39209438 0.0029876592            0   0.38910672    1.2896746     1.681769    1.2650847 
 5615000    1.0006146 -1.3335524e-05   0.18397365 0.0029576055            0   0.18101605    1.4633989    1.6473725   0.28181484 
 5620000   0.85218125 1.896944e-05   0.41328575 0.0011454711            0   0.41214028    1.2463151    1.6596008    3.6020715 
 5625000   0.90206312 4.8135876e-05   0.33182405            0            0   0.33182405    1.3192673    1.6510914    6.5802051 
 5630000   0.89434404 -2.1197793e-05   0.36075208            0            0   0.36075208    1.3079782    1.6687302  -0.50192379 
 5635000   0.93156956 2.8893466e-05   0.31198965            0            0   0.31198965    1.3624205    1.6744101    4.6331011 
 5640000   0.89525527 -6.2974897e-05   0.37038489            0            0   0.37038489    1.3093108    1.6796957   -4.7689337 
 5645000   0.96589982 2.1504775e-05   0.26229218            0            0   0.26229218    1.4126285    1.6749207    3.8770097 
 5650000   0.90618557 -4.2385862e-05   0.32955611            0            0   0.32955611    1.3252964    1.6548525   -2.6854597 
 5655000   0.88776054 -3.3714982e-05   0.38479425 0.0037628351            0   0.38103142    1.2983498     1.683144   -1.7692701 
 5660000   0.91679198 -2.0969378e-05   0.35042919  0.010333873            0   0.34009532    1.3408083    1.6912375  -0.45602686 
 5665000     1.006403 6.3929008e-06   0.20928322 0.0051478741            0   0.20413535    1.4718644    1.6811476    2.3357807 
 5670000   0.91003827 4.5354367e-06   0.39215513 0.00016979332            0   0.39198534     1.330931    1.7230861    2.1875148 
 5675000   0.93464231 5.1041341e-05   0.38089507            0            0   0.38089507    1.3669144    1.7478095    6.9744428 
 5680000   0.99765055 -5.06082e-05   0.32767079            0            0   0.32767079    1.4590639    1.7867347    -3.395545 
 5685000   0.98299168 -3.297514e-06    0.3572529            0            0    0.3572529    1.4376253    1.7948782    1.4572128 
 5690000    1.0126262 5.3436595e-06   0.34255713            0            0   0.34255713    1.4809657    1.8235229    2.3707136 
 5695000    1.0859243 1.1919547e-05   0.27501173            0            0   0.27501173    1.5881642     1.863176    3.0837376 
 5700000    1.0476374 -4.6039099e-05   0.35036488            0            0   0.35036488    1.5321697    1.8825346   -2.8318692 
 5705000     1.038134 4.9828904e-05   0.39728849 0.00081948061            0   0.39646901     1.518271    1.9155595    7.0180392 
 5710000    1.0503365 -7.3965964e-07   0.34426565 0.0027921575            0   0.34147349    1.5361172    1.8803828    1.8046417 
 5715000    1.0287761 2.1997962e-05   0.38069798 0.0018400636            0   0.37885792     1.504585     1.885283    4.1378743 
 5720000    1.0667354 7.4437383e-06   0.34402164 0.0084407862            0   0.33558085    1.5601005    1.9041221    2.6663609 
 5725000    1.0035497 -7.7232356e-05   0.45592709  0.043348801            0   0.41257829    1.4676914    1.9236185   -5.9849748 
 5730000   0.91311273 2.8359334e-05   0.55174236   0.16757912            0   0.38416325    1.3354274    1.8871697    4.7911656 
 5735000    1.0094649 -4.631522e-05    0.3895779  0.042144112            0   0.34743379    1.4763424    1.8659203   -2.8767582 
 5740000    0.9908397 -2.839997e-05   0.40755577 0.0036164359            0   0.40393933    1.4491031    1.8566588   -1.0514981 
 5745000   0.96806319 3.3601269e-05   0.40432566 0.0042628448            0   0.40006281    1.4157924    1.8201181     5.260888 
 5750000   0.97928831 -2.1756365e-05   0.40937873 0.0058761897            0   0.40350254    1.4322092    1.8415879  -0.38626392 
 5755000    1.0579059 -2.3447856e-06    0.3322464  0.012605305            0   0.31964109    1.5471873    1.8794337    1.6393277 
 5760000     0.990612 -2.661992e-05   0.39889112  0.017501054            0   0.38139006      1.44877    1.8476612  -0.87821864 
 5765000   0.96562343 3.4761426e-05   0.41976668  0.025676717            0   0.39408996    1.4122243    1.8319909     5.391561 
 5770000   0.99941101 -4.984187e-05   0.37462532  0.025495765            0   0.34912955    1.4616386    1.8362639   -3.2675436 
 5775000    1.0027821 -1.9467128e-05   0.37422254  0.028439529            0   0.34578301    1.4665688    1.8407913  -0.15264253 
 5780000    1.0771157 -7.0779564e-06   0.25373193  0.012306586            0   0.24142534    1.5752816    1.8290136    1.1042308 
 5785000   0.97682185 -4.7536748e-05   0.35293819 2.2012682e-05            0   0.35291617     1.428602    1.7815401   -3.0862229 
 5790000   0.98499377 1.045553e-05   0.39782501            0            0   0.39782501    1.4405534    1.8383784    2.9090246 
 5795000     1.018157 5.7235684e-05   0.39848837  0.005516916            0   0.39297145    1.4890546     1.887543     7.748477 
 5800000    1.0320436 3.4766295e-05   0.38601653  0.029645903            0   0.35637063    1.5093637    1.8953803    5.4554489 
 5805000   0.97700723 6.3819501e-07   0.42159123  0.039681895            0   0.38190934    1.4288731    1.8504643    1.9158155 
 5810000    1.0237268 5.9376857e-05   0.38325277  0.030161426            0   0.35309134    1.4972005    1.8804533    7.9606434 
 5815000    1.0093146 6.5718746e-05   0.41607295  0.020882525            0   0.39519043    1.4761225    1.8921955     8.621795 
 5820000   0.89905545 1.0875011e-05   0.54921698    0.0142895            0   0.53492748    1.3148686    1.8640856    2.9776867 
 5825000   0.93684395 -5.3682382e-05   0.47423269   0.02504972            0   0.44918297    1.3701343     1.844367   -3.6527089 
 5830000   0.98077235 -2.1726669e-06   0.44700501  0.028477811            0    0.4185272    1.4343796    1.8813846    1.6589035 
 5835000   0.98255501 2.8874018e-05   0.45917866  0.083260179            0   0.37591848    1.4369867    1.8961654    4.8528649 
 5840000   0.96254729 3.5028958e-05   0.44353625  0.053748735            0   0.38978751    1.4077254    1.8512617    5.4382269 
 5845000    1.0528396 2.0976214e-05    0.2999047  0.014122335            0   0.28578237    1.5397779    1.8396826    3.9876469 
 5850000     1.018229 -4.730623e-05   0.33815393 0.0014618785            0   0.33669206    1.4891599    1.8273138   -3.0168441 
 5855000    0.9712138 -3.6909797e-05   0.41681116            0            0   0.41681116    1.4204002    1.8372113   -1.9423519 
 5860000    0.9548554 3.3967762e-05   0.42996176 0.0076332107            0   0.42232855     1.396476    1.8264378    5.3047366 
 5865000   0.99759879 6.5150141e-05   0.41714319  0.022832759            0   0.39431043    1.4589882    1.8761314    8.5475059 
 5870000   0.99750491 5.6352524e-05   0.39048985 0.0059827275            0   0.38450713    1.4588509    1.8493408    7.6198393 
 5875000    1.0266518 -7.3660565e-05   0.34208766 2.4204963e-05            0   0.34206346    1.5014783    1.8435659   -5.6992759 
 5880000    1.0434746 -9.3105563e-05   0.32880199 0.0015783985            0   0.32722359    1.5260816    1.8548836   -7.6791261 
 5885000    1.0767502 4.8776874e-05   0.31914135  0.024294787            0   0.29484657    1.5747471    1.8938885    6.8886404 
 5890000    1.0153902 6.8072211e-05   0.41039414  0.029560189            0   0.38083395    1.4850082    1.8954024    8.8659968 
 5895000   0.99946798 1.2564756e-06   0.40843259    0.0259183            0   0.38251429    1.4617219    1.8701545    1.9988176 
 5900000   0.90456469 -4.6996004e-06   0.54133718 0.0081055771            0    0.5332316    1.3229259     1.864263    1.3830239 
 5905000    1.0384475 -1.0974898e-05   0.37759016 0.0030582642            0   0.37453189    1.5187294    1.8963196   0.77248998 
 5910000    1.0021656 -1.328207e-05   0.42538226  0.023928198            0   0.40145406    1.4656672    1.8910495   0.53096555 
 5915000    1.0170664 1.8516423e-05   0.41249606 0.0080347995            0   0.40446126    1.4874596    1.8999557    3.7960375 
 5920000    1.0289466 -2.6808804e-05   0.37617721 0.00018389711            0   0.37599331    1.5048344    1.8810116  -0.86420991 
 5925000    1.0269583 6.1273666e-07   0.36535484 0.0092799986            0   0.35607484    1.5019266    1.8672814    1.9300256 
 5930000    1.0967328 8.5233648e-05   0.26248548  0.022815247            0   0.23967023    1.6039718    1.8664573    10.594383 
 5935000    1.0384222 2.0728293e-05   0.34907217   0.01232824            0   0.33674392    1.5186925    1.8677646    3.9903418 
 5940000     1.032771 -7.2112692e-05    0.3257241 0.0017778481            0   0.32394625    1.5104276    1.8361517    -5.548188 
 5945000    0.9730357 -6.4828963e-05   0.45967458 0.0058440162            0   0.45383057    1.4230647    1.8827393   -4.7557465 
 5950000    1.0660547 1.9964611e-06   0.30076053 0.0044545698            0   0.29630596     1.559105    1.8598655    2.0643032 
 5955000    1.0369628 6.6276973e-05   0.33566665 0.00099758302            0   0.33466907    1.5165582    1.8522248    8.6389869 
 5960000    1.0370739 7.5437371e-05    0.3392915 0.0050566656            0   0.33423484    1.5167206    1.8560121    9.5807989 
 5965000    1.0516367 4.8330131e-05   0.32590722  0.034541881            0   0.29136534    1.5380187    1.8639259    6.8129313 
 5970000   0.89920464 -2.6252031e-05    0.4861956  0.017064765            0   0.46913083    1.3150868    1.8012824  -0.88692558 
 5975000   0.97562128 -2.788455e-05   0.34677228 0.0005094458            0   0.34626283    1.4268461    1.7736184   -1.0817595 
 5980000   0.91195733 2.3596558e-05   0.45021592 0.0013361404            0   0.44887978    1.3337376    1.7839535     4.200241 
 5985000   0.87528385 7.1337415e-05   0.52850234   0.07318223            0   0.45532011    1.2801026     1.808605    9.1135563 
 5990000   0.93927497 -7.2651872e-06   0.39581174  0.055283968            0   0.34052777    1.3736896    1.7695014    1.0255462 
 5995000   0.97008925 -7.7821222e-05   0.36180121  0.016461946            0   0.34533926    1.4187555    1.7805567   -6.1883364 
 6000000   0.96461537 -1.3441005e-06   0.38819567  0.015009067            0    0.3731866      1.41075    1.7989456    1.6613098 
 6005000   0.85877975 4.744595e-05   0.52727476  0.033661589            0   0.49361317    1.2559654    1.7832401    6.6417055 
 6010000   0.90616316 -5.219436e-06   0.46403528  0.046391872            0    0.4176434    1.3252636    1.7892989    1.2548286 
 6015000   0.99344261 -4.5905535e-05   0.37973653  0.013092669            0   0.36664386    1.4529098    1.8326463   -2.8680805 
 6020000   0.98331514 -4.6109751e-06   0.41294317 0.00098011855            0   0.41196305    1.4380984    1.8510416    1.3788777 
 6025000   0.92145897 1.2069669e-05   0.50218585            0            0   0.50218585    1.3476337    1.8498196    3.0857537 
 6030000   0.98886406 8.2711275e-07   0.42947629            0            0   0.42947629    1.4462137      1.87569    1.9603863 
 6035000    1.0738391 -8.3620671e-05   0.28830031 0.00063450031            0   0.28766581    1.5704897      1.85879   -6.7039666 
 6040000    1.0026878 -2.9051711e-05   0.41453873 0.0012125014            0   0.41332623    1.4664309    1.8809697   -1.0939256 
 6045000    1.0435604 8.1688609e-05   0.35281215 2.8494425e-06            0    0.3528093    1.5262071    1.8790192    10.243933 
 6050000   0.92758506 8.5304864e-05   0.52450024 0.0074611913            0   0.51703905    1.3565932    1.8810934    10.616311 
 6055000   0.90937553 2.5950006e-05   0.49998708  0.073446107            0   0.42654098    1.3299617    1.8299488    4.4872295 
 6060000    1.0006566 -1.6247584e-05   0.41719964  0.076298827            0   0.34090081    1.4634603      1.88066   0.21690733 
 6065000    1.0055906 4.3536828e-05   0.39610618  0.013200175            0     0.382906    1.4706763    1.8667825    6.3249536 
 6070000   0.93478777 5.4186201e-05   0.50103589  0.013993294            0    0.4870426    1.3671271     1.868163      7.41683 
 6075000   0.90651823 1.3648791e-05   0.52693175  0.027245786            0   0.49968597    1.3257829    1.8527147    3.2503508 
 6080000   0.92677776 2.2239664e-05   0.50108742    0.1152682            0   0.38581921    1.3554125    1.8564999    4.1338415 
 6085000    1.0400096 9.3134817e-07   0.38081141  0.033924698            0   0.34688671    1.5210141    1.9018255    1.9971955 
 6090000   0.96980351 -4.2832587e-05   0.49161066 0.0026463495            0   0.48896432    1.4183376    1.9099483   -2.4761086 
 6095000    1.0340116 -4.9530029e-05   0.41109453  0.011404272            0   0.39969026    1.5122419    1.9233364   -3.1485386 
 6100000   0.95585332 -4.4883977e-05   0.50675832  0.043863253            0   0.46289506    1.3979355    1.9046938   -2.6914255 
 6105000    1.0917726 -3.8330672e-05   0.33160659  0.013254253            0   0.31835233    1.5967175    1.9283241   -1.9967367 
 6110000   0.95766772 -3.9675055e-06    0.5262876  0.060671823            0   0.46561578     1.400589    1.9268766    1.5206041 
 6115000    1.0023328 2.9217518e-05   0.40061342  0.049277372            0   0.35133605    1.4659117    1.8665251     4.858399 
 6120000   0.99028889 6.3837428e-06   0.41325379  0.033770647            0   0.37948314    1.4482975    1.8615513    2.5152465 
 6125000   0.92899533 -1.4292386e-05   0.52554534  0.026052572            0   0.49949277    1.3586557     1.884201   0.42066071 
 6130000   0.98544726 -7.258926e-05   0.40640093  0.048290994            0   0.35810994    1.4412166    1.8476176   -5.5855227 
 6135000   0.83469547 -5.485687e-05   0.64390025  0.041847221            0   0.60205303    1.2207421    1.8646424   -3.7527011 
 6140000     1.031642 -2.6034775e-06    0.3989088  0.015644227            0   0.38326458    1.5087765    1.9076853    1.6410892 
 6145000   0.95190364 -6.01583e-05   0.51593015   0.03473386            0   0.48119629    1.3921591    1.9080892   -4.2521207 
 6150000   0.99236285 -5.9780819e-05    0.4444239  0.032564524            0   0.41185938    1.4513307    1.8957546   -4.2258013 
 6155000   0.97392578 2.5594649e-05    0.4756182  0.017490045            0   0.45812816    1.4243665    1.8999847    4.5208767 
 6160000   0.98425382 8.7422417e-05   0.38649761  0.014316851            0   0.37218075    1.4394712    1.8259688    10.778024 
 6165000   0.96063419 5.5557296e-05   0.41433525 0.0024712981            0   0.41186396    1.4049275    1.8192628    7.5083299 
 6170000   0.98129068 2.829223e-05   0.40225643     0.001305            0   0.40095143    1.4351376    1.8373941    4.7345184 
 6175000    0.9731568 8.3773719e-06    0.4177448 0.0070289388            0   0.41071586    1.4232418    1.8409866    2.6988295 
 6180000   0.97958472 3.0390869e-05   0.43756322  0.034842568            0   0.40272066    1.4326426    1.8702059    4.9822309 
 6185000   0.89709048 0.0001002329   0.58310178  0.067790109            0   0.51531167    1.3119948    1.8950966    12.158945 
 6190000   0.95665937 3.7321947e-05   0.47824084  0.035900869            0   0.44233997    1.3991143    1.8773552    5.6991226 
 6195000   0.92964321 -5.3038071e-05   0.48736202 0.0062108208            0    0.4811512    1.3596032    1.8469652   -3.5841332 
 6200000    1.0334568 -2.2391877e-05   0.31190563 0.0062362091            0   0.30566942    1.5114306    1.8233362  -0.46959197 
 6205000   0.98173954 -1.9329981e-05   0.40235408 0.0015772922            0   0.40077678    1.4357941    1.8381481   -0.1412419 
 6210000   0.95202507 -1.6084495e-05    0.4248355            0            0    0.4248355    1.3923367    1.8171722   0.17011985 
 6215000   0.94756102 4.3905588e-06   0.38528538 0.00018837486            0     0.385097     1.385808    1.7710934    2.2206866 
 6220000   0.82455623 6.4302321e-05   0.52444465 0.0020920828            0   0.52235257    1.2059135    1.7303581    8.3149158 
 6225000   0.89659933 7.1309884e-05   0.40546627  0.003586493            0   0.40187978    1.3112765    1.7167428    9.0188749 
 6230000   0.88183391 -3.646777e-05   0.41979553 0.0042901972            0   0.41550533    1.2896821    1.7094776   -2.0248221 
 6235000   0.85957321 -1.9108653e-05   0.41256298   0.01693596            0   0.39562702    1.2571258    1.6696888  -0.28703727 
 6240000   0.80381157 5.0531245e-05   0.47487075  0.018190433            0   0.45668031    1.1755744    1.6504452    6.8248447 
 6245000   0.81168548 3.1026158e-05   0.42082223 0.0015907984            0   0.41923143      1.18709    1.6079122    4.7849908 
 6250000   0.92702747 6.4360273e-06   0.25496494            0            0   0.25496494    1.3557777    1.6107426    2.2697918 
 6255000   0.82916954 -3.4376419e-05   0.37975053  0.014927129            0    0.3648234    1.2126605     1.592411   -1.9277343 
 6260000   0.80537613 -2.1985496e-05   0.42455884  0.048310509            0   0.37624833    1.1778626    1.6024214  -0.64889334 
 6265000   0.72439008 -9.0227871e-06   0.51422212  0.014615749            0   0.49960637    1.0594205    1.5736426   0.64970921 
 6270000   0.85475609 -7.1637715e-05   0.35567992  0.034117794            0   0.32156213    1.2500808    1.6057607   -5.7299413 
 6275000   0.83749215 -0.00012070919   0.37046471  0.032031561            0   0.33843315    1.2248323     1.595297   -10.765324 
 6280000   0.86634779 -4.5759482e-05    0.3596989 0.0045885876            0   0.35511031    1.2670336    1.6267325   -3.0590384 
 6285000   0.84144662 8.8515849e-05    0.4079048 0.0028587485            0   0.40504606    1.2306157    1.6385205    10.702543 
 6290000   0.87410156 0.00010904507   0.39975402 0.0048334927            0   0.39492053    1.2783735    1.6781276    12.844342 
 6295000    0.8337512 3.9548287e-05   0.48583338  0.002497192            0   0.48333618    1.2193611    1.7051945    5.7549391 
 6300000   0.88440491 3.1794977e-05    0.4175063 0.00019724409            0   0.41730905    1.2934422    1.7109485    4.9667541 
 6305000   0.89378536 -4.6519204e-05   0.44235218 0.0050252298            0   0.43732695    1.3071611    1.7495133   -3.0140532 
 6310000    0.8886381 2.7708789e-06    0.4942782  0.041672161            0   0.45260604    1.2996332    1.7939114    2.0776494 
 6315000   0.91217755 6.1713806e-05   0.47674797  0.050075987            0   0.42667198    1.3340597    1.8108076    8.1303014 
 6320000   0.86260475 6.9955945e-05   0.55702029   0.12791034            0   0.42910995    1.2615594    1.8185797    8.9820685 
 6325000   0.85728424 0.00010657591   0.56432734  0.026640978            0   0.53768636    1.2537782    1.8181055    12.731479 
 6330000   0.85534948 0.00013424814   0.59189823  0.039634695            0   0.55226353    1.2509486    1.8428468    15.589857 
 6335000   0.82339266 6.2655433e-05   0.60077454  0.029804691            0   0.57096985    1.2042118    1.8049863    8.2209026 
 6340000    0.8300809 -3.575299e-05   0.60148796  0.020888526            0   0.58059943    1.2139933    1.8154813    -1.845625 
 6345000   0.92092122 -7.4082518e-05   0.46351816  0.016290808            0   0.44722735    1.3468473    1.8103654   -5.7756844 
 6350000   0.99965886 -7.9323923e-05   0.36148549  0.020845325            0   0.34064016    1.4620011    1.8234866   -6.2992831 
 6355000   0.93874592 -4.950439e-05   0.46605153  0.011230495            0   0.45482103    1.3729159    1.8389674   -3.2302821 
 6360000   0.83545403 -6.0284748e-06   0.60671506 0.0036688148            0   0.60304625    1.2218515    1.8285666    1.2112508 
 6365000   0.92147975 1.5768571e-05    0.4579998 0.0041237943            0   0.45387601    1.3476641    1.8056639    3.4203656 
 6370000   0.94422434 -8.5414717e-06   0.45375939 0.0011443431            0   0.45261505    1.3809281    1.8346875   0.96004079 
 6375000   0.93494852 -4.6264715e-05   0.51013465            0            0   0.51013465    1.3673622    1.8774969     -2.86001 
 6380000   0.92045236 -4.6579302e-05   0.54020746 0.0010669576            0    0.5391405    1.3461616     1.886369   -2.8833514 
 6385000    1.0262157 -1.8889051e-05   0.38161839  0.042886842            0   0.33873155    1.5008404    1.8824588 -0.051780012 
 6390000     1.018995 4.8822666e-05   0.38800863  0.031849288            0   0.35615934    1.4902802    1.8782888    6.8777298 
 6395000     1.022586 0.00010619199   0.40685492  0.018824539            0   0.38803038     1.495532    1.9023869    12.776447 
 6400000   0.92209786 9.3689826e-05   0.51820836  0.033425387            0   0.48478297    1.3485681    1.8667765    11.460615 
 6405000   0.85940958 8.3081561e-05   0.62913906  0.025313775            0   0.60382529    1.2568865    1.8860256    10.393577 
 6410000   0.97255441 4.7694159e-05   0.45686823  0.027752206            0   0.42911602    1.4223608     1.879229    6.7631109 
 6415000   0.96807214 -6.1553074e-06   0.48037735  0.010768318            0   0.46960903    1.4158055    1.8961829    1.2658794 
 6420000   0.92404083 -8.8480426e-05   0.56344565 0.0073454124            0   0.55610024    1.3514097    1.9148554   -7.1455403 
 6425000   0.89800687 -6.3085426e-05   0.53009945  0.026539013            0   0.50356044     1.313335    1.8434345   -4.6165132 
 6430000   0.94885822 4.5806638e-05   0.46076245  0.022424416            0   0.43833804    1.3877052    1.8484676    6.5390673 
 6435000   0.94606267 0.0001024137   0.51434001  0.047406108            0    0.4669339    1.3836167    1.8979567    12.385119 
 6440000   0.94497423 6.7579876e-05   0.51068929   0.03659987            0   0.47408942    1.3820248    1.8927141    8.8128934 
 6445000   0.87009159 5.7039654e-07   0.60659428 0.0073515627            0   0.59924271     1.272509    1.8791032    1.9375118 
 6450000   0.94756762 -2.8868798e-05   0.48625816 0.0048685121            0   0.48138965    1.3858176    1.8720758   -1.0840891 
 6455000    1.0250852 -4.622774e-06   0.36733986  0.010668461            0    0.3566714    1.4991871     1.866527    1.3931549 
 6460000   0.90629016 5.4639632e-06   0.51693737  0.011752252            0   0.50518512    1.3254494    1.8423867    2.4018966 
 6465000    0.9526708 -1.0791507e-05   0.49212096 0.0032389425            0   0.48888202     1.393281     1.885402   0.78035165 
 6470000   0.94362582 5.0761606e-05   0.53020031 0.0063937105            0    0.5238066    1.3800528    1.9102531    7.1082415 
 6475000   0.95107518 6.4924238e-05   0.50681574 0.0039212151            0   0.50289452    1.3909474    1.8977632    8.5460051 
 6480000   0.95491909 -5.4298998e-05   0.50210932 0.00040972761            0   0.50169959    1.3965692    1.8986785   -3.6615389 
 6485000   0.99809382 3.7440312e-05   0.42204728            0            0   0.42204728    1.4597122    1.8817595    5.7156475 
 6490000   0.95791161 9.7464408e-05   0.47454004 0.0074324261            0   0.46710761    1.4009457    1.8754858    11.855841 
 6495000   0.94949473 -8.3483461e-05   0.46272782  0.039184005            0   0.42354382     1.388636    1.8513639   -6.6973425 
 6500000   0.94976802 -0.00010977137   0.46100353  0.025256459            0   0.43574707    1.3890357    1.8500393   -9.3905495 
 6505000   0.89319309 2.6788463e-05   0.51623441  0.012787077            0   0.50344733    1.3062949    1.8225293     4.565668 
 6510000   0.93304727 0.00012238422   0.46107377  0.023158878            0   0.43791489    1.3645816    1.8256554    14.357799 
 6515000   0.99891529 7.5403397e-05   0.37365749 0.0065859207            0   0.36707157    1.4609136    1.8345711     9.555879 
 6520000   0.85590143 -1.8129573e-05   0.57428865 0.0047540769            0   0.56953457    1.2517558    1.8260445 -0.030423768 
 6525000   0.87569865 -4.2503184e-05   0.51662882 0.0042359951            0   0.51239282    1.2807093    1.7973381   -2.5549879 
 6530000   0.81858195 -2.2732217e-05   0.57662511 0.0065753174            0    0.5700498    1.1971761    1.7738012  -0.55397778 
 6535000   0.88403657 1.0146965e-05   0.45593062 0.0045519279            0   0.45137869    1.2929035    1.7488341    2.7878833 
 6540000   0.83282512 6.0397522e-06   0.51911824  0.014261443            0    0.5048568    1.2180067     1.737125    2.3555956 
 6545000   0.80862401 2.1705032e-05   0.54323064  0.070994413            0   0.47223622    1.1826126    1.7258433    3.9484386 
 6550000   0.84344564 6.4192276e-05   0.45866622  0.023078199            0   0.43558803    1.2335392    1.6922055    8.2654945 
 6555000   0.83685634 8.2404596e-05   0.48519722 0.0054856558            0   0.47971157    1.2239024    1.7090996     10.14733 
 6560000   0.84553988 8.093195e-05   0.43087933 0.00054783288            0   0.43033149    1.2366021    1.6674814    9.9549131 
 6565000   0.76889065 2.1697727e-05   0.53797031  0.015361339            0   0.52260897    1.1245026    1.6624729    3.8843201 
 6570000   0.81357658 2.993704e-05   0.50383077  0.032375375            0   0.47145539    1.1898557    1.6936865    4.7592394 
 6575000   0.89781892 3.8588988e-05   0.40683069  0.008508042            0   0.39832265    1.3130602    1.7198909    5.6714032 
 6580000   0.77229656 -1.9271712e-05   0.59545458  0.022686609            0   0.57276797    1.1294837    1.7249383    -0.248485 
 6585000   0.84898316 8.2256257e-06   0.47754717   0.03335696            0   0.44419021    1.2416379     1.719185    2.5614891 
 6590000   0.89916107 -5.9651139e-06   0.41128028  0.010761082            0    0.4005192    1.3150231    1.7263033    1.1154757 
 6595000   0.83257172 -5.6136418e-05   0.52936554   0.00305297            0   0.52631257    1.2176361    1.7470017   -4.0013675 
 6600000   0.82518805 1.9663916e-06    0.5166474 0.0054146028            0   0.51123279    1.2068375    1.7234849    1.9248434 
 6605000   0.83366226 1.5352989e-05   0.49043956 0.0072643175            0   0.48317524    1.2192311    1.7096706    3.2818166 
 6610000   0.83305002 -4.161336e-05   0.54619513  0.015076778            0   0.53111835    1.2183357    1.7645308   -2.4966773 
 6615000   0.89057457 1.4843251e-05   0.50707163  0.026305586            0   0.48076604    1.3024653    1.8095369    3.3294859 
 6620000   0.92678488 4.1944848e-05   0.45020955   0.01476049            0   0.43544906    1.3554229    1.8056324    6.1007849 
 6625000   0.91078461 -1.9468398e-05   0.45197008  0.016267532            0   0.43570254    1.3320225    1.7839926  -0.20957139 
 6630000   0.86144148 -2.9232598e-05   0.52158101 0.0090194692            0   0.51256154    1.2598582    1.7814392   -1.2119788 
 6635000   0.82620474 4.8121013e-05   0.56836716 0.0027132758            0   0.56565389    1.2083244    1.7766916    6.7042833 
 6640000   0.97632562 5.8381145e-05   0.35559112 0.00020274056            0   0.35538838    1.4278762    1.7834673    7.7616965 
 6645000   0.81179525 2.6152755e-06   0.60049975 0.00077985815            0   0.59971989    1.1872506    1.7877503    2.0555545 
 6650000   0.89901906 2.7090698e-05   0.46402569  0.025071162            0   0.43895453    1.3148154    1.7788411    4.5529286 
 6655000   0.86633351 2.4444308e-05   0.48237074  0.019328969            0   0.46304177    1.2670128    1.7493835    4.2524807 
 6660000   0.89144273 -1.7443527e-05   0.47151928  0.009254727            0   0.46226455     1.303735    1.7752543 -0.010962909 
 6665000   0.89139338 -3.6043588e-05   0.52386345  0.020866237            0   0.50299721    1.3036628    1.8275263   -1.8633372 
 6670000   0.81318596 -1.4189551e-05   0.64293246  0.041816583            0   0.60111587    1.1892845    1.8322169   0.37920692 
 6675000   0.90175161 7.5103224e-05   0.52256727  0.026452837            0   0.49611443    1.3188117     1.841379    9.5319492 
 6680000   0.89620755 1.3529494e-05   0.50149387  0.004004492            0   0.49748938    1.3107035    1.8121974    3.1976176 
 6685000   0.86059501 -3.2182448e-05    0.5439047  0.006647643            0   0.53725706    1.2586202    1.8025249   -1.4929578 
 6690000    0.8073962 -8.7830946e-06    0.6002388  0.023507443            0   0.57673135    1.1808169    1.7810557   0.88166686 
 6695000   0.87751497 -0.00012195312    0.5291465  0.029596447            0   0.49955006    1.2833656    1.8125121   -10.675487 
 6700000    0.9314641 -8.12231e-05   0.42123993 0.0023456108            0   0.41889432    1.3622663    1.7835062   -6.5337393 
 6705000   0.83728716 3.1914392e-05   0.55345753            0            0   0.55345753    1.2245325      1.77799    5.0460237 
 6710000   0.93847987 5.3024398e-05   0.42777575 0.0055793064            0   0.42219645    1.3725268    1.8003026    7.2300009 
 6715000   0.83881438 -3.7089237e-05   0.56348436  0.026396034            0   0.53708833     1.226766    1.7902504   -2.0076875 
 6720000   0.93885224 7.7516293e-05   0.46130402  0.024198255            0   0.43710576    1.3730714    1.8343754    9.7720438 
 6725000   0.92146789 7.1709075e-05   0.47590039  0.010751313            0   0.46514908    1.3476468    1.8235472    9.1665564 
 6730000   0.90999545 -2.7856882e-05   0.50072537   0.01938051            0   0.48134486    1.3308683    1.8315937    -1.020951 
 6735000   0.92772438 -1.9243343e-05   0.47105695 0.0066672265            0   0.46438972    1.3567969    1.8278538  -0.14266448 
 6740000   0.92833097 -9.1044451e-06   0.48017426 0.0037061613            0    0.4764681     1.357684    1.8378583   0.90556314 
 6745000   0.88903151 -0.00015139999   0.55638146 0.0028320364            0   0.55354942    1.3002086      1.85659   -13.646769 
 6750000   0.94793335 -6.8850128e-05   0.50488789 0.00045447786            0   0.50443342    1.3863525    1.8912404   -5.1590127 
 6755000   0.95790647 6.7040449e-05   0.49172968 2.8660037e-06            0   0.49172681    1.4009382    1.8926679    8.7576099 
 6760000   0.96064998 1.8110035e-05   0.46758074 0.00021389344            0   0.46736684    1.4049506    1.8725313    3.7269989 
 6765000   0.86401899 -2.5069347e-05   0.61242877  0.013442285            0   0.59898648    1.2636278    1.8760565  -0.69104459 
 6770000   0.96336413 3.3011731e-05   0.49471886   0.03800411            0   0.45671475      1.40892    1.9036389    5.2840402 
 6775000   0.97524015 0.00011409171   0.51405711 0.0079560244            0   0.50610109    1.4262887    1.9403458    13.623337 
 6780000    1.0103437 7.0302944e-05   0.48036005            0            0   0.48036005    1.4776277    1.9579877    9.1570092 
 6785000   0.98936264 1.5347888e-05   0.52660173  0.056990902            0   0.46961083    1.4469429    1.9735446    3.5451683 
 6790000   0.93092731 1.9440736e-06   0.60388311  0.051982327            0   0.55190079    1.3614812    1.9653643    2.1644374 
 6795000    1.0782383 -3.4484775e-05   0.43623901 0.0018145794            0   0.43442443    1.5769236    2.0131626   -1.5180783 
 6800000    0.9738947 -2.8142175e-05    0.5644302 0.00053863552            0   0.56389157     1.424321    1.9887512  -0.89300751 
 6805000    1.0632987 6.3918548e-05   0.45270233 0.0049130287            0    0.4477893    1.5550743    2.0077766     8.553036 
 6810000     1.045715 7.429373e-05   0.44854163 0.0094795258            0    0.4390621    1.5293582    1.9778999    9.5855779 
 6815000     1.013277 5.3613157e-05   0.47534253 0.0057198579            0   0.46962267    1.4819177    1.9572602    7.4472475 
 6820000    1.0067759 3.5344507e-05   0.47137108  0.014979976            0   0.45639111    1.4724097    1.9437808    5.5630583 
 6825000   0.96599213 -6.0607092e-05   0.56916941  0.029787267            0   0.53938215    1.4127635    1.9819329   -4.2242333 
 6830000   0.96173829 -5.8863345e-05   0.57630836   0.02050404            0   0.55580432    1.4065422    1.9828506   -4.0447559 
 6835000    1.0697677 -1.6499848e-05   0.39332367 0.0041053024            0   0.38921836    1.5645353     1.957859   0.26827451 
 6840000   0.91864222 -4.5529399e-05   0.61467362 0.0017102588            0   0.61296336    1.3435142    1.9581879   -2.7040226 
 6845000    1.0907277 -6.1303201e-05   0.40029397  0.010235578            0    0.3900584    1.5951892    1.9954832   -4.2819645 
 6850000    1.0620906 -2.180526e-05   0.45573325  0.058640865            0   0.39709239    1.5533075    2.0090408  -0.22381783 
 6855000    1.0341716 -1.1787147e-05   0.49544388  0.027583236            0   0.46786064    1.5124759    2.0079198    0.8009159 
 6860000   0.94122022 3.4883899e-06   0.60603578 0.0014063977            0   0.60462939    1.3765346    1.9825704    2.3397815 
 6865000   0.92571851 6.9730656e-05   0.63249987 0.0042176882            0   0.62828218    1.3538633    1.9863632    9.1267824 
 6870000    1.0016922 2.4173315e-05   0.56624467  0.011625367            0   0.55461931    1.4649749    2.0312196     4.506567 
 6875000    1.0200191 -5.6981456e-05   0.52111954  0.091087214            0   0.43003233    1.4917779    2.0128975   -3.8220036 
 6880000   0.94772982 -2.9875361e-05   0.62778687  0.075000441            0   0.55278643    1.3860549    2.0138417   -1.0453953 
 6885000    1.0397718 1.2071003e-05   0.51324389  0.019561255            0   0.49368264    1.5206662    2.0339101    3.2699809 
 6890000   0.96205563 6.2872786e-05   0.59663033 0.0077911029            0   0.58883922    1.4070064    2.0036367    8.4418099 
 6895000    1.0603309 8.8296408e-05   0.41519678  0.011100887            0   0.40409589    1.5507339    1.9659307    11.007483 
 6900000   0.90982957 7.9363558e-05   0.64021106  0.013639229            0   0.62657183    1.3306258    1.9708368    10.097665 
 6905000   0.98526222 8.1032935e-05   0.55742729 0.0086508805            0   0.54877641     1.440946    1.9983733    10.296146 
 6910000    1.1168776 5.8514584e-05    0.3898758 0.0031854882            0   0.38669032    1.6334335    2.0233093    8.0152027 
 6915000   0.98122864 1.2073025e-05   0.60166272 0.00029109984            0   0.60137162    1.4350469    2.0367096    3.2729874 
 6920000    1.0394242 -4.6581142e-05   0.53434575 0.0011574515            0    0.5331883    1.5201579    2.0545037   -2.7154053 
 6925000    1.1018275 -6.0238538e-05    0.4664988  0.038106294            0   0.42839251    1.6114227    2.0779215   -4.0905048 
 6930000    1.0747982 2.5996491e-05   0.49893444  0.072125333            0   0.42680911    1.5718923    2.0708268    4.7328674 
 6935000    1.0581583 6.5341357e-05   0.51163081  0.027790895            0   0.48383991    1.5475565    2.0591873    8.7501422 
 6940000     1.038903 1.2647289e-05   0.52768799  0.060064185            0   0.46762381    1.5193956    2.0470836     3.342166 
 6945000    1.0198652 -7.6830555e-05   0.55346448  0.086022793            0   0.46744168    1.4915528    2.0450173   -5.8224315 
 6950000   0.95174883 -8.6728136e-05   0.67789624   0.02223799            0   0.65565825    1.3919327    2.0698289   -6.8111322 
 6955000   0.99557627 -3.8627269e-05   0.56471712  0.036696738            0   0.52802039    1.4560303    2.0207474   -1.9346849 
 6960000   0.94185499 1.4005937e-05   0.63522415  0.020873095            0   0.61435106    1.3774629    2.0126871     3.446895 
 6965000    1.0619972 3.5750456e-05   0.46026558 9.2665305e-05            0   0.46017292    1.5531708    2.0134364    5.6742831 
 6970000    0.9555733 2.067462e-05   0.58174675            0            0   0.58174675     1.397526    1.9792727    4.0963537 
 6975000    1.0622188 -2.7568085e-05   0.46102987            0            0   0.46102987     1.553495    2.0145249  -0.80844703 
 6980000   0.94395397 -7.8659309e-05   0.63598496 0.0023645857            0   0.63362037    1.3805327    2.0165176   -6.0381956 
 6985000   0.98576856 -3.1823542e-05   0.54820338  0.010363316            0   0.53784006    1.4416865    1.9898899   -1.2688408 
 6990000    1.0309147 2.1061856e-05    0.5391929  0.019348771            0   0.51984413    1.5077127    2.0469056    4.2036396 
 6995000    1.0483483 -3.7165845e-05   0.52501142  0.049159497            0   0.47585192    1.5332094    2.0582208   -1.7475617 
 7000000    1.0343078 -4.361821e-05   0.53481816  0.012061524            0   0.52275664    1.5126752    2.0474933   -2.4190113 
 7005000    1.0797404 4.0719569e-05   0.44453971  0.034443293            0   0.41009642    1.5791203      2.02366    6.1933439 
 7010000    1.0726139 -1.7248545e-05    0.4552014  0.053382392            0   0.40181901    1.5686979    2.0238993   0.25764825 
 7015000   0.93101751 -5.2528646e-05    0.5643744   0.03675273            0   0.52762167    1.3616131    1.9259875   -3.4529458 
 7020000   0.95653214 2.4820158e-05   0.55223358  0.026900614            0   0.52533297    1.3989283    1.9511618     4.492746 
 7025000    1.0438166 1.8357489e-06   0.41138546  0.001079115            0   0.41030635    1.5265818    1.9379672    2.1259479 
 7030000    1.0134442 3.9964287e-05   0.45604463            0            0   0.45604463    1.4821621    1.9382067    6.0305497 
 7035000   0.89503272 5.3714675e-05   0.62856629 0.0081642179            0   0.62040208    1.3089853    1.9375516    7.4379344 
 7040000   0.96857148 -2.5400894e-05   0.50725461  0.024382079            0   0.48287253    1.4165358    1.9237904  -0.67726115 
 7045000   0.99526074  1.44789e-05   0.46758283  0.016653442            0   0.45092939    1.4555688    1.9231517    3.4057911 
 7050000    0.9224631 7.5334612e-05   0.57438617  0.015775047            0   0.55861112    1.3491023    1.9234885    9.6377528 
 7055000   0.92415078   4.4447e-05   0.56337939  0.057619743            0   0.50575965    1.3515705    1.9149499    6.4663227 
 7060000   0.94460328 2.309467e-05   0.53876756  0.016126574            0   0.52264098    1.3814823    1.9202499    4.2851441 
 7065000   0.91307408 -1.4700407e-05   0.56847147            0            0   0.56847147    1.3353708    1.9038423   0.39852065 
 7070000   0.97236124 4.3037645e-05   0.47157821 1.6814367e-05            0   0.47156139    1.4220783    1.8936565    6.3007114 
 7075000   0.90338445 6.9083328e-05   0.53998395            0            0   0.53998395    1.3211998    1.8611837    8.9353165 
 7080000    1.0147264 -2.6621192e-05   0.42343605            0            0   0.42343605    1.4840373    1.9074734  -0.81853668 
 7085000     1.044424 -4.0997555e-05   0.35622057            0            0   0.35622057    1.5274701    1.8836907    -2.314459 
 7090000   0.94852539 -2.9032372e-06   0.52207302 0.0049675671            0   0.51710545    1.3872184    1.9092914    1.6119999 
 7095000    1.0346675 -5.652453e-07   0.41792003  0.010143554            0   0.40777648    1.5132013    1.9311213    1.8732402 
 7100000   0.92217952 -4.9572826e-06   0.57042167  0.019145421            0   0.55127625    1.3486875    1.9191092    1.4114835 
 7105000    1.0329993 -1.3031445e-05   0.43854702   0.03449466            0   0.40405236    1.5107615    1.9493086   0.61488856 
 7110000   0.93842849 -4.2842367e-06   0.56673009  0.010141858            0   0.55658823    1.3724517    1.9391817    1.5004759 
 7115000   0.97293957 -6.603844e-05   0.54801665  0.015988875            0   0.53202777    1.4229241    1.9709408   -4.7913955 
 7120000   0.94091523 -0.00010232365   0.58218872  0.057747916            0   0.52444081    1.3760885    1.9582772   -8.5196641 
 7125000   0.94162605 -0.00010020661    0.6152615  0.068939726            0   0.54632177    1.3771281    1.9923896   -8.2687672 
 7130000   0.88051127 -7.8692486e-05   0.67053727  0.048989113            0   0.62154816    1.2877477     1.958285   -6.0998256 
 7135000    0.9884608 -3.7921191e-05   0.50698201   0.04823676            0   0.45874525    1.4456239    1.9526059    -1.930524 
 7140000   0.95887031 -7.1820704e-05   0.55628214 0.0070432188            0   0.54923893    1.4023478      1.95863   -5.3958102 
 7145000   0.96349509 -4.0001525e-05    0.5028521 0.0010093955            0    0.5018427    1.4091116    1.9119637   -2.1841925 
 7150000    1.0308889 3.2668335e-05   0.41139601 0.00091489348            0   0.41048112     1.507675     1.919071    5.2643086 
 7155000   0.98099798 1.4595156e-05   0.49122726 0.00096447514            0   0.49026278    1.4347095    1.9259368    3.4204807 
 7160000   0.99285381 2.2927258e-05   0.47115599 0.0034736681            0   0.46768233    1.4520487    1.9232047    4.2709559 
 7165000   0.99374504 2.0817808e-05   0.48269102 0.0024974817            0   0.48019354    1.4533521    1.9360431    4.0677867 
 7170000   0.94363996 -5.5487356e-06   0.49218348 0.00011568748            0   0.49206779    1.3800734    1.8722569    1.3040664 
 7175000    1.0031089 -5.2541716e-05    0.4072336 0.00031159424            0   0.40692201    1.4670467    1.8742803   -3.5059914 
 7180000   0.98646705 -8.2100465e-05   0.42474115   0.01013607            0   0.41460508    1.4427081    1.8674492   -6.5396384 
 7185000   0.92684007 1.804653e-05   0.51450147  0.021198017            0   0.49330346    1.3555036    1.8700051    3.7179697 
 7190000    1.0008308 9.8963827e-05   0.41740494    0.0172112            0   0.40019374     1.463715      1.88112    12.015016 
 7195000    1.0026571 4.6532233e-05   0.48499488 0.0043808679            0   0.48061401     1.466386    1.9513809    6.7162815 
 7200000    1.1081362 8.1822259e-06   0.37586517            0            0   0.37586517    1.6206492    1.9965143    2.8343743 
 7205000    1.0968707 -1.8369931e-05   0.38084665 9.8810658e-05            0   0.38074783    1.6041734    1.9850201   0.10393916 
 7210000   0.97590205 -4.1118055e-05   0.51014828 0.0052965589            0   0.50485172    1.4272567     1.937405   -2.2730838 
 7215000    1.0280916 -1.6181576e-05   0.42975745  0.021757175            0   0.40800027     1.503584    1.9333414   0.27634807 
 7220000    0.9739314 -3.8149594e-05   0.49259372  0.030815274            0   0.46177845    1.4243747    1.9169684     -1.98955 
 7225000   0.99193583 -4.3067152e-05   0.45858633  0.063879448            0   0.39470688    1.4507061    1.9092925   -2.5007839 
 7230000   0.94929054 -2.0691475e-05    0.5333436  0.021128475            0   0.51221513    1.3883374     1.921681  -0.19712604 
 7235000   0.94948454 -2.9405902e-05   0.54246929   0.02468928            0   0.51778001    1.3886211    1.9310904   -1.0800739 
 7240000    0.9865614 -7.8273442e-05   0.47297346 0.0038441891            0   0.46912927     1.442846    1.9158195    -6.099381 
 7245000   0.99849763 -1.2256102e-05    0.4380039 0.0011293463            0   0.43687455    1.4603028    1.8983067   0.64328179 
 7250000    1.0463759 -7.647355e-07   0.35595653 0.0062813641            0   0.34967517    1.5303247    1.8862812    1.8079723 
 7255000    1.0352339 2.0753299e-05   0.41099143   0.01930962            0   0.39168181    1.5140296    1.9250211    4.0501588 
 7260000   0.91466889 1.8122095e-05   0.59600709  0.064545235            0   0.53146185    1.3377033    1.9337103    3.7894129 
 7265000    1.0431137 -6.0002835e-06   0.45802873  0.039836067            0   0.41819267    1.5255537    1.9835825    1.3691534 
 7270000    1.0340023 2.5728653e-06   0.47110259 0.0031238806            0   0.46797871    1.5122283    1.9833309    2.2467923 
 7275000    1.0319125 -8.8583363e-06   0.42631972  0.010636636            0   0.41568308     1.509172    1.9354917    1.0283981 
 7280000   0.98894885 3.2138972e-05   0.47740252  0.049706657            0   0.42769587    1.4463377    1.9237402    5.2147709 
 7285000   0.98474913 4.2241137e-05   0.45865894  0.039443637            0   0.41921531    1.4401956    1.8988545    6.2243469 
 7290000   0.96632261 2.2039636e-05    0.4900584  0.065957065            0   0.42410133    1.4132468    1.9033052     4.160164 
 7295000    0.9868575 2.3442903e-05    0.4855008 0.0010982492            0   0.48440255    1.4432791    1.9287799    4.3293332 
 7300000   0.99920903 5.2922001e-06   0.43493035            0            0   0.43493035    1.4613432    1.8962736    2.4381948 
 7305000     1.008085 -1.8041342e-05   0.39164379            0            0   0.39164379    1.4743243    1.8659681  0.018534692 
 7310000     1.002207 -4.7582771e-05   0.43025457 0.0043129065            0   0.42594166    1.4657277    1.8959823   -2.9764935 
 7315000   0.90485995 -3.202396e-05   0.56723418 0.0068120007            0   0.56042218    1.3233577    1.8905919   -1.3886616 
 7320000    1.1087624 4.8878123e-05   0.31887678 0.0072609988            0   0.31161578     1.621565    1.9404418    6.9455616 
 7325000      1.02829 4.3355685e-05   0.44765736  0.040826208            0   0.40683115    1.5038742    1.9515315    6.3911537 
 7330000   0.85430918 -2.5702776e-05    0.6650659  0.067740349            0   0.59732555    1.2494272    1.9144931  -0.71747121 
 7335000    1.0298106 7.4962976e-06   0.38913363 0.0049548281            0    0.3841788     1.506098    1.8952316    2.6628525 
 7340000    1.0006341 -2.4259701e-05   0.41285175  0.005401657            0    0.4074501    1.4634274    1.8762791  -0.60791429 
 7345000   0.91939368 -2.1390559e-05   0.53159579  0.042316816            0   0.48927897    1.3446133    1.8762091  -0.31418415 
 7350000   0.99013674 6.571465e-05   0.44132098  0.060190853            0   0.38113013     1.448075     1.889396    8.6185762 
 7355000   0.91505295 -1.7765601e-05   0.54022807  0.018308318            0   0.52191975    1.3382649     1.878493   0.05929546 
 7360000   0.96995497 -7.2096146e-05   0.49380208  0.044736787            0    0.4490653    1.4185591    1.9123612   -5.4702841 
 7365000    1.0755188 5.4388444e-05    0.3634325  0.048867784            0   0.31456472    1.5729462    1.9363787    7.5057553 
 7370000   0.87284573 0.00010216355   0.62639287  0.042498188            0   0.58389468    1.2765369    1.9029298    12.364477 
 7375000   0.91887262 9.0481607e-05   0.54479385  0.025016254            0   0.51977759    1.3438512    1.8886451    11.153962 
 7380000   0.95045076 0.00010067213   0.47969038  0.013114473            0   0.46657591    1.3900342    1.8697246    12.178551 
 7385000   0.91551817 2.3897717e-05   0.53794987  0.027569079            0   0.51038079    1.3389453    1.8768952    4.3240214 
 7390000   0.90639054 -4.6171826e-05   0.59392519 0.0072648087            0   0.58666038    1.3255962    1.9195214   -2.8084736 
 7395000   0.99928633 5.0326497e-05   0.42432983  0.013155709            0   0.41117412    1.4614563    1.8857861    7.0392193 
 7400000   0.92691972 6.5075005e-05   0.54613216  0.025516539            0   0.52061562    1.3556201    1.9017522    8.5654327 
 7405000   0.88162982 7.5532425e-06   0.63108248  0.019910918            0   0.61117156    1.2893836    1.9204661    2.6939181 
 7410000   0.97874328 9.7557016e-05   0.47065752 0.0085725952            0   0.46208492    1.4314121    1.9020696    11.891908 
 7415000    1.0337202 -8.5288315e-06   0.40678456   0.01283295            0   0.39395161    1.5118158    1.9186004     1.045248 
 7420000   0.96794047 3.8280585e-05   0.46154487 0.0048630342            0   0.45668183    1.4156129    1.8771578    5.7970897 
 7425000   0.89329656 -3.0006163e-05   0.51217996 0.0050908683            0   0.50708909    1.3064462    1.8186262   -1.2540049 
 7430000   0.92640888 7.324632e-05     0.441117  0.013220706            0   0.42789629     1.354873      1.79599    9.2964131 
 7435000   0.85439642 1.4432629e-05   0.53720091   0.00663277            0   0.53056814    1.2495548    1.7867557    3.2646569 
 7440000   0.92465693 -7.9164801e-06     0.392206 0.0010630918            0   0.39114291    1.3523108    1.7445168    0.9338692 
 7445000   0.86570484 -6.3586572e-05   0.45130385  0.004066097            0   0.44723776    1.2660933    1.7173972   -4.7938677 
 7450000   0.98564093 -8.4655365e-06   0.26051005  0.009203576            0   0.25130647    1.4414999    1.7020099   0.83513897 
 7455000   0.79904206 1.8316678e-05   0.49161895  0.030374278            0   0.46124467     1.168599     1.660218    3.5358458 
 7460000   0.76052841 -2.4307036e-05   0.48378188   0.02533765            0   0.45844423    1.1122728    1.5960547  -0.89298575 
 7465000   0.81852299 -4.2187839e-05    0.4073138  0.015670623            0   0.39164318    1.1970899    1.6044037    -2.715631 
 7470000   0.79760114 -6.0770907e-05   0.43143332 0.0091535689            0   0.42227975    1.1664917     1.597925   -4.6250159 
 7475000   0.77863742 2.5759108e-05   0.43424455 0.00092065668            0   0.43332389    1.1387572    1.5730018    4.2107345 
 7480000   0.77998893 -7.9382354e-05   0.40209572 0.0021179263            0   0.39997779    1.1407338    1.5428295   -6.5859235 
 7485000   0.81524144 2.9145233e-05   0.37047361 0.0016590027            0   0.36881461    1.1922906    1.5627642     4.547236 
 7490000   0.79203362 -3.1386547e-05   0.40592376 0.00059106529            0   0.40533269    1.1583492    1.5642729   -1.6497095 
 7495000   0.74645707 1.5754437e-05   0.45699799  0.007842019            0   0.44915597    1.0916935    1.5486914    3.1619458 
 7500000   0.78165807 -1.9553822e-05   0.36935217  0.015814052            0   0.35353812    1.1431749    1.5125271  -0.48978431 
 7505000   0.69412484 7.7764495e-05   0.47138807 0.0036977997            0   0.46769027    1.0151576    1.4865456      9.44963 
 7510000   0.67865439 -6.6708135e-05   0.49714508 0.0040108697            0   0.49313421   0.99253204    1.4896771   -5.3412359 
 7515000   0.72148467 3.9380976e-05   0.43861554  0.012696258            0   0.42591928    1.0551713    1.4937869    5.5263988 
 7520000   0.72574731 4.4925272e-05    0.4526837  0.030350637            0   0.42233306    1.0614054    1.5140891     6.114437 
 7525000   0.77145433 -1.209189e-05   0.38640837  0.014272072            0    0.3721363     1.128252    1.5146603   0.27645075 
 7530000   0.74501886 1.1340499e-05   0.44066512 0.0022763542            0   0.43838877    1.0895901    1.5302552    2.6915223 
 7535000   0.79346413 -7.4821282e-05   0.43370137 0.0069396378            0   0.42676174    1.1604413    1.5941427   -6.0675566 
 7540000   0.77796362 3.436396e-05   0.43814041 0.0039571042            0   0.43418331    1.1377718    1.5759122    5.0947817 
 7545000   0.77448257 -3.3369931e-05   0.42596415 0.0018493588            0   0.42411479    1.1326808    1.5586449    -1.858436 
 7550000   0.77770423 -8.6785444e-05   0.41946595 4.3042373e-05            0    0.4194229    1.1373924    1.5568584   -7.3299711 
 7555000   0.82608616 1.4854665e-05   0.38376498  0.002889603            0   0.38087538     1.208151     1.591916    3.1130337 
 7560000   0.79989325 -3.8974498e-05   0.38866332 0.0093851682            0   0.37927815    1.1698439    1.5585072   -2.4324814 
 7565000   0.81237883 -2.1661001e-05   0.39237412   0.01433233            0   0.37804179     1.188104    1.5804782  -0.63760834 
 7570000   0.79007197 4.5794864e-05   0.41705505  0.011412883            0   0.40564217    1.1554803    1.5725353    6.2619293 
 7575000   0.74521433 2.2918041e-05   0.46393296 0.0031588772            0   0.46077408     1.089876    1.5538089    3.9006163 
 7580000   0.79036807 1.7557787e-06   0.43014601  0.010224267            0   0.41992174    1.1559133    1.5860593     1.765851 
 7585000   0.87874524 5.4133923e-05   0.30937341  0.019241151            0   0.29013226    1.2851649    1.5945383     7.137852 
 7590000   0.78361698 4.9443559e-05   0.45427257 0.0084382542            0   0.44583432    1.1460398    1.6003124    6.6633329 
 7595000   0.71371866 4.2330174e-06    0.5454392 0.0093061348            0   0.53613307    1.0438135    1.5892527    2.0227137 
 7600000   0.80520951 2.2302136e-05   0.41192404  0.040364653            0   0.37155939    1.1776189    1.5895429    3.8732817 
 7605000   0.81426609 -3.410234e-05   0.41001366  0.063056385            0   0.34695727    1.1908641    1.6008778   -1.8912018 
 7610000   0.75046524 -0.00012968295   0.50181661  0.045601855            0   0.45621475    1.0975554     1.599372   -11.680162 
 7615000   0.82979913 -4.3170436e-05   0.41809385  0.040660455            0   0.37743339    1.2135812    1.6316751   -2.7889775 
 7620000   0.88876637 -3.5075546e-05     0.314376  0.024589689            0   0.28978631    1.2998208    1.6141968   -1.9775391 
 7625000    0.8301806 -5.8497589e-05    0.4045696 0.0016746172            0   0.40289499    1.2141391    1.6187087   -4.3714444 
 7630000   0.83976396 0.00012430196   0.39364742 0.00080269322            0   0.39284473    1.2281548    1.6218022    14.350322 
 7635000   0.82397127 7.4113665e-05   0.40581888  0.007784046            0   0.39803483     1.205058    1.6108769    9.2001161 
 7640000   0.83482362 -4.3934094e-05   0.35200319  0.015198463            0   0.33680472    1.2209295    1.5729327   -2.9259185 
 7645000   0.88171367 -7.6240171e-05   0.33264082  0.011541412            0    0.3210994    1.2895062    1.6221471   -6.1848464 
 7650000   0.69125169 -0.00012308513     0.603947  0.026622875            0   0.57732413    1.0109556    1.6149026   -10.989015 
 7655000   0.89415702 -2.2371864e-05   0.30194075  0.012904184            0   0.28903656    1.3077046    1.6096454  -0.68123354 
 7660000   0.76640347 -7.1449845e-05    0.4597967 8.1008964e-08            0   0.45979662    1.1208651    1.5806618   -5.7358023 
 7665000   0.83496611 -4.4725758e-06    0.3497631            0            0    0.3497631    1.2211379     1.570901    1.1129093 
 7670000   0.89687195 1.8495907e-05   0.25924673            0            0   0.25924673    1.3116752     1.570922    3.4649029 
 7675000   0.77136403 -5.2001562e-05   0.46201253            0            0   0.46201253    1.1281199    1.5901324   -3.7348275 
 7680000   0.83078139 6.646904e-05   0.42078559 0.0016947493            0   0.41909084    1.2150178    1.6358034    8.4422331 
 7685000   0.89954123 -1.8169259e-05    0.3295308 0.0054002757            0   0.32413052     1.315579    1.6451098  -0.21542227 
 7690000   0.88074786 -6.2245537e-05   0.42928944 0.0062818054            0   0.42300763    1.2880937    1.7173832   -4.6565598 
 7695000    0.9023414 2.5309686e-05   0.40388396  0.035195499            0   0.36868846    1.3196743    1.7235583    4.3152701 
 7700000   0.82512786 -4.1231298e-05   0.50813936  0.037146947            0   0.47099241    1.2067495    1.7148889   -2.5071961 
 7705000   0.86179987 -4.917252e-05   0.47460928  0.015995852            0   0.45861343    1.2603823    1.7349916   -3.3002745 
 7710000   0.85611296 -5.883701e-05   0.49108244  0.099451144            0    0.3916313    1.2520652    1.7431476   -4.2817622 
 7715000    1.0158925 -1.231865e-05   0.27842183  0.020050659            0   0.25837117    1.4857428    1.7641646   0.50273478 
 7720000    0.8988314 0.00012352429   0.49341592 0.0065681209            0    0.4868478    1.3145409    1.8079568    14.456845 
 7725000   0.98957587 1.4983573e-06   0.33707488  0.024589133            0   0.31248574    1.4472547    1.7843296    1.9377614 
 7730000   0.96107063 -6.3440575e-06   0.41891466 0.0084465006            0   0.41046816    1.4055658    1.8244805     1.174849 
 7735000   0.90113185 0.00010956637   0.47733543 0.0026544915            0   0.47468094    1.3179053    1.7952408    13.014837 
 7740000   0.95228706 5.1576162e-05   0.36255492 0.0046397404            0   0.35791518    1.3927198    1.7552747    7.0366738 
 7745000   0.88289876 -1.1779759e-05   0.45291293 0.0042273472            0   0.44868558    1.2912394    1.7441524   0.53790506 
 7750000   0.90747526 -1.6588966e-06   0.40126694  0.040429271            0   0.36083767    1.3271826    1.7284495    1.5585785 
 7755000   0.85257117 4.168953e-06   0.48048047  0.016685831            0   0.46379464    1.2468853    1.7273658    2.1542666 
 7760000    0.8881732 8.2970018e-05   0.42750554  0.016021149            0   0.41148439    1.2989533    1.7264588    10.222589 
 7765000    0.8905014 4.7491442e-05   0.40307895  0.052225517            0   0.35085343    1.3023583    1.7054372    6.5685609 
 7770000   0.90508688 -7.9813692e-05   0.38578824  0.018961097            0   0.36682714    1.3236896    1.7094778   -6.4634442 
 7775000    0.9463371 -7.055434e-05   0.36747907  0.033459995            0   0.33401907     1.384018    1.7514971   -5.4732673 
 7780000   0.82782303 -2.4523835e-05   0.56046752  0.044846442            0   0.51562108    1.2106912    1.7711587  -0.74008201 
 7785000   0.91061106 -4.9425014e-05   0.48715683  0.020426704            0   0.46673012    1.3317687    1.8189255   -3.2421959 
 7790000    1.0238262 -8.2178437e-06   0.37092762 0.0017042771            0   0.36922334    1.4973458    1.8682734    1.0267662 
 7795000   0.96435373 6.4280986e-05   0.48168477 0.0093606294            0   0.47232414    1.4103673    1.8920521    8.4744251 
 7800000   0.94320905 2.3445153e-05   0.48499506  0.041394771            0   0.44360029    1.3794432    1.8644383    4.2652219 
 7805000    1.0034671 -0.00011166078    0.3956682  0.020647612            0   0.37502058    1.4675706    1.8632388   -9.5708251 
 7810000   0.96002403 -0.00011392396   0.47011429  0.006429268            0   0.46368502    1.4040351    1.8741494   -9.7916638 
 7815000    0.9142654 -1.6389412e-08   0.52015848  0.024295975            0   0.49586251    1.3371132    1.8572716    1.8555934 
 7820000    1.0290611 9.4529969e-06   0.32715135  0.011579264            0   0.31557208    1.5050019    1.8321533    2.8001402 
 7825000   0.93362408 -2.0587887e-05   0.44186778 0.00091039913            0   0.44095738    1.3654252     1.807293  -0.30090666 
 7830000   0.91999555 -3.1574255e-05   0.43628563  0.020169499            0   0.41611613    1.3454935    1.7817791   -1.4514246 
 7835000   0.77636671 -7.6844426e-05   0.63080586  0.043257747            0   0.58754812    1.1354363    1.7662422    -6.102627 
 7840000   0.94211508 -6.8665627e-05   0.38592324  0.011112287            0   0.37481096    1.3778433    1.7637665   -5.2675937 
 7845000   0.85783292 1.7871843e-05   0.48983307  0.079104155            0   0.41072891    1.2545806    1.7444137    3.5744905 
 7850000   0.91173411 6.6837031e-05    0.4588707  0.070795008            0   0.38807569    1.3334111    1.7922818    8.6363938 
 7855000   0.86536168 1.9320238e-05   0.51344342  0.017590167            0   0.49585325    1.2655915    1.7790349    3.7574273 
 7860000   0.97499373 -1.7868045e-05   0.36402573  0.027867064            0   0.33615867    1.4259283    1.7899541 -0.039733732 
 7865000   0.89566302 -1.9027811e-05   0.49090586  0.050869415            0   0.44003644    1.3099072     1.800813  -0.14763479 
 7870000   0.93942787 -2.7142186e-06   0.37795026  0.049845984            0   0.32810428    1.3739133    1.7518635    1.4739275 
 7875000   0.92015768 9.8075801e-06   0.38881466  0.012747903            0   0.37606676    1.3457306    1.7345453    2.7388415 
 7880000   0.86563521 -3.8246822e-05   0.47921384 8.8099528e-05            0   0.47912574    1.2659915    1.7452053   -2.1712692 
 7885000   0.94315971 -5.5606811e-05   0.39390987 0.00024743451            0   0.39366244    1.3793711    1.7732809   -3.9208565 
 7890000   0.93225921 4.9006709e-05   0.44800371  0.019288639            0   0.42871507    1.3634291    1.8114328    6.8297198 
 7895000   0.90511442 8.3492466e-05   0.49114927  0.030291812            0   0.46085746    1.3237298    1.8148791    10.364508 
 7900000   0.88023832 3.5428168e-06   0.51417114  0.018750375            0   0.49542077    1.2873485    1.8015197    2.1643041 
 7905000   0.97256098 -6.6373729e-05   0.37804338 0.0038170191            0   0.37422636    1.4223704    1.8004138   -4.9962561 
 7910000   0.92314885 -2.9164952e-05   0.44487222 0.00034698831            0   0.44452523    1.3501052    1.7949774   -1.1915137 
 7915000   0.97028419 8.7758462e-06   0.41245036            0            0   0.41245036    1.4190406     1.831491    2.7301376 
 7920000   0.91190636 -3.9148967e-05   0.45310505            0            0   0.45310505     1.333663    1.7867681   -2.2220861 
 7925000   0.89867973 -4.524662e-05   0.45420815            0            0   0.45420815    1.3143191    1.7685273   -2.8647266 
 7930000   0.93837046 -2.939071e-05   0.41773762 0.0038790277            0    0.4138586    1.3723668    1.7901044   -1.2195043 
 7935000   0.87108795 -3.4886208e-05   0.54510602  0.048179617            0   0.49692641    1.2739661    1.8190722   -1.7532756 
 7940000    0.9124694 -6.5246729e-05   0.48797831  0.043623203            0    0.4443551    1.3344865    1.8224648   -4.8588002 
 7945000   0.96311135 -3.7210985e-05   0.40187287 0.0038908044            0   0.39798206    1.4085503    1.8104232   -1.9999816 
 7950000   0.86550437 -3.0731022e-05    0.5473957 0.0023329318            0   0.54506277    1.2658001    1.8131958   -1.3336608 
 7955000   0.96369805 -5.6571821e-05   0.42167695  0.020478158            0    0.4011988    1.4094084    1.8310853   -3.9618691 
 7960000     1.049728 -1.8369148e-05   0.31668372  0.023312205            0   0.29337152    1.5352272    1.8519109 -0.029089887 
 7965000      1.02367 1.0244653e-05     0.390212 0.0048036667            0   0.38540834    1.4971174    1.8873294    2.9363819 
 7970000   0.96893336 1.2048106e-05   0.46300757  0.033572428            0   0.42943515     1.417065    1.8800726    3.1137986 
 7975000   0.84239195 3.6626437e-05   0.63714948   0.10743371            0   0.52971576    1.2319982    1.8691477    5.6196949 
 7980000   0.91074612 6.429991e-06   0.51291949  0.039977865            0   0.47294163    1.3319662    1.8448857    2.5033168 
 7985000   0.97980661 -2.6041655e-05   0.42908394 0.0094417532            0   0.41964219    1.4329672    1.8620511  -0.80461432 
 7990000    0.9544309 -3.669253e-05   0.45331137 0.0078834011            0   0.44542797    1.3958552    1.8491666   -1.9081485 
 7995000   0.96556671 -3.1707039e-05   0.42976402 0.0080606163            0   0.42170341    1.4121413    1.8419053   -1.4048955 
 8000000   0.92651497 4.7698369e-06   0.51082231  0.034548002            0   0.47627431    1.3550281    1.8658505    2.3542818 
 8005000   0.95237104 4.2898369e-05   0.49530248  0.057196836            0   0.43810564    1.3928427    1.8881451    6.2809382 
 8010000   0.94722221 -2.0093524e-05   0.47528659  0.010342615            0   0.46494397    1.3853125    1.8605991  -0.19697776 
 8015000   0.99333718 -3.9599308e-05   0.36736813 0.0001644707            0   0.36720366    1.4527556    1.8201238   -2.2348454 
 8020000   0.94548898 -5.3606943e-05   0.46129127            0            0   0.46129127    1.3827776    1.8440689    -3.645282 
 8025000   0.93674426 -0.0001160447   0.44422532            0            0   0.44422532    1.3699885    1.8142138   -10.068764 
 8030000    0.9027449 -5.5106198e-05   0.46606563            0            0   0.46606563    1.3202644    1.7863301   -3.8565446 
 8035000   0.97375218 5.1257374e-05   0.35322188 0.0031648958            0   0.35005699    1.4241126    1.7773344    7.0260895 
 8040000    1.0221293 5.9052529e-05   0.30503041  0.013673431            0   0.29135698    1.4948642    1.7998946    7.8468736 
 8045000   0.87945068 -4.5593747e-06   0.51618635 0.0069386278            0   0.50924772    1.2861966     1.802383     1.335503 
 8050000   0.94076462 -1.4494328e-05   0.40350049 0.0043561206            0   0.39914437    1.3758683    1.7793687   0.29514952 
 8055000   0.92259262 2.1598861e-05   0.44858248   0.02410456            0   0.42447792    1.3492917    1.7978742    4.0095976 
 8060000   0.91802064 -1.5590621e-06   0.44546812  0.022268524            0    0.4231996    1.3426052    1.7880733    1.6284254 
 8065000   0.93653399 -3.2520538e-05   0.39021861  0.035756496            0   0.35446211     1.369681    1.7598996   -1.5702035 
 8070000   0.87294913 -7.5352091e-05   0.47749533  0.028784641            0   0.44871069    1.2766881    1.7541834   -5.9618707 
 8075000   0.94041772 -1.86675e-05   0.41330633  0.028944747            0   0.38436159    1.3753609    1.7886672  -0.12288472 
 8080000   0.93077355 0.00011391058   0.45108411  0.075826081            0   0.37525803    1.3612563    1.8123404    13.476784 
 8085000   0.84911115   0.00012268   0.60857887    0.1011131            0   0.50746577    1.2418251    1.8504039    14.412836 
 8090000   0.89856502 3.5538356e-05    0.4924077   0.07265331            0   0.41975439    1.3141513     1.806559    5.4456867 
 8095000    1.0230272 -4.1722544e-05   0.35743696  0.021620209            0   0.33581675    1.4961773    1.8536142   -2.4187743 
 8100000   0.96140835 -4.2579341e-05   0.46477052  0.029607631            0   0.43516289    1.4060597    1.8708302   -2.4892942 
 8105000   0.90771304 -4.0092425e-05   0.52776187    0.0534106            0   0.47435127    1.3275303    1.8552922   -2.2501721 
 8110000    1.0293241 -3.9789686e-05   0.33378667  0.019001273            0   0.31478539    1.5053865    1.8391731   -2.2352907 
 8115000   0.97438631 -5.9517344e-05   0.46286175  0.025385125            0   0.43747662      1.42504    1.8879017   -4.2066743 
 8120000   0.96732515 -2.4804175e-05   0.51801124  0.053772355            0   0.46423888     1.414713    1.9327243  -0.60722327 
 8125000   0.99341088 3.3793699e-05   0.48850388  0.065004887            0   0.42349899    1.4528634    1.9413673    5.4018421 
 8130000    1.0644242 0.0001217496   0.38125017  0.010162881            0   0.37108729    1.5567204    1.9379706    14.405129 
 8135000    1.0503241 0.00011359212   0.38038161  0.006208465            0   0.37417315     1.536099    1.9164806    13.548314 
 8140000    0.9228714 9.6788817e-05   0.54495873  0.021767887            0   0.52319084    1.3496994    1.8946581    11.805833 
 8145000   0.94998149 8.0828454e-05   0.49194732  0.013156375            0   0.47879095    1.3893479    1.8812952    10.158129 
 8150000   0.95091165 1.2735775e-05   0.46528891 0.00025802788            0   0.46503088    1.3907083    1.8559972    3.1601406 
 8155000   0.95363838 8.5508225e-05   0.42626015            0            0   0.42626015    1.3946961    1.8209563    10.576999 
 8160000   0.99420814 7.1796323e-05   0.34504053 1.124195e-05            0   0.34502929    1.4540294    1.7990699    9.1510134 
 8165000   0.90827314 -4.1543467e-05   0.40404885 3.9946011e-05            0    0.4040089    1.3283495    1.7323983   -2.5216527 
 8170000   0.93918833 -4.1380485e-05   0.35355963 0.0078498661            0   0.34570977    1.3735629    1.7271226   -2.5102391 
 8175000   0.86746301 -8.5156422e-06   0.45737818  0.036473214            0   0.42090497    1.2686647    1.7260428   0.85404107 
 8180000   0.86856632 -6.1593342e-06   0.43227692  0.043443664            0   0.38883325    1.2702782    1.7025552    1.0718393 
 8185000   0.89590632 3.0817573e-05   0.43621759  0.017541962            0   0.41867562     1.310263    1.7464806    4.9022001 
 8190000   0.89206126 9.6276682e-06   0.42261539 0.0093303025            0   0.41328509    1.3046396     1.727255    2.7131282 
 8195000     0.884967 -1.6306197e-05   0.40468406 0.0085913332            0   0.39609273    1.2942642    1.6989483   0.02919371 
 8200000   0.93802703 -1.2382729e-05   0.32424418 0.0076776867            0    0.3165665    1.3718645    1.6961087   0.42811728 
 8205000     0.870856 -3.7804818e-05   0.46066315 0.0072199558            0   0.45344319    1.2736269    1.7342901   -2.1369234 
 8210000   0.94653335 -7.2496558e-05   0.31692071 0.0065865549            0   0.31033416     1.384305    1.7012257   -5.7224218 
 8215000    0.8482615 -6.5617942e-05    0.4937691  0.087887888            0   0.40588121    1.2405824    1.7343515   -4.9849257 
 8220000   0.78674318 -2.4170825e-05   0.59363474  0.065779459            0   0.52785528    1.1506119    1.7442466  -0.73084581 
 8225000   0.83298619 1.7276229e-05   0.50514999   0.10006655            0   0.40508344    1.2182423    1.7233923    3.4924782 
 8230000   0.85194764 2.1572678e-05   0.44161598  0.042606239            0   0.39900974    1.2459734    1.6875894    3.8966316 
 8235000   0.86534545 -4.7592325e-06   0.42743391  0.036384122            0   0.39104979    1.2655677    1.6930016    1.2056562 
 8240000     0.874122 -3.3851301e-05   0.39710575  0.022974914            0   0.37413083    1.2784034    1.6755092    -1.790864 
 8245000   0.82511662 -5.139134e-06   0.45909293   0.01078328            0   0.44830965    1.2067331     1.665826    1.1395787 
 8250000   0.94618557 1.9668189e-05    0.3615053 0.0017321688            0   0.35977313    1.3837964    1.7453017    3.7593242 
 8255000    0.9456254 3.1349031e-05   0.39659841  0.061458679            0   0.33513973    1.3829771    1.7795756    4.9897163 
 8260000   0.84325165 -1.6506502e-05   0.54991499  0.052836858            0   0.49707813    1.2332555    1.7831705  0.092904767 
 8265000    1.0122765 -4.3835617e-05   0.30540734 0.0057513443            0   0.29965599    1.4804544    1.7858618   -2.7029054 
 8270000   0.92209469 -3.5046713e-05   0.44357239 0.0050223964            0   0.43854999    1.3485635    1.7921359   -1.7966475 
 8275000   0.94344576 -2.7076005e-05   0.42681704 0.0037528477            0    0.4230642    1.3797894    1.8066065  -0.96597645 
 8280000   0.94824639 4.8788471e-05   0.40329287 0.0061277979            0   0.39716507    1.3868103    1.7901032    6.7860426 
 8285000   0.98482186 -1.9564283e-05   0.35880281  0.018114652            0   0.34068816     1.440302    1.7991048  -0.20427776 
 8290000   0.92622527 -9.5643202e-05   0.43622563    0.1261784            0   0.31004723    1.3546045    1.7908301   -8.0030338 
 8295000    0.9291069 -6.6816961e-05   0.39355699 0.0032727935            0    0.3902842    1.3588188    1.7523758    -5.089681 
 8300000   0.94789503 -3.1543648e-05   0.33338761            0            0   0.33338761    1.3862965    1.7196841   -1.5103855 
 8305000   0.87092133 1.1989583e-05   0.42803503            0            0   0.42803503    1.2737225    1.7017575    2.9294908 
 8310000   0.91472492 6.288317e-05   0.34978899 0.00018006434            0   0.34960893    1.3377852    1.6875742    8.1268107 
 8315000   0.93492224 -5.4072097e-06    0.3050474 0.0084193254            0   0.29662808    1.3673238    1.6723712    1.1186729 
 8320000   0.84193386 -4.2939187e-05   0.43995858  0.026517767            0   0.41344081    1.2313283    1.6712868   -2.7256859 
 8325000   0.80627462 6.3643149e-05   0.49336269  0.044441198            0   0.44892149    1.1791766    1.6725393    8.1895978 
 8330000   0.90735461 2.8585463e-05   0.36167727  0.023914692            0   0.33776258    1.3270061    1.6886834    4.6158348 
 8335000   0.90708108 -5.899414e-05   0.34437357  0.017545768            0   0.32682781    1.3266061    1.6709796   -4.3700203 
 8340000   0.84610438 -6.2645092e-05   0.43067846 0.0057834391            0   0.42489502    1.2374277    1.6681061   -4.7467513 
 8345000   0.83986931 -8.7537442e-05   0.45986506 0.0001981272            0   0.45966694    1.2283089    1.6881739   -7.2756601 
 8350000   0.98449554 -1.6464867e-05   0.28823803 0.00075021308            0   0.28748782    1.4398247    1.7280628  0.042060357 
 8355000     0.932162 -1.6738365e-05   0.37634041 0.0055864184            0   0.37075399    1.3632869    1.7396273  0.025618731 
 8360000   0.86442136 3.1922876e-05    0.4509921   0.03481506            0   0.41617704    1.2642162    1.7152083    4.9841109 
 8365000   0.88515583 2.4134221e-05   0.41796276  0.066713019            0   0.35124974    1.2945404    1.7125032    4.1838474 
 8370000   0.79936683 7.2641233e-05   0.50691052   0.10344357            0   0.40346696     1.169074    1.6759845    9.1144468 
 8375000   0.79454017 -2.0312192e-05   0.54854531  0.075591918            0   0.47295339     1.162015    1.7105603  -0.36940813 
 8380000   0.93689604 5.6385099e-05   0.34594856  0.015873278            0   0.33007528    1.3702105     1.716159    7.4899931 
 8385000   0.93941068 3.5123118e-05   0.36170876 0.0032817825            0   0.35842698    1.3738881    1.7355969    5.3322042 
 8390000   0.97957247 -3.0213318e-07   0.34606906  0.022614887            0   0.32345417    1.4326247    1.7786938    1.7477554 
 8395000   0.97482492 1.1861102e-05   0.40012721  0.040787081            0   0.35934013    1.4256814    1.8258087    3.0403855 
 8400000   0.88696307 -3.4170009e-05   0.52427126   0.11337936            0    0.4108919    1.2971835    1.8214547   -1.6775542 
 8405000   0.98050355 2.7914129e-05   0.37125497 0.0066395979            0   0.36461537    1.4339864    1.8052414    4.6636482 
 8410000   0.97400728 1.7417749e-05   0.39591561  0.010363875            0   0.38555173    1.4244856    1.8204013    3.6039787 
 8415000    1.0509261 -2.0117673e-05   0.32128111 0.0061889209            0   0.31509219    1.5369795    1.8582606  -0.20178911 
 8420000    1.0685124 3.160598e-05   0.34790861  0.016568859            0   0.33133975    1.5626994     1.910608    5.1470604 
 8425000   0.96392081 1.9684355e-05   0.48361292   0.10077393            0   0.38283899    1.4097342    1.8933471    3.9090251 
 8430000   0.99130429 2.1494272e-05   0.48542879  0.079625782            0   0.40580301    1.4497825    1.9352113    4.1362247 
 8435000     1.141843 -1.418486e-05   0.26319776  0.010023175            0   0.25317459    1.6699454    1.9331432   0.48061351 
 8440000    1.0795165 2.0397408e-05   0.34112329  0.013520085            0    0.3276032    1.5787929    1.9199162    4.0086107 
 8445000   0.98799316 4.6439724e-05   0.46106066  0.045000299            0   0.41606036      1.44494    1.9060007    6.6614284 
 8450000    1.0615541 1.1854142e-06   0.36150824  0.019295647            0   0.34221259    1.5525229    1.9140311    2.0354175 
 8455000    1.0871948 -1.1981053e-05   0.31879343  0.012149819            0   0.30664361    1.5900224    1.9088158   0.68195604 
 8460000    1.0673445 3.7731226e-05   0.33646724 0.0049788457            0   0.33148839    1.5609913    1.8974585    5.7611361 
 8465000    1.0043727 6.4343621e-05   0.42162336 0.0034536232            0   0.41816974    1.4688951    1.8905184    8.4793052 
 8470000    1.0429542 5.6436271e-06   0.33102541  0.049394822            0   0.28163059    1.5253205    1.8563459    2.4342534 
 8475000    1.0649324 -3.0923444e-05   0.33374185  0.016470017            0   0.31727183    1.5574636    1.8912055   -1.2753552 
 8480000    1.0221807 1.2874114e-05   0.40384362 0.0087128153            0    0.3951308    1.4949393    1.8987829    3.2170921 
 8485000    1.0840959 -2.0544107e-06   0.35074531 0.0047230546            0   0.34602225    1.5854903    1.9362356    1.7258639 
 8490000    1.0480917 -4.1938203e-05   0.40512714 0.0013910688            0   0.40373607    1.5328341    1.9379613   -2.3565107 
 8495000    1.1283959 -9.9309548e-07    0.3232322 0.00040768726            0   0.32282452     1.650279    1.9735112    1.8718182 
 8500000    1.0546105 9.9195739e-06   0.44034486 0.0016127919            0   0.43873207    1.5423679    1.9827127    2.9984771 
 8505000    1.0248919 2.7325435e-06   0.44329789  0.047827135            0   0.39547076    1.4989044    1.9422023    2.2220147 
 8510000   0.97923156 -3.611998e-05   0.48280238  0.030863447            0   0.45193894    1.4321262    1.9149285   -1.7837574 
 8515000    1.0713294 -3.4918121e-05   0.36479436 0.00014473179            0   0.36464963    1.5668192    1.9316136    -1.644002 
 8520000    1.0631457 2.2412201e-05   0.34584518  0.011681057            0   0.33416413    1.5548506    1.9006958    4.1957052 
 8525000    1.0156376 4.0729032e-05   0.38384623  0.058392011            0   0.32545422      1.48537    1.8692162    6.0398691 
 8530000   0.99231052 -3.9137157e-05   0.42494569  0.058523807            0   0.36642188    1.4512541    1.8761998   -2.1314451 
 8535000    1.0034517 -5.9099156e-05   0.38570391  0.020054737            0   0.36564917    1.4675481     1.853252   -4.1985015 
 8540000    0.9944429 -1.7824686e-05   0.44017163  0.022912006            0   0.41725962    1.4543727    1.8945444  0.069296489 
 8545000   0.97876908 -3.9605715e-05   0.47207057  0.065400258            0   0.40667031    1.4314498    1.9035204   -2.1521049 
 8550000    1.0274594 -5.1205575e-05   0.36304516  0.013261189            0   0.34978397    1.5026594    1.8657046   -3.3777463 
 8555000    1.0165258 -2.951307e-05   0.37282882  0.018044023            0    0.3547848     1.486669    1.8594978   -1.1626406 
 8560000   0.96520086 -1.1808243e-05   0.44420815  0.018021578            0   0.42618657    1.4116063    1.8558144   0.64665035 
 8565000    1.0434505 -4.8018447e-05   0.40807248  0.043532463            0   0.36454001    1.5260464    1.9341189   -2.9829701 
 8570000    1.0282987 -6.7440184e-05   0.43779764  0.055776287            0   0.38202135    1.5038869    1.9416845   -4.9641904 
 8575000    1.0902709 -2.044367e-05   0.35481674   0.02398192            0   0.33083482    1.5945212    1.9493379  -0.14409386 
 8580000   0.98554504 -4.4429861e-07   0.47899626   0.01071357            0   0.46828269    1.4413596    1.9203559    1.8748597 
 8585000   0.97680306 -2.5025438e-05   0.45664531 0.00090526348            0   0.45574005    1.4285745    1.8852198   -0.6773851 
 8590000   0.97177153 -1.2669658e-05   0.47727153 0.00012262963            0    0.4771489    1.4212159    1.8984874   0.60111446 
 8595000   0.96640146 9.5078934e-05   0.48556803 0.0053390676            0   0.48022897    1.4133621    1.8989302    11.635013 
 8600000   0.90048857 0.00011579561   0.52223726  0.023820845            0   0.49841642    1.3169645    1.8392018    13.696672 
 8605000   0.97076487 1.0027285e-05   0.39876346  0.025529461            0     0.373234    1.4197436    1.8185071     2.845301 
 8610000   0.93975096 -1.8802351e-05   0.44757446  0.020293512            0   0.42728094    1.3743858    1.8219602  -0.10340053 
 8615000    1.0238084 4.1598613e-06   0.36649789  0.016749889            0     0.349748    1.4973197    1.8638176    2.2897874 
 8620000    1.0913356 -2.74806e-05   0.30508503  0.029620691            0   0.27546434    1.5960783    1.9011633   -0.9128501 
 8625000    1.0556302 -3.4392759e-06   0.35814017  0.015886898            0   0.34225327    1.5438592    1.9019993    1.5498175 
 8630000   0.97900761 -1.4173182e-05   0.46236474  0.081186858            0   0.38117789    1.4317986    1.8941634   0.44282954 
 8635000   0.98702802 -8.9815256e-05   0.48454145  0.020947385            0   0.46359407    1.4435285    1.9280699   -7.2690123 
 8640000    1.0757511 -6.0396252e-05    0.3970478 0.0064921928            0   0.39055561     1.573286    1.9703338   -4.2142424 
 8645000    1.1180543 -4.5817786e-06   0.33415506 0.0063827836            0   0.32777228    1.6351544    1.9693094    1.5001353 
 8650000    1.0916896 -4.372966e-05   0.38651722 0.0058164721            0   0.38070075     1.596596    1.9831133   -2.4948039 
 8655000    1.0415852 -5.421691e-05   0.43728492  0.010327007            0   0.42695792    1.5233183    1.9606032   -3.5912083 
 8660000   0.96846383 -9.1912962e-06   0.54467929 0.0094469019            0   0.53523239    1.4163783    1.9610576    1.0198689 
 8665000    1.0417795 -5.7939486e-05   0.44639112  0.025747734            0   0.42064339    1.5236025    1.9699936   -3.9630098 
 8670000    1.0465471 -3.3962511e-05   0.44755825  0.078219733            0   0.36933852    1.5305752    1.9781334   -1.4996277 
 8675000    1.0526826 6.4513787e-05   0.44369555  0.050538744            0   0.39315681    1.5395483    1.9832439    8.5894557 
 8680000    1.0175393 1.4236143e-05    0.4746531  0.014327606            0   0.46032549    1.4881512    1.9628043    3.4205853 
 8685000    1.0091759 3.651186e-05   0.40232607 0.0095564648            0   0.39276961    1.4759198    1.8782459    5.6170604 
 8690000   0.98565037 -1.8747685e-06   0.43400325  0.020664042            0   0.41333921    1.4415137    1.8755169    1.6835406 
 8695000    1.0404403 2.8009606e-07   0.37349456  0.026525141            0   0.34696942    1.5216439    1.8951385    1.9238203 
 8700000   0.95515148 -1.796008e-05   0.49866704 0.0041195839            0   0.49454746     1.396909    1.8955761  0.056463844 
 8705000    0.9661369 -4.7840783e-05   0.51073161 0.0029680853            0   0.50776352    1.4129752    1.9237068   -2.9751893 
 8710000    1.0291904 4.7432722e-05   0.46787164  0.043101006            0   0.42477063     1.505191    1.9730627    6.8301734 
 8715000    1.0636019 4.6901537e-05   0.41957784  0.051349246            0    0.3682286    1.5555177    1.9750956    6.7778129 
 8720000    1.0606801 0.00010793743   0.44132764 0.0082955306            0   0.43303211    1.5512446    1.9925722    13.045365 
 8725000    1.0526967 7.8867892e-05   0.43627062 0.00071174039            0   0.43555888    1.5395689    1.9758395    10.051912 
 8730000    1.0142591 -1.3215163e-06   0.49561497            0            0   0.49561497    1.4833539    1.9789689    1.8436456 
 8735000     1.005228 -2.8681293e-05    0.5232315            0            0    0.5232315     1.470146    1.9933775  -0.94358693 
 8740000    1.0239168 -4.11326e-05   0.50074837 0.00069997516            0   0.50004839    1.4974783    1.9982267   -2.2137515 
 8745000   0.95962258 -1.3891651e-06   0.58940893  0.023398827            0   0.56601011     1.403448     1.992857    1.8506065 
 8750000    1.0651291 2.4972717e-05    0.4434815  0.031905445            0   0.41157605    1.5577512    2.0012327    4.5584389 
 8755000    1.1052226 -4.4271692e-07   0.34321459  0.030650376            0   0.31256421     1.616388    1.9596026    1.9142684 
 8760000    1.0098798 -1.2481404e-06   0.48824359  0.053742789            0    0.4345008    1.4769492    1.9651928    1.8373832 
 8765000   0.99613222 0.0001054426   0.51031396   0.03485344            0   0.47546052    1.4568434    1.9671573     12.76448 
 8770000    1.0271824 8.3538987e-05   0.41040956 0.0073511514            0   0.40305841    1.5022543    1.9126639    10.467056 
 8775000    1.0660257 -4.6771501e-05   0.35628605            0            0   0.35628605    1.5590626    1.9153487    -2.874053 
 8780000   0.97399511 -0.00014016311   0.49730268            0            0   0.49730268    1.4244678    1.9217705   -12.430932 
 8785000    1.0548054 -6.3707312e-05   0.42261461 0.00063528393            0   0.42197932    1.5426529    1.9652675   -4.5583612 
 8790000    0.9995444 6.4668807e-06   0.50166428 0.0065467716            0   0.49511751    1.4618337     1.963498    2.6257065 
 8795000    1.0532212 -4.744895e-05    0.4224929  0.010739179            0   0.41175372     1.540336    1.9628289   -2.8959435 
 8800000     1.025821 -6.1494779e-05   0.46554068 0.0029536071            0   0.46258707    1.5002632    1.9658038   -4.3312616 
 8805000     1.126718 6.1438039e-05   0.34839972            0            0   0.34839972     1.647825    1.9962248    8.2874799 
 8810000    1.1692057 7.8003531e-05   0.32265983            0            0   0.32265983    1.7099633    2.0326231    10.020185 
 8815000    1.1050729 1.4527828e-05   0.41688441  0.016308334            0   0.40057608    1.6161691    2.0330535    3.5207031 
 8820000    1.0635337 1.0709978e-05    0.5160785  0.048797676            0   0.46728083     1.555418    2.0714965    3.1681982 
 8825000    1.0923773 -8.0648009e-05   0.48669748 0.0079254072            0   0.47877207    1.5976018    2.0842993   -6.1740568 
 8830000    1.2154125 -5.3185421e-05   0.27291996  0.012121935            0   0.26079802    1.7775408    2.0504607   -3.3957264 
 8835000    1.0930741 3.4660436e-05    0.4811915 0.0024362631            0   0.47875524    1.5986209    2.0798124    5.6290411 
 8840000    1.1781311 -3.0479617e-05   0.39683965            0            0   0.39683965    1.7230167    2.1198563   -1.0012564 
 8845000    1.0294392 -5.2290822e-05   0.59075307 9.7661102e-05            0   0.59065541    1.5055548    2.0963079   -3.2582723 
 8850000    1.1610282 4.1971538e-05   0.41926621 6.1158759e-05            0   0.41920506    1.6980037    2.1172699    6.4151554 
 8855000    1.1163749 1.2812816e-05   0.48012323            0            0   0.48012323    1.6326982    2.1128215    3.4248538 
 8860000    1.1589357 -1.4915996e-05     0.420556            0            0     0.420556    1.6949435    2.1154995   0.58810149 
 8865000    1.1686184 -1.9144751e-05   0.42596985            0            0   0.42596985    1.7091044    2.1350743   0.17465173 
 8870000    1.1696269 -2.8112177e-05   0.45133229 0.00011115747            0   0.45122114    1.7105794    2.1619117  -0.71677531 
 8875000    1.1349604 -3.7144256e-05   0.49903028 0.0020414745            0    0.4969888    1.6598796    2.1589099   -1.6446619 
 8880000    1.1525768 -7.5911843e-05   0.52026104 0.00055316845            0   0.51970788    1.6856436    2.2059046   -5.5674681 
 8885000    1.1749497 -6.803561e-05   0.52267848            0            0   0.52267848    1.7183639    2.2410423   -4.7258042 
 8890000    1.1232799 -3.4038928e-05   0.61279466 4.4946566e-05            0   0.61274972    1.6427969    2.2555916   -1.2299946 
 8895000    1.0931243 -1.8924639e-05   0.57740141 0.0061141247            0   0.57128729    1.5986944    2.1760958   0.23821273 
 8900000    1.1365547 -4.8916314e-05   0.48928816  0.012215993            0   0.47707217    1.6622113    2.1514995   -2.8575311 
 8905000    1.1117872 -7.3148345e-05   0.51811395  0.012833267            0   0.50528068    1.6259887    2.1441027   -5.3462879 
 8910000    1.1855836 -1.6915042e-05    0.3800441  0.042597313            0   0.33744679    1.7339159      2.11396   0.38185975 
 8915000    1.1347937 3.5446673e-05   0.48126837  0.022838299            0   0.45843007    1.6596357    2.1409041    5.7706434 
 8920000    1.1759044 4.7682145e-05   0.49895858 0.0062057062            0   0.49275287    1.7197602    2.2187188    7.1013704 
 8925000    1.0499089 -2.3788289e-05   0.67970872  0.019153796            0   0.66055493    1.5354917    2.2152004   -0.2207204 
 8930000     1.072943 4.4928229e-06   0.61723493 0.0065895386            0    0.6106454    1.5691791     2.186414    2.6464791 
 8935000    1.2008608 -2.9188182e-05     0.472871 3.1420689e-05            0   0.47283958    1.7562589    2.2291299  -0.75973994 
 8940000    1.1794976 -0.00010764216   0.51500218  0.014903577            0    0.5000986    1.7250153    2.2400175   -8.7825394 
 8945000    1.1370256 -6.5472587e-05   0.58385143  0.020471619            0   0.56337981    1.6628999    2.2467513   -4.4576416 
 8950000    1.1833981 -1.7512463e-05   0.52403534  0.041432824            0   0.48260251    1.7307197     2.254755   0.46147878 
 8955000    1.2195092 4.0185536e-05   0.46513877  0.033017384            0   0.43212139    1.7835322    2.2486709    6.3636698 
 8960000    1.2288788 0.00013074442   0.44506117            0            0   0.44506117    1.7972353    2.2422965    15.630525 
 8965000    1.1319332 6.1697563e-05   0.57083806 0.0010949395            0   0.56974312    1.6554523    2.2262904    8.5441209 
 8970000    1.1705645 -8.5790689e-05   0.53112275  0.019409774            0   0.51171297    1.7119507    2.2430734   -6.5418931 
 8975000    1.1855083 -9.9846349e-05   0.47137729  0.031460544            0   0.43991674    1.7338059    2.2051832   -8.0190829 
 8980000    1.1468003 -6.814073e-06   0.52346086  0.061874893            0   0.46158597    1.6771955    2.2006563    1.5028953 
 8985000    1.1248014 4.4116379e-05   0.55822005  0.082305377            0   0.47591467     1.645022    2.2032421    6.7207593 
 8990000     1.224509 5.1673713e-05   0.38536354  0.018641161            0   0.36672238    1.7908444    2.1762079    7.4675962 
 8995000    1.1002253 -1.231337e-05   0.49817892 0.0015670972            0   0.49661183    1.6090795    2.1072584   0.84636935 
 9000000     1.110472 8.4533837e-06    0.5142027 0.00015036898            0   0.51405233    1.6240652    2.1382679    3.0038944 
 9005000     1.025539 6.9429461e-07   0.62711674 0.00040284065            0    0.6267139    1.4998508    2.1269675    2.1980633 
 9010000    1.0493474 -2.8935058e-05   0.61737221 0.00090447245            0   0.61646774    1.5346705    2.1520428   -0.8109072 
 9015000     1.206893 6.9749464e-07   0.40743187 0.0036504142            0   0.40378146    1.7650811    2.1725129    2.2439364 
 9020000    1.1814535 7.8920065e-07   0.47926691 0.0033958186            0   0.47587109    1.7278757    2.2071426    2.2879568 
 9025000    1.2157409 -1.2656705e-06   0.46768632 0.0032941401            0   0.46439218    1.7780211    2.2457074    2.1161028 
 9030000     1.208746 7.0761053e-06   0.50304986    0.0082018            0   0.49484806    1.7677911     2.270841    2.9954341 
 9035000    1.2184859 2.0253169e-05    0.4352718  0.015493414            0   0.41977838    1.7820356    2.2173074     4.291232 
 9040000    1.2793183 -9.7237788e-06   0.33935894 0.0086847031            0   0.33067424    1.8710029    2.2103619    1.2146469 
 9045000    1.1392648 -1.2010551e-05   0.55490871 0.00098522373            0   0.55392349    1.6661747    2.2210834   0.99120299 
 9050000    1.2563747 -2.7688653e-06    0.3988299            0            0    0.3988299     1.837448    2.2362779    1.9527461 
 9055000    1.2365123 -3.2307338e-05   0.45953251            0            0   0.45953251    1.8083993    2.2679318   -1.0403397 
 9060000    1.2090117 -7.6960356e-05   0.50539135 5.7989895e-06            0   0.50538555    1.7681796     2.273571   -5.6071695 
 9065000    1.2284935 -7.875578e-05   0.46897411  0.014205527            0   0.45476858    1.7966718    2.2656459    -5.798946 
 9070000    1.2265157 -6.3714432e-05   0.48114809  0.048794096            0     0.432354    1.7937792    2.2749273   -4.2494305 
 9075000    1.2457935 -4.1212989e-05   0.46168603  0.021835702            0   0.43985033    1.8219729     2.283659   -1.9365511 
 9080000    1.1137936 -8.5318365e-06   0.65831461  0.051959426            0   0.60635518    1.6289231    2.2872377    1.4135776 
 9085000     1.294842 -3.8420022e-05   0.44993043  0.019700427            0   0.43023001    1.8937064    2.3436368   -1.5905735 
 9090000    1.2583592 -1.0005015e-05   0.50551267  0.002347316            0   0.50316536    1.8403503     2.345863    1.3213495 
 9095000    1.3616677 2.7354571e-05   0.34804042            0            0   0.34804042     1.991439    2.3394794    5.1405876 
 9100000    1.1805907 -2.5757662e-05   0.62640942 0.0031026645            0   0.62330676    1.7266138    2.3530233   -0.2845613 
 9105000    1.2243135 -5.2754672e-05   0.50694764  0.035921486            0   0.47102615    1.7905585    2.2975061   -3.1045723 
 9110000     1.320362 -8.5096085e-05   0.42875752  0.049696563            0   0.37906095    1.9310295     2.359787    -6.354052 
 9115000    1.2671804 -6.3209708e-05   0.46536417 0.0087006232            0   0.45666355    1.8532513    2.3186155   -4.1540586 
 9120000    1.2455784 -9.1189197e-06   0.43652191 0.0099858547            0   0.42653605    1.8216584    2.2581803    1.3244029 
 9125000    1.1823948 -6.1642775e-05   0.52378842  0.015561208            0   0.50822721    1.7292524    2.2530408   -4.0591794 
 9130000    1.2047989 -8.1962709e-05   0.47260699  0.014392542            0   0.45821445    1.7620184    2.2346254    -6.158356 
 9135000    1.2188316 -3.2680981e-05   0.43816779 0.0075335771            0   0.43063422    1.7825412     2.220709   -1.1258234 
 9140000    1.1636846 3.5541842e-05   0.49592373  0.021043896            0   0.47487983    1.7018888    2.1978125    5.8372972 
 9145000    1.2619976 1.8064428e-05   0.33609751  0.012166206            0   0.32393131    1.8456715     2.181769    4.0315664 
 9150000    1.1299126 -6.2128854e-05   0.54944104 0.00049658858            0   0.54894445    1.6524972    2.2019382   -4.1600564 
 9155000    1.0667642 -1.5791807e-05   0.62388066            0            0   0.62388066    1.5601427    2.1840233   0.56694227 
 9160000    1.1965479 4.126806e-05   0.41722774 0.0049097727            0   0.41231796    1.7499513    2.1671791    6.3930284 
 9165000    1.2564608 2.6231636e-05   0.38249105  0.032399438            0   0.35009162    1.8375739     2.220065    4.9061846 
 9170000    1.1798833 -9.1787333e-06   0.49127186  0.023834445            0   0.46743742    1.7255793    2.2168512    1.2769489 
 9175000    1.1987363 5.3851816e-05   0.46152718 0.0040438778            0    0.4574833    1.7531518     2.214679     7.729105 
 9180000    1.0988601 1.2201682e-05   0.53210603            0            0   0.53210603    1.6070829    2.1391889    3.3886411 
 9185000      1.25294 3.9178166e-05   0.32085006            0            0   0.32085006    1.8324247    2.1532748    6.1651189 
 9190000    1.2427065 -3.0804393e-05    0.3987304 0.0017228649            0   0.39700754    1.8174583    2.2161887  -0.93818114 
 9195000     1.101431 5.752868e-05   0.54074346  0.043245294            0   0.49749817    1.6108428    2.1515863    8.0425231 
 9200000    1.1704495 4.1340656e-05   0.43956097  0.019216246            0   0.42034472    1.7117824    2.1513434    6.3846266 
 9205000    1.1142081 1.8391521e-05   0.52067416  0.010550002            0   0.51012416    1.6295293    2.1502035    4.0334952 
 9210000    1.1629255 4.2378361e-05   0.43144686 0.0040358522            0   0.42741101    1.7007786    2.1322254    6.4717696 
 9215000    1.0776927 4.7012585e-05    0.5320381 0.00041765454            0   0.53162045    1.5761256    2.1081637    6.9222525 
 9220000    1.0687508 5.4145946e-05   0.54727286            0            0   0.54727286    1.5630481    2.1103209    7.6548658 
 9225000    1.1076383 0.00011206453   0.51109226  0.003938908            0   0.50715335    1.6199211    2.1310133    13.606421 
 9230000    1.1574286 -2.4997906e-05   0.45337221   0.01863828            0   0.43473393    1.6927393    2.1461116  -0.41367406 
 9235000    1.1378107 -7.2644057e-05   0.49628596  0.025396306            0   0.47088966    1.6640482    2.1603342   -5.2784173 
 9240000    1.1235468 8.4230082e-06   0.50092997  0.078163854            0   0.42276612    1.6431871    2.1441171    3.0066332 
 9245000    1.1200551 6.1853695e-05   0.50223056  0.037693958            0    0.4645366    1.6380806    2.1403112    8.4741295 
 9250000     1.161635 2.8395899e-05   0.43221905  0.006409341            0   0.42580971    1.6988912    2.1311103    5.0388504 
 9255000    1.1163727 3.6668988e-05    0.4878132  0.009531432            0   0.47828176    1.6326951    2.1205083    5.8754127 
 9260000    1.1579451 -3.3135932e-05   0.44680042 0.0056883192            0    0.4411121    1.6934948    2.1402952   -1.2528243 
 9265000    1.1178673 1.1819715e-05   0.45336728  0.010941156            0   0.44242613    1.6348809    2.0882482     3.298587 
 9270000    1.0968871 0.00012893962   0.46196207  0.034889992            0   0.42707207    1.6041974    2.0661595    15.269576 
 9275000    1.1684187 9.2772752e-05   0.34712095  0.019507094            0   0.32761385    1.7088123    2.0559332    11.555863 
 9280000     1.067509 2.8303092e-05   0.46224849  0.034268458            0   0.42798003     1.561232    2.0234805     4.921717 
 9285000     1.014552 4.2362744e-05   0.54815715  0.037466424            0   0.51069073    1.4837823    2.0319394    6.3698844 
 9290000    1.0776632 1.0286669e-05   0.46492398 0.00024135521            0   0.46468263    1.5760824    2.0410063    3.0943612 
 9295000    1.0961523 1.9339647e-05   0.45739056            0            0   0.45739056    1.6031227    2.0605132    4.0408931 
 9300000    1.1023606 9.8747491e-05   0.41912134 2.2730076e-05            0   0.41909861    1.6122023    2.0313237    12.143067 
 9305000    1.0827862 -1.9549664e-05   0.41322399  0.014578163            0   0.39864583    1.5835748    1.9967988 -0.0050868121 
 9310000    1.0112641 3.1698015e-05   0.49755139   0.05891386            0   0.43863753    1.4789737    1.9765251    5.2224018 
 9315000    1.1247227 -4.7775621e-06   0.38895417  0.047296257            0   0.34165792     1.644907    2.0338612    1.5446388 
 9320000    1.0348728 -4.6897727e-05   0.50498498 0.0097504666            0   0.49523451    1.5135015    2.0184865   -2.7838408 
 9325000    1.1121268 2.9985415e-05   0.38066557 0.00062626401            0   0.38003931    1.6264855     2.007151    5.0776575 
 9330000     1.147238 2.3085424e-05   0.33491553 0.00057004817            0   0.33434548    1.6778355     2.012751    4.3766985 
 9335000    1.0946363 7.7568162e-05   0.42709232  0.024746585            0   0.40234573    1.6009056    2.0279979    9.9709777 
 9340000    1.0359995 -5.0429392e-05   0.51892964  0.031918645            0     0.487011    1.5151493     2.034079   -3.1298907 
 9345000    1.0563808 -1.8726901e-05   0.51274166   0.01176469            0   0.50097697     1.544957    2.0576986   0.14006394 
 9350000    1.1061432 8.8504844e-05   0.40178243  0.011165509            0   0.39061692    1.6177344    2.0195169    11.082413 
 9355000    1.0737609 -5.5726065e-07   0.40480972 0.0050445226            0   0.39976519    1.5703752     1.975185    1.9181215 
 9360000    1.0719882 -4.7327953e-05     0.424416  0.010539793            0    0.4138762    1.5677827    1.9921987   -2.8541837 
 9365000    1.0401825 -2.5994245e-05   0.51237299  0.036952005            0   0.47542099    1.5212669    2.0336399  -0.62817075 
 9370000    1.0213957 -8.9398318e-05    0.5161573  0.027091597            0   0.48906571    1.4937912    2.0099485   -7.1444393 
 9375000    1.0898379 -7.7006253e-05   0.40250358 0.0054091718            0   0.39709441    1.5938879    1.9963915   -5.8890488 
 9380000    1.0977927 5.0531506e-05   0.39610717  0.018289554            0   0.37781762    1.6055218     2.001629    7.1760552 
 9385000    1.1275029 4.9471306e-05    0.3752532  0.027981626            0   0.34727158     1.648973    2.0242262    7.0900879 
 9390000    1.1429168 -3.4512717e-05   0.32173099 0.0054853922            0    0.3162456    1.6715159    1.9932469   -1.5408553 
 9395000    1.1024897 -7.4310032e-05   0.44849117            0            0   0.44849117    1.6123912    2.0608824   -5.5484649 
 9400000    1.0762041 -5.9711111e-05   0.44881212            0            0   0.44881212    1.5739485    2.0227606   -4.0916572 
 9405000     1.009346 -6.1123527e-05   0.51292919            0            0   0.51292919    1.4761686    1.9890978   -4.2699514 
 9410000    1.0332267 -2.4429326e-05   0.48058846            0            0   0.48058846    1.5110941    1.9916825  -0.50988047 
 9415000     1.140087 1.0657206e-05   0.32486889            0            0   0.32486889    1.6673773    1.9922462     3.083544 
 9420000    1.1172924 4.2188274e-06   0.39064611            0            0   0.39064611    1.6340402    2.0246863    2.4566942 
 9425000    1.0892827 7.3515319e-05   0.44395708 0.0058038092            0   0.43815328    1.5930759     2.037033    9.5650017 
 9430000     1.134645 -1.7132248e-06    0.3746431  0.025513541            0   0.34912956    1.6594183    2.0340614    1.8586272 
 9435000    1.0961124 -1.1580674e-05   0.40670871  0.011487828            0   0.39522089    1.6030645    2.0097732   0.82391219 
 9440000    1.0636314 1.5538615e-05   0.43645003 0.00039242353            0   0.43605761     1.555561     1.992011    3.5831652 
 9445000    1.0207318 -4.4650877e-05   0.48825828 0.0020234271            0   0.48623486    1.4928202    1.9810785   -2.5911713 
 9450000    1.0683997 -2.1937358e-05   0.37802688  0.010862509            0   0.36716437    1.5625345    1.9405614  -0.30582408 
 9455000    1.0871648 -2.0638169e-05   0.36899281  0.025885363            0   0.34310745    1.5899786    1.9589714  -0.15437711 
 9460000    1.0767772 -7.6538041e-05   0.39425974  0.047119676            0   0.34714006    1.5747866    1.9690463    -5.868449 
 9465000   0.91611595 -5.0221323e-05   0.62960093  0.071126243            0   0.55847469    1.3398196    1.9694205    -3.173243 
 9470000   0.98575555 5.5565271e-05   0.53694746  0.059513473            0   0.47743398    1.4416675    1.9786149    7.6684987 
 9475000    1.0648451 -2.4601646e-05   0.40476398 0.0013618892            0   0.40340209     1.557336       1.9621  -0.55710853 
 9480000    1.1132571 -1.7175984e-05   0.33745462 0.0048976716            0   0.33255694    1.6281385    1.9655931   0.20677238 
 9485000   0.96706674 3.0675563e-05   0.56379346 0.0030733105            0   0.56072015    1.4143351    1.9781286    5.1193063 
 9490000   0.93298558 -6.5540064e-05   0.58787961 0.00018385887            0   0.58769575    1.3644914     1.952371   -4.7589315 
 9495000   0.99887913 -1.6739219e-05    0.5174541 0.0034985774            0   0.51395552    1.4608607    1.9783148   0.26421881 
 9500000    1.0005563 -6.3085956e-06   0.52426346  0.011637277            0   0.51262619    1.4633136    1.9875771    1.3415769 
 9505000    1.0578172 -4.3724387e-05   0.42522315  0.014801759            0   0.41042139    1.5470577    1.9722808   -2.5050964 
 9510000   0.99192805 4.3514265e-06   0.51666799 0.0024082241            0   0.51425976    1.4506948    1.9673628    2.4129488 
 9515000    1.1268227 2.863649e-07   0.34674571            0            0   0.34674571    1.6479782    1.9947239    2.0240476 
 9520000   0.99835423 3.5774913e-05   0.57644825 0.0045712468            0     0.571877    1.4600931    2.0365413    5.6998924 
 9525000    1.0651691 4.225896e-05    0.5205028  0.049321203            0   0.47118159    1.5578099    2.0783127    6.4056302 
 9530000    1.0499153 -4.0545262e-05   0.53241941   0.03453355            0   0.49788586    1.5355012    2.0679206   -2.0839142 
 9535000    1.1139605 -3.4358184e-05    0.4246604 0.0022005092            0   0.42245989    1.6291672    2.0538276   -1.4644505 
 9540000   0.98273624 -2.2747003e-05    0.5607833 6.0224353e-05            0   0.56072308    1.4372517    1.9980351  -0.33125804 
 9545000    1.0263122 -1.8392041e-05   0.57206052 7.4105728e-06            0   0.57205311    1.5009817    2.0730422   0.18969723 
 9550000      1.15093 -3.3036466e-06    0.4068619 0.0037823388            0   0.40307957    1.6832351     2.090097    1.7518036 
 9555000   0.95028485 -6.1484419e-05   0.74013528  0.011865843            0   0.72826943    1.3897916    2.1299269   -4.1660776 
 9560000    1.0196639 8.3750491e-05    0.6180654  0.029639931            0   0.58842547    1.4912585    2.1093239    10.685374 
 9565000    1.0400386 0.00013126559   0.62758146  0.028150225            0   0.59943124    1.5210565     2.148638    15.590234 
 9570000    1.1051215 -1.1276613e-05   0.52284832   0.01702575            0   0.50582257    1.6162401    2.1390885   0.98436332 
 9575000    1.1096029 -1.9330182e-05   0.45500916   0.01320612            0   0.44180304    1.6227942    2.0778034  0.098392684 
 9580000    1.0184983 3.8696047e-05   0.57917965   0.01844351            0   0.56073614    1.4895538    2.0687334    6.0312086 
 9585000    1.0527897 -5.051779e-06   0.55521945  0.014201983            0   0.54101747    1.5397049    2.0949244    1.5776222 
 9590000    1.0018966 -2.9410798e-05   0.59603465  0.011326427            0   0.58470823    1.4652738    2.0613084  -0.95035728 
 9595000    1.0264576 8.2915285e-05   0.56869533  0.022400119            0   0.54629521    1.5011942    2.0698896    10.560415 
 9600000    1.1177942 2.5453031e-05   0.43803193  0.098614789            0   0.33941714     1.634774    2.0728059    4.6791963 
 9605000   0.92274583 -7.7231073e-05   0.72447188  0.070400514            0   0.65407137    1.3495158    2.0739877   -5.8344742 
 9610000    1.0707306 -3.4219174e-05   0.49108693  0.042668291            0   0.44841864    1.5659434    2.0570304    -1.447013 
 9615000    0.9509503 -1.7838802e-05   0.66282807  0.083196344            0   0.57963173    1.3907648    2.0535929   0.22689953 
 9620000   0.97833146 -4.1586498e-05   0.61155567  0.062900769            0   0.54865491    1.4308098    2.0423654   -2.2160919 
 9625000    1.0728508 -1.5991744e-05   0.42362725 0.0097344877            0   0.41389277    1.5690443    1.9926716   0.35511702 
 9630000    1.0511286 2.3102301e-06    0.4176614  0.018125299            0    0.3995361    1.5372756     1.954937    2.1915046 
 9635000    1.0004649 2.9343124e-05   0.48886194  0.013065027            0   0.47579691      1.46318    1.9520419    4.9567778 
 9640000   0.97908561 4.2134744e-05    0.5252476 0.00047571625            0   0.52477188    1.4319127    1.9571603    6.2717581 
 9645000    1.1027077 -7.0327225e-06   0.29709461  0.030731146            0   0.26636347      1.61271    1.9098046    1.1896538 
 9650000   0.93403069 -2.2073534e-05   0.48441446  0.037236466            0   0.44717799    1.3660199    1.8504343  -0.40989549 
 9655000   0.97056585 1.7917858e-05   0.44842061  0.013198245            0   0.43522237    1.4194526    1.8678732    3.7026618 
 9660000    1.0062621 -2.5530859e-06   0.45095191  0.035097347            0   0.41585456    1.4716583    1.9226102    1.6611742 
 9665000   0.92826285 -5.5384638e-05   0.57738572  0.020413745            0   0.55697198    1.3575844    1.9349701   -3.7364168 
 9670000    1.0194154 -3.0792468e-05   0.44445668  0.005728732            0   0.43872795    1.4908951    1.9353518    -1.217797 
 9675000   0.95277243 -4.3409808e-05   0.51105557  0.038733948            0   0.47232162    1.3934297    1.9044852   -2.5406791 
 9680000    0.9104169 -1.9224705e-05   0.53780553   0.02733102            0   0.51047451    1.3314847    1.8692903 -0.099319543 
 9685000   0.95883982 8.5086832e-05   0.45655031  0.018235581            0   0.43831472    1.4023032    1.8588535    10.571745 
 9690000   0.92249301 9.4097672e-05   0.53515128  0.014201544            0   0.52094974     1.349146    1.8842973    11.519899 
 9695000   0.95300444 6.4325393e-05    0.4867678 0.0039438814            0   0.48282392     1.393769    1.8805368     8.467457 
 9700000   0.81475313 1.3337565e-05   0.64489192  0.021129653            0   0.62376227    1.1915764    1.8364684     3.202235 
 9705000   0.87098593 5.5531819e-06   0.50872803  0.018877672            0   0.48985036    1.2738169     1.782545    2.3511908 
 9710000   0.89248202 6.861695e-05   0.48054043 0.0071338382            0   0.47340659     1.305255    1.7857954    8.8121711 
 9715000   0.93673955 4.7291604e-05   0.40720609  0.008091165            0   0.39911493    1.3699816    1.7771877    6.6198479 
 9720000   0.82593987 -4.5592748e-05   0.55453607  0.017889344            0   0.53664673    1.2079371    1.7624731   -2.9062243 
 9725000   0.90979093 7.556402e-08   0.44143095  0.025051232            0   0.41637972    1.3305692    1.7720002    1.7797379 
 9730000   0.99439075 -2.5312686e-05   0.33937138  0.010158178            0    0.3292132    1.4542965    1.7936678  -0.79835121 
 9735000    0.9307843 -8.7123273e-05    0.4671596 0.0066485869            0   0.46051101     1.361272    1.8284316   -7.0929915 
 9740000   0.85739703 -4.9407239e-05   0.53605844 0.0065068399            0    0.5295516    1.2539432    1.7900016   -3.2692997 
 9745000   0.90644333 1.4440626e-05   0.48691348 0.0077113222            0   0.47920216    1.3256734    1.8125869     3.291307 
 9750000   0.87901232 4.6282562e-06    0.5091063  0.022547449            0   0.48655886    1.2855555    1.7946618    2.2685953 
 9755000   0.90427234 -3.1825301e-05   0.51910501  0.021579065            0   0.49752594    1.3224983    1.8416033   -1.4173075 
 9760000   0.89474313 -4.3175428e-06   0.53253307 0.0020005035            0   0.53053257    1.3085618    1.8410949    1.3989785 
 9765000   0.87244813 7.0264247e-06   0.57575483 0.0034471338            0    0.5723077    1.2759554    1.8517102    2.5712161 
 9770000   0.96704369 3.4460528e-06   0.42657692 0.0012520615            0   0.42532486    1.4143014    1.8408783    2.1937541 
 9775000   0.93391479 7.5735135e-05   0.50591979  0.012851741            0   0.49306805    1.3658504    1.8717702     9.627048 
 9780000    0.8287313 4.8486197e-05   0.63981292  0.021307461            0   0.61850546    1.2120195    1.8518324    6.8168191 
 9785000   0.86560557 -8.792744e-06   0.59998157  0.029101304            0   0.57088027    1.2659482    1.8659297   0.96555273 
 9790000   0.90301847 -4.6944227e-06   0.55438468  0.034098829            0   0.52028585    1.3206645    1.8750492    1.3943403 
 9795000   0.92232263 -9.1685748e-05   0.51151706 0.0043849756            0   0.50713208    1.3488969    1.8604139   -7.5282066 
 9800000   0.86768179 -8.1645823e-05   0.61147416            0            0   0.61147416    1.2689846    1.8804588   -6.4800735 
 9805000   0.98150955 -6.6603806e-05   0.45105075 0.00019688331            0   0.45085386    1.4354577    1.8865085   -4.9337212 
 9810000   0.96868018 -8.5885032e-05   0.41467729 0.0016355636            0   0.41304173    1.4166948    1.8313721   -6.9632552 
 9815000   0.96884171 4.016475e-05   0.38840233 0.0096492697            0   0.37875306     1.416931    1.8053333    5.9182037 
 9820000    0.8946326 8.6527935e-06   0.48709897  0.036656062            0   0.45044291    1.3084002    1.7954992    2.6815452 
 9825000   0.86547013 5.0667135e-06   0.56620776  0.029654663            0   0.53655309    1.2657501    1.8319578    2.3507893 
 9830000    0.8462218 -4.6491863e-07   0.56438176  0.018059261            0    0.5463225    1.2375994    1.8019811    1.7543735 
 9835000   0.92139491 -1.3432183e-05   0.46831095  0.032727623            0   0.43558333    1.3475401     1.815851   0.44039549 
 9840000   0.82775423 -4.7216594e-05   0.60839845  0.013808105            0   0.59459034    1.2105906     1.818989   -3.0159902 
 9845000   0.91526692 -3.8730333e-05   0.45152751 0.0047647247            0   0.44676279    1.3385779    1.7901054   -2.1758808 
 9850000    0.8531929 5.6726336e-05   0.50957496 0.00086369259            0   0.50871127    1.2477946    1.7573696    7.5661464 
 9855000   0.86306066 -7.3339775e-05   0.49415189 0.00058156375            0   0.49357033    1.2622262    1.7563781   -5.7536148 
 9860000   0.82553619 1.9863143e-06   0.57155808 2.462555e-05            0   0.57153345    1.2073467    1.7789048    1.9823033 
 9865000   0.86741468 3.0906321e-05    0.5003095 0.00055056445            0   0.49975894     1.268594    1.7689035    4.9337107 
 9870000   0.86301511  0.000177002   0.51840303 0.0016415467            0   0.51676148    1.2621596    1.7805626    19.905568 
 9875000    0.8338529 5.1746176e-05   0.61735117  0.036098693            0   0.58125248    1.2195099     1.836861    7.1356695 
 9880000   0.83872122 2.8230956e-05   0.57672287  0.075438437            0   0.50128443    1.2266298    1.8033527    4.6942026 
 9885000    0.8345429 -6.0985935e-05   0.56276078  0.011104027            0   0.55165675     1.220519    1.7832798   -4.4616799 
 9890000   0.83878656 5.4265956e-06    0.5298575 0.0016924352            0   0.52816507    1.2267253    1.7565828    2.3122662 
 9895000   0.96624775 7.3260673e-05   0.36968004 0.0049967258            0   0.36468332    1.4131373    1.7828174    9.2847103 
 9900000   0.90365991 1.2671677e-05    0.4507715 0.0094699488            0   0.44130155    1.3216026    1.7723741    3.0699539 
 9905000   0.90599408 5.1977924e-05   0.44397644 0.0063679442            0   0.43760849    1.3250163    1.7689928    7.0915322 
 9910000   0.93297495 9.5239387e-05   0.39480024  0.012857749            0   0.38194249    1.3644759    1.7592761    11.511789 
 9915000   0.85907602 -1.2603696e-05   0.50540154  0.012163321            0   0.49323822    1.2563987    1.7618002   0.47118171 
 9920000    0.9601317 -8.1948006e-05   0.39918445  0.010684682            0   0.38849977    1.4041926    1.8033771   -6.5880987 
 9925000   0.87571719 1.6971237e-05   0.51356601  0.023336073            0   0.49022994    1.2807364    1.7943024    3.5321571 
 9930000   0.97945358 2.0655764e-05   0.37643796   0.02841976            0    0.3480182    1.4324509    1.8088888     3.924039 
 9935000   0.92297409 -2.4623968e-06   0.41233299  0.026291353            0   0.38604163    1.3498496    1.7621826    1.5100332 
 9940000   0.82953158 4.2523851e-05   0.53721284  0.023956258            0   0.51325658    1.2131899    1.7504028    6.1048451 
 9945000   0.87717097 1.1048057e-05   0.51891453    0.0626938            0   0.45622073    1.2828625    1.8017771    2.9330981 
 9950000   0.86192765 -4.1769042e-05    0.5549102  0.029866131            0   0.52504407    1.2605692    1.8154794   -2.4616706 
 9955000   0.91783079 2.0208829e-06   0.48849202   0.01318365            0   0.47530837    1.3423275    1.8308196     2.037758 
 9960000    0.9055146 6.7462706e-05   0.48402146 0.0039498332            0   0.48007162    1.3243151    1.8083366    8.7165177 
 9965000   0.93750489 0.00014253159   0.46149564 0.0022028702            0   0.45929277    1.3711009    1.8325965    16.427831 
 9970000    1.0726493 5.3952654e-05   0.26487443 0.00069868432            0   0.26417575    1.5687496    1.8336241    7.3583758 
 9975000   0.98560282 -9.8777072e-05   0.41226601   0.01083244            0   0.40143357    1.4414441    1.8537101    -8.261062 
 9980000   0.92175071 -0.00010873261   0.52385421  0.029851389            0   0.49400282    1.3480604    1.8719146   -9.2623049 
 9985000   0.94227881 -0.00010918303     0.489591  0.010087523            0   0.47950347    1.3780828    1.8676738   -9.3126681 
 9990000    1.0753902 -3.961285e-05    0.3123299 0.00054999402            0   0.31177991    1.5727582    1.8850881   -2.1712678 
 9995000    1.0276748 1.4805113e-05   0.46652043 0.00071251487            0   0.46580792    1.5029744    1.9694948    3.4855384 
10000000    1.0234032 2.2775636e-05   0.48317553  0.056488088            0   0.42668744    1.4967272    1.9799028    4.3121279 
10005000    1.1385487 4.5558291e-05   0.32369794  0.051957002            0   0.27174093    1.6651274    1.9888254    6.6539944 
10010000    1.0469697 3.4230487e-06   0.45921699  0.042939654            0   0.41627734    1.5311932    1.9904102    2.3409304 
10015000    1.0726577 3.014686e-05     0.398967 0.0084546528            0   0.39051235    1.5687619    1.9677289    5.0547674 
10020000   0.97396938 8.5878423e-05   0.54868882 0.00097764561            0   0.54771117    1.4244302     1.973119     10.76707 
10025000    1.1351564 -7.6569453e-05   0.32698121 0.0089081213            0   0.31807309    1.6601662    1.9871475   -5.8535645 
10030000   0.99783759 -7.2980141e-05   0.48073934 0.0093280159            0   0.47141133    1.4593375    1.9400768   -5.5330896 
10035000    1.0279221 -1.4922811e-05   0.47821056 0.0025001061            0   0.47571046    1.5033361    1.9815467    0.4534508 
10040000    1.0687142 0.00010570851   0.47068079  0.010757136            0   0.45992366    1.5629946    2.0336754    12.858227 
10045000    1.1066379 5.3217395e-05   0.45639583  0.021504768            0   0.43489106    1.6184579    2.0748537     7.524315 
10050000    1.0192467 -6.2314131e-06   0.54917659  0.013768544            0   0.53540804    1.4906483    2.0398249    1.4017282 
10055000    1.1031866 0.00011248303    0.4280579 0.0011883204            0   0.42686958    1.6134104    2.0414683    13.559731 
10060000    1.0810209 8.4139569e-05   0.45397745 0.00079229631            0   0.45318515    1.5809931    2.0349705    10.650862 
10065000    1.0555242 -2.3794939e-05   0.47423466   0.04460623            0   0.42962843    1.5437042    2.0179389  -0.41866288 
10070000    1.0998204 -5.7294988e-05   0.44247224  0.062251445            0    0.3802208    1.6084873    2.0509596   -3.8160471 
10075000    1.0562038 7.8145778e-05   0.50875592  0.021870719            0    0.4868852     1.544698    2.0534539    10.055582 
10080000    1.0444221 2.5795869e-05   0.49681676 0.0015350162            0   0.49528174    1.5274674    2.0242841    4.6657811 
10085000    1.0639208 -0.00012683525   0.43355543            0            0   0.43355543    1.5559842    1.9895396   -10.998391 
10090000    1.0682722 -5.9684373e-05     0.435837            0            0     0.435837    1.5623481    1.9981851   -4.1134947 
10095000    1.1503252 3.6970523e-05   0.35466779            0            0   0.35466779    1.6823506    2.0370184       5.8228 
10100000    1.1080729 7.1007521e-05   0.44582254 0.0060866872            0   0.43973585    1.6205566    2.0663791    9.3375492 
10105000    1.0190361 -1.0131687e-05   0.55616584  0.012692136            0    0.5434737    1.4903403    2.0465061    1.0090214 
10110000    1.0099849 5.2675609e-07     0.606311 0.0090461552            0   0.59726485    1.4771029    2.0834139    2.1373537 
10115000    1.0856423 -4.988504e-05   0.48293664 0.0032186173            0   0.47971802    1.5877519    2.0706885   -3.0375396 
10120000    1.0398064 2.9412767e-05   0.54745572 0.0016572996            0   0.54579842    1.5207168    2.0681725    5.0800398 
10125000    1.1304723 9.7474805e-05   0.40642446  0.002875138            0   0.40354932    1.6533158    2.0597402     12.04116 
10130000    1.1118625 -2.7012971e-05   0.41719623 0.0097212981            0   0.40747493    1.6260989    2.0432951  -0.72283313 
10135000    1.1338877 -5.676776e-06   0.40956298 0.0031490772            0    0.4064139    1.6583108    2.0678738    1.4865719 
10140000    1.1445973 3.1985796e-05   0.40097184 0.0031526381            0    0.3978192    1.6739735    2.0749453    5.3502908 
10145000    0.9880836 -4.2059999e-05   0.61068372  0.054267904            0   0.55641581    1.4450723     2.055756   -2.2511879 
10150000    1.0439112 1.4535027e-05   0.55082802  0.033971272            0   0.51685675    1.5267202    2.0775482     3.565935 
10155000    1.1272598 -4.2234065e-05    0.4715588 0.0064421203            0   0.46511668    1.6486174    2.1201762   -2.2045921 
10160000    1.1887029 1.9745693e-05   0.37614806 0.0013680384            0   0.37478002     1.738478    2.1146261    4.1365851 
10165000    1.0925094 6.6205915e-05   0.52190294  0.031390248            0   0.49051269     1.597795    2.1196979    8.8991837 
10170000    1.1885685 -7.0799255e-05   0.44929323  0.031613782            0   0.41767945    1.7382814    2.1875747    -5.062269 
10175000    1.2087923 -4.0940654e-05   0.43653689 0.00016461788            0   0.43637227    1.7678588    2.2043957   -1.9879273 
10180000    1.1449561 -7.8749411e-05   0.53669114            0            0   0.53669114    1.6744982    2.2111894   -5.8527503 
10185000    1.1475784 1.1239474e-05   0.53942982            0            0   0.53942982    1.6783335    2.2177633    3.3686854 
10190000    1.1795657 -1.7097775e-05   0.50636098            0            0   0.50636098    1.7251149    2.2314759   0.48066368 
10195000    1.1215151 8.1338864e-06   0.56376135            0            0   0.56376135    1.6402158    2.2039771    3.0368871 
10200000    1.0988216 -4.6856003e-05    0.6117534 0.0041092053            0    0.6076442    1.6070266      2.21878   -2.5792747 
10205000    1.1792723 6.4584435e-05   0.49328605  0.026520003            0   0.46676605    1.7246857    2.2179717    8.8314178 
10210000    1.1856241 -1.071043e-05   0.53150301   0.03754206            0   0.49396095    1.7339753    2.2654783    1.1687302 
10215000    1.1205522 -1.3981325e-05   0.59646977  0.062716699            0   0.53375307    1.6388076    2.2352774   0.80358976 
10220000    1.1648462 9.8894558e-05   0.59710773  0.025233072            0   0.57187466    1.7035876    2.3006953    12.427498 
10225000    1.1458697 -6.3839131e-05   0.64539503  0.018086876            0   0.62730815    1.6758344    2.3212295   -4.2158975 
10230000    1.2161364 4.463271e-05   0.55899404  0.081098472            0   0.47789557    1.7785994    2.3375935     6.907983 
10235000    1.3196158 2.257038e-05   0.41211966  0.088208345            0   0.32391131    1.9299381    2.3420577    4.6532647 
10240000    1.2895606 -3.9761924e-05   0.42889271   0.02862103            0   0.40027168    1.8859824    2.3148751   -1.7567459 
10245000     1.132736 -2.3696304e-05   0.64049965   0.05215258            0   0.58834707    1.6566264     2.297126  -0.12937546 
10250000    1.1896037 -3.9647508e-05    0.5782855  0.026452681            0   0.55183282    1.7397953    2.3180808   -1.7418239 
10255000     1.110686 -2.7943662e-05   0.67119348  0.018439456            0   0.65275402    1.6243782    2.2955717  -0.56585927 
10260000    1.1181032 1.3577854e-05    0.6762598  0.064526586            0   0.61173322    1.6352259    2.3114857     3.701858 
10265000    1.2867965 7.2782678e-05   0.44439623    0.0543312            0   0.39006503    1.8819399    2.3263361    9.7792823 
10270000    1.2213559 -3.4503473e-05   0.53585055  0.030199476            0   0.50565108     1.786233    2.3220836   -1.2110721 
10275000    1.3154372 -2.5303587e-05   0.39207963 0.0078651703            0   0.38421446    1.9238269    2.3159065  -0.27518076 
10280000     1.236365 1.4450821e-05   0.57410137 0.0039527367            0   0.57014863    1.8081838    2.3822852    3.8620493 
10285000    1.2135337 8.3032486e-05   0.58088898  0.022349905            0   0.55853907    1.7747931     2.355682    10.858209 
10290000    1.2299889 0.00010991152   0.49737121  0.032315208            0     0.465056    1.7988587      2.29623    13.551169 
10295000    1.1653452 -5.7708152e-05   0.58034869  0.039835102            0   0.54051359    1.7043174    2.2846661   -3.6246487 
10300000    1.2148128 -3.8755862e-05   0.48063846  0.045472453            0   0.43516601    1.7766637    2.2573022   -1.7112981 
10305000    1.1997891 3.2955377e-06   0.49348943  0.033823231            0    0.4596662    1.7546916     2.248181     2.585644 
10310000    1.1952426 4.7716777e-06   0.48049295  0.040017066            0   0.44047589    1.7480424    2.2285353    2.7171551 
10315000    1.2076256 -3.8194208e-05   0.48731441  0.015939334            0   0.47137508    1.7661524    2.2534668     -1.65762 
10320000    1.1700243 -1.2333058e-05   0.56178947  0.022592615            0   0.53919686    1.7111605      2.27295    1.0100448 
10325000    1.1791402 1.060679e-05   0.54378716  0.025362053            0   0.51842511    1.7244926    2.2682798     3.354415 
10330000     1.243074 -4.4226948e-05   0.42230132  0.016073684            0   0.40622764    1.8179957     2.240297   -2.2885424 
10335000    1.2471552 -5.1307696e-05   0.37593602 0.0048841213            0    0.3710519    1.8239645    2.1999006   -3.0540075 
10340000    1.2237992 -4.5637926e-06    0.4022082  0.010715358            0   0.39149284    1.7898063    2.1920145    1.7246821 
10345000    1.1944019 5.8425243e-06   0.41368724  0.023821442            0    0.3898658    1.7468128       2.1605    2.7587745 
10350000    1.2054684 2.056768e-05   0.46266175 0.0045836529            0   0.45807809    1.7629975    2.2256593    4.3317897 
10355000    1.1894195 7.9065144e-05   0.49878473 0.00047752009            0   0.49830721     1.739526    2.2383107    10.334581 
10360000    1.0916131 8.8252739e-05   0.61761043  0.034252936            0   0.58335749    1.5964842    2.2140946    11.251175 
10365000    1.1431916 5.8360358e-05   0.49713805  0.066373174            0   0.43076488    1.6719178    2.1690558    8.1451564 
10370000    1.2451449 -3.863072e-05   0.36970874  0.049146231            0   0.32056251    1.8210244    2.1907331   -1.7650526 
10375000    1.0168163 -0.00014098863   0.67801956  0.066439113            0   0.61158044    1.4870939    2.1651134   -12.272122 
10380000    1.1875607 -5.0834515e-05   0.45022207  0.015899981            0   0.43432209    1.7368076    2.1870296   -3.0184247 
10385000    1.1820837 6.4631311e-05    0.4341473  0.041925501            0    0.3922218    1.7287974    2.1629447    8.7811909 
10390000    1.0787281 9.6943145e-05   0.54741981  0.034058474            0   0.51336133    1.5776399    2.1250597    12.052038 
10395000    1.0602925 4.7377444e-05   0.53763297 0.0017199392            0   0.53591303    1.5506778    2.0883107     6.939761 
10400000    1.1289685 -6.2651465e-05   0.45325686 6.7524048e-05            0   0.45318934    1.6511164    2.1043733   -4.3111368 
10405000    1.0719884 -7.6876326e-05    0.5392598 3.7662187e-05            0   0.53922214     1.567783    2.1070428    -5.765093 
10410000    1.1682995 -3.7815301e-05   0.43460634 6.7668064e-05            0   0.43453867     1.708638    2.1432443   -1.7290425 
10415000    1.1727987 4.7866554e-05   0.41681197  0.015003777            0   0.40180819     1.715218      2.13203    7.0335652 
10420000     1.143932 8.0865864e-05   0.45876654   0.03034827            0   0.42841827    1.6730005     2.131767    10.412432 
10425000    1.2137706 4.9479773e-05   0.37387514 0.0041660588            0   0.36970908    1.7751395    2.1490147    7.2157435 
10430000    1.0935645 4.4010582e-05   0.51103104  0.021123893            0   0.48990715    1.5993381    2.1103692    6.6170528 
10435000    1.0413935 -1.904767e-05   0.54534676  0.048353447            0   0.49699332     1.523038    2.0683848   0.11790339 
10440000    1.1006415 -8.2426613e-05   0.45032677  0.035021483            0   0.41530529    1.6096882     2.060015   -6.3804701 
10445000    1.0255916 -8.2504588e-05   0.57146884  0.014755558            0   0.55671329    1.4999277    2.0713965   -6.3770733 
10450000    1.0325379 -7.9462243e-05   0.59988576  0.015980289            0   0.58390547    1.5100867    2.1099725   -6.0269612 
10455000    1.0793692 -0.00014888614   0.53167265  0.047065835            0   0.48460682    1.5785774      2.11025   -13.135691 
10460000    1.1435513 7.1734961e-06   0.45580541   0.13666753            0   0.31913788    1.6724438    2.1282492    2.8628152 
10465000    1.0664075 0.00011780828   0.56754122  0.024524426            0   0.54301679     1.559621    2.1271622    14.190731 
10470000    1.1340666 -9.7861629e-06   0.47519465  0.030155357            0   0.44503929    1.6585725    2.1337671     1.131664 
10475000    1.0630588 -9.3553351e-05   0.63072394  0.080318343            0   0.55040559    1.5547235    2.1854475   -7.3944157 
10480000    1.1279014 -5.3802939e-05   0.53667393   0.01957971            0   0.51709422    1.6495557    2.1862297   -3.3231912 
10485000    1.1409876 -2.2270065e-05   0.53077874  0.011511048            0   0.51926769    1.6686944    2.1994731 -0.080981579 
10490000    1.0992773 -6.419414e-06   0.56825588   0.00597175            0   0.56228413     1.607693    2.1759489    1.5186009 
10495000    1.2146644 5.4560951e-05    0.3801348  0.010229059            0   0.36990574    1.7764467    2.1565815    7.7436229 
10500000    1.2200364 3.9436249e-05   0.32099815 0.0051861773            0   0.31581197    1.7843032    2.1053014    6.1435733 
10505000    1.0241583 -4.0684981e-05    0.5655301 0.0070394535            0   0.55849064    1.4978315    2.0633616   -2.1027805 
10510000    1.1388455 -3.3659287e-05   0.44662091  0.019043322            0   0.42757759    1.6655615    2.1121824   -1.3345286 
10515000    1.0914826 5.0216396e-05   0.48827435 0.0089404188            0   0.47933393    1.5962932    2.0845676    7.2267265 
10520000    1.0572638 3.8681776e-05   0.53679559 0.00069969045            0    0.5360959    1.5462484    2.0830439    6.0440578 
10525000    1.1165278 -6.1179275e-05   0.51571531 0.0018084304            0   0.51390688    1.6329218    2.1486371   -4.1161206 
10530000    1.1812879 -6.7731582e-05   0.41321306 0.0054720281            0   0.40774103    1.7276336    2.1408466   -4.7948673 
10535000    1.0410575 -3.2471713e-05   0.59498545  0.014700218            0   0.58028523    1.5225466     2.117532   -1.2075714 
10540000    1.0244969 -6.0027084e-05   0.59576371 0.0078849514            0   0.58787876    1.4983268    2.0940905   -4.0526829 
10545000    1.1344978 3.3365405e-05   0.50867944 0.00016248985            0   0.50851695    1.6592031    2.1678825    5.5844999 
10550000    1.2330871 6.8581761e-05   0.39142292            0            0   0.39142292    1.8033899    2.1948128    9.2175851 
10555000     1.152719 1.3691715e-05   0.44899393            0            0   0.44899393    1.6858515    2.1348454    3.5368771 
10560000    1.0266979 -1.105363e-05   0.60132103            0            0   0.60132103    1.5015456    2.1028666   0.97097496 
10565000    1.1542186 -4.1066266e-05    0.4338557 0.0084176985            0   0.42543801    1.6880447    2.1219004   -2.0832852 
10570000     1.067244 1.2440506e-06   0.51423701  0.043386721            0   0.47085029    1.5608443    2.0750814    2.2024721 
10575000    1.0636882 -4.6852005e-05   0.51450402  0.018862236            0   0.49564178     1.555644     2.070148   -2.7274972 
10580000    1.0802548 -7.3740254e-05   0.48176338 0.00063650524            0   0.48112687    1.5798727    2.0616361    -5.489366 
10585000    1.0706951 8.2687408e-05   0.53659395 0.00015505882            0   0.53643889    1.5658916    2.1024856    10.569676 
10590000     1.173661 6.0152005e-05   0.39016346 0.0026403638            0    0.3875231    1.7164793    2.1066427     8.266208 
10595000     1.106834 1.7580636e-05   0.48919794  0.011371608            0   0.47782633    1.6187448    2.1079427    3.9081998 
10600000    1.0459763 8.3446338e-05   0.58655034 0.0091465328            0    0.5774038    1.5297403    2.1162906    10.661196 
10605000    1.0721046 2.382178e-06   0.57468314 0.0014550009            0   0.57322814     1.567953    2.1426362    2.3865712 
10610000    1.1125998 2.5002545e-05    0.4932662 0.0040417296            0   0.48922447    1.6271771    2.1204433    4.6807039 
10615000    1.1773823 6.7645787e-05   0.40645675  0.034912565            0   0.37154419    1.7219216    2.1283783    9.0553069 
10620000    1.0301343 2.3144098e-05   0.61704867  0.056386591            0   0.56066208    1.5065714    2.1236201    4.4935757 
10625000   0.97723345 -7.8219203e-06   0.66622469  0.060409619            0   0.60581507    1.4292039    2.0954286     1.294464 
10630000    1.1549508 -3.1050027e-06   0.38974362   0.02662124            0   0.36312238    1.6891155    2.0788591    1.7609068 
10635000    1.1068367 5.9442637e-05   0.45881351  0.033960746            0   0.42485277    1.6187487    2.0775622    8.1644882 
10640000    1.0914301 1.7750062e-05   0.44784385  0.045070247            0   0.40277361    1.5962166    2.0440604    3.8616668 
10645000   0.93953611 -5.7027751e-05   0.63000689  0.024102569            0   0.60590432    1.3740716    2.0040784   -3.8355633 
10650000    1.0593108 2.353713e-05   0.49235798  0.020448464            0   0.47190952    1.5492421       2.0416    4.4518022 
10655000    1.1097392 -2.5742026e-05   0.40778781  0.024940077            0   0.38284774    1.6229936    2.0307814  -0.60520202 
10660000    1.0322892 2.0205971e-05   0.52833972 0.0047286544            0   0.52361107     1.509723    2.0380627    4.1071542 
10665000    1.0774623 -2.4590353e-06   0.45532411 0.0075683378            0   0.44775578    1.5757886    2.0311127    1.7793075 
10670000    1.0705545 -5.1020856e-05   0.49059954 0.0089177555            0   0.48168179     1.565686    2.0562855   -3.1682502 
10675000    1.0528063 5.3993117e-05   0.48927089  0.050009444            0   0.43926145    1.5397292    2.0290001    7.5578953 
10680000    1.0391982 -1.3668974e-05   0.50488113  0.026532613            0   0.47834852    1.5198274    2.0247086    0.6250056 
10685000    1.0540218 -3.4691274e-05   0.48671544 0.0079547262            0   0.47876072    1.5415068    2.0282223   -1.5241642 
10690000    0.9673124 -1.7716536e-05   0.65538577  0.021927232            0   0.63345854    1.4146944    2.0700802    0.2559069 
10695000     1.018126 4.2371309e-05    0.5699555  0.035881297            0   0.53407421    1.4890092    2.0589647    6.3977867 
10700000    1.1830634 1.1534541e-05   0.36640084 0.0029546521            0   0.36344619    1.7302303    2.0966311    3.2777681 
10705000     1.119012 1.0848227e-05   0.46158324 0.0014628671            0   0.46012038    1.6365551    2.0981383    3.2089968 
10710000    1.0913483 2.0525557e-05   0.51166907 0.0015719175            0   0.51009715    1.5960969    2.1077659     4.209583 
10715000    1.0633017 3.6903505e-05   0.52395908 0.0030219586            0   0.52093712    1.5550788    2.0790378    5.8579568 
10720000    1.0967399 -2.7229633e-05   0.43564078 0.0003385086            0   0.43530227    1.6039821    2.0396229  -0.74869152 
10725000    1.0725444 -6.5906432e-05   0.45976753            0            0   0.45976753    1.5685962    2.0283637    -4.720455 
10730000   0.96860728 -3.5189929e-05   0.56246606 0.0057590553            0   0.55670701    1.4165881    1.9790542   -1.6243946 
10735000    1.0598448 8.7947231e-06   0.40320486  0.025236333            0   0.37796853     1.550023    1.9532279    2.8538075 
10740000   0.98441447 1.5459539e-05   0.53066324  0.018488446            0   0.51217479    1.4397062    1.9703694    3.5534262 
10745000    1.1162799 4.017339e-05   0.39810422 0.0019261626            0   0.39617806    1.6325593    2.0306635    6.1444187 
10750000    1.1468506 1.4220647e-05    0.3366402 0.0050303597            0   0.33160984    1.6772691    2.0139093    3.4701035 
10755000    1.0138204 -8.9492553e-05   0.52312608 0.0041668476            0   0.51895923    1.4827123    2.0058384   -7.1581991 
10760000   0.97850468 -0.00010113745    0.5737347  0.002667641            0   0.57106706    1.4310631    2.0047978   -8.3516774 
10765000    1.0639945 -2.6320609e-05   0.41754375 0.00024882516            0   0.41729493    1.5560919    1.9736357  -0.72159465 
10770000    1.0970542 1.5506998e-05   0.40733704            0            0   0.40733704    1.6044417    2.0117788    3.5996954 
10775000    1.1124674 -3.6148039e-05   0.39050301            0            0   0.39050301    1.6269836    2.0174866   -1.6840725 
10780000    1.1064734 -4.7896987e-05   0.42135359            0            0   0.42135359    1.6182174     2.039571   -2.8650806 
10785000    1.0683558 1.8161603e-05   0.47351501 0.0095832539            0   0.46393176    1.5624704    2.0359854    3.8957336 
10790000    1.1254988 -2.3541069e-05   0.39231087  0.039530435            0   0.35278043     1.646042    2.0383528  -0.37225258 
10795000    1.0512475 -4.64539e-05   0.53682583  0.040154611            0   0.49667122    1.5374495    2.0742753    -2.682604 
10800000    1.0738489 4.9612444e-05    0.4978346    0.0247177            0   0.47311691     1.570504    2.0683386    7.1486529 
10805000    1.0316822 8.3177302e-05   0.55674104  0.035557927            0   0.52118311    1.5088353    2.0655763    10.582932 
10810000     1.125798 2.3613134e-05   0.44800792 0.0084310254            0   0.43957689    1.6464795    2.0944875    4.5124724 
10815000    1.0850371 5.0458173e-06   0.50747469 0.0063066264            0   0.50116806    1.5868667    2.0943414    2.6110331 
10820000    1.2138482 -7.7159521e-06   0.32128203  0.001499641            0   0.31978239     1.775253    2.0965351    1.3064216 
10825000    1.1643415 -2.788388e-05   0.38537549            0            0   0.38537549    1.7028495     2.088225  -0.76708434 
10830000    1.0745879 7.3711279e-05   0.54131213 0.00020927602            0   0.54110285    1.5715848    2.1128969    9.6609319 
10835000    1.1610178 9.401346e-05   0.45764142  0.042478235            0   0.41516318    1.6979886      2.15563    11.782608 
10840000    1.0294002 2.8846368e-05   0.66892193   0.10751554            0   0.56140639    1.5054978    2.1744198    5.1282878 
10845000    1.0605763 6.8260332e-05   0.58935208  0.075067483            0   0.51428459    1.5510928    2.1404449    9.1303029 
10850000    1.1399819 9.8198253e-05   0.44849266  0.047822489            0   0.40067017    1.6672235    2.1157162    12.171217 
10855000    1.1181196 -2.0421929e-05   0.48324165  0.029712457            0   0.45352919      1.63525    2.1184916  0.027286056 
10860000   0.99290212 -4.9751198e-05   0.67930276  0.024548336            0   0.65475442    1.4521193    2.1314221   -2.9631006 
10865000    1.1776223 -7.891153e-06    0.4384785  0.037411306            0   0.40106719    1.7222726    2.1607511     1.352697 
10870000    1.1863754 -2.7606076e-05    0.3872316 0.0072130583            0   0.38001854     1.735074    2.1223056   -0.7045566 
10875000    1.1275675 -4.5352686e-05   0.45967854 0.0080716279            0   0.45160691    1.6490674    2.1087459   -2.5353691 
10880000    1.0045316 2.071589e-05   0.59882407  0.037313774            0   0.56151029    1.4691274    2.0679515    4.1892586 
10885000    1.1042697 5.5402143e-05   0.45523156  0.011560356            0    0.4436712    1.6149944     2.070226    7.7434054 
10890000    1.1283922 1.6582021e-05   0.45578024  0.021479838            0    0.4343004    1.6502736    2.1060539    3.8040528 
10895000   0.97102537 -1.8650108e-05   0.70379473  0.042707259            0   0.66108747    1.4201246    2.1239193   0.21414822 
10900000    1.0519778 -1.7720783e-06   0.59960299  0.024280647            0   0.57532234    1.5385175    2.1381205    1.9566596 
10905000    1.1023666 5.7105197e-06   0.54421799 0.0069177445            0   0.53730024    1.6122112    2.1564292    2.7411864 
10910000    1.1090412 -2.8490283e-05   0.49837526  0.031670673            0   0.46670459    1.6219728     2.120348   -0.7970569 
10915000     1.098601 -2.3357716e-05   0.51718527  0.052294907            0   0.46489036     1.606704    2.1238893  -0.26794083 
10920000    1.1458564 3.9890382e-05   0.47616772  0.013583335            0   0.46258438     1.675815    2.1519827    6.2367578 
10925000    1.1712758 -1.4242386e-05   0.40411635 0.00055439715            0   0.40356196    1.7129909    2.1171072   0.65868687 
10930000    1.0809857 -6.8328973e-05   0.58301523 0.0058993836            0   0.57711584    1.5809416    2.1639568     -4.83293 
10935000    1.0325692 5.879786e-06   0.63915491  0.070961188            0   0.56819372    1.5101324    2.1492873    2.7513774 
10940000    1.1125762 3.4792082e-05   0.51646637  0.071729096            0   0.44473728    1.6271427     2.143609    5.7063182 
10945000    1.1299026 -2.3591731e-06   0.53980034  0.024221125            0   0.51557921    1.6524826    2.1922829    1.9507036 
10950000    1.1796774 9.5815032e-06   0.47730773  0.028010356            0   0.44929737    1.7252782    2.2025859    3.1837318 
10955000    1.1853234 -2.7440085e-05   0.48204847  0.014500641            0   0.46754783    1.7335354    2.2155839  -0.59428084 
10960000     1.028838 -1.5088695e-05   0.72160636  0.014331484            0   0.70727488    1.5046755    2.2262819   0.68119955 
10965000     1.157489 4.064895e-05   0.54387435 0.0042017565            0   0.53967259    1.6928276     2.236702    6.3991544 
10970000    1.2456409 -1.1026635e-06    0.3723172 0.00025592563            0   0.37206128    1.8217498     2.194067    2.0811542 
10975000    1.1024019 -2.3777052e-05   0.61944813            0            0   0.61944813    1.6122628    2.2317109  -0.20305914 
10980000    1.0734423 4.8545195e-06   0.67429866 0.00039223657            0   0.67390642    1.5699093     2.244208    2.7413108 
10985000    1.0980358 2.786354e-06   0.67345905 0.00083631669            0   0.67262274    1.6058774    2.2793364    2.5646591 
10990000    1.1256574 -2.2190187e-05   0.60580728 0.00045895237            0   0.60534833    1.6462739    2.2520812 -0.020193938 
10995000    1.0178923 -2.040771e-05   0.74725169            0            0   0.74725169    1.4886675    2.2359192    0.1461697 
11000000    1.0985575 -2.9781587e-05   0.55901662            0            0   0.55901662    1.6066404     2.165657  -0.88397752 
11005000    1.2046882 -2.3683886e-05   0.43636204  0.014189655            0   0.42217238    1.7618565    2.1982185  -0.22701141 
11010000     1.111078 1.7280277e-05   0.54847191   0.13998838            0   0.40848354    1.6249516    2.1734235    3.9429239 
11015000    1.1361394 -8.4066474e-06   0.54034768  0.015035636            0   0.52531205    1.6616038    2.2019515    1.3411108 
11020000    1.1788921 -6.4215882e-05   0.43106299 0.0059683645            0   0.42509462    1.7241298    2.1551927   -4.4205136 
11025000    1.0125252 -2.0110573e-05   0.63194832  0.074027343            0   0.55792098    1.4808182    2.1127665  0.053443792 
11030000    1.0557222 5.0945191e-05   0.55127687  0.042738766            0    0.5085381    1.5439937    2.0952706    7.3120581 
11035000    1.0899853 2.7650339e-05   0.47811842  0.002122595            0   0.47599583    1.5941035    2.0722219    4.9036166 
11040000    1.1060465 -2.7708304e-05   0.47548131 0.0086611011            0   0.46682021     1.617593    2.0930743  -0.74425599 
11045000    1.1236917 -3.6525019e-05   0.46841381 0.0081985146            0   0.46021529    1.6433991    2.1118129   -1.6283491 
11050000    1.1431359 -2.3441089e-05   0.40455604 0.0023806937            0   0.40217535    1.6718363    2.0763924   -0.3239751 
11055000    1.0243891 -4.1463788e-05   0.50406477  0.019622943            0   0.48444183    1.4981691    2.0022339    -2.243658 
11060000    1.0445088 -2.5792572e-06   0.56218175  0.076120013            0   0.48606173    1.5275941    2.0897759      1.82566 
11065000    1.2209229 1.4331027e-05   0.31186219  0.034734456            0   0.27712774    1.7855997    2.0974619     3.564959 
11070000     1.064522 -3.6177027e-05   0.53597916  0.062909989            0   0.47306918    1.5568634    2.0928425    -1.611685 
11075000    1.0217117 -2.3885441e-05   0.57770668  0.012676567            0   0.56503011    1.4942534    2.0719601  -0.37390912 
11080000    1.0899513 -6.1239734e-06   0.50556276 0.0084407044            0   0.49712205    1.5940537    2.0996165    1.4725216 
11085000    1.1178469 -3.2440383e-05   0.48161236  0.013028418            0   0.46858394    1.6348511    2.1164635   -1.2054317 
11090000    1.1371459 -5.4357264e-05   0.43785988  0.015309503            0   0.42255038    1.6630759    2.1009358    -3.465248 
11095000    1.1282303 -1.3728555e-05   0.44527271  0.060577376            0   0.38469534    1.6500368    2.0953095    0.6895054 
11100000    1.1310417 -2.4982406e-06   0.45673844  0.046995181            0   0.40974326    1.6541485    2.1108869    1.8550671 
11105000    1.0609598 -7.6267101e-06   0.60171621  0.030530086            0   0.57118612    1.5516537    2.1533699    1.3723948 
11110000    1.1813093 -2.0585941e-06   0.42666823 0.0011756223            0   0.42549261    1.7276649    2.1543331    1.9435331 
11115000    1.1131121 1.8377736e-05   0.48013101 0.0015708631            0   0.47856015    1.6279264    2.1080574    3.9899376 
11120000    1.2011101 1.0227668e-05   0.40472822 0.0091440611            0   0.39558416    1.7566235    2.1613517    3.2086649 
11125000    1.1412141 -1.5348373e-05   0.52927392  0.012225448            0   0.51704847    1.6690257    2.1982996   0.62662614 
11130000    1.2452154 8.265054e-06   0.41021552   0.02358345            0   0.38663207    1.8211276    2.2313431    3.0776846 
11135000    1.2482128 7.5749625e-06   0.43736763  0.027509771            0   0.40985786    1.8255111    2.2628788    3.0385549 
11140000    1.3101898 -1.1613684e-05   0.38478815  0.019151699            0   0.36563646    1.9161527    2.3009408    1.1116995 
11145000    1.2570566 3.0113256e-05   0.48922688  0.026925709            0   0.46230117    1.8384453    2.3276721    5.4112695 
11150000    1.1488299 7.6700208e-05   0.58510563  0.011462253            0   0.57364338    1.6801638    2.2652694    10.119371 
11155000    1.1791435 7.8709166e-05   0.52476122    0.0461941            0   0.47856712    1.7244974    2.2492586    10.309077 
11160000    1.2563517 2.4360658e-06   0.40234757  0.017127888            0   0.38521968    1.8374143    2.2397619     2.489215 
11165000    1.2036068 -5.3922792e-05   0.43102843  0.013844213            0   0.41718421    1.7602749    2.1913033   -3.3303906 
11170000    1.1862256 -3.9602317e-05   0.43837204  0.028448933            0   0.40992311     1.734855     2.173227   -1.8820502 
11175000    1.2119231 -7.6366588e-06   0.37941007  0.040726075            0   0.33868399    1.7724376    2.1518476    1.3698538 
11180000    1.1268555 1.4507308e-05   0.48720582  0.029270705            0   0.45793512    1.6480262     2.135232    3.6207803 
11185000    1.1434331 -2.1470397e-06   0.51117997  0.006115316            0   0.50506465    1.6722709    2.1834509     1.963594 
11190000    1.0684407 2.0589803e-05   0.56029299 4.3715161e-05            0   0.56024928    1.5625945    2.1228875    4.2312834 
11195000    1.1017019 7.701845e-05   0.51905724            0            0   0.51905724     1.611239    2.1302962    10.016985 
11200000    1.0889388 4.1764494e-05   0.52853337 8.630093e-05            0   0.52844707     1.592573    2.1211064    6.3977906 
11205000    1.0288601 -2.3600626e-05   0.60942398 0.00042157505            0    0.6090024    1.5047079    2.1141319  -0.30257219 
11210000    1.1319116 3.5461763e-05   0.47057334 0.00022341738            0   0.47034993    1.6554207    2.1259941    5.7572786 
11215000    1.0088255 1.8284178e-05   0.64997364            0            0   0.64997364    1.4754073     2.125381    3.9976808 
11220000     1.131637 -7.1063057e-05   0.49681416            0            0   0.49681416    1.6550191    2.1518333   -5.1250238 
11225000    1.0811311 1.7901935e-05   0.57918725            0            0   0.57918725    1.5811542    2.1603415    3.9934996 
11230000      1.16826 7.226619e-05   0.46772426            0            0   0.46772426    1.7085802    2.1763045    9.5763623 
11235000    1.1251745 5.2825555e-05   0.53952303            0            0   0.53952303    1.6455677    2.1850908    7.5944276 
11240000     1.205094 2.852418e-05   0.45414656 0.00091756899            0   0.45322899      1.76245    2.2165966    5.1374727 
11245000    1.0820157 -5.6960785e-05   0.58532602 0.0035008735            0   0.58182514    1.5824479    2.1677739   -3.6650105 
11250000    1.1766991 -4.7903619e-05    0.4423175 0.0028451597            0   0.43947234    1.7209225      2.16324   -2.7420907 
11255000    1.1241265 4.8243178e-05   0.53079497 0.0059099751            0     0.524885    1.6440349    2.1748299    7.1149313 
11260000    1.0839925 3.3395362e-05    0.6303378  0.040467331            0   0.58987047     1.585339    2.2156768    5.6353619 
11265000    1.0800081 1.598958e-05   0.61718659  0.031375564            0   0.58581102    1.5795118    2.1966984    3.8340313 
11270000     1.218651 4.650214e-05   0.39563434  0.028137613            0   0.36749672    1.7822771    2.1779115    6.9397306 
11275000    1.1302904 -2.6577751e-05   0.52237396  0.055639956            0   0.46673401    1.6530497    2.1754237  -0.54613809 
11280000    1.1734881 -4.0333958e-05   0.43493224 0.0062600455            0    0.4286722    1.7162263    2.1511585   -1.9790388 
11285000    1.0665325 1.9717075e-05   0.55143958  0.019239228            0   0.53220035    1.5598038    2.1112433    4.1302718 
11290000     1.077625 -1.0163289e-06   0.51123794   0.06719993            0   0.44403801    1.5760266    2.0872646    1.9831925 
11295000    1.0418802 -2.237458e-05   0.60431489  0.038563933            0   0.56575096    1.5237498    2.1280646  -0.16309235 
11300000    1.1195841 1.7956517e-05    0.4906435  0.020857234            0   0.46978627    1.6373917    2.1280352    3.9667826 
11305000    1.0929105 2.8704672e-05   0.52538543 0.0037689724            0   0.52161646    1.5983816     2.123767    5.0631254 
11310000    1.1512985 7.8275493e-06    0.4982606  0.011244293            0    0.4870163    1.6837741    2.1820347    2.9835758 
11315000    1.1035567 -3.0797966e-05   0.55840372  0.039207819            0    0.5191959    1.6139517    2.1723554  -0.98135629 
11320000    1.0553044 2.9698258e-05   0.63469516   0.12125364            0   0.51344152    1.5433826    2.1780778    5.2191794 
11325000    1.0200529 -4.6651993e-05   0.66423596   0.13735776            0    0.5268782    1.4918274    2.1560633   -2.6211007 
11330000   0.96984267 -0.00014341421   0.70747604  0.040281001            0   0.66719504    1.4183949    2.1258709   -12.559745 
11335000    1.1150693 -5.4488087e-05   0.47640502 0.0083396414            0   0.46806537    1.6307888    2.1071938   -3.4723863 
11340000    1.0849005 6.8047644e-05   0.51861551 0.0013789084            0    0.5172366     1.586667    2.1052825    9.0733613 
11345000    1.0606171 3.6215968e-05    0.5273471 1.4653713e-05            0   0.52733245    1.5511525    2.0784996    5.7870146 
11350000    1.1604881 8.7570433e-06   0.37169589            0            0   0.37169589    1.6972139    2.0689098     2.965631 
11355000   0.98597806 -1.0328048e-05   0.58710807 0.0033810351            0   0.58372704    1.4419929     2.029101   0.97150883 
11360000   0.91736665 -7.8121808e-05   0.68647188  0.015421312            0   0.67105057    1.3416487    2.0281206   -5.9715525 
11365000    1.0327416 -6.0187798e-05   0.52572781  0.023127406            0   0.50260041    1.5103846    2.0361124   -4.1271181 
11370000   0.98444034 -2.6424156e-05   0.58284697  0.018945863            0    0.5639011     1.439744     2.022591  -0.68324257 
11375000   0.88444388 1.4605327e-05   0.74708303  0.037359464            0   0.70972357    1.2934992    2.0405822    3.5361676 
11380000    1.0311575 7.2901508e-05   0.51229555  0.019568591            0   0.49272696    1.5080678    2.0203634    9.4854778 
11385000    1.0257431 -6.792861e-05   0.52740825 0.00041942508            0   0.52698882    1.5001493    2.0275576   -4.9283321 
11390000    1.0483347 -0.00015242548   0.51033189 0.0038509651            0   0.50648093    1.5331895    2.0435214   -13.564848 
11395000    1.0904808 -4.0403349e-05   0.46361156  0.029232197            0   0.43437936    1.5948281    2.0584397   -2.0788633 
11400000    1.0670492 5.2992493e-05   0.49789993  0.029360089            0   0.46853984    1.5605594    2.0584593    7.4848906 
11405000    1.0302598 3.1513098e-05   0.52046841 0.0041683186            0   0.51630009     1.506755    2.0272234    5.2541646 
11410000    1.0312289 -6.0627474e-05   0.51425426  0.043278273            0   0.47097598    1.5081723    2.0224265   -4.1858268 
11415000    1.0170132 -8.7936777e-06   0.53301094  0.050072238            0    0.4829387    1.4873818    2.0203928    1.1199202 
11420000     1.010733 -9.9112764e-06   0.52297171 0.00048880382            0    0.5224829     1.478197    2.0011687   0.98625398 
11425000    1.0479907 -0.00015012909   0.45858321 0.0030015685            0   0.45558164    1.5326863    1.9912695   -13.381949 
11430000    1.0240916 -3.3787248e-05   0.55810297  0.038359189            0   0.51974379    1.4977339    2.0558369   -1.4039773 
11435000     1.028577 0.00010202998   0.55835729  0.019964358            0   0.53839293    1.5042939    2.0626512    12.510521 
11440000    1.0914202 3.2952708e-07   0.45458875 0.00010359176            0   0.45448516    1.5962021    2.0507908    2.0845344 
11445000    1.0147863 1.4841668e-05   0.55229102 0.0013334378            0   0.55095758    1.4841249     2.036416    3.5562027 
11450000    1.0806803 9.2853676e-05   0.47016952 0.0020836134            0   0.46808591    1.5804949    2.0506645    11.558881 
11455000    1.0674836 -3.9734793e-05   0.50956884 0.0010537551            0   0.50851508    1.5611948    2.0707636   -1.9980792 
11460000    1.0214819 -0.00012273001   0.57699962 0.00011963289            0   0.57687999    1.4939173    2.0709169   -10.496636 
11465000    1.1014583 3.4369013e-05   0.45926103            0            0   0.45926103    1.6108827    2.0701437    5.5895307 
11470000   0.91632589 0.00013571137   0.66733517            0            0   0.66733517    1.3401266    2.0074618    15.904306 
11475000    1.0607859 9.2576929e-05   0.46298819 0.00029308736            0   0.46269511    1.5513993    2.0143875    11.494265 
11480000    1.0642227 6.688181e-06   0.43801554 0.0041724307            0   0.43384311    1.5564258    1.9944413     2.679311 
11485000   0.94806901 -1.8899813e-05   0.60035011  0.012303024            0   0.58804709    1.3865509     1.986901  0.051560161 
11490000   0.96384472 -3.7481159e-05   0.60607282 0.0042000426            0   0.60187278    1.4096229    2.0156957   -1.8223749 
11495000    1.0668568 -8.9335595e-06   0.48194344 4.3557942e-05            0   0.48189989    1.5602781    2.0422216    1.1274251 
11500000    1.0341181 1.1066172e-06   0.47888083 0.0017512697            0   0.47712956    1.5123977    1.9912786    2.1045962 
11505000   0.99508711 3.7971555e-05   0.54680029 0.0060998592            0   0.54070043    1.4553149    2.0021152    5.8904025 
11510000   0.99282591 4.0634467e-06    0.5499826  0.013879199            0    0.5361034    1.4520079    2.0019905    2.4180874 
11515000    1.0321526 -4.5929058e-05   0.48353545  0.024066222            0   0.45946923    1.5095232    1.9930586    -2.710077 
11520000     0.933323 1.6285137e-05    0.6373106 0.0075423126            0   0.62976828    1.3649849    2.0022955    3.6698935 
11525000   0.97946979 9.8293079e-05   0.56168053 0.00038612076            0   0.56129441    1.4324746    1.9941551    12.059366 
11530000    1.1007134 4.2461628e-05   0.42202708 0.00046127313            0   0.42156581    1.6097933    2.0318204    6.3798911 
11535000    1.0176045 -4.3404119e-05   0.53540254  0.013265954            0   0.52213658    1.4882465    2.0236491   -2.4209327 
11540000   0.92614586 -3.3252771e-05   0.68050767  0.028459962            0   0.65204771    1.3544883     2.034996   -1.3700878 
11545000   0.90003673 -4.1178748e-06   0.68478473   0.02001099            0   0.66477374    1.3163037    2.0010884    1.5794181 
11550000    1.0959066 -2.6487414e-05   0.42204514 0.0027943096            0   0.41925083    1.6027634    2.0248085  -0.68750274 
11555000    1.0052938 -1.6943011e-06   0.52042115 0.0026149672            0   0.51780618    1.4702422    1.9906633    1.8171669 
11560000     1.041895 5.5167408e-05    0.4782209  0.044545753            0   0.43367515    1.5237714    2.0019923    7.6511349 
11565000   0.97029111 1.6553156e-05   0.57850548  0.085224203            0   0.49328128    1.4190508    1.9975562    3.6925994 
11570000      1.05583 1.6536048e-05   0.47604313  0.075690553            0   0.40035258    1.5441514    2.0201945    3.7134858 
11575000    1.0280417 0.00010397828   0.54163592  0.022448537            0   0.51918738     1.503511    2.0451469    12.692522 
11580000   0.95633159 8.9362137e-05    0.6563787 0.0095774493            0   0.64680125     1.398635    2.0550137    11.205696 
11585000    1.0385478 5.0020303e-05   0.54661308 0.0068115467            0   0.53980153    1.5188762    2.0654893    7.1875683 
11590000    1.1947659 9.3388828e-06   0.30846529 0.00083743174            0   0.30762786    1.7473452    2.0558104     3.012112 
11595000   0.94441806 2.0588435e-05   0.64186489            0            0   0.64186489    1.3812114    2.0230763     4.131332 
11600000   0.88589343 -1.1500119e-05   0.71148622            0            0   0.71148622    1.2956191    2.0071054   0.82949318 
11605000   0.98248193 8.0171125e-06   0.55594418            0            0   0.55594418    1.4368798     1.992824    2.8137763 
11610000    1.1056524 9.8513445e-05   0.38214641            0            0   0.38214641    1.6170166     1.999163     12.08694 
11615000     1.013867 5.9165119e-05   0.47283789 2.115244e-05            0   0.47281673    1.4827804    1.9556183    8.0141265 
11620000   0.97354294 -1.9826843e-05   0.53322932            0            0   0.53322932    1.4238066    1.9570359  -0.07323288 
11625000   0.98440474 5.8207993e-05   0.49864608            0            0   0.49864608    1.4396919     1.938338    7.8988365 
11630000    1.0548257 4.6875065e-05   0.35515481  0.018561827            0   0.33659298    1.5426825    1.8978374     6.697844 
11635000   0.86026196 -4.871018e-05    0.6252468  0.073530598            0    0.5517162    1.2581331    1.8833799   -3.1045425 
11640000   0.94720244 4.9437274e-05   0.47656892  0.029706048            0   0.44686287    1.3852836    1.8618525    6.9242293 
11645000   0.95090547 5.5731523e-05   0.45079032  0.012494194            0   0.43829612    1.3906993    1.8414896    7.5483975 
11650000   0.96996742 -6.3187318e-05   0.44713655 0.0040865208            0   0.44305003    1.4185774    1.8657139   -4.6046674 
11655000   0.96657239 5.3072646e-06   0.44981628  0.011080181            0   0.43873609    1.4136121    1.8634284    2.4068923 
11660000   0.89877428 5.693539e-05   0.57280491  0.016253329            0   0.55655158    1.3144574    1.8872623    7.7174462 
11665000    0.9271808 -2.7523718e-05   0.55834521 0.0056333992            0   0.55271181    1.3560019    1.9143471  -0.90408163 
11670000    1.0938903 4.9055431e-05   0.39007269 0.0092191973            0   0.38085349    1.5998146    1.9898872    7.0131634 
11675000   0.99761559 3.9191041e-05   0.56350031  0.046281827            0   0.51721848    1.4590128    2.0225131    6.0356757 
11680000    1.0079872 1.2085217e-06   0.55756894  0.012669716            0   0.54489923    1.4741812    2.0317502    2.1555028 
11685000   0.97135685 -3.3216995e-05   0.58551551 0.0053002876            0   0.58021522    1.4206094    2.0061249   -1.3952954 
11690000   0.91338378 -6.0599527e-05   0.63865562  0.017149542            0   0.62150607    1.3358238    1.9744794   -4.2309122 
11695000   0.90507757 3.3198169e-05   0.62535017 0.0061596926            0   0.61919048    1.3236759    1.9490261    5.3485186 
11700000     1.056123 5.9680366e-05   0.41045769 0.0027015692            0   0.40775612      1.54458    1.9550377    8.0663072 
11705000    1.0626087 -9.7580316e-06   0.41589221 0.0030532148            0   0.41283899    1.5540652    1.9699574   0.97073499 
11710000    0.9263624 -8.0129865e-05   0.63687613 0.0023767429            0   0.63449939     1.354805    1.9916811    -6.213617 
11715000    1.0199829 -7.4194134e-05   0.49213673 0.0068433789            0   0.48529335     1.491725    1.9838617   -5.6136176 
11720000    1.0734877 -2.6007492e-06    0.4452925  0.010520478            0   0.43477202    1.5699758    2.0152683    1.7489516 
11725000    1.0293095 -4.5693351e-06    0.5263596 0.0040796514            0   0.52227995    1.5053652    2.0317248    1.5638248 
11730000    1.0314108 -5.0743092e-05   0.54649716 0.0094795441            0   0.53701761    1.5084383    2.0549355   -3.1411572 
11735000     1.044075 -5.8105526e-05   0.53908868  0.023925689            0   0.51516299    1.5269597    2.0660484   -3.8839575 
11740000    1.0178482 -4.3058642e-05   0.55544999  0.026213472            0   0.52923652     1.488603     2.044053    -2.365152 
11745000   0.98206277 -2.545193e-05   0.65634993  0.087794052            0   0.56855588    1.4362668    2.0926167  -0.51366088 
11750000    1.0982916 -5.9620514e-05   0.53933193  0.011093352            0   0.52823858    1.6062514    2.1455833   -3.9595573 
11755000    1.0680085 -2.0028213e-05   0.54646304  0.001191924            0   0.54527111    1.5619625    2.1084255  0.057536536 
11760000    1.2082531 3.3382917e-05   0.35288168 0.0028124277            0   0.35006925    1.7670701    2.1199518    5.5383624 
11765000    1.1412622 2.9489897e-05    0.5242589 0.0069953998            0    0.5172635     1.669096    2.1933549    5.2131204 
11770000    1.1374222 3.6714955e-05   0.53010996  0.016508464            0   0.51360149      1.66348      2.19359    5.9532014 
11775000    1.1582495 -3.2153867e-06   0.49764499  0.027093691            0    0.4705513    1.6939399    2.1915849    1.8623293 
11780000    1.0942046 -3.8325113e-05   0.59976849  0.016521696            0   0.58324679    1.6002743    2.2000428   -1.7244488 
11785000    1.1121819 -1.5407144e-05   0.56280609 0.0021422449            0   0.56066384     1.626566    2.1893721   0.61168055 
11790000    1.1456749 1.9630282e-06   0.49835442            0            0   0.49835442    1.6755495    2.1739039     2.374918 
11795000    1.1095796 6.6121744e-05   0.57090646 0.00044822993            0   0.57045823    1.6227602    2.1936667    8.9645332 
11800000    1.1508174 6.6756857e-05   0.50380766 0.0031191459            0   0.50068852    1.6830704    2.1868781    9.0227802 
11805000    1.1791624 2.1904436e-05   0.43517274  0.033793796            0   0.40137894     1.724525    2.1596977    4.4027119 
11810000    1.1859489 4.2720612e-05   0.41650766  0.015913396            0   0.40059427    1.7344502    2.1509579    6.5255485 
11815000     1.049767 -7.8420737e-06    0.6273819  0.011902445            0   0.61547945    1.5352843    2.1626662    1.3596378 
11820000   0.96461764 8.1970131e-07   0.75192675  0.062562361            0   0.68936439    1.4107533    2.1626801    2.2466175 
11825000   0.97554697 1.8137137e-05   0.75333023   0.07195257            0   0.68137766    1.4267374    2.1800677    4.0373105 
11830000    1.1008986 1.2418055e-06   0.56316563  0.081314127            0    0.4818515    1.6100642    2.1732299    2.3003907 
11835000    1.0468002 9.8798579e-06   0.68016888  0.057488679            0    0.6226802    1.5309453    2.2111142    3.2228116 
11840000    1.1660232 -3.6512587e-05   0.48970684  0.015152575            0   0.47455426    1.7053089    2.1950158   -1.5438731 
11845000    1.1120802 -0.00010002782   0.56737695 0.0053578654            0   0.56201908    1.6264172    2.1937942   -8.0490542 
11850000    1.0840761 -8.4637876e-05   0.60687858 0.0097204532            0   0.59715812    1.5854612    2.1923398   -6.4745787 
11855000    1.1096793 -4.0058021e-05   0.53631709   0.03298192            0   0.50333517     1.622906     2.159223   -1.9427183 
11860000    1.0886769 1.0410123e-05   0.59161993  0.016315378            0   0.57530455    1.5921899    2.1838099    3.2498065 
11865000    1.0282918 7.3092489e-06   0.69339081  0.014806999            0   0.67858381    1.5038767    2.1972676    2.9457346 
11870000    1.0812847 1.3443139e-06   0.63749323  0.037701855            0   0.59979138    1.5813788    2.2188721    2.3565298 
11875000    1.2037061 4.8156727e-05   0.48155601  0.024391294            0   0.45716472    1.7604202    2.2419762     7.173225 
11880000    1.1269444 5.3765285e-05   0.58564284 0.0091838543            0   0.57645898    1.6481562     2.233799    7.7393643 
11885000    1.0651517 -5.6492343e-05   0.65738595  0.016693501            0   0.64069245    1.5577844    2.2151703   -3.5696456 
11890000    1.1455029 -7.6404562e-05   0.53773802  0.013329979            0   0.52440804     1.675298     2.213036   -5.6107912 
11895000    1.1245463 -3.4606228e-05   0.55485215 0.00035788997            0   0.55449426     1.644649    2.1995011   -1.3441766 
11900000    1.2054219 -6.2501874e-05   0.49740948            0            0   0.49740948    1.7629295     2.260339    -4.139853 
11905000     1.097989 -1.5618634e-05   0.61375615            0            0   0.61375615    1.6058089     2.219565   0.62021692 
11910000    1.1105389 -3.8783017e-06   0.58445877 0.0045955297            0   0.57986324    1.6241632    2.2086219    1.8114838 
11915000    1.0305282 -1.7672183e-05   0.68514872   0.02929276            0   0.65585596    1.5071475    2.1922962   0.38266467 
11920000    1.1212146 -6.548418e-05   0.54961161  0.026615838            0   0.52299577    1.6397763    2.1893879   -4.5161921 
11925000    1.1515508 -3.2196204e-05   0.52002147   0.07286286            0   0.44715861    1.6841431    2.2041646   -1.0927267 
11930000    1.0913542 -6.7123953e-05   0.60371451 0.0098857589            0   0.59382875    1.5961055      2.19982   -4.6736728 
11935000    1.0214337 -2.3025609e-05   0.66388118            0            0   0.66388118    1.4938468     2.157728  -0.20009438 
11940000    1.0271951 2.3697859e-05   0.61937431 0.0042538068            0    0.6151205    1.5022729    2.1216472     4.548308 
11945000    1.0871244 -2.9307636e-05   0.51619954  0.037601279            0   0.47859826    1.5899195     2.106119  -0.89498287 
11950000    1.1821237 5.0692953e-05   0.35907407  0.041509442            0   0.31756463    1.7288559      2.08793    7.2788883 
11955000    1.0331913 6.9448906e-05   0.55439361  0.016835861            0   0.53755774    1.5110423    2.0654359    9.1770038 
11960000    1.1019883 1.3206679e-05   0.50036061 0.0037358464            0   0.49662476    1.6116579    2.1120185    3.4643824 
11965000     1.118538 3.1028895e-05   0.47555496 0.00096067018            0   0.47459429    1.6358619    2.1114168    5.2887757 
11970000    1.0584545 1.6481286e-05   0.52710017 0.0016895509            0   0.52541062    1.5479897    2.0750899    3.7627736 
11975000    1.0612993 -2.2758219e-05   0.56596344  0.002759682            0   0.56320376    1.5521502    2.1181136  -0.21232796 
11980000    1.1150852 -4.8343259e-05   0.44252142  0.020287404            0   0.42223401    1.6308121    2.0733335   -2.8770162 
11985000   0.94875367 -2.4184028e-05   0.63523877  0.023653689            0   0.61158508    1.3875522     2.022791  -0.45365347 
11990000   0.97546972 -1.0244186e-05   0.57752465 0.0034954451            0    0.5740292    1.4266245    2.0041491   0.95514443 
11995000   0.96081471 2.6202736e-05   0.59728748 8.0683975e-07            0   0.59728667    1.4051915     2.002479    4.6856392 
12000000    1.0118109 1.3368738e-05   0.44829379            0            0   0.44829379    1.4797734    1.9280672     3.297026 
12005000    1.0648623 -9.1016451e-05   0.39831739 0.0016723886            0     0.396645    1.5573611    1.9556785    -7.364406 
12010000   0.98506471 -9.217762e-05    0.4877802  0.015617612            0   0.47216259    1.4406571    1.9284373    -7.510551 
12015000   0.95073902 4.4609976e-05   0.51029909  0.022201451            0   0.48809764    1.3904558    1.9007549    6.4688165 
12020000    0.9433674 5.0466366e-05   0.55051405   0.03798752            0   0.51252653    1.3796748    1.9301889    7.0979448 
12025000   0.94662073 -5.8661883e-05   0.56557106 0.0075600136            0   0.55801105    1.3844328    1.9500039   -4.0569729 
12030000    1.0032036 -1.467207e-05   0.45655565  0.005148695            0   0.45140696    1.4671853    1.9237409   0.42132097 
12035000   0.99177713 5.1031907e-06   0.45653548 0.0047168071            0   0.45181868    1.4504741    1.9070095    2.4295763 
12040000    1.0089905 -1.9230833e-05   0.41554927   0.05047969            0   0.36506958    1.4756485    1.8911978 -0.078039526 
12045000   0.98549241 1.8581173e-05   0.45576871   0.08381674            0   0.37195197    1.4412826    1.8970514    3.7997634 
12050000   0.90906967 -5.8686775e-05   0.57466812  0.021826597            0   0.55284152    1.3295144    1.9041825   -4.1053433 
12055000    1.0408973 -5.5089593e-05   0.40598759 0.0022996588            0   0.40368793    1.5223122    1.9282998   -3.7128745 
12060000   0.94008669 -5.4401223e-05   0.49945574 0.0034203863            0   0.49603535    1.3748768    1.8743325   -3.6963527 
12065000   0.89073093 -8.8486363e-05   0.54783242  0.007640882            0   0.54019154     1.302694    1.8505264   -7.2104772 
12070000   0.89566076 -2.8633744e-05   0.55485634  0.022457276            0   0.53239906    1.3099039    1.8647602   -1.0673352 
12075000   0.95801649 5.4411073e-05   0.46208942  0.011420968            0   0.45066845    1.4010991    1.8631885    7.4348824 
12080000   0.99925136 3.1609953e-05   0.41894965  0.038523272            0   0.38042637    1.4614051    1.8803548     5.117214 
12085000   0.93070425 -2.0516231e-05   0.50206959  0.030176237            0   0.47189335     1.361155    1.8632246   -0.2376375 
12090000   0.87936763 -2.138933e-05   0.53296638  0.025532659            0   0.50743372    1.2860752    1.8190415  -0.37122583 
12095000   0.87955718 -2.1384845e-05   0.55425509  0.013600213            0   0.54065488    1.2863524    1.8406075  -0.34920064 
12100000    0.8913178 -4.5587682e-05   0.56758941   0.02232116            0   0.54526825    1.3035523    1.8711417   -2.7970369 
12105000   0.92440131 -2.6358618e-07   0.52524969  0.044207022            0   0.48104267    1.3519369    1.8771866    1.8501954 
12110000   0.88733451 7.2982382e-05   0.55353466  0.042839105            0   0.51069555    1.2977267    1.8512614    9.3246573 
12115000    1.0134111 0.00010473225   0.39631776  0.038343899            0   0.35797386    1.4821138    1.8784315    12.603014 
12120000   0.84866409 5.0418161e-05   0.65833794  0.017892617            0   0.64044533    1.2411712    1.8995092    7.0623289 
12125000    1.0554527 9.9890805e-06   0.34843431  0.031011052            0   0.31742326    1.5435996    1.8920339    2.9149158 
12130000   0.85506332 6.8849696e-06   0.63726139   0.11721583            0   0.52004556    1.2505301    1.8877915    2.5928124 
12135000   0.85350567 -1.8812626e-05   0.59454759   0.06024483            0   0.53430276     1.248252    1.8427996  -0.08361324 
12140000   0.94210532 -3.899206e-06   0.47367434 0.0087454753            0   0.46492887     1.377829    1.8515034    1.4522247 
12145000   0.87931198 -4.127524e-05   0.52784567  0.017012129            0   0.51083354    1.2859938    1.8138394   -2.4127451 
12150000   0.94023928 -3.9365289e-05   0.46749946  0.022167522            0   0.44533194    1.3750999    1.8425994   -2.1884062 
12155000   0.92220882 4.6503229e-07   0.51396094 0.0029603803            0   0.51100056    1.3487304    1.8626913    1.9103106 
12160000   0.95423883 -3.5429191e-05   0.50461796  0.005645348            0   0.49897261    1.3955743    1.9001923   -1.7277569 
12165000   0.92290556 -2.6638145e-05   0.58883972  0.011592713            0   0.57724701    1.3497494    1.9385891  -0.78915695 
12170000   0.95614516 1.5167716e-05   0.54546557  0.004877528            0   0.54058804    1.3983623    1.9438279    3.4970019 
12175000     1.086334 -4.2078457e-06   0.36976935 0.00052369134            0   0.36924566    1.5887635    1.9585328    1.5276494 
12180000    1.0170335 2.4483267e-06   0.48194122 0.0039041198            0    0.4780371    1.4874115    1.9693527    2.2200613 
12185000    1.0306389 1.5635995e-05   0.47422257    0.0163912            0   0.45783137    1.5073094    1.9815319    3.5826578 
12190000    1.0276217 5.4394438e-05   0.52888997  0.013108558            0   0.51578141    1.5028967    2.0317867    7.6017771 
12195000   0.93179179 1.2068112e-05   0.63334391  0.019309449            0   0.61403447    1.3627455    1.9960894    3.2318641 
12200000   0.96205121 -1.9291883e-06   0.58354246  0.022387066            0   0.56115539    1.4069999    1.9905423    1.7929935 
12205000   0.96805036 3.7108959e-05   0.58164348  0.017585042            0   0.56405844    1.4157737    1.9974171    5.7973745 
12210000    1.0290488 6.4934308e-05   0.52558863  0.023408351            0   0.50218028    1.5049839    2.0305725    8.6798457 
12215000    1.1056965 2.8553151e-05   0.42151908  0.011551968            0   0.40996712    1.6170811    2.0386002    4.9624428 
12220000    1.0116527 9.2100138e-06   0.51289246  0.018967207            0   0.49392526    1.4795421    1.9924346      2.93554 
12225000    1.0738432 -1.1894674e-05   0.43460676  0.037554621            0   0.39705214    1.5704957    2.0051025   0.78708787 
12230000   0.96239671 -1.9990227e-05   0.57084537   0.11065591            0   0.46018946    1.4075052    1.9783506 -0.068648714 
12235000   0.98460737 9.3937207e-06    0.5069938  0.054384858            0   0.45260894    1.4399883    1.9469821    2.9088991 
12240000    1.0716083 -2.7003466e-05   0.40227434  0.015569515            0   0.38670483    1.5672272    1.9695015  -0.79565339 
12245000   0.98950224 -3.2749959e-05   0.53331287  0.063540365            0   0.46977251     1.447147    1.9804599   -1.3731359 
12250000     1.061784 6.1528051e-05   0.40156892  0.053180225            0   0.34838869     1.552859     1.954428    8.2549004 
12255000   0.98914099 6.355058e-05    0.5070242  0.025622726            0   0.48140147    1.4466187    1.9536429    8.4612223 
12260000   0.96027956 -2.3861975e-05   0.54002599  0.069936707            0   0.47008928    1.4044089    1.9444349  -0.49903135 
12265000    1.0562038 -7.7041327e-05   0.38572557  0.024516409            0   0.36120916    1.5446981    1.9304237   -5.9586082 
12270000    1.0280962 -2.4628954e-05   0.40055407  0.027391317            0   0.37316275    1.5035907    1.9041448  -0.61786004 
12275000   0.94902934 -2.6898304e-05   0.55114131  0.073043314            0     0.478098    1.3879554    1.9390967  -0.81528966 
12280000   0.99895583 -7.4000274e-05   0.53195724 0.0064838557            0   0.52547338    1.4609729    1.9929301   -5.5846979 
12285000    1.0742912 1.779596e-06   0.46143656  0.017750646            0   0.44368591    1.5711509    2.0325875    2.2148181 
12290000    1.0798178 6.5646605e-05   0.40685471  0.013411034            0   0.39344368    1.5792335    1.9860882    8.7083005 
12295000    1.1259237 -2.4600055e-05   0.38705055   0.02128647            0   0.36576408    1.6466634    2.0337139  -0.48533172 
12300000    1.0243101 -2.9591124e-05   0.53047603  0.028837467            0   0.50163856    1.4980536    2.0285296   -1.0016015 
12305000    1.0538848 -5.7801932e-05   0.48694112  0.022406685            0   0.46453443    1.5413066    2.0282477   -3.8906702 
12310000    1.1301053 -1.5747737e-05   0.34929445  0.022323541            0   0.32697091     1.652779    2.0020735   0.38950527 
12315000    1.0279778 7.4421436e-05   0.52202458 0.0098956946            0   0.51212888    1.5034176    2.0254422    9.6461972 
12320000    1.0480084 1.1937186e-05   0.47922598 0.0025184842            0    0.4767075    1.5327123    2.0119383    3.2343062 
12325000    1.0411505 -3.1533525e-05   0.50284213 9.5607089e-05            0   0.50274652    1.5226825    2.0255247   -1.2035083 
12330000    1.0781864 -9.2945318e-05   0.43742366            0            0   0.43742366    1.5768476    2.0142713   -7.5033293 
12335000    1.0284283 -3.3250586e-05   0.53283802  0.015502404            0   0.51733562    1.5040764    2.0369144   -1.3679456 
12340000    1.1232462 -8.6374719e-05   0.42942508  0.057135141            0   0.37228994    1.6427476    2.0721727   -6.7725985 
12345000    1.0218617 -5.4543989e-05   0.59152831  0.032390143            0   0.55913816    1.4944727     2.086001   -3.4993035 
12350000    1.0501816 -1.6399514e-05   0.57612084  0.052646091            0   0.52347475    1.5358906    2.1120114   0.43270117 
12355000    1.0293447 -7.6646841e-05   0.64096546  0.062535873            0   0.57842959    1.5054167    2.1463822   -5.7022543 
12360000    1.1161695 -2.0195423e-05   0.52823196   0.10464651            0   0.42358545     1.632398    2.1606299    0.0926186 
12365000    1.1564989 6.1968681e-05   0.42575371  0.040564885            0   0.38518883    1.6913796    2.1171333    8.4627262 
12370000    1.1306542 3.7453924e-05   0.44382851  0.045958145            0   0.39787037    1.6535818    2.0974103    5.9326921 
12375000    1.0796059 -3.3085684e-05   0.52939437  0.016833604            0   0.51256077    1.5789236     2.108318   -1.2796561 
12380000    1.1244263 -3.1102917e-05   0.42979407  0.026820068            0     0.402974    1.6444735    2.0742676   -1.1106712 
12385000    1.0796621 8.1486486e-07   0.53249899   0.11653706            0   0.41596193    1.5790058    2.1115048    2.1949469 
12390000    1.0933747 2.0944216e-05   0.51411429  0.031567532            0   0.48254676    1.5990605    2.1131748    4.2578625 
12395000    1.2418348 -1.0216773e-05   0.30513385 0.00028154278            0    0.3048523    1.8161834    2.1213172    1.0751196 
12400000    1.0812043 -8.6898819e-05   0.57435624 0.0045537876            0   0.56980245    1.5812613    2.1556175   -6.7428215 
12405000    1.0790426 -8.4463501e-06   0.56906471   0.02074361            0    0.5483211    1.5780998    2.1471645    1.2822582 
12410000    1.1064185 -1.3850152e-05   0.53315603    0.1311222            0   0.40203383     1.618137    2.1512931   0.73303749 
12415000    1.1392693 -5.5225604e-05   0.43554666   0.05372133            0   0.38182533    1.6661813    2.1017279   -3.5533739 
12420000    1.1274914 -3.0568686e-05   0.41267427 0.00093129111            0   0.41174298    1.6489561    2.0616304   -1.0686031 
12425000    1.1159355 -3.2078834e-06   0.40421359 0.00052643416            0   0.40368715    1.6320556    2.0362692    1.7077819 
12430000    1.0601514 -6.5332662e-06   0.46300497  0.022971017            0   0.44003395    1.5504715    2.0134764      1.34447 
12435000    1.1273744 -2.2317317e-05   0.40753518  0.063359558            0   0.34417563    1.6487851    2.0563203  -0.22897299 
12440000    1.0291506 -4.8557095e-05   0.57625842  0.023162778            0   0.55309564    1.5051328    2.0813912   -2.8908554 
12445000   0.98161993 -6.5987836e-05   0.65880286    0.1696441            0   0.48915876    1.4356192     2.094422   -4.6627324 
12450000    1.1448138 -1.2401197e-05    0.4550217   0.01280469            0   0.44221701    1.6742902    2.1293119   0.85942939 
12455000      1.10109 1.7954215e-05   0.52184398  0.010593223            0   0.51125075    1.6103441    2.1321881    3.9706998 
12460000    1.1630682 -2.9712363e-05   0.38987339 0.0075613481            0   0.38231204    1.7009872    2.0908606  -0.95168542 
12465000     1.164142 -3.3666333e-05    0.3905834 0.0020429273            0   0.38854047    1.7025577    2.0931411   -1.3542914 
12470000    1.1111821 -3.6006298e-05   0.40778191 0.00048506588            0   0.40729684    1.6251039    2.0328858   -1.6541591 
12475000    1.0650654 -5.3329347e-05   0.47291926 0.0033685664            0   0.46955069    1.5576582    2.0305775   -3.4303476 
12480000    1.0872078 -1.1365197e-05   0.42111036  0.014349048            0   0.40676132    1.5900414    2.0111518    0.8473556 
12485000   0.96189136 2.7545614e-05   0.62620488 0.0088982719            0   0.61730661    1.4067661     2.032971    4.8536418 
12490000    1.0748012 -2.2580885e-05   0.46898901            0            0   0.46898901    1.5718968    2.0408858  -0.27139679 
12495000    1.0483587 -3.9409796e-05   0.47261938 0.0016242973            0   0.47099509    1.5332246     2.005844   -2.0297192 
12500000    1.0943017 -1.1733941e-05   0.41051291 0.0087566935            0   0.40175622    1.6004162    2.0109291   0.80937356 
12505000    1.0854059 1.6872814e-05   0.40219659  0.013007898            0   0.38918869    1.5874061    1.9896027    3.7173789 
12510000    1.1016466 -4.3573455e-06   0.39768652   0.00508736            0   0.39259916    1.6111581    2.0088447    1.5626525 
12515000    1.0518436 -9.8765986e-05   0.46789132 0.00015413503            0   0.46773719    1.5383212    2.0062126   -8.1074244 
12520000    1.0952915 -9.1963247e-05   0.39997235 0.0024246827            0   0.39754767    1.6018638    2.0018361   -7.4152004 
12525000    1.0334625 -2.9367905e-05   0.49967505  0.092597894            0   0.40707715    1.5114389     2.011114  -0.99615955 
12530000     1.132548 3.6977189e-05   0.34753716  0.084100635            0   0.26343652    1.6563515    2.0038887    5.7903528 
12535000    1.0242151  8.85252e-05   0.49680404  0.026126562            0   0.47067748    1.4979145    1.9947186    11.059699 
12540000    1.0810961 3.9704427e-05   0.40205852  0.019098017            0   0.38296051    1.5811031    1.9831616     6.048895 
12545000   0.98104866 -4.5683298e-06   0.54495501  0.043169718            0   0.50178529    1.4347837    1.9797387    1.5119417 
12550000    1.0730781 2.6962136e-05   0.41690508  0.011442637            0   0.40546244    1.5693767    1.9862818    4.7472045 
12555000    1.0750587 6.5456833e-06   0.37722792  0.037763242            0   0.33946468    1.5722733    1.9495012    2.6197792 
12560000   0.92013341 1.2737206e-06    0.6013446  0.064329717            0   0.53701489    1.3456951    1.9470397    2.0774687 
12565000    1.0029915 3.484506e-05   0.47882856  0.013221029            0   0.46560753    1.4668751    1.9457036    5.5138377 
12570000    1.1430728 -6.6860359e-06    0.3249673            0            0    0.3249673    1.6717439    1.9967112    1.3120611 
12575000    1.0994782 4.3323126e-06   0.40869053 0.0054802795            0   0.40321025    1.6079869    2.0166774    2.4603062 
12580000    1.1307572 -1.9529804e-05   0.38210309  0.019247803            0   0.36285529    1.6537325    2.0358356  0.035983668 
12585000    1.0374422 -7.9044525e-05   0.50635534   0.01370943            0   0.49264591    1.5172592    2.0236146   -6.0705448 
12590000    1.1068335 -3.0927175e-06    0.4127832  0.031092743            0   0.38169046    1.6187441    2.0315273     1.714833 
12595000   0.97639886 -1.4974274e-05   0.64598023  0.029222498            0   0.61675773    1.4279833    2.0739636   0.54059786 
12600000    1.0752409 -8.0005744e-05   0.49762208  0.026345822            0   0.47127626    1.5725397    2.0701618   -6.1224263 
12605000    1.0426724 1.5310347e-05   0.52507851   0.15716156            0   0.36791695    1.5249085     2.049987    3.6177665 
12610000    1.0921911 4.0056885e-05   0.46145329  0.024357531            0   0.43709576    1.5973295    2.0587828    6.1606078 
12615000    1.0556332 -1.3076069e-05   0.53871384 0.0084677573            0   0.53024608    1.5438636    2.0825774   0.74358798 
12620000    1.1020571 2.3877295e-05    0.4972047 0.0033313885            0   0.49387331    1.6117585    2.1089632    4.5539982 
12625000    1.1687615 7.1979004e-05   0.36600297 0.0011208625            0   0.36488211    1.7093138    2.0753167    9.4459667 
12630000    1.1569997 1.4082827e-05   0.37187332  0.034594033            0   0.33727929     1.692112    2.0639853    3.5060668 
12635000     1.042001 -4.7419028e-05   0.57983774  0.041776446            0   0.53806129    1.5239265    2.1037642   -2.7519443 
12640000     1.084875 -6.1237163e-05   0.49363676  0.014351557            0   0.47928521    1.5866297    2.0802665    -4.190419 
12645000    1.1122157 2.4983452e-05    0.4347001 0.0034537016            0    0.4312464    1.6266154    2.0613155    4.6196211 
12650000    1.0279236 4.7343253e-05   0.50443314 0.0068818431            0    0.4975513    1.5033383    2.0077715    6.8557206 
12655000    1.0254733 9.5414344e-06   0.49344223  0.011298472            0   0.48214375    1.4997547    1.9931969    2.9702398 
12660000    1.0568914 -4.0698811e-05   0.43692821  0.026386589            0   0.41054162    1.5457036    1.9826319   -2.1849264 
12665000    0.9860951 -9.116097e-05   0.49131469   0.02502513            0   0.46628956    1.4421641    1.9334788   -7.4014045 
12670000   0.93209345 -6.1846042e-05   0.56371719   0.03567102            0   0.52804617    1.3631867    1.9269039   -4.4061309 
12675000    1.0067264 2.6768863e-05   0.49432099  0.039041706            0   0.45527928    1.4723374    1.9666584      4.70779 
12680000    1.0528292 5.3781918e-06   0.44463034  0.057304844            0   0.38732549    1.5397626     1.984393    2.5351198 
12685000    1.0144854 -4.9741258e-05   0.47310869  0.028379862            0   0.44472883    1.4836848    1.9567935   -3.1367113 
12690000   0.98069674 7.7826884e-05   0.50983268  0.020215037            0   0.48961764     1.434269    1.9441017    9.9135746 
12695000   0.98965572 6.7950043e-05   0.49376592  0.013679342            0   0.48008658    1.4473715    1.9411374    8.8992219 
12700000     1.104909 5.2550957e-05   0.36446835  0.016124009            0   0.34834434    1.6159293    1.9803977    7.3616157 
12705000    1.1256577 -2.4491781e-05   0.33291115  0.025072504            0   0.30783865    1.6462744    1.9791856   -0.5287728 
12710000    1.0418822 -7.8515865e-05    0.4968516  0.014752989            0   0.48209861    1.5237527    2.0206043   -6.0194202 
12715000     1.108888 1.5890678e-05   0.39209587  0.023296061            0   0.36879981    1.6217488    2.0138446    3.6410501 
12720000    1.0056309 2.5194256e-05   0.57772078  0.040990852            0   0.53672993    1.4707352     2.048456    4.6283478 
12725000    1.0827717 3.4453889e-05   0.50488627  0.086476267            0      0.41841    1.5835537    2.0884399    5.6165182 
12730000    1.1507801 1.5974541e-05   0.39902584 0.0097475368            0    0.3892783    1.6830159    2.0820417    3.7178347 
12735000    1.1472427 -6.2370881e-06    0.4183287            0            0    0.4183287    1.6778425    2.0961712    1.4574933 
12740000    1.1043696 3.6746664e-05   0.47328732            0            0   0.47328732    1.6151406    2.0884279    5.8512863 
12745000    1.0819768 -5.6458665e-05   0.50209486 0.0054317078            0   0.49666315    1.5823911     2.084486   -3.6968813 
12750000    1.0229943 -7.253956e-05   0.55811201  0.061856684            0   0.49625533    1.4961291    2.0542411   -5.3738098 
12755000    1.1215772 -5.3620017e-05   0.45099608   0.01725066            0   0.43374542    1.6403067    2.0913028   -3.3993869 
12760000    1.1261192 -7.3603015e-05   0.44374313 0.00083957657            0   0.44290355    1.6469494    2.0906925   -5.4462562 
12765000   0.98664407 -2.220748e-05    0.6149709 0.0042706228            0   0.61070028     1.442967    2.0579379  -0.21610812 
12770000     1.133105 3.3805619e-05   0.41426124  0.014322914            0   0.39993833    1.6571661    2.0714273    5.5331227 
12775000    1.0183459 2.2194839e-05   0.58351056  0.044188663            0    0.5393219    1.4893309    2.0728414    4.3455929 
12780000    1.1109792 4.7462824e-05   0.48535293  0.015568637            0   0.46978429     1.624807      2.11016    6.9703531 
12785000    1.1340494 6.6812859e-06   0.37640848 0.0035614464            0   0.37284703    1.6585472    2.0349557    2.7191193 
12790000     1.116714 -4.5240474e-05   0.35489218 0.0068097124            0   0.34808247    1.6331942    1.9880863   -2.6445382 
12795000    1.0349806 -6.3770461e-05   0.46935986 0.0034979639            0   0.46586189    1.5136592    1.9830191   -4.5470761 
12800000     1.093368 -2.2122498e-05    0.3871721  0.001592644            0   0.38557946    1.5990506    1.9862227  -0.27912103 
12805000    1.0494843 -2.5319808e-05   0.50875563  0.029400372            0   0.47935526    1.5348708    2.0436265  -0.54912189 
12810000    1.0460068 -4.9312901e-05   0.53415564   0.04430179            0   0.48985385     1.529785    2.0639406   -2.9857004 
12815000    1.1521761 -1.560261e-05   0.37963191  0.055094221            0   0.32453769    1.6850575    2.0646894   0.46698211 
12820000     1.121849 -2.3906444e-06   0.42368231  0.042795156            0   0.38088716    1.6407041    2.0643864    1.8195845 
12825000    1.0841652 -3.0694267e-05   0.49307586  0.010401193            0   0.48267466    1.5855917    2.0786675   -1.0644254 
12830000    1.1028562 -1.4648901e-05   0.49245391 8.4262791e-05            0   0.49236965    1.6129272    2.1053811    0.6053336 
12835000    1.1215222 6.9870383e-05   0.44912815 0.0038843278            0   0.44524382    1.6402262    2.0893544    9.2440816 
12840000    1.0349316 9.3894207e-05    0.4679522  0.065123111            0   0.40282909    1.5135875    1.9815397    11.596306 
12845000    1.0418793 3.259264e-05   0.47870412  0.054512757            0   0.42419136    1.5237484    2.0024526    5.3399389 
12850000    1.0139395 8.2777445e-05   0.49071046 0.0071719139            0   0.48353854    1.4828865    1.9735969    10.450007 
12855000    1.1548385 6.1425392e-05   0.27299636    0.0120054            0   0.26099096    1.6889513    1.9619476    8.2519078 
12860000     1.018683 -3.6007449e-05   0.46363147 0.0082787244            0   0.45535275    1.4898238    1.9534553   -1.7337075 
12865000    0.9420006 -5.5172533e-05    0.5682426  0.013265686            0   0.55497692    1.3776759    1.9459185   -3.7037489 
12870000    1.0838718 2.3871495e-06   0.36249805  0.051526105            0   0.31097195    1.5851625    1.9476605    2.1921047 
12875000   0.91425576 6.1797479e-05   0.56158657  0.033782308            0   0.52780426     1.337099    1.8986856    8.2267474 
12880000   0.97038867 -4.0932282e-05   0.43524803   0.02566157            0   0.40958646    1.4191934    1.8544415   -2.3370242 
12885000   0.97624846 -8.4570943e-05   0.41221072  0.037677755            0   0.37453297    1.4277634    1.8399741   -6.8200905 
12890000    1.0005606 -5.6022444e-05   0.38995796  0.033785937            0   0.35617202    1.4633199    1.8532779   -3.8834203 
12895000    1.0082553 -2.1700259e-05   0.34737348  0.025211057            0   0.32216242    1.4745734    1.8219469  -0.40015962 
12900000   0.91538681 1.8008181e-05   0.47250962   0.01039038            0   0.46211924    1.3387532    1.8112628    3.6553006 
12905000   0.92213712 -3.7075113e-06   0.43424138  0.012731405            0   0.42150997    1.3486255    1.7828669    1.4032178 
12910000   0.96910292 2.2484442e-05   0.39775307  0.012521614            0   0.38523145     1.417313    1.8150661     4.117473 
12915000   0.90315835 0.00010108492   0.51487305 0.0020346179            0   0.51283843    1.3208691    1.8357421    12.186838 
12920000   0.96845319 2.7053123e-05   0.40282549 0.0057395529            0   0.39708594    1.4163628    1.8191883    4.5894281 
12925000   0.92457993 1.4074337e-05   0.49570681  0.089331237            0   0.40637557    1.3521982     1.847905     3.289117 
12930000   0.93131029 6.6564918e-05   0.48331687  0.032157512            0   0.45115936    1.3620413    1.8453582    8.6616058 
12935000    1.0015549 1.8459317e-05   0.33182375 0.0086337545            0   0.32318999     1.464774    1.7965977    3.6868318 
12940000   0.97537872 9.6895466e-06   0.39202396  0.031365565            0   0.36065839    1.4264914    1.8185153    2.8107249 
12945000    0.9647181 5.7859837e-05   0.44498489  0.013340696            0    0.4316442    1.4109002    1.8558851    7.7807324 
12950000   0.98479823 3.8312298e-05   0.41272817 0.0050429914            0   0.40768518    1.4402674    1.8529956    5.7761749 
12955000    1.0508342 -2.6971816e-05   0.32272104 0.0066508453            0   0.31607019     1.536845     1.859566  -0.90234787 
12960000   0.90239533 -9.2524603e-06   0.54855157 0.0065691628            0   0.54198241    1.3197532    1.8683047   0.92085281 
12965000   0.96942247 -9.1819914e-05    0.4397576  0.013322597            0   0.42643501    1.4177804     1.857538   -7.5448212 
12970000   0.96113904 -8.542049e-06   0.47714135   0.10526962            0   0.37187173    1.4056659    1.8828072    1.0081014 
12975000   0.96972143 4.2133923e-05   0.47305149 0.0043820455            0   0.46866944    1.4182176    1.8912691    6.2057828 
12980000    1.0079012 -2.9568304e-05   0.42759436 0.0030415233            0   0.42455283    1.4740555    1.9016498   -1.1261445 
12985000    1.0571483 -2.9836268e-05   0.41651488 0.0049065236            0   0.41160836    1.5460794    1.9625942   -1.0926396 
12990000    1.0825904 -2.6651342e-06   0.38562943 0.0047519436            0   0.38087748    1.5832885    1.9689179    1.6960081 
12995000    1.0922648 -7.1431496e-05    0.4020321 0.0046362718            0   0.39739583    1.5974373    1.9994694   -5.3151158 
13000000    1.1007657 -8.2245664e-05   0.44148521 3.6373077e-05            0   0.44144883    1.6098698     2.051355    -6.370601 
13005000    1.0353537 9.860194e-06   0.47619344 0.0069208103            0   0.46927263    1.5142047    1.9903982     3.000082 
13010000    1.1225681 3.2296814e-05    0.4017067  0.090175422            0   0.31153128    1.6417558    2.0434625    5.3506563 
13015000    1.0229703 3.1599719e-05   0.52868322  0.049444554            0   0.47923866     1.496094    2.0247772    5.2605884 
13020000    1.0581957 2.6085859e-05   0.44485873  0.059414344            0   0.38544439    1.5476112      1.99247    4.6636619 
13025000     1.047822 -2.1039241e-05   0.49959103  0.028032109            0   0.47155892    1.5324397    2.0320307  -0.12238762 
13030000    1.0982111 -3.7185653e-06   0.43790523  0.018726695            0   0.41917854    1.6061337     2.044039    1.6632579 
13035000    1.0570519 1.9594903e-05   0.52431981  0.088027428            0   0.43629238    1.5459384    2.0702582    4.0767762 
13040000    1.1339269 -5.9925052e-06   0.40918995   0.01899015            0    0.3901998     1.658368     2.067558    1.4539255 
13045000    1.0722941 1.5482231e-05    0.5101124  0.029534459            0   0.48057794    1.5682301    2.0783425    3.6637229 
13050000    1.0678614 -1.672927e-06   0.50943978  0.051019356            0   0.45842043    1.5617473     2.071187    1.8998793 
13055000    1.1309215 3.3955843e-05   0.40806409  0.049430048            0   0.35863404    1.6539728    2.0620368    5.5391151 
13060000     1.049943 0.00010732261   0.55382788  0.060260025            0   0.49356786    1.5355416    2.0893695    13.079205 
13065000    1.1048562 7.1217676e-05   0.52544625  0.036416004            0   0.48903024    1.6158522    2.1412984    9.4339884 
13070000    1.1035007 7.043819e-06   0.52171452  0.022282114            0    0.4994324    1.6138698    2.1355843    2.8568714 
13075000    1.1120486 1.0983571e-05    0.4950688  0.036819079            0   0.45824972    1.6263711    2.1214399    3.2461576 
13080000     1.140073 2.449272e-05   0.44252105   0.02053257            0   0.42198848    1.6673567    2.1098778    4.6179323 
13085000    1.0693494 6.6922007e-05   0.47556395 0.0027762606            0   0.47278769    1.5639235    2.0394874     8.892301 
13090000   0.99053521 0.00012664768   0.57788458  0.025536896            0   0.55234769    1.4486577    2.0265423    14.995265 
13095000    1.1440022 6.9544381e-05   0.36619945  0.014252563            0   0.35194689    1.6731033    2.0393027    9.1606474 
13100000    1.0442015 1.9256872e-05   0.52542106            0            0   0.52542106    1.5271447    2.0525658    4.0244694 
13105000    1.1161859 2.0668742e-05   0.40569396 7.9539345e-05            0   0.40561442    1.6324219    2.0381159     4.154595 
13110000    1.0489672 5.1493186e-06   0.52453053 0.00038129961            0   0.52414923    1.5341145     2.058645    2.5859353 
13115000    1.0763377 -5.085448e-05   0.46163165 0.0027700755            0   0.45886158    1.5741439    2.0357755   -3.1717232 
13120000    1.1363981 -9.6211097e-06   0.33935126 0.0095228778            0   0.32982838    1.6619823    2.0013335    1.0161319 
13125000     1.050386 4.5944245e-06   0.48122961  0.016821794            0   0.46440782    1.5361896    2.0174192    2.4878882 
13130000    1.0627716 -5.9660816e-05   0.48435425  0.022178135            0   0.46217612    1.5543034    2.0386577   -4.0706099 
13135000    1.0204656 -1.210615e-05   0.53198013  0.013865246            0   0.51811489     1.492431    2.0244111   0.78474136 
13140000   0.95985962 4.6895465e-05   0.61993595  0.036335507            0   0.58360044    1.4037947    2.0237306    6.8258262 
13145000    1.1082233 5.5065707e-06   0.41199781  0.041190281            0   0.37080753    1.6207765    2.0327743    2.5966472 
13150000    1.0461452 -9.08314e-05   0.49026785 0.0085850834            0   0.48168277    1.5299874    2.0202553   -7.2808801 
13155000    1.0713661 -3.1475685e-05   0.44211442    0.0387411            0   0.40337332    1.5668729    2.0089874   -1.2141228 
13160000    1.0542853 4.2860419e-05   0.48062845  0.052654714            0   0.42797374    1.5418922    2.0225206    6.4114275 
13165000    1.1059447 4.2320623e-05   0.39351061  0.036512335            0   0.35699827    1.6174442    2.0109548    6.3445866 
13170000   0.99950102 2.2711462e-05   0.48996925  0.026175921            0   0.46379333    1.4617702    1.9517395    4.2773932 
13175000    1.1392207 -3.3372168e-05   0.32048643 0.0025194926            0   0.31796694    1.6661103    1.9865968   -1.4307133 
13180000    1.0853432 -1.6786932e-05   0.46695967            0            0   0.46695967    1.5873144    2.0542741   0.33529222 
13185000    1.0775093 4.322043e-05   0.49852474 0.0041077041            0   0.49441703    1.5758573    2.0743821    6.5001541 
13190000    1.0143676 5.457795e-06   0.61292266  0.013794348            0   0.59912831    1.4835127    2.0964353    2.6553135 
13195000    1.0420316 -9.9459403e-05   0.51216272  0.028097729            0   0.48406499    1.5239712    2.0361339   -8.1485089 
13200000   0.97962897 -6.4152824e-05   0.61463942  0.023865859            0   0.59077356    1.4327074    2.0473468   -4.5219024 
13205000    1.0672256 0.00010294931   0.47442088 0.0051298396            0   0.46929104    1.5608174    2.0352383    12.577248 
13210000    1.0349319 -1.0680678e-05   0.50138332   0.02509388            0   0.47628944    1.5135879    2.0149713   0.92126987 
13215000    1.1011638 7.5851245e-05   0.43024972  0.022192885            0   0.40805684     1.610452    2.0407018    9.8078692 
13220000    1.0722244 8.8793513e-05   0.41093256 0.0079146475            0   0.40301792    1.5681281    1.9790607    11.071516 
13225000   0.95286841 -0.00014354748   0.56511057  0.020048905            0   0.54506167      1.39357    1.9586806   -12.740581 
13230000   0.99587813 -7.3263886e-05   0.50156512 0.0090983022            0   0.49246682    1.4564718    1.9580369   -5.5441851 
13235000    1.1530032 -2.0226022e-05   0.29871048 0.00013605937            0   0.29857442    1.6862671    1.9849776 -0.086167048 
13240000    0.9130601 -8.8171263e-05   0.61713317 0.0051629374            0   0.61197023    1.3353504    1.9524836   -7.0762538 
13245000   0.97456055 4.0532971e-05   0.49311981  0.013235919            0    0.4798839    1.4252948    1.9184146    6.0689909 
13250000   0.88547567 0.0001004705   0.60651329 0.0071001318            0   0.59941315    1.2950082    1.9015215    12.189701 
13255000    1.0087498 7.4460288e-06   0.39827549  0.021522125            0   0.37675337    1.4752966     1.873572    2.6360454 
13260000   0.94613801 1.5218545e-05   0.48755867   0.03708381            0   0.45047486    1.3837268    1.8712855    3.4296645 
13265000    1.0031718 3.5867205e-06   0.47133585 0.0082904746            0   0.46304538    1.4671387    1.9384746    2.3057548 
13270000   0.91839853 -6.8297086e-05   0.63501564  0.040974937            0   0.59404071    1.3431579    1.9781735   -5.0154481 
13275000   0.91248353 -4.8208374e-05   0.63000396  0.054516507            0   0.57548746    1.3345072    1.9645111   -2.9720263 
13280000    1.0297868 7.7091894e-05   0.45061355  0.015549406            0   0.43506414    1.5060632    1.9566767    9.8508866 
13285000    0.9987486 0.00015458311   0.48712952  0.037077246            0   0.45005228    1.4606698    1.9477993     17.77711 
13290000   0.93208179 1.1439488e-05   0.61105299  0.067341621            0   0.54371136    1.3631696    1.9742226    3.1456262 
13295000   0.95967473 -5.2877215e-05   0.52758839  0.028567805            0   0.49902059    1.4035243    1.9311127   -3.4835142 
13300000    1.0523527 3.5922604e-05    0.4180776    0.0173045            0    0.4007731    1.5390658    1.9571434     5.635618 
13305000    1.0352371 -5.8609953e-06   0.48132823  0.049252095            0   0.43207613    1.5140343    1.9953625    1.3951966 
13310000   0.96226551 -6.0882698e-05   0.53387064  0.033459875            0   0.50041076    1.4073133     1.941184   -4.2932043 
13315000    1.0498637 2.2612448e-05   0.42004747  0.030059361            0   0.38998811    1.5354256    1.9554731    4.2709878 
13320000   0.93711431 9.1854694e-05   0.61392124  0.062074072            0   0.55184716    1.3705297    1.9844509    11.390372 
13325000   0.91643183 0.00010343441   0.66960231  0.059753197            0   0.60984911    1.3402816    2.0098839    12.601568 
13330000    1.0707251 5.9710704e-05   0.41562782  0.011515737            0   0.40411208    1.5659354    1.9815632    8.0959393 
13335000   0.99250852 -1.2299594e-06    0.5769717 0.0069826836            0   0.56998902    1.4515437    2.0285154    1.9025676 
13340000    1.0045264 -1.5088384e-05   0.57035457 0.0096395655            0     0.560715    1.4691199    2.0394744   0.49442387 
13345000    1.0488718 -3.0205477e-05   0.52079887  0.014219574            0    0.5065793     1.533975    2.0547738    -1.038267 
13350000    1.0242937 4.7447611e-05   0.53776289  0.003294704            0   0.53446819    1.4980296    2.0357925    6.8944279 
13355000    1.0851097 2.0042145e-05   0.45675777 0.0089549561            0   0.44780281     1.586973    2.0437308    4.0960464 
13360000   0.96706607 -7.2691079e-05   0.65607031  0.071894601            0   0.58417571    1.4143341    2.0704044    -5.373162 
13365000   0.94114638 -2.6145494e-05    0.6803266  0.026097341            0   0.65422925    1.3764266    2.0567532  -0.62054543 
13370000    1.0562521 -6.24967e-05   0.54649936   0.01758384            0   0.52891552    1.5447686     2.091268    -4.308394 
13375000    1.0755077 2.5458085e-05   0.52924166  0.013798366            0   0.51544329      1.57293    2.1021716    4.7090795 
13380000    1.0164181 6.9434931e-05   0.61272453 0.0066611865            0   0.60606334    1.4865115    2.0992361    9.2093729 
13385000    1.0225455 -7.1664267e-06   0.62928112  0.014186268            0   0.61509486    1.4954728    2.1247539    1.3909118 
13390000   0.99110425 -4.5205284e-05   0.65373323  0.030910969            0   0.62282226      1.44949    2.1032232   -2.5257979 
13395000    1.1246338 7.0512624e-06    0.4731452  0.022081872            0   0.45106333    1.6447769    2.1179221    2.8399714 
13400000    1.0103175 5.9039981e-05    0.6244997  0.039078087            0   0.58542162    1.4775894    2.1020891    8.1477832 
13405000    1.0673961 9.2901959e-05   0.52076394  0.082081956            0   0.43868198    1.5610668    2.0818307    11.594991 
13410000    1.1199982 5.3370044e-05   0.43248878 0.0059229458            0   0.42656583    1.6379973    2.0704861    7.5355786 
13415000     1.154803 1.7767615e-05   0.36649184 0.0023359919            0   0.36415585    1.6888994    2.0553912     3.874795 
13420000    1.0824891 2.8748317e-05   0.45897712 0.0098575386            0   0.44911959    1.5831404    2.0421175    4.9859451 
13425000    1.0406009 3.7941045e-05   0.56034277  0.025656235            0   0.53468653    1.5218788    2.0822216    5.9673846 
13430000    1.0539788 3.969432e-05   0.50732847  0.036820265            0    0.4705082     1.541444    2.0487725    6.1134709 
13435000    1.0348582 4.2251837e-05   0.52588499  0.009063707            0   0.51682128    1.5134801    2.0393651    6.3659533 
13440000    1.0158553 6.4058715e-05   0.56069731            0            0   0.56069731    1.4856883    2.0463856     8.605998 
13445000    1.0823331 7.803534e-05   0.47154072            0            0   0.47154072    1.5829121    2.0544528    10.045272 
13450000   0.97537353 5.8246526e-05   0.61814405 0.00045743454            0   0.61768662    1.4264838    2.0446278    8.0090721 
13455000    0.9232997 -2.2662757e-06   0.68595657  0.030652816            0   0.65530375    1.3503258    2.0362824    1.8042157 
13460000    0.9892223 8.654221e-06   0.57939034  0.068202812            0   0.51118753    1.4467376     2.026128    2.9123202 
13465000    1.0516721 -2.6149477e-05   0.53264604   0.06558968            0   0.46705636    1.5380705    2.0707165  -0.60698995 
13470000    1.0264797 -4.3039213e-05    0.5751663  0.017629638            0   0.55753666    1.5012265    2.0763928   -2.3308225 
13475000    1.1011758 -4.33896e-05   0.46089584            0            0   0.46089584    1.6104696    2.0713654   -2.3717296 
13480000    1.0645399 -4.2225691e-05   0.51028078            0            0   0.51028078    1.5568897    2.0671704   -2.2567403 
13485000   0.96007497 3.3431172e-06   0.66725466            0            0   0.66725466    1.4041096    2.0713643    2.4136995 
13490000    1.0788573 1.9323395e-05   0.46888743 1.3005302e-05            0   0.46887443    1.5778288    2.0467162    4.0254319 
13495000    1.0742678 1.9801731e-05   0.48851512            0            0   0.48851512    1.5711167    2.0596318     4.087329 
13500000    1.0504005 4.0898636e-05   0.57576185            0            0   0.57576185    1.5362107    2.1119726    6.2999929 
13505000    1.0487523 -7.9877611e-06   0.57298882 0.00024983668            0   0.57273899    1.5338002     2.106789    1.2888423 
13510000   0.96398898 -4.9422523e-06   0.67268643  0.002197792            0   0.67048863    1.4098339    2.0825203    1.5764337 
13515000    1.1975933 0.00011128965    0.3519888  0.031501938            0   0.32048686    1.7514802     2.103469    13.499529 
13520000   0.98601694 0.00011043591   0.64375691  0.027350158            0   0.61640675    1.4420498    2.0858067    13.394444 
13525000    1.1051233 7.4068616e-05   0.48561269 0.0060366881            0     0.479576    1.6162429    2.1018555    9.6864819 
13530000    1.0042418 1.8715552e-05   0.64166023  0.022137433            0   0.61952279    1.4687037    2.1103639    4.0268364 
13535000   0.98611619 -8.3823541e-05   0.64842497  0.029722847            0   0.61870212    1.4421949    2.0906199   -6.4929107 
13540000    1.1278805 2.9197884e-05   0.46794164  0.005633789            0   0.46230785    1.6495252    2.1174668    5.1073301 
13545000     1.107128 4.2514872e-05   0.53718083 0.0028729682            0   0.53430786    1.6191747    2.1563556    6.5098785 
13550000    1.1606343 -1.6500186e-05   0.49936409  0.044660466            0   0.45470362    1.6974277    2.1967918   0.50717273 
13555000   0.95455095 1.5417885e-05   0.77024685   0.11187063            0   0.65837622    1.3960308    2.1662776    3.7450691 
13560000     1.123567 -5.1843381e-05   0.52952553   0.10782507            0   0.42170046    1.6432168    2.1727423   -3.1360199 
13565000    1.2308155 3.6303993e-05   0.37824205  0.010641991            0   0.36760006    1.8000677    2.1783097    5.8958386 
13570000     1.015506 5.6686486e-05    0.7137133            0            0    0.7137133    1.4851775    2.1988908     8.003587 
13575000    1.1751201 -3.4607876e-05   0.53025003            0            0   0.53025003    1.7186131    2.2488631   -1.2949834 
13580000    1.1290745 -8.2840213e-05   0.52759546            0            0   0.52759546    1.6512714    2.1788669    -6.303971 
13585000    1.1607324 -3.042973e-06    0.4868347            0            0    0.4868347    1.6975711    2.1844058    1.8728054 
13590000    1.0973132 9.942603e-05   0.58645418            0            0   0.58645418    1.6048205    2.1912747      12.3725 
13595000    1.0707758 2.4854014e-05   0.63276892 0.0010212289            0    0.6317477    1.5660096    2.1987786    4.7438296 
13600000    1.0813049 -2.3733223e-05   0.56821444 0.0099485115            0   0.55826593    1.5814084    2.1496228  -0.28065923 
13605000    1.0452865 4.5357859e-05   0.59387691  0.014055779            0   0.57982113    1.5287315    2.1226084    6.7672532 
13610000    1.0166114 3.8487897e-07   0.62963595  0.012336296            0   0.61729966    1.4867942    2.1164302    2.1558418 
13615000    1.0176462 -5.1609475e-05   0.65334457  0.018365017            0   0.63497955    1.4883076    2.1416522   -3.1431581 
13620000    1.0838507 6.294128e-05   0.55177424 0.0037972627            0   0.54797698    1.5851317    2.1369059     8.582093 
13625000    1.1509876 6.0868783e-05   0.49542258            0            0   0.49542258    1.6833194     2.178742    8.4117054 
13630000    1.0994829 2.6241648e-05   0.55618061 0.00010830632            0    0.5560723    1.6079937    2.1641743    4.8513191 
13635000    1.1702387 7.9905669e-05   0.45618919 0.0018741516            0   0.45431504    1.7114741    2.1676633    10.350004 
13640000    1.0445114 -9.4409668e-08   0.65375782  0.009668193            0   0.64408963    1.5275979    2.1813558    2.1716882 
13645000   0.94595559 -6.2860683e-05   0.72384023  0.084525944            0   0.63931429      1.38346    2.1073003   -4.3296337 
13650000   0.97838779 2.8459207e-05   0.69403222  0.096524862            0   0.59750736    1.4308921    2.1249244    5.0391472 
13655000    1.1087662 2.1329677e-05   0.50366076  0.011079206            0   0.49258156    1.6215706    2.1252314    4.3093903 
13660000    1.0084463 -2.3875482e-05   0.71756069            0            0   0.71756069    1.4748527    2.1924134  -0.25243601 
13665000    1.0236681 -2.3689005e-05   0.72335845            0            0   0.72335845    1.4971145     2.220473  -0.20528115 
13670000     1.117441 3.7421373e-05   0.57460375            0            0   0.57460375    1.6342574    2.2088612    6.0408098 
13675000    1.0723468 6.3293142e-05   0.64924181            0            0   0.64924181    1.5683073    2.2175491    8.6987668 
13680000    1.0427683 7.6267061e-06    0.6967122 0.0036859446            0   0.69302625    1.5250486    2.2217608    3.0027355 
13685000    1.0743698 -4.0547967e-05   0.61031571  0.015403058            0   0.59491265    1.5712659    2.1815816   -1.9705303 
13690000    1.0576929 9.0595257e-07   0.69500169  0.019540112            0   0.67546158    1.5468759    2.2418776    2.3346472 
13695000    1.0810038 9.7209235e-05   0.60780505  0.036667403            0   0.57113765     1.580968    2.1887731    12.142999 
13700000    1.1473442 7.279564e-05   0.57946344  0.011736139            0    0.5677273    1.6779909    2.2574543    9.7117279 
13705000    1.1058628 6.5495673e-05   0.59904317            0            0   0.59904317    1.6173244    2.2163676    8.9231245 
13710000    1.1125405 7.2285936e-05   0.58686666            0            0   0.58686666    1.6270905    2.2139571     9.616037 
13715000    1.1870332 3.0903335e-05   0.46882724  0.015574935            0   0.45325231     1.736036    2.2048633    5.3693648 
13720000    1.0670108 -7.1009123e-05   0.67350898  0.058421295            0   0.61508768    1.5605034    2.2340123   -5.0373219 
13725000    1.0630756 -0.00014842296   0.64678687  0.010272311            0   0.63651456    1.5547481    2.2015349   -12.996976 
13730000    1.1982941 -0.00010531985   0.47771454  0.028020977            0   0.44969356    1.7525052    2.2302197   -8.5545331 
13735000     1.155754 -2.2552569e-05   0.56809994  0.061319988            0   0.50677995    1.6902902    2.2583901 -0.050992913 
13740000    1.0964806 7.7287011e-05   0.68839091  0.041917315            0   0.64647359    1.6036028    2.2919937    10.206184 
13745000    1.1102769 0.00010738338   0.62049761   0.11312942            0   0.50736819    1.6237799    2.2442775    13.240335 
13750000    1.0175711 1.2688001e-05   0.73313206  0.046503488            0   0.68662857    1.4881977    2.2213297    3.5205811 
13755000    1.1535878 7.5166772e-05   0.55184381  0.058929369            0   0.49291444    1.6871221    2.2389659    9.9360434 
13760000   0.95117766 8.9779656e-05   0.84252992  0.074672104            0   0.76785782    1.3910973    2.2336273    11.427064 
13765000    1.1921162 -1.6702261e-05   0.53045514  0.021886922            0   0.50856822      1.74347    2.2739251   0.56361356 
13770000    1.2466545 4.0539932e-05     0.482792 0.0047457666            0   0.47804623    1.8232323    2.3060243    6.4573133 
13775000    1.1352998 -5.3612066e-05   0.60921644  0.013143283            0   0.59607315     1.660376    2.2695924   -3.2202831 
13780000    1.0584329 -6.1659623e-05   0.78797209  0.011597706            0   0.77637438    1.5479582    2.3359303   -3.9780152 
13785000    1.2867338 0.00011777404   0.47559497 0.0012315747            0   0.47436339    1.8818482    2.3574431    14.417505 
13790000     1.274201 7.4727445e-05   0.48009287            0            0   0.48009287    1.8635189    2.3436118    9.9957022 
13795000    1.1308274 -9.7188255e-05   0.67190779 5.2893525e-05            0    0.6718549    1.6538351    2.3257429   -7.6263344 
13800000    1.2140599 -2.2454143e-05   0.53067095 0.0045287345            0   0.52614221    1.7755626    2.3062335 0.0069292696 
13805000    1.1508203 8.8658335e-05    0.6588098  0.015148493            0   0.64366131    1.6830746    2.3418844    11.420498 
13810000    1.1441618 -1.8843324e-05   0.63781958  0.023598676            0    0.6142209    1.6733366    2.3111562   0.38159974 
13815000     1.159511 -8.8420847e-05   0.61051275  0.025285248            0    0.5852275    1.6957849    2.3062976   -6.7479971 
13820000    1.2296695 4.9198882e-05   0.52085538  0.014604528            0   0.50625086    1.7983917    2.3192471    7.3572126 
13825000    1.1842186 0.00011655616   0.54671558 0.0083967318            0   0.53831885    1.7319196    2.2786352    14.213986 
13830000    1.1155048 -4.4511657e-06   0.67628526 0.0055967052            0   0.67068855    1.6314257     2.307711    1.8519116 
13835000   0.99324753 -0.00013284374   0.82582966 0.0075456933            0   0.81828396    1.4526245    2.2784542   -11.324745 
13840000    1.2979225 -3.0548172e-05   0.38520431  0.010009914            0    0.3751944    1.8982117     2.283416  -0.84471684 
13845000    1.1198235 0.0001073137   0.58095746  0.010751262            0   0.57020619    1.6377419    2.2186994    13.207622 
13850000     1.088942 5.8916028e-05   0.62063461   0.01620441            0    0.6044302    1.5925777    2.2132123    8.2462136 
13855000    1.0726395 -4.3099212e-05   0.65522453  0.014497008            0   0.64072752    1.5687353    2.2239598   -2.1893995 
13860000    1.1567789 -6.4468567e-05   0.56874902 0.0073577867            0   0.56139124    1.6917891    2.2605381   -4.3410432 
13865000    1.0342406 -1.7162217e-06   0.73875801  0.001227968            0   0.73753004    1.5125769    2.2513349    2.0755938 
13870000    1.0928049 2.6386069e-05   0.63762453 0.0016669354            0    0.6359576    1.5982272    2.2358518    4.9377853 
13875000       1.1308 -9.9260228e-06   0.61306918  0.020075213            0   0.59299397     1.653795    2.2668641    1.2504394 
13880000    1.0789672 -3.5503532e-05   0.74360525  0.025375824            0   0.71822943    1.5779895    2.3215948   -1.3139669 
13885000    1.1641968 -4.8238908e-05   0.60500489    0.0138562            0   0.59114869    1.7026379    2.3076428   -2.6320214 
13890000    1.1291661 -9.2786404e-05   0.60258817  0.012067593            0   0.59052058    1.6514053    2.2539935   -7.2473342 
13895000    1.1491666 -9.7488499e-05   0.52383869 0.0070821153            0   0.51675658    1.6806562    2.2044949   -7.7783274 
13900000    1.1060029 2.4120097e-05   0.55953396  0.027284926            0   0.53224903    1.6175292    2.1770632    4.6469611 
13905000    1.0572344 3.2687861e-05     0.662359  0.032976204            0   0.62938279    1.5462052    2.2085642    5.5558012 
13910000    1.1708967 8.3338164e-05   0.50135404  0.042192473            0   0.45916157    1.7124364    2.2137904    10.747618 
13915000     1.127122 -1.1115473e-05    0.5297986  0.036686073            0   0.49311253     1.648416    2.1782146    1.0399901 
13920000    1.0940863 -7.1340265e-05   0.63062959  0.038629752            0   0.59199984    1.6001012    2.2307308   -5.0745123 
13925000    1.1012247 -4.7267218e-05   0.61965871  0.019944734            0   0.59971397    1.6105412    2.2301999   -2.6099633 
13930000    1.1029536 -3.3201746e-05   0.63417768 0.0070505425            0   0.62712714    1.6130697    2.2472474   -1.1526114 
13935000      1.10786 -3.7688184e-05   0.61189135  0.013552074            0   0.59833928    1.6202453    2.2321366   -1.6271334 
13940000    1.0764518 -4.0057452e-05   0.66314267  0.030598893            0   0.63254378    1.5743107    2.2374534   -1.8644297 
13945000    1.0946539 -2.3642631e-06   0.61845895   0.12302208            0   0.49543687    1.6009314    2.2193903    1.9772898 
13950000    1.0459905 5.4157793e-06   0.64000196  0.055026704            0   0.58497526    1.5297611     2.169763    2.7243388 
13955000    1.0502347 -8.1989183e-06   0.57710179  0.045833206            0   0.53126858    1.5359682      2.11307    1.2735008 
13960000    1.1688779 5.2398198e-05   0.41632426 0.0071436236            0   0.40918064    1.7094839    2.1258082    7.4913836 
13965000    1.0804256 3.6293175e-05   0.55701474 0.0054250921            0   0.55158965    1.5801224    2.1371372    5.8535583 
13970000    1.1443405 -3.0693627e-05   0.47407428 0.0087805166            0   0.46529377     1.673598    2.1476723   -0.9953551 
13975000     1.193588 1.9940887e-05   0.42503911 0.0021902044            0    0.4228489    1.7456224    2.1706615    4.2126084 
13980000    1.1847338 5.7367933e-05   0.45651956 0.00081150798            0   0.45570805    1.7326732    2.1891927     8.063669 
13985000    1.2276324 -4.51087e-05   0.40649393 0.0031599874            0   0.40333394    1.7954124    2.2019063   -2.4172245 
13990000     1.137839 -5.9108017e-05   0.51934847   0.08820049            0   0.43114798    1.6640896    2.1834381   -3.8692229 
13995000    1.0272645 7.6603826e-06   0.66662955   0.05372494            0   0.61290461    1.5023744    2.1690039    2.9534271 
14000000     1.198143 -6.8924579e-05   0.44324538  0.027345164            0   0.41590021    1.7522842    2.1955296   -4.8623473 
14005000    1.0709361 -0.00015313053   0.61890751  0.042684238            0   0.57622327     1.566244    2.1851515   -13.495415 
14010000    1.1621821 -8.2452441e-05   0.48945522  0.020044199            0   0.46941103    1.6996913    2.1891465   -6.2539835 
14015000    1.0620942 -2.004959e-05   0.61372973  0.014126044            0   0.59960369    1.5533128    2.1670425   0.11396448 
14020000    1.0572945 -1.9522295e-05   0.60478032  0.031331471            0   0.57344885    1.5462933    2.1510736   0.15199056 
14025000    1.1932307 -1.3429114e-05   0.39947245  0.014690627            0   0.38478182    1.7450999    2.1445723   0.76943111 
14030000    1.2086623 3.8814458e-05   0.38996394 0.00056618823            0   0.38939775    1.7676687    2.1576326    6.1322331 
14035000    1.1154203 5.3417463e-05   0.56602645 4.736389e-05            0   0.56597909    1.6313021    2.1973286    7.6672768 
14040000    1.0989416 -7.443499e-06   0.55041948 7.5225762e-05            0   0.55034426    1.6072021    2.1576216    1.3954073 
14045000    1.1377216 -4.598888e-05   0.48395944  0.082768963            0   0.40119048    1.6639179    2.1478773   -2.5613839 
14050000    1.1455353 -7.7787767e-05   0.49531507   0.02138383            0   0.47393124    1.6753454    2.1706605   -5.7948068 
14055000    1.1942431 2.4122537e-06   0.43903336  0.030143433            0   0.40888992    1.7465806     2.185614    2.4326287 
14060000    1.1095254 0.00011100448   0.55493793  0.043759637            0   0.51117829    1.6226809    2.1776188    13.544477 
14065000    1.0946602 9.8103951e-05   0.55668246  0.012084066            0    0.5445984    1.6009405     2.157623    12.203468 
14070000    1.2529438 -2.044883e-06   0.32713914 0.0013435783            0   0.32579556    1.8324303    2.1595694    1.9501734 
14075000    1.1519204 -5.9592849e-05     0.480187 9.4684332e-07            0   0.48018605    1.6846836    2.1648706   -3.9374371 
14080000    1.1669103 -4.7928095e-05   0.42875629 0.0022983861            0   0.42645791    1.7066063    2.1353625   -2.7724743 
14085000    1.1721196 -4.2381021e-05   0.47578907 0.0097405944            0   0.46604848     1.714225    2.1900141   -2.1498025 
14090000    1.0384161 4.820062e-05   0.63880682  0.062415514            0   0.57639131    1.5186836    2.1574904    7.0932338 
14095000    1.1681428 5.8763201e-05   0.49408042  0.040424928            0   0.45365549    1.7084089    2.2024893    8.2198411 
14100000    1.1684772 1.4388479e-05   0.51529026 0.00066967792            0   0.51462058     1.708898    2.2241882    3.6975685 
14105000    1.2197637 -2.3280526e-05   0.40670139  0.023419742            0   0.38328165    1.7839044    2.1906058  -0.19332009 
14110000    1.2221589 4.5856496e-05   0.38464883  0.054132644            0   0.33051619    1.7874074    2.1720562    6.8677614 
14115000    1.1881056 3.7918475e-05   0.42511306  0.051765692            0   0.37334737    1.7376044    2.1627174    6.0455692 
14120000    1.0421219 -9.0687947e-05   0.61653795  0.024771046            0   0.59176691    1.5241034    2.1406413   -7.1458044 
14125000    1.0821302 -3.4731188e-05   0.53936466 0.0056595095            0   0.53370515    1.5826155    2.1219801   -1.4344936 
14130000    1.1404679 7.468713e-05   0.40550252 0.0010482384            0   0.40445428    1.6679343    2.0734368     9.721399 
14135000    1.1910538 4.1584553e-05   0.35924121 6.5670645e-05            0   0.35917553    1.7419162    2.1011574    6.3594156 
14140000    1.0704498 -5.7318704e-05   0.51925784            0            0   0.51925784    1.5655328    2.0847907   -3.7846446 
14145000    1.0180278 -8.0016693e-05   0.56875313 0.0047119548            0   0.56404118    1.4888657    2.0576189   -6.1360905 
14150000    1.2213495 -2.0002189e-05   0.26685064  0.022928616            0   0.24392202    1.7862237    2.0530743  0.004850185 
14155000    1.1124653 6.4874456e-06   0.43071439  0.025986026            0   0.40472836    1.6269805    2.0576949    2.7220093 
14160000    1.0982451 6.6899572e-06   0.47807268  0.016590014            0   0.46148267    1.6061834    2.0842561    2.7693077 
14165000    1.1713839 1.8629141e-05   0.38562816  0.036177251            0    0.3494509    1.7131489    2.0987771    4.0064011 
14170000   0.98245428 6.5735726e-05   0.64627591  0.086390994            0   0.55988491    1.4368394    2.0831153    8.8144536 
14175000     1.111308 3.0164535e-05   0.38179571  0.018647568            0   0.36314814     1.625288    2.0070837    5.0959321 
14180000    1.1497409 -5.7034956e-06   0.33890034 0.0050069543            0   0.33389339     1.681496    2.0203964    1.4363584 
14185000   0.86176551 -3.1350158e-05   0.74377228  0.049968799            0   0.69380348    1.2603321    2.0041043   -1.2061518 
14190000   0.96988233 -8.1296047e-05   0.53787457   0.02384282            0   0.51403175    1.4184529    1.9563275   -6.3683878 
14195000    1.0264303 -6.3733246e-05   0.42833091   0.01112983            0   0.41720108    1.5011543    1.9294852   -4.5967992 
14200000   0.93375054 -1.6901276e-05   0.53877921  0.012637985            0   0.52614123    1.3656102    1.9043894   0.17369868 
14205000   0.98689133 -4.1378842e-05   0.43467177  0.040084117            0   0.39458765    1.4433286    1.8780003   -2.3591931 
14210000   0.99868879 -7.7960695e-05   0.43114458  0.046904218            0   0.38424036    1.4605823    1.8917269   -6.0914483 
14215000   0.93975155 -3.5134099e-05   0.53313695  0.026045776            0   0.50709117    1.3743866    1.9075236   -1.6902082 
14220000   0.94620243 3.8841238e-05   0.52930481 0.0075522206            0   0.52175259    1.3838211    1.9131259    5.8904686 
14225000   0.99172614 6.8689829e-06   0.48196691  0.020384725            0   0.46158218    1.4503995    1.9323664    2.6357502 
14230000   0.98231934 -2.3570629e-05   0.48074137  0.021753447            0   0.45898793     1.436642    1.9173834  -0.49624898 
14235000    1.1442336 3.8389346e-05   0.26824463 0.0073802843            0   0.26086435    1.6734416    1.9416863    5.8727553 
14240000    1.0022354 4.2713954e-05   0.47333844  0.017027095            0   0.45631135    1.4657693    1.9391077    6.3130166 
14245000   0.91245057 -2.3347221e-05   0.59088229   0.11806125            0   0.47282103     1.334459    1.9253412  -0.46541417 
14250000   0.94795598 -6.0022105e-05   0.50502448 0.0027638315            0   0.50226065    1.3863856    1.8914101   -4.2548535 
14255000    1.0199803 -2.4914628e-05   0.42399609  0.013292451            0   0.41070364    1.4917212    1.9157173  -0.63554062 
14260000    1.0156437 -1.3234988e-05   0.39342915  0.026326916            0   0.36710223    1.4853789    1.8788081   0.52354531 
14265000   0.97675537 -3.368936e-05   0.50233452 0.00096319177            0   0.50137132    1.4285047    1.9308392   -1.5189512 
14270000   0.91345558 -5.8106277e-05   0.55628811 0.0050862987            0   0.55120181    1.3359288    1.8922169   -4.0578659 
14275000   0.92509758 -7.6444298e-05   0.50437033  0.022623577            0   0.48174675    1.3529552    1.8573255   -5.9705706 
14280000   0.90373457 -0.00014591072   0.55097233  0.021617669            0   0.52935466    1.3217118    1.8726841   -13.068574 
14285000   0.97575742 -2.5247068e-05   0.43349792  0.015195918            0     0.418302    1.4270452    1.8605431  -0.72475667 
14290000   0.86191741 9.3795382e-05   0.63175621  0.090236349            0   0.54151986    1.2605542    1.8923104    11.496958 
14295000   0.98758715 -1.2014401e-05   0.49997099 0.0060685435            0   0.49390245    1.4443462    1.9443172   0.71404256 
14300000    1.0950952 -8.1241718e-05   0.35503767 0.0014754404            0   0.35356223    1.6015767    1.9566144   -6.3625375 
14305000    1.1201113 5.3223677e-06   0.33934007 0.0099654375            0   0.32937463    1.6381628    1.9775028    2.5225133 
14310000   0.98031886 9.4192106e-06   0.54706871 0.0087496723            0   0.53831904    1.4337163    1.9807851    2.9453122 
14315000    1.0180511 -5.534042e-05   0.50303692  0.014966109            0   0.48807081    1.4888997    1.9919367   -3.6749223 
14320000    1.0983111 5.4222728e-07   0.37824209  0.034237561            0   0.34400452    1.6062799     1.984522    2.0400461 
14325000    1.0168523 -4.9004552e-05   0.49420357  0.019002028            0   0.47520155    1.4871464      1.98135   -3.0367161 
14330000   0.98841701 -1.984891e-05   0.51508609  0.065897469            0   0.44918862    1.4455599     1.960646 -0.071882436 
14335000   0.96803209 -1.3765037e-05   0.54435513  0.048302507            0   0.49605262    1.4157469    1.9601021   0.55056223 
14340000    1.0428873 -4.3903183e-05   0.42152458  0.017788831            0   0.40373575    1.5252227    1.9467473   -2.5489387 
14345000    1.0680892 4.4905124e-06   0.36630431 0.0032341712            0   0.36307014    1.5620804    1.9283847    2.3882132 
14350000   0.95683262 9.6256834e-06   0.46376903  0.002663062            0   0.46110597    1.3993677    1.8631367    2.8488067 
14355000   0.94362312 2.0494669e-05   0.49832929 0.0075016814            0   0.49082761    1.3800488    1.8783781    3.9770322 
14360000   0.88112577 -6.1446641e-05   0.58653838 0.0029607555            0   0.58357763    1.2886464    1.8751848   -4.4169512 
14365000    1.0211734 -7.0035777e-06   0.42196402            0            0   0.42196402     1.493466    1.9154301    1.1982637 
14370000   0.95865853 1.932586e-05   0.52232626            0            0   0.52232626    1.4020381    1.9243644    3.9033325 
14375000   0.96514141 -2.2942584e-05   0.51419431            0            0   0.51419431    1.4115193    1.9257136  -0.42360703 
14380000    1.0622913 4.6551294e-05   0.42519935  0.009555332            0   0.41564402    1.5536011    1.9788004     6.745653 
14385000    1.0286656 -2.7750282e-06   0.49778107  0.011709107            0   0.48607196    1.5044234    2.0022045    1.7180416 
14390000    1.0021208 -5.0968299e-05   0.59506081  0.003452972            0   0.59160784    1.4656016    2.0606624   -3.1584914 
14395000    1.0636012 -1.7679265e-05   0.52007199  0.009138641            0   0.51093335    1.5555168    2.0755888   0.26523212 
14400000     1.134017 -1.8663816e-05   0.38500813   0.04661535            0   0.33839279    1.6584999     2.043508   0.13233327 
14405000    1.0059028 -5.3180512e-05   0.59195154  0.046051082            0   0.54590046    1.4711329    2.0630845      -3.3826 
14410000     1.042097 -3.7163503e-05   0.53039929  0.020552449            0   0.50984684    1.5240669    2.0544662   -1.7510765 
14415000    1.0646501 -4.7639076e-06   0.45967381  0.026612299            0   0.43306151    1.5570508    2.0167246    1.5289005 
14420000    1.0952293 7.2287169e-05   0.46379561 0.0087137576            0   0.45508185    1.6017729    2.0655685    9.4677746 
14425000    1.0307356 0.00012352499   0.51761071 5.0824375e-05            0   0.51755989    1.5074508    2.0250616     14.67402 
14430000   0.89346893 5.0181387e-05   0.71527387 0.00045686559            0     0.714817    1.3066983    2.0219722    7.1605462 
14435000    1.0349008 0.00011052769    0.5272259  0.005038002            0    0.5221879    1.5135424    2.0407683    13.358803 
14440000   0.98438534 0.00015398765   0.61610295  0.049811522            0   0.56629143    1.4396636    2.0557665    17.824101 
14445000    1.1021842 3.6765319e-05   0.47395116  0.028311072            0   0.44564009    1.6119444    2.0858956    5.8506642 
14450000    1.1311418 -9.0924239e-05   0.44941543  0.018240289            0   0.43117514    1.6542949    2.1037103   -7.2069318 
14455000   0.99297897 -0.00013166371   0.69049969   0.11572966            0   0.57477002    1.4522317    2.1427314   -11.339632 
14460000    1.1608365 -6.1279822e-05   0.46546984  0.043293715            0   0.42217613    1.6977234    2.1631932   -4.1118606 
14465000      1.13993 7.8341424e-05   0.48063889  0.019670267            0   0.46096862    1.6671476    2.1477865    10.169948 
14470000   0.95081057 0.00014955718   0.71071034  0.021169505            0   0.68954083    1.3905605    2.1012708    17.415926 
14475000    1.1310128 8.1571686e-05   0.48890682  0.047355556            0   0.44155126    1.6541063    2.1430131    10.495954 
14480000    1.0877504 -1.52191e-05   0.55658639  0.021157721            0   0.53542867     1.590835    2.1474214    0.5889856 
14485000    1.1788891 -3.1664458e-06   0.40179614  0.012211169            0   0.38958497    1.7241254    2.1259215    1.8016775 
14490000    1.0568364 -4.3673494e-06   0.56281649 0.0061271165            0   0.55668937    1.5456232    2.1084397    1.6612231 
14495000    1.0722276 -4.7396857e-05   0.51118448 0.00011854219            0   0.51106594    1.5681329    2.0793174   -2.7741208 
14500000    1.1177558 -4.6573844e-05   0.40881095            0            0   0.40881095    1.6347178    2.0435288   -2.7256328 
14505000    1.1036032 1.187871e-05    0.4112358  0.011792916            0   0.39944288    1.6140196    2.0252554    3.2416353 
14510000   0.96116643 7.5543009e-06   0.61311495  0.038327763            0   0.57478719    1.4057059    2.0188209    2.7923813 
14515000   0.96130799 -4.2592905e-05   0.64459178  0.023658298            0   0.62093348    1.4059129    2.0505047   -2.3110087 
14520000    1.1023596 -4.427303e-05   0.51477276 0.0065859616            0    0.5081868    1.6122009    2.1269737   -2.4065846 
14525000     1.112193 -2.7108011e-05   0.51597016 0.0012230126            0   0.51474715    1.6265823    2.1425525  -0.63330782 
14530000   0.94460428 -9.4901973e-06   0.69393283 0.0091831291            0    0.6847497    1.3814838    2.0754166    1.1036204 
14535000    1.0301682 -5.0379823e-05   0.59105598  0.012333477            0   0.57872251    1.5066209    2.0976769    -3.061217 
14540000    1.1476926 -8.1126361e-05   0.43566747 0.0055618083            0   0.43010566    1.6785005    2.1141679   -6.1931714 
14545000    1.1516851 -1.3047407e-05   0.42826489 0.0029557728            0   0.42530912    1.6843395    2.1126044   0.77654991 
14550000     1.145455 1.7793314e-05   0.49569503    0.0162005            0   0.47949453    1.6752279     2.170923    3.9929583 
14555000    1.1053492 1.7329863e-05   0.59173494  0.025068771            0   0.56666617    1.6165732    2.2083081    3.9828861 
14560000    1.1085143 2.2807244e-05   0.56954923  0.082878126            0    0.4866711    1.6212022    2.1907514    4.5262131 
14565000    1.1324077 -5.8967013e-05   0.49839789  0.036201009            0   0.46219689    1.6561463    2.1545442   -3.8836779 
14570000    1.1153951 -4.8146325e-05   0.55912009  0.026314144            0   0.53280595    1.6312654    2.1903855   -2.7397983 
14575000     1.097014 4.0471193e-05   0.55541057 0.0042003914            0   0.55121018     1.604383    2.1597935    6.3040437 
14580000     1.154371 5.6676751e-05   0.47840406            0            0   0.47840406    1.6882676    2.1666716    7.9703709 
14585000    1.0199148 1.7378171e-05   0.61362322            0            0   0.61362322    1.4916254    2.1052487    3.8847734 
14590000    1.0650007 -3.0745071e-05    0.5028964            0            0    0.5028964    1.5575635    2.0604599   -1.0878354 
14595000     1.087575 -4.5942687e-05   0.42659999            0            0   0.42659999    1.5905784    2.0171784   -2.6873528 
14600000    1.0160188 -4.6881613e-05   0.54449023 6.6647073e-05            0   0.54442358    1.4859275    2.0304177   -2.7702594 
14605000    1.0766284 -3.8731031e-05   0.42848715 9.8092618e-05            0   0.42838906     1.574569    2.0030562   -1.9630014 
14610000    1.0355038 5.3870022e-06   0.47382383            0            0   0.47382383    1.5144242    1.9882481    2.5398771 
14615000   0.99334382 4.4144146e-05   0.57657705 4.0911178e-05            0   0.57653614    1.4527653    2.0293424    6.5497029 
14620000    1.0648208 4.8184326e-05    0.4800596 0.0087281274            0   0.47133147    1.5573004      2.03736     6.971435 
14625000    1.0725294 -2.6663477e-05   0.44609859  0.018528731            0   0.42756986    1.5685742    2.0146728  -0.71566723 
14630000   0.94244354 -8.9505085e-05   0.62194212  0.022430183            0   0.59951194    1.3783237    2.0002658   -7.1650549 
14635000    0.9751208 -8.6048875e-05   0.54572134  0.011522434            0    0.5341989    1.4261142    1.9718355   -6.8395693 
14640000    1.0148505 -6.2467729e-05   0.50004245  0.027908121            0   0.47213433    1.4842189    1.9842614   -4.4124341 
14645000   0.98571104 -2.8413697e-05   0.52698122  0.044869301            0   0.48211192    1.4416024    1.9685836  -0.94097898 
14650000   0.94232181 9.0943303e-05    0.5798823  0.046950241            0   0.53293206    1.3781456     1.958028    11.270622 
14655000   0.91529788 0.00010729882   0.58748345  0.012704238            0   0.57477921    1.3386231    1.9261066    12.913506 
14660000   0.99700078 4.0237988e-05   0.49176777  0.014474456            0   0.47729332    1.4581136    1.9498814    6.0702514 
14665000    1.0223595 4.3864402e-05   0.43204245  0.035109035            0   0.39693341    1.4952008    1.9272433    6.4189581 
14670000   0.99212409 8.8165014e-05   0.48075783  0.019467325            0    0.4612905    1.4509815    1.9317393    10.959837 
14675000    1.0312746 6.2464831e-05    0.4634651  0.024358014            0   0.43910708    1.5082392    1.9717043     8.368103 
14680000    1.0719094 1.312701e-05   0.42770008  0.018466556            0   0.40923352    1.5676675    1.9953676    3.3395735 
14685000    1.0891685 8.814433e-08    0.4545017  0.048084758            0   0.40641694     1.592909    2.0474107    2.0564366 
14690000   0.99059446 -8.2171682e-05   0.55504203   0.07654924            0   0.47849279    1.4487444    2.0037864   -6.4105939 
14695000   0.99366518 -2.5251168e-05   0.56622527  0.024275442            0   0.54194983    1.4532353    2.0194606  -0.56625904 
14700000    1.0509446 1.0307886e-05   0.43743902 0.0077073682            0   0.42973165    1.5370065    1.9744455     3.029973 
14705000    1.1278356 -2.7285241e-05   0.32131851 0.00033506555            0   0.32098345    1.6494596    1.9707781  -0.82323059 
14710000   0.99581842 -4.4625192e-06   0.50661924 0.0034890077            0   0.50313024    1.4563844    1.9630037    1.5060417 
14715000   0.91016814 3.2259941e-05   0.62332051  0.017351569            0   0.60596894    1.3311209    1.9544414    5.2578594 
14720000   0.97174515 5.3885871e-05   0.59613747  0.015661466            0   0.58047601    1.4211773    2.0173148     7.535228 
14725000    1.0813247 2.6544898e-05   0.41779081  0.028466115            0    0.3893247    1.5814374    1.9992282    4.7174257 
14730000    1.0637333 -3.8748544e-05    0.4196161  0.038334329            0   0.38128177    1.5557099     1.975326   -1.9925249 
14735000   0.93586568 -7.2164939e-05   0.65621129  0.052713757            0   0.60349753    1.3687036    2.0249148    -5.364775 
14740000    1.0642803 -4.5662571e-05   0.50196356 0.0087261524            0   0.49323741    1.5565099    2.0584734   -2.6173739 
14745000    1.0106793 -2.2174944e-05   0.57160654 0.0073142938            0   0.56429225    1.4781185    2.0497251  -0.22098917 
14750000    1.0008663 -3.505592e-05   0.58598481  0.033776658            0   0.55220815    1.4637669    2.0497517   -1.5399745 
14755000    1.0885654 -1.1820481e-05    0.4871694   0.02703062            0   0.46013878    1.5920269    2.0791963   0.86877905 
14760000    1.0295657 -1.0557151e-05   0.55714137  0.015388597            0   0.54175277    1.5057399    2.0628812   0.98182896 
14765000    1.0818858 -2.510267e-05   0.46400793 0.0072348017            0   0.45677312     1.582258    2.0462659  -0.52424749 
14770000     1.073284 -4.5688366e-06   0.48176953 0.00031536621            0   0.48145417    1.5696779    2.0514475    1.5835986 
14775000    1.0493695 3.6595237e-07   0.45999916 0.0058892559            0    0.4541099    1.5347029    1.9947021    2.0321756 
14780000    0.9215718 -3.5951759e-05   0.61498535  0.034779336            0   0.58020602    1.3477988    1.9627841    -1.718676 
14785000   0.96885095 -6.0734282e-06   0.57109379  0.059805744            0   0.51128804    1.4169445    1.9880383    1.3661193 
14790000    1.0424046 2.7563614e-05   0.52136766  0.018957063            0    0.5024106    1.5245167    2.0458844    4.8683985 
14795000    1.0523915 -7.5048105e-05   0.48110494 0.00016032037            0   0.48094462    1.5391225    2.0202275   -5.6646984 
14800000   0.93197952 -0.00010533951   0.63783279            0            0   0.63783279    1.3630201    2.0008528   -8.7859135 
14805000    1.1081423 -1.9633738e-05   0.38531889            0            0   0.38531889    1.6206581     2.005977 -0.0045177369 
14810000   0.95179512 2.5236245e-05   0.61417751            0            0   0.61417751    1.3920004    2.0061779    4.5903694 
14815000   0.95468603 -3.1032502e-07   0.59046338 0.0025104928            0   0.58795288    1.3962283    1.9866917    1.9549144 
14820000   0.93825338 2.9537504e-05   0.61182276  0.041057186            0   0.57076557    1.3721956    1.9840183    5.0086588 
14825000    1.0541653 5.4162829e-05   0.48661289  0.044273113            0   0.44233977    1.5417168    2.0283297    7.5746034 
14830000    1.0003254 2.9568791e-05   0.49395462  0.037762898            0   0.45619172     1.462976    1.9569306    4.9847748 
14835000    1.0301381 -1.9443344e-05   0.46069877 0.0099143247            0   0.45078444     1.506577    1.9672758 -0.023722617 
14840000   0.93650117 4.0698915e-05    0.6188783  0.011616873            0   0.60726143     1.369633    1.9885113    6.1560802 
14845000   0.95860439 5.7367782e-05   0.60444662  0.018716354            0   0.58573027    1.4019589    2.0064055    7.8808664 
14850000   0.94446889 -2.1258896e-05   0.63481321  0.012595235            0   0.62221797    1.3812858     2.016099  -0.16081198 
14855000    1.0225402 5.584256e-05   0.48971397  0.004252741            0   0.48546123    1.4954651    1.9851791    7.7034572 
14860000   0.99630822 0.0001163624   0.51269152            0            0   0.51269152    1.4571008    1.9697923    13.885302 
14865000   0.97471291 -2.3658098e-05   0.55508783 0.0071014462            0   0.54798638    1.4255176    1.9806055  -0.44198382 
14870000   0.89516963 -2.1421511e-05   0.65691645  0.030766675            0   0.62614978    1.3091856     1.966102  -0.22746072 
14875000   0.96652553 -5.4591008e-05   0.57090412 0.0056567149            0    0.5652474    1.4135436    1.9844477   -3.6056715 
14880000    1.0641188 2.760988e-05   0.44497761 0.0003677196            0   0.44460989    1.5562738    2.0012514    4.8285031 
14885000    1.0341879 5.6830871e-05   0.49524783 0.0093374781            0   0.48591035    1.5124998    2.0077477    7.8272288 
14890000   0.97941279 1.2695639e-05   0.63270591  0.059200918            0   0.57350499    1.4323912    2.0650971    3.3651305 
14895000    1.0712939 -1.628509e-07   0.50444505 0.0070662755            0   0.49737877    1.5667674    2.0712124    2.0545365 
14900000    1.0634327 -7.0756138e-05   0.55625795            0            0   0.55625795    1.5552703    2.1115282   -5.1339003 
14905000    1.2097583 -6.1924797e-05   0.32222593            0            0   0.32222593    1.7692716    2.0914975   -4.2496017 
14910000    1.1455583 -1.2764747e-05     0.467873  0.013903042            0   0.45396996     1.675379     2.143252   0.83614186 
14915000   0.97009271 2.7521417e-05   0.72112261  0.064973635            0   0.65614897    1.4187606    2.1398832    4.9580762 
14920000    1.1343011 5.2898053e-05   0.51757454  0.073572931            0   0.44400161    1.6589153    2.1764899    7.5932505 
14925000    1.0740872 1.5740107e-05   0.65136759  0.017514239            0   0.63385335    1.5708525    2.2222201     3.834007 
14930000     1.164383 -1.0879566e-05   0.50242185 0.0017765611            0   0.50064529    1.7029102     2.205332    1.0912644 
14935000    1.1402479 2.2903369e-05    0.5298804 0.00034021863            0   0.52954018    1.6676126     2.197493     4.542798 
14940000    1.0956871 1.2851819e-05   0.57355675 0.0024951283            0   0.57106162    1.6024424    2.1759992    3.4920254 
14945000    1.1576133 1.8405577e-05    0.4686922  0.026955913            0   0.44173629    1.6930094    2.1617016    4.0464327 
14950000    1.0726644 -4.8481047e-05   0.57507348  0.051135218            0   0.52393826    1.5687718    2.1438452    -2.820614 
14955000    1.0769429 -5.5919671e-05   0.55004963  0.010670687            0   0.53937894     1.575029    2.1250786   -3.6010957 
14960000     1.074689 2.0634071e-05   0.53198433 0.00031250518            0   0.53167183    1.5717327     2.103717    4.2166459 
14965000    1.1712028 6.1276802e-07    0.3941728 0.00016379619            0     0.394009    1.7128841    2.1070569    2.1698043 
14970000    1.0788569 -1.2273392e-05   0.53238191            0            0   0.53238191    1.5778282    2.1102101   0.85341484 
14975000    1.0260003 4.3597144e-05   0.56345708            0            0   0.56345708    1.5005254    2.0639825      6.52833 
14980000    1.0697142 5.885761e-05   0.52974219 3.0724618e-05            0   0.52971146     1.564457    2.0941992    8.1212184 
14985000     1.076859 2.6726776e-05   0.56014348 0.0067063926            0   0.55343709    1.5749063    2.1350498    4.8718717 
14990000    1.0412261 3.0586887e-05   0.61863231  0.017817853            0   0.60081445    1.5227931    2.1414254    5.2735227 
14995000    1.0776533 1.6391634e-05   0.54735208  0.013568673            0   0.53378341     1.576068    2.1234201    3.8019234 
15000000    1.1270268 -3.9080524e-05   0.44308463 0.0028578395            0   0.44022679    1.6482767    2.0913613   -1.9104843 
15005000     1.111165 2.8832167e-06   0.47275351 0.00071601361            0    0.4720375    1.6250788    2.0978323    2.3930737 
15010000    1.0838636 -2.7934988e-05   0.51360301  0.020517577            0   0.49308544    1.5851506    2.0987536  -0.76178916 
15015000   0.97089451 -0.00011968326   0.67665289  0.063378089            0    0.6132748    1.4199332    2.0965861    -10.15898 
15020000     1.054388 -4.235313e-05   0.61140074   0.18468004            0   0.42672069    1.5420425    2.1534432   -2.1835173 
15025000   0.95244695 6.4843268e-06   0.71496624  0.054341983            0   0.66062426    1.3929537    2.1079199     2.771915 
15030000    1.0865728 2.4739262e-05   0.52336464 0.0089034102            0   0.51446123    1.5891128    2.1124774    4.6457779 
15035000    1.0481172 -2.4910522e-05   0.54749581 0.00047338604            0   0.54702243    1.5328714    2.0803672  -0.47047026 
15040000    1.1873484 4.3020184e-05   0.32937845 0.0018366442            0   0.32754181     1.736497    2.0658754    6.4711423 
15045000    1.0291669 8.6543944e-05   0.53447462 0.00049667383            0   0.53397794    1.5051566    2.0396312    10.901731 
15050000    1.1232469 -3.2725884e-05   0.45690855            0            0   0.45690855    1.6427486    2.0996571   -1.2514733 
15055000    1.0406705 -5.9745092e-05   0.60015981            0            0   0.60015981    1.5219806    2.1221404    -3.995757 
15060000    1.1272468 3.0933825e-05   0.43210348 0.0024090525            0   0.42969442    1.6485984    2.0807019    5.2483255 
15065000    1.0152567 1.6774678e-05   0.53407065 0.0048373609            0   0.52923329    1.4848129    2.0188836    3.7366106 
15070000   0.95287298 4.2974006e-05   0.57177821 0.0081082927            0   0.56366992    1.3935767    1.9653549    6.3658932 
15075000     1.025625 1.3840492e-05   0.48856646  0.025492219            0   0.46307424    1.4999765     1.988543    3.4058094 
15080000   0.91201956 -9.3655633e-05   0.64712488  0.015536888            0     0.631588    1.3338286    1.9809535   -7.6093833 
15085000    1.0788884 -3.8555648e-05   0.44902747  0.011181013            0   0.43784646    1.5778742    2.0269017   -1.9211967 
15090000   0.99843083 2.0944344e-05   0.56403772 0.0093217654            0   0.55471595    1.4602051    2.0242428    4.1689437 
15095000    1.0822991 -1.1994293e-05   0.45985091 0.0049843285            0   0.45486658    1.5828624    2.0427133   0.81449776 
15100000   0.86848491 -7.6717051e-05   0.75914133  0.041087171            0   0.71805415    1.2701592    2.0293005   -5.8265255 
15105000    1.0579977 2.0801658e-05   0.43883926  0.020004709            0   0.41883455    1.5473216    1.9861609    4.1162507 
15110000    1.0766881 -2.6339977e-05    0.4450109 0.00036373477            0   0.44464716    1.5746564    2.0196673  -0.67754631 
15115000    1.0810848 -4.0915581e-05   0.44956097 0.00033080438            0   0.44923016    1.5810865    2.0306474   -2.1591081 
15120000    1.0045967 -1.5604099e-06    0.5630524 0.0094158009            0    0.5536366    1.4692227    2.0322751    1.8724892 
15125000    1.0282155 -3.6826511e-05   0.51713942  0.018172395            0   0.49896702    1.5037652    2.0209046   -1.7501301 
15130000    1.0330556 6.679289e-05   0.49578104 0.0029581638            0   0.49282288    1.5108438    2.0066249    8.8462168 
15135000     0.998226 8.1200197e-05   0.53875099            0            0   0.53875099    1.4599055    1.9986565    10.313557 
15140000   0.93862301 4.471718e-05   0.61480199            0            0   0.61480199    1.3727361    1.9875381    6.5665774 
15145000   0.96789279 -2.8661782e-06   0.59789521            0            0   0.59789521    1.4155432    2.0134384    1.7199418 
15150000    1.0323223 -6.5969364e-06   0.51332569  0.000175191            0   0.51315049    1.5097713     2.023097    1.3475707 
15155000   0.95671805 -2.1751214e-05   0.59808088 0.0012171509            0   0.59686373    1.3992001     1.997281  -0.23004329 
15160000   0.86711385 -3.2077844e-05   0.73615767 0.0044324777            0   0.73172519     1.268154    2.0043117   -1.2804595 
15165000    1.0132026 -1.5560432e-05   0.54123464 0.0038595145            0   0.53737513    1.4818088    2.0230434   0.42965515 
15170000    1.1097267 4.1094083e-06   0.37935385 0.0012453298            0   0.37810852    1.6229753    2.0023291    2.4231325 
15175000   0.97519152 1.7679535e-05   0.58910429            0            0   0.58910429    1.4262176    2.0153219    3.8257062 
15180000   0.95329447 1.8495826e-05   0.60804658            0            0   0.60804658    1.3941932    2.0022397    3.8962124 
15185000    1.0085974 8.0970316e-05    0.5192223 0.0017420275            0   0.51748027    1.4750737     1.994296    10.285656 
15190000    1.0702534 -2.5860758e-05   0.44942779   0.01579244            0   0.43363535    1.5652456    2.0146734  -0.63346823 
15195000    1.0355729 -9.6539621e-05   0.53203828  0.058305809            0   0.47373247    1.5145254    2.0465637   -7.8390934 
15200000   0.79130926 3.4085167e-05   0.88945931  0.063723689            0   0.82573562    1.1572898    2.0467491    5.5370702 
15205000    1.0854826 8.2234431e-05   0.43723571  0.025718654            0   0.41151706    1.5875183    2.0247541     10.44556 
15210000    1.0700121 -1.700366e-05   0.48551758  0.000980124            0   0.48453746    1.5648927    2.0504102    0.3092355 
15215000   0.98898311 -5.4678959e-05   0.59055529 0.00011847411            0   0.59043681    1.4463878    2.0369431   -3.5621824 
15220000   0.97067789 -2.0949011e-05   0.62773477 0.00012383709            0   0.62761094    1.4196164    2.0473512 -0.097827538 
15225000     1.043549 1.8211935e-06    0.4910203 2.4877188e-05            0   0.49099542    1.5261904    2.0172107     2.203701 
15230000   0.97764215 -6.2028222e-05   0.59958349            0            0   0.59958349    1.4298017    2.0293851   -4.3223048 
15235000    1.0145308 -0.00014554603    0.5570789            0            0    0.5570789    1.4837513    2.0408302   -12.863084 
15240000    1.0039851 -0.00010805259   0.56011853            0            0   0.56011853    1.4683282    2.0284467   -9.0361383 
15245000    1.1090897 1.5371847e-06   0.43083472            0            0   0.43083472    1.6220436    2.0528784    2.2102861 
15250000    1.0661001 4.4106536e-05   0.47111312            0            0   0.47111312    1.5591715    2.0302846    6.5467939 
15255000    1.0251238 3.1223958e-05   0.52590083            0            0   0.52590083    1.4992436    2.0251444    5.2224777 
15260000     1.013507 2.7303441e-05   0.51580949 0.0019309817            0    0.5138785     1.482254    1.9980635    4.7939359 
15265000    1.0083038 2.6532032e-05   0.56212127  0.011496197            0   0.55062508    1.4746443    2.0367656    4.7536456 
15270000    1.0430892 2.5122256e-05   0.50961632  0.015408316            0   0.49420801     1.525518    2.0351343    4.6076534 
15275000    1.0223561 3.4056343e-05   0.54299186  0.024293307            0   0.51869855    1.4951957    2.0381876    5.5255571 
15280000   0.96549567 -4.7905698e-05   0.60867188  0.015591094            0   0.59308079    1.4120374    2.0207093   -2.8848342 
15285000    1.0667774 -7.6395568e-05   0.49889863  0.000849721            0   0.49804891    1.5601619    2.0590605   -5.7638456 
15290000    1.0122705 -1.9321788e-05   0.56766754 0.0085325396            0     0.559135    1.4804456    2.0481131   0.06956203 
15295000   0.94438387 2.2385601e-06   0.68736724  0.022195486            0   0.66517175    1.3811614    2.0685286    2.2977572 
15300000    1.1397884 -2.3061451e-06   0.40968386  0.019503557            0    0.3901803    1.6669405    2.0766244    1.8404751 
15305000    1.0017032 -4.5603698e-05   0.57341611  0.091615517            0    0.4818006    1.4649909     2.038407   -2.6314117 
15310000   0.97673729 -7.8592842e-06   0.61167884  0.038589407            0   0.57308943    1.4284783    2.0401571    1.2353664 
15315000   0.97819999 -9.3561489e-06   0.56361776  0.014132652            0   0.54948511    1.4306175    1.9942352    1.0361656 
15320000    1.0351088 2.2674216e-05   0.49985825 0.0047940534            0    0.4950642    1.5138466    2.0137048    4.3355445 
15325000   0.97511988 3.8820107e-05   0.58847513 0.00093879169            0   0.58753634    1.4261128     2.014588     5.989767 
15330000    1.0307539 -9.4291516e-06   0.48551963 0.0018433503            0   0.48367628    1.5074776    1.9929972    1.0274521 
15335000    1.0917725 -2.9846054e-05   0.43314348 0.0010660783            0    0.4320774    1.5967172    2.0298607   -1.0263752 
15340000    1.1663766 -3.8807238e-05   0.38148565            0            0   0.38148565    1.7058258    2.0873115   -1.8865497 
15345000    1.1378735 -5.7247189e-05   0.45230541            0            0   0.45230541      1.66414    2.1164454   -3.7456668 
15350000    1.0843791 1.5347732e-05   0.54288242            0            0   0.54288242    1.5859044    2.1287869    3.7003946 
15355000    1.1473998 -5.7875168e-05   0.47729022 0.0017954368            0   0.47549478    1.6780722    2.1553625   -3.7710547 
15360000    1.1723841 -0.00013169712   0.45533548  0.027855412            0   0.42748007    1.7146118    2.1699473   -11.315838 
15365000    1.0804598 -7.774395e-05   0.54659018  0.019333886            0   0.52725629    1.5801724    2.1267626   -5.8342178 
15370000    1.1059927 -3.0081051e-07   0.48447978 0.0026118888            0   0.48186789    1.6175143    2.1019941    2.0711911 
15375000    1.0765626 1.2063847e-05   0.52316489 0.0060869291            0   0.51707796    1.5744728    2.0976377    3.3329757 
15380000    1.0534574 -6.2550465e-05   0.55344138  0.011718906            0   0.54172248    1.5406814    2.0941228   -4.3110448 
15385000    1.1972416 -4.733786e-05   0.31695679 0.0096417424            0   0.30731505    1.7509658    2.0679226   -2.7794742 
15390000    1.1185748 1.1951944e-05   0.42240874  0.007873235            0   0.41453551    1.6359157    2.0583244    3.2822035 
15395000    1.0629976 8.1449143e-05   0.50548332 0.0073944858            0   0.49808884    1.5546341    2.0601174     10.40051 
15400000    1.2037494 -2.4081892e-06   0.35804009  0.020354108            0   0.33768599    1.7604835    2.1185236     1.871925 
15405000    1.1072544 -7.5643251e-05    0.4860842  0.043521017            0   0.44256318    1.6193595    2.1054437   -5.6404251 
15410000    1.0470459 1.671625e-06   0.50733507  0.017783583            0   0.48955149    1.5313046    2.0386397    2.2098141 
15415000    0.9791491 -5.8990014e-05   0.60919009  0.040697081            0   0.56849301    1.4320056    2.0411956   -3.9993818 
15420000    1.0614691 -4.1600126e-05   0.48426767  0.020453474            0    0.4638142    1.5523985    2.0366662   -2.2231868 
15425000     1.045769 1.2054561e-05   0.51544589 0.0063254737            0   0.50912042    1.5294371     2.044883      3.27927 
15430000    1.1125443 -7.5849414e-05   0.44026084 0.0019634549            0   0.43829739     1.627096    2.0673568   -5.6996231 
15435000    1.0572539 -2.5097867e-05   0.54087114 0.0033718555            0   0.53749928    1.5462338     2.087105  -0.48291657 
15440000    1.0230157  6.84252e-07   0.61479706 0.0042707996            0   0.61052626    1.4961605    2.1109575    2.1810249 
15445000    1.1308192 -7.0642085e-05   0.46896912 0.0013871347            0   0.46758199    1.6538231    2.1227922   -5.1109573 
15450000    1.1370766 -1.0897859e-05    0.4624486  0.012306852            0   0.45014175    1.6629745    2.1254231    1.0094823 
15455000    1.2411508 1.6521941e-05    0.3444414  0.008337162            0   0.33610424    1.8151831    2.1596245    3.8514712 
15460000    1.1110699 1.8855855e-05   0.56553046  0.010623877            0   0.55490659    1.6249397    2.1904702    4.1213097 
15465000    1.1881574 4.9757811e-05   0.42402047  0.027684668            0    0.3963358    1.7376802    2.1617006    7.2569005 
15470000    1.0921249 4.6900027e-05   0.51351231  0.021396379            0   0.49211593    1.5972326    2.1107449    6.9133077 
15475000    1.2352495 8.0500125e-05   0.32728788  0.023223258            0   0.30406463    1.8065524    2.1338403    10.377053 
15480000    1.1524489 9.654576e-06    0.4702144  0.018558991            0   0.45165541    1.6854566     2.155671    3.1442995 
15485000    1.2072859 -7.4848624e-05   0.41549578  0.010670437            0   0.40482534    1.7656556    2.1811513   -5.4833477 
15490000    1.1638285 7.2180604e-05   0.46478845 0.0025371542            0    0.4622513    1.7020991    2.1668876    9.5581814 
15495000    1.1675862 6.6876181e-05   0.44285864   0.00628836            0   0.43657028    1.7075949    2.1504535    8.9985744 
15500000    1.1288665 -2.7114431e-05   0.58051156   0.01266345            0   0.56784811    1.6509673    2.2314788  -0.54503887 
15505000    1.2311644 -2.8662332e-05    0.4554811  0.024315277            0   0.43116582     1.800578    2.2560591  -0.67896372 
15510000    1.1835875 2.5301478e-05   0.49831674  0.017716076            0   0.48060066    1.7309968    2.2293135    4.8201849 
15515000    1.0589463 -2.7563865e-05   0.65827631   0.17273825            0   0.48553805    1.5487089    2.2069852  -0.61555453 
15520000    1.1515129 -9.2533065e-05   0.57885744  0.045661804            0   0.53319564    1.6840876     2.262945   -7.2124409 
15525000    1.2861199 -3.4311991e-05   0.37484314  0.026996536            0    0.3478466    1.8809504    2.2557935   -1.2577543 
15530000    1.1566832 9.0817322e-06    0.5613708  0.087696178            0   0.47367462    1.6916491    2.2530199    3.1829893 
15535000    1.1696103 3.9845246e-05    0.5597869  0.076534065            0   0.48325284    1.7105551     2.270342    6.3504952 
15540000     1.162703 7.2376409e-05   0.56902135  0.081047508            0   0.48797384    1.7004532    2.2694745    9.6808188 
15545000    1.2818402 2.5763171e-05   0.38239778  0.033009483            0    0.3493883    1.8746912     2.257089    4.8952377 
15550000    1.1948338 -5.930556e-05   0.52492933  0.005864072            0   0.51906526    1.7474444    2.2723738   -3.8005156 
15555000    1.1571935 -0.00010142396   0.55582324 0.0088538335            0   0.54696941    1.6923955    2.2482187   -8.1375947 
15560000    1.1653615 -7.4988882e-05    0.5406498  0.015462172            0   0.52518763    1.7043413    2.2449911   -5.4338705 
15565000     1.127432 5.7521835e-06   0.58531557  0.010492203            0   0.57482337    1.6488693    2.2341849    2.8232085 
15570000    1.1657295 2.2280305e-05   0.51866177  0.026493854            0   0.49216792    1.7048794    2.2235412    4.5050444 
15575000     1.121884 -1.0924078e-05     0.587723   0.11925656            0   0.46846644    1.6407554    2.2284784    1.1098528 
15580000    1.1306143 6.5990095e-06   0.57038855  0.061853871            0   0.50853468    1.6535234     2.223912    2.8996505 
15585000    1.1302838 2.3609063e-05   0.54620167  0.087397337            0   0.45880434    1.6530401    2.1992417    4.6168098 
15590000    1.1981515 -3.0852909e-05   0.42710311 0.0092513561            0   0.41785175    1.7522966    2.1793997  -0.97993821 
15595000    1.1724366 -5.5021167e-05    0.4331753 0.0079522707            0   0.42522303    1.7146886    2.1478639   -3.4863036 
15600000    1.1154037 5.3130425e-05   0.51795945  0.024457611            0   0.49350184    1.6312779    2.1492373    7.5897928 
15605000    1.0702254 5.4275141e-05   0.55399877  0.057446601            0   0.49655217    1.5652047    2.1192035     7.676978 
15610000    1.1127696 -5.1391372e-05   0.48632309  0.025975297            0   0.46034779    1.6274255    2.1137486   -3.1487279 
15615000    1.1805579 -3.1420717e-05   0.39146879            0            0   0.39146879     1.726566    2.1180348   -1.0994466 
15620000    1.1491116 6.3326495e-05   0.43982447 6.3144899e-05            0   0.43976133    1.6805758    2.1204002    8.6050334 
15625000    1.1308757 2.4664001e-05   0.38805428 0.0046644681            0   0.38338981    1.6539056    2.0419599    4.5675536 
15630000   0.96731355 -9.624603e-05    0.5863611 0.0068311831            0   0.57952992    1.4146961    2.0010572   -7.8545363 
15635000     1.042546 -8.2795598e-05    0.5174962  0.001686227            0   0.51580997    1.5247235    2.0422197   -6.4360495 
15640000   0.93769054 1.7067798e-06    0.5899083 0.00089036577            0   0.58901794    1.3713724    1.9612807     2.136055 
15645000   0.91128209 2.1559718e-05   0.57376211   0.05702895            0   0.51673316    1.3327501    1.9065122    4.1142272 
15650000   0.90857797 -2.1881828e-05   0.55974706   0.04138891            0   0.51835815    1.3287953    1.8885423   -0.3521568 
15655000   0.87146529 -3.7287252e-05   0.55259057  0.014903659            0   0.53768691     1.274518    1.8271086   -1.9911061 
15660000   0.83861216 -2.0145857e-05   0.59101249  0.029281785            0    0.5617307    1.2264703    1.8174828  -0.24545303 
15665000   0.94699123 -4.2422442e-05   0.43636624  0.030537646            0   0.40582859    1.3849747    1.8213409   -2.5227172 
15670000   0.95134722 -4.696126e-05   0.44458034   0.01305611            0   0.43152423    1.3913453    1.8359256   -2.9729074 
15675000   0.85614852 1.9263247e-05   0.59594854   0.01823442            0   0.57771412    1.2521172    1.8480658    3.8206222 
15680000   0.98752756 7.4764036e-06   0.42449012   0.03692051            0   0.38756961    1.4442591    1.8687492    2.6343329 
15685000   0.95064159 -6.5764339e-06   0.49578569  0.093064976            0   0.40272072    1.3903133     1.886099    1.2126722 
15690000   0.93424397 3.4750092e-05   0.51456394   0.06917708            0   0.44538686    1.3663318    1.8808957    5.4393051 
15695000    1.0493823 -4.4158851e-05   0.36614543  0.015929237            0    0.3502162    1.5347216     1.900867   -2.6209994 
15700000   0.96226825 -3.8760846e-05   0.50551818 0.0084416837            0    0.4970765    1.4073173    1.9128355   -2.0562751 
15705000    1.0835247 7.5992872e-06   0.35636635 0.00015354005            0   0.35621281    1.5846549    1.9410212    2.7191883 
15710000    1.0436969 -3.3938071e-05   0.40615861 0.0015546961            0   0.40460391    1.5264067    1.9325653   -1.5426932 
15715000    1.0076249 -1.575142e-05   0.44106349 0.0046589474            0   0.43640454    1.4736515     1.914715   0.30176961 
15720000   0.95821739 -3.376909e-05   0.49563182 0.0046279487            0   0.49100387    1.4013929    1.8970248   -1.5609301 
15725000   0.90176009 -2.7854493e-05   0.57780637 0.0013086975            0   0.57649767    1.3188241    1.8966305  -0.95566963 
15730000   0.93886482 -1.2930895e-05   0.55047872 0.0023746917            0   0.54810402    1.3730898    1.9235685   0.59944491 
15735000   0.96848688 -8.3092563e-05    0.5520192  0.011948867            0   0.54007033    1.4164121    1.9684313   -6.5402472 
15740000    1.0620499 -2.3635574e-05   0.41766428  0.013813489            0   0.40385079    1.5532479    1.9709122  -0.44937053 
15745000   0.94344274 -4.6674749e-06   0.57635051  0.033995697            0   0.54235481     1.379785    1.9561355    1.4781861 
15750000    1.0731114 -2.3342136e-05   0.38225803  0.008847931            0    0.3734101    1.5694254    1.9516834  -0.43855132 
15755000   0.88771109 -5.8643516e-05   0.63592941 6.6103519e-05            0   0.63586331    1.2982775    1.9342069   -4.0708892 
15760000     1.104183 -1.8574174e-05   0.36201517   0.01128259            0   0.35073258    1.6148676    1.9768828   0.07488731 
15765000    1.0024929 6.5281499e-05   0.54654426 0.0077857266            0   0.53875854    1.4661459    2.0126902    8.6975157 
15770000   0.97063801 -1.667305e-05   0.59440105  0.014862062            0   0.57953899    1.4195581    2.0139591   0.30663879 
15775000   0.86037406 -4.3221383e-05   0.75285794   0.14699887            0   0.60585907    1.2582971     2.011155   -2.4147146 
15780000   0.98177049 8.6916561e-05   0.54345751  0.033945326            0   0.50951219    1.4358393    1.9792969    10.879553 
15785000   0.96934094 8.4612103e-05   0.54562116  0.043717075            0   0.50190408    1.4176611    1.9632823    10.627562 
15790000   0.96333661 6.1044061e-06   0.57203893  0.039004649            0   0.53303428    1.4088798    1.9809187    2.6060099 
15795000   0.97060024 3.2769248e-06   0.53156979  0.012942563            0   0.51862723    1.4195029    1.9510726    2.2866297 
15800000    1.0235928 2.4645092e-05   0.45677016 0.0014922015            0   0.45527796    1.4970045    1.9537747    4.4774321 
15805000   0.95987033 -3.667141e-05   0.48662683  0.014424789            0   0.47220204    1.4038104    1.8904372   -1.8647152 
15810000   0.93513799 0.00010764438   0.52276003  0.063626693            0   0.45913333    1.3676393    1.8903993    12.913183 
15815000   0.93401922 0.00011357169   0.54223411 0.0059888636            0   0.53624525    1.3660031    1.9082372    13.537978 
15820000   0.99659761 0.00011227534   0.42843125 0.0024668369            0   0.42596441     1.457524    1.8859553     13.38295 
15825000    1.0130655 2.524645e-05   0.41229421 4.8211987e-05            0     0.412246    1.4816083    1.8939025     4.479139 
15830000    1.1061427 -5.7171447e-05   0.30693563 0.0013783156            0   0.30555731    1.6177337    1.9246694   -3.9296869 
15835000   0.95971444 -3.6027177e-05   0.48015096  0.016806959            0     0.463344    1.4035824    1.8837333   -1.8054496 
15840000    0.8926513 -8.4202877e-05    0.5426063  0.063502435            0   0.47910387    1.3055025    1.8481088   -6.7742658 
15845000    1.0063218 -7.3845943e-06   0.36069824  0.034651254            0   0.32604699    1.4717456    1.8324439    1.0762614 
15850000    1.0328276 7.691938e-05   0.34495916 0.00073484355            0   0.34422432    1.5105104    1.8554696    9.7320141 
15855000   0.89126547 -8.2771489e-06   0.49987123  0.020500086            0   0.47937114    1.3034757     1.803347   0.95576693 
15860000   0.98220213 3.7196858e-05   0.30749681  0.027349058            0   0.28014776    1.4364706    1.7439674    5.5529257 
15865000    0.9823843 5.2804723e-05   0.34374787  0.023287094            0   0.32046077     1.436737    1.7804849    7.1876886 
15870000   0.89299459 1.2276692e-05   0.48955708  0.060796406            0   0.42876068    1.3060046    1.7955617     3.052695 
15875000   0.94146774 3.0032572e-05   0.42259976  0.047481816            0   0.37511794    1.3768966    1.7994963    4.8748317 
15880000    1.0083649 -4.4207583e-05   0.32817313 0.0046529528            0   0.32352018    1.4747336    1.8029067   -2.7239497 
15885000   0.97803166 2.0795808e-05   0.39503442 0.00051037401            0   0.39452404    1.4303713    1.8254057    3.9548964 
15890000   0.87277488 1.4367492e-05   0.56481968   0.10440688            0    0.4604128    1.2764333    1.8412529    3.3124842 
15895000   0.80478005 -3.5360678e-05   0.65870479  0.078604243            0   0.58010055    1.1769908    1.8356956   -1.7852378 
15900000   0.99398411 -6.50425e-05   0.39693914 0.0025452794            0   0.39439386    1.4537018    1.8506409   -4.8097111 
15905000    1.1092488 1.5217803e-05   0.24066519 0.00038566367            0   0.24027953    1.6222763    1.8629415    3.4212445 
15910000   0.84427617 2.8173398e-05   0.61233271  0.014590363            0   0.59774235    1.2347539    1.8470866    4.7320425 
15915000   0.88652594 1.6651653e-05   0.52833934  0.031131014            0   0.49720832    1.2965442    1.8248835    3.5300128 
15920000   0.93745863 1.5000532e-05   0.48196526  0.034789427            0   0.44717583    1.3710333    1.8529985     3.389053 
15925000      1.08007 -2.560112e-05   0.31762525  0.023399415            0   0.29422583    1.5796023    1.8972276  -0.72432707 
15930000   0.87552739 -3.6605126e-05   0.56992529 0.0064765703            0   0.56344872    1.2804588    1.8503841   -1.8979808 
15935000    1.0531396 -8.6947511e-05   0.33349649 0.0026663892            0    0.3308301    1.5402166    1.8737131    -7.029712 
15940000   0.98161204 1.9729625e-05   0.42766294 0.00029737921            0   0.42736556    1.4356076    1.8632705    3.8835841 
15945000    1.0215048 2.117648e-05    0.3642634            0            0    0.3642634    1.4939508    1.8582142    4.0266858 
15950000    1.0342027 -9.24721e-05   0.32463445            0            0   0.32463445    1.5125214    1.8371558   -7.6319872 
15955000     0.902587 2.1269281e-05   0.54303467 0.0015552351            0   0.54147944    1.3200335    1.8630682    4.0410426 
15960000    1.0214505 -7.8987263e-06   0.38363395  0.012689491            0   0.37094446    1.4938713    1.8775053    1.0686757 
15965000    1.0292074 -4.9722974e-06   0.35700647  0.012945142            0   0.34406133    1.5052159    1.8622224    1.3530591 
15970000   0.96401611 8.8420073e-06   0.46901841 0.0040707341            0   0.46494768    1.4098736     1.878892    2.7843135 
15975000   0.94326581 -6.5234419e-05   0.45914718 0.0048899904            0   0.45425719    1.3795262    1.8386734   -4.8413311 
15980000   0.94836831 -4.6769937e-05   0.45940455  0.038636006            0   0.42076854    1.3869887    1.8463932   -2.9428483 
15985000   0.91214578 -7.6302127e-05   0.46239028  0.027509758            0   0.43488053    1.3340132    1.7964035   -6.0169343 
15990000   0.89107487 -6.3810823e-05   0.47314659  0.015261361            0   0.45788523     1.303197    1.7763436   -4.7578847 
15995000   0.94140705 5.8384462e-05    0.4187898  0.023261181            0   0.39552862    1.3768078    1.7955976    7.7741665 
16000000   0.92231185 7.1306782e-06   0.47471964   0.01959883            0   0.45512081    1.3488811    1.8236007    2.5537822 
16005000   0.97274355 2.9889987e-05   0.34790548  0.040433001            0   0.30747248    1.4226374    1.7705429    4.8312776 
16010000   0.80656361 4.7495045e-05   0.56485977   0.14456124            0   0.42029852    1.1795993     1.744459    6.6079516 
16015000   0.86620983 -5.3603187e-05   0.53849108  0.067450315            0   0.47104077    1.2668319     1.805323   -3.6836434 
16020000   0.97367317 2.6330859e-06   0.38790013 0.0094546586            0   0.37844547     1.423997    1.8118971    2.0815251 
16025000     0.912185 0.00012885828    0.4568966 0.0089084023            0   0.44798819    1.3340706    1.7909672    14.986055 
16030000   0.86694912 8.7412586e-05   0.51848204 0.0037265152            0   0.51475552    1.2679131    1.7863951    10.737444 
16035000    1.0296123 6.4156944e-05   0.28100723            0            0   0.28100723    1.5058081    1.7868153    8.3564863 
16040000   0.87129246 3.6513777e-05   0.51318517  0.010357464            0    0.5028277    1.2742652    1.7874504    5.5264612 
16045000   0.86463034 -9.9693768e-05   0.51574695  0.043932455            0   0.47181449    1.2645219    1.7802688    -8.428373 
16050000   0.95762931 -5.2572072e-05   0.35867975 0.0044911868            0   0.35418856    1.4005329    1.7592126   -3.6241675 
16055000   0.79121979 3.6560578e-05   0.59692113 0.0083160969            0   0.58860503    1.1571589    1.7540801    5.4978832 
16060000   0.95348473 -3.5233153e-05   0.39270779  0.036600085            0   0.35610771    1.3944714    1.7871792   -1.8206956 
16065000   0.87533214 -9.163443e-05   0.58394259  0.037501324            0   0.54644126    1.2801733    1.8641158   -7.5192498 
16070000   0.98373866 -2.2344217e-05    0.4088609 0.0070127574            0   0.40184814    1.4387178    1.8475787  -0.44046911 
16075000   0.91519399 5.7212655e-05   0.50946581 0.0048558482            0   0.50460996    1.3384712     1.847937    7.7065129 
16080000   0.98156156 4.0937994e-06   0.40883613  0.011514902            0   0.39732123    1.4355338    1.8443699     2.263575 
16085000   0.90165435 -5.276702e-05   0.46433874   0.03514921            0   0.42918953    1.3186695    1.7830082   -3.6203346 
16090000   0.94561613 -2.3298441e-05   0.42699188  0.020134334            0   0.40685754    1.3829636    1.8099555  -0.57580487 
16095000    0.9270433 -2.0320852e-05   0.45276028  0.062499119            0   0.39026116    1.3558008    1.8085611  -0.27229417 
16100000    0.9262747 -4.8825036e-05   0.41035833  0.037618467            0   0.37273986    1.3546767    1.7650351   -3.2346486 
16105000   0.92601856 -2.9256279e-05   0.45931285  0.075091779            0   0.38422107    1.3543021     1.813615    -1.182228 
16110000   0.90538642 9.8891565e-06   0.51442822  0.063130722            0    0.4512975    1.3241276    1.8385559    2.8512055 
16115000    1.0080012 -3.9650449e-06   0.39975221  0.015901309            0    0.3838509    1.4742018     1.873954    1.4679334 
16120000   0.98990506 -5.0116946e-06   0.39231713  0.024714167            0   0.36760296    1.4477361    1.8400533    1.3268557 
16125000    0.9288362 9.1124027e-06   0.45582367   0.04636284            0   0.40946083    1.3584229    1.8142466    2.7473566 
16130000   0.92340566 -3.8688857e-05   0.43946468  0.073168265            0   0.36629641    1.3504808    1.7899455   -2.1717935 
16135000   0.89916209 -0.00013858057   0.47609442  0.041012294            0   0.43508212    1.3150246     1.791119   -12.399531 
16140000   0.90724741 -0.00013790828   0.45331968 0.0031929841            0    0.4501267    1.3268493     1.780169   -12.341639 
16145000    1.0030756 -4.9408104e-05   0.34941804  0.001498468            0   0.34791957     1.466998    1.8164161   -3.2429738 
16150000    1.0076377 4.5232709e-05   0.36576168 0.0021933263            0   0.36356835    1.4736701    1.8394318    6.4712612 
16155000   0.89651419 0.00013210631   0.47477737  0.013244387            0   0.46153298     1.311152    1.7859294    15.313615 
16160000    0.8968718 0.00011519778   0.44374772  0.057088587            0   0.38665913     1.311675    1.7554227    13.551676 
16165000   0.93694774 -3.9961499e-05   0.38521461  0.021626226            0   0.36358839    1.3702861    1.7555007   -2.3365568 
16170000   0.86403289 -0.00013416503   0.45588558 0.0024725194            0   0.45341306    1.2636481    1.7195337   -12.018966 
16175000   0.89055831 -5.2867277e-05   0.42475658  0.014875406            0   0.40988117    1.3024415    1.7271981    -3.686411 
16180000   0.81081141 7.7272547e-05    0.5120426  0.083982485            0   0.42806011    1.1858117    1.6978543    9.6105631 
16185000     0.860236 6.3542107e-05   0.49709132  0.040247659            0   0.45684366    1.2580952    1.7551865    8.2618982 
16190000   0.98784973 1.5974317e-05   0.34408793  0.019752566            0   0.32433537    1.4447302    1.7888182    3.4245882 
16195000   0.91919408 2.8023143e-05    0.4597921  0.037428604            0   0.42236349    1.3443213    1.8041134    4.6736833 
16200000   0.85964856 3.4893448e-05   0.52531649  0.028479836            0   0.49683665     1.257236    1.7825525    5.3556416 
16205000   0.92575456 9.5271378e-06   0.41139657  0.063177026            0   0.34821955     1.353916    1.7653126    2.7408915 
16210000   0.96146342 -8.6719569e-06   0.37985316  0.010421716            0   0.36943145    1.4061403    1.7859934   0.89798503 
16215000   0.94712256 -1.6425975e-05   0.43879839            0            0   0.43879839    1.3851667    1.8239651    0.1419453 
16220000   0.96001498 -1.8588473e-05   0.44093158            0            0   0.44093158    1.4040219    1.8449535 -0.058506168 
16225000    1.0381707 -8.9065776e-06   0.31404724 0.00082872437            0   0.31321852    1.5183246    1.8323719   0.92033831 
16230000    0.9941815 1.3454762e-05   0.35402046  0.012393263            0    0.3416272    1.4539904    1.8080109    3.1857785 
16235000   0.92813772 2.7834086e-05   0.45837796  0.021002846            0   0.43737512    1.3574014    1.8157794    4.6659898 
16240000   0.87916647 1.5127417e-05   0.47760605   0.01709182            0   0.46051423     1.285781     1.763387    3.3124345 
16245000   0.91731319 -1.0115599e-05   0.40131959  0.020267994            0    0.3810516    1.3415705    1.7428901   0.70705279 
16250000    1.0088369 -5.3919354e-06   0.26834064 0.0054587082            0   0.26288193     1.475424    1.7437646    1.1916304 
16255000   0.86311391 1.2054481e-05   0.44922002 0.00075511921            0    0.4484649    1.2623041    1.7115241    2.9459029 
16260000   0.82638225 8.3905676e-06   0.49115873 0.0070011173            0   0.48415761     1.208584    1.6997428    2.5589369 
16265000    0.9521638 1.7108709e-05   0.34188738  0.011928078            0    0.3299593    1.3925396    1.7344269    3.4863587 
16270000   0.94284229 1.2026275e-07   0.38457061 0.0031601352            0   0.38141048    1.3789069    1.7634775    1.7757924 
16275000   0.94465371 4.8837056e-06   0.38539397  0.023101741            0   0.36229223    1.3815561      1.76695    2.2670415 
16280000   0.89047583 1.0850072e-05   0.43355031  0.046885933            0   0.38666438    1.3023209    1.7358712    2.8469186 
16285000   0.98448113 -2.5995464e-05   0.28694615 0.0083584984            0   0.27858765    1.4398037    1.7267498  -0.93518571 
16290000   0.98080398 -4.7145626e-06   0.32755043  0.020330374            0   0.30722006    1.4344258    1.7619762     1.279205 
16295000   0.91189967 3.8502498e-06   0.40441868  0.016010951            0   0.38840773    1.3336533    1.7380719    2.1323375 
16300000    0.9236032 -2.9753932e-05   0.42520311  0.018029255            0   0.40717386    1.3507697    1.7759728   -1.2708299 
16305000   0.95495013 -9.0676066e-06   0.40237551  0.030555317            0   0.37182019    1.3966146    1.7989901   0.87046717 
16310000   0.98800576 -3.0668128e-05   0.33849506 0.0071848577            0    0.3313102    1.4449584    1.7834535   -1.3569629 
16315000   0.92365386 -2.0299491e-05   0.44642175 0.0026234013            0   0.44379835    1.3508438    1.7972655  -0.28140238 
16320000   0.88995797 -2.0501748e-05   0.48074875 0.0016971465            0    0.4790516    1.3015635    1.7823123  -0.31706668 
16325000   0.93036924 -2.4515196e-05   0.35889952 0.0010995747            0   0.35779994     1.360665    1.7195645  -0.79079156 
16330000   0.95016205 1.9030222e-05   0.32748951 0.0001987779            0   0.32729073     1.389612    1.7171015    3.6657962 
16335000   0.91566122 2.132105e-05    0.4057663 0.00071621416            0   0.40505008    1.3391545    1.7449208    3.9281963 
16340000   0.93621668 -1.0272968e-05    0.3135669  0.010245865            0   0.30332103    1.3692169    1.6827838   0.63083191 
16345000   0.89510007 -1.3525852e-05   0.36382703  0.011619708            0   0.35220732    1.3090839    1.6729109   0.28786369 
16350000   0.91499839 -4.0546263e-05   0.31676867 0.0027151477            0   0.31405352    1.3381851    1.6549538   -2.4969835 
16355000   0.85129304 -1.4068788e-05   0.41425557 0.00019889331            0   0.41405667    1.2450161    1.6592716   0.21862771 
16360000   0.90594282 1.6364595e-05   0.34912769 0.0062333654            0   0.34289432    1.3249414    1.6740691    3.3498036 
16365000   0.81863475 -2.6228262e-05    0.4893435  0.016159657            0   0.47318384    1.1972533    1.6865968   -0.9991772 
16370000   0.86387809 1.8582051e-05   0.44949575  0.050411352            0    0.3990844    1.2634217    1.7129175    3.6157195 
16375000   0.91576875 6.459401e-05   0.36507912  0.074765567            0   0.29031355    1.3393118    1.7043909    8.3188175 
16380000   0.97640944 1.8271733e-05   0.24725521  0.010420709            0   0.23683451    1.4279988     1.675254    3.5462795 
16385000   0.90343469 -4.1296942e-05   0.34462303 0.0014259027            0   0.34319712    1.3212732    1.6658963   -2.5629106 
16390000   0.89204377 -3.9673531e-05    0.3387292 0.00070970566            0   0.33801949     1.304614    1.6433432   -2.4192264 
16395000   0.83692574 -1.7406868e-05   0.42470048 0.0045358639            0   0.42016462    1.2240039    1.6487044   -0.1337589 
16400000    0.8434164 2.7838493e-05   0.40451192 0.0098786759            0   0.39463325    1.2334965    1.6380084    4.4886701 
16405000   0.85003421 5.5776988e-05   0.39508086  0.029371567            0    0.3657093     1.243175    1.6382559    7.3498195 
16410000   0.87138406 2.4098019e-05   0.35073179  0.021911102            0   0.32882069    1.2743992     1.625131    4.0927682 
16415000   0.84246745 -3.8374671e-05    0.3968634  0.019904784            0   0.37695861    1.2321086     1.628972   -2.3005943 
16420000   0.88292482 -4.1766647e-05   0.34782029  0.035768821            0   0.31205147    1.2912775    1.6390978   -2.6378069 
16425000   0.83779191 -1.8476704e-05   0.42504033    0.0473858            0   0.37765452    1.2252707     1.650311  -0.24170353 
16430000   0.86687332 1.5039769e-05   0.36769833  0.012086265            0   0.35561206    1.2678022    1.6355006    3.1755729 
16435000   0.86383093 1.7957276e-05   0.40586694            0            0   0.40586694    1.2633527    1.6692197    3.5080447 
16440000   0.93644538 1.482823e-05   0.31948497 0.00018536915            0    0.3192996    1.3695514    1.6890363    3.2074471 
16445000   0.97875966 -1.8211388e-06    0.2758177 0.00044596015            0   0.27537174     1.431436    1.7072537    1.5207691 
16450000   0.88179182 -5.3985619e-05   0.43206119  0.008066224            0   0.42399496    1.2896205    1.7216817   -3.8064456 
16455000   0.92317446 -4.1973652e-05   0.37995686  0.033814273            0   0.34614259    1.3501427    1.7300995   -2.5680025 
16460000   0.91075177 -2.8896032e-05   0.40283215   0.06244983            0   0.34038232    1.3319745    1.7348066   -1.2241471 
16465000    0.9339798 -2.3619469e-05   0.36338628  0.050180419            0   0.31320586    1.3659455    1.7293317  -0.68930184 
16470000   0.85508197 -1.6974624e-05   0.46635381  0.075312455            0   0.39104135    1.2505574    1.7169112 -0.021290329 
16475000   0.90083871 -1.0685245e-05   0.44759535  0.061451147            0   0.38614421    1.3174766     1.765072    0.6709029 
16480000   0.93659101 -1.8366229e-05   0.35276209  0.029335428            0   0.32342666    1.3697644    1.7225264  -0.15817537 
16485000   0.87438567 2.2904505e-06   0.43655396  0.033349761            0    0.4032042     1.278789     1.715343    1.9498851 
16490000   0.91809606 3.2461311e-05   0.34750614  0.013998977            0   0.33350716    1.3427155    1.6902216    5.0142599 
16495000   0.93827421 -1.2518313e-05   0.32679642 0.0013949167            0    0.3254015     1.372226    1.6990225   0.41714719 
16500000   0.88825958 -6.1982162e-07   0.40899258 0.0029580245            0   0.40603455    1.2990796    1.7080722    1.6446025 
16505000   0.91805348 9.3248356e-05   0.36155042  0.011645817            0    0.3499046    1.3426532    1.7042036    11.252835 
16510000   0.96593391 3.6640776e-05   0.28661683  0.005270225            0    0.2813466    1.4126783    1.6992952    5.4513106 
16515000   0.85816502 -9.5463942e-05   0.44499565 0.00051470116            0   0.44448095    1.2550663     1.700062   -8.0754456 
16520000   0.82292059 -8.6117004e-05   0.46835776   0.00680904            0   0.46154872    1.2035214    1.6718791   -7.1465021 
16525000   0.86447607 -3.1910439e-05   0.39320818  0.012929074            0   0.38027911    1.2642963    1.6575044   -1.6101245 
16530000   0.86653351 2.0540434e-05   0.36379656  0.010339966            0   0.35345659    1.2673053    1.6311018    3.7344422 
16535000   0.93760402 2.7073303e-05   0.28885779  0.015005772            0   0.27385202    1.3712459    1.6601037    4.4324099 
16540000    0.8057736 -2.2455683e-05    0.4376947 0.0079194484            0   0.42977525    1.1784439    1.6161386  -0.68332338 
16545000   0.78464371 -4.7472473e-05   0.46129957 0.0023011603            0   0.45899841    1.1475414     1.608841   -3.2523402 
16550000   0.88191236 -1.8317189e-05   0.33540308  0.009948244            0   0.32545483    1.2897968    1.6251999  -0.25048024 
16555000   0.81283051 -5.5304379e-06   0.41905672  0.016075787            0   0.40298094    1.1887646    1.6078213    1.0415045 
16560000   0.86216572 1.9635213e-06   0.38927199  0.011016821            0   0.37825517    1.2609174    1.6501894    1.8512539 
16565000   0.90988695 1.0047623e-05   0.32871251  0.019201641            0   0.30951087    1.3307097    1.6594222    2.6882988 
16570000   0.81313902 -8.3261626e-06   0.49404771  0.017857542            0   0.47619016    1.1892158    1.6832635   0.83066447 
16575000   0.88385457 -5.9825831e-05   0.39987682   0.01028883            0   0.38958799    1.2926373    1.6925141   -4.4336509 
16580000   0.96656626 -1.4986653e-05   0.29815132  0.015217547            0   0.28293377    1.4136031    1.7117545   0.17712122 
16585000   0.90611836 3.0371627e-05    0.4243717  0.033323001            0    0.3910487    1.3251981    1.7495698    4.8596244 
16590000   0.87192962 -2.8524842e-06   0.49063868  0.050850862            0   0.43978782    1.2751971    1.7658358    1.4737414 
16595000    1.0110122 3.8166337e-05   0.30191303 0.0036418891            0   0.29827114    1.4786053    1.7805183    5.6887512 
16600000   0.98096818 -5.5077116e-05   0.35932986  0.014583876            0   0.34474598     1.434666    1.7939958   -3.8459009 
16605000   0.89473524 -7.3641426e-05   0.49098135  0.029282665            0   0.46169869    1.3085503    1.7995316   -5.7413504 
16610000    1.0142907 -1.3734361e-07   0.33839356 0.0093758057            0   0.32901775    1.4834002    1.8217937    1.8077297 
16615000    1.0615958 -4.7747112e-06   0.31391095 0.0068154601            0   0.30709549    1.5525839    1.8664948    1.3775644 
16620000   0.99072737 4.4653564e-06   0.46146409 0.0055228546            0   0.45594123    1.4489388    1.9104029    2.3676554 
16625000    1.0373335 2.9312476e-05   0.39760025 0.0035776855            0   0.39402256    1.5171002    1.9147005     4.916298 
16630000    1.1113164 7.0084391e-05   0.31337494  0.012226595            0   0.30114834    1.6253002    1.9386751    9.1153167 
16635000   0.97732698 -3.169527e-06   0.53978928   0.01792687            0   0.52186241    1.4293407      1.96913    1.6445704 
16640000    1.0703602 3.0062448e-05   0.39862615 0.0094216687            0   0.38920448    1.5654019     1.964028    5.0424227 
16645000    1.0663727 -3.9843156e-05   0.40836447 0.0097681104            0   0.39859635      1.55957    1.9679345   -2.1120047 
16650000    1.0566636 -5.2484844e-05   0.43154704  0.026743366            0   0.40480367    1.5453705    1.9769175   -3.3975304 
16655000   0.97937006 3.0776621e-05   0.56575602  0.033805454            0   0.53195057    1.4323287    1.9980847    5.1496107 
16660000    1.0230646 -4.135429e-05   0.50205496  0.014906142            0   0.48714882     1.496232     1.998287   -2.2363924 
16665000    1.0734595 6.0192289e-06   0.42388031 0.00069074631            0   0.42318956    1.5699346    1.9938149    2.6101839 
16670000    1.1194275 2.7713253e-05    0.3765989            0            0    0.3765989    1.6371627    2.0137615    4.8515986 
16675000    1.0857042 -7.5170526e-05   0.46370186            0            0   0.46370186    1.5878424    2.0515442   -5.6459176 
16680000    1.0482559 -9.3797469e-05   0.44903804 3.3834234e-05            0   0.44900421    1.5330742    1.9821123   -7.6227486 
16685000    1.0987558 8.4110175e-06   0.36748167 0.0012788443            0   0.36620283    1.6069304    1.9744121    2.8357003 
16690000   0.98111802 -2.8112871e-05    0.5148029 0.0028029933            0    0.5119999    1.4348851     1.949688  -0.92906999 
16695000    1.0296745 1.1144405e-05   0.44286879 0.00076683999            0   0.44210195    1.5058989    1.9487677    3.0899548 
16700000    1.0368749 1.1648124e-06   0.42874278            0            0   0.42874278    1.5164296    1.9451723    2.0644491 
16705000   0.98838875 -1.9266974e-05   0.50442269 0.00068236676            0   0.50374032    1.4455185    1.9499412 -0.022996876 
16710000    1.1110665 1.8913889e-05   0.36805432 0.0052598309            0   0.36279449    1.6249348    1.9929891    3.9297714 
16715000     1.069234 -7.4328366e-05   0.44438981 0.0027423225            0   0.44164749    1.5637547    2.0081445   -5.6030802 
16720000   0.99362031 -3.6313201e-05   0.51424212  0.013237264            0   0.50100486    1.4531697    1.9674118   -1.7510599 
16725000    1.0041596 -6.3072898e-05   0.47984804  0.015968271            0   0.46387977    1.4685834    1.9484314   -4.5102333 
16730000   0.93504982 1.8539339e-05   0.54449633 0.0080806625            0   0.53641566    1.3675104    1.9120067    3.8104351 
16735000   0.99535551 9.2090579e-05   0.43855559 0.0072661795            0   0.43128941    1.4557074     1.894263    11.324338 
16740000    1.0683962 0.00010227458    0.3194956 0.0023928423            0   0.31710276    1.5625295    1.8820251    12.354942 
16745000   0.98140741 5.0828709e-05   0.44092933 0.0001165425            0   0.44081278    1.4353083    1.8762377    7.0810974 
16750000    0.9084608 1.4904096e-05    0.5726514 0.0068675986            0    0.5657838    1.3286239    1.9012753    3.4274547 
16755000     1.024076 6.5233333e-05   0.42719686 0.0050280986            0   0.42216876    1.4977111     1.924908    8.6048013 
16760000    0.9871263 -5.9820841e-05   0.45596291 7.1759708e-06            0   0.45595574    1.4436722    1.8996351    -4.226019 
16765000   0.96808735 -3.0259607e-05   0.49802228 0.0068399039            0   0.49118237    1.4158278      1.91385   -1.1847337 
16770000   0.95470461 9.5531616e-06   0.49785558  0.016629118            0   0.48122646    1.3962555    1.8941111    2.8723548 
16775000    1.0165507 6.6532101e-05   0.44420247  0.040889994            0   0.40331247    1.4867053    1.9309078     8.743795 
16780000    1.0808621 4.8331087e-05   0.38220053  0.018196434            0    0.3640041    1.5807608    1.9629614    6.9120646 
16785000    1.0937279 4.0042503e-05   0.36133325  0.010377307            0   0.35095594     1.599577    1.9609102    6.0612625 
16790000   0.97700953 3.845186e-05   0.52301585  0.012248776            0   0.51076707    1.4288764    1.9518923    5.8893627 
16795000    1.0012939 -4.6766447e-05    0.4801113 0.0018448512            0   0.47826645    1.4643923    1.9445036   -2.8443806 
16800000    1.0422377 7.7155574e-05   0.43568076            0            0   0.43568076    1.5242727    1.9599534    9.8606842 
16805000   0.94427833 9.7888851e-05   0.56370615 8.0856749e-05            0   0.56362529    1.3810071    1.9447132    11.968531 
16810000    1.0277133 1.7159468e-05   0.45138368  0.001388577            0   0.44999511    1.5030307    1.9544143    3.7115438 
16815000    1.0321725 -1.9448394e-05   0.40519219 0.0032699454            0   0.40192225    1.5095522    1.9147444 -0.076771121 
16820000   0.95187975 -1.7685402e-05    0.4580446  0.012994719            0   0.44504988    1.3921241    1.8501687  0.039183603 
16825000   0.94273617 -4.9014649e-05   0.48010575  0.016784681            0   0.46332107    1.3787516    1.8588574   -3.1602426 
16830000   0.87808542 -5.1623219e-05   0.60082425 0.0030448258            0   0.59777942    1.2841999    1.8850242   -3.4011934 
16835000   0.97246324 7.7907558e-06   0.48278642  0.027177081            0   0.45560933    1.4222275    1.9050139    2.7027873 
16840000   0.90575323 5.5384643e-05   0.57656362  0.035098988            0   0.54146463    1.3246641    1.9012277    7.5726151 
16845000   0.86250052 -2.3835452e-05   0.58978191  0.011029018            0   0.57875289     1.261407    1.8511889  -0.58956135 
16850000   0.94418427 -3.1448765e-05   0.44717539 0.0092070641            0   0.43796832    1.3808695    1.8280449   -1.3923087 
16855000   0.87621709 -8.0500255e-05   0.52367131  0.014702619            0   0.50896869    1.2814675    1.8051388   -6.4380873 
16860000   0.92113916 -7.5578371e-05   0.43078197 0.0093970789            0   0.42138489     1.347166     1.777948   -5.9612772 
16865000   0.96386685 2.9855595e-06   0.37589109 0.0085446048            0   0.36734649    1.4096553    1.7855464    2.0912677 
16870000   0.96585231 4.4235804e-06   0.38955549  0.016626046            0   0.37292945     1.412559    1.8021145    2.2550891 
16875000    1.0033124 3.8511439e-05   0.33929418  0.021151416            0   0.31814276    1.4673444    1.8066386    5.7502099 
16880000   0.97195652 3.2195262e-05   0.36215048 0.0096325499            0   0.35251793    1.4214864    1.7836369    5.0804318 
16885000   0.92574404 -6.9731389e-05   0.44719401 0.00029244727            0   0.44690157    1.3539007    1.8010947   -5.3393995 
16890000   0.95970517 -5.4084795e-05    0.4320327 0.0018611431            0   0.43017156    1.4035688    1.8356015   -3.7026814 
16895000   0.98906746 -2.1395912e-05   0.42541856 0.0087093637            0   0.41670919    1.4465112    1.8719297  -0.31901164 
16900000   0.99182865 -0.00010660857   0.39948219 0.0050621194            0   0.39442007    1.4505494    1.8500316   -9.0666861 
16905000   0.93294482 -4.0638332e-05   0.43885616 0.0040316343            0   0.43482453    1.3644318     1.803288   -2.3580772 
16910000   0.93257561 3.5374797e-05   0.43607093  0.030863645            0   0.40520728    1.3638918    1.7999628     5.422342 
16915000   0.96943351 -2.9478884e-05   0.36219435  0.023816116            0   0.33837824    1.4177965    1.7799909   -1.2386469 
16920000    1.0001265 -6.3662419e-05   0.35156177 0.00054359564            0   0.35101818    1.4626851    1.8142468   -4.7047848 
16925000    1.0031605 4.6647263e-05   0.38164803            0            0   0.38164803    1.4671222    1.8487702    6.6254499 
16930000   0.93939564 -1.4352492e-05   0.49106972 0.0047822445            0   0.48628747    1.3738661    1.8649358   0.39524066 
16935000    0.9427755 -6.2681606e-05   0.49994503  0.019236973            0   0.48070806    1.3788092    1.8787542   -4.5398423 
16940000   0.98368618 -3.2351418e-05   0.38335437 0.0048198622            0   0.37853451     1.438641    1.8219954   -1.4907898 
16945000    1.0312895 -5.8556678e-05   0.37144209            0            0   0.37144209    1.5082608    1.8797029   -4.1165009 
16950000   0.99740249 2.8704828e-05   0.43156539            0            0   0.43156539    1.4587011    1.8902665    4.8296409 
16955000   0.96516105 1.1643055e-05   0.43385379            0            0   0.43385379     1.411548    1.8454018    3.0376506 
16960000   0.97411498 -2.5337767e-05   0.46090971            0            0   0.46090971    1.4246432    1.8855529  -0.70903449 
16965000   0.97961958 8.387452e-05   0.41996962            0            0   0.41996962    1.4326936    1.8526632    10.441414 
16970000   0.99208582 1.5205467e-05   0.40162325            0            0   0.40162325    1.4509255    1.8525488    3.4095886 
16975000   0.93200046 -6.4698908e-05   0.51209046   0.02210579            0   0.48998467    1.3630507    1.8751411    -4.750027 
16980000   0.86851529 -3.4959187e-05   0.57403146   0.05412121            0   0.51991025    1.2702036    1.8442351   -1.7355857 
16985000   0.95577104 -4.4366738e-05   0.42567214 0.0076627682            0   0.41800937    1.3978151    1.8234873   -2.7196666 
16990000   0.99075702 -1.5389238e-05   0.39725393 0.0072522689            0   0.39000166    1.4489821    1.8462361   0.27037813 
16995000   0.93915421 8.2338437e-05   0.46805333 0.0059300407            0   0.46212329     1.373513    1.8415664    10.273022 
17000000   0.97803043 9.1445128e-05   0.42800002 0.0036522204            0    0.4243478    1.4303695    1.8583695    11.222351 
17005000   0.98504575 -3.0884491e-05    0.4813191 0.0018534522            0   0.47946565    1.4406294    1.9219485   -1.2406234 
17010000    1.0379372 -4.655575e-05   0.42169068 0.0076493398            0   0.41404134    1.5179832    1.9396739    -2.827635 
17015000    1.0705747 4.8555367e-05   0.36591114 0.0060901913            0   0.35982095    1.5657154    1.9316266    6.9036961 
17020000    1.0957003 2.8059926e-05   0.34936734 0.0025806721            0   0.34678667    1.6024618    1.9518291    4.8251656 
17025000    1.0769585 -8.7104461e-05    0.4115145 0.00095540323            0   0.41055909    1.5750519    1.9865664   -6.9329305 
17030000    1.0232052 -3.4254913e-05   0.51435234            0            0   0.51435234    1.4964377      2.01079   -1.4969131 
17035000    1.1007914 9.0807942e-05   0.39160503            0            0   0.39160503    1.6099074    2.0015124    11.300246 
17040000    1.1107686 1.1783622e-06   0.35257384            0            0   0.35257384    1.6244991    1.9770729    2.0977372 
17045000     1.121005 -1.4332586e-06   0.34825459 0.0014343393            0   0.34682025    1.6394698    1.9877244    1.8409587 
17050000    1.0633692 6.8084425e-05   0.46064242   0.01074572            0    0.4498967    1.5551774    2.0158198    8.9876649 
17055000    1.0630018 -1.574619e-05   0.42344782 0.0062924449            0   0.41715538    1.5546401    1.9780879     0.365678 
17060000    1.0879135 -4.7951954e-05   0.39832385 0.0095937105            0   0.38873014    1.5910734    1.9893973   -2.9208828 
17065000    1.0916792 9.7058763e-05   0.39322131  0.016226495            0   0.37699481    1.5965808    1.9898021    11.928619 
17070000    1.0441696 3.8071389e-06   0.42637785 0.0032407391            0   0.42313711     1.527098    1.9534759    2.3433269 
17075000    1.1158819 -2.8336236e-05   0.33297198            0            0   0.33297198    1.6319773    1.9649493  -0.93668125 
17080000     1.025552 -5.6932966e-05    0.4448891            0            0    0.4448891    1.4998698    1.9447589   -3.8851768 
17085000     1.224115 -6.9844643e-05   0.21320756 0.00033702847            0   0.21287053    1.7902682    2.0034758   -5.1486157 
17090000    1.0928825 2.4523628e-05   0.42039825 0.0080969638            0   0.41230128    1.5983407     2.018739    4.5299584 
17095000    1.0484616 1.8898052e-05   0.45679177 0.0085710702            0    0.4482207    1.5333751    1.9901668    3.9253274 
17100000    1.0887188 5.2534708e-05   0.39611488 0.00090762766            0   0.39520725    1.5922513    1.9883661    7.3679202 
17105000    1.1557631 -1.2128097e-05   0.31635697            0            0   0.31635697    1.6903036    2.0066606   0.76474342 
17110000     1.102999 -0.00013658216   0.41505143            0            0   0.41505143     1.613136    2.0281875   -11.957826 
17115000    1.1746709 -5.4163968e-05   0.35359044 0.0065103686            0   0.34708007    1.7179562    2.0715467   -3.4748437 
17120000    1.1821875 -7.1495556e-06   0.34531003  0.025185026            0     0.320125    1.7289493    2.0742593    1.3421448 
17125000    1.1769182 4.6101601e-05   0.35723081  0.011993803            0   0.34523701    1.7212429    2.0784737    6.7992776 
17130000    1.1790183 8.7341911e-05   0.37356053 0.00026107422            0   0.37329945    1.7243142    2.0978748    11.041687 
17135000    1.2193167 -3.7629142e-06   0.29872495 2.2428885e-05            0   0.29870252    1.7832507    2.0819757    1.6966532 
17140000    1.1502963 -2.2826474e-05   0.41969642 2.9209581e-05            0   0.41966721    1.6823083    2.1020048  -0.23542623 
17145000     1.143047 7.614164e-05   0.39403984            0            0   0.39403984    1.6717063    2.0657461    9.8626501 
17150000    1.1067971 6.4560739e-05   0.44358247 0.0015317705            0    0.4420507    1.6186908    2.0622733     8.673293 
17155000    1.1493608 -5.50002e-05   0.42811644 0.0035028216            0   0.42461362    1.6809401    2.1090566   -3.5229639 
17160000    1.1703557 -2.2367315e-05   0.43168813  0.007579382            0   0.42410875    1.7116453    2.1433334  -0.14707971 
17165000    1.0903969 6.5555431e-05   0.52774278  0.031917922            0   0.49582486    1.5947055    2.1224483    8.8353244 
17170000     1.067637 1.4748725e-05   0.57752681  0.016340839            0   0.56118597    1.5614191    2.1389459    3.6492153 
17175000    1.1950106 -7.6440051e-05   0.41152498  0.017274753            0   0.39425022    1.7477031     2.159228   -5.6682332 
17180000    1.1470423 -5.0821952e-05   0.46306772  0.022282612            0   0.44078511    1.6775493     2.140617   -3.0635508 
17185000    1.2654321 1.2444608e-05    0.2638021   0.01102738            0   0.25277472    1.8506945    2.1144966    3.3888244 
17190000     1.082545 4.2382859e-05   0.56066495  0.020452958            0   0.54021199     1.583222     2.143887    6.4838917 
17195000    1.1401532 5.0310193e-05   0.48967936  0.018375519            0   0.47130384    1.6674741    2.1571535    7.3089172 
17200000    1.1839068 -3.6407394e-06    0.4499841 0.0030123135            0   0.44697179    1.7314637    2.1814478    1.8086361 
17205000     1.244837 -2.5638604e-05    0.3314186 0.0049856855            0   0.32643292    1.8205741    2.1519927  -0.47340035 
17210000    1.0514088 -4.5909958e-05   0.62146694  0.040831132            0   0.58063581    1.5376853    2.1591523   -2.5420274 
17215000    1.1454278 -2.4452229e-05   0.43279006  0.068321675            0   0.36446839    1.6751881    2.1079782  -0.39593002 
17220000    1.0374475 1.0918097e-05   0.59363905  0.027606336            0   0.56603271     1.517267     2.110906    3.2289191 
17225000    1.1227397 -1.1364162e-06   0.48779301  0.036317034            0   0.45147598    1.6420069    2.1297999    2.0134309 
17230000    1.1044102 -1.5830841e-05   0.42764104 0.0067303896            0   0.42091065    1.6151999    2.0428409   0.42176283 
17235000    1.0835216 7.2062021e-06   0.48147767 0.0073653372            0   0.47411233    1.5846503    2.0661279     2.804043 
17240000    1.1184507 2.9977533e-05   0.42768558  0.020364887            0   0.40732069    1.6357342    2.0634198    5.1331192 
17245000    1.0769983 2.6226562e-05   0.45912754  0.015148997            0   0.44397855    1.5751101    2.0342376    4.7198376 
17250000    1.0321088 -1.9463934e-05   0.50671704  0.012308826            0   0.49440822    1.5094591    2.0161761  0.023069301 
17255000    1.1026677 -7.716076e-05   0.35012656 0.0097151496            0   0.34041141    1.6126515    1.9627781   -5.9384838 
17260000    1.0528194 -2.9156658e-05   0.42569808  0.025860691            0   0.39983739    1.5397483    1.9654464   -1.0201954 
17265000   0.92828415 4.0162131e-06   0.57321493  0.015795826            0    0.5574191    1.3576156    1.9308305    2.3420907 
17270000    1.1085685 2.4424101e-05   0.35658898 0.0022464269            0   0.35434256    1.6212815    1.9778704    4.4788984 
17275000    1.0252815 2.4545663e-05   0.51218579 0.00059146871            0   0.51159432    1.4994743      2.01166    4.5251359 
17280000    1.0872668 3.9306563e-05   0.40517776  0.017036332            0   0.38814143    1.5901277    1.9953054    6.0202974 
17285000    1.0097635 7.6166527e-05   0.54504338  0.048185259            0   0.49685812    1.4767791    2.0218225    9.8212748 
17290000    1.0274518 8.7957951e-05    0.5018035  0.015900233            0   0.48590327    1.5026483    2.0044518    11.011346 
17295000    1.1523922 2.6311911e-06   0.34734542 0.0020660806            0   0.34527934    1.6853736     2.032719     2.302153 
17300000    1.0707607 -2.7031779e-05   0.46304405 0.0097525715            0   0.45329148    1.5659875    2.0290315  -0.73902262 
17305000    1.0450355 3.3165344e-05   0.48941249  0.033972613            0   0.45543988    1.5283644    2.0177769    5.4139081 
17310000   0.99132804 7.0156432e-05   0.56992136   0.02180614            0   0.54811522    1.4498173    2.0197386    9.2037572 
17315000    1.1060899 8.8179653e-05   0.43238803 0.0054603272            0   0.42692771    1.6176565    2.0500445    11.079641 
17320000     1.109253 5.8752244e-05   0.40649638  0.020118089            0   0.38637829    1.6222825    2.0287789    8.0450087 
17325000     1.030128 -2.6347149e-05   0.53222872  0.049998867            0   0.48222985    1.5065622    2.0387909  -0.65915715 
17330000    1.1474997 -8.4935992e-05   0.40763399  0.019222625            0   0.38841136    1.6782183    2.0858523   -6.6115933 
17335000    1.0582015 -7.1250261e-05   0.56247182  0.019249677            0   0.54322214    1.5476197    2.1100915   -5.1859352 
17340000    1.1398357 -3.1551773e-05   0.47556578  0.032330755            0   0.44323502    1.6670098    2.1425755    -1.088326 
17345000     1.131291 -9.290965e-05   0.48509458 0.0087877207            0   0.47630686    1.6545131    2.1396077   -7.3743405 
17350000    1.1559665 1.9203604e-05   0.46164979 0.0039127371            0   0.45773705     1.690601    2.1522508    4.1186998 
17355000    1.1752357 0.00015348092   0.45483864 0.0053957182            0   0.44944292    1.7187822    2.1736209    17.890067 
17360000     1.126657 6.2114034e-05   0.48288258 0.0038429486            0   0.47903963    1.6477359    2.1306184    8.4910955 
17365000    1.1316059 -5.3404819e-05   0.48729129  0.013123399            0   0.47416789    1.6549736    2.1422649   -3.3263885 
17370000    1.0419664 -3.0979146e-05   0.62823072  0.057630679            0   0.57060004    1.5238759    2.1521066    -1.020158 
17375000    1.0625861 5.8151906e-05   0.59945352  0.076302295            0   0.52315123    1.5540322    2.1534857    8.1082409 
17380000    1.0976658 3.2306406e-05   0.54463849 0.0089309331            0   0.53570755    1.6053362    2.1499747    5.4581507 
17385000    1.0924604 -6.7825162e-05   0.53111225 0.0026845077            0   0.52842775    1.5977233    2.1288355   -4.8164611 
17390000    1.0316845 -7.062958e-05   0.64226876 0.0036705181            0   0.63859824    1.5088385    2.1511073   -5.0813618 
17395000    1.1468446 1.2211939e-05   0.47942346 0.0014783742            0   0.47794509    1.6772603    2.1566837    3.4071863 
17400000    1.1535659 4.2737146e-05   0.47097946  0.020832646            0   0.45014681    1.6870901    2.1580695    6.5343533 
17405000    1.0545551 4.0211507e-05   0.66271054   0.03732603            0   0.62538451    1.5422868    2.2049973    6.3226556 
17410000    1.1691821 1.872179e-05   0.43548482   0.00615759            0   0.42932723    1.7099288    2.1454136    4.0625249 
17415000    1.0384678 -1.0339872e-05   0.63346725 0.00054033104            0   0.63292692    1.5187591    2.1522264    1.0934235 
17420000    1.1063783 -2.5337426e-05   0.48194646 0.00073090225            0   0.48121556    1.6180782    2.1000247  -0.49452777 
17425000    1.1240531 -3.5615997e-05   0.45153804  0.034872622            0   0.41666541    1.6439276    2.0954656   -1.5516125 
17430000   0.96932211 2.3504971e-05   0.68076504  0.052860925            0   0.62790412    1.4176336    2.0983986    4.5053077 
17435000    1.1087689 5.7586322e-05   0.46039424 0.0071867977            0   0.45320745    1.6215745    2.0819687    7.9788081 
17440000    1.1238903 3.763946e-05   0.39012417 0.0005725482            0   0.38955162    1.6436895    2.0338137    5.8880944 
17445000   0.95659076 4.9132443e-05   0.55853903  0.011095654            0   0.54744338     1.399014     1.957553    6.9887152 
17450000   0.97469761 6.4139753e-05   0.54703905  0.026690193            0   0.52034886    1.4254953    1.9725343     8.540445 
17455000   0.99731108 5.331829e-05   0.53713187  0.069154747            0   0.46797712    1.4585675    1.9956993    7.4554922 
17460000    1.0146249 -5.2930199e-05    0.4998834  0.015595909            0   0.48428749    1.4838889    1.9837723   -3.4362802 
17465000    1.0212455 -5.49273e-05   0.48254466 0.00072253599            0   0.48182212    1.4935715    1.9761162   -3.6484394 
17470000   0.91313411 -5.1098412e-06    0.6122349  0.006480843            0   0.60575405    1.3354586    1.9476935    1.4244458 
17475000   0.91913616 -1.7574015e-05   0.58401887  0.013011897            0   0.57100697    1.3442366    1.9282555   0.12867637 
17480000   0.98903357 -0.00011071878   0.51021374  0.012748519            0   0.49746522    1.4464616    1.9566753   -9.3809276 
17485000   0.96038708 -9.0671592e-05   0.49026712  0.011057352            0   0.47920976    1.4045661    1.8948332   -7.3899378 
17490000    1.0013342 3.6531822e-05   0.46903446   0.01023561            0   0.45879885    1.4644513    1.9334858    5.6743443 
17495000    1.0328614 5.7752306e-05   0.42419668  0.010591626            0   0.41360505    1.5105599    1.9347565    7.8485927 
17500000    1.0132615 1.9462672e-05    0.4725381  0.025316666            0   0.44722144    1.4818949     1.954433    3.9474106 
17505000    1.0355949 2.2532069e-05   0.43053428  0.010211831            0   0.42032245    1.5145575    1.9450918    4.2523757 
17510000   0.99263201 2.0698025e-05   0.48677957 0.0048844997            0   0.48189507    1.4517243    1.9385039    4.0579817 
17515000   0.90479242 -1.4147579e-05   0.57796462  0.052189086            0   0.52577553    1.3232589    1.9012235   0.45251145 
17520000    0.9448069 -3.1088719e-05   0.52266472   0.02758405            0   0.49508067    1.3817801    1.9044448     -1.27904 
17525000    1.0313527 2.4264003e-05   0.41504163  0.005234901            0   0.40980673    1.5083533    1.9233949    4.4080288 
17530000    1.0509698 2.1867605e-05   0.39596675  0.011067754            0   0.38489899    1.5370433    1.9330101    4.1722528 
17535000   0.92403381 1.4757034e-06   0.59016783 0.0043096083            0   0.58585822    1.3513994    1.9415673    2.0926793 
17540000    1.0154404 1.2915758e-06   0.49267915 1.0114943e-05            0   0.49266903    1.4850817    1.9777608    2.1100182 
17545000    1.1156596 -1.9686178e-05   0.35663771            0            0   0.35663771    1.6316522    1.9882899 -0.027574727 
17550000    1.1290885 -2.8525177e-06   0.35024282            0            0   0.35024282    1.6512919    2.0015348    1.7094369 
17555000      1.01837 1.4261129e-06   0.44780082 0.0047202533            0   0.44308057    1.4893662     1.937167     2.083201 
17560000   0.90997995 2.7494544e-05    0.5855508  0.013219593            0   0.57233121    1.3308457    1.9163965    4.7318378 
17565000    1.0096325 2.7715195e-05   0.41631958  0.007288548            0   0.40903103    1.4765875    1.8929071    4.7309431 
17570000     1.067764 -3.2387748e-05   0.32395583 0.0035357542            0   0.32042007    1.5616049    1.8855607   -1.4309448 
17575000   0.89802463 -5.2411741e-05   0.56517428  0.014112815            0   0.55106147     1.313361    1.8785353   -3.4884269 
17580000   0.97861056 1.4325997e-05   0.41909784 0.0081402908            0   0.41095755    1.4312179    1.8503158    3.3172978 
17585000    0.9114968 6.5401657e-05   0.52129046 0.0037931759            0   0.51749729    1.3330641    1.8543545    8.5514842 
17590000   0.90869814 -4.9880958e-05   0.50758846  0.022073493            0   0.48551497     1.328971    1.8365595   -3.2712506 
17595000   0.93249684 -9.9989615e-05   0.45551276  0.013800687            0   0.44171208    1.3637766    1.8192894   -8.4196471 
17600000   0.89046466 -5.5489909e-05   0.53684539  0.004279082            0   0.53256631    1.3023046    1.8391499   -3.8430167 
17605000   0.89940907 -7.1558146e-05   0.49546146  0.019205374            0   0.47625608    1.3153858    1.8108472   -5.5167069 
17610000   0.91995682 -7.6772774e-05     0.483674  0.020726805            0    0.4629472    1.3454368    1.8291108   -6.0324212 
17615000    1.0222934 -1.2323338e-05   0.38593581 0.0028047422            0   0.38313107    1.4951041    1.8810399   0.61913002 
17620000    1.0234169 4.9854212e-05   0.41532116 0.00016245676            0    0.4151587    1.4967473    1.9120684    7.0171398 
17625000    1.0036656 4.5401513e-05   0.46006558 0.00024930004            0   0.45981628     1.467861    1.9279266    6.5770415 
17630000    0.9894319 -3.3712187e-05   0.51332024  0.011286762            0   0.50203348    1.4470442    1.9603644   -1.4917635 
17635000    1.0472711 -3.965626e-05   0.45176912  0.048551814            0    0.4032173     1.531634    1.9834031   -2.0773979 
17640000   0.97110335 1.8789421e-05   0.55282697  0.010813318            0   0.54201365    1.4202386    1.9730656    3.8971023 
17645000   0.95188829 2.7943067e-05   0.55181568  0.020875088            0   0.53094059    1.3921366    1.9439523    4.8053224 
17650000    1.0397451 -9.8783769e-06   0.35484968  0.057893726            0   0.29695596    1.5206272    1.8754769    0.8639311 
17655000   0.99021857 -9.4259482e-05   0.47864491   0.04802508            0   0.43061983    1.4481947    1.9268396   -7.7253314 
17660000   0.90482684 -6.9242875e-05   0.57282214    0.0146703            0   0.55815184    1.3233093    1.8961314    -5.194339 
17665000   0.95433203 2.1742147e-05    0.5048473  0.016824614            0   0.48802268    1.3957106    1.9005579    4.1269538 
17670000   0.92716825 1.6992807e-05   0.55789114  0.074714405            0   0.48317673    1.3559836    1.9138747    3.6539381 
17675000   0.90696569 3.6407973e-05   0.56382729  0.021387261            0   0.54244003    1.3264373    1.8902646    5.6184411 
17680000   0.97425931 1.3925343e-06   0.44668335            0            0   0.44668335    1.4248542    1.8715376    2.0141331 
17685000   0.93635787 -0.00011172745    0.5224964            0            0    0.5224964    1.3694234    1.8919198   -9.5489716 
17690000     1.012051 -3.8864505e-05   0.44567575            0            0   0.44567575    1.4801246    1.9258004    -2.053925 
17695000   0.97705858 3.5667138e-05   0.49767776 0.00083407074            0   0.49684369    1.4289482    1.9266259    5.5789409 
17700000    0.9788926 -1.1910289e-05   0.50522215 0.0028646013            0   0.50235754    1.4316304    1.9368526   0.71723899 
17705000   0.95848359 1.0101365e-05   0.51961077 0.0049376579            0   0.51467312    1.4017823     1.921393    2.9557728 
17710000    1.0027028 3.876529e-05   0.46022948   0.00102867            0   0.45920081    1.4664529    1.9266824     5.896248 
17715000    1.0257465 3.2321881e-06   0.43482271 0.0019662059            0    0.4328565    1.5001542    1.9349769     2.265953 
17720000   0.85600528 -9.0961781e-05   0.62520781  0.010006175            0   0.61520164    1.2519077    1.8771155   -7.4373708 
17725000   0.92361934 -6.5696551e-05    0.5844332 0.0092224374            0   0.57521076    1.3507933    1.9352265   -4.7921003 
17730000    1.0671642 3.1291681e-05   0.39104917 0.0097815973            0   0.38126758    1.5607276    1.9517767    5.1560449 
17735000    1.0087085 2.7368755e-06    0.4284286  0.017820267            0   0.41060834    1.4752361    1.9036648    2.1839208 
17740000   0.97843708 -1.5503256e-05    0.4717744  0.011287451            0   0.46048695    1.4309642    1.9027386   0.31520525 
17745000   0.93954377 -6.3655765e-06   0.51803306  0.045466225            0   0.47256684    1.3740828    1.8921158    1.2402808 
17750000   0.87284485 -5.0511262e-05   0.64744663  0.046239927            0    0.6012067    1.2765356    1.9239822    -3.248371 
17755000   0.93326549 -3.1900652e-06   0.54680143  0.041055003            0   0.50574642    1.3649008    1.9117022    1.5850395 
17760000   0.85163936 9.1990277e-05   0.65524622  0.034648688            0   0.62059754    1.2455226    1.9007688    11.320573 
17765000   0.94143221 7.7781659e-05   0.56014041  0.028739509            0   0.53140091    1.3768446     1.936985    9.9018269 
17770000     1.042684 6.5926267e-05   0.44319203  0.038383533            0    0.4048085    1.5249254    1.9681174    8.7189671 
17775000   0.96817419 9.8471673e-05   0.56842245  0.015968737            0   0.55245371    1.4159548    1.9843772    12.067877 
17780000   0.97701675 8.5572153e-05   0.52309318  0.017276613            0   0.50581656     1.428887    1.9519802    10.714569 
17785000   0.98849983 1.406101e-05   0.52513802 0.0072586802            0   0.51787934     1.445681     1.970819    3.4106664 
17790000   0.94761086 -1.9361084e-05    0.6124446 0.00039671898            0   0.61204789    1.3858809    1.9983255  0.015750521 
17795000    1.0384672 2.2114143e-05   0.49713672  0.012859303            0   0.48427742    1.5187582     2.015895    4.2803833 
17800000    1.0259586  6.91481e-05   0.54617136  0.047507695            0   0.49866367    1.5004645    2.0466359    9.1274013 
17805000    1.1210393 6.5397009e-05    0.4109306  0.026314325            0   0.38461628    1.6395199    2.0504505    8.7471042 
17810000   0.95967352 9.2210235e-05   0.65415161  0.074809924            0   0.57934168    1.4035225    2.0576741    11.500002 
17815000    1.0553129 0.00011996807    0.4784772  0.042816237            0   0.43566097    1.5433952    2.0218724    14.306602 
17820000    1.0640723 -1.1750329e-05   0.46514865 0.0083088807            0   0.45683977    1.5562058    2.0213544   0.81812076 
17825000   0.89368338 -0.0001374623   0.65727031 0.0026853652            0   0.65458494    1.3070119    1.9642822   -12.111857 
17830000     1.035012 -3.8806059e-05   0.41842121 0.0058370724            0   0.41258413     1.513705    1.9321262   -2.0416142 
17835000   0.99641518 -3.1942227e-05     0.491793  0.017265123            0   0.47452788    1.4572572    1.9490502   -1.3218339 
17840000    1.0379617 -7.9349583e-05   0.42890966  0.046415355            0    0.3824943     1.518019    1.9469286   -6.1784687 
17845000    1.0253175 4.5380094e-06   0.44966662  0.032803125            0   0.41686349    1.4995268    1.9491934    2.4138856 
17850000   0.94968716 9.2976364e-05   0.55165356  0.018940111            0   0.53271345    1.3889175     1.940571    11.461351 
17855000    1.0396522 5.1039499e-05   0.44241349  0.050870215            0   0.39154328    1.5204914    1.9629049    7.1893495 
17860000   0.94336367 -2.6764756e-05   0.56623837  0.031798118            0   0.53444025    1.3796694    1.9459077  -0.79480332 
17865000    1.0215844 3.0428161e-05   0.46035854  0.005269563            0   0.45508898    1.4940672    1.9544257    5.0702694 
17870000    1.0483764 2.9979694e-05   0.43242796 0.0044986467            0   0.42792931    1.5332505    1.9656785    5.0355991 
17875000    1.1221769 -3.8296025e-06   0.34591496            0            0   0.34591496    1.6411837    1.9870987    1.5949474 
17880000     1.111617 1.0569977e-05   0.36676004            0            0   0.36676004    1.6257398    1.9924998    3.0748654 
17885000   0.99812191 -5.7758029e-05   0.51183015            0            0   0.51183015    1.4597533    1.9715834   -3.9428388 
17890000    1.0760812 -5.9660238e-05   0.40949803            0            0   0.40949803    1.5737688    1.9832668   -4.1259416 
17895000    1.0399296 -2.4871978e-05   0.44534303 0.00070481043            0   0.44463822     1.520897      1.96624  -0.58065047 
17900000   0.99064837 -1.0610955e-05   0.53468435  0.014338197            0   0.52034615    1.4488232    1.9835076   0.89694576 
17905000    1.0613161 -1.5774059e-05   0.44367811  0.037357765            0   0.40632034    1.5521748    1.9958529   0.38058933 
17910000     1.120946 -3.6747048e-05   0.38903095   0.01098178            0   0.37804917    1.6393835    2.0284145   -1.7344832 
17915000    1.0055491 -4.6248739e-05   0.54119592 0.0023230253            0   0.53887289    1.4706156    2.0118115   -2.7240594 
17920000    1.0757336 -1.4210408e-05   0.41986232  0.005632584            0   0.41422974    1.5732604    1.9931227   0.53797696 
17925000   0.96482959 3.5555588e-05   0.53985037  0.011570099            0   0.52828027    1.4110633    1.9509136    5.5918059 
17930000    1.0407187 1.5356743e-05   0.41248856 0.0043198874            0   0.40816867    1.5220511    1.9345396    3.5070701 
17935000    1.0670057 -6.772767e-05   0.38257816 0.0015808813            0   0.38099727    1.5604959     1.943074   -4.9922394 
17940000   0.97531017 -6.4164601e-05   0.53388699 0.0050789724            0   0.52880802    1.4263911    1.9602781    -4.610177 
17945000    1.1430385 5.0884574e-06   0.31570237 0.0036960082            0   0.31200637    1.6716938    1.9873961    2.5084542 
17950000    1.1377934 4.0763577e-05   0.34298012 0.0090031498            0   0.33397697    1.6640228     2.007003    6.1811932 
17955000   0.99139341 8.9323602e-06   0.52771895  0.030838804            0   0.49688014    1.4499129    1.9776318    2.8923055 
17960000    1.0870117 -2.5682377e-05   0.40472474 0.0040584243            0   0.40066631    1.5897546    1.9944793  -0.63539604 
17965000    1.0218427 -1.0029056e-05   0.48760715 0.0015785021            0   0.48602865     1.494445    1.9820522    0.9550768 
17970000   0.97591557 -4.2082567e-05   0.46685365 0.00061201415            0   0.46624164    1.4272765    1.8941302   -2.4151247 
17975000    1.0080115 -3.3249505e-05   0.42622284 8.470826e-06            0   0.42621437    1.4742168    1.9004396   -1.5043097 
17980000   0.95302072 -1.0905423e-05    0.5153036 0.00095917863            0   0.51434442    1.3937928    1.9090964   0.79238103 
17985000    1.0680509 -1.6832634e-05    0.3679667 0.0042563537            0   0.36371035    1.5620245    1.9299912   0.20632942 
17990000    1.0466811 2.3979568e-05   0.42770504  0.052887959            0   0.37481709    1.5307711    1.9584762     4.413984 
17995000   0.88602162 -2.6043441e-05    0.6457737     0.161908            0    0.4838657    1.2958066    1.9415803    -0.725268 
18000000   0.92903489 -1.3477128e-05   0.58568057   0.11581185            0   0.46986872    1.3587135    1.9443941    0.5643362 
18005000    1.0202356 -1.4323933e-05   0.42892105  0.031727162            0   0.39719389    1.4920946    1.9210157   0.45424497 
18010000    1.1366939 -1.4768023e-05   0.28382962            0            0   0.28382962    1.6624148    1.9462445   0.43399895 
18015000    1.0770472 6.0556429e-05   0.40340976            0            0   0.40340976    1.5751815    1.9785912    8.1795695 
18020000    1.0314616 5.358721e-05   0.48359442            0            0   0.48359442    1.5085126     1.992107    7.4794373 
18025000    1.0662926 -1.4712184e-05   0.39268831 0.0012781177            0   0.39141019     1.559453    1.9521413   0.44561367 
18030000    1.0619531 -8.3200215e-06   0.39532838  0.020193763            0   0.37513462    1.5531064    1.9484348    1.0964646 
18035000    1.0319945 -1.3237928e-08   0.46808023  0.017860594            0   0.45021963     1.509292    1.9773723    1.9760167 
18040000    1.0242744 2.720831e-05   0.46810769 0.00080385924            0   0.46730383    1.4980013     1.966109      4.75224 
18045000    1.1253846 1.453972e-05   0.28412944            0            0   0.28412944     1.645875    1.9300045    3.4188718 
18050000    1.0056923 2.2642873e-06   0.39208625 0.0015535716            0   0.39053268    1.4708249    1.8629112    2.0947742 
18055000   0.95946796 -4.3983582e-05     0.463897  0.005046282            0   0.45885072    1.4032219    1.8671189   -2.6367999 
18060000   0.98077905 -4.2078184e-06    0.4238261  0.012683741            0   0.41114236    1.4343894    1.8582155    1.4273349 
18065000     1.049346 -3.2249552e-05   0.35056108  0.046096754            0   0.30446433    1.5346685    1.8852296   -1.4171245 
18070000     0.968944 -3.3638962e-05   0.46308465  0.020252644            0     0.442832    1.4170806    1.8801652   -1.5644645 
18075000   0.95659926 7.2428582e-05   0.48607636  0.068254826            0   0.41782153    1.3990264    1.8851028    9.3017896 
18080000   0.85842547 2.8235856e-05    0.6511887  0.035992785            0   0.61519591    1.2554473     1.906636    4.7979876 
18085000   0.99074185 -2.0998562e-05   0.44365893  0.016808942            0   0.42684999      1.44896    1.8926189  -0.25763386 
18090000   0.92883714 1.3706294e-05   0.48649893 0.0076749333            0   0.47882399    1.3584243    1.8449232    3.2484478 
18095000    0.9583634 1.9071763e-05   0.42434584  0.034083139            0    0.3902627    1.4016065    1.8259523    3.7789008 
18100000   0.95799838 1.1787547e-05   0.41934526  0.028547476            0   0.39079779    1.4010726    1.8204179    3.0274627 
18105000   0.98413291 6.2341499e-05   0.40606964   0.02302973            0   0.38303991    1.4392944     1.845364    8.2291336 
18110000    0.9105129 0.0001078875   0.52363222  0.057189299            0   0.46644292    1.3316251    1.8552573    12.902938 
18115000   0.94279083 6.2587629e-05   0.48866346  0.080019441            0   0.40864402    1.3788316     1.867495    8.2764683 
18120000   0.94746344 -3.8357737e-05   0.46384532  0.010236759            0   0.45360857    1.3856653    1.8495106   -2.0783217 
18125000   0.96721532 -5.9633779e-05   0.38717132   0.02435131            0   0.36282001    1.4145524    1.8017237   -4.3047753 
18130000   0.85322384 3.2387818e-05   0.56286164  0.056549075            0   0.50631256    1.2478399    1.8107015    5.1272141 
18135000   0.93722553 6.9005665e-05   0.45326366  0.039324687            0   0.41393897    1.3706923     1.823956    8.8901361 
18140000    0.9546404 -1.3473616e-05   0.46690418  0.032890388            0    0.4340138    1.3961616    1.8630658   0.48336752 
18145000   0.98681682 -6.3738109e-05   0.44583276   0.01412622            0   0.43170654    1.4432196    1.8890524     -4.63773 
18150000    1.0211432 2.663681e-05   0.37580983  0.022122565            0   0.35368727    1.4934219    1.8692318    4.5968411 
18155000    1.0296246 8.904721e-05   0.38123739  0.013266006            0   0.36797138    1.5058259    1.8870633    11.005498 
18160000    0.9582939 -1.989184e-05    0.4508352  0.023712159            0   0.42712304    1.4015048      1.85234  -0.18458435 
18165000    1.0500846 -5.4808245e-05   0.36470526  0.026642382            0   0.33806288    1.5357487     1.900454   -3.7119103 
18170000    0.9918117 3.7821165e-05   0.45274417 0.0043501244            0   0.44839405    1.4505246    1.9032688     5.776156 
18175000   0.88440066 6.3473101e-05   0.60365233 0.0088697025            0   0.59478263     1.293436    1.8970883    8.3967338 
18180000    1.0294243 8.0012908e-05   0.27648732 0.0049083997            0   0.27157892    1.5055331    1.7820204    9.9753421 
18185000   0.94199471 1.8704903e-05   0.44424044 0.0024498819            0   0.44179056    1.3776673    1.8219077    3.7372898 
18190000   0.99691711 -2.6577709e-05   0.39140924 0.0036649815            0   0.38774426    1.4579913    1.8494005  -0.87215684 
18195000   0.91922615 4.5259252e-05   0.49027171 0.0042693958            0   0.48600232    1.3443682      1.83464    6.4691874 
18200000   0.98343378 5.026305e-05   0.35828278 0.00052981726            0   0.35775297    1.4382719    1.7965547     6.943491 
18205000   0.96291009 -3.2913591e-05   0.36933975            0            0   0.36933975     1.408256    1.7775958    -1.592756 
18210000   0.96490896 -5.60186e-05   0.37789962 0.0038597266            0   0.37403989    1.4111793     1.789079   -3.9472257 
18215000   0.96741116 7.8728689e-07   0.37610484  0.026254765            0   0.34985007    1.4148388    1.7909436    1.8715618 
18220000   0.88172795 6.9207289e-06   0.53232449  0.042924567            0   0.48939993    1.2895271    1.8218516    2.5305343 
18225000   0.95305375 1.5461438e-05   0.39012323  0.058592989            0   0.33153024    1.3938411    1.7839643    3.3672156 
18230000   0.88574025 2.5696457e-05    0.5008791  0.058292221            0   0.44258688    1.2953951    1.7962742    4.4275914 
18235000   0.93206774 4.1760097e-06   0.41868288  0.037777494            0   0.38090539    1.3631491     1.781832    2.2094554 
18240000    1.0136226 4.2771707e-06   0.32091495   0.02420859            0   0.29670636    1.4824231    1.8033381    2.2413203 
18245000   0.87543249 -1.2272759e-05   0.51095153  0.073964321            0   0.43698721      1.28032    1.7912715   0.53454099 
18250000   0.94063687 1.0847962e-05   0.39046476  0.035571268            0   0.35489349    1.3756814    1.7661462    2.8769775 
18255000   0.95796247 -1.9133503e-05   0.37519396  0.014027385            0   0.36116657    1.4010201    1.7762141  -0.18305667 
18260000   0.90126555 -5.103115e-05   0.41624539 0.0089143713            0   0.40733102    1.3181009    1.7343462   -3.4912435 
18265000   0.98844784 -2.6592741e-05   0.28800832 0.0062637536            0   0.28174456     1.445605    1.7336133  -0.98948342 
18270000   0.93275592 1.1154378e-05   0.39182738 0.0019565462            0   0.38987083    1.3641555    1.7559829    2.8981912 
18275000   0.92085164 3.0480003e-05   0.43911603 0.00075648009            0   0.43835955    1.3467455    1.7858616    4.9070139 
18280000   0.93295907 4.6881474e-05   0.42517959 0.0057477789            0   0.41943181    1.3644526    1.7896322    6.5902952 
18285000     1.005372 7.190299e-05    0.2739002 0.0050207202            0   0.26887948    1.4703565    1.7442567     9.107123 
18290000    0.8663405 4.123104e-05    0.4605535 0.00033828207            0   0.46021522     1.267023    1.7275765    5.9496349 
18295000    0.9604404 2.186576e-05   0.29980624            0            0   0.29980624    1.4046441    1.7044503    3.9435042 
18300000   0.92525974 3.0496672e-05   0.29061757 0.0052385098            0   0.28537906    1.3531924    1.6438099    4.7666692 
18305000   0.87338388 -3.4738305e-05   0.35782666  0.026276235            0   0.33155042    1.2773239    1.6351506   -1.9220518 
18310000   0.81405377 -0.00010862038   0.45886343  0.021158932            0    0.4377045    1.1905536    1.6494171   -9.4733095 
18315000   0.88003488 -6.6001136e-05   0.40471298  0.015826974            0     0.388886     1.287051     1.691764   -5.0667524 
18320000   0.88467348 2.1653495e-05   0.41863916  0.029185316            0   0.38945385     1.293835    1.7124741     3.929792 
18325000   0.89266477 6.321638e-05   0.42053442  0.015663708            0   0.40487071    1.3055222    1.7260566     8.199414 
18330000   0.89179899 7.1343254e-05   0.41666815 0.0013004733            0   0.41536768     1.304256    1.7209242    9.0264734 
18335000   0.89307822 5.9679201e-05   0.39467252  0.010962595            0   0.38370993    1.3061269    1.7007994    7.8119496 
18340000   0.90146798 -2.5540939e-06   0.37041841  0.023178034            0   0.34724038    1.3183969    1.6888153    1.4272761 
18345000   0.89364705 -9.6279093e-05   0.37451746 0.0016975528            0   0.37281991    1.3069588    1.6814763   -8.1775028 
18350000   0.89967533 -8.5961671e-05   0.34508553 0.0041874719            0   0.34089805    1.3157752    1.6608607   -7.1416144 
18355000   0.93174749 1.0156806e-06   0.33218444  0.041365011            0   0.29081943    1.3626807    1.6948652    1.7988708 
18360000    0.9374841 2.838126e-05   0.32840692  0.012459866            0   0.31594705    1.3710705    1.6994774    4.6057185 
18365000   0.90818194 4.7493817e-05   0.36672333            0            0   0.36672333    1.3282161    1.6949394    6.5583063 
18370000   0.89729255 -1.194206e-05   0.41656147 6.7941147e-05            0   0.41649353    1.3122904    1.7288518   0.50598484 
18375000   0.87146523 -1.1870232e-05   0.44817503 0.0042623372            0    0.4439127    1.2745179    1.7226929   0.50718116 
18380000   0.91536327 -1.5732921e-05   0.39755269 0.0044174165            0   0.39313528    1.3387188    1.7362715   0.12522035 
18385000    1.0056398 -7.3901861e-05   0.29290789 0.00093462521            0   0.29197327    1.4707483    1.7636562   -5.8038944 
18390000   0.91460167 -3.6819484e-05   0.46211325            0            0   0.46211325    1.3376049    1.7997182    -1.970597 
18395000   0.97809353 -6.0298995e-06   0.38404134 0.0023460177            0   0.38169532    1.4304618    1.8145031    1.1970414 
18400000     1.004016 -2.1668091e-05   0.33837796 0.0066928027            0   0.33168515    1.4683734    1.8067513  -0.41206125 
18405000   0.99239903 9.8789186e-06   0.38424109 0.0085402362            0   0.37570086    1.4513836    1.8356247    2.8472259 
18410000   0.98735236 -3.1506753e-05   0.38105697 0.0022669354            0   0.37879004    1.4440028    1.8250598   -1.4012317 
18415000   0.89657047 -4.2721178e-05   0.46440011            0            0   0.46440011    1.3112343    1.7756344   -2.5990142 
18420000   0.95368132 -4.0240953e-05   0.37183689 2.7357203e-05            0   0.37180954    1.3947589    1.7665958   -2.3540778 
18425000   0.96423746 -3.0006408e-05   0.38444232 0.0083618208            0    0.3760805    1.4101973    1.7946396   -1.2780166 
18430000   0.90372297 -3.0703453e-05   0.47718264  0.046996023            0   0.43018662    1.3216948    1.7988775   -1.3451561 
18435000     1.014243 -3.08656e-05   0.31634123  0.017572538            0    0.2987687    1.4833303    1.7996716   -1.3609658 
18440000    1.0169759 -2.1473493e-06   0.33555964            0            0   0.33555964    1.4873273    1.8228869    1.6029983 
18445000    0.9832264 -4.1685629e-05   0.36578787            0            0   0.36578787    1.4379686    1.8037565   -2.4648519 
18450000   0.90831321 -9.3620995e-05   0.45255642            0            0   0.45255642    1.3284081    1.7809645   -7.8058253 
18455000    1.0003579 -4.4174261e-05   0.31023863            0            0   0.31023863    1.4630235    1.7732621   -2.7501822 
18460000    1.0359568 3.8930055e-05   0.24482838            0            0   0.24482838    1.5150868    1.7599152    5.7463528 
18465000   0.93293754 4.7989579e-05   0.43148604 0.00029111684            0   0.43119492    1.3644212    1.7959072    6.7100401 
18470000   0.91425799 4.4918425e-05   0.44610151 0.0055592439            0   0.44054226    1.3371023    1.7832038    6.3828505 
18475000    1.0435295 -7.7206322e-06   0.29173936  0.024524414            0   0.26721494    1.5261619    1.8179013    1.0273085 
18480000   0.93139595 -5.5359759e-05   0.42145604   0.03963451            0   0.38182153    1.3621666    1.7836226   -3.8852167 
18485000   0.94646657 -4.7772407e-05   0.41939443  0.018657136            0   0.40073729    1.3842074    1.8036018   -3.0882927 
18490000    1.0650209 3.7415282e-06   0.29673381 0.0073924435            0   0.28934136    1.5575931    1.8543269    2.2374593 
18495000    1.0535272 3.919007e-05   0.30840062   0.01521909            0   0.29318153    1.5407835    1.8491841    5.8622473 
18500000   0.96527273 -5.4085392e-05   0.42737418 0.0092772193            0   0.41809697    1.4117114    1.8390855   -3.6992586 
18505000    1.0748504 -1.1154332e-05    0.2885043 0.0021945684            0   0.28630974    1.5719687     1.860473   0.71826934 
18510000    1.0116655 1.0811002e-06   0.38086849 0.0041070916            0    0.3767614    1.4795608    1.8604293    1.9711339 
18515000    1.0767131 3.0928159e-05   0.31278792 0.0047291074            0   0.30805881    1.5746929    1.8874808    5.0545243 
18520000    1.0631825 1.4683188e-05    0.3441234  0.016833052            0   0.32729034    1.5549044    1.8990278    3.4025863 
18525000   0.96995439 -2.5970032e-05   0.48629739  0.049625271            0   0.43667212    1.4185583    1.9048557  -0.75447562 
18530000    1.0073411 -1.1917876e-05   0.41264972   0.01754269            0   0.39510703    1.4732363     1.885886   0.66549557 
18535000    1.0435651 -2.9358386e-05   0.39829185 0.0058060575            0   0.39248579     1.526214    1.9245058   -1.0817929 
18540000    1.0070642 1.0219801e-05   0.46146304  0.018291531            0   0.44317151    1.4728314    1.9342944     2.980802 
18545000    1.0938266 5.5512563e-05   0.36289104   0.01253703            0   0.35035401    1.5997214    1.9626124    7.6470989 
18550000    1.0639834 -1.1285493e-06   0.40084827 0.00058704469            0   0.40026123    1.5560758     1.956924    1.8413606 
18555000    1.0274355 -3.9300852e-05    0.4503026 0.0050396477            0   0.44526295    1.5026245    1.9529271   -2.0714802 
18560000   0.98202462 4.8379612e-06   0.47975132   0.02259072            0    0.4571606     1.436211    1.9159623    2.4113695 
18565000     1.049349  4.24175e-05   0.40455419 0.0083246936            0    0.3962295    1.5346729    1.9392271    6.2827791 
18570000    1.0072758 6.2136025e-05   0.45538531 0.0086314365            0   0.44675387    1.4731408    1.9285262    8.2912551 
18575000    1.0617416 2.7217961e-05   0.35848724  0.017838695            0   0.34064855    1.5527971    1.9112843    4.6984036 
18580000    1.0365461 1.7917487e-05   0.40035598  0.011007205            0   0.38934877    1.5159486    1.9163046    3.7510553 
18585000    1.0325126 4.4938373e-06   0.42315111 0.0098879595            0   0.41326315    1.5100497    1.9332008    2.3933697 
18590000   0.94335672 -7.8195848e-05   0.56099073 0.0098277202            0   0.55116301    1.3796592    1.9406499   -6.0666049 
18595000    1.0733029 -2.6956352e-05   0.41177953 0.0062195556            0   0.40555998    1.5697055     1.981485  -0.77884541 
18600000    1.0532328 5.2099631e-05   0.41404558   0.02334015            0   0.39070543     1.540353    1.9543985    7.2894007 
18605000    1.0148798 4.0320064e-05    0.4866445  0.028159653            0   0.45848485    1.4842617    1.9709062    6.0996807 
18610000       1.0052 8.1798853e-06    0.5196152  0.016716419            0   0.50289878     1.470105    1.9897202    2.8273405 
18615000     1.008707 6.479605e-05   0.46244279   0.01815208            0   0.44429071    1.4752339    1.9376767    8.5727922 
18620000   0.96026514 0.00011781165   0.51031649  0.011432299            0   0.49888419    1.4043878    1.9147043    13.978617 
18625000    1.0395456 6.1627177e-05   0.40127644  0.015195738            0    0.3860807    1.5203354    1.9216118    8.2322347 
18630000    1.0245285 3.3467448e-05   0.44124769   0.06059577            0   0.38065192     1.498373    1.9396207    5.3666874 
18635000   0.99400726 2.9623772e-05   0.52923211  0.041899769            0   0.48733234    1.4537356    1.9829677     5.016442 
18640000    1.0135966 1.7868438e-05   0.54702889  0.034620697            0   0.51240819     1.482385    2.0294138    3.8591419 
18645000    1.0673194 2.5097769e-05   0.45644197  0.028415585            0   0.42802638    1.5609546    2.0173965    4.5874081 
18650000    1.0002082 -2.0334254e-05   0.58586447  0.019453158            0   0.56641131    1.4628044    2.0486689 -0.033558747 
18655000    1.0304391 1.0931182e-05   0.50869545  0.045230777            0   0.46346467    1.5070172    2.0157126    3.1350657 
18660000    1.0184397 2.9395488e-05   0.51171915  0.035592736            0   0.47612641    1.4894681    2.0011872    5.0112852 
18665000    1.0285117 -8.1160221e-06   0.50337692  0.038491077            0   0.46488585    1.5041983    2.0075752    1.1764946 
18670000    1.0591947 -4.5806114e-05   0.44423514  0.017496794            0   0.42673834    1.5490722    1.9933074   -2.6972388 
18675000    1.0530923 -9.7946103e-06   0.42524318  0.017851954            0   0.40739123    1.5401475    1.9653907   0.96242258 
18680000    1.0583988 -4.9285454e-05   0.43670759 0.0042372714            0   0.43247032    1.5479083    1.9846158   -3.0622147 
18685000    1.0685349 -7.1672115e-05   0.43529671 0.0090026206            0   0.42629409    1.5627323     1.998029   -5.3411955 
18690000    1.0165996 -6.6862029e-05   0.55659323  0.019593914            0   0.53699931    1.4867769    2.0433701   -4.8033016 
18695000    1.0403874 -6.7353287e-05   0.47561727  0.014466155            0   0.46115111    1.5215666    1.9971838   -4.8997928 
18700000    1.0819739 -4.3397009e-05   0.38622743  0.058610855            0   0.32761658    1.5823868    1.9686142   -2.4752395 
18705000    1.0316572  -1.0184e-05   0.45406748   0.13150465            0   0.32256284    1.5087986    1.9628661   0.92002456 
18710000    1.0953433 1.7598548e-05   0.36378745  0.044446454            0     0.319341    1.6019396    1.9657271    3.7678184 
18715000    0.9748291 5.0292064e-05   0.56779169  0.013872286            0   0.55391941    1.4256876    1.9934792    7.1433866 
18720000    1.0792922 9.3121446e-05   0.41841005  0.020647856            0    0.3977622    1.5784648    1.9968748    11.532511 
18725000    1.0991662 3.8393881e-05   0.37606642 0.0069369366            0   0.36912949    1.6075305     1.983597    5.9151304 
18730000    1.0778392 4.632353e-05   0.44969321  0.037780466            0   0.41191274    1.5763399    2.0260331    6.7695626 
18735000     1.108813 7.7573539e-05   0.37533739  0.042959042            0   0.33237834     1.621639    1.9969764    9.9405068 
18740000     1.071857 2.2790725e-05   0.42627736  0.029185746            0   0.39709161    1.5675909    1.9938683    4.3276385 
18745000    1.0660898 2.3654795e-05   0.44715523    0.0251822            0   0.42197303    1.5591563    2.0063115    4.4285625 
18750000     1.025953 2.3770411e-07   0.48220551  0.042222695            0   0.43998281    1.5004563    1.9826618    2.0070027 
18755000    1.0848246 -1.5343515e-05   0.43521195  0.033856439            0   0.40135551     1.586556    2.0217679   0.45059193 
18760000    1.1245904 4.5405611e-05   0.37994955  0.007282099            0   0.37266746    1.6447135     2.024663    6.6741976 
18765000    1.0697686 6.1902059e-05     0.471726  0.035068564            0   0.43665744    1.5645366    2.0362626    8.3750335 
18770000    1.0413104 6.6983193e-05   0.49315904  0.020151361            0   0.47300768    1.5229165    2.0160756    8.8751545 
18775000    1.0737157 9.5422748e-05   0.45577869  0.046962306            0   0.40881638    1.5703092    2.0260879    11.797377 
18780000    1.0411183 4.0737326e-05    0.5017234  0.042108903            0    0.4596145    1.5226356     2.024359    6.1958611 
18785000    1.0425083 -5.0834221e-05   0.48917578 0.0070702431            0   0.48210554    1.5246685    2.0138442     -3.19158 
18790000    1.0533961 1.1925128e-05   0.49579647            0            0   0.49579647    1.5405919    2.0363883    3.2575214 
18795000    1.2162973 6.873734e-05   0.28969358 0.0017734158            0   0.28792016    1.7788348    2.0685284    9.1072321 
18800000    1.0681124 3.7550592e-05   0.47686967  0.038538838            0   0.43833084    1.5621144     2.038984    5.8841647 
18805000    1.0297384 7.1752526e-05     0.563378  0.038746452            0   0.52463155    1.5059925    2.0693705    9.4168291 
18810000    1.2194102 3.379962e-05   0.32878187  0.016100846            0   0.31268103    1.7833874    2.1121693    5.5732504 
18815000    1.1921149 -1.8117383e-05   0.34692456  0.035607389            0   0.31131718     1.743468    2.0903925   0.23517254 
18820000    1.1771749 -2.4546733e-05   0.42542693  0.027866145            0   0.39756079    1.7216183    2.1470453  -0.36654019 
18825000    1.1909275 -2.5645493e-05   0.39784255  0.020004882            0   0.37783767    1.7417315    2.1395741  -0.48652446 
18830000    1.1894264 2.0899481e-05   0.42702862 0.0064874967            0   0.42054112    1.7395361    2.1665647    4.3066716 
18835000     1.181434 7.965813e-05   0.41356488 2.4131086e-06            0   0.41356247    1.7278473    2.1414122    10.298405 
18840000    1.1590931 -6.2294069e-06   0.40183571 0.0014503393            0   0.40038537    1.6951737    2.0970094    1.4591181 
18845000     1.156901 -4.6135577e-05   0.45713726  0.081419815            0   0.37571745    1.6919677     2.149105   -2.5751781 
18850000    1.1335042 1.6612128e-05   0.43800898  0.023191507            0   0.41481747    1.6577498    2.0957588    3.7968407 
18855000    1.1373136 2.6385758e-05   0.42587671            0            0   0.42587671    1.6633212    2.0891979    4.7910995 
18860000    1.1387188 5.7203752e-05   0.42520517  0.012828993            0   0.41237617    1.6653762    2.0905814    7.9482456 
18865000    1.1539118 6.4455214e-05   0.39227682  0.037427256            0   0.35484957     1.687596    2.0798728    8.6800867 
18870000    1.1323242 2.5402511e-06   0.38823764  0.025769172            0   0.36246847    1.6560242    2.0442618    2.3043835 
18875000    1.1173885 -2.9533829e-05   0.38653474   0.02336805            0   0.36316669    1.6341808    2.0207155   -1.0035485 
18880000    1.1594781 -2.1020256e-05   0.35441904  0.013062422            0   0.34135661    1.6957367    2.0501557  -0.10231845 
18885000    1.0606805 -1.6943222e-05   0.50719874   0.06184643            0   0.44535231    1.5512452     2.058444   0.32345808 
18890000    1.1190069 -3.4845457e-05   0.43773116  0.059559585            0   0.37817158    1.6365476    2.0742787    -1.493896 
18895000    1.1492764 -3.211147e-05   0.37507842   0.01360181            0   0.36147661    1.6808167    2.0558952   -1.2323193 
18900000    1.1255092 -1.0099952e-05   0.40047578  0.003585613            0   0.39689017    1.6460573     2.046533    1.0122979 
18905000    1.1329371 -2.0590804e-05    0.3919931 7.2912884e-05            0   0.39192019    1.6569205    2.0489136  -0.05958475 
18910000    1.0972009 -4.4759623e-06   0.38916033 0.0059096496            0   0.38325068    1.6046562    1.9938166     1.535478 
18915000    1.0498416 5.5946581e-05   0.48279645  0.092543676            0   0.39025277    1.5353934    2.0181898    7.7471197 
18920000    1.1311572 4.6394907e-06   0.37058333  0.058166863            0   0.31241647    1.6543173    2.0249007    2.4999845 
18925000    1.0761184 -4.0266192e-05   0.47763918  0.055642483            0   0.42199669    1.5738231    2.0514623   -2.0717957 
18930000    1.0604094 3.7368475e-05   0.45852988  0.040190815            0   0.41833907    1.5508488    2.0093786    5.8359105 
18935000    1.1395284 2.8094828e-05   0.34560544 0.0099643362            0    0.3356411    1.6665603    2.0121658    4.8890762 
18940000     1.154592 -4.7220666e-05    0.3002594  0.026180263            0   0.27407913    1.6885908    1.9888502   -2.8465459 
18945000      1.10319 1.6625305e-05   0.37952541  0.005641464            0   0.37388394    1.6134154    1.9929408     3.695372 
18950000    1.0246241 3.4767796e-05   0.48809517  0.000136868            0   0.48795831    1.4985128    1.9866079    5.5468303 
18955000    1.0705215 -3.0175817e-05   0.43200847 0.0026370352            0   0.42937143    1.5656377    1.9976461   -1.0923576 
18960000    1.0456016 9.0880193e-06   0.47298126 0.0067190348            0   0.46626223    1.5291923    2.0021735    2.9327867 
18965000     1.120182 -1.398175e-05   0.37652696   0.01224415            0   0.36428281    1.6382662    2.0147932   0.58306202 
18970000    1.1108085 -5.6638081e-05   0.38193893  0.023027042            0   0.35891189    1.6245574    2.0064963   -3.7932432 
18975000    1.0911625 5.7736646e-05   0.43685029   0.03776729            0     0.399083    1.5958251    2.0326754     7.944908 
18980000    1.0704806 1.3950273e-05    0.4564633  0.045057819            0   0.41140548    1.5655779    2.0220412    3.4505492 
18985000    1.0826579 0.00011059273    0.4713412  0.021364155            0   0.44997704    1.5833872    2.0547284    13.379424 
18990000    1.1203405 -1.0355018e-05   0.40311534  0.021489083            0   0.38162625    1.6384979    2.0416133   0.98125945 
18995000    1.1157738 -1.4105525e-05   0.38403207  0.013736122            0   0.37029595    1.6318192    2.0158513    0.5714455 
19000000    1.1369821 -5.4052316e-05   0.39873173    0.0479135            0   0.35081823    1.6628364    2.0615681   -3.4733891 
19005000    1.1679542 3.7037341e-06     0.367031  0.028153723            0   0.33887728     1.708133     2.075164    2.4544264 
19010000    1.1206774 5.7786918e-06    0.4521398  0.034001647            0   0.41813815    1.6389907    2.0911305    2.6828686 
19015000      1.10226 -7.7107006e-05   0.47529949  0.032024828            0   0.44327466    1.6120552    2.0873547   -5.8084027 
19020000    1.0401643 5.1528781e-05    0.5663732  0.034058105            0    0.5323151    1.5212403    2.0876135    7.3641607 
19025000    1.0565032 -1.5572346e-05     0.551572  0.063056458            0   0.48851554     1.545136     2.096708    0.5020998 
19030000    1.0870461 9.0463974e-05   0.50469948   0.02864194            0   0.47605754    1.5898049    2.0945044    11.358015 
19035000     1.146565 2.0706008e-05   0.38455741  0.013564968            0   0.37099244    1.6768512    2.0614087    4.1817039 
19040000    1.1681511 -1.8468489e-05   0.37447797  0.041628657            0   0.33284932     1.708421     2.082899    0.1917257 
19045000    1.1380855 1.9357986e-05   0.48425693  0.048278427            0    0.4359785    1.6644501     2.148707    4.1309647 
19050000    1.1134742 -2.8957256e-05    0.5303547   0.10499617            0   0.42535853     1.628456    2.1588107   -0.8064123 
19055000    1.2156737 -1.2783696e-05   0.37807165  0.020561787            0   0.35750986    1.7779227    2.1559944   0.84694386 
19060000    1.1225067 -4.3015873e-05   0.50581094  0.012483196            0   0.49332774     1.641666     2.147477   -2.2573485 
19065000    1.1137846 6.651667e-05   0.49452107 0.0043762098            0   0.49014486      1.62891     2.123431     8.934738 
19070000    1.2121855  -2.4262e-05   0.38919986 0.0014967592            0    0.3877031    1.7728213    2.1620211  -0.32240762 
19075000    1.2281944 3.6026139e-05   0.36110007 0.0079520467            0   0.35314802    1.7962343    2.1573344     5.846411 
19080000    1.1766616 -4.191835e-05    0.4309648  0.092090431            0   0.33887437    1.7208675    2.1518323   -2.1406067 
19085000    1.1931476 5.6665949e-05   0.36320816 0.0036985751            0   0.35950958    1.7449784    2.1081866    7.9107797 
19090000    1.1448546 8.4691737e-05   0.42151755  0.023346244            0   0.39817131    1.6743499    2.0958674    10.768301 
19095000    1.1769829 1.0561705e-05   0.38488692  0.033687198            0   0.35119972    1.7213375    2.1062244     3.187743 
19100000     1.161055 4.0066785e-05   0.40300079  0.026279652            0   0.37672114     1.698043    2.1010437    6.2038825 
19105000    1.1183939 -6.1986583e-05   0.45844003  0.042061116            0   0.41637891     1.635651     2.094091   -4.2533351 
19110000    1.1381169 -6.6627224e-05   0.42987039  0.021912962            0   0.40795743     1.664496    2.0943664   -4.7282614 
19115000     1.158949 5.9327027e-05   0.40339325  0.016590684            0   0.38680257     1.694963    2.0983562    8.1734437 
19120000    1.1577786 4.3190228e-05   0.37275766 0.0087762762            0   0.36398138    1.6932512    2.0660088    6.4886882 
19125000    1.1208766 2.3583015e-05   0.42068768 0.0071221147            0   0.41356557     1.639282    2.0599697    4.4748705 
19130000    1.1669744 1.789603e-05   0.39904717  0.053459854            0   0.34558731    1.7067001    2.1057472    3.9383007 
19135000    1.1425811 -8.1283657e-05   0.42281041  0.038113724            0   0.38469668    1.6710249    2.0938353   -6.2296112 
19140000    1.1299937 -2.9937959e-05   0.41843634  0.023739034            0    0.3946973    1.6526158    2.0710521  -0.99459486 
19145000    1.0893675 2.5991448e-05    0.4583482  0.022726113            0   0.43562208       1.5932    2.0515482    4.7130724 
19150000     1.074727 1.3352352e-05   0.48222543  0.011863899            0   0.47036153    1.5717883    2.0540137    3.4212945 
19155000    1.0817953 1.7699245e-05   0.45230701 0.0037614738            0   0.44854554    1.5821257    2.0344327    3.8468354 
19160000    1.1480766 -8.5656745e-08   0.31940402  0.001905395            0   0.31749863     1.679062     1.998466    1.9896948 
19165000     1.101691 6.1348201e-05   0.37624742  0.011286613            0   0.36496081    1.6112231    1.9874705    8.2695263 
19170000   0.98063022 9.8374694e-05   0.49027678  0.043859509            0   0.44641727    1.4341717    1.9244485    11.998017 
19175000   0.97850965 1.9097003e-05   0.48112751  0.037579126            0   0.44354839    1.4310704    1.9121979     3.867731 
19180000    1.0717673 3.3226205e-05   0.33989958 0.0082485014            0   0.33165107    1.5674597    1.9073593    5.3097227 
19185000    1.0384031 8.8283696e-05   0.40151406  0.012162542            0   0.38935152    1.5186646    1.9201786    10.960429 
19190000    1.0636935 -1.2394909e-05   0.36933208  0.012356757            0   0.35697532    1.5556517    1.9249838   0.65574511 
19195000    1.0502983 -3.9454688e-05   0.38166209 0.0098314251            0   0.37183067    1.5360612    1.9177233   -2.1224367 
19200000   0.99139066 3.4483198e-05   0.42705157  0.026004001            0   0.40104756    1.4499088    1.8769604    5.4080398 
19205000   0.89468652 8.2293928e-05   0.56228311  0.022688532            0   0.53959458     1.308479    1.8707621     10.29766 
19210000   0.97540834 5.5180677e-05   0.45593184 0.0065693094            0   0.44936253    1.4265347    1.8824665    7.5329679 
19215000   0.95511898 -8.1061391e-06   0.46620703 0.0038915156            0   0.46231551    1.3968615    1.8630685    1.0329999 
19220000    1.0761515 -1.1450403e-05   0.32100837  0.018952981            0   0.30205539    1.5738715    1.8948799   0.72235862 
19225000   0.87785403 -2.1171049e-05   0.57409144  0.018622602            0   0.55546884    1.2838615     1.857953  -0.30996249 
19230000    1.0219283 -9.426397e-05   0.34795228 0.0073684308            0   0.34058385    1.4945702    1.8425224   -7.8101081 
19235000    1.0429459 -5.315043e-05    0.3014956 5.0546581e-06            0   0.30149055    1.5253084     1.826804   -3.6158001 
19240000   0.98657664 2.5440046e-05   0.39306912            0            0   0.39306912    1.4428683    1.8359375    4.4409981 
19245000   0.97531998 -3.6998208e-05   0.40158332            0            0   0.40158332    1.4264055    1.8279888   -1.9606277 
19250000     1.014771 -4.6195061e-05   0.35823729 0.00040193912            0   0.35783535    1.4841027    1.8423399   -2.8880343 
19255000    1.0167152 -2.1277846e-05   0.37234053  0.003575577            0   0.36876495     1.486946    1.8592865  -0.31956488 
19260000     0.990203 -6.6321704e-05   0.48763762  0.014158003            0   0.47347962    1.4481719    1.9358095    -4.855533 
19265000   0.95200555 -5.9126187e-05   0.49055715   0.02689349            0   0.46366366    1.3923081    1.8828653   -4.1716563 
19270000   0.94013611 -7.4793297e-06   0.50606421  0.031026821            0   0.47503739    1.3749491    1.8810133    1.1151299 
19275000   0.94679061 8.6480382e-06   0.47426079  0.031718258            0   0.44254253    1.3846813    1.8589421    2.7445012 
19280000    1.0107416 -1.2582524e-05   0.35389466 0.0054789089            0   0.34841575    1.4782096    1.8321043   0.54365389 
19285000   0.90030107 -7.6611754e-05   0.53627259  0.016656257            0   0.51961633    1.3166903    1.8529629   -5.9920807 
19290000   0.88356471 -4.7877683e-05   0.57037905   0.10164529            0   0.46873376    1.2922134    1.8625924   -3.0400823 
19295000    1.0523544 -1.082633e-05   0.30963043   0.01998701            0   0.28964342    1.5390683    1.8486987   0.74008254 
19300000   0.87826251 5.3151839e-05   0.57424183  0.039247039            0   0.53499479    1.2844589    1.8587008     7.301449 
19305000    0.9976883 4.3151947e-05   0.36753297 0.0094319555            0   0.35810101    1.4591191    1.8266521    6.2454115 
19310000    0.8883987 2.7569908e-05   0.48543247 0.0003658919            0   0.48506658    1.2992831    1.7847156    4.6078742 
19315000   0.94842556 -1.0180269e-05   0.43020657  0.010873638            0   0.41933293    1.3870724     1.817279   0.77481944 
19320000   0.92268942 3.0497154e-05   0.44692923  0.043902872            0   0.40302636    1.3494333    1.7963625    4.9192711 
19325000   0.98898735 -2.6735241e-06   0.34916215  0.015368998            0   0.33379315     1.446394    1.7955562    1.5217873 
19330000   0.92461805 -2.4976931e-05   0.41642647 0.0012596046            0   0.41516686    1.3522539    1.7686804  -0.78895737 
19335000   0.96881226 -2.947417e-06   0.34900514 0.0023071136            0   0.34669803    1.4168879    1.7658931    1.4640776 
19340000   0.96350819 1.6342407e-05   0.42263811 0.0015837913            0   0.42105431    1.4091307    1.8317688    3.5052313 
19345000   0.93658158 -7.5530421e-06    0.4832546 0.00016767516            0   0.48308692    1.3697506    1.8530052    1.0795737 
19350000   0.97444273 1.6076935e-05   0.41773505            0            0   0.41773505    1.4251225    1.8428575    3.4891357 
19355000    1.0024464 1.4841676e-06   0.35956872            0            0   0.35956872    1.4660779    1.8256466    1.9776254 
19360000    1.0594651 -4.0262928e-05   0.30548685            0            0   0.30548685    1.5494677    1.8549545   -2.2679693 
19365000   0.92824005 -3.899292e-06   0.50387352 0.0062837817            0   0.49758974    1.3575511    1.8614246    1.4621371 
19370000   0.96713372 2.6658866e-05   0.45401413  0.037100307            0   0.41691383    1.4144331    1.8684472     4.598315 
19375000   0.94247382 2.9867824e-05   0.47434967  0.035025368            0    0.4393243     1.378368    1.8527176    4.9111828 
19380000   0.95830066 -3.8006234e-05   0.47647503 0.0023466581            0   0.47412837    1.4015147    1.8779898   -2.0138486 
19385000   0.95117551 -3.9496009e-05   0.45879127  0.012177852            0   0.44661342    1.3910942    1.8498855   -2.1945058 
19390000    1.0384589 2.6441379e-05   0.35495019  0.032759051            0   0.32219114    1.5187461    1.8736963    4.5812935 
19395000   0.93371827 1.929405e-05   0.46702769  0.015143257            0   0.45188443     1.365563    1.8325907    3.8083014 
19400000   0.88413042 1.3430639e-05    0.5586053  0.014721547            0   0.54388375    1.2930407     1.851646    3.2269435 
19405000   0.85946522 -7.8322723e-06   0.61254044  0.054312331            0   0.55822811    1.2569679    1.8695083    1.0674836 
19410000    0.9460974 4.7563611e-05   0.46754151  0.023101796            0   0.44443971    1.3836674     1.851209    6.7217227 
19415000   0.89868432 1.8027476e-05   0.53107135 0.0061218856            0   0.52494946    1.3143258    1.8453972    3.6914107 
19420000    1.0718182 4.3009801e-05   0.31696606 0.00039352151            0   0.31657254    1.5675341    1.8845002    6.2887039 
19425000   0.98932188 3.4741785e-05   0.46398244 0.00066335146            0   0.46331908    1.4468833    1.9108657    5.4684245 
19430000    1.0663046 -3.6195781e-05   0.35681645 0.00010396747            0   0.35671249    1.5594705     1.916287    -1.790161 
19435000    1.0423082 -7.174361e-05   0.43594683            0            0   0.43594683    1.5243757    1.9603225   -5.3862231 
19440000   0.94298885  -5.5219e-05   0.52907617            0            0   0.52907617    1.3791212    1.9081974   -3.7462283 
19445000    1.0628334 -6.2654715e-06   0.36596917 0.00039395432            0   0.36557521    1.5543939    1.9203631    1.2787788 
19450000    1.0312197 4.6181243e-05   0.47689542 0.0044128261            0    0.4724826    1.5081587    1.9850542    6.7140135 
19455000    1.0434272 5.162447e-05    0.4843745  0.049309533            0   0.43506496    1.5260122    2.0103867    7.2967324 
19460000    1.0840628 -5.213104e-07    0.4310669  0.043420938            0   0.38764597    1.5854418    2.0165087    1.9631265 
19465000    1.0951513 1.0818926e-06   0.41219717 0.00032675966            0   0.41187041    1.6016588    2.0138559    2.1246417 
19470000    1.1072381 2.7948008e-05   0.39167642            0            0   0.39167642    1.6193358    2.0110122    4.8728882 
19475000     1.036506 -1.4938336e-05   0.49577337  0.030117818            0   0.46565555    1.5158901    2.0116634   0.48197783 
19480000    1.0408215 -2.0479178e-05   0.50117845    0.1483836            0   0.35279485    1.5222015    2.0233799 -0.073687859 
19485000    1.0896217 5.6835856e-05   0.43711585   0.02239895            0    0.4147169    1.5935718    2.0306876    7.8506794 
19490000    1.0477599 7.7034549e-05   0.50030792  0.020076155            0   0.48023176    1.5323489    2.0326568    9.9209946 
19495000    1.0339399 -8.402899e-06   0.48062939  0.026180674            0   0.45444871     1.512137    1.9927664    1.1323096 
19500000    1.1323226 1.3839631e-06   0.33970568 0.0016847404            0   0.33802094    1.6560218    1.9957275    2.1374453 
19505000     1.072253 6.1824107e-05   0.40840726 0.0048784521            0   0.40352881      1.56817    1.9765773    8.3073659 
19510000    1.0887208 0.00011407953   0.36344208  0.035291701            0   0.32815038    1.5922542    1.9556962    13.637441 
19515000    1.1434505 7.5981006e-05   0.33776492  0.031745603            0   0.30601932    1.6722963    2.0100612    9.7905163 
19520000    1.1151381 -1.9583227e-05   0.39023714  0.014403111            0   0.37583403    1.6308894    2.0211266  0.015804149 
19525000    1.1203309 -4.5919518e-05   0.35158534  0.034093419            0   0.31749192     1.638484    1.9900693   -2.7120893 
19530000    1.1333125 -5.989939e-05   0.32993839  0.022456759            0   0.30748163    1.6574695    1.9874079   -4.1462897 
19535000    1.0535137 -9.3393314e-06   0.44117791  0.034463603            0   0.40671431    1.5407637    1.9819416    1.0255941 
19540000    1.0738977 3.1085636e-05   0.39962591  0.033390258            0   0.36623565    1.5705753    1.9702013    5.1533704 
19545000      1.11188 -2.1854403e-05   0.33976578 0.0043318409            0   0.33543393    1.6261244    1.9658902  -0.27200065 
19550000    1.0123608 2.0144557e-05   0.45395147  0.015684763            0    0.4382667    1.4805776    1.9345291    3.9973317 
19555000    1.0232996 4.7754853e-05   0.44170389 0.0074773168            0   0.43422657    1.4965757    1.9382796    6.8283765 
19560000    1.1110787 9.4609559e-06   0.29158231 0.0092888962            0   0.28229341    1.6249526    1.9165349    2.8853368 
19565000   0.97989646 -4.5119576e-05   0.49684334  0.024184812            0   0.47265853    1.4330986    1.9299419   -2.6903027 
19570000    1.0416987 -3.6978116e-05   0.40202996  0.031608141            0   0.37042181    1.5234843    1.9255142   -1.8610448 
19575000    1.0843131 -2.517033e-06   0.37051342 0.0013998453            0   0.36911358    1.5858079    1.9563213    1.6985771 
19580000    1.0467958 1.2762646e-05   0.42815628 0.0034893201            0   0.42466696    1.5309388    1.9590951    3.2659901 
19585000   0.98714094 4.9911403e-05   0.51072442 0.0053321478            0   0.50539227    1.4436936     1.954418    7.0653457 
19590000    1.0304418 -7.1917276e-05   0.45219545 0.0081867519            0    0.4440087    1.5070211    1.9592166   -5.4051125 
19595000   0.99917567 -6.5185294e-05   0.44982272  0.020381428            0   0.42944129    1.4612944    1.9111171    -4.763857 
19600000   0.99303859 4.2254849e-06   0.44531313   0.04881541            0   0.39649772    1.4523189    1.8976321    2.3303217 
19605000    1.0302773 -2.5011338e-05   0.45084474  0.029049504            0   0.42179524    1.5067806    1.9576253  -0.60353576 
19610000    1.0692534 2.1752137e-05   0.38940294  0.039413048            0   0.34998989    1.5637831     1.953186    4.1806049 
19615000   0.97357856 4.7370718e-05   0.49869618  0.085691043            0   0.41300513    1.4238586    1.9225548    6.7733163 
19620000    1.0191107 -5.2854846e-07   0.45919602  0.035179338            0   0.42401668    1.4904494    1.9496454    1.8955221 
19625000   0.96824139 -4.6568584e-06   0.48053713  0.061592404            0   0.41894473     1.416053    1.8965902    1.4197279 
19630000    1.0153574 5.2468872e-05   0.43715925  0.026035083            0   0.41112416    1.4849602    1.9221195    7.2949319 
19635000    1.0485662 6.7786712e-05   0.37749149  0.021559084            0   0.35593241    1.5335281    1.9110196    8.8523789 
19640000   0.98485959 2.2290711e-06   0.46101622 0.0046854168            0    0.4563308    1.4403571    1.9013734    2.1296302 
19645000   0.96976155 -8.3297055e-05    0.4541853  0.001459094            0   0.45272621    1.4182763    1.8724616   -6.6571569 
19650000   0.94881334 5.7840065e-06   0.44479849  0.028599686            0    0.4161988    1.3876395     1.832438    2.4247203 
19655000   0.88188255 -1.1074823e-05   0.50367561   0.11404215            0   0.38963345    1.2897532    1.7934288   0.65936695 
19660000   0.89382656 -1.6587358e-05   0.49616101  0.063003155            0   0.43315786    1.3072213    1.8033824   0.10483688 
19665000   0.94786681 3.767629e-05   0.41725555 0.0084173977            0   0.40883816    1.3862552    1.8035108    5.6615629 
19670000   0.93537474 -6.1320107e-05   0.43494003            0            0   0.43494003    1.3679856    1.8029256   -4.4762534 
19675000   0.97619958 -2.8735528e-05   0.35731007            0            0   0.35731007    1.4276919     1.785002   -1.1575161 
19680000   0.93856458 1.7451759e-05   0.41602596            0            0   0.41602596    1.3726507    1.7886767    3.5757368 
19685000   0.96663546 2.818857e-06   0.38789507  0.002806619            0   0.38508845    1.4137044    1.8015994    2.0902504 
19690000   0.93728815 -2.8136061e-06   0.44725438  0.021176991            0   0.42607739    1.3707839    1.8180383     1.529925 
19695000   0.96792007 -5.7911509e-06   0.39855439  0.020203007            0   0.37835138    1.4155831    1.8141375    1.2211236 
19700000    1.0342882 -5.3541423e-05   0.31089626 0.0054789709            0   0.30541729    1.5126465    1.8235428    -3.659099 
19705000    1.0004177 -3.3335431e-05   0.34085706  0.022436209            0   0.31842085    1.4631109    1.8039679   -1.6095802 
19710000   0.97547802 5.1073172e-05   0.37846555  0.024341064            0   0.35412449    1.4266366    1.8051022     7.034995 
19715000   0.91267511 9.5339896e-05   0.44691246  0.033064288            0   0.41384817    1.3347874    1.7816998    11.544505 
19720000   0.94438115 8.2117955e-05   0.38213847   0.02820606            0   0.35393241    1.3811574    1.7632959    10.172175 
19725000     1.040699 3.9119766e-05   0.25644624 0.00026206312            0   0.25618417    1.5220223    1.7784685    5.7843326 
19730000    1.0464329 -1.1747772e-05   0.25299468  0.019451703            0   0.23354297    1.5304082    1.7834029   0.58043098 
19735000   0.92616046 -5.181549e-05   0.45475252  0.059469003            0   0.39528352    1.3545097    1.8092622    -3.496644 
19740000   0.85809089 -5.436148e-05   0.53031557  0.075886063            0   0.45442951    1.2549579    1.7852735    -3.781342 
19745000   0.95115272 -8.2236146e-06   0.38157655    0.0370053            0   0.34457125    1.3910609    1.7726374   0.93053927 
19750000    1.0051989 1.3454077e-05    0.2898043  0.033863798            0    0.2559405    1.4701034    1.7599077    3.1376052 
19755000   0.92227909 8.722352e-07    0.4260191  0.051283007            0   0.37473609    1.3488332    1.7748523    1.8641692 
19760000     1.002293 -2.1760974e-06   0.32973794  0.023120161            0   0.30661778    1.4658535    1.7955915    1.5727591 
19765000   0.95046456 -4.4357879e-07   0.38149292 0.0077047198            0    0.3737882    1.3900544    1.7715473    1.7261249 
19770000    1.0146263 7.9903408e-06   0.31083427  0.020853766            0   0.28998051    1.4838909    1.7947252    2.6129361 
19775000    1.0054455 -3.6043132e-05   0.29662296  0.018498114            0   0.27812484     1.470464    1.7670869   -1.9237298 
19780000   0.94790997 -5.67757e-05   0.40815614  0.011856445            0    0.3962997    1.3863183    1.7944745   -4.0193572 
19785000   0.94552995 -5.9906056e-05   0.38056182  0.035183898            0   0.34537792    1.3828376    1.7633994   -4.3709808 
19790000   0.91391491 -4.9562669e-05   0.42183753  0.055099715            0   0.36673781    1.3366006    1.7584381   -3.3167793 
19795000   0.99347698 4.1335102e-05    0.2623858     0.036715            0    0.2256708    1.4529601    1.7153459    5.9480603 
19800000   0.92404492 4.9308777e-05   0.34330366  0.020104037            0   0.32319963    1.3514157    1.6947194    6.7439381 
19805000   0.89638559 -2.3543879e-05   0.36631206  0.036477117            0   0.32983495    1.3109639     1.677276  -0.73361726 
19810000     0.869507 -4.915234e-05   0.40003064  0.036451531            0   0.36357911     1.271654    1.6716846    -3.361515 
19815000   0.98484853 -3.8098388e-05   0.25171237 0.0078432211            0   0.24386915     1.440341    1.6920533   -2.2092216 
19820000   0.88582379 -3.7006117e-05   0.36830758  0.027337507            0   0.34097007    1.2955173    1.6638249   -2.1256015 
19825000   0.90548606 -5.4568927e-05   0.31976204  0.014914311            0   0.30484773    1.3242734    1.6440354   -3.9438227 
19830000   0.86328685 -4.0601166e-05   0.35593127  0.039799327            0   0.31613195     1.262557    1.6184883   -2.5390711 
19835000   0.86453122 -1.0235114e-05   0.32676828  0.048832724            0   0.27793555    1.2643769    1.5911452   0.54306955 
19840000   0.81933986 -4.8660223e-07   0.37797619 0.0049477408            0   0.37302845    1.1982845    1.5762607    1.5264327 
19845000   0.92208293 7.9664723e-06   0.27051043            0            0   0.27051043    1.3485463    1.6190567    2.4348235 
19850000   0.88256595 -4.7294049e-05   0.35770697            0            0   0.35770697    1.2907527    1.6484597    -3.194451 
19855000   0.92725947 -1.2211298e-05   0.30172236            0            0   0.30172236     1.356117    1.6578393   0.40740242 
19860000   0.91510294 4.3701902e-05    0.3525953            0            0    0.3525953     1.338338    1.6909333    6.1660081 
19865000   0.96344515 2.9213814e-05   0.27246542 0.0016694188            0     0.270796    1.4090385     1.681504    4.6729985 
19870000   0.91734697 2.3567847e-05   0.32252804 0.0061086283            0   0.31641941    1.3416199     1.664148    4.0774955 
19875000   0.84218211 -3.234263e-05   0.37987289   0.01326496            0   0.36660794    1.2316913    1.6115642    -1.700321 
19880000   0.84673745 -6.5065091e-05   0.37130691  0.011621405            0   0.35968551    1.2383535    1.6096604   -5.0530048 
19885000   0.88657716 -5.0443021e-05   0.34863676 0.0038937365            0   0.34474302    1.2966191    1.6452559   -3.5201094 
19890000   0.92669806 -6.2292531e-05    0.2807046            0            0    0.2807046    1.3552959    1.6360005   -4.7427547 
19895000   0.85906437 -0.00010947453   0.35917505            0            0   0.35917505    1.2563816    1.6155567   -9.5946357 
19900000   0.82655767 -1.3566298e-05   0.36458774            0            0   0.36458774    1.2088406    1.5734283   0.18423944 
19905000   0.83615447 -1.4519602e-06   0.33539137            0            0   0.33539137    1.2228759    1.5582673    1.4095866 
19910000   0.90606416 -3.2592137e-05   0.26045596 0.0024468911            0   0.25800907    1.3251188    1.5855748     -1.75186 
19915000   0.87746692 2.7429103e-05   0.30650161  0.010473823            0   0.29602779    1.2832954     1.589797    4.3985371 
19920000   0.83774989 7.6741067e-05   0.36708456  0.023049951            0   0.34403461    1.2252092    1.5922938     9.450579 
19925000   0.76252705 8.1530491e-05   0.47520954  0.028210813            0   0.44699872    1.1151958    1.5904053    9.9391276 
19930000   0.89953644 7.6705894e-05   0.28538914   0.02107514            0     0.264314     1.315572    1.6009612    9.4556447 
19935000   0.88980769 3.6535594e-05   0.27846032 0.0027817421            0   0.27567857    1.3013438    1.5798041    5.3210488 
19940000   0.92111098 7.1963885e-06   0.28399538 0.00081686273            0   0.28317852    1.3471248    1.6311202    2.3680304 
19945000   0.84676347 -3.5904394e-06   0.43037351  0.060052533            0   0.37032098    1.2383916    1.6687651    1.3011041 
19950000    0.8982131 -2.7350987e-05   0.36474615  0.038426963            0   0.32631919    1.3136367    1.6783828   -1.1223583 
19955000   0.87982756 -2.9423011e-05   0.40423608  0.027136594            0   0.37709949    1.2867478    1.6909839   -1.3219325 
19960000   0.92512497 1.2362702e-05   0.31076441 0.0031993734            0   0.30756503    1.3529953    1.6637597    2.9297003 
19965000   0.93799545  2.50724e-05   0.32352843 0.00037138499            0   0.32315704    1.3718183    1.6953468    4.2627606 
19970000    0.8977829 1.4263534e-05   0.41652405 0.0026646893            0   0.41385936    1.3130075    1.7295315    3.1901174 
19975000   0.97388798 1.3108346e-05   0.32035607  0.016649505            0   0.30370657    1.4243112    1.7446672    3.0869618 
19980000   0.92385485 1.7300578e-05   0.44500877  0.048312783            0   0.39669598    1.3511377    1.7961465    3.5677256 
19985000    1.0154595 4.3245286e-05   0.35214449  0.019748669            0   0.33239583    1.4851096    1.8372541    6.2655714 
19990000   0.96609307 3.4611242e-05   0.43684096 0.00066929904            0   0.43617166    1.4129111    1.8497521    5.3939433 
19995000   0.99882661 2.7069804e-05   0.37852174 0.0040519638            0   0.37446978    1.4607839    1.8393057    4.6112536 
20000000    1.0179529 -4.3123329e-05   0.37418986 0.0076575299            0   0.36653233    1.4887562     1.862946   -2.5528829 
Loop time of 130.038 on 1 procs for 20000000 steps with 40 atoms

Performance: 132884.152 tau/day, 153801.102 timesteps/s
99.3% CPU use with 1 MPI tasks x no OpenMP threads

MPI task timing breakdown:
Section |  min time  |  avg time  |  max time  |%varavg| %total
---------------------------------------------------------------
Pair    | 5.168      | 5.168      | 5.168      |   0.0 |  3.97
Bond    | 12.983     | 12.983     | 12.983     |   0.0 |  9.98
Neigh   | 18.498     | 18.498     | 18.498     |   0.0 | 14.22
Comm    | 46.604     | 46.604     | 46.604     |   0.0 | 35.84
Output  | 0.32138    | 0.32138    | 0.32138    |   0.0 |  0.25
Modify  | 41.36      | 41.36      | 41.36      |   0.0 | 31.81
Other   |            | 5.103      |            |       |  3.92

Nlocal:        40.0000 ave          40 max          40 min
Histogram: 1 0 0 0 0 0 0 0 0 0
Nghost:        0.00000 ave           0 max           0 min
Histogram: 1 0 0 0 0 0 0 0 0 0
Neighs:        16.0000 ave          16 max          16 min
Histogram: 1 0 0 0 0 0 0 0 0 0

Total # of neighbors = 16
Ave neighs/atom = 0.4
Ave special neighs/atom = 5.7000000
Neighbor list builds = 3621
Dangerous builds = 0
write_restart restart.equil
System init for write_restart ...
WARNING: Communication cutoff 1.4200000000000002 is shorter than a bond length based estimate of 1.8. This may lead to errors. (../comm.cpp:667)
#--------------End of Input file ------------------
Total wall time: 0:02:10
