LAMMPS (29 Oct 2020)
###################### polyelectrolyte complexation ######################
clear

#Initialization
#------------------------------------
units				lj
dimension			3
atom_style			full
boundary			p p p

#Atom Definition
#-------------------------------------
read_restart			restart.equil
Reading restart file ...
  restart file = 29 Oct 2020, LAMMPS = 29 Oct 2020
  restoring atom style full from restart
  orthogonal box = (-80.000000 -80.000000 -80.000000) to (80.000000 80.000000 80.000000)
  1 by 1 by 1 MPI processor grid
  restoring pair style lj/cut from restart
  restoring bond style harmonic from restart
  60 atoms
  59 bonds
Finding 1-2 1-3 1-4 neighbors ...
  special bond factors lj:    0.0      1.0      1.0     
  special bond factors coul:  0.0      0.0      0.0     
     2 = max # of 1-2 neighbors
     2 = max # of 1-3 neighbors
     4 = max # of 1-4 neighbors
     6 = max # of special neighbors
  special bonds CPU = 0.000 seconds
  read_restart CPU = 0.002 seconds

#Force definition
#----------------------------------------------
#Bond definition
bond_style			harmonic
bond_coeff			1 5000 1
#Pair definition
special_bonds	lj 0 1 1
dielectric		80
pair_style		 lj/cut 1.12
pair_modify 		 shift yes
pair_coeff	1 1 1 1 1.12

#Timestep etc
#--------------------------------------------
timestep		0.001
run_style		verlet
velocity		all	create	1	7

#Fix
#---------------------------------------
group polymers type 1
60 atoms in group polymers
fix 1 all nve
fix 2 all langevin 1	1	1	7

#Dump
#------------------------------------------------
compute  1 all gyration
variable  myRg2 equal c_1
variable  i equal step
fix  mythermofile all print 5000 "$i ${myRg2}" file radius_of_gyration.dat screen no

thermo_style		 custom step temp press pe evdwl ecoul ebond ke etotal enthalpy
thermo 	5000
dump	3 all custom 5000 dump.lammpstrj id mol type xu yu zu
run		2000000
Neighbor list info ...
  update every 1 steps, delay 10 steps, check yes
  max neighbors/atom: 2000, page size: 100000
  master list distance cutoff = 1.42
  ghost atom cutoff = 1.42
  binsize = 0.71, bins = 226 226 226
  1 neighbor lists, perpetual/occasional/extra = 1 0 0
  (1) pair lj/cut, perpetual
      attributes: half, newton on
      pair build: half/bin/newton
      stencil: half/bin/3d/newton
      bin: standard
WARNING: Communication cutoff 1.4200000000000002 is shorter than a bond length based estimate of 1.8. This may lead to errors. (../comm.cpp:667)
Per MPI rank memory allocation (min/avg/max) = 54.71 | 54.71 | 54.71 Mbytes
Step Temp Press PotEng E_vdwl E_coul E_bond KinEng TotEng Enthalpy 
 2000000            1 -0.00012130765   0.43871753 0.0060657727            0   0.43265176        1.475    1.9137175   -6.3675516 
 2005000    1.0422493 -4.8432717e-05   0.66752489  0.027635569            0   0.63988932    1.5373177    2.2048426   -1.1014975 
 2010000    0.9816815 -3.3264423e-05   0.35819581            0            0   0.35819581    1.4479802     1.806176  -0.46467523 
 2015000   0.97990594 4.9614537e-06   0.37496037 0.0020105647            0    0.3729498    1.4453613    1.8203216    2.1590235 
 2020000    1.0564053 7.1142464e-06   0.49225681  0.013306636            0   0.47895018    1.5581978    2.0504547    2.5361206 
 2025000    1.0054542 1.9174574e-05   0.45905809 0.0027455372            0   0.45631255     1.483045    1.9421031    3.2510873 
 2030000    1.0126085 -6.7332961e-05   0.56781935  0.024749643            0    0.5430697    1.4935976    2.0614169   -2.5351799 
 2035000   0.91689015 6.8122126e-05   0.39421064 0.0071253561            0   0.38708529     1.352413    1.7466236    6.3970941 
 2040000   0.86270139 2.9359648e-05   0.68693664  0.082910274            0   0.60402637    1.2724845    1.9594212    3.9637065 
 2045000    1.1291542 2.4143379e-05   0.43762656  0.027233581            0   0.41039298    1.6655024    2.1031289    3.7513169 
 2050000   0.93926669 3.0093408e-05   0.45833791  0.066503638            0   0.39183427    1.3854184    1.8437563    3.8981329 
 2055000    1.0195326 -7.9212009e-06   0.52727554  0.016668775            0   0.51060677    1.5038105    2.0310861    1.4903321 
 2060000   0.83994221 2.1271263e-05   0.65666799  0.037483205            0   0.61918479    1.2389148    1.8955827     3.347701 
 2065000    1.1365625 3.0227014e-05   0.49379038  0.021252186            0    0.4725382    1.6764297    2.1702201    4.2337176 
 2070000    1.0028914 8.1847964e-06   0.40836407   0.02461146            0   0.38375261    1.4792648    1.8876289    2.4463777 
 2075000    1.1624703 -4.3117958e-05   0.49337091  0.018854312            0    0.4745166    1.7146437    2.2080146   -0.7355046 
 2080000   0.81813065 7.256612e-06   0.50888646  0.025808308            0   0.48307815    1.2067427    1.7156292    2.2110139 
 2085000    1.0575349 7.6278614e-05   0.45157757  0.014643239            0   0.43693434    1.5598639    2.0114415    7.2187282 
 2090000   0.91715302 -3.370825e-05    0.5137883  0.019097708            0   0.49469059    1.3528007     1.866589  -0.43456088 
 2095000   0.97858896 -2.1756897e-05   0.60478464  0.069099357            0   0.53568529    1.4434187    2.0482034   0.56293251 
 2100000    1.2166861 1.8269797e-05   0.54022662  0.046470414            0    0.4937562     1.794612    2.3348386    3.5820567 
 2105000    1.0516374 -3.4568878e-05   0.62095281  0.024942919            0   0.59600989    1.5511651     2.172118  -0.18778413 
 2110000   0.91127979 -2.3684121e-06   0.39056387   0.02773225            0   0.36283162    1.3441377    1.7347016     1.573018 
 2115000   0.92484096 -3.8338826e-05   0.47019826  0.041891757            0    0.4283065    1.3641404    1.8343387   -0.7829252 
 2120000   0.97730868 2.1483121e-05   0.35286707            0            0   0.35286707    1.4415303    1.7943974    3.2609784 
 2125000    1.0159651 6.8043642e-05   0.47959867  0.021728231            0   0.45787044    1.4985485    1.9781471    6.6232598 
 2130000    0.9457419 -6.8368459e-05   0.45666003   0.01842883            0    0.4382312    1.3949693    1.8516293   -2.8156575 
 2135000   0.99162332 -7.5215776e-05    0.4411209 0.0070657086            0    0.4340552    1.4626444    1.9037653    -3.230965 
 2140000    0.9950482 -5.8430053e-06   0.41729415  0.023591433            0   0.39370272    1.4676961    1.8849902    1.4861077 
 2145000     1.018687 -1.346478e-06   0.48853625  0.018312225            0   0.47022402    1.5025634    1.9910996    1.8991801 
 2150000    0.9380629 4.0858398e-05   0.65667983 0.0074457508            0   0.64923408    1.3836428    2.0403226    4.8295892 
 2155000   0.94211082 -8.2811266e-05   0.65584427  0.017702972            0    0.6381413    1.3896135    2.0454577   -3.6077914 
 2160000    1.0928785 -9.8709134e-05   0.53606053  0.024492299            0   0.51156823    1.6119958    2.1480563   -4.5904873 
 2165000   0.79720307 -8.5042058e-05   0.57875421 2.1590765e-05            0   0.57873261    1.1758745    1.7546287   -4.0509091 
 2170000     1.113116 7.7652006e-05   0.46761898  0.013607023            0   0.45401196    1.6418462    2.1094651    7.4105087 
 2175000    1.1614809 -1.263524e-05    0.5908976  0.016262784            0   0.57463482    1.7131843    2.3040819    1.4415162 
 2180000   0.90502117 -6.2816852e-05   0.49837983 0.0020332366            0   0.49634659    1.3349062    1.8332861    -2.455011 
 2185000   0.90390115 -6.259306e-05    0.3897874 0.0015194114            0   0.38826799    1.3332542    1.7230416    -2.549978 
 2190000    1.0110371 -0.00010711034   0.58260015 0.00023389768            0   0.58236625    1.4912797    2.0738799   -5.2381858 
 2195000     1.029869 6.0878762e-06   0.70518542  0.043697719            0    0.6614877    1.5190568    2.2242422    2.6398412 
 2200000   0.89658308 3.1663146e-05   0.47713348  0.028493769            0   0.44863971      1.32246    1.7995935     3.961131 
 2205000    1.0349941 -2.4001525e-05    0.4008288 0.0088105794            0   0.39201822    1.5266163    1.9274451   0.28894106 
 2210000    1.1017602 -5.1145697e-05   0.50943091   0.05094779            0   0.45848312    1.6250962    2.1345271   -1.3570191 
 2215000    0.8524526 1.2835357e-05   0.55812207  0.012783671            0    0.5453384    1.2573676    1.8154897    2.6917167 
 2220000    1.0071715 1.8746559e-05   0.55070224 0.0024511252            0   0.54825112    1.4855779    2.0362802    3.3160453 
 2225000    1.1247426 2.1260033e-05    0.4842044  0.001540156            0   0.48266424    1.6589953    2.1431997    3.5945513 
 2230000   0.98414205 -5.7118124e-05   0.68206059 0.00051452561            0   0.68154607    1.4516095    2.1336701   -1.7655938 
 2235000    1.0985779 9.1567673e-05     0.652436 0.0021969923            0   0.65023901    1.6204024    2.2728384    8.5238583 
 2240000   0.74399152 -1.4006545e-05   0.50461836  0.033287455            0   0.47133091    1.0973875    1.6020059   0.64582571 
 2245000   0.97071563 6.1416147e-05   0.42819017 0.00024314275            0   0.42794702    1.4318056    1.8599957    6.0526713 
 2250000     1.104959 -1.2552591e-05   0.35629382  0.011148015            0   0.34514581    1.6298146    1.9861084    1.1291848 
 2255000    1.1805675 -0.00010146311   0.53665555  0.016311641            0   0.52034391    1.7413371    2.2779926   -4.6485555 
 2260000   0.90788723 3.4790284e-05   0.53085874 0.00087183144            0   0.52998691    1.3391337    1.8699924    4.2450091 
 2265000   0.96529318 1.1377818e-05   0.42272299  0.013474568            0   0.40924842    1.4238074    1.8465304    2.6232561 
 2270000   0.92054933 0.00014946387   0.68987313   0.07028145            0   0.61959168    1.3578103    2.0476834    12.251084 
 2275000    1.0905231 -6.9662391e-06   0.44770192  0.022964899            0   0.42473702    1.6085215    2.0562235    1.5806615 
 2280000     1.042067 2.9835687e-05   0.65501972  0.015862424            0   0.63915729    1.5370488    2.1920685    4.2288514 
 2285000    1.2251579 -2.3867613e-05   0.52208454 0.0070828741            0   0.51500166    1.8071079    2.3291925   0.69983007 
 2290000   0.88241555 -8.8091266e-05   0.55748476 0.0043654344            0   0.55311932    1.3015629    1.8590477   -4.1546494 
 2295000   0.99571064 3.8429195e-05   0.55133662  0.021490574            0   0.52984604    1.4686732    2.0200098    4.6434429 
 2300000    1.1792156 -0.00015049366   0.48834414  0.028872314            0   0.45947182     1.739343    2.2276871   -8.0460135 
 2305000    1.1701146 -4.2256753e-06   0.58215347  0.010022466            0     0.572131    1.7259191    2.3080726    2.0195998 
 2310000    1.0208677 0.00010169361   0.36591444            0            0   0.36591444    1.5057798    1.8716942    8.8139777 
 2315000    1.0824218 0.00012790977   0.65999124 0.0041882243            0   0.65580302    1.5965721    2.2565634    10.988537 
 2320000    1.1316626 -0.00012805072   0.45985295 0.0081887111            0   0.45166424    1.6692023    2.1290553   -6.6125407 
 2325000    1.0301865 -1.9378377e-05   0.49747368  0.020508672            0   0.47696501    1.5195251    2.0169988   0.69410159 
 2330000    1.0449867 -3.3422225e-05   0.59248941 0.0062571818            0   0.58623223    1.5413554    2.1338448  -0.14777906 
 2335000    1.0241025 1.7779781e-05   0.69818468 0.0050346492            0   0.69315003    1.5105512    2.2087359    3.4225023 
 2340000   0.98253901 -2.8575121e-05   0.38978622 0.0065017212            0    0.3832845     1.449245    1.8390313  -0.11169699 
 2345000   0.87065203 -1.7121575e-05   0.69626704  0.026404945            0   0.66986209    1.2842118    1.9804788   0.81164595 
 2350000    1.1777653 7.9178654e-05   0.47433203  0.013668501            0   0.46066353    1.7372038    2.2115359    7.6167986 
 2355000    1.1661905 -7.7484657e-05   0.47390439  0.029760357            0   0.44414403     1.720131    2.1940354   -3.0955838 
 2360000    1.1068119 -0.00010950962   0.50176085 0.0023210078            0   0.49943984    1.6325475    2.1343084   -5.3415482 
 2365000    1.0134191 -2.840637e-05     0.487071 0.0075662888            0   0.47950471    1.4947932    1.9818642   0.04265603 
 2370000   0.99330493 4.6177559e-05   0.49468654  0.020108939            0    0.4745776    1.4651248    1.9598113    5.1121994 
 2375000    1.0905948 8.7653688e-05   0.47818518  0.010782841            0   0.46740234    1.6086273    2.0868125    8.0706376 
 2380000   0.92379155 1.0731178e-05    0.3917395  0.021516398            0   0.37022311    1.3625925     1.754332    2.4869138 
 2385000   0.86226271 -3.1143658e-05   0.44076802 0.00064013705            0   0.44012789    1.2718375    1.7126055  -0.41346816 
 2390000   0.93253919 5.7069737e-05   0.46434448 0.0034416389            0   0.46090284    1.3754953    1.8398398    5.7358005 
 2395000    1.1461957 0.0002140076   0.57752707  0.024287233            0   0.55323984    1.6906387    2.2681658    16.877751 
 2400000    1.0563066 4.5160574e-05   0.52714939  0.018725603            0   0.50842379    1.5580523    2.0852017    5.1681635 
 2405000    1.2465112 9.7234344e-05   0.39356223 0.0014572825            0   0.39210494     1.838604    2.2321663    8.8700308 
 2410000    1.0114945 2.6425079e-05   0.46849345  0.003166968            0   0.46532648    1.4919544    1.9604479    3.7643999 
 2415000    1.2740991 -9.7360601e-05   0.50293332 0.0071999242            0   0.49573339    1.8792961    2.3822294   -4.2642543 
 2420000   0.86918654 9.463903e-05   0.55106204 0.00086069614            0   0.55020135    1.2820501    1.8331122    8.2938033 
 2425000    1.0842105 -8.4451959e-06   0.51281479  0.056114756            0   0.45670003    1.5992105    2.1120253    1.5354999 
 2430000    1.0201913 -5.8446394e-05   0.56318839   0.03786686            0   0.52532153    1.5047822    2.0679706   -1.9219699 
 2435000   0.85902287 -0.00010840905   0.51952643  0.043484287            0   0.47604215    1.2670587    1.7865852   -5.6141395 
 2440000      1.01987 0.00011219177     0.602836  0.033049165            0   0.56978683    1.5043082    2.1071442    9.7661024 
 2445000     1.054479 1.6692617e-05   0.41182771  0.032867793            0   0.37895992    1.5553565    1.9671842    3.1067336 
 2450000    1.0723006 3.7006313e-05   0.51105938 0.0078465011            0   0.50321288    1.5816434    2.0927028    4.6190005 
 2455000   0.85628166 -4.058876e-05   0.60541828  0.058798554            0   0.54661973    1.2630155    1.8684337  -0.90242563 
 2460000    1.1059157 -2.3814922e-05   0.65781015  0.012838636            0   0.64497152    1.6312257    2.2890359   0.66327051 
 2465000   0.98687508 3.8761056e-05   0.59530321  0.021467138            0   0.57383607    1.4556407    2.0509439     4.697032 
 2470000    1.1272843 1.4646501e-05   0.49724251  0.054763244            0   0.44247927    1.6627444    2.1599869    3.1598547 
 2475000    0.8738016 5.7086424e-05   0.56500448  0.013556457            0   0.55144803    1.2888574    1.8538618    5.7509617 
 2480000    1.1229581 -2.7207282e-05    0.4929083 0.00082458101            0   0.49208372    1.6563633    2.1492716   0.29192112 
 2485000    1.0486689 -5.8977335e-05   0.38851914  0.026582679            0   0.36193646    1.5467866    1.9353057   -2.0908803 
 2490000    1.0213408 4.9229069e-05   0.48384362 0.0053557065            0   0.47848792    1.5064777    1.9903213    5.3510258 
 2495000   0.98549856 3.4938369e-05   0.72335234  0.068000407            0   0.65535193    1.4536104    2.1769627    4.5620887 
 2500000   0.97629638 3.8304259e-05    0.4768643 0.0060869158            0   0.47077738    1.4400372    1.9169015    4.5318056 
 2505000   0.83697751 -1.6331578e-05   0.55111357  0.045072605            0   0.50604096    1.2345418    1.7856554     0.670753 
 2510000   0.98338067 8.4734728e-05   0.66479366  0.039769988            0   0.62502367    1.4504865    2.1152801    7.8998375 
 2515000   0.94809977 7.846327e-05   0.44910351  0.025399044            0   0.42370447    1.3984472    1.8475507    7.2039765 
 2520000    1.1261805 -2.760278e-05   0.49961947 0.0016952537            0   0.49792422    1.6611162    2.1607357    0.2763859 
 2525000   0.98632615 -6.1774429e-05   0.71246826  0.062645869            0   0.64982239    1.4548311    2.1672993    -2.049835 
 2530000     1.153892 -5.515214e-05   0.76123308  0.012784649            0   0.74844843    1.7019906    2.4632237    -1.301829 
 2535000   0.89102593 -9.0396954e-05   0.38640145            0            0   0.38640145    1.3142633    1.7006647    -4.470434 
 2540000   0.86968358 -0.00012134557   0.48873226 0.0079016829            0   0.48083058    1.2827833    1.7715155   -6.5123423 
 2545000   0.92206689 -7.7633774e-05   0.63458548  0.036250664            0   0.59833481    1.3600487    1.9946341   -3.3051648 
 2550000   0.87745527 1.3389999e-06   0.40341192  0.027188308            0   0.37622361    1.2942465    1.6976584    1.7890675 
 2555000    1.1130156 8.2733448e-05    0.6556282  0.031581457            0   0.62404674     1.641698    2.2973262    7.9452629 
 2560000    1.0141772 -6.1775532e-05   0.61580477   0.02540397            0    0.5904008    1.4959114    2.1117162   -2.1054935 
 2565000   0.80938208 4.5704165e-06   0.56990562  0.081969851            0   0.48793577    1.1938386    1.7637442    2.0757513 
 2570000    1.0689442 4.5647337e-05   0.39774103  0.014535037            0   0.38320599    1.5766927    1.9744337    5.0906253 
 2575000     1.237525 -3.4020402e-05   0.50106721 0.0013713256            0   0.49969588    1.8253493    2.3264165 0.0039570778 
 2580000    1.0237186 -3.7146153e-06   0.51762645 0.0033864992            0   0.51423995    1.5099849    2.0276113    1.7740269 
 2585000    1.1749445 -3.6138398e-05    0.4352106  0.017725197            0    0.4174854    1.7330432    2.1682538  -0.29879418 
 2590000   0.99058394 -4.1044663e-05   0.52667686 0.0045251844            0   0.52215167    1.4611113    1.9877882  -0.81419416 
 2595000     1.166119 -1.0603429e-05   0.38529651  0.003517932            0   0.38177858    1.7200256    2.1053221    1.3814614 
 2600000    1.0456203 3.8170561e-05   0.54365721   0.10595787            0   0.43769934    1.5422899    2.0859471    4.6917241 
 2605000   0.96880305 -4.9664448e-05   0.60705133  0.025140832            0    0.5819105    1.4289845    2.0360358   -1.3543905 
 2610000   0.89776211 -1.339175e-05   0.42675842  0.030228809            0   0.39652961    1.3241991    1.7509575   0.83674742 
 2615000    1.0741903 -0.0001357595   0.55661029 0.0044001665            0   0.55221013    1.5844307     2.141041   -7.1268072 
 2620000    1.1082643 6.1980857e-05    0.4153165  0.012386601            0    0.4029299    1.6346898    2.0500063    6.2812328 
 2625000   0.84960138 5.5240956e-05    0.4201837  0.028113387            0   0.39207032     1.253162    1.6733457    5.4444617 
 2630000    1.2004583 -1.0690991e-05   0.55986888  0.050149182            0   0.50971969     1.770676    2.3305449    1.6007066 
 2635000   0.97886125 -1.1740605e-05   0.60223859  0.023194463            0   0.57904412    1.4438203    2.0460589    1.2445669 
 2640000   0.99551792 0.00010421349   0.68802507  0.075085475            0   0.61293959    1.4683889     2.156414    9.2707213 
 2645000    1.1009106 -5.6113523e-05   0.52564927  0.030627681            0   0.49502159    1.6238431    2.1494924   -1.6811908 
 2650000     1.001019 5.1116662e-05    0.4322771  0.029455545            0   0.40282156    1.4765031    1.9087802    5.3983443 
 2655000   0.95810714 4.4201257e-05   0.59998038 0.0043752503            0   0.59560513     1.413208    2.0131884    5.0306609 
 2660000   0.90500532 3.2425345e-05   0.45364756   0.03449327            0   0.41915429    1.3348828    1.7885304    4.0021006 
 2665000    1.1133549 -6.5769842e-05   0.44871121   0.01738206            0   0.43132915    1.6421985    2.0909097   -2.3989782 
 2670000    1.0339445 5.2246224e-05   0.43567997   0.10217799            0   0.33350199    1.5250681    1.9607481    5.5274237 
 2675000   0.94456769 5.9417935e-05   0.47941491  0.018192225            0   0.46122269    1.3932373    1.8726522    5.9289166 
 2680000   0.83504583 0.00015509014   0.60455655  0.054942765            0   0.54961378    1.2316926    1.8362492    12.423736 
 2685000   0.88847541 -3.2207547e-05    0.4505097 0.0060445234            0   0.44446517    1.3105012    1.7610109  -0.43769092 
 2690000   0.96213428 -0.00013433776   0.61766033  0.028693143            0   0.58896719    1.4191481    2.0368084   -7.1339825 
 2695000   0.99663894 9.1531721e-06   0.47999651  0.021304518            0   0.45869199    1.4700424    1.9500389    2.5748955 
 2700000   0.79623428 -0.00015006529   0.45390169 0.0047816235            0   0.44912006    1.1744456    1.6283472   -8.6161101 
 2705000    1.1700386 -1.5873551e-05   0.39579689 0.0020143118            0   0.39378258    1.7258069    2.1216038    1.0379694 
 2710000   0.97612908 -1.3078284e-05   0.55511114  0.011666797            0   0.54344435    1.4397904    1.9949015    1.1020907 
 2715000   0.91473409 4.6311462e-05   0.39278318  0.018946108            0   0.37383707    1.3492328     1.742016    4.9035451 
 2720000   0.95947232 -1.8288208e-05   0.30336894  0.014824745            0    0.2885442    1.4152217    1.7185906   0.47011563 
 2725000    1.0759093 7.0213483e-05   0.59635672  0.020179485            0   0.57617723    1.5869663     2.183323    6.9765634 
 2730000    1.1628381 -1.4748874e-05   0.61880669 0.0089138034            0   0.60989289    1.7151862    2.3339929    1.3271365 
 2735000    1.1072738 7.1797441e-05   0.68587324  0.019981127            0   0.66589211    1.6332288    2.3191021    7.2204741 
 2740000    1.0421878 -6.2066387e-06   0.51103863 0.0093727823            0   0.50166585     1.537227    2.0482656    1.6245591 
 2745000   0.94276006 -7.7487588e-05   0.57928946 0.0034149919            0   0.57587447    1.3905711    1.9698605   -3.3199588 
 2750000   0.98896143 8.013723e-05   0.58598459  0.025388286            0   0.56059631    1.4587181    2.0447027    7.5154043 
 2755000    1.0682883 7.2165825e-05   0.45022465 0.00068741193            0   0.44953724    1.5757253    2.0259499    6.9524702 
 2760000    1.1198171 8.8881861e-05   0.61511851  0.078758005            0   0.53636051    1.6517303    2.2668488    8.3345172 
 2765000    1.0729197 1.4297255e-05    0.4663933 0.0060631886            0   0.46033012    1.5825566    2.0489499    3.0249758 
 2770000   0.92583626 3.8755762e-05   0.43150921  0.014545331            0   0.41696388    1.3656085    1.7971177    4.4428444 
 2775000    1.0459236  2.30724e-05   0.42451613   0.01468416            0   0.40983197    1.5427373    1.9672534    3.5423292 
 2780000   0.99122622 -9.0888813e-05   0.45961917   0.02386639            0   0.43575278    1.4620587    1.9216778   -4.2829985 
 2785000    1.0905821 -2.368817e-07   0.42146382  0.042238469            0   0.37922535    1.6086086    2.0300724    2.0139013 
 2790000    1.0287918 1.1798995e-05   0.32297057  0.022671187            0   0.30029938     1.517468    1.8404385    2.6459166 
 2795000   0.92549177 -3.3818704e-05    0.4886569  0.011924213            0   0.47673269    1.3651004    1.8537573  -0.45493295 
 2800000   0.93572012 1.9999404e-05   0.45651198  0.014582887            0    0.4419291    1.3801872    1.8366992    3.2019918 
 2805000   0.92755997 -0.00011196889   0.54416792  0.010987262            0   0.53318066     1.368151    1.9123189   -5.7314237 
 2810000   0.99578124 3.4436951e-05   0.52862437 0.00016345514            0   0.52846091    1.4687773    1.9974017    4.3482975 
 2815000    1.0210432 -0.00010994889   0.53867736  0.027160568            0   0.51151679    1.5060387     2.044716   -5.4611282 
 2820000   0.96287021 -1.877851e-05   0.45482233   0.03810043            0    0.4167219    1.4202336    1.8750559   0.59310962 
 2825000   0.84006283 -1.578477e-05   0.64029313  0.031974552            0   0.60831858    1.2390927    1.8793858   0.80181216 
 2830000   0.96197684 6.4107927e-05   0.50916124  0.012095086            0   0.49706615    1.4189158    1.9280771    6.3045115 
 2835000    1.1455752 5.1847836e-05   0.49035123  0.017908932            0    0.4724423    1.6897234    2.1800746    5.7195536 
 2840000    1.0663107 -9.7306956e-05   0.54870175   0.09351343            0   0.45518832    1.5728083      2.12151   -4.5213115 
 2845000    1.2495174 5.5524906e-05   0.59533732  0.021648604            0   0.57368872    1.8430382    2.4383755    6.2288757 
 2850000   0.88297683 6.3887036e-06   0.48218252  0.014036729            0   0.46814579    1.3023908    1.7845733    2.2207088 
 2855000    1.0170059 1.1077197e-06   0.47072101  0.049846273            0   0.42087474    1.5000837    1.9708047     2.046425 
 2860000   0.93970897 -4.3754406e-05   0.53155348  0.011468079            0    0.5200854    1.3860707    1.9176242   -1.0693432 
 2865000    1.1842119 -4.6321038e-05   0.48722309 0.0067961267            0   0.48042696    1.7467126    2.2339357  -0.92824717 
 2870000    1.0723168 -6.020241e-05   0.36982416  0.012177765            0   0.35764639    1.5816673    1.9514914   -2.1583264 
 2875000    0.7482231 -7.4881788e-06   0.43479447  0.025116638            0   0.40967783    1.1036291    1.5384235    1.0272305 
 2880000   0.94105026 2.2029414e-05   0.42974062 0.0037846648            0   0.42595595    1.3880491    1.8177897    3.3216644 
 2885000    1.1465694 -9.2326777e-05   0.49883212 0.0024773799            0   0.49635474    1.6911898     2.190022   -4.1128194 
 2890000   0.92465187 1.6494194e-05   0.37193925 0.0094162622            0   0.36252299    1.3638615    1.7358008    2.8618044 
 2895000   0.97244105 -5.10202e-05   0.61655901  0.094599579            0   0.52195944    1.4343505    2.0509096   -1.4320694 
 2900000   0.80383379 5.051859e-05   0.60494677  0.014233624            0   0.59071314    1.1856548    1.7906016    5.2393373 
 2905000   0.84151196 -2.7998133e-05   0.56541563  0.036017156            0   0.52939847    1.2412301    1.8066458  -0.10469346 
 2910000    0.8533239 -1.6028139e-05    0.5367594  0.015800572            0   0.52095883    1.2586528    1.7954121   0.70122452 
 2915000    1.0371773 -3.0959701e-05   0.61154607 0.0096496227            0   0.60189645    1.5298365    2.1413825  0.027866963 
 2920000     1.074441 0.00011322313    0.3934316 0.0054630843            0   0.38796852    1.5848005    1.9782321     9.707598 
 2925000    1.0994607 0.00010133619   0.43045756  0.018710335            0   0.41174722    1.6217045     2.052162    8.9700461 
 2930000   0.99614765 -1.4462083e-05   0.45344461  0.036517146            0   0.41692746    1.4693178    1.9227624   0.93548423 
 2935000    1.1744402 -9.3448267e-06   0.63487435  0.022969369            0   0.61190499    1.7322993    2.3671736    1.7292334 
 2940000   0.99450588 -1.8462159e-06   0.52804992  0.032259123            0   0.49579079    1.4668962    1.9949461    1.8689111 
 2945000    1.1611648 -1.4846537e-05   0.56579955  0.012222254            0    0.5535773     1.712718    2.2785176     1.264994 
 2950000    0.8790068 0.0001186275   0.57229446  0.055893187            0   0.51640127     1.296535    1.8688295    9.9671338 
 2955000   0.99515288 -4.9480417e-05    0.4567296 0.0067045372            0   0.45002506    1.4678505    1.9245801    -1.453283 
 2960000    1.1568644 6.4862076e-05    0.5439425   0.01305036            0   0.53089214    1.7063751    2.2503176    6.6782353 
 2965000    1.0003953 -1.0692319e-05   0.44766656 0.00045420748            0   0.44721235    1.4755831    1.9232496    1.1933206 
 2970000    1.0820517 5.8930403e-05   0.37733959  0.015849384            0   0.36149021    1.5960263    1.9733659    5.9963481 
 2975000    1.0602941 -0.0001035758   0.43310576  0.020451714            0   0.41265404    1.5639337    1.9970395   -5.0737348 
 2980000    1.3475177 4.5531884e-05   0.54439252  0.060313585            0   0.48407893    1.9875886    2.5319811     5.640291 
 2985000   0.93750788 1.5146061e-05    0.8191341  0.013983063            0   0.80515104    1.3828241    2.2019582    3.2359293 
 2990000    1.1453353 -3.4322694e-05   0.71488045  0.054231503            0   0.66064894    1.6893696      2.40425  0.061154112 
 2995000    1.0637898 4.2785926e-06   0.35645865  0.063662151            0    0.2927965      1.56909    1.9255486    2.2176339 
 3000000   0.97067615 6.6264643e-05   0.41026343 0.0020419635            0   0.40822147    1.4317473    1.8420108     6.365677 
 3005000   0.98659028 1.1568194e-05   0.53544604   0.03614344            0    0.4993026    1.4552207    1.9906667    2.7803887 
 3010000   0.95972158 -2.5477034e-05   0.61408938  0.028132262            0   0.58595712    1.4155893    2.0296787   0.29044648 
 3015000   0.98606447 -7.1320621e-05   0.62637767  0.043692919            0   0.58268475    1.4544451    2.0808228   -2.7879983 
 3020000    1.0877183 6.1177434e-05    0.4012912 0.0066453402            0   0.39464586    1.6043845    2.0056757    6.1820551 
 3025000   0.79249193 -4.9056952e-06   0.50391254  0.013835668            0   0.49007688    1.1689256    1.6728381    1.3379427 
 3030000    0.8007229 -0.00016563994   0.57353564  0.024166829            0   0.54936881    1.1810663    1.7546019   -9.5530846 
 3035000   0.99086979 -7.5006377e-05   0.37256855 0.00096335272            0   0.37160519    1.4615329    1.8341015   -3.2863338 
 3040000    1.3427262 -4.3935879e-05   0.54098552  0.030597684            0   0.51038784    1.9805211    2.5215067  -0.47784934 
 3045000   0.92464498 -2.5965233e-05   0.45266351 0.0074926425            0   0.44517086    1.3638513    1.8165149   0.04395496 
 3050000    1.0908826 -1.801641e-05   0.69050739  0.016310791            0    0.6741966    1.6090518    2.2995592    1.0696389 
 3055000    1.1206677 6.3652163e-05   0.60837924  0.040925951            0   0.56745328    1.6529849    2.2613641    6.6066851 
 3060000   0.96311772 6.9665899e-06   0.45854487 0.0074965595            0   0.45104831    1.4205986    1.8791435    2.3547294 
 3065000    1.0213316 6.8783066e-05   0.46105238 1.4831456e-05            0   0.46103755    1.5064642    1.9675165    6.6631072 
 3070000    1.1637074 -4.2613327e-05   0.48913996  0.073460159            0    0.4156798    1.7164685    2.2056084  -0.70346135 
 3075000   0.89927243 -1.510932e-05   0.49382527  0.002882097            0   0.49094317    1.3264268    1.8202521    0.7887892 
 3080000    1.0753895 7.0004603e-05   0.29571923            0            0   0.29571923    1.5861995    1.8819187    6.6608996 
 3085000    1.1506699 -4.2474962e-05   0.42500201  0.013792214            0   0.41120979    1.6972381    2.1222401  -0.77738398 
 3090000    1.0045552 0.00010945064   0.47695681 0.0060253694            0   0.47093144    1.4817189    1.9586758    9.4305062 
 3095000   0.84421348 5.6461427e-07   0.43247493 0.0077222747            0   0.42475266    1.2452149    1.6776898    1.7162342 
 3100000   0.91587492 1.2775082e-05   0.45872448   0.01374718            0    0.4449773    1.3509155      1.80964    2.6817522 
 3105000    1.0741732 -1.8092642e-05   0.51800184  0.057734033            0    0.4602678    1.5844054    2.1024073    0.8672829 
 3110000   0.77622996 -0.00015140789   0.50922106   0.01826422            0   0.49095684    1.1449392    1.6541602    -8.681952 
 3115000   0.86847296 -7.86492e-05   0.52996665  0.015843645            0   0.51412301    1.2809976    1.8109643   -3.5581545 
 3120000    1.0368075 -0.00012988449   0.56211161  0.031383496            0   0.53072811     1.529291    2.0914027   -6.7753785 
 3125000   0.94448286 2.4256412e-05   0.43409997            0            0   0.43409997    1.3931122    1.8272122    3.4831166 
 3130000    1.0548925 7.8735119e-05   0.68610052  0.065888208            0   0.62021231    1.5559664     2.242067    7.6170511 
 3135000   0.91933905 -3.8436426e-06    0.5174041 0.00087692748            0   0.51652717    1.3560251    1.8734292    1.6110365 
 3140000   0.97798481 -2.7777331e-05   0.43516845 0.0029809764            0   0.43218747    1.4425276     1.877696 -0.018569781 
 3145000   0.90641836 -4.6008337e-05   0.49510608  0.028701493            0   0.46640459    1.3369671    1.8320732   -1.3087627 
 3150000      1.10628 3.1867841e-06   0.39211266  0.023671531            0   0.36844113     1.631763    2.0238757    2.2414268 
 3155000    1.0329502 1.7353601e-05   0.52595344  0.012835321            0   0.51311812    1.5236016     2.049555    3.2342276 
 3160000   0.90366734 -3.9901721e-06   0.44085276  0.039455333            0   0.40139743    1.3329093    1.7737621    1.5013663 
 3165000   0.94495249 0.00013434222   0.51837007  0.025478756            0   0.49289132    1.3938049     1.912175    11.083271 
 3170000    0.9279247 7.9987486e-05   0.50417852            0            0   0.50417852    1.3686889    1.8728675    7.3333465 
 3175000    1.0426652 6.8273902e-05   0.54703606 0.0095789457            0   0.53745712    1.5379312    2.0849673     6.745799 
 3180000    0.8959673 6.1168834e-05   0.37863934 0.00046667872            0   0.37817266    1.3215518    1.7001911    5.8759835 
 3185000    1.0716749 1.6844614e-05   0.56341256  0.056493941            0   0.50691862    1.5807205    2.1441331    3.2940587 
 3190000    1.0679362 0.0002140492   0.47016403 0.0074212134            0   0.46274281    1.5752059      2.04537    16.657795 
 3195000    1.0380062 9.3087067e-06   0.71710502  0.043846145            0   0.67325888    1.5310591    2.2481642    2.8836385 
 3200000    1.0675928 5.4569391e-05   0.46168772 0.0079509825            0   0.45373674    1.5746994    2.0363872    5.7616576 
 3205000    1.0016036 0.00011727584   0.56264536  0.025419156            0   0.53722621    1.4773654    2.0400107    10.046042 
 3210000     1.086697 -3.7472929e-05   0.46754602 0.0069331294            0   0.46061289    1.6028781    2.0704242  -0.48772779 
 3215000    1.0409242 8.5020381e-05    0.6163445  0.050399896            0   0.56594461    1.5353633    2.1517078    7.9557657 
 3220000   0.99744428 -3.8262347e-05   0.48933431  0.034094395            0   0.45523992    1.4712303    1.9605646  -0.65147827 
 3225000    1.1773041 1.2735326e-05   0.44707006  0.067454172            0   0.37961589    1.7365236    2.1835936    3.0529918 
 3230000    1.1398412 -3.9596317e-05    0.5898087 0.0047836539            0   0.58502505    1.6812658    2.2710745  -0.43203403 
 3235000    1.0140057 -1.372683e-05   0.53976819   0.01859059            0    0.5211776    1.4956585    2.0354267    1.0983417 
 3240000   0.84120999 6.8228787e-06   0.45565481  0.021286683            0   0.43436812    1.2407847    1.6964395    2.1622147 
 3245000    1.1768577 -4.6484549e-05   0.62238113 0.0014046629            0   0.62097647    1.7358651    2.3582462    -0.815099 
 3250000   0.95932308 -6.0674116e-05   0.59568314  0.018863404            0   0.57681974    1.4150015    2.0106847    -2.131335 
 3255000    1.1432306 -4.0370447e-05   0.55009437  0.013224686            0   0.53686968    1.6862652    2.2363595  -0.51959633 
 3260000   0.82019026 5.056908e-05   0.59945353  0.030009727            0    0.5694438    1.2097806    1.8092342    5.2614167 
 3265000    1.1436934 1.9279405e-05   0.42064582  0.027316032            0   0.39332978    1.6869478    2.1075936    3.4237343 
 3270000    1.0862105 -0.00011727591   0.55209596  0.049299686            0   0.50279628    1.6021604    2.1542564   -5.8517789 
 3275000   0.98548655 2.5215469e-05   0.39374719 0.0039692153            0   0.38977798    1.4535927    1.8473399    3.5687159 
 3280000   0.98840538 -0.00012968996   0.46950497 0.0071599852            0   0.46234498    1.4578979    1.9274029   -6.9260987 
 3285000   0.86980258 -4.7031481e-05   0.41370128 0.0097873687            0   0.40391391    1.2829588    1.6966601   -1.5140224 
 3290000     1.062033 8.8982154e-05   0.49719748            0            0   0.49719748    1.5664987    2.0636962    8.1382113 
 3295000    1.2806365 -0.00012247521   0.61636442  0.044716005            0   0.57164841    1.8889388    2.5053033   -5.8556712 
 3300000     1.046287 -2.1570657e-06   0.46341585 0.0097882388            0   0.45362761    1.5432733    2.0066892    1.8594335 
 3305000    1.0281412 8.7226217e-05   0.36893237 0.0013529768            0    0.3675794    1.5165082    1.8854406    7.8400837 
 3310000    1.1108659 1.9196013e-05   0.59818075 0.0082001341            0   0.58998062    1.6385272    2.2367079    3.5471557 
 3315000   0.99945509 -7.9261747e-05   0.54601154  0.015590172            0   0.53042136    1.4741963    2.0202078   -3.3907275 
 3320000   0.88391415 -8.5201938e-05   0.63087564  0.080680577            0   0.55019507    1.3037734     1.934649   -3.8818033 
 3325000    1.0976042 -7.3159873e-05   0.50790717  0.033438545            0   0.47446862    1.6189662    2.1268734   -2.8675073 
 3330000    1.0360774 -6.1621078e-05   0.56383275  0.044505234            0   0.51932751    1.5282142     2.092047   -2.1146186 
 3335000    1.1468573 7.1426422e-05   0.48011273 0.00075100231            0   0.47936173    1.6916146    2.1717273    7.0477711 
 3340000    1.0921075 -2.1563878e-05   0.72110879  0.025068131            0   0.69604066    1.6108585    2.3319673   0.85987328 
 3345000    1.0724743 -9.1986372e-06   0.50503383            0            0   0.50503383    1.5818995    2.0869334    1.4589731 
 3350000   0.95452043 4.1642129e-05   0.45994579  0.030033709            0   0.42991208    1.4079176    1.8678634    4.7106327 
 3355000   0.89507909 2.0802791e-06   0.48634379  0.020393293            0    0.4659505    1.3202417    1.8065854    1.9485992 
 3360000   0.93858929 -9.0949502e-05   0.44954641  0.025812943            0   0.42373347    1.3844192    1.8339656   -4.3748537 
 3365000   0.81612795 4.8033816e-05   0.56323463  0.024509688            0   0.53872494    1.2037887    1.7670234    5.0461319 
 3370000   0.95235748 5.0250448e-05   0.53543185 0.0036284453            0    0.5318034    1.4047273    1.9401591    5.3705897 
 3375000    1.0046372 -7.5150126e-05   0.46173807  0.013619404            0   0.44811867    1.4818398    1.9435779   -3.1866707 
 3380000   0.88379134 1.0893079e-05    0.5050798 0.0010625838            0   0.50401722    1.3035922     1.808672    2.5523062 
 3385000   0.86020667 3.2143165e-05   0.42552989  0.021966869            0   0.40356302    1.2688048    1.6943347    3.8886415 
 3390000   0.92471436 5.6614875e-05   0.51436911  0.019814108            0     0.494555    1.3639537    1.8783228    5.7432316 
 3395000   0.91396199 6.8128467e-05   0.55438979  0.020435588            0    0.5339542    1.3480939    1.9024837    6.5533871 
 3400000   0.98225944 -0.00013852697   0.64899035 0.0076959514            0    0.6412944    1.4488327     2.097823   -7.3589512 
 3405000    1.0583969 8.2751473e-05   0.48178435  0.013534869            0   0.46824948    1.5611354    2.0429198     7.692087 
 3410000   0.84517451 -5.0020732e-05   0.56014921  0.050909509            0    0.5092397    1.2466324    1.8067816    -1.607967 
 3415000   0.99693072 -6.0670835e-05   0.51089727 0.0025790019            0   0.50831827    1.4704728    1.9813701   -2.1604256 
 3420000   0.87011689 1.3846432e-05   0.54514773  0.019906276            0   0.52524145    1.2834224    1.8285701    2.7738199 
 3425000   0.89123948 3.6111475e-05   0.52026605  0.064315338            0   0.45595072    1.3145782    1.8348443    4.3000543 
 3430000   0.93757715 -5.6184411e-06   0.35738198  0.040101298            0   0.31728068    1.3829263    1.7403083     1.356756 
 3435000    1.0600575 1.7942414e-05   0.51758218  0.073172613            0   0.44440957    1.5635847    2.0811669    3.3060357 
 3440000    1.0065928 1.737034e-05   0.30997204 0.0042133297            0   0.30575871    1.4847244    1.7946965    2.9805117 
 3445000    1.0410049 -2.0239625e-05   0.39289578 0.0056268536            0   0.38726893    1.5354822    1.9283779   0.54668621 
 3450000   0.94982316   1.4547e-05   0.50204262  0.016605924            0    0.4854367    1.4009892    1.9030318     2.896107 
 3455000    1.0127612 8.0760243e-05   0.65737371  0.033678144            0   0.62369557    1.4938227    2.1511965     7.664429 
 3460000    1.1044693 -3.5883569e-05   0.57553421 0.0059307427            0   0.56960347    1.6290922    2.2046264  -0.24502522 
 3465000     1.106882 -1.0319141e-05   0.39273768  0.019711837            0   0.37302584    1.6326509    2.0253886    1.3209353 
 3470000   0.96091372 1.0133777e-05    0.4737133  0.021858567            0   0.45185473    1.4173477     1.891061    2.5828602 
 3475000    1.0041094 -4.5916088e-05   0.47570812  0.034874115            0     0.440834    1.4810614    1.9567695   -1.1777688 
 3480000   0.85759916 -1.2837583e-05   0.63612444 0.0021688398            0    0.6339556    1.2649588    1.9010832    1.0247042 
 3485000    1.0202929 -8.7100247e-05   0.42127985  0.014427194            0   0.40685266     1.504932    1.9262118   -4.0198317 
 3490000   0.98703248 2.3473402e-05   0.57689163 0.0045567953            0   0.57233484    1.4558729    2.0327645    3.6352154 
 3495000     1.096177 -7.7417249e-05   0.49640273 9.9360607e-05            0   0.49630337    1.6168611    2.1132638   -3.1717538 
 3500000    1.0904643 -0.00016741571   0.62457352  0.031888074            0   0.59268545    1.6084348    2.2330083   -9.1959044 
 3505000    1.0114607 5.2021305e-05   0.42016362 0.0081055093            0   0.41205811    1.4919046    1.9120682    5.4633893 
 3510000   0.91300105 -4.9913762e-05   0.55711224  0.030130068            0   0.52698217    1.3466765    1.9037888   -1.5036574 
 3515000    1.1004602 -8.2660427e-05   0.58068199  0.025305545            0   0.55537644    1.6231788    2.2038608   -3.4390911 
 3520000    1.1964793 5.077779e-06   0.47597949  0.060061511            0   0.41591798     1.764807    2.2407864    2.5874295 
 3525000   0.98925945 7.6516302e-05   0.54519658  0.005280776            0    0.5399158    1.4591577    2.0043543    7.2278672 
 3530000    1.0205202 -3.2559927e-05   0.52832289  0.037723775            0   0.49059911    1.5052674    2.0335902  -0.18916743 
 3535000   0.91669086 4.0661131e-05   0.43762764  0.064711228            0   0.37291641     1.352119    1.7897467    4.5655465 
 3540000    1.0211991 2.1394724e-05   0.47078907  0.044450926            0   0.42633815    1.5062686    1.9770577    3.4376042 
 3545000     1.203535 -1.6358821e-07   0.37966667 0.00041233107            0   0.37925434    1.7752142    2.1548809    2.1437132 
 3550000     1.086856 6.8771897e-05   0.45598502 0.0065923631            0   0.44939266    1.6031126    2.0590976    6.7539258 
 3555000    1.0773978 -4.4641226e-05   0.50197109  0.015000728            0   0.48697037    1.5891618    2.0911329  -0.95637483 
 3560000   0.91178916 7.7230338e-05   0.46488438 0.00029912023            0   0.46458526     1.344889    1.8097734    7.0820311 
 3565000    1.1848545 -0.00010889761   0.42295615  0.058990939            0   0.36396521    1.7476603    2.1706165   -5.2634606 
 3570000   0.93328525 -1.9533023e-05    0.4365859 0.0098286442            0   0.42675726    1.3765957    1.8131816   0.47972726 
 3575000    1.0098013 -2.0472396e-05   0.55969658 0.0059301469            0   0.55376644    1.4894568    2.0491534   0.65157119 
 3580000    1.0463685 -1.7336749e-05   0.50357299 0.0086564147            0   0.49491658    1.5433935    2.0469665   0.86344445 
 3585000    1.1637262 0.00011662403   0.57715301  0.013056877            0   0.56409613    1.7164961    2.2936492    10.255183 
 3590000    1.0213136 -3.4783958e-05   0.56212032  0.010976098            0   0.55114423    1.5064376    2.0685579  -0.30602696 
 3595000   0.94402642 2.1597986e-05   0.38094858 2.2406158e-05            0   0.38092618     1.392439    1.7733876    3.2478101 
 3600000    1.1410419 -5.1913974e-05   0.48772915 0.0038385174            0   0.48389064    1.6830367    2.1707659    -1.373228 
 3605000    1.0015934 5.2597888e-05   0.44566197  0.032680858            0   0.41298111    1.4773502    1.9230122    5.5136947 
 3610000   0.95557707 -3.6170296e-05   0.55601205  0.027342756            0    0.5286693    1.4094762    1.9654882  -0.50373728 
 3615000    1.0794871 -8.317607e-05   0.58196143 0.0064680951            0   0.57549333    1.5922434    2.1742048   -3.5039482 
 3620000   0.99475647 -2.7245898e-05   0.48453436 0.0054355357            0   0.47909882    1.4672658    1.9518001   0.09181348 
 3625000    1.0723831 -2.3340062e-05   0.48231545  0.019566083            0   0.46274936     1.581765    2.0640804   0.47073218 
 3630000   0.87871211 -9.8368371e-05   0.49033266  0.015454198            0   0.47487846    1.2961004     1.786433   -4.9288478 
 3635000   0.97198637 2.7742178e-06   0.44950452   0.01529134            0   0.43421318    1.4336799    1.8831844     2.072571 
 3640000   0.96769829 3.7036333e-05   0.48964434  0.055969222            0   0.43367512     1.427355    1.9169993    4.4453463 
 3645000    1.1258246 -4.9814985e-06   0.44849294 0.0048711879            0   0.44362175    1.6605913    2.1090842    1.7690139 
 3650000   0.89866855 2.2685076e-05   0.51450985  0.017597908            0   0.49691194    1.3255361     1.840046    3.3886805 
 3655000    1.0821271 -1.0639288e-05   0.58607942  0.018399561            0   0.56767985    1.5961375    2.1822169    1.4559082 
 3660000    1.1655173 -6.0856535e-05   0.55611525  0.032945747            0    0.5231695    1.7191381    2.2752533   -1.8792195 
 3665000    1.1894278 -3.6453842e-05   0.63855952  0.026981984            0   0.61157754     1.754406    2.3929655   -0.0956168 
 3670000   0.92917137 5.5323652e-05   0.39571279  0.047110828            0   0.34860196    1.3705278    1.7662406    5.5430018 
 3675000    1.1543293 9.1241421e-05   0.49702905 0.0047385936            0   0.49229045    1.7026357    2.1996647    8.4284124 
 3680000    1.1427232 0.00014401281   0.43161466  0.014601758            0    0.4170129    1.6855167    2.1171314    11.948406 
 3685000   0.82621484 4.0025099e-05   0.52196141  0.024079046            0   0.49788236    1.2186669    1.7406283    4.4730084 
 3690000    1.1284236 4.7418703e-05   0.39345234  0.054912582            0   0.33853976    1.6644248    2.0578772     5.294994 
 3695000    1.0345731 9.1016334e-05    0.6607475  0.035737033            0   0.62501047    1.5259953    2.1867428    8.4001245 
 3700000    1.2357507 8.0623672e-05   0.47706284 0.0023123016            0   0.47475054    1.8227323    2.2997951    7.8037045 
 3705000    1.0731147 9.3334269e-05   0.66289486  0.030729117            0   0.63216575    1.5828442    2.2457391    8.6173585 
 3710000     1.012362 6.8135259e-05   0.49679121 0.0059246755            0   0.49086653     1.493234    1.9900252    6.6413922 
 3715000    1.1560796 -6.9075373e-06   0.40922275 0.0022691817            0   0.40695357    1.7052175    2.1144402    1.6428857 
 3720000   0.86760113 2.8931548e-05   0.48609273   0.01921992            0   0.46687281    1.2797117    1.7658044    3.7408648 
 3725000    1.0281295 2.5411688e-05   0.49058648  0.022923581            0    0.4676629    1.5164909    2.0070774    3.7418487 
 3730000   0.90832461 5.0983817e-05   0.42271906  0.027604235            0   0.39511483    1.3397788    1.7624979    5.2429931 
 3735000    0.8791197 -1.1693363e-05   0.63324061  0.014140635            0   0.61909997    1.2967016    1.9299422    1.1316753 
 3740000   0.87250668 1.9933941e-05   0.38823758  0.025748208            0   0.36248937    1.2869474    1.6751849    3.0360087 
 3745000   0.84967967 7.1319183e-05   0.53871401  0.017709775            0   0.52100424    1.2532775    1.7919915    6.6607144 
 3750000    1.0574624 0.00010468186   0.41356319  0.024132305            0   0.38943089    1.5597571    1.9733203    9.1196022 
 3755000   0.96763821 -0.00010309398   0.50286169 0.0036144558            0   0.49924724    1.4272664    1.9301281   -5.1077545 
 3760000   0.83818621 -5.6720147e-05   0.72321025  0.050246501            0   0.67296375    1.2363247    1.9595349   -1.9125604 
 3765000    1.0286282 -4.4888731e-05   0.43612271 0.00093136651            0   0.43519134    1.5172266    1.9533493   -1.1110547 
 3770000   0.89930122 0.00017182625   0.60421231  0.052993708            0    0.5512186    1.3264693    1.9306816    13.660687 
 3775000   0.87074026 -0.00013134633   0.65059251 0.0039885104            0     0.646604    1.2843419    1.9349344   -7.0316418 
 3780000    1.0296364 -0.00010256739   0.60030662 0.0062326477            0   0.59407397    1.5187137    2.1190203   -4.8829138 
 3785000   0.95360685 -9.0251189e-06   0.36678436  0.032593191            0   0.33419116    1.4065701    1.7733545    1.1572397 
 3790000    1.0840318 -6.5381786e-05   0.40410828  0.063951924            0   0.34015636    1.5989469    2.0030552   -2.4603414 
 3795000   0.98375514 3.5422313e-05   0.54067686 0.0071110446            0   0.53356581    1.4510388    1.9917157    4.4098789 
 3800000    0.9483663 5.1285019e-05   0.45839919  0.010569876            0   0.44782931    1.3988403    1.8572395    5.3582968 
 3805000   0.96711196 1.4914893e-05   0.37580041   0.03694588            0   0.33885453    1.4264901    1.8022905    2.8204806 
 3810000    1.0376785 2.6044952e-05   0.48055053  0.010114934            0    0.4704356    1.5305758    2.0111263    3.7891284 
 3815000    1.1065302 -0.00012070206   0.50813628 0.0022264363            0   0.50590985     1.632132    2.1402683    -6.099659 
 3820000    1.0152049 -8.3024012e-06   0.65817676 0.0017970018            0   0.65637976    1.4974273    2.1556041    1.5888268 
 3825000     1.057131 -2.154928e-05   0.48683276  0.011866814            0   0.47496595    1.5592683     2.046101   0.57500352 
 3830000   0.89529924 -6.8527016e-06   0.44487396  0.029766673            0   0.41510729    1.3205664    1.7654403    1.2976292 
 3835000    1.1550599 5.2059174e-05    0.3903529  0.031214114            0   0.35913879    1.7037134    2.0940663    5.6479726 
 3840000      1.01796 0.00014089853   0.57701152  0.046632497            0   0.53037902     1.501491    2.0785025    11.697175 
 3845000   0.94863217 1.5710876e-05   0.58886997   0.04890754            0   0.53996243    1.3992324    1.9881024    3.0606316 
 3850000    1.0048686 -2.7384146e-05   0.39982245 0.0018020342            0   0.39802041    1.4821812    1.8820037  0.012579298 
 3855000    1.0081425 -6.3556012e-05   0.35477413  0.017480413            0   0.33729372    1.4870101    1.8417843   -2.4969728 
 3860000    1.0420299 -4.2464018e-05   0.66298105  0.020654719            0   0.64232633    1.5369941    2.1999752  -0.69890177 
 3865000    1.0931126 -4.695529e-05   0.56795473  0.008172957            0   0.55978178     1.612341    2.1802957   -1.0251854 
 3870000    1.0581673 -3.1721042e-05   0.45932586  0.013888048            0   0.44543781    1.5607968    2.0201226  -0.14536718 
 3875000   0.91031845 -1.9348819e-05   0.57891704 0.0022871959            0   0.57662984    1.3427197    1.9216367   0.60075736 
 3880000   0.87725763 -7.8168364e-05   0.71988912 0.0069436726            0   0.71294545     1.293955    2.0138441   -3.3224495 
 3885000   0.96734612 -0.00012372379   0.43904327  0.050716025            0   0.38832724    1.4268355    1.8658788   -6.5803318 
 3890000    1.1491982 7.3608214e-05   0.48864769 0.0060567882            0    0.4825909    1.6950673     2.183715    7.2087024 
 3895000   0.94690288 -7.0407405e-07   0.65526269  0.033354083            0    0.6219086    1.3966818    2.0519444    2.0038797 
 3900000    1.0196695 -2.0398948e-05   0.50342126 0.00069521754            0   0.50272605    1.5040124    2.0074337   0.61486555 
 3905000    1.0192857 9.4699695e-05   0.46573458  0.015837679            0    0.4498969    1.5034464     1.969181    8.4340135 
 3910000    1.0315727 9.1648761e-05   0.61704837  0.015481305            0   0.60156707    1.5215697    2.1386181    8.3951735 
 3915000    1.0779904 -1.5153178e-05   0.51866161  0.011167114            0   0.50749449    1.5900359    2.1086975    1.0742405 
 3920000   0.94798261 9.1730078e-05   0.48632973  0.016848807            0   0.46948093    1.3982743    1.8846041    8.1467108 
 3925000   0.96966703 2.0216515e-05   0.49293493 0.0056440973            0   0.48729083    1.4302589    1.9231938    3.3033079 
 3930000   0.99947187 7.7064263e-06   0.46636708 0.0078087588            0   0.45855832     1.474221    1.9405881    2.4666801 
 3935000    1.0238852 -1.1208091e-05   0.68685953  0.015133642            0   0.67172589    1.5102306    2.1970901    1.4319511 
 3940000   0.96411673 -7.8579019e-05    0.4681658  0.021119443            0   0.44704636    1.4220722     1.890238   -3.4740897 
 3945000    1.0400327 -0.00011703317   0.47377391 0.00016576328            0   0.47360815    1.5340483    2.0078222   -5.9816419 
 3950000   0.95750731 2.9121767e-05   0.36497317            0            0   0.36497317    1.4123233    1.7772965    3.7653424 
 3955000    1.0026841 8.9376965e-05   0.57774507  0.044076382            0   0.53366869     1.478959    2.0567041    8.1581716 
 3960000    0.9599363 -8.5439261e-05   0.41280401 0.0076931827            0   0.40511082     1.415906      1.82871   -4.0039435 
 3965000    1.1851883 -5.4483306e-05   0.53986086 0.0046829368            0   0.53517793    1.7481528    2.2880137   -1.4313801 
 3970000   0.96335398 0.00010161995    0.3449966  0.035783302            0   0.30921329    1.4209471    1.7659437    8.7031993 
 3975000   0.91491175 -2.3678032e-05    0.5227825   0.04592157            0   0.47686093    1.3494948    1.8722773   0.25585704 
 3980000    1.0093154 -1.7182262e-05   0.53458137  0.017526204            0   0.51705517    1.4887402    2.0233216   0.85034585 
 3985000    1.0266359 4.7979006e-05   0.48619289  0.018805661            0   0.46738723     1.514288    2.0004809    5.2758477 
 3990000   0.97560747 3.1124339e-05   0.56114532  0.084321196            0   0.47682413     1.439021    2.0001663    4.1249212 
 3995000   0.91450788 -2.7041333e-06   0.57849021 0.0065336941            0   0.57195652    1.3488991    1.9273893    1.7427872 
 4000000    0.9447535 1.3294979e-05   0.43560623  0.018783868            0   0.41682236    1.3935114    1.8291176    2.7367215 
Loop time of 225.866 on 1 procs for 2000000 steps with 60 atoms

Performance: 765054.316 tau/day, 8854.795 timesteps/s
98.3% CPU use with 1 MPI tasks x no OpenMP threads

MPI task timing breakdown:
Section |  min time  |  avg time  |  max time  |%varavg| %total
---------------------------------------------------------------
Pair    | 0.84365    | 0.84365    | 0.84365    |   0.0 |  0.37
Bond    | 2.1572     | 2.1572     | 2.1572     |   0.0 |  0.96
Neigh   | 190.05     | 190.05     | 190.05     |   0.0 | 84.14
Comm    | 26.889     | 26.889     | 26.889     |   0.0 | 11.90
Output  | 0.046834   | 0.046834   | 0.046834   |   0.0 |  0.02
Modify  | 5.2189     | 5.2189     | 5.2189     |   0.0 |  2.31
Other   |            | 0.6577     |            |       |  0.29

Nlocal:        60.0000 ave          60 max          60 min
Histogram: 1 0 0 0 0 0 0 0 0 0
Nghost:        0.00000 ave           0 max           0 min
Histogram: 1 0 0 0 0 0 0 0 0 0
Neighs:        13.0000 ave          13 max          13 min
Histogram: 1 0 0 0 0 0 0 0 0 0

Total # of neighbors = 13
Ave neighs/atom = 0.21666667
Ave special neighs/atom = 5.8000000
Neighbor list builds = 37911
Dangerous builds = 0
write_restart restart.rerun.1
System init for write_restart ...
WARNING: Communication cutoff 1.4200000000000002 is shorter than a bond length based estimate of 1.8. This may lead to errors. (../comm.cpp:667)
#--------------End of Input file ------------------
Total wall time: 0:03:45
