LAMMPS (29 Oct 2020)
###################### polyelectrolyte complexation ######################
clear

#Initialization
#------------------------------------
units				lj
dimension			3
atom_style			full
boundary			p p p

#Atom Definition
#-------------------------------------
read_data			data.complexation
Reading data file ...
  orthogonal box = (-80.000000 -80.000000 -80.000000) to (80.000000 80.000000 80.000000)
  1 by 1 by 1 MPI processor grid
  reading atoms ...
  120 atoms
  scanning bonds ...
  1 = max bonds/atom
  reading bonds ...
  119 bonds
Finding 1-2 1-3 1-4 neighbors ...
  special bond factors lj:    0.0      0.0      0.0     
  special bond factors coul:  0.0      0.0      0.0     
     2 = max # of 1-2 neighbors
     2 = max # of 1-3 neighbors
     4 = max # of 1-4 neighbors
     6 = max # of special neighbors
  special bonds CPU = 0.000 seconds
  read_data CPU = 0.002 seconds

#Force definition
#----------------------------------------------
#Bond definition
bond_style			harmonic
bond_coeff			1 5000 1
#Pair definition
special_bonds	lj 0 1 1
Finding 1-2 1-3 1-4 neighbors ...
  special bond factors lj:    0.0      1.0      1.0     
  special bond factors coul:  0.0      0.0      0.0     
     2 = max # of 1-2 neighbors
     2 = max # of 1-3 neighbors
     4 = max # of 1-4 neighbors
     6 = max # of special neighbors
  special bonds CPU = 0.000 seconds
pair_style		 lj/cut 1.12
pair_modify 		 shift yes
pair_coeff	1 1 1 1 1.12

#Timestep etc
#--------------------------------------------
timestep		1e-05
run_style		verlet
velocity		all	create	1	10

#Fix
#---------------------------------------
group polymers type 1
120 atoms in group polymers
fix 1 all nve
fix 2 all langevin 1	1	10	10
fix 3 polymers recenter INIT INIT INIT units box

#Dump
#------------------------------------------------
compute  1 all gyration
variable  myRg2 equal c_1
variable  i equal step
fix  mythermofile all print 5000 "$i ${myRg2}" file radius_of_gyration.dat screen no

thermo_style		 custom step temp press pe evdwl ecoul ebond ke etotal enthalpy
thermo 	5000
dump	3 all custom 5000 dump.lammpstrj id mol type xu yu zu
run		20000000
Neighbor list info ...
  update every 1 steps, delay 10 steps, check yes
  max neighbors/atom: 2000, page size: 100000
  master list distance cutoff = 1.42
  ghost atom cutoff = 1.42
  binsize = 0.71, bins = 226 226 226
  1 neighbor lists, perpetual/occasional/extra = 1 0 0
  (1) pair lj/cut, perpetual
      attributes: half, newton on
      pair build: half/bin/newton
      stencil: half/bin/3d/newton
      bin: standard
WARNING: Communication cutoff 1.4200000000000002 is shorter than a bond length based estimate of 1.8. This may lead to errors. (../comm.cpp:667)
Per MPI rank memory allocation (min/avg/max) = 54.72 | 54.72 | 54.72 Mbytes
Step Temp Press PotEng E_vdwl E_coul E_bond KinEng TotEng Enthalpy 
       0            1 2.9052734e-05            0            0            0            0       1.4875       1.4875    2.4791667 
    5000   0.80311788 -0.00048458236   0.27517164            0            0   0.27517164    1.1946378    1.4698095   -15.070602 
   10000   0.43062377 -0.001047576   0.85562956            0            0   0.85562956   0.64055286    1.4961824   -34.261078 
   15000     0.703249 -0.00060069688   0.46872708            0            0   0.46872708    1.0460829      1.51481   -18.988977 
   20000    0.6801923 -0.00040231165   0.48882066            0            0   0.48882066    1.0117861    1.5006067   -12.231631 
   25000   0.52377112 -0.00082135529    0.7172989            0            0    0.7172989   0.77910954    1.4964084   -26.539185 
   30000      0.66802 -0.00066074765   0.49336463            0            0   0.49336463   0.99367975    1.4870444   -21.066475 
   35000   0.76200371 -0.00038936373   0.36813971            0            0   0.36813971    1.1334805    1.5016202   -11.788662 
   40000   0.59519262 -0.00051504467   0.61045929            0            0   0.61045929   0.88534902    1.4958083   -16.084383 
   45000   0.65294671 -0.00059720397   0.56809946            0            0   0.56809946   0.97125824    1.5393577   -18.845205 
   50000   0.74646078 -0.00040552575    0.4492728            0            0    0.4492728    1.1103604    1.5596332   -12.282313 
   55000   0.70880958 -0.00038929187   0.49960548            0            0   0.49960548    1.0543543    1.5539597   -11.733869 
   60000   0.73652361 -0.0003759627   0.45851404            0            0   0.45851404    1.0955789    1.5540929   -11.278767 
   65000   0.80008439 -0.00017709144   0.37119701            0            0   0.37119701    1.1901255    1.5613225   -4.4833988 
   70000    0.7945847 -0.00032833621   0.39737942            0            0   0.39737942    1.1819447    1.5793242   -9.6278852 
   75000   0.78049906 -0.00026903356   0.39236944            0            0   0.39236944    1.1609924    1.5533618   -7.6296502 
   80000   0.81289295 -0.00019474342   0.33085552            0            0   0.33085552    1.2091783    1.5400338   -5.1072082 
   85000   0.84421007 -0.0001023977    0.2926427            0            0    0.2926427    1.2557625    1.5484052   -1.9467698 
   90000   0.84016039 -6.0127435e-05   0.29023689            0            0   0.29023689    1.2497386    1.5399755  -0.51237429 
   95000   0.79495883 -0.00024453983    0.3663296            0            0    0.3663296    1.1825013    1.5488309   -6.7981288 
  100000   0.78038538 -6.1774959e-05     0.356465            0            0     0.356465    1.1608233    1.5172883    -0.591297 
  105000   0.80450553 -0.00016151564   0.32103468            0            0   0.32103468     1.196702    1.5177367   -3.9953304 
  110000    0.8108612 3.945933e-05   0.32067992            0            0   0.32067992     1.206156     1.526836    2.8737144 
  115000   0.81637506 -0.00012477484   0.31930169            0            0   0.31930169    1.2143579    1.5336596   -2.7253217 
  120000   0.80170853 -8.4560305e-05   0.33843524            0            0   0.33843524    1.1925414    1.5309767   -1.3553484 
  125000   0.77620315 -1.0168593e-05   0.35743176            0            0   0.35743176    1.1546022     1.512034     1.164946 
  130000   0.80507767 1.0898531e-06   0.32059951            0            0   0.32059951     1.197553    1.5181526    1.5553529 
  135000   0.80094804 -6.8362692e-05   0.33835063            0            0   0.33835063    1.1914102    1.5297608  -0.80368571 
  140000   0.82074688 -8.5359066e-05    0.3008216            0            0    0.3008216     1.220861    1.5216826   -1.3919069 
  145000   0.80936048 -0.00011711976   0.32267487            0            0   0.32267487    1.2039237    1.5265986   -2.4710893 
  150000   0.82578353 0.00010866666   0.29468434            0            0   0.29468434     1.228353    1.5230373    5.2321927 
  155000   0.80364156 4.6020571e-06   0.33924931            0            0   0.33924931    1.1954168    1.5346661    1.6917497 
  160000   0.75794957 -0.00024929599   0.40214592            0            0   0.40214592      1.12745    1.5295959   -6.9797071 
  165000   0.81046552 9.902518e-05    0.3351246            0            0    0.3351246    1.2055675    1.5406921    4.9207515 
  170000   0.80486791 4.3976714e-05   0.35830576            0            0   0.35830576     1.197241    1.5555468    3.0566186 
  175000   0.83820255 -7.7891515e-05   0.33127817            0            0   0.33127817    1.2468263    1.5781045   -1.0805926 
  180000   0.84162824 -9.2509982e-05   0.32046357            0            0   0.32046357     1.251922    1.5723856   -1.5852885 
  185000   0.85150014 4.3782105e-05   0.31604061            0            0   0.31604061    1.2666065    1.5826471    3.0770763 
  190000   0.83566294 0.00011076106   0.31157185            0            0   0.31157185    1.2430486    1.5546205    5.3352648 
  195000   0.81563721 -0.00016228056   0.33186839            0            0   0.33186839    1.2132604    1.5451287   -3.9940476 
  200000   0.81790668 -1.3143207e-05   0.33101318            0            0   0.33101318    1.2166362    1.5476494    1.0990279 
  205000   0.81211219 0.00017613396   0.36291395            0            0   0.36291395    1.2080169    1.5709308    7.5829699 
  210000   0.81720267 -0.00012535648   0.36058074            0            0   0.36058074     1.215589    1.5761697   -2.7026648 
  215000   0.82781062 -8.8309298e-05   0.34425218            0            0   0.34425218    1.2313683    1.5756205   -1.4386702 
  220000   0.82842523 3.5121396e-05   0.32612464            0            0   0.32612464    1.2322825    1.5584072    2.7572175 
  225000   0.79869041 0.00018952847   0.37358516            0            0   0.37358516     1.188052    1.5616372    8.0308756 
  230000   0.79593521 -0.00034988436   0.39159179            0            0   0.39159179    1.1839536    1.5755454   -10.367174 
  235000   0.86644054 0.00014326337   0.30260907            0            0   0.30260907    1.2888303    1.5914394    6.4814956 
  240000   0.87420749 8.3711251e-05   0.30005279            0            0   0.30005279    1.3003836    1.6004364    4.4577805 
  245000    0.8505499 -0.00010691544   0.35686505            0            0   0.35686505     1.265193     1.622058   -2.0273222 
  250000   0.83567369 -8.347343e-05   0.36225898 0.00028397043            0   0.36197501    1.2430646    1.6053236   -1.2439028 
  255000   0.83755325 0.00018073532   0.36060136 0.00037399217            0   0.36022737    1.2458605    1.6064618    7.7755607 
  260000   0.85480902 -6.8569134e-05   0.34277002 0.0004106366            0   0.34235938    1.2715284    1.6142984  -0.72619467 
  265000   0.88703998 -9.6474939e-05    0.2843798 6.8562847e-05            0   0.28431123     1.319472    1.6038518   -1.6891595 
  270000   0.83489597 5.9080758e-05   0.33080945            0            0   0.33080945    1.2419078    1.5727172    3.5893404 
  275000   0.76720438 1.9261319e-05   0.41630094            0            0   0.41630094    1.1412165    1.5575175    2.2149705 
  280000   0.82104022 -7.2372793e-05   0.35428135            0            0   0.35428135    1.2212973    1.5755787  -0.89474599 
  285000    0.7841391 7.0337224e-05   0.40319788            0            0   0.40319788    1.1664069    1.5696048    3.9704487 
  290000   0.80756872 -7.7950661e-05   0.37050925            0            0   0.37050925    1.2012585    1.5717677   -1.0889482 
  295000   0.81100165 4.9330331e-05   0.34765368 0.00059001968            0   0.34706366    1.2063649    1.5540186    3.2378273 
  300000   0.78307837 2.5419726e-05    0.3806037 0.0028055516            0   0.37779815    1.1648291    1.5454328    2.4130928 
  305000   0.83091299 -0.0001016246   0.31882979 0.0027779891            0    0.3160518    1.2359831    1.5548129   -1.9139736 
  310000   0.82144417 8.1969978e-05   0.35498956 0.00080894835            0   0.35418061    1.2218982    1.5768878    4.3747963 
  315000   0.82268278 -1.479513e-05   0.37391174            0            0   0.37391174    1.2237406    1.5976524    1.0926453 
  320000   0.87405643 -9.0901533e-06   0.28555094            0            0   0.28555094    1.3001589    1.5857099    1.2754326 
  325000   0.83967837 1.2827712e-05   0.33238885            0            0   0.33238885    1.2490216    1.5814104     2.019263 
  330000   0.81922802 4.293497e-06    0.3519565            0            0    0.3519565    1.2186017    1.5705582    1.7171095 
  335000   0.78026086 -9.2779836e-05   0.39441481            0            0   0.39441481     1.160638    1.5550528   -1.6118322 
  340000   0.81240085 5.4783811e-06   0.36995074            0            0   0.36995074    1.2084463     1.578397    1.7653924 
  345000   0.83705208 1.3123042e-05   0.35173806            0            0   0.35173806     1.245115     1.596853    2.0447862 
  350000   0.81507632 4.6100945e-05   0.37226141            0            0   0.37226141     1.212426    1.5846874    3.1582664 
  355000   0.81637382 -4.0748773e-05   0.38870972            0            0   0.38870972    1.2143561    1.6030658   0.21217435 
  360000   0.78317403 3.7284175e-05   0.41440459            0            0   0.41440459    1.1649714     1.579376    2.8520091 
  365000   0.78143207 -7.2311015e-05   0.40170564            0            0   0.40170564    1.1623802    1.5640859  -0.90413012 
  370000   0.82788545 -6.6561958e-05    0.3349508            0            0    0.3349508    1.2314796    1.5664304   -0.7055511 
  375000   0.83839249 0.00014456562   0.31739253            0            0   0.31739253    1.2471088    1.5645014    6.4990078 
  380000   0.83585381 -0.00014225274   0.33216724            0            0   0.33216724    1.2433325    1.5754998   -3.2800603 
  385000   0.83753203 -4.8659469e-05      0.33195            0            0      0.33195    1.2458289    1.5777789 -0.083130975 
  390000   0.83882346 0.00014851263   0.31726079 0.00040323818            0   0.31685756    1.2477499    1.5650107    6.6342417 
  395000   0.78280437 -0.00014774574   0.38153207 0.0050126786            0   0.37651939    1.1644215    1.5459536   -3.4971011 
  400000   0.78944404 0.0001143949   0.39695357 0.0045281828            0   0.39242539     1.174298    1.5712516    5.4759307 
  405000   0.82928802 7.3031699e-05   0.36355532 0.0069578246            0    0.3565975    1.2335659    1.5971212    4.0899366 
  410000   0.76484901 -0.00016369477    0.4283671 0.0063732379            0   0.42199386    1.1377129      1.56608   -4.0213681 
  415000   0.80470124 0.00015243332   0.35836068 5.8875158e-05            0    0.3583018    1.1969931    1.5553538    6.7584112 
  420000    0.8610725 -5.0694538e-05   0.28257571            0            0   0.28257571    1.2808453    1.5634211  -0.16695252 
  425000   0.75541386 -2.4957521e-05   0.42261806            0            0   0.42261806    1.1236781    1.5462962    0.6944128 
  430000   0.78424561  3.65049e-05   0.37783919            0            0   0.37783919    1.1665653    1.5444045    2.7904385 
  435000   0.84173577 -5.8072486e-06   0.31169792            0            0   0.31169792     1.252082    1.5637799    1.3655591 
  440000   0.74685038 -0.00013479371   0.44163409            0            0   0.44163409    1.1109399     1.552574   -3.0483846 
  445000   0.80300425 0.00019261531   0.37348999            0            0   0.37348999    1.1944688    1.5679588    8.1425615 
  450000   0.80086737 -0.00019370302   0.37261069            0            0   0.37261069    1.1912902    1.5639009   -5.0478289 
  455000   0.79836989 5.5721212e-05   0.36617601 0.00036478761            0   0.36581123    1.1875752    1.5537512    3.4557019 
  460000   0.79824193 6.1751679e-05   0.36698557 0.0018591054            0   0.36512646    1.1873849    1.5543704    3.6621611 
  465000   0.73374112 -8.0676462e-05   0.47566519 0.0036550212            0   0.47201017    1.0914399    1.5671051   -1.1866515 
  470000   0.76900841 6.1114002e-05   0.40920485 0.0032618558            0   0.40594299       1.1439    1.5531049    3.6391294 
  475000   0.80166003 8.3724106e-05    0.3528936 0.0013723106            0   0.35152129    1.1924693    1.5453629    4.4031457 
  480000   0.79234156 -0.00015484742   0.36004442 1.5120067e-05            0    0.3600293    1.1786081    1.5386525   -3.7468062 
  485000   0.77188671 0.00017679618   0.36991902            0            0   0.36991902    1.1481815    1.5181005    7.5527435 
  490000   0.77103259 -0.0002672911   0.37721223            0            0   0.37721223     1.146911    1.5241232   -7.5994129 
  495000   0.79400017 0.00013477334   0.36708305            0            0   0.36708305    1.1810753    1.5481583    6.1484218 
  500000   0.80146496 -8.1895015e-05   0.36942747            0            0   0.36942747    1.1921791    1.5616066   -1.2337432 
  505000   0.84169288 -0.00016305998    0.3399618            0            0    0.3399618    1.2520182      1.59198   -3.9738009 
  510000   0.84731303 0.00019747246    0.3288475            0            0    0.3288475    1.2603781    1.5892256     8.329619 
  515000    0.7842158 -0.00019279342   0.41021298            0            0   0.41021298     1.166521     1.576734   -5.0039479 
  520000   0.79050818 0.00026467108   0.38405396            0            0   0.38405396    1.1758809    1.5599349    10.594041 
  525000   0.76171368 -0.00019012188   0.45204486            0            0   0.45204486    1.1330491     1.585094   -4.9043995 
  530000    0.8038714 0.0001890444   0.39670292            0            0   0.39670292    1.1957587    1.5924616    8.0451772 
  535000   0.77047358 -8.6287723e-05   0.44197296            0            0   0.44197296    1.1460794    1.5880524   -1.3572352 
  540000   0.80257144 -8.9370745e-05    0.3874617            0            0    0.3874617     1.193825    1.5812867   -1.4692347 
  545000   0.77467463 0.00010589664   0.41190676            0            0   0.41190676    1.1523285    1.5642353    5.1788405 
  550000   0.71747988 -7.5649019e-05   0.47631789            0            0   0.47631789    1.0672513    1.5435692    -1.038584 
  555000   0.77328788 4.0731972e-05   0.40014265            0            0   0.40014265    1.1502657    1.5504084    2.9407263 
  560000   0.80276547 -2.1455308e-05    0.3689423            0            0    0.3689423    1.1941136    1.5630559   0.83071476 
  565000   0.77083523 -3.4485923e-06   0.42934915            0            0   0.42934915    1.1466174    1.5759666    1.4582546 
  570000   0.79550186 -6.2835919e-05   0.41580397            0            0   0.41580397     1.183309     1.599113  -0.54568638 
  575000   0.79558022 9.1515483e-05    0.4236238            0            0    0.4236238    1.1834256    1.6070494    4.7307779 
  580000   0.84737649 -0.00010500357   0.35498381            0            0   0.35498381    1.2604725    1.6154563   -1.9686655 
  585000   0.82117718 9.7121188e-05   0.39804066 0.00028220746            0   0.39775845    1.2215011    1.6195417    4.9346116 
  590000   0.79510433 -7.3992329e-05   0.43735213 0.0025934695            0   0.43475866    1.1827177    1.6200698  -0.90553499 
  595000   0.79327688 -0.00012656415   0.44534079 0.0037236199            0   0.44161717    1.1799994    1.6253401   -2.6947162 
  600000   0.84699915 3.7380452e-05   0.36725917 0.0012899526            0   0.36596921    1.2599112    1.6271704    2.9030898 
  605000   0.81118492 3.1797718e-05   0.43469941 0.00085373731            0   0.43384567    1.2066376     1.641337    2.7266991 
  610000   0.75352866 -1.2250146e-05   0.51875912 0.0027470684            0   0.51601205    1.1208739     1.639633    1.2214947 
  615000   0.80319902 -2.9442226e-05   0.42475699  0.001617461            0   0.42313953    1.1947585    1.6195155    0.6145542 
  620000   0.76964211 0.00011428814   0.47155733 0.00058231925            0   0.47097501    1.1448426       1.6164    5.5174353 
  625000   0.81972317 -7.9379993e-05   0.39144239            0            0   0.39144239    1.2193382    1.6107806   -1.0987231 
  630000   0.76535303 6.4652944e-05   0.46934911            0            0   0.46934911    1.1384626    1.6078117    3.8146322 
  635000   0.78201001 -5.0823971e-05   0.43419788            0            0   0.43419788    1.1632399    1.5974378  -0.13735378 
  640000   0.76072116 7.4636062e-05   0.44935773            0            0   0.44935773    1.1315727    1.5809305    4.1285081 
  645000   0.79249322 -6.9826472e-05    0.4015244 0.00024812851            0   0.40127627    1.1788337    1.5803581  -0.80305218 
  650000    0.7644894 -4.8494137e-05   0.46530782 0.0054561375            0   0.45985168     1.137178    1.6024858 -0.052780742 
  655000   0.83098014 5.0556856e-06   0.39629703 0.0086840439            0   0.38761298     1.236083      1.63238    1.8049474 
  660000   0.81162543 2.6768638e-06   0.43078825  0.005619891            0   0.42516836    1.2072928    1.6380811    1.7294514 
  665000   0.77711367 -5.8147887e-05   0.48389511 0.0070342734            0   0.47686083    1.1559566    1.6398517  -0.34492953 
  670000   0.79763723 0.00013312434   0.47015133 0.0036891628            0   0.46646217    1.1864854    1.6566367    6.2006143 
  675000   0.88903551 -2.1292773e-05   0.37480286 0.00059936987            0   0.37420349    1.3224403    1.6972432   0.97044988 
  680000   0.82813866 -3.455675e-05   0.43928533            0            0   0.43928533    1.2318563    1.6711416   0.49160453 
  685000   0.84505659 -2.6254822e-05   0.41886241            0            0   0.41886241    1.2570217    1.6758841    0.7797195 
  690000   0.84421114 4.6162816e-05   0.42886964 2.6894319e-06            0   0.42886695    1.2557641    1.6846337    3.2603245 
  695000    0.8755536 0.00010048714   0.41529047 0.00057797478            0    0.4147125     1.302386    1.7176765    5.1476375 
  700000   0.87121221 7.499657e-05   0.45029798 0.0020543649            0   0.44824361    1.2959282    1.7462261    4.3061091 
  705000   0.89890376 -0.00019513158   0.43415276 0.0017511436            0   0.43240162    1.3371193    1.7712721   -4.8892191 
  710000   0.89831366 0.00015648159   0.42528211 0.0003140383            0   0.42496807    1.3362416    1.7615237    7.1027621 
  715000    0.8959608 -3.3351763e-05   0.41516548 0.0010396795            0    0.4141258    1.3327417    1.7479072   0.60950033 
  720000   0.87201497 -4.4643551e-05   0.44665763 0.0031614186            0   0.44349621    1.2971223    1.7437799   0.21994669 
  725000   0.91822292 -3.9082306e-05   0.37332432 0.0023041688            0   0.37102015    1.3658566    1.7391809   0.40517155 
  730000   0.84742857 -4.1009129e-05   0.46044602 0.00046623661            0   0.45997978      1.26055     1.720996   0.32121774 
  735000   0.88196028 -1.8573006e-06   0.40493778 1.7343761e-05            0   0.40492044    1.3119159    1.7168537    1.6534578 
  740000   0.83290621 -3.3897137e-05   0.45730805            0            0   0.45730805     1.238948     1.696256   0.53923376 
  745000   0.85812234 0.00012657308   0.38909186            0            0   0.38909186     1.276457    1.6655488    5.9859101 
  750000    0.8347768 -8.678316e-05   0.41794164 0.00011714909            0   0.41782449    1.2417305    1.6596721   -1.3025264 
  755000   0.77112755 -1.3658917e-05   0.50620196 0.0011649068            0   0.50503705    1.1470522    1.6532542    1.1870298 
  760000   0.78663819 -2.0484039e-05   0.47597938 0.0022785042            0   0.47370088    1.1701243    1.6461037   0.94691516 
  765000   0.84165045 3.4338236e-05   0.41415447 0.0016569084            0   0.41249756     1.251955    1.6661095     2.838188 
  770000    0.8262576 -2.3787077e-06   0.45271582 0.0010731836            0   0.45164264    1.2290582     1.681774    1.6005808 
  775000   0.83128589 -3.2897561e-05   0.46127186 0.00061220733            0   0.46065965    1.2365378    1.6978096   0.57490622 
  780000   0.88031617 -2.1808267e-05   0.38160258 0.0026672194            0   0.37893536    1.3094703    1.6910729   0.94668402 
  785000   0.84151901 1.5187662e-05   0.43846021 0.0071405879            0   0.43131962    1.2517595    1.6902197    2.2086253 
  790000   0.83451443 -4.9910954e-05   0.44475871 0.0037479526            0   0.44101075    1.2413402    1.6860989 -0.017528302 
  795000   0.88264424 -2.7473923e-05   0.37614372  0.003031559            0   0.37311216    1.3129333     1.689077   0.75130047 
  800000   0.86679406 0.00014404052   0.38103176 0.00095797687            0   0.38007379    1.2893562    1.6703879    6.5869708 
  805000   0.85012297 -0.0001025477   0.41737506            0            0   0.41737506    1.2645579     1.681933   -1.8183617 
  810000    0.8608389 0.00013388499   0.42386628            0            0   0.42386628    1.2804979    1.7043641    6.2743053 
  815000   0.81324128 -8.3038917e-05   0.48295303            0            0   0.48295303    1.2096964    1.6926494   -1.1417456 
  820000   0.84003041 0.00030476214   0.44948985            0            0   0.44948985    1.2495452    1.6990351    12.101583 
  825000   0.85038349 -0.00014853155   0.41180357            0            0   0.41180357    1.2649454     1.676749   -3.3931278 
  830000   0.84013531 -0.00012862256   0.44254674            0            0   0.44254674    1.2497013     1.692248   -2.6980688 
  835000   0.89017013 2.9383342e-05   0.38426916            0            0   0.38426916    1.3241281    1.7083972    2.7113486 
  840000   0.90787923 -1.7701402e-05   0.39218589            0            0   0.39218589    1.3504704    1.7426562    1.1384484 
  845000   0.89361134 1.0882419e-05    0.4108736 0.00027325055            0   0.41060035    1.3292469    1.7401205    2.1115737 
  850000   0.82545517 -0.00013221143   0.49282045 0.00056167535            0   0.49225877    1.2278646     1.720685   -2.7921317 
  855000   0.89208115 0.00019375241   0.38091793 0.00031179421            0   0.38060614    1.3269707    1.7078886    8.3213042 
  860000   0.88946972 -2.1170389e-05   0.39909348 2.7681213e-05            0    0.3990658    1.3230862    1.7221797   0.99956376 
  865000   0.85198054 -3.0209876e-05   0.45543901            0            0   0.45543901    1.2673211    1.7227601    0.6915963 
  870000   0.86035747 -1.9257866e-05   0.44668373            0            0   0.44668373    1.2797817    1.7264655    1.0691303 
  875000   0.85603844 -1.1605367e-05   0.45541881 5.4392145e-07            0   0.45541826    1.2733572     1.728776    1.3326461 
  880000   0.84947557 7.6588307e-05   0.46575569            0            0   0.46575569    1.2635949    1.7293506    4.3435648 
  885000   0.86753751 -0.0001541725   0.45396189            0            0   0.45396189     1.290462    1.7444239   -3.5179973 
  890000   0.86963053 0.00023256976   0.48310157 8.8675439e-05            0   0.48301289    1.2935754     1.776677     9.715058 
  895000   0.88928855 -1.7948917e-06   0.45530384 0.0051325535            0   0.45017128    1.3228167    1.7781206    1.7168549 
  900000   0.91061172 2.3779592e-05   0.43639201  0.012059815            0   0.42433219    1.3545349    1.7909269    2.6026037 
  905000   0.87663158 2.8320147e-05   0.46423421  0.005559494            0   0.45867472    1.3039895    1.7682237    2.7348847 
  910000   0.91280584 -9.4707816e-05   0.41825519 0.0038112262            0   0.41444396    1.3577987    1.7760539   -1.4566396 
  915000   0.88286272  5.95923e-05   0.42926895 0.0036911747            0   0.42557777    1.3132583    1.7425272    3.7766111 
  920000   0.88401455 7.9364703e-05    0.4405703 0.0034866301            0   0.43708367    1.3149716    1.7555419    4.4645238 
  925000   0.90722747 -3.7082955e-05    0.4096385 0.0021938157            0   0.40744469    1.3495009    1.7591394    0.4933745 
  930000   0.92482933 0.00017462398   0.39433628 0.0010416194            0   0.39329466    1.3756836    1.7700199    7.7305183 
  935000   0.82892552 -9.1739333e-05   0.52525862 0.0046052765            0   0.52065334    1.2330267    1.7582853   -1.3730839 
  940000   0.90267174 9.4093687e-06   0.39984087  0.004645097            0   0.39519577    1.3427242    1.7425651    2.0637382 
  945000   0.94217095 -4.9028377e-05   0.32770799 0.0020150087            0   0.32569298    1.4014793    1.7291873  0.055685352 
  950000    0.8706096 -1.0203312e-05   0.41627359 0.0072027285            0   0.40907086    1.2950318    1.7113054    1.3630323 
  955000   0.85139321 2.164683e-05   0.46607912 0.0070904062            0   0.45898871    1.2664474    1.7325265     2.471405 
  960000   0.82566769 -4.2037651e-05   0.50897434 0.00050042886            0   0.50847391    1.2281807     1.737155   0.30226988 
  965000   0.88912591 7.7765592e-06   0.44389625 8.6817518e-05            0   0.44380943    1.3225748     1.766471    2.0319109 
  970000   0.86174622 3.0685613e-05   0.49024669 2.368665e-06            0   0.49024432    1.2818475    1.7720942    2.8194964 
  975000   0.84457862 -2.9224752e-05   0.51566092 0.0038968643            0   0.51176406    1.2563107    1.7719716   0.77443341 
  980000   0.88189039 -6.6622618e-05    0.4873342 0.0095910362            0   0.47774317     1.311812    1.7991462  -0.47490588 
  985000   0.88558023 3.1937093e-05   0.49806637 0.0040718048            0   0.49399456    1.3173006     1.815367    2.9054864 
  990000   0.88957162 -0.00012261181   0.48630187 0.0046657383            0   0.48163613    1.3232378    1.8095397   -2.3756102 
  995000   0.89667722  0.000142657   0.46476193 0.0052571018            0   0.45950483    1.3338074    1.7985693    6.6679284 
 1000000   0.94112684 -5.5589917e-06   0.40367357 0.0047220374            0   0.39895153    1.3999262    1.8035997    1.6138528 
 1005000   0.91038873 -0.00010192622   0.47758773 0.00075551253            0   0.47683222    1.3542032     1.831791   -1.6472906 
 1010000    0.9156372 6.9083001e-05   0.47466087            0            0   0.47466087    1.3620103    1.8366712    4.1947043 
 1015000   0.93343654 -4.2012032e-05   0.45170229 0.0016106785            0   0.45009161    1.3884868    1.8401891   0.40617845 
 1020000   0.93662465 6.7508009e-05   0.43925995 0.0057526767            0   0.43350728    1.3932292    1.8324891    4.1367625 
 1025000   0.89569137 -5.0805167e-06   0.47818105 0.0026340216            0   0.47554703    1.3323409     1.810522     1.637107 
 1030000   0.88562968 3.3256506e-05   0.49855455 8.3376848e-05            0   0.49847118    1.3173741    1.8159287    2.9510841 
 1035000   0.87986646 -0.00017953993   0.50144913 1.2159204e-06            0   0.50144791    1.3088014    1.8102505   -4.3180459 
 1040000    0.9069423 2.7541872e-05   0.45718668 6.3807168e-05            0   0.45712288    1.3490767    1.8062634    2.7463593 
 1045000   0.91844927 1.0493402e-05    0.4572031 9.3322894e-05            0   0.45710977    1.3661933    1.8233964    2.1815712 
 1050000   0.94009537 -2.4584254e-05   0.41076954 0.00038581494            0   0.41038373    1.3983919    1.8091614   0.97001888 
 1055000   0.85372217 -0.00011774236   0.54552475 6.7567031e-05            0   0.54545718    1.2699117    1.8154365   -2.2035027 
 1060000   0.92659824 6.9019561e-05    0.4395775            0            0    0.4395775    1.3783149    1.8178924    4.1737601 
 1065000   0.90979169 6.2279913e-05   0.46207048            0            0   0.46207048    1.3533151    1.8153856    3.9412067 
 1070000   0.89339048 -9.415188e-06   0.49790877            0            0   0.49790877    1.3289183    1.8268271    1.5054554 
 1075000   0.90146972 -8.2950909e-05   0.49781758 2.4157115e-05            0   0.49779342    1.3409362    1.8387538  -0.99263725 
 1080000    0.9032944 0.00013488676   0.48319632 0.00083070568            0   0.48236562    1.3436504    1.8268467    6.4309815 
 1085000   0.92149378 -0.00014117966   0.45274133 0.0016712521            0   0.45107008     1.370722    1.8234633    -2.995469 
 1090000   0.94177717 0.00013265818   0.45251685 0.0013624685            0   0.45115438    1.4008935    1.8534104    6.3814763 
 1095000   0.92099704 3.4020668e-05   0.46395323 0.0027603706            0   0.46119286    1.3699831    1.8339363    2.9951751 
 1100000   0.88449821 -9.720528e-05   0.50775248 0.0080538304            0   0.49969865    1.3156911    1.8234436   -1.4944967 
 1105000   0.92082411 9.2448045e-05   0.46360107 0.0047848421            0   0.45881622    1.3697259    1.8333269    4.9888869 
 1110000   0.86739806 -0.00025215947   0.54569591 0.00062083411            0   0.54507508    1.2902546    1.8359505   -6.7710929 
 1115000   0.90136758 9.7491872e-05   0.51961799 0.00019351465            0   0.51942447    1.3407843    1.8604023    5.1881248 
 1120000   0.92907523 -0.0001472027   0.49221758 0.0054005809            0     0.486817    1.3819994     1.874217   -3.1503017 
 1125000   0.87006881 2.2255103e-05   0.57301615  0.023631993            0   0.54938416    1.2942274    1.8672435    2.6268843 
 1130000    0.7958159 -5.4841892e-06   0.68259999 0.0061030318            0   0.67649696    1.1837761    1.8663761    1.6791825 
 1135000   0.89967043 0.00014844797   0.53954913 0.0065886202            0   0.53296051    1.3382598    1.8778089    6.9448331 
 1140000   0.90011945 -1.2605163e-05   0.54516084  0.011162866            0   0.53399798    1.3389277    1.8840885    1.4538323 
 1145000   0.90865038 5.6828406e-05   0.55419122  0.015494799            0   0.53869642    1.3516174    1.9058087    3.8455516 
 1150000   0.90521885 -0.00014429675   0.53842501  0.004061279            0   0.53436373     1.346513    1.8849381    -3.040391 
 1155000   0.87998328 0.00010826587   0.57113568 0.0011075748            0   0.57002811    1.3089751    1.8801108    5.5755857 
 1160000    0.9236152 -3.1958843e-05   0.49866382 0.0056616291            0   0.49300219    1.3738776    1.8725414   0.78167959 
 1165000   0.86251913  2.19201e-05   0.60361719 0.0073429079            0   0.59627428    1.2829972    1.8866144    2.6348205 
 1170000   0.91448732 8.0605824e-05   0.53044528 0.0011029796            0    0.5293423    1.3602999    1.8907452    4.6420906 
 1175000   0.96990857 -1.1735838e-06   0.45761591 0.0061845723            0   0.45143134     1.442739    1.9003549    1.8602966 
 1180000    0.8822011 -3.3445513e-05   0.58436994 0.0069908755            0   0.57737907    1.3122741    1.8966441   0.75503723 
 1185000     0.991515 6.6675567e-05   0.45072124 0.0027486728            0   0.44797256    1.4748786    1.9255998    4.2014592 
 1190000   0.91531751 -2.0627431e-05   0.57234795  0.002036421            0   0.57031153    1.3615348    1.9338827    1.2297998 
 1195000   0.99538826 5.2535952e-06    0.4653442 0.0017969914            0   0.46354721      1.48064    1.9459842     2.125307 
 1200000   0.96163906 -1.3256154e-05   0.53012679 0.00094693829            0   0.52917985    1.4304381    1.9605649    1.5080882 
 1205000   0.93424467 -2.0587391e-05   0.59075569 3.5779943e-05            0   0.59071991     1.389689    1.9804446    1.2777284 
 1210000   0.95913235 0.00014019603   0.56448718 4.5984224e-06            0   0.56448258    1.4267094    1.9911965    6.7765542 
 1215000   0.97790496 -9.5654675e-05   0.55850965 0.0017142768            0   0.55679537    1.4546336    2.0131433   -1.2518696 
 1220000    1.0303016 -0.00012297464   0.46861058 6.4520003e-05            0   0.46854606    1.5325736    2.0011842   -2.1963503 
 1225000    1.0008876 6.8857598e-05   0.51214972            0            0   0.51214972    1.4888203      2.00097    4.3513093 
 1230000    1.0249626 0.00011497124   0.46749387 0.0026289141            0   0.46486496    1.5246319    1.9921258    5.9164775 
 1235000   0.99894326 -0.00018615675   0.54247787  0.018863575            0    0.5236143    1.4859281     2.028406   -4.3257445 
 1240000   0.96567177 -0.00023700684   0.62096981 0.0093735842            0   0.61159623    1.4364368    2.0574066    -6.032427 
 1245000   0.99704692 0.00016351891    0.6065604  0.010367823            0   0.59619258    1.4831073    2.0896677    7.6711131 
 1250000    1.0351886 -6.0941285e-05   0.54801849 0.0031924209            0   0.54482607    1.5398431    2.0878616 0.0077324245 
 1255000     1.038736 -0.00011697217   0.53215452 0.00062730957            0   0.53152721    1.5451198    2.0772743   -1.9153757 
 1260000    1.0203917 -0.00013892324   0.55632152 0.00079837366            0   0.55552314    1.5178326    2.0741541   -2.6677591 
 1265000    1.0476405 0.00011973406   0.51600083 0.0011521912            0   0.51484864    1.5583652     2.074366    6.1612885 
 1270000   0.96866314 -5.2183968e-05   0.60929864 0.0018353425            0    0.6074633    1.4408864    2.0501851   0.26897229 
 1275000     1.006003 0.00013059048   0.54103292 0.0064387477            0   0.53459417    1.4964295    2.0374624    6.4949507 
 1280000     1.018861 6.9756163e-05   0.53447272 0.0098791473            0   0.52459357    1.5155557    2.0500284    4.4310388 
 1285000    1.0164508 0.00015144717   0.53778765 0.0076950697            0   0.53009258    1.5119705    2.0497582    7.2191548 
 1290000   0.97529699 8.6995447e-06   0.59566732 0.0077532996            0   0.58791402    1.4507543    2.0464216    2.3433661 
 1295000    1.0469928 -0.00012571519   0.51059045 0.0024678276            0   0.50812263    1.5574018    2.0679923   -2.2230862 
 1300000    1.0936132 -0.00010614647   0.43369873 0.00039569987            0   0.43330303    1.6267496    2.0604483   -1.5626846 
 1305000    1.0005114 7.2069484e-05   0.57053545 0.0039453723            0   0.56659007    1.4882607    2.0587962    4.5187679 
 1310000    1.0120932 -5.3596876e-05   0.56733089 0.0054898076            0   0.56184109    1.5054886    2.0728195   0.24337943 
 1315000    1.0185649 6.9884626e-05    0.5829774 0.0013593653            0   0.58161804    1.5151154    2.0980928     4.483488 
 1320000    1.0931469 5.6929167e-05   0.48783088            0            0   0.48783088     1.626056    2.1138869    4.0570691 
 1325000    1.1017672 1.9198365e-05   0.51722003 0.00036956248            0   0.51685046    1.6388787    2.1560988    2.8114029 
 1330000    1.1099894 -2.8053279e-05   0.48522287 0.0014102653            0   0.48381261    1.6511092    2.1363321    1.1787802 
 1335000    1.0655464 -0.00023582755   0.52964101 0.0015457015            0   0.52809531    1.5850003    2.1146413   -5.9349391 
 1340000    1.0451752 0.00022548712   0.54866392 0.00072065406            0   0.54794326    1.5546981     2.103362    9.7999891 
 1345000    1.0829165 1.899991e-05   0.47053908 0.0044304067            0   0.46610867    1.6108383    2.0813774    2.7299077 
 1350000   0.99525185 -0.00022057859   0.58855434 0.0084513114            0   0.58010303    1.4804371    2.0689915   -5.4600909 
 1355000     1.051627 3.4709032e-06   0.51440889 0.0024602897            0    0.5119486    1.5642951     2.078704    2.1971775 
 1360000    1.0210937 -5.4297551e-05   0.54163069 0.0004637857            0    0.5411669    1.5188769    2.0605075   0.20715115 
 1365000    1.0179774 -8.7166515e-05   0.54493794 0.0014343762            0   0.54350357    1.5142413    2.0591793  -0.91610444 
 1370000    1.0157015 8.9920168e-05   0.53619583 0.0058507778            0   0.53034505     1.510856    2.0470518    5.1163269 
 1375000    1.0118788 -0.00013481502   0.55332572  0.016601956            0   0.53672377    1.5051697    2.0584954   -2.5431906 
 1380000    1.0665713 4.9066813e-05   0.47560555 0.0027390149            0   0.47286654    1.5865248    2.0621303    3.7369442 
 1385000    1.0377944 -9.4171111e-05   0.51756709  0.001801556            0   0.51576554    1.5437191    2.0612862   -1.1530877 
 1390000    1.0069877 -8.8603646e-05   0.55411299 0.0035651994            0   0.55054779    1.4978942    2.0520072  -0.97233062 
 1395000    1.0632872 -0.0001392138   0.45823959   0.01045483            0   0.44778476    1.5816397    2.0398792   -2.7119518 
 1400000   0.98427353 0.00022888717   0.57052718  0.015750622            0   0.55477656    1.4641069    2.0346341     9.847316 
 1405000   0.93572955 4.2553612e-05   0.65675139  0.013630557            0   0.64312083    1.3918977    2.0486491    3.5011457 
 1410000    1.0137043 3.3100576e-05   0.56732047  0.017106034            0   0.55021444    1.5078851    2.0752056    3.2050386 
 1415000     1.015663 -0.00016338014   0.56054783   0.01467911            0   0.54586872    1.5107987    2.0713466   -3.5053624 
 1420000    1.0058785 1.5142627e-05   0.58932086  0.011242725            0   0.57807814    1.4962443    2.0855651    2.6024335 
 1425000    1.0230881 5.9051234e-05    0.5244343 0.0032755472            0   0.52115875    1.5218435    2.0462778    4.0618933 
 1430000   0.98825157 -4.2131579e-05   0.57728293 0.00020962118            0   0.57707331    1.4700242    2.0473071   0.60921592 
 1435000    1.0519336 9.0628005e-05   0.49422534 0.0064410424            0    0.4877843    1.5647513    2.0589766    5.1524125 
 1440000   0.98031622 8.4910273e-05   0.58547879 0.0099813164            0   0.57549747    1.4582204    2.0436992    4.9419698 
 1445000   0.98505908 1.8405918e-05   0.59032437 0.0054037987            0   0.58492058    1.4652754    2.0555998    2.6838551 
 1450000    1.0018282 -1.7921758e-05   0.58507384  0.016771408            0   0.56830243    1.4902194    2.0752932    1.4635639 
 1455000    1.0043463 8.6480448e-05   0.57243325  0.011340733            0   0.56109252    1.4939651    2.0663983    5.0182643 
 1460000   0.97363108 -0.00010399049   0.61996946  0.014889468            0   0.60507999    1.4482762    2.0682457   -1.4812963 
 1465000   0.99147573 -0.00012305487    0.6006247  0.010201661            0   0.59042304    1.4748201    2.0754448    -2.124828 
 1470000    1.0403179 4.4148712e-05   0.53389591 0.0015621108            0    0.5323338    1.5474729    2.0813688    3.5883115 
 1475000    1.0436494 7.5613314e-05   0.53707983 0.0014627992            0   0.53561703    1.5524285    2.0895083    4.6704428 
 1480000    1.0566688 -1.7633795e-06   0.53166449   0.00692789            0    0.5247366    1.5717948    2.1034593    2.0432693 
 1485000    1.0443231 -8.804851e-05   0.56245077  0.002064491            0   0.56038628    1.5534305    2.1158813  -0.88950784 
 1490000    1.0191425 -0.00015865833   0.58788034 0.00017586778            0   0.58770447    1.5159744    2.1038548   -3.3116827 
 1495000    1.0198093 0.00011797257   0.55948109            0            0   0.55948109    1.5169664    2.0764475    6.1032445 
 1500000    1.0128888 4.0098542e-05   0.57429476 0.00072520027            0   0.57356956     1.506672    2.0809668    3.4496637 
 1505000     1.017803 4.0530833e-05   0.55805006 0.0086485905            0   0.54940147    1.5139819     2.072032    3.4554844 
 1510000   0.94433267 -0.00021487951   0.66854471 0.0065848042            0    0.6619599    1.4046949    2.0732396   -5.2613144 
 1515000    1.0450079 -4.7718263e-05   0.49679587  0.014286102            0   0.48250977    1.5544493    2.0512451   0.42246177 
 1520000    1.0267003 5.8913589e-05   0.52683982  0.011302444            0   0.51553738    1.5272168    2.0540566    4.0649738 
 1525000   0.97770708 4.3078147e-05   0.59727064 0.0062599141            0   0.59101073    1.4543393    2.0516099    3.5220107 
 1530000    1.0508496 -3.7944652e-05   0.46513273 0.0063635294            0   0.45876921    1.5631388    2.0282715   0.73309407 
 1535000   0.99745697 4.2332009e-05   0.54213161 0.0055992363            0   0.53653237    1.4837172    2.0258489    3.4707814 
 1540000   0.98788767 -1.7372334e-05   0.55478789  0.010155057            0   0.54463283    1.4694829    2.0242708    1.4312951 
 1545000    1.0545294 -7.0380328e-05   0.47828772 0.0096039704            0   0.46868375    1.5686126    2.0469003  -0.35541493 
 1550000   0.96894794 0.00013292937   0.60991151   0.00607773            0   0.60383378    1.4413101    2.0512216    6.5885441 
 1555000   0.98886856 -5.8150501e-05   0.57271305 0.0096036019            0   0.56310944     1.470942     2.043655  0.058784592 
 1560000    1.0121781 2.7313988e-05   0.53692261 0.0039708221            0   0.53295179     1.505615    2.0425376    2.9748551 
 1565000    1.0508646 9.910987e-05    0.4986558 0.0053498057            0   0.49330599    1.5631611    2.0618169    5.4447672 
 1570000   0.98485061 -4.0981791e-05   0.59151866 0.0027832275            0   0.58873543    1.4649653    2.0564839   0.65763882 
 1575000    1.0592962  1.97364e-05    0.4778621 9.4980841e-05            0   0.47776712     1.575703    2.0535651    2.7272342 
 1580000    1.0923813 -0.00012178938   0.45159563 0.0036051112            0   0.44799052    1.6249173    2.0765129   -2.0805648 
 1585000    1.0629324 -7.05413e-05   0.52024337  0.012493031            0   0.50775034     1.581112    2.1013554  -0.30645432 
 1590000    1.0782256 1.9716992e-05   0.52154114  0.019129032            0   0.50241211    1.6038605    2.1254017    2.7984083 
 1595000    1.0824399 8.926375e-05   0.49427659  0.011178362            0   0.48309823    1.6101294     2.104406    5.1512753 
 1600000    1.0150387 0.00020610417    0.6254535 0.0015592521            0   0.62389424      1.50987    2.1353235    9.1703457 
 1605000   0.98846237 -2.0897598e-05   0.67923251 0.0013311839            0   0.67790133    1.4703378    2.1495703    1.4362656 
 1610000    1.0740484 -7.7698204e-05   0.53454437 0.0016125999            0   0.53293177     1.597647    2.1321914  -0.51990733 
 1615000    1.1230378 4.2417626e-05   0.45703121 0.0019195977            0   0.45511161    1.6705187    2.1275499    3.5754048 
 1620000    1.0647936 8.6064171e-05   0.54332683 0.0013702246            0    0.5419566    1.5838805    2.1272073    5.0648644 
 1625000    1.0297692 -0.00015747956   0.58462988 0.0086034978            0   0.57602638    1.5317818    2.1164116   -3.2588908 
 1630000     1.023139 2.5076845e-05   0.61876393  0.014367529            0    0.6043964    1.5219192    2.1406831    2.9966395 
 1635000    1.0322514 -4.2262175e-06   0.60110882  0.018173616            0    0.5829352    1.5354739    2.1365828    1.9923279 
 1640000     1.084417 -1.2308434e-05   0.52879184   0.00712357            0   0.52166827    1.6130703    2.1418621    1.7217342 
 1645000    1.0530943 0.00010089755   0.56318529  0.010932382            0   0.55225291    1.5664777     2.129663    5.5736327 
 1650000    1.0584179 -0.00014538353   0.54959895  0.030717932            0   0.51888102    1.5743966    2.1239956   -2.8384289 
 1655000    1.0080301 -0.00015400989   0.62073497   0.02484285            0   0.59589212    1.4994448    2.1201797   -3.1366911 
 1660000    1.0576552 0.0002133383   0.55554708  0.022751875            0   0.53279521    1.5732621    2.1288092    9.4107566 
 1665000    1.0480798 -2.4320859e-05    0.5668753  0.010752718            0   0.55612258    1.5590186    2.1258939     1.295742 
 1670000    1.0483322 0.00013317108   0.57850313 0.0022215287            0    0.5762816    1.5593942    2.1378973    6.6834701 
 1675000    1.0340985 0.00018168074   0.61180314 0.0024730393            0    0.6093301    1.5382215    2.1500246    8.3513938 
 1680000    1.0622204 0.00017229284   0.54144395 0.0098608155            0   0.53158314    1.5800528    2.1214968    8.0024258 
 1685000     1.057211 4.9926606e-06    0.5690085  0.013542948            0   0.55546555    1.5726014    2.1416099     2.312026 
 1690000   0.99856086 -0.00016414455   0.65161801 0.0055330087            0     0.646085    1.4853593    2.1369773   -3.4658234 
 1695000    1.0567908 3.2047339e-06   0.56773929  0.034244435            0   0.53349485    1.5719763    2.1397156    2.2491038 
 1700000    1.0227209 -0.00011120116      0.62655  0.065776026            0   0.56077397    1.5212974    2.1478474   -1.6478188 
 1705000    1.0552046 8.8877042e-05   0.58530719  0.025253654            0   0.56005354    1.5696168     2.154924    5.1885937 
 1710000    1.0786356 0.00019977334   0.54646869   0.02215365            0   0.52431504    1.6044704    2.1509391    8.9698692 
 1715000     1.063374 -3.949564e-06   0.57409916  0.018252302            0   0.55584686    1.5817688     2.155868    2.0210562 
 1720000    1.0953479 -6.0842911e-05   0.52548063  0.013239965            0   0.51224067      1.62933    2.1548106  0.078039257 
 1725000    1.1483947 3.9967695e-05   0.44488668   0.00610733            0   0.43877935    1.7082371    2.1531237    3.5173544 
 1730000    1.0677691 -1.2684086e-05   0.57694609 0.0037347257            0   0.57321137    1.5883065    2.1652526    1.7323024 
 1735000    1.1182195 -7.04149e-05   0.49856858 0.0051903202            0   0.49337826    1.6633515    2.1619201  -0.24157517 
 1740000    1.0736013 -7.7763351e-05   0.55500924 0.0050092803            0   0.54999996     1.596982    2.1519912   -0.5023312 
 1745000    1.0812178 6.7014609e-05   0.52010573  0.021676789            0   0.49842894    1.6083115    2.1284172    4.4158492 
 1750000    1.0547003 -7.2527813e-05    0.5528993   0.03108933            0   0.52180997    1.5688667     2.121766  -0.35384997 
 1755000    1.0395067 -7.4147707e-05   0.58290483 0.0038050353            0    0.5790998    1.5462663    2.1291711   -0.4017373 
 1760000    1.0419028 0.00011101558   0.57069104 0.0048919831            0   0.56579906    1.5498305    2.1205215    5.9098534 
 1765000    1.1128091 -6.0138309e-05   0.49138557 0.0011909588            0   0.49019461    1.6553035     2.146689  0.093968085 
 1770000    1.0710231 2.8439446e-05   0.56433893 0.0034328413            0   0.56090609    1.5931468    2.1574858    3.1282189 
 1775000    1.0027356 9.5399959e-05   0.67042581 0.0044275414            0   0.66599827    1.4915692     2.161995    5.4183136 
 1780000    1.0774464 0.00021300569   0.56450446 0.0011422447            0   0.56336222    1.6027015    2.1672059    9.4378003 
 1785000    1.0572621 6.624334e-05   0.61363862 0.0041099208            0    0.6095287    1.5726774     2.186316     4.447422 
 1790000    1.1458337 -3.6044662e-05   0.51457436 0.0094744924            0   0.50509987    1.7044276    2.2190019   0.98867748 
 1795000     1.025558 -0.0001445963   0.69054703 0.0071729203            0   0.68337411    1.5255175    2.2160645   -2.7194892 
 1800000    1.1334882 -9.7743308e-05   0.53973339  0.013709388            0     0.526024    1.6860636     2.225797   -1.1105079 
 1805000    1.0505062 6.1524927e-05   0.66026296  0.053119028            0   0.60714393    1.5626279    2.2228909    4.3229418 
 1810000     1.077865 9.1541993e-05   0.59239584 0.0096697509            0   0.58272609    1.6033242      2.19572    5.3203534 
 1815000    1.1176877 -7.1147504e-05   0.54008432  0.014440984            0   0.52564333    1.6625604    2.2026447  -0.22585675 
 1820000    1.1314668 4.3259433e-05   0.51423184  0.025449295            0   0.48878255    1.6830569    2.1972888    3.6738774 
 1825000    1.1302706 7.6352255e-05    0.5438352  0.019009636            0   0.52482556    1.6812775    2.2251127    4.8312696 
 1830000    1.0986035 -8.9624628e-05   0.59007911  0.049693671            0   0.54038544    1.6341728    2.2242519  -0.83493543 
 1835000    1.0939185 3.6786582e-05   0.61686688 0.0065746172            0   0.61029227    1.6272038    2.2440707    3.4997193 
 1840000    1.1397835 -2.9871286e-05   0.53423036  0.020245718            0   0.51398464    1.6954279    2.2296583    1.2100517 
 1845000    1.1401257 6.0602982e-05   0.55248284  0.024892339            0   0.52759051     1.695937    2.2484199    4.3170017 
 1850000    1.1309103 0.00011170515   0.55000571  0.014345055            0   0.53566066    1.6822291    2.2322348     6.045104 
 1855000    1.0555314 -1.6567587e-05   0.65920749 0.0079664724            0   0.65124102     1.570103    2.2293105    1.6638035 
 1860000    1.1251124 -8.9066565e-05   0.56029827 0.0099979914            0   0.55030028    1.6736047     2.233903  -0.80623576 
 1865000     1.078889 4.4410297e-05   0.60694348  0.013483744            0   0.59345973    1.6048475    2.2117909    3.7276624 
 1870000    1.0855771 -8.1890978e-05   0.61135516  0.026616195            0   0.58473897    1.6147959    2.2261511  -0.56906098 
 1875000    1.1200949 0.00015508818   0.56188888  0.025334712            0   0.53655417    1.6661412      2.22803    7.5217066 
 1880000    1.0659108 9.1084041e-05   0.64792518  0.020346361            0   0.62757882    1.5855423    2.2334675    5.3424694 
 1885000     1.079756 -6.7499807e-05   0.63726552  0.022805719            0    0.6144598     1.606137    2.2434025 -0.060590876 
 1890000    1.0874114 -0.00013952243   0.64407633  0.010922676            0   0.63315365    1.6175245    2.2616009   -2.5007647 
 1895000    1.1429009 -2.1037427e-05   0.57142052 0.0025754141            0    0.5688451     1.700065    2.2714855     1.553408 
 1900000    1.1379797 2.0713256e-05   0.55443927  0.010675512            0   0.54376376    1.6927447     2.247184    2.9541965 
 1905000    1.1804767 0.00016219946   0.48775528 0.0069327614            0   0.48082252     1.755959    2.2437143    7.7801225 
 1910000    1.0814274 -7.3320579e-05    0.6151323  0.025193554            0   0.58993875    1.6086233    2.2237556  -0.27892013 
 1915000    1.1478434 1.844446e-05   0.53043408  0.015341428            0   0.51509265     1.707417    2.2378511     2.867422 
 1920000    1.1120414 0.00012868863   0.60689454   0.01214986            0   0.59474468    1.6541615    2.2610561     6.653628 
 1925000    1.0759924 0.00013028126   0.66680818  0.025253238            0   0.64155494    1.6005387    2.2673469    6.7142804 
 1930000    1.1353052 0.00014460373   0.57476507  0.025431137            0   0.54933393    1.6887665    2.2635316     7.199339 
 1935000    1.0554816 -1.8640531e-05   0.67290107  0.031653309            0   0.64124777    1.5700288    2.2429299    1.6066664 
 1940000    1.1367654 -0.00013810562   0.53770662  0.022299331            0   0.51540729    1.6909385    2.2286451   -2.4853601 
 1945000     1.093148 -4.5921258e-05   0.58191423  0.014635286            0   0.56727894    1.6260576    2.2079718   0.64052623 
 1950000    1.1255142 8.4408574e-05   0.54152644  0.017652241            0    0.5238742    1.6742023    2.2157288    5.0968747 
 1955000    1.0792062 -7.1492165e-05   0.62783113  0.045358785            0   0.58247235    1.6053193    2.2331504   -0.2071155 
 1960000    1.0670249 -8.7508765e-05    0.6328388 0.0090136534            0   0.62382515    1.5871996    2.2200384  -0.76692749 
 1965000    1.0698163 -0.00010236559    0.6216458  0.019852514            0   0.60179329    1.5913518    2.2129976   -1.2810811 
 1970000    1.1451603 -3.0454513e-05   0.52838012  0.018632017            0    0.5097481    1.7034259     2.231806     1.192292 
 1975000    1.1411299 8.9783474e-05    0.5401071  0.014037156            0   0.52606995    1.6974308    2.2375379    5.3021471 
 1980000    1.1515652 -7.4641054e-06   0.53947401  0.010048383            0   0.52942563    1.7129532    2.2524272    1.9976524 
 1985000    1.1657946 1.4902095e-06   0.50975828 0.0057481194            0   0.50401016    1.7341194    2.2438777    2.2947435 
 1990000    1.1003056 -0.00011727764   0.62429266  0.019314213            0   0.60497845    1.6367046    2.2609973   -1.7420794 
 1995000    1.1532763 1.4142224e-05   0.55740621  0.011992591            0   0.54541362    1.7154984    2.2729047    2.7556259 
 2000000    1.1060883 3.7934146e-05   0.59297642  0.013136554            0   0.57983986    1.6453064    2.2382828    3.5331017 
 2005000    1.1666215 -7.3038544e-05   0.51867091  0.027635791            0   0.49103512    1.7353494    2.2540204  -0.23902862 
 2010000    1.1128308 -5.4613997e-05   0.60693669  0.030040958            0   0.57689573    1.6553358    2.2622725   0.39811467 
 2015000    1.1305115 0.00011390718   0.57236138  0.041279587            0   0.53108179    1.6816358    2.2539972    6.1420289 
 2020000    1.0873117 7.2287367e-05   0.63296792  0.013940844            0   0.61902708    1.6173761     2.250344    4.7177528 
 2025000    1.1423542 -0.00013808246   0.55244525  0.011257001            0   0.54118825    1.6992518    2.2516971   -2.4615175 
 2030000    1.0976444 -0.00014625703   0.63257966  0.017141154            0    0.6154385    1.6327461    2.2653257   -2.7269142 
 2035000     1.167668 -7.873702e-05   0.53661037 0.0095708282            0   0.52703955    1.7369061    2.2735165  -0.41404046 
 2040000    1.1310806 -7.7711644e-05   0.60848448  0.011235774            0    0.5972487    1.6824824    2.2909669  -0.36159055 
 2045000    1.1132893 0.00017352714   0.62864029  0.023002567            0   0.60563772    1.6560178    2.2846581    8.2077178 
 2050000    1.1294318 4.0266553e-05   0.61218691 0.0076051767            0   0.60458173    1.6800298    2.2922167    3.6666484 
 2055000    1.1727686 -0.00019256058   0.56426789  0.001416333            0   0.56285156    1.7444933    2.3087612   -4.2639732 
 2060000    1.1624198 8.0058841e-05   0.58835777 0.0099989603            0   0.57835881    1.7290994    2.3174572    5.0501323 
 2065000    1.1173001 4.5222572e-05   0.64086208  0.016843806            0   0.62401827    1.6619839     2.302846    3.8464431 
 2070000    1.1006234 -0.00010936341   0.65011905 0.0079866092            0   0.64213244    1.6371773    2.2872964   -1.4456415 
 2075000    1.1292398 -5.7329634e-05   0.61232371  0.010177973            0   0.60214573    1.6797442     2.292068   0.33521645 
 2080000    1.2013776 -7.9157855e-05   0.52519352  0.032176927            0   0.49301659    1.7870492    2.3122427  -0.38967871 
 2085000    1.1408097 8.0516403e-06   0.60372687  0.027394674            0    0.5763322    1.6969545    2.3006813    2.5755106 
 2090000    1.1472136 0.00020663075   0.56876941 0.0021928367            0   0.56657657    1.7064802    2.2752496    9.3282457 
 2095000    1.0936394 0.00014433697   0.65713779  0.010223374            0   0.64691441    1.6267886    2.2839264    7.2106282 
 2100000    1.1459897 0.00014417247   0.54641971  0.011657004            0    0.5347627    1.7046597    2.2510794    7.1721664 
 2105000    1.1782285 -4.1995331e-06   0.46670635 0.0040971993            0   0.46260915    1.7526149    2.2193213    2.0759772 
 2110000    1.0124661 -0.00019078393    0.7000593  0.013182017            0   0.68687728    1.5060434    2.2061027   -4.3059888 
 2115000    1.0375405 0.00011551797   0.66710015  0.013880834            0   0.65321932    1.5433415    2.2104416     6.153455 
 2120000    1.0569247 -0.00014639579   0.62318444  0.024642638            0   0.59854181    1.5721756      2.19536   -2.8016162 
 2125000    1.0681269 0.00011735359   0.59756927  0.037899447            0   0.55966982    1.5888388    2.1864081    6.1920772 
 2130000    1.0630092 0.00013068439   0.62695165  0.010422715            0   0.61652893    1.5812262    2.2081778    6.6688716 
 2135000    1.0407834 -5.9027361e-05   0.65406916  0.011274782            0   0.64279438    1.5481653    2.2022345   0.18743393 
 2140000    1.1011635 4.1734387e-05   0.56120937  0.010515739            0   0.55069363    1.6379807    2.1991901    3.6237238 
 2145000    1.0809439 -2.3380585e-05   0.58439116  0.013231663            0    0.5711595    1.6079041    2.1922952    1.3942379 
 2150000    1.0718261 -1.5227545e-05   0.62153203  0.039875597            0   0.58165643    1.5943413    2.2158733    1.6961064 
 2155000    1.1390505 2.9528705e-05   0.53570984  0.030520266            0   0.50518957    1.6943377    2.2300475    3.2379607 
 2160000    1.0505988 4.3794844e-05   0.64883559  0.063765733            0   0.58506985    1.5627658    2.2116014    3.7064654 
 2165000    1.1249838 3.2556787e-05   0.54925491   0.03930679            0   0.50994812    1.6734134    2.2226683      3.33394 
 2170000    1.0550171 -4.6433319e-05   0.63812277   0.03082654            0   0.60729623    1.5693379    2.2074607   0.62253672 
 2175000    1.0903965 -6.5639507e-05   0.56107608  0.022175113            0   0.53890096    1.6219648    2.1830409 -0.057454273 
 2180000    1.1247094 0.00014088565   0.50377255 0.0090844242            0   0.49468812    1.6730052    2.1767778    6.9856746 
 2185000    1.0288757 -9.1996938e-05   0.61934201 0.0079865143            0   0.61135549    1.5304526    2.1497946  -0.99036754 
 2190000     1.090555 -0.00010011012   0.52638841 0.0047691517            0   0.52161926    1.6222006     2.148589   -1.2685032 
 2195000    1.0356447 -5.2630932e-05   0.59925532   0.01392275            0   0.58533257    1.5405214    2.1397767   0.34330758 
 2200000    1.0270265 -5.8821436e-05   0.59425039   0.05873627            0   0.53551412    1.5277019    2.1219523   0.11418063 
 2205000    1.0687516 -3.6387912e-05   0.53176827  0.045835755            0   0.48593252    1.5897679    2.1215362   0.87949548 
 2210000    1.0618087 -8.3759012e-05   0.51642438  0.041492154            0   0.47493222    1.5794405    2.0958649  -0.76310944 
 2215000   0.99573429 3.6975235e-05   0.61485179  0.031883224            0   0.58296857    1.4811548    2.0960065    3.3580946 
 2220000    1.0106334 3.1709944e-05   0.55425612   0.01998371            0   0.53427242    1.5033172    2.0575734    3.1399395 
 2225000   0.92905437 -3.0495921e-05   0.67686152  0.040597175            0   0.63626434    1.3819684    2.0588299    1.0179025 
 2230000   0.99864513 -4.4322385e-05   0.56910794  0.022976065            0   0.54613187    1.4854846    2.0545926   0.54172183 
 2235000     1.041753 6.3465301e-05   0.51894338  0.014672687            0    0.5042707    1.5496076    2.0685509    4.2348332 
 2240000    1.0101734 0.00010954026   0.59843995  0.026099218            0   0.57234073    1.5026329    2.1010728    5.8400469 
 2245000   0.96395419 7.0775643e-05   0.66002374  0.017067236            0   0.64295651    1.4338819    2.0939056    4.5097142 
 2250000    1.0615612 8.6180514e-06   0.53643699  0.010268917            0   0.52616807    1.5790722    2.1155092     2.409672 
 2255000    1.0717151 -1.1026281e-05   0.51502959  0.013384754            0   0.50164484    1.5941763    2.1092058    1.7328421 
 2260000    1.0397881 -0.00021317117   0.58480324  0.011038201            0   0.57376504    1.5466848     2.131488   -5.1447545 
 2265000    1.0206975 -0.0001411602   0.62559102  0.012737227            0    0.6128538    1.5182876    2.1438786   -2.6743897 
 2270000    1.0801845 9.5376183e-05   0.52765598 0.0076487428            0   0.52000724    1.6067744    2.1344304    5.3899374 
 2275000   0.97508285 -7.5912055e-05   0.64731928  0.014849753            0   0.63246953    1.4504357     2.097755  -0.49337645 
 2280000      1.09798 8.7805997e-05   0.47637621  0.013060025            0   0.46331618    1.6332453    2.1096215    5.1067329 
 2285000    1.0051122 6.1087167e-05   0.59407881   0.01784157            0   0.57623724    1.4951044    2.0891832    4.1742918 
 2290000    1.0235128 1.6540191e-06   0.55582416 0.0089363171            0   0.54688784    1.5224753    2.0782995    2.1347567 
 2295000    1.0737159 -5.7203716e-05   0.48356265 0.00076374848            0    0.4827989    1.5971524     2.080715   0.12816154 
 2300000   0.98679559 -2.9544317e-05   0.61313804 0.00071202179            0   0.61242602    1.4678584    2.0809965    1.0725505 
 2305000   0.98460559 2.8883826e-05   0.58577183 0.00022016126            0   0.58555167    1.4646008    2.0503727    3.0362739 
 2310000    1.0438172 5.4415191e-06   0.49285602 0.0018578168            0    0.4909982    1.5526782    2.0455342    2.2312714 
 2315000    1.0126811 -2.6513069e-05   0.51276245 0.0096171958            0   0.50314525    1.5063632    2.0191256    1.1141462 
 2320000    1.0032983 -2.9111686e-05   0.54219312  0.013817577            0   0.52837554    1.4924062    2.0345993    1.0409204 
 2325000    1.0099938 -9.0171865e-05   0.53502221  0.015439821            0   0.51958239    1.5023658     2.037388   -1.0404783 
 2330000   0.99829459 -0.00022721166   0.55038402  0.011461449            0   0.53892257    1.4849632    2.0353472    -5.720144 
 2335000   0.98015155 -1.5098836e-05   0.54691167 0.0088846787            0     0.538027    1.4579754    2.0048871    1.4895135 
 2340000   0.95360306 0.00022921155   0.58667068  0.018219644            0   0.56845103    1.4184845    2.0051552    9.8289094 
 2345000   0.92152765 -3.4815092e-05   0.64870148  0.022950186            0   0.62575129    1.3707724    2.0194739   0.83111871 
 2350000    1.0251478 -6.6324606e-05   0.48568793  0.018239863            0   0.46744806    1.5249073    2.0105953  -0.25328462 
 2355000   0.94975573 0.00014805081   0.57717773 0.0060568594            0   0.57112087    1.4127617    1.9899394    7.0434072 
 2360000   0.93952097 -6.5073685e-05   0.59098175 0.0060586936            0   0.58492306    1.3975374    1.9885192  -0.23266257 
 2365000   0.90294362 -0.00017055149   0.63351131  0.022987102            0   0.61052421    1.3431286    1.9766399   -3.8448511 
 2370000   0.96382856 0.00021189566   0.51790116  0.035911587            0   0.48198957     1.433695    1.9515961    9.1843013 
 2375000    1.0227084 3.4464412e-05   0.42981368  0.020428802            0   0.40938488    1.5212787    1.9510924    3.1274776 
 2380000   0.90721802 -0.00022865452   0.57008823  0.010431227            0     0.559657    1.3494868     1.919575   -5.8851659 
 2385000   0.89143224 -4.000785e-05   0.57201373  0.009520454            0   0.56249328    1.3260055    1.8980192   0.53241792 
 2390000    1.0159226 -2.2359144e-05   0.38780449  0.017573835            0   0.37023066    1.5111848    1.8989893    1.1357972 
 2395000   0.90686295 1.0062289e-05   0.55825836  0.014486068            0   0.54377229    1.3489586     1.907217    2.2506764 
 2400000   0.92370802 0.00018663392   0.52878974 0.0030070619            0   0.52578268    1.3740157    1.9028054    8.2732433 
 2405000    0.9115081 0.0002822947    0.5576171  0.025912754            0   0.53170434    1.3558683    1.9134854    11.549145 
 2410000   0.93608334 8.5859864e-05   0.54089795  0.041353768            0   0.49954418     1.392424    1.9333219    4.8640053 
 2415000   0.93173571 -2.2597831e-05   0.53936788  0.013424652            0   0.52594323    1.3859569    1.9253247    1.1539854 
 2420000   0.94239674 -0.00010010949   0.51245524 0.0063312368            0     0.506124    1.4018152    1.9142704   -1.5028002 
 2425000   0.95508559 -5.1600626e-05   0.49771565  0.014338762            0   0.48337689    1.4206898    1.9184055   0.15710412 
 2430000   0.93594315 -4.4530912e-05   0.52036321  0.027154949            0   0.49320826    1.3922154    1.9125786   0.39259019 
 2435000   0.94611835 7.9991991e-05   0.50269677   0.02443707            0    0.4782597    1.4073511    1.9100478    4.6404411 
 2440000   0.94067057 9.4137761e-05   0.51721607   0.01344663            0   0.50376944    1.3992475    1.9164635    5.1296991 
 2445000   0.99792291 -5.1579504e-05   0.43350562  0.013851243            0   0.41965438    1.4844103     1.917916   0.15733556 
 2450000   0.95069111 -7.1711829e-05   0.50990275  0.016696521            0   0.49320623     1.414153    1.9240558  -0.52370798 
 2455000   0.95874644 -1.6369364e-05   0.47686846  0.015751111            0   0.46111734    1.4261353    1.9030038    1.3442628 
 2460000   0.98922257 0.00012902685   0.44236787    0.0213666            0   0.42100127    1.4714686    1.9138364    6.3179531 
 2465000    0.9331367 0.00023096643    0.5468577  0.022265357            0   0.52459234    1.3880408    1.9348985    9.8185528 
 2470000   0.93137614 7.7626555e-06   0.52246261 0.0094443998            0   0.51301821     1.385422    1.9078846    2.1728499 
 2475000   0.94834085 -0.0001765727   0.49752056 0.0079528053            0   0.48956776     1.410657    1.9081776   -4.1188372 
 2480000   0.96463906 -0.00016290654   0.48284427  0.018722121            0   0.46412215    1.4349006    1.9177449   -3.6427982 
 2485000   0.90890551 -3.724125e-05   0.56192162  0.048818762            0   0.51310285    1.3519969    1.9139186   0.64275055 
 2490000   0.94342806 -3.7113513e-05   0.50633453  0.013597855            0   0.49273667    1.4033492    1.9096838   0.64287586 
 2495000    0.9162866 -6.3145667e-05   0.53880495  0.018884462            0   0.51992049    1.3629763    1.9017813  -0.25359082 
 2500000   0.96322941 2.6260895e-05   0.47574882  0.022644436            0   0.45310438    1.4328038    1.9085526    2.8049245 
 2505000   0.98107847 -1.5873587e-05   0.47555263  0.010235684            0   0.46531695    1.4593542    1.9349069    1.3930884 
 2510000   0.99856933 -6.0347764e-05     0.432463 0.00048569255            0   0.43197731    1.4853719    1.9178349  -0.14203547 
 2515000   0.96642719 -5.736881e-05   0.50472668 4.071179e-05            0   0.50468597    1.4375604    1.9422871 -0.015901598 
 2520000   0.95257211 -8.7566706e-05   0.53861901 0.00020278271            0   0.53841623     1.416951      1.95557   -1.0333735 
 2525000   0.93756485 -3.445388e-05   0.54752905 0.00071615649            0   0.54681289    1.3946277    1.9421568   0.76613097 
 2530000    1.0175472 5.4205891e-05   0.42409113   0.01274995            0   0.41134118    1.5136015    1.9376926    3.7879203 
 2535000   0.92675846 3.6653352e-05   0.54205799  0.018869893            0    0.5231881    1.3785532    1.9206112    3.1717123 
 2540000   0.94167794 3.3660583e-06   0.53060433  0.039310522            0   0.49129381    1.4007459    1.9313503    2.0462451 
 2545000   0.94130605 9.9383164e-05   0.52610636  0.019449698            0   0.50665667    1.4001927    1.9262991    5.3185778 
 2550000   0.97594939 4.8760429e-05   0.49213351 0.0075655781            0   0.48456794    1.4517247    1.9438582    3.6082142 
 2555000   0.92107378 -0.000202118   0.56842621 0.0011010265            0   0.56732519    1.3700972    1.9385235   -4.9604377 
 2560000    1.0048362 -5.5706652e-05    0.4529162 0.00015091271            0   0.45276529    1.4946938      1.94761  0.046156313 
 2565000   0.99470783 1.9329423e-05   0.45375558 0.0044835793            0     0.449272    1.4796279    1.9333835    2.5931611 
 2570000   0.96597371 1.3813602e-05   0.50235515  0.012221138            0   0.49013402    1.4368859    1.9392411    2.4107453 
 2575000   0.96876045 3.1253673e-05   0.49394324 0.0069308067            0   0.48701243    1.4410312    1.9349744    3.0017664 
 2580000   0.95925539 9.445804e-05    0.4753963  0.020191425            0   0.45520487    1.4268924    1.9022887    5.1264565 
 2585000   0.99391744 4.8580103e-05   0.43630028  0.020800081            0    0.4155002    1.4784522    1.9147525    3.5729533 
 2590000   0.94359878 7.9105776e-05    0.4825429  0.016907173            0   0.46563573    1.4036032    1.8861461    4.5862899 
 2595000    0.9521343 0.00010546114   0.48082086 0.0095240977            0   0.47129677    1.4162998    1.8971206    5.4968609 
 2600000   0.97624135 3.441534e-05   0.45196625  0.016642785            0   0.43532347     1.452159    1.9041253    3.0788355 
 2605000   0.93711994 3.3135914e-05   0.50065317  0.048002635            0   0.45265054    1.3939659    1.8946191    3.0256583 
 2610000    0.9301054 -6.6700893e-05   0.52234638  0.029441251            0   0.49290512    1.3835318    1.9058782  -0.37084565 
 2615000   0.90843548 -9.5866132e-05     0.552144  0.026852573            0   0.52529143    1.3512978    1.9034418   -1.3687889 
 2620000   0.98558655 6.9716444e-05   0.43814681  0.041034538            0   0.39711227      1.46606    1.9042068    4.2838614 
 2625000   0.94300013 0.0001120972   0.48545286  0.013170716            0   0.47228214    1.4027127    1.8881656    5.7144168 
 2630000   0.92078905 -9.4124981e-05   0.51570462  0.024253002            0   0.49145162    1.3696737    1.8853783    -1.327421 
 2635000    0.9235642 -8.1973672e-05   0.48626336 0.0055455188            0   0.48071784    1.3738017    1.8600651  -0.93796957 
 2640000   0.94799598 2.6736624e-06   0.43975586 0.0057271505            0   0.43402871     1.410144    1.8498999    1.9411609 
 2645000   0.85817811 -7.263706e-05   0.58452007  0.028145219            0   0.55637486    1.2765399      1.86106  -0.61828496 
 2650000   0.93408845 -8.2007324e-06   0.45767149  0.025947968            0   0.43172352    1.3894566    1.8471281    1.5672097 
 2655000   0.91088169 -5.9282219e-05   0.49400326  0.020531891            0   0.47347137    1.3549365    1.8489398  -0.17455997 
 2660000    0.9304362 -9.3723626e-05   0.45145048  0.021095914            0   0.43035457    1.3840239    1.8354743   -1.3636254 
 2665000   0.92579134 5.4197119e-05   0.46853894  0.028346866            0   0.44019208    1.3771146    1.8456536    3.6955819 
 2670000   0.89645335 0.00017671268   0.52726428  0.039320324            0   0.48794396    1.3334744    1.8607386    7.8925314 
 2675000   0.90785246 6.7295578e-05   0.48383786  0.021893016            0   0.46194485    1.3504305    1.8342684    4.1312908 
 2680000   0.95695612 -0.00016242709   0.41329319 0.0045322036            0   0.40876098    1.4234722    1.8367654   -3.7074125 
 2685000   0.94052021 -0.00020057796   0.46984671 0.00085119461            0   0.46899551    1.3990238    1.8688705   -4.9775237 
 2690000   0.96106213 4.4611247e-06   0.45120812 0.0057602444            0   0.44544787    1.4295799     1.880788    2.0330611 
 2695000   0.99061482 9.4726489e-05   0.39091953 0.0037748468            0   0.38714468    1.4735395    1.8644591    5.0977899 
 2700000   0.95249503 2.1299774e-05   0.43223176 0.00054401128            0   0.43168774    1.4168364    1.8490681    2.5761004 
 2705000   0.92900351 6.1131061e-06   0.48381368  0.014783379            0    0.4690303    1.3818927    1.8657064    2.0743671 
 2710000   0.96867969 4.3464141e-05   0.42904577  0.027734372            0    0.4013114     1.440911    1.8699568    3.3535328 
 2715000   0.90807994 5.597149e-05   0.54063684  0.018120199            0   0.52251664    1.3507689    1.8914058    3.8018993 
 2720000   0.89608637 -7.1140764e-05   0.54968925  0.016448859            0   0.53324039    1.3329285    1.8826177  -0.54565367 
 2725000   0.94370208 7.6137289e-06   0.47365271   0.01724314            0   0.45640957    1.4037569    1.8774096    2.1372915 
 2730000   0.96689914 1.7917803e-06   0.43515146   0.02036981            0   0.41478165    1.4382625    1.8734139    1.9345734 
 2735000    0.9330199 -8.6057319e-05   0.46909902 0.0011019633            0   0.46799706    1.3878671    1.8569661    -1.080457 
 2740000   0.92458696 -0.00010516904   0.48835573 0.0016638814            0   0.48669184    1.3753231    1.8636788   -1.7260911 
 2745000   0.89446131 -0.00010749642   0.51245313  0.021765794            0   0.49068734    1.3305112    1.8429643   -1.8262467 
 2750000   0.88408477 2.0509916e-05   0.54412809  0.086686844            0   0.45744125    1.3150761    1.8592042     2.559276 
 2755000   0.91343961 -0.00014525971   0.51291345  0.026104564            0   0.48680888    1.3587414    1.8716549   -3.0865432 
 2760000   0.97009944 -8.3289383e-05     0.449429 0.0099250874            0   0.43950391    1.4430229    1.8924519  -0.95049236 
 2765000   0.97865356 6.2991366e-05   0.40380445  0.014489277            0   0.38931517    1.4557472    1.8595516    4.0096569 
 2770000   0.92489564 -3.82726e-06   0.45862681 0.0068844049            0    0.4517424    1.3757823    1.8344091    1.7037719 
 2775000   0.91352515 0.00011745391   0.49695949   0.03241285            0   0.46454664    1.3588687    1.8558281    5.8649215 
 2780000   0.93153049 0.00013081449   0.46536267   0.02374794            0   0.44161473    1.3856516    1.8510143    6.3161488 
 2785000   0.92793571 0.00012759778   0.47416865  0.044898703            0   0.42926994    1.3803044     1.854473    6.2098104 
 2790000    0.8500188 -4.3830259e-05   0.60728998  0.034045822            0   0.57324416     1.264403    1.8716929   0.37562009 
 2795000   0.93153743 -6.7450284e-05   0.49967484  0.021265071            0   0.47840977    1.3856619    1.8853368  -0.41696628 
 2800000    1.0066058 -7.7621933e-06   0.39997555  0.011781791            0   0.38819375    1.4973262    1.8973017    1.6323522 
 2805000    0.9030821 -0.00012726436   0.56236372 0.0091977338            0   0.55316599    1.3433346    1.9056983   -2.4382584 
 2810000   0.97034594 -9.5699421e-05   0.47595484 0.0033912079            0   0.47256363    1.4433896    1.9193444   -1.3471958 
 2815000   0.95029875 6.9897425e-05   0.51018058 0.00031240431            0   0.50986817    1.4135694      1.92375    4.3095821 
 2820000   0.93105725 -4.87137e-05   0.54170737  0.001415468            0    0.5402919    1.3849477     1.926655   0.26389408 
 2825000   0.96892456 7.0646232e-05   0.47814305 0.0028558941            0   0.47528716    1.4412753    1.9194183    4.3308097 
 2830000   0.98141821 0.00011905332   0.48661475  0.011912834            0   0.47470192    1.4598596    1.9464743     6.010161 
 2835000   0.96420753 2.685373e-05   0.49150113   0.01966863            0    0.4718325    1.4342587    1.9257598    2.8423672 
 2840000   0.91294495 -2.205522e-05   0.56023172 0.0051396465            0   0.55509207    1.3580056    1.9182373    1.1654191 
 2845000   0.97878304 -1.5675854e-05   0.48814421 0.0030352548            0   0.48510896    1.4559398     1.944084    1.4090149 
 2850000   0.99748835 8.2604168e-05   0.45215125  0.011004852            0   0.44114639    1.4837639    1.9359152    4.7554708 
 2855000   0.91118974 -9.4346789e-05   0.56815614  0.017570318            0   0.55058582    1.3553947    1.9235509   -1.2968195 
 2860000   0.99815974 4.3908092e-05   0.43581525 0.0038948261            0   0.43192043    1.4847626    1.9205779    3.4193074 
 2865000   0.95047666 -6.8819622e-05   0.49066208 0.0084160613            0   0.48224602     1.413834    1.9044961  -0.44454697 
 2870000   0.89444967 -0.00013382445   0.59065805  0.010901805            0   0.57975624    1.3304939    1.9211519   -2.6467225 
 2875000   0.97604992 7.1542528e-05    0.4669203  0.012749511            0   0.45417079    1.4518742    1.9187946    4.3607795 
 2880000   0.91124005 0.00010898355   0.54560767  0.021109729            0   0.52449794    1.3554696    1.9010772     5.621049 
 2885000   0.96573378 0.00015271089   0.46255221  0.020460662            0   0.44209155     1.436529    1.8990812    7.1116128 
 2890000   0.93401029 4.7466125e-05   0.52034975 0.0071043268            0   0.51324543    1.3893403    1.9096901    3.5298671 
 2895000   0.94439877 -4.7214575e-05   0.48464718  0.012278986            0    0.4723682    1.4047932    1.8894404   0.27784955 
 2900000   0.96509457 -8.1651442e-05   0.45205546  0.013743339            0   0.43831212    1.4355782    1.8876336  -0.89940225 
 2905000   0.91172098 -1.417536e-05   0.53519866  0.013851643            0   0.52134702     1.356185    1.8913836    1.4075313 
 2910000   0.88491258 9.7878723e-05   0.58248985  0.021566505            0   0.56092335    1.3163075    1.8987973    5.2397244 
 2915000   0.95266212 9.9593409e-05   0.48879284  0.023868032            0   0.46492481    1.4170849    1.9058778    5.3053328 
 2920000   0.92945489 -9.3143237e-05   0.54387448  0.035978333            0   0.50789615    1.3825641    1.9264386   -1.2528505 
 2925000   0.96996751 1.7440719e-05   0.47265789  0.010324876            0   0.46233302    1.4428267    1.9154846    2.5107944 
 2930000   0.94891958 7.5713011e-05   0.53532815 0.0061400893            0   0.52918806    1.4115179     1.946846    4.5311835 
 2935000    1.0043874 2.862834e-05   0.45509669  0.014423641            0   0.44067305    1.4940263     1.949123    2.9263036 
 2940000   0.94806863 -0.0001247619   0.55841579  0.025036746            0   0.53337904    1.4102521    1.9686679   -2.2898717 
 2945000   0.96908134 -2.9225322e-05   0.54045021  0.013319142            0   0.52713107    1.4415085    1.9819587   0.98440103 
 2950000   0.93014441 -2.4090276e-05   0.59314372  0.006341498            0   0.58680222    1.3835898    1.9767335    1.1544521 
 2955000   0.94014569 -0.0001397706    0.5951162 0.0090676909            0   0.58604851    1.3984667    1.9935829   -2.7772537 
 2960000    0.9749735 -9.6143377e-05   0.55271335  0.017460678            0   0.53525267    1.4502731    2.0029864   -1.2787075 
 2965000   0.95457397 3.8287283e-05   0.59700061  0.018806995            0   0.57819362    1.4199288    2.0169294     3.323802 
 2970000    1.0089979 6.098504e-05   0.51548059  0.010237453            0   0.50524314    1.5008844     2.016365    4.0979876 
 2975000   0.93041268 -5.7088031e-05   0.61468498  0.016702809            0   0.59798218    1.3839889    1.9986738  0.050069049 
 2980000   0.98851338 -1.033408e-05   0.53594298  0.011012275            0    0.5249307    1.4704137    2.0063566      1.65362 
 2985000   0.97051925 -5.5841803e-05   0.57066727 0.0098057344            0   0.56086154    1.4436474    2.0143147    0.1082478 
 2990000   0.96282093 4.7791855e-05   0.57698604  0.027508752            0   0.54947729    1.4321961    2.0091822    3.6404775 
 2995000   0.94837046 7.8007384e-05   0.58251287  0.028175228            0   0.55433764    1.4107011    1.9932139     4.655866 
 3000000   0.95489891 -0.00010071501   0.57882871 0.0036393518            0   0.57518936    1.4204121    1.9992408   -1.4384982 
 3005000   0.96058309 0.00014784467   0.57771233  0.002121506            0   0.57559083    1.4288673    2.0065797    7.0530111 
 3010000   0.97180228 9.557827e-05   0.55662458  0.011225844            0   0.54539873    1.4455559    2.0021805    5.2645854 
 3015000   0.99379614 -0.00013658956   0.52310978  0.016635863            0   0.50647392    1.4782718    2.0013815   -2.6608754 
 3020000    1.0025841 -0.00016871944   0.49099994 0.0042624086            0   0.48673754    1.4913438    1.9823437   -3.7766132 
 3025000   0.96556513 7.490093e-05   0.50879799 0.0032211234            0   0.50557686    1.4362781    1.9450761    4.5016945 
 3030000   0.90554667 -5.1073575e-05   0.61818635  0.013120095            0   0.60506625    1.3470007     1.965187   0.22187565 
 3035000   0.97549453 -2.4042566e-05   0.50789779  0.021916818            0   0.48598097    1.4510481    1.9589459     1.138293 
 3040000    1.0150659 -8.3346067e-05   0.43177617 0.0090632377            0   0.42271293    1.5099105    1.9416866  -0.90319246 
 3045000   0.86019169 -7.7148386e-05   0.64436488  0.062352459            0   0.58201242    1.2795351       1.9239  -0.70943158 
 3050000   0.98073787 8.7680764e-06   0.45788598 0.0083891699            0   0.44949681    1.4588476    1.9167336    2.2160172 
 3055000   0.98703298 -1.6669612e-05   0.46475719 0.00098713927            0   0.46377005    1.4682116    1.9329688    1.3639793 
 3060000   0.93031236 0.00014529778   0.52914493 0.00051519089            0   0.52862974    1.3838396    1.9129846    6.8724822 
 3065000   0.93965468 6.3537145e-05   0.52068684 0.0050441079            0   0.51564273    1.3977363    1.9184232    4.0871577 
 3070000   0.95095659 -0.00011089792   0.48999188  0.024984548            0   0.46500733    1.4145479    1.9045398   -1.8807759 
 3075000   0.97341726 5.0715358e-05   0.45135329 0.0089786023            0   0.44237469    1.4479582    1.8993115    3.6303957 
 3080000   0.98619994 8.1707602e-05   0.42307189 0.0018101898            0    0.4212617    1.4669724    1.8900443    4.6789971 
 3085000   0.85901642 -6.8193157e-05   0.60104895 0.0080140427            0   0.59303491    1.2777869    1.8788359  -0.44882389 
 3090000   0.88532111 1.5374764e-05   0.55126101   0.01091402            0   0.54034699    1.3169152    1.8681762    2.3929681 
 3095000   0.93038513 3.2648123e-05   0.50955993 0.0011454711            0   0.50841446    1.3839479    1.8935078    3.0078971 
 3100000   0.98629328 -1.9263403e-05    0.4315371 0.0028063893            0   0.42873071    1.4671113    1.8986484    1.2411242 
 3105000   0.93766197 -7.5221288e-05    0.5185717  0.015442788            0   0.50312891    1.3947722    1.9133439  -0.65420943 
 3110000   0.90198819 -6.2998271e-05   0.55248731  0.012816778            0   0.53967053    1.3417074    1.8941947  -0.25614625 
 3115000   0.92391256 6.814358e-05   0.55573799  0.020749794            0   0.53498819    1.3743199    1.9300579    4.2560255 
 3120000   0.97426491 -1.0904075e-06   0.48493135  0.028578998            0   0.45635235    1.4492191    1.9341504    1.8969312 
 3125000   0.90494321 6.8106429e-05   0.57919079  0.011754677            0   0.56743612     1.346103    1.9252938    4.2499933 
 3130000   0.89960628 0.00023215289   0.58519246 0.0063183104            0   0.57887415    1.3381643    1.9233568    9.8475087 
 3135000   0.99498827 5.0159652e-05   0.44993247 0.0051371771            0   0.44479529    1.4800451    1.9299775    3.6420936 
 3140000   0.93380381 -5.2791407e-05   0.55154573 0.0046326158            0   0.54691311    1.3890332    1.9405789   0.13863221 
 3145000   0.94868268 7.1450913e-05   0.51188006 0.0022453326            0   0.50963472    1.4111655    1.9230455    4.3619034 
 3150000   0.94745942 3.301199e-05   0.52937103  0.002213481            0   0.52715755    1.4093459    1.9387169    3.0655262 
 3155000   0.96157103 7.4096824e-06   0.52436582 0.0049623028            0   0.51940351    1.4303369    1.9547027    2.2076199 
 3160000   0.93781607 5.2766206e-05   0.59190836 0.0025268847            0   0.58938148    1.3950014    1.9869098    3.7879963 
 3165000   0.94713907 -3.9899748e-05   0.59001074  0.019079014            0   0.57093173    1.4088694    1.9988801   0.63696871 
 3170000   0.92293657 9.2209764e-06   0.62994184  0.019461733            0    0.6104801    1.3728682      2.00281    2.3175526 
 3175000   0.89716325 1.3961117e-06   0.66300833  0.014335955            0   0.64867237    1.3345303    1.9975387    2.0451926 
 3180000   0.92425356 -0.00023163976    0.6239965  0.017102869            0   0.60689363    1.3748272    1.9988237   -5.9078134 
 3185000   0.98491935 -8.6824639e-05   0.54598363  0.012081733            0    0.5339019    1.4650675    2.0110512  -0.95256317 
 3190000    1.0181022 0.00013828227   0.49108607 0.0098942713            0   0.48119179     1.514427    2.0055131    6.7255478 
 3195000   0.95789138 3.1358571e-05   0.61586467  0.044357044            0   0.57150763    1.4248634    2.0407281    3.1111007 
 3200000   0.97462754 -2.1230798e-05      0.60876 0.0060196363            0   0.60274036    1.4497585    2.0585185    1.3338406 
 3205000   0.95642346 7.6650476e-07   0.62824521 0.0018779141            0    0.6263673    1.4226799    2.0509251    2.0770885 
 3210000    1.0331175 -2.1275317e-05   0.51598676 0.0066900795            0   0.50929668    1.5367623    2.0527491    1.3265516 
 3215000   0.96368244 -8.7575289e-06   0.61822615  0.035767862            0   0.58245829    1.4334776    2.0517038    1.7527801 
 3220000    1.0054335 -3.3038413e-05   0.57739419  0.037430528            0   0.53996366    1.4955823    2.0729765   0.94526528 
 3225000   0.95841475 -0.00016817436   0.63048587  0.028368137            0   0.60211773    1.4256419    2.0561278   -3.6842238 
 3230000    1.0817938 -1.8447138e-05   0.46688515  0.009462081            0   0.45742307    1.6091683    2.0760535    1.4463912 
 3235000    1.0142224 8.3079939e-05   0.56179557 0.0082509341            0   0.55354464    1.5086558    2.0704514    4.9062466 
 3240000    1.0209358 -0.00010392809    0.5678675  0.041896776            0   0.52597073     1.518642    2.0865095   -1.4609026 
 3245000    1.0000335 0.00010008408   0.59708313  0.015726784            0   0.58135635    1.4875499     2.084633    5.5008362 
 3250000    1.0619421 0.00013942201   0.50238552  0.026564661            0   0.47582086    1.5796388    2.0820244    6.8409625 
 3255000    1.1171026 4.1015482e-05   0.43600733 0.0077250981            0   0.42828223    1.6616901    2.0976974    3.4976925 
 3260000    1.0229398 1.8066243e-05   0.58330147 0.0006855023            0   0.58261597     1.521623    2.1049244    2.7215855 
 3265000   0.94419671 -3.2204004e-05   0.68385804 0.0015415038            0   0.68231653    1.4044926    2.0883506   0.98912063 
 3270000    1.0399762 0.00013653356   0.55552138  0.029371875            0    0.5261495    1.5469645    2.1024859    6.7628316 
 3275000    1.0627622 1.0149606e-05   0.54835651  0.035009355            0   0.51334715    1.5808588    2.1292153    2.4756552 
 3280000    1.0550514 -3.167789e-06   0.55036541  0.012572081            0   0.53779333     1.569389    2.1197544    2.0116272 
 3285000    1.0805663 -0.00016347768   0.50826457  0.024327613            0   0.48393695    1.6073423    2.1156069   -3.4644314 
 3290000   0.98200721 -7.7211004e-05   0.62600913  0.053166374            0   0.57284275    1.4607357    2.0867448  -0.54872411 
 3295000   0.95621384 0.00027802309   0.64807495  0.016939929            0   0.63113502    1.4223681     2.070443    11.560298 
 3300000    1.0531484 1.6749496e-05   0.52622863  0.019969786            0   0.50625884    1.5665583    2.0927869     2.664503 
 3305000    1.0728589 2.4400466e-05   0.51543126 0.0048293647            0    0.5106019    1.5958776    2.1113088    2.9441781 
 3310000    1.0582883 2.347514e-05   0.54925386 0.0040717139            0   0.54518215    1.5742038    2.1234577    2.9247425 
 3315000   0.98881217 0.0001215899   0.63665716  0.021096615            0   0.61556054    1.4708581    2.1075153    6.2577838 
 3320000    1.0292381 -0.00010522071   0.54719625  0.012600139            0   0.53459611    1.5309916    2.0781879   -1.5133458 
 3325000    1.0405986 -6.4002789e-06   0.52707884 0.0030463765            0   0.52403246    1.5478905    2.0749693    1.8565065 
 3330000   0.99501137 7.9321005e-06   0.58425742   0.01777391            0   0.56648351    1.4800794    2.0643368    2.3350859 
 3335000   0.96434689 -2.0080304e-05   0.62544285  0.051690668            0   0.57375218     1.434466    2.0599089    1.3745012 
 3340000    1.0078313 0.00020839141   0.56122624  0.018804544            0    0.5424217    1.4991491    2.0603754    9.1734689 
 3345000    1.0592278 6.9253395e-05   0.50006535  0.033198553            0    0.4668668    1.5756014    2.0756668     4.439516 
 3350000    1.0239005 -0.00014604458   0.55177119   0.01180367            0   0.53996752     1.523052    2.0748232   -2.9101652 
 3355000    1.0173679 1.4452156e-05   0.55574549 0.0029776981            0   0.55276779    1.5133347    2.0690802    2.5623804 
 3360000   0.96207961 3.6234889e-05   0.65952019   0.01259091            0   0.64692928    1.4310934    2.0906136    3.3274312 
 3365000    1.0878612 1.4927756e-05   0.46082783   0.03680211            0   0.42402572    1.6181936    2.0790214    2.5885555 
 3370000   0.99915663 4.2057713e-05   0.58452149  0.020472632            0   0.56404886    1.4862455     2.070767    3.5063369 
 3375000    1.0624765 -9.1458038e-05    0.4869056  0.019306324            0   0.46759927    1.5804339    2.0673395   -1.0544283 
 3380000    1.0071889 4.9488143e-06   0.58244309  0.013274449            0   0.56916864    1.4981935    2.0806366    2.2495561 
 3385000    1.0046884 0.00012239183   0.58186083  0.024058184            0   0.55780264    1.4944741    2.0763349     6.253976 
 3390000    1.0114008 3.6164469e-05   0.54704065  0.010956254            0    0.5360844    1.5044587    2.0514993    3.2859132 
 3395000   0.99106168 -0.00018787012   0.56282653  0.010232796            0   0.55259373    1.4742042    2.0370308   -4.3756026 
 3400000    0.9955559 -0.00013717144   0.54103779   0.02272818            0   0.51830961    1.4808894    2.0219272   -2.6601912 
 3405000    0.9802141 8.929215e-05   0.56568124  0.038929226            0   0.52675201    1.4580685    2.0237497    5.0715884 
 3410000   0.96936174 -4.0300859e-05   0.56112726  0.021665956            0    0.5394613    1.4419256    2.0030529   0.62745018 
 3415000    0.9449233 -8.0162709e-06   0.59964014  0.011349929            0   0.58829021    1.4055734    2.0052136    1.7315915 
 3420000   0.92377134 -8.0933647e-05   0.63078232  0.027798762            0   0.60298355    1.3741099    2.0048922  -0.75764298 
 3425000     1.021902 -3.905238e-05   0.49144687  0.037906768            0    0.4535401    1.5200793    2.0115262   0.67853825 
 3430000    1.0863434 3.8717528e-05   0.41193919  0.030177701            0   0.38176149    1.6159359    2.0278751    3.3494333 
 3435000    1.0048653 2.0260099e-05   0.53196226  0.014512317            0   0.51744994    1.4947371    2.0266994    2.7182441 
 3440000   0.99833659 -2.0944756e-06   0.54380512 0.0078203646            0   0.53598475    1.4850257    2.0288308    1.9573394 
 3445000    0.9758164 -2.8759382e-05   0.57736103  0.023066444            0   0.55429459    1.4515269    2.0288879    1.0472344 
 3450000    1.0009104 8.9549364e-05   0.55958336  0.020701972            0   0.53888139    1.4888542    2.0484375    5.1050558 
 3455000   0.97716991 0.00010710796   0.60433664 0.0085455084            0   0.59579113    1.4535402    2.0578769    5.7138286 
 3460000   0.98572112 7.0745004e-05   0.58885161  0.027821977            0   0.56102963    1.4662602    2.0551118    4.4698746 
 3465000   0.98066888 -5.8591272e-05   0.60464206 0.0097974921            0   0.59484457     1.458745     2.063387  0.063471612 
 3470000   0.96034878 -4.7218594e-05   0.63243415  0.011800862            0   0.62063329    1.4285188     2.060953   0.44922495 
 3475000    1.0185882 0.0001805162   0.57427264  0.013830496            0   0.56044214      1.51515    2.0894226    8.2510423 
 3480000    1.0232315 7.501573e-06   0.57559084  0.011135018            0   0.56445582    1.5220569    2.0976477    2.3537014 
 3485000    1.0847451 -9.9188304e-05   0.49499081  0.021913269            0   0.47307755    1.6135583    2.1085491   -1.2770783 
 3490000    1.0212639 -2.1546355e-05   0.56167088  0.034701629            0   0.52696925      1.51913    2.0808009     1.345352 
 3495000    1.0218241 -1.3728412e-05   0.55668875  0.017967412            0   0.53872133    1.5199633     2.076652    1.6080556 
 3500000     1.008811 5.8422051e-05   0.57484488 0.0067453007            0   0.56809958    1.5006063    2.0754512    4.0695905 
 3505000    1.0787659 -3.7379375e-05   0.48423212  0.036967171            0   0.44726495    1.6046643    2.0888964   0.81301377 
 3510000    1.0040853 -6.4041741e-05   0.62509966  0.041527006            0   0.58357266    1.4935769    2.1186766 -0.067281546 
 3515000    1.0825636 -2.4670893e-05   0.52637653  0.012862013            0   0.51351452    1.6103133    2.1366899      1.29459 
 3520000    1.0670721 5.329994e-05   0.52532009 0.0094657094            0   0.51585438    1.5872697    2.1125898    3.9318944 
 3525000    1.0178708 4.9462633e-05   0.60625095  0.019091911            0   0.58715904    1.5140829    2.1203338    3.8086584 
 3530000    1.0043905 -3.5652999e-05    0.6220713  0.014260816            0   0.60781048    1.4940308    2.1161021   0.89914643 
 3535000    1.0189768 4.1405949e-05   0.59896785 0.0065552885            0   0.59241256    1.5157281    2.1146959     3.528019 
 3540000    1.0008454 -0.00011558892   0.58246393  0.016042583            0   0.56642135    1.4887575    2.0712214   -1.8742138 
 3545000     1.016037 -0.00022771053   0.56454296   0.01886699            0   0.54567597     1.511355    2.0758979   -5.6966215 
 3550000    1.0455919 -0.00017419359   0.53461878 0.0078791542            0   0.52673962     1.555318    2.0899368   -3.8558712 
 3555000    1.0194076 -0.00010321685   0.55142854 0.0064213757            0   0.54500716    1.5163688    2.0677973   -1.4553379 
 3560000     1.105281 9.8458656e-05   0.44152638   0.01388951            0   0.42763687    1.6441055    2.0856319     5.446354 
 3565000    1.0297771 8.6099862e-05   0.55980816  0.016744415            0   0.54306374    1.5317934    2.0916016    5.0304769 
 3570000   0.94949188 9.7707209e-05   0.66607429   0.03276557            0   0.63330872    1.4123692    2.0784435    5.4135162 
 3575000   0.98664702 -1.5782064e-05   0.60974308   0.05433777            0    0.5554053    1.4676374    2.0773805    1.5386861 
 3580000    1.0231357 -2.1407073e-05   0.55315576  0.051871561            0    0.5012842    1.5219143      2.07507    1.3443753 
 3585000    1.0308279 -0.00013300196    0.5428864  0.012449434            0   0.53043697    1.5333565    2.0762429   -2.4635572 
 3590000    1.0257658 -3.5587638e-05   0.54933145  0.019023688            0   0.53030776    1.5258266     2.075158    0.8604333 
 3595000    1.0397592 -7.7473567e-05   0.53474528  0.012093303            0   0.52265197    1.5466418    2.0813871  -0.56304398 
 3600000    1.0337866 -7.5484458e-06   0.53640955  0.022770826            0   0.51363873    1.5377575    2.0741671    1.8165135 
 3605000   0.97625501 8.6009107e-05   0.61073521  0.016272876            0   0.59446233    1.4521793    2.0629145    4.9986921 
 3610000    1.0791036 0.00011858769   0.47533234  0.028830743            0   0.44650159    1.6051666    2.0804989    6.1282921 
 3615000   0.98294842 -3.5795015e-05   0.60449307  0.045098212            0   0.55939486    1.4621358    2.0666288   0.84482565 
 3620000    1.0179688 -7.172992e-05   0.58200809  0.045083331            0   0.53692476    1.5142286    2.0962367   -0.3521446 
 3625000    1.0504528 -2.8443149e-05   0.54648552  0.018338601            0   0.52814692    1.5625485     2.109034    1.1381745 
 3630000   0.97648033 7.0885369e-05   0.62783061   0.05077861            0     0.577052    1.4525145    2.0803451     4.499899 
 3635000    1.0098565 2.2527227e-05   0.57754092  0.033995581            0   0.54354534    1.5021616    2.0797025    2.8486318 
 3640000   0.96572813 -0.00013465061   0.61754659   0.02162587            0   0.59592072    1.4365206    2.0540672    -2.542007 
 3645000   0.98411262 -3.3699051e-05   0.59640636  0.045430726            0   0.55097564    1.4638675    2.0602739   0.91001294 
 3650000   0.96618496 4.2288449e-05   0.64068334  0.043142487            0   0.59754085    1.4372001    2.0778835    3.5213292 
 3655000   0.98068966 -0.00017523168    0.6175394  0.018791081            0   0.59874832    1.4587759    2.0763153   -3.9049259 
 3660000    0.9486403 -0.00016719853   0.64780979  0.035992179            0   0.61181762    1.4111025    2.0589122   -3.6481309 
 3665000   0.99922026 2.3998584e-06   0.56934495  0.019993598            0   0.54935135    1.4863401    2.0556851    2.1376003 
 3670000    1.0059873 1.7543559e-05   0.57716601  0.024644935            0   0.55252107    1.4964061    2.0735721    2.6723922 
 3675000   0.95327042 1.5126264e-05   0.64357677  0.019990811            0   0.62358596    1.4179898    2.0615665    2.5778763 
 3680000   0.99376645 -5.7518138e-05    0.5662729  0.017675516            0   0.54859739    1.4782276    2.0445005  0.081214702 
 3685000    1.0429691 -1.0901289e-05   0.48775116  0.012212609            0   0.47553855    1.5514165    2.0391677    1.6670704 
 3690000   0.97803426 -0.0001023399   0.58417088 0.0052401713            0   0.57893071     1.454826    2.0389968   -1.4542052 
 3695000    1.0007747 5.624858e-07    0.5409137 0.0048158715            0   0.53609782    1.4886524    2.0295661    2.0487656 
 3700000   0.96958751 0.00014014646   0.59084072  0.029049124            0   0.56179159    1.4422614    2.0331021    6.8167679 
 3705000   0.98978532 7.387157e-05   0.54942475   0.03465548            0   0.51476927    1.4723057    2.0217304    4.5432133 
 3710000   0.98016539 0.00012085434   0.56315918 0.0090708409            0   0.55408834     1.457996    2.0211552    6.1463165 
 3715000   0.93665542 4.800114e-05   0.64299072  0.025178923            0   0.61781179    1.3932749    2.0362657    3.6747046 
 3720000   0.95870928 3.8490746e-05   0.60305488  0.020180105            0   0.58287478      1.42608    2.0291349    3.3429524 
 3725000    0.9750438 -2.3866156e-05    0.5801711 0.0068904693            0   0.57328063    1.4503776    2.0305487    1.2159173 
 3730000   0.98539642 1.8824191e-06   0.58261515 0.0025173854            0   0.58009776    1.4657772    2.0483923    2.1126456 
 3735000   0.97464282 -8.2685765e-05   0.58646291 0.0041216973            0   0.58234122    1.4497812    2.0362441  -0.78609667 
 3740000   0.96045694 -0.00012412264   0.63388877  0.010172451            0   0.62371632    1.4286797    2.0625685    -2.174151 
 3745000    1.0429452 3.2675921e-05   0.49984959  0.018203018            0   0.48164658    1.5513809    2.0512305    3.1665686 
 3750000    1.0011465 7.095136e-05   0.54154381  0.012792056            0   0.52875176    1.4892055    2.0307493    4.4525557 
 3755000   0.99138213 -9.2645827e-05   0.55847833 0.0078841338            0    0.5505942    1.4746809    2.0331592   -1.1291517 
 3760000   0.93886442 6.1429453e-05   0.61024251  0.052798267            0   0.55744424    1.3965608    2.0068033    4.1035953 
 3765000   0.96324537 5.0840285e-05   0.54892658  0.047656439            0   0.50127014    1.4328275    1.9817541    3.7171025 
 3770000   0.93991279 -0.00010470821   0.58248104  0.016425269            0   0.56605577    1.3981203    1.9806013   -1.5934388 
 3775000   0.98837773 -1.2434739e-05   0.52296654  0.015067024            0   0.50789951    1.4702119    1.9931784    1.5687393 
 3780000   0.96860022 1.2049421e-05   0.54892053  0.014136241            0   0.53478428    1.4407928    1.9897134    2.4010003 
 3785000   0.97680336 8.7985202e-05   0.53030755 0.0050678729            0   0.52523967     1.452995    1.9833026    4.9865308 
 3790000   0.99171904 6.6506935e-06   0.51253917 0.0048863149            0   0.50765286    1.4751821    1.9877212    2.2147316 
 3795000   0.99175355 -1.7502741e-06   0.52101795 0.0049536444            0   0.51606431    1.4752334    1.9962514    1.9365087 
 3800000   0.96450125 8.2072685e-05   0.55986308  0.011822027            0   0.54804105    1.4346956    1.9945587     4.795973 
 3805000   0.94808577 -2.7024291e-05   0.59170511  0.017835306            0    0.5738698    1.4102776    2.0019827    1.0795536 
 3810000   0.98506544 -8.6752462e-05   0.56775874  0.001468791            0   0.56628995    1.4652848    2.0330436  -0.92810713 
 3815000    1.0388059 0.00011403065   0.50060953 0.0051931956            0   0.49541634    1.5452238    2.0458334    5.9380796 
 3820000    1.0023531 1.012744e-05    0.5483948  0.029121415            0   0.51927338    1.4910003    2.0393951    2.3850783 
 3825000   0.99207684 -0.00018410233   0.59537803  0.022906861            0   0.57247117    1.4757143    2.0710923    -4.212934 
 3830000    0.9823356 -9.3691967e-06   0.61363389  0.012368841            0   0.60126505    1.4612242    2.0748581    1.7550562 
 3835000    1.0168382 0.0002074215   0.54598142  0.016715156            0   0.52926626    1.5125468    2.0585282    9.1385153 
 3840000   0.97143442 3.9166688e-05   0.60720954  0.015913294            0   0.59129625    1.4450087    2.0522182    3.3891079 
 3845000    0.9779251 -5.4462488e-05   0.57463848  0.022955513            0   0.55168297    1.4546636    2.0293021   0.17031583 
 3850000   0.95631134 5.980217e-05   0.61969091  0.060134567            0   0.55955634    1.4225131     2.042204    4.0834514 
 3855000   0.99024885 -1.4543056e-05   0.57015422  0.057324752            0   0.51282947    1.4729952    2.0431494    1.5467464 
 3860000     0.968401 -6.7228156e-05   0.63801712  0.031011967            0   0.60700515    1.4404965    2.0785136  -0.21620747 
 3865000    1.0378912 -4.6085559e-05   0.52605947  0.016583079            0    0.5094764    1.5438631    2.0699226   0.49686883 
 3870000    1.0328528 4.4125208e-05   0.51683331 0.0061080777            0   0.51072523    1.5363686    2.0532019    3.5593423 
 3875000    1.0314785 -1.307836e-05   0.52987387   0.01913916            0   0.51073471    1.5343243    2.0641982    1.6177902 
 3880000    1.0354798 -0.00011977111   0.52795658  0.028756611            0   0.49919997    1.5402763    2.0682329   -2.0199543 
 3885000    1.0090164 -0.00010391379   0.56225318  0.014088274            0   0.54816491    1.5009119    2.0631651   -1.4837588 
 3890000    1.0488156 -7.4720809e-05   0.53045469 0.0041047947            0    0.5263499    1.5601132    2.0905678  -0.45990244 
 3895000    1.0866712 5.3641908e-05   0.47778701 0.0057358341            0   0.47205118    1.6164234    2.0942104    3.9251875 
 3900000     1.076566 6.6478165e-05   0.49876517  0.010947082            0   0.48781808    1.6013919    2.1001571    4.3692785 
 3905000    1.1081174 -5.7083272e-05   0.46575462  0.011191418            0    0.4545632    1.6483247    2.1140793   0.16563695 
 3910000    1.0635692 -7.3302178e-05   0.55370292 0.0044409513            0   0.54926197    1.5820592    2.1357621  -0.36628561 
 3915000    1.1226779 0.00017112302   0.49802129 0.0013090132            0   0.49671228    1.6699833    2.1680046    8.0090038 
 3920000    1.0671999 0.00013664444   0.55217664 0.0038563323            0   0.54832031    1.5874599    2.1396365    6.8037667 
 3925000    1.0444148 -4.3041232e-05   0.56084939  0.011704395            0   0.54914499    1.5535671    2.1144165   0.64527575 
 3930000    1.0785906 -7.17644e-05   0.52701964  0.029981227            0   0.49703842    1.6044035    2.1314231  -0.31813507 
 3935000    1.0328176 -4.3838615e-05   0.58261343  0.013866098            0   0.56874733    1.5363162    2.1189297   0.62257161 
 3940000    1.0755553 -6.0534637e-06   0.50191282  0.015165197            0   0.48674763    1.5998885    2.1018013    1.8951764 
 3945000    1.0835734 -4.232709e-05   0.50446354  0.011489869            0   0.49297367    1.6118155     2.116279   0.67151433 
 3950000    1.0347744 7.0717889e-05   0.55872583  0.017008906            0   0.54171692    1.5392269    2.0979528      4.51179 
 3955000    1.0429199 4.0189707e-05   0.53570467  0.014961396            0   0.52074328    1.5513434     2.087048    3.4588567 
 3960000    1.0012551 -0.00011794544   0.60271221  0.025392702            0    0.5773195     1.489367    2.0920792   -1.9337918 
 3965000    1.0213046 -0.00012169816   0.59047553  0.007890839            0    0.5825847    1.5191906    2.1096662   -2.0442977 
 3970000    1.0512429 -3.2616969e-05   0.55247276 0.0010954046            0   0.55137735    1.5637238    2.1161966    1.0028707 
 3975000    1.0452877 7.7590285e-05   0.56397449  0.010876852            0   0.55309764    1.5548655      2.11884    4.7672551 
 3980000    1.0201468 -9.3827262e-05   0.59605145  0.015951297            0   0.58010016    1.5174683    2.1135198   -1.0891174 
 3985000    1.0458852 5.1330918e-05   0.60104882 0.0097921868            0   0.59125664    1.5557542     2.156803    3.9088983 
 3990000    1.0917241 0.00010468769   0.54702738  0.019106284            0    0.5279211    1.6239397    2.1709671    5.7443067 
 3995000    1.0883439 -7.9175826e-05   0.55650639   0.01239484            0   0.54411155    1.6189116     2.175418  -0.52711686 
 4000000    1.0144514 0.00013318231    0.6573727  0.023771188            0   0.63360151    1.5089965    2.1663692    6.7123255 
 4005000    1.0652241 -0.00013173604   0.59714364  0.026505014            0   0.57063863    1.5845208    2.1816645   -2.3149257 
 4010000    1.0433747 -0.00013549886   0.61079634  0.023301414            0   0.58749493    1.5520198    2.1628162   -2.4622117 
 4015000    1.0734802 0.00011972133   0.55527717  0.042201253            0   0.51307592    1.5968017    2.1520789    6.2385668 
 4020000    1.0537767 3.3738653e-05   0.55901369  0.034108295            0   0.52490539    1.5674929    2.1265066    3.2781192 
 4025000    1.0658028 1.8277524e-05    0.5322448 0.0069634861            0   0.52528132    1.5853817    2.1176265    2.7414993 
 4030000     1.139966 2.5601239e-05   0.43798672 0.0020877942            0   0.43589892    1.6956994    2.1336861    3.0075417 
 4035000    1.0972705 6.4682913e-05   0.53537199  0.016159653            0   0.51921233    1.6321898    2.1675618    4.3754052 
 4040000    1.0562522 0.00013558617   0.61456133  0.020922527            0    0.5936388    1.5711752    2.1857365    6.8137445 
 4045000    1.0499819 0.00016906349   0.62780785  0.011044067            0   0.61676379    1.5618481     2.189656    7.9603564 
 4050000    1.0934337 0.00011863655   0.55657987 0.0078844201            0   0.54869545    1.6264827    2.1830625    6.2325233 
 4055000    1.0934346 -0.00013499388   0.56383855  0.011424045            0   0.55241451     1.626484    2.1903225   -2.4174686 
 4060000    1.0955932 -0.00017130577   0.56542552  0.032692754            0   0.53273276    1.6296948    2.1951203   -3.6521167 
 4065000    1.1290744 -4.8694451e-05   0.52416594  0.017261004            0   0.50690494    1.6794981    2.2036641   0.54156017 
 4070000    1.0953979 -6.5562389e-05   0.57569313  0.032961199            0   0.54273194    1.6294043    2.2050974 -0.032765433 
 4075000    1.0368401 -0.00014266776   0.67513693  0.028858234            0   0.64627869    1.5422997    2.2174366   -2.6522895 
 4080000    1.1470481 -9.9015349e-05   0.52179994  0.014718559            0   0.50708138    1.7062341     2.228034   -1.1516899 
 4085000    1.1381547 5.5250567e-05   0.52738362  0.011849174            0   0.51553444    1.6930052    2.2203888    4.1062748 
 4090000    1.0846242 0.00010781556   0.62624518  0.019634532            0   0.60661065    1.6133785    2.2396237    5.9197281 
 4095000    1.1263086 1.2124933e-05   0.53700957 0.0051909575            0   0.53181861     1.675384    2.2123936     2.626258 
 4100000    1.1109318 -6.6847656e-05   0.53532284 0.0081390734            0   0.52718377     1.652511    2.1878338 -0.093899499 
 4105000    1.1043414 2.6703761e-05   0.54749658  0.014343161            0   0.53315342    1.6427078    2.1902044    3.1016928 
 4110000    1.1020349 5.0277448e-05   0.56762063  0.024006804            0   0.54361383    1.6392769    2.2068976    3.9230344 
 4115000    1.0719894 -4.356255e-05   0.62720312  0.017386328            0    0.6098168    1.5945842    2.2217873   0.73485226 
 4120000    1.1415744 -4.6548186e-05   0.53990193  0.020074162            0   0.51982776    1.6980919    2.2379938   0.64914906 
 4125000    1.0686586 -3.1202811e-05   0.66551465   0.01569152            0   0.64982313    1.5896297    2.2551444    1.1900884 
 4130000    1.1391446 1.2424325e-05   0.57113988 0.0070680429            0   0.56407184    1.6944776    2.2656175    2.6897011 
 4135000    1.1472085 0.00011899412   0.54273195 0.0099486438            0   0.53278331    1.7064727    2.2492046    6.3108704 
 4140000    1.1203318 -3.4013057e-06   0.58947361  0.018828118            0   0.57064549    1.6664935    2.2559671    2.1398692 
 4145000    1.1280163 -8.6550422e-05   0.57691957  0.014408498            0   0.56251108    1.6779243    2.2548439  -0.69941055 
 4150000    1.1564743 4.6375232e-07   0.54554984 0.0068662134            0   0.53868363    1.7202555    2.2658054    2.2816348 
 4155000    1.0415466 -0.00013897393    0.7110147 0.0029278652            0   0.70808684    1.5493005    2.2603152   -2.4833282 
 4160000    1.0992042 -0.00013632534   0.63660426 0.0012278242            0   0.63537643    1.6350662    2.2716705   -2.3815679 
 4165000    1.1405995 5.4893614e-05    0.5556289 0.0074737673            0   0.54815513    1.6966418    2.2522707    4.1259727 
 4170000    1.0877485 5.5762232e-05   0.61456374  0.015643903            0   0.59891983    1.6180258    2.2325896    4.1359404 
 4175000    1.0037889 3.2405361e-05   0.71346715  0.029399868            0   0.68406728     1.493136    2.2066031    3.3127061 
 4180000    1.1294178 2.9092749e-05   0.53445258  0.017722433            0   0.51673015     1.680009    2.2144616    3.2074941 
 4185000    1.0847892 -7.2423046e-05   0.63304186   0.02393794            0   0.60910392    1.6136239    2.2466658  -0.22537422 
 4190000    1.0990951 -0.00010026429   0.63216385  0.043277494            0   0.58888636    1.6349039    2.2670678   -1.1552866 
 4195000    1.1021923 -0.00014383678   0.60647914  0.017341607            0   0.58913753     1.639511    2.2459902   -2.6636384 
 4200000    1.0645487 -0.00013841754   0.66791439  0.018370857            0   0.64954353    1.5835161    2.2514305   -2.4732214 
 4205000    1.1308073 0.0001238051   0.52887048 0.0049993442            0   0.52387114    1.6820759    2.2109463     6.436827 
 4210000    1.0405412 0.00017295566   0.65057816  0.002411659            0    0.6481665    1.5478051    2.1983832    8.1019363 
 4215000    1.0369218 3.9901432e-05   0.65102291  0.005024296            0   0.64599862    1.5424211     2.193444    3.5554129 
 4220000    1.1073704 -4.5586292e-05   0.52887578  0.017775887            0   0.51109989    1.6472135    2.1760892   0.62007714 
 4225000    1.1077444 -6.3277237e-05   0.53921748  0.021033798            0   0.51818368    1.6477699    2.1869873  0.027124326 
 4230000    1.0430366 3.8084406e-05   0.60985425  0.019553476            0   0.59030077     1.551517    2.1613712     3.461319 
 4235000    1.0089889 -2.0902106e-06   0.65894437  0.019386159            0   0.63955821    1.5008709    2.1598153    2.0884694 
 4240000    1.0012435 -9.9346851e-05   0.70085276  0.008640033            0   0.69221273    1.4893498    2.1902025   -1.2008367 
 4245000    1.0651043 -7.7193343e-05   0.60746053 0.0040999869            0   0.60336055    1.5843427    2.1918032  -0.44306292 
 4250000    1.0456114 -0.00010351029   0.62589238 0.0013543835            0     0.624538     1.555347    2.1812394    -1.351912 
 4255000    1.0622634 -7.1554906e-06   0.58859369 0.00073443886            0   0.58785925    1.5801168    2.1687105    1.9244697 
 4260000     1.063018 6.3585005e-05   0.59159643 0.0050131284            0    0.5865833    1.5812392    2.1728356    4.3432038 
 4265000    1.0498061 2.3185524e-06     0.620828  0.010643102            0    0.6101849    1.5615865    2.1824145    2.2615544 
 4270000   0.96934995 -0.00011779399   0.72071868 0.0091325654            0   0.71158611    1.4419081    2.1626267   -1.8580749 
 4275000    1.0468227 -7.3978192e-05       0.6072 0.0098915476            0   0.59730846    1.5571488    2.1643488  -0.36077349 
 4280000    1.0730468 -3.3064123e-07   0.58149913 0.0031395152            0   0.57835961    1.5961571    2.1776563    2.1663704 
 4285000    1.0530761 -9.6582635e-05   0.59287241 0.0020259501            0   0.59084646    1.5664507    2.1593231   -1.1373642 
 4290000    1.0396411 4.4411123e-05   0.61892413  0.013134357            0   0.60578977    1.5464661    2.1653902    3.6812899 
 4295000    1.0428198 1.1938614e-05   0.61361312  0.027591066            0   0.58602205    1.5511944    2.1648075    2.5723122 
 4300000    1.0357051 -1.158823e-05   0.63231426  0.012114142            0   0.62020011    1.5406114    2.1729256    1.7773807 
 4305000    1.0400992 -7.6853203e-05   0.61553296 0.0086219796            0   0.60691098    1.5471475    2.1626805  -0.46057549 
 4310000    1.0899716 -7.7581052e-06   0.53913434   0.01332465            0   0.52580969    1.6213327    2.1604671    1.8956571 
 4315000    1.0815196 -1.3104023e-05   0.55733757  0.015598446            0   0.54173913    1.6087604    2.1660979     1.718814 
 4320000    1.0164465 -0.00010163754   0.65663513  0.015904982            0   0.64073015    1.5119642    2.1685993   -1.3006286 
 4325000   0.98937316 0.00010091575   0.68785548  0.032372224            0   0.65548326    1.4716926    2.1595481    5.6041389 
 4330000    1.0536324 0.00019348323   0.58055423  0.030565586            0   0.54998864    1.5672781    2.1478324      8.75206 
 4335000   0.99599331 8.616463e-05   0.65873472   0.05495822            0    0.6037765      1.48154    2.1402748    5.0813608 
 4340000      1.04119 7.0033817e-05   0.62102784  0.020893577            0   0.60013426    1.5487701    2.1697979    4.5602855 
 4345000    1.0641177 2.1085637e-05   0.57343186  0.012788111            0   0.56064375    1.5828751     2.156307      2.87603 
 4350000    1.0393671 -0.00022921955   0.59208995 0.0024527465            0    0.5896372    1.5460586    2.1381486   -5.6858788 
 4355000    1.0576231 8.4054241e-05   0.57312142 0.0056425867            0   0.56747884    1.5732144    2.1463359    5.0153873 
 4360000    1.0618599 5.7201051e-05   0.57657329  0.010739451            0   0.56583384    1.5795166    2.1560898    4.1085524 
 4365000    1.0705739 -4.7538296e-05   0.56571946  0.030384081            0   0.53533537    1.5924786    2.1581981   0.53555758 
 4370000    1.0029554 4.0002897e-05   0.66216705 0.0096825116            0   0.65248454    1.4918962    2.1540632    3.5194954 
 4375000    1.0489228 -1.7487487e-05   0.57969656 0.0069225798            0   0.57277398    1.5602726    2.1399692     1.543063 
 4380000    1.0595078 0.00015974493   0.53039584  0.016234501            0   0.51416134    1.5760179    2.1064138    7.5590408 
 4385000     1.049465 8.3227421e-05   0.53796754   0.03075138            0   0.50721616    1.5610791    2.0990467     4.939876 
 4390000    1.0442813 -0.00016094726   0.54574638  0.021455831            0   0.52429055    1.5533684    2.0991148   -3.3945518 
 4395000    1.1025367 -1.4415358e-05   0.43373428 0.0029888846            0   0.43074539    1.6400233    2.0737576    1.5817133 
 4400000   0.95072874 -5.2274884e-05   0.67208419 0.0042573272            0   0.66782686     1.414209    2.0862932   0.30197717 
 4405000   0.99820472 4.6222958e-06   0.60467269   0.01623869            0     0.588434    1.4848295    2.0895022    2.2472766 
 4410000   0.98471092 -0.00015668026   0.60459137  0.016210699            0   0.58838067    1.4647575    2.0693489   -3.2786708 
 4415000    0.9942645 -8.9739044e-05   0.56151013 0.0068752613            0   0.55463487    1.4789684    2.0404786   -1.0226141 
 4420000    1.0070307 -6.2799916e-05   0.54361236 0.0065793746            0   0.53703298    1.4979581    2.0415705       -0.102 
 4425000   0.96332641 3.4795673e-05   0.59211582 0.0051355512            0   0.58698027     1.432948    2.0250639    3.2127561 
 4430000    1.0580477 7.4328718e-05   0.44892889 0.0037615019            0   0.44516738     1.573846    2.0227749    4.5598618 
 4435000   0.90728529 -1.7021795e-05   0.68884719 0.00096385488            0   0.68788334    1.3495869    2.0384341    1.4574234 
 4440000    1.0021002 1.162893e-05   0.55333148 0.00092948306            0     0.552402     1.490624    2.0439555    2.4408896 
 4445000     1.009044 -0.00011212384   0.54778816 0.0043118398            0   0.54347632     1.500953    2.0487412   -1.7784193 
 4450000    1.0000506 5.0297995e-05   0.56547042 0.0066516758            0   0.55881874    1.4875753    2.0530457     3.769884 
 4455000    1.0364219 -4.7194994e-05   0.53154547  0.012618242            0   0.51892723    1.5416775     2.073223   0.46230056 
 4460000   0.97321717 1.9789332e-06   0.61147735   0.03113104            0   0.58034632    1.4476605    2.0591379    2.1266855 
 4465000     1.017696 -0.00010114667   0.54191382  0.014919313            0    0.5269945    1.5138227    2.0557365   -1.3967365 
 4470000    1.0508078 -9.5636108e-05   0.50185985  0.010228633            0   0.49163122    1.5630766    2.0649365   -1.1994427 
 4475000    0.9694391 7.1327218e-05   0.60256249  0.030451835            0   0.57211066    1.4420407    2.0446032    4.4792389 
 4480000    1.0121721 -4.9285404e-05   0.54869662   0.03984543            0   0.50885119     1.505606    2.0543026   0.37202746 
 4485000    1.0525808 6.1226121e-05   0.47265815  0.020584985            0   0.45207316     1.565714    2.0383721    4.1282237 
 4490000   0.97496908 -2.6100418e-05   0.57393138 0.0078260672            0   0.56610531    1.4502665    2.0241979    1.1333036 
 4495000   0.97438517 -7.3469645e-05   0.60280559  0.035761943            0   0.56704365    1.4493979    2.0522035  -0.45556036 
 4500000    1.0271131 -2.6025748e-05   0.52856712  0.023426994            0   0.50514012    1.5278308    2.0563979    1.1680524 
 4505000   0.94047925 -7.4782299e-05   0.64870782  0.013450953            0   0.63525686    1.3989629    2.0476707  -0.50489845 
 4510000   0.99907761  7.71228e-05   0.56508425  0.060898514            0   0.50418574    1.4861279    2.0512122    4.6836704 
 4515000   0.95165769 0.0002207306   0.64697178  0.092271749            0   0.55470003    1.4155908    2.0625626    9.5968338 
 4520000    1.0273182 3.6912683e-05   0.53706831  0.015587268            0   0.52148104    1.5281358    2.0652041     3.325157 
 4525000    1.0630279 -4.0820371e-05   0.49903086 0.0027675068            0   0.49626335     1.581254    2.0802849   0.68694957 
 4530000    1.0214352 -3.2190399e-05   0.55755575 0.0021440631            0   0.55541169    1.5193849    2.0769407   0.97817503 
 4535000    1.0213097 1.8812698e-05   0.53463064 0.00059440259            0   0.53403624    1.5191982    2.0538288    2.6959689 
 4540000    1.0021641 5.0970693e-05   0.56123728 0.0062434635            0   0.55499382    1.4907191    2.0519563     3.791756 
 4545000   0.97499895 3.4177137e-05   0.60819305  0.024338273            0   0.58385478    1.4503109     2.058504    3.2250836 
 4550000    1.0983031 -3.4080174e-05   0.45339041  0.010184988            0   0.44320542    1.6337259    2.0871163   0.92384634 
 4555000    1.0220936 -4.3871877e-05   0.57445899 0.00087936596            0   0.57357962    1.5203642    2.0948232   0.59732977 
 4560000     1.076514 1.1147578e-05   0.50883232 6.2484243e-05            0   0.50876984    1.6013146    2.1101469    2.4906509 
 4565000    1.0631796 -3.4083144e-05   0.53036646 2.6850728e-05            0    0.5303396    1.5814796    2.1118461   0.94847473 
 4570000    1.0238463 -0.00012299012   0.59654202  0.020010634            0   0.57653138    1.5229714    2.1195134   -2.0785495 
 4575000    1.0326949 -4.0761566e-05   0.57711847  0.046479652            0   0.53063882    1.5361337    2.1132521   0.72192401 
 4580000    1.0775793 -6.3127978e-05   0.49422975  0.019119577            0   0.47511017    1.6028992    2.0971289 -0.057639372 
 4585000   0.98760801 2.1754428e-05   0.57842081  0.026133164            0   0.55228765    1.4690669    2.0474877    2.7900389 
 4590000    1.0169611 9.7065353e-05     0.558756 0.0097613372            0   0.54899466    1.5127297    2.0714857    5.3846498 
 4595000    1.0235563 -5.0209798e-05   0.56114829  0.038890355            0   0.52225793      1.52254    2.0836883   0.36986054 
 4600000    1.0138551 -4.3294862e-05   0.58251904  0.023503196            0   0.55901585    1.5081094    2.0906285   0.61283052 
 4605000     1.082451 -2.7491055e-06   0.49192265   0.02604817            0   0.46587448    1.6101459    2.1020686    2.0082324 
 4610000    1.0410848 -9.0556321e-05   0.57408837  0.023263532            0   0.55082484    1.5486136     2.122702  -0.96828711 
 4615000    1.0192495 3.1780931e-05    0.6178219   0.04221471            0   0.57560719    1.5161336    2.1339555    3.2187446 
 4620000    1.0450507 -4.5836766e-06   0.60287575  0.013416678            0   0.58945908    1.5545129    2.1573887    2.0009325 
 4625000    1.0905942 2.5725268e-05   0.54435287  0.044057355            0   0.50029552    1.6222589    2.1666118     3.044701 
 4630000    1.0213525 -6.5451518e-05   0.65398612  0.057935616            0    0.5960505    1.5192618     2.173248 -0.060830507 
 4635000    1.0493113 -0.0002187659    0.6030636  0.031918425            0   0.57114518    1.5608506    2.1639142   -5.3032953 
 4640000    1.0928154 -3.1804651e-05   0.54637676  0.015738329            0   0.53063843    1.6255629    2.1719396    1.0863409 
 4645000    1.0430531 0.0001149328   0.60926725  0.031834961            0   0.57743229    1.5515414    2.1608087    6.0838483 
 4650000    1.0852948 6.9825212e-05   0.55840903  0.038864777            0   0.51954425    1.6143759     2.172785    4.5561522 
 4655000    1.0200042 3.2770272e-05   0.68172757  0.030756144            0   0.65097143    1.5172562    2.1989838    3.3175424 
 4660000    1.1070142 -0.00011110602   0.58634111   0.01265485            0   0.57368626    1.6466836    2.2330247   -1.5593941 
 4665000    1.2134053 8.940594e-05   0.42957581 0.0058769201            0   0.42369889    1.8049403    2.2345161    5.2862389 
 4670000    1.2113272 0.00014888136   0.44383152  0.028246843            0   0.41558467    1.8018491    2.2456807    7.3274977 
 4675000    1.1294514 -0.0002006787   0.55708873  0.027211617            0   0.52987711     1.680059    2.2371477   -4.6126853 
 4680000    1.0229772 -0.00024459093   0.69880293  0.034912323            0    0.6638906    1.5216786    2.2204815   -6.1282222 
 4685000    1.0733442 -6.9588328e-05   0.60981189  0.050525469            0   0.55928642    1.5965995    2.2064114  -0.16887022 
 4690000    1.0719658 9.8364112e-06   0.60471114  0.039741155            0   0.56496998    1.5945492    2.1992603    2.5350098 
 4695000    1.1047396 6.5770351e-05   0.55775503 0.0039107388            0   0.55384429    1.6433001    2.2010552    4.4460165 
 4700000    1.0643783 -2.8634668e-05   0.63141021 0.0084428116            0    0.6229674    1.5832627     2.214673    1.2372763 
 4705000     1.108104 -7.249028e-05   0.55442085   0.06231725            0    0.4921036    1.6483046    2.2027255  -0.27160938 
 4710000    1.1048067 -4.3987196e-05   0.55524656  0.014677935            0   0.54056863    1.6433999    2.1986465   0.69721684 
 4715000    1.1014955 -5.1451096e-05   0.55652855 0.00036688207            0   0.55616167    1.6384745    2.1950031   0.43880566 
 4720000    1.1496502 -1.6864585e-05   0.49349795            0            0   0.49349795    1.7101046    2.2036026    1.6279581 
 4725000    1.1431879 6.6990439e-05   0.50601636 8.5243587e-05            0   0.50593112     1.700492    2.2065083    4.4931153 
 4730000    1.1127379 0.0001015438   0.52050684 0.0028824896            0   0.51762435    1.6551976    2.1757044    5.6417327 
 4735000    1.1000658 -1.4745688e-05    0.5245233  0.041955508            0    0.4825678    1.6363479    2.1608712    1.6575517 
 4740000    1.1454467 -3.6446778e-06   0.48505634  0.028334806            0   0.45672153    1.7038519    2.1889083    2.0645033 
 4745000    1.0550255 8.131818e-05    0.6102082 0.0073704252            0   0.60283777    1.5693504    2.1795586    4.9552191 
 4750000    1.1218947 1.3676391e-05   0.51417833 0.0056078749            0   0.50857045    1.6688184    2.1829967    2.6498175 
 4755000    1.0571754 -0.00014226333   0.62730331  0.035147806            0   0.59215551    1.5725483    2.1998517   -2.6560699 
 4760000    1.1209048 -7.9448837e-06    0.5500835  0.020501597            0    0.5295819    1.6673459    2.2174294    1.9462441 
 4765000    1.1131012 7.6377327e-06    0.5768659  0.014972016            0   0.56189389     1.655738    2.2326039    2.4933052 
 4770000    1.0800716 -2.7414647e-05   0.63204589  0.046579584            0    0.5854663    1.6066065    2.2386524    1.3028991 
 4775000    1.1090317 0.00017369902   0.56885822  0.039315963            0   0.52954226    1.6496846    2.2185429    8.1474695 
 4780000    1.1480936 0.00010940691   0.50652967  0.024027126            0   0.48250254    1.7077892    2.2143189    5.9487414 
 4785000    1.1214372 -6.7577695e-05   0.53915357   0.03718604            0   0.50196753    1.6681379    2.2072914 -0.099360535 
 4790000    1.1211015 5.3667949e-05   0.55941698  0.036065159            0   0.52335182    1.6676385    2.2270555    4.0589215 
 4795000    1.1228673 5.9030828e-05    0.5469691  0.035699503            0    0.5112696     1.670265    2.2172341    4.2321531 
 4800000    1.1002938 3.6043509e-05    0.5648453  0.030259441            0   0.53458586     1.636687    2.2015323    3.4318175 
 4805000    1.1068084 -0.0001464084    0.5420952   0.01017542            0   0.53191978    1.6463775    2.1884727   -2.8089339 
 4810000    1.0861539 -2.0594237e-05   0.54697135 0.0038938015            0   0.54307755    1.6156539    2.1626253    1.4596753 
 4815000    1.0921517 4.3525569e-05   0.54506885  0.020597857            0   0.52447099    1.6245757    2.1696445    3.6553173 
 4820000    1.1081056 -0.00012821563   0.51969968  0.017346021            0   0.50235366     1.648307    2.1680067   -2.2084203 
 4825000    1.0777356 7.7314803e-05   0.55571654  0.072641485            0   0.48307505    1.6031318    2.1588483    4.7978602 
 4830000    1.1372726 -2.6964459e-05   0.47472926  0.030591197            0   0.44413806     1.691693    2.1664223    1.2460355 
 4835000    1.1051422 4.0985726e-05   0.51300688  0.013071011            0   0.49993587     1.643899    2.1569059    3.5558853 
 4840000     1.112555 0.00025011395   0.52459968   0.02806926            0   0.49653041    1.6549255    2.1795252    10.716748 
 4845000    1.0826606 0.00014892163   0.57393398   0.01678014            0   0.55715384    1.6104577    2.1843917    7.2675833 
 4850000    1.0664879 -4.8685497e-05   0.59491593   0.01066677            0   0.58424916    1.5864007    2.1813166   0.51951834 
 4855000    1.1629486 -2.3464037e-05   0.46027982 0.0064169657            0   0.45386286     1.729886    2.1901658      1.38926 
 4860000    1.0987129 0.00011031471   0.55032272  0.027720878            0   0.52260185    1.6343355    2.1846582    5.9500669 
 4865000    1.0614771 0.00018501708   0.59113188  0.023273778            0    0.5678581    1.5789471     2.170079    8.4853286 
 4870000    1.0913923 4.4300898e-05   0.54446048  0.022854415            0   0.52160606    1.6234461    2.1679065    3.6800439 
 4875000     1.078336 -1.2026365e-05    0.5547264   0.02257252            0   0.53215388    1.6040247    2.1587511    1.7482512 
 4880000    1.0975757 -8.0953231e-05   0.50973181 0.0059380747            0   0.50379373    1.6326438    2.1423756  -0.62082802 
 4885000    1.0455114 -3.0352959e-05   0.57277759 0.0088666402            0   0.56391095    1.5551982    2.1279758    1.0919281 
 4890000    1.0168664 2.5307993e-05   0.59432952  0.019630309            0   0.57469921    1.5125887    2.1069182    2.9707644 
 4895000    1.0677738 6.9536852e-05   0.51114523  0.015624674            0   0.49552056    1.5883135    2.0994588    4.4729833 
 4900000    1.0510616 7.2156086e-05   0.54620299  0.014996145            0   0.53120685    1.5634541    2.1096571    4.5725848 
 4905000    1.0651207 0.00014770327   0.51493783  0.030694372            0   0.48424345    1.5843671    2.0993049      7.14091 
 4910000     1.090771 0.00016781653   0.47891692  0.056082035            0   0.42283489    1.6225219    2.1014388    7.8295765 
 4915000    1.0254779 5.112314e-05   0.56568339   0.07228091            0   0.49340248    1.5253984    2.0910818     3.836085 
 4920000    1.0937052  2.29207e-05   0.48668171  0.038629837            0   0.44805187    1.6268865    2.1135682    2.8959281 
 4925000    1.1009705 -6.8676044e-05   0.50327864  0.014548019            0   0.48873062    1.6376936    2.1409722  -0.20317011 
 4930000    1.0509447 -0.00013464284   0.55754759  0.010961176            0   0.54658642    1.5632803    2.1208279   -2.4749811 
 4935000    1.0936725 1.408255e-05   0.50331268  0.027917632            0   0.47539505    1.6268378    2.1301505    2.6108349 
 4940000    1.0708517 8.0608187e-05   0.53266023  0.021152626            0   0.51150761    1.5928918    2.1255521    4.8769782 
 4945000    1.1196041  8.66062e-05   0.47560399  0.025416629            0   0.45018736    1.6654111    2.1410151    5.0971733 
 4950000    1.0343497 -7.075391e-05   0.61135179  0.038692379            0   0.57265941    1.5385952    2.1499469  -0.26511986 
 4955000    1.0632177 8.0852693e-05   0.55686532  0.032847761            0   0.52401756    1.5815363    2.1384016    4.8981736 
 4960000    1.0805271 0.00017042689   0.54529948 0.0060354978            0   0.53926398    1.6072841    2.1525836    7.9698215 
 4965000    1.1391966 -2.3095212e-05   0.44171109  0.014384586            0   0.42732651    1.6945549     2.136266    1.3479494 
 4970000    1.0895243 -2.0856668e-05   0.49954183 0.0092925894            0   0.49024924    1.6206674    2.1202092    1.4083016 
 4975000    1.0672252 -0.0001768935   0.50885818 0.0056379238            0   0.50322026    1.5874974    2.0963556   -3.9416091 
 4980000    1.0578505 -5.5682184e-05   0.50834661  0.016952237            0   0.49139437    1.5735526    2.0818992   0.18128067 
 4985000    1.0862808 0.0001022874   0.46558855  0.016603246            0   0.44898531    1.6158427    2.0814313    5.5728411 
 4990000     1.014289 -5.5605554e-05   0.55104406  0.021262383            0   0.52978167    1.5087549     2.059799   0.16179605 
 4995000    1.0755306 5.2825211e-05   0.45987301  0.011627889            0   0.44824512    1.5998517    2.0597248    3.8628253 
 5000000    1.0553847 0.0001790903   0.49510599  0.018617187            0    0.4764888    1.5698848    2.0649908    8.1779397 
 5005000     1.009894 9.5921392e-06   0.55974058  0.021764514            0   0.53797606    1.5022173    2.0619579    2.3893696 
 5010000    1.0713852 -4.0516792e-05   0.48715956   0.03025274            0   0.45690682    1.5936855     2.080845   0.69787186 
 5015000     1.049813 4.4263408e-05   0.51461797  0.011654339            0   0.50296363    1.5615968    2.0762148    3.5870725 
 5020000    1.0145291 -0.00019792832   0.58350925 0.0049189621            0   0.57859029     1.509112    2.0926212   -4.6633321 
 5025000    1.1027028 4.4285601e-05   0.44598624 0.0044715138            0   0.44151473    1.6402704    2.0862566    3.5978718 
 5030000    1.0652331 0.00025882695   0.52070425  0.012002366            0   0.50870189    1.5845342    2.1052385    10.939865 
 5035000    1.0450441 2.5472973e-05   0.56080282 0.0098621443            0   0.55094068    1.5545031    2.1153059    2.9847834 
 5040000    1.0599527 3.6284175e-05   0.51199243  0.016757433            0     0.495235    1.5766797    2.0886721    3.3271719 
 5045000    1.0353665 -3.2988121e-05   0.55855054  0.043847505            0   0.51470303    1.5401077    2.0986582   0.97266369 
 5050000    1.0697832 -0.00012057518   0.52325452  0.040899677            0   0.48235484    1.5913025    2.1145571   -2.0010757 
 5055000    1.0842872 -0.0001127692   0.51385012  0.031912285            0   0.48193783    1.6128771    2.1267273   -1.7224616 
 5060000    1.0510162 -2.3281099e-05   0.55980828  0.038657364            0   0.52115092    1.5633866    2.1231949    1.3285334 
 5065000      1.08056 1.985034e-05   0.52788141  0.021973352            0   0.50590806    1.6073331    2.1352145    2.8127727 
 5070000    1.0585093 8.3613267e-05   0.55718922  0.013335366            0   0.54385386    1.5745326    2.1317218    4.9857213 
 5075000    1.0591085 -2.2061017e-06   0.56891105  0.039738554            0   0.52917249    1.5754239    2.1443349    2.0690333 
 5080000    1.0669536 1.1308669e-05   0.56595501  0.038466807            0   0.52748821    1.5870935    2.1530485    2.5390511 
 5085000    1.1009973 0.00015329923    0.4991168  0.017845635            0   0.48127116    1.6377335    2.1368503     7.369464 
 5090000    1.0494739 0.00018270954   0.55698212  0.057580488            0   0.49940163    1.5610924    2.1180745    8.3545601 
 5095000    1.1049294 5.9610713e-05   0.46209551  0.025457859            0   0.43663765    1.6435824    2.1056779    4.1403903 
 5100000    1.0653228 -9.1500482e-05   0.53117119  0.010119201            0   0.52105199    1.5846677    2.1158389   -1.0073776 
 5105000    1.0287424 -5.5269906e-05   0.56433614  0.014364951            0   0.54997118    1.5302543    2.0945904   0.20804428 
 5110000    1.0702274 -5.6073604e-05     0.510054  0.017979977            0   0.49207403    1.5919633    2.1020173   0.18803829 
 5115000    1.1063932 -0.00010844098    0.4741006  0.014990733            0   0.45910987    1.6457599    2.1198605   -1.5815917 
 5120000    1.0878846 1.0068862e-05    0.5285408  0.022138948            0   0.50640186    1.6182284    2.1467692     2.490453 
 5125000    1.1280373 5.8334122e-05   0.47527627  0.012637777            0   0.46263849    1.6779554    2.1532317    4.1443698 
 5130000    1.0560637 -4.8970663e-05   0.58784065  0.014746839            0   0.57309381    1.5708947    2.1587353   0.48720338 
 5135000    1.1175681 0.00011089278   0.50094983  0.065657704            0   0.43529213    1.6623826    2.1633324    5.9484728 
 5140000    1.0070048 -6.2051003e-06   0.63292296  0.018764454            0    0.6141585    1.4979196    2.1308425    1.9190418 
 5145000    1.0614167 -0.00014496477   0.58122612  0.016138539            0   0.56508758    1.5788573    2.1600834   -2.7880472 
 5150000    1.0420845 -1.0090316e-05   0.60096817  0.023057501            0   0.57791067    1.5501007    2.1510688    1.8066527 
 5155000    1.0937119 -2.3799154e-05   0.51560389  0.022819201            0   0.49278469    1.6268965    2.1425003    1.3301559 
 5160000    1.0830346 -3.9675589e-05   0.53437233 0.0039323342            0   0.53043999    1.6110139    2.1453863   0.79112615 
 5165000     1.065447 9.5833599e-05   0.54808017 0.0090279977            0   0.53905217    1.5848524    2.1329325    5.4040527 
 5170000    1.0902626 3.4855585e-05   0.50124187  0.011387945            0   0.48985393    1.6217656    2.1230075    3.3127448 
 5175000    1.0587307 -2.1285608e-05   0.57659635  0.010064434            0   0.56653192    1.5748619    2.1514583    1.4249095 
 5180000   0.99383771 3.8777266e-05   0.68308661  0.028020537            0   0.65506607    1.4783336    2.1614202    3.4850175 
 5185000    1.0672443 0.00021688166   0.56868617  0.074939739            0   0.49374644     1.587526    2.1562121    9.5591062 
 5190000    1.1431667 6.9850324e-05   0.47035895  0.026223238            0   0.44413571    1.7004605    2.1708194    4.5550438 
 5195000    1.1112222 -0.00015433498   0.50380618  0.021540262            0   0.48226592    1.6529431    2.1567492   -3.1112179 
 5200000    1.1062415 -0.00012288245   0.52724046 0.0067476343            0   0.52049283    1.6455343    2.1727748   -2.0216129 
 5205000    1.0321056 -0.00014783724   0.62835549 0.0074927214            0   0.62086277     1.535257    2.1636125   -2.8825651 
 5210000    1.1056742 -8.7086316e-05   0.54229867  0.013257547            0   0.52904112    1.6446903     2.186989  -0.78555725 
 5215000    1.0419454 5.6165106e-05   0.62686769  0.010510672            0   0.61635702    1.5498939    2.1767615    4.0938638 
 5220000    1.0399972 2.2297281e-05   0.61613924  0.075465425            0   0.54067382    1.5469959    2.1631351    2.9242156 
 5225000    1.1013542 -2.1815841e-05   0.53162223  0.044033223            0   0.48758901    1.6382643    2.1698865    1.4252392 
 5230000    1.0816067 -0.00021537839    0.5517781  0.011188394            0   0.54058971      1.60889    2.1606681   -5.1909143 
 5235000    1.0509509 -0.00021264973   0.62995501 0.0097921527            0   0.62016285    1.5632894    2.1932444   -5.0651997 
 5240000    1.1316941 7.9025166e-05   0.54574635  0.017109884            0   0.52863647    1.6833949    2.2291413    4.9265336 
 5245000    1.1211738 9.5719484e-05   0.55004493  0.027412375            0   0.52263256     1.667746    2.2177909    5.4850159 
 5250000    1.1115234 2.4805916e-05   0.57934089  0.022600283            0    0.5567406    1.6533911     2.232732    3.0794406 
 5255000    1.1398465 4.9368101e-05   0.54556192  0.011997665            0   0.53356426    1.6955217    2.2410836    3.9261814 
 5260000    1.1651986 -3.4477869e-05   0.51849621  0.015760824            0   0.50273539     1.733233    2.2517292    1.0748846 
 5265000    1.1065049 1.6313027e-05   0.56413209  0.015080192            0   0.54905189    1.6459261    2.2100582    2.7668762 
 5270000    1.0950672 -1.5032632e-05   0.57281075 0.0057498408            0   0.56706091    1.6289124    2.2017232    1.6886093 
 5275000    1.1280267 -6.5637006e-05   0.48565902 0.0055422864            0   0.48011673    1.6779398    2.1635988 -0.076811004 
 5280000    1.1139312 -8.2707244e-06   0.51379993  0.016275517            0   0.49752441    1.6569726    2.1707725    1.8884651 
 5285000    1.0710058 7.6241512e-05     0.598771  0.034077699            0    0.5646933    1.5931211    2.1918921     4.794269 
 5290000    1.1207267 1.9666941e-05   0.52812726   0.02727397            0   0.50085329     1.667081    2.1952083    2.8665066 
 5295000    1.0875554 3.3118218e-05   0.57956352  0.021763918            0    0.5577996    1.6177387    2.1973022    3.3277373 
 5300000    1.1162853 -3.7524354e-05   0.54334915  0.031893725            0   0.51145543    1.6604744    2.2038236   0.92299229 
 5305000       1.0902 5.2139314e-05   0.55506655  0.028989141            0   0.52607741    1.6216725    2.1767391    3.9564277 
 5310000    1.1126201 -1.0803313e-05   0.53480624  0.024147153            0   0.51065909    1.6550223    2.1898286    1.8210755 
 5315000    1.1208191 -0.00012539389   0.52330911  0.046017752            0   0.47729135    1.6672185    2.1905276   -2.0895838 
 5320000    1.1192776 -3.6333712e-05    0.5049588  0.030598286            0   0.47436052    1.6649254    2.1698842   0.92969349 
 5325000    1.1467904 -7.2194985e-06   0.45816326   0.01298528            0   0.44517798    1.7058507     2.164014    1.9175884 
 5330000    1.0445783 -0.00016377737   0.58178478  0.037024021            0   0.54476076    1.5538102     2.135595   -3.4546725 
 5335000    1.0882924 -0.00013038786   0.52152212  0.020536659            0   0.50098546    1.6188349     2.140357   -2.3102151 
 5340000    1.1331161 -2.8474587e-05   0.48414912   0.01007731            0   0.47407181    1.6855101    2.1696593    1.1977267 
 5345000    1.0900563 -0.00017024215    0.5605211 0.0073362349            0   0.55318486    1.6214588    2.1819799    -3.628952 
 5350000    1.1031558 -7.6418256e-05   0.57195607  0.040754666            0    0.5312014    1.6409443    2.2129003  -0.39550947 
 5355000    1.1318293 6.2785089e-05   0.51855085  0.020506702            0   0.49804415    1.6835961    2.2021469    4.3452113 
 5360000    1.0562578 0.00020500245   0.59088804 0.0071464023            0   0.58374164    1.5711835    2.1620716    9.1594884 
 5365000    1.1165802 0.00020186312     0.476994   0.01113278            0   0.46586122     1.660913     2.137907     9.028168 
 5370000    1.0731548 -7.2720976e-06   0.56679246  0.012851553            0    0.5539409    1.5963178    2.1631102    1.9148893 
 5375000    1.0448009 -1.3830279e-06   0.57904449 0.0075601408            0   0.57148435    1.5541413    2.1331858    2.0859784 
 5380000     1.035689 -1.0684802e-05   0.57667539  0.040126166            0   0.53654922    1.5405874    2.1172628    1.7525549 
 5385000    1.0826766 2.3512808e-05   0.51236078  0.019713479            0    0.4926473    1.6104815    2.1228423    2.9254128 
 5390000    1.0946261 -4.110435e-06   0.50009502  0.031918208            0   0.46817682    1.6282563    2.1283513    1.9880484 
 5395000    1.0345612 -8.3798103e-05   0.60844033  0.020717339            0   0.58772299    1.5389098    2.1473502  -0.71295843 
 5400000    1.0338881 0.00017032987   0.58410579  0.057933772            0   0.52617202    1.5379085    2.1220143    7.9359407 
 5405000    1.0134084 0.00021246638   0.58854753  0.028721902            0   0.55982562     1.507445    2.0959926    9.3481782 
 5410000    1.0257633 -9.6097682e-05   0.57340843 0.0091891989            0   0.56421923     1.525823    2.0992314   -1.1809028 
 5415000    1.0719226 -4.7202181e-05   0.48794203 0.0096644841            0   0.47827755    1.5944849    2.0824269   0.47125916 
 5420000    1.0458251 8.6852683e-05   0.52554171  0.011724065            0   0.51381765    1.5556648    2.0812065    5.0457781 
 5425000    1.0194171 0.0001316815   0.55870905  0.026197739            0   0.53251131    1.5163829    2.0750919    6.5698205 
 5430000   0.97321563 2.3097459e-05   0.62867599  0.070355158            0   0.55832083    1.4476582    2.0763342    2.8647275 
 5435000    1.0424316 -2.6292055e-06   0.53586119  0.020133004            0   0.51572819    1.5506169    2.0864781    1.9967346 
 5440000    1.0494079 -7.8529399e-05   0.53313759 0.0092809553            0   0.52385663    1.5609942    2.0941318  -0.58633831 
 5445000     1.066912 -3.512331e-05   0.51562959  0.028852706            0   0.48677689    1.5870315    2.1026611   0.90378549 
 5450000     1.074111 8.5700259e-06    0.5168404  0.026927397            0     0.489913    1.5977401    2.1145805     2.407104 
 5455000   0.98922441 -0.00010315772   0.63779648  0.021340612            0   0.61645587    1.4714713    2.1092678   -1.4118489 
 5460000    1.0481662 -2.773621e-05   0.54749195  0.033475264            0   0.51401669    1.5591472    2.1066391    1.1599098 
 5465000    1.0317889 5.5350534e-05   0.54198332  0.039608288            0   0.50237503     1.534786    2.0767694    3.9660676 
 5470000    1.0487302 -3.8021329e-05   0.52842585  0.021166023            0   0.50725982    1.5599861     2.088412   0.79061727 
 5475000    1.0251106 -2.3988103e-05   0.56623933  0.035201159            0   0.53103817     1.524852    2.0910913    1.2722974 
 5480000    1.0734252 -7.0173235e-05   0.50331565  0.025005288            0   0.47831037    1.5967199    2.1000356  -0.29521085 
 5485000    1.0169666 3.2429594e-05    0.5890002  0.019267967            0   0.56973223    1.5127378     2.101738    3.2086682 
 5490000    1.0928665 0.00018064186   0.49069657  0.027697001            0   0.46299957    1.6256389    2.1163355    8.2822443 
 5495000    1.0881483 -1.4847717e-05     0.524217  0.014093658            0   0.51012335    1.6186206    2.1428376    1.6360356 
 5500000    1.1571624 -1.4400721e-05   0.43996097 0.0045599175            0   0.43540106    1.7212791    2.1612401    1.6696955 
 5505000    1.0647123 2.7074765e-05   0.56827142   0.02802531            0   0.54024611    1.5837596     2.152031     3.076183 
 5510000    1.0917633 3.3519112e-05   0.50765874  0.026706698            0   0.48095204     1.623998    2.1316567    3.2757757 
 5515000    1.0496148 3.826223e-05   0.59515142   0.01884974            0   0.57630168     1.561302    2.1564534    3.4624708 
 5520000    1.0688011 -7.1519426e-06   0.58230877  0.037126972            0    0.5451818    1.5898417    2.1721505    1.9280308 
 5525000    1.0308221 1.8525318e-05   0.64664322  0.012072016            0    0.6345712    1.5333479    2.1799911     2.812322 
 5530000    1.1238464 7.5911401e-05   0.52972442  0.041904457            0   0.48781996    1.6717216     2.201446    4.7925551 
 5535000    1.0998449 -4.3331033e-05   0.57572187  0.049372257            0   0.52634961    1.6360193    2.2117412   0.73270864 
 5540000    1.0575233 -2.3573331e-06   0.63119226  0.015483636            0   0.61570862    1.5730658    2.2042581    2.1237945 
 5545000    1.1182736 0.0001826507   0.53472741  0.021287216            0   0.51344019     1.663432    2.1981594    8.4326365 
 5550000    1.0325843 0.00011569001   0.61493986  0.051157478            0   0.56378238    1.5359692     2.150909    6.0997946 
 5555000    1.0607823 0.00010122134   0.57883804  0.042099131            0   0.53673891    1.5779137    2.1567517    5.6117733 
 5560000    1.0740381 0.00022332094   0.56586799  0.017215856            0   0.54865213    1.5976317    2.1634996    9.7861877 
 5565000    1.0753296 -6.4346325e-05    0.5654465  0.021735656            0   0.54371084    1.5995528    2.1649993 -0.031355322 
 5570000    1.0804651 -9.73462e-05   0.58820484  0.020480064            0   0.56772477    1.6071919    2.1953967   -1.1273536 
 5575000     1.096724 0.00018840754   0.54814432  0.014843209            0   0.53330111     1.631377    2.1795213    8.6104987 
 5580000    1.0633774 1.3525074e-05   0.58500612  0.037212915            0   0.54779321    1.5817738      2.16678    2.6284358 
 5585000   0.99905648 -0.00018450586   0.67887076  0.021497103            0   0.65737366    1.4860965    2.1649673   -4.1328326 
 5590000    1.1070832 3.6557595e-05   0.50854022   0.01596076            0   0.49257946    1.6467863    2.1553265    3.4031591 
 5595000    1.1250142 0.00011606936   0.48933633  0.015055913            0   0.47428042    1.6734587     2.162795    6.1246293 
 5600000    1.0264444 -5.8691378e-05   0.64164225  0.036724774            0   0.60491748     1.526836    2.1684783   0.16514591 
 5605000   0.94704304 2.5304833e-05   0.73075165  0.048346269            0   0.68240538    1.4087265    2.1394782    3.0032165 
 5610000     1.054873 0.00013080102   0.57938068  0.038527473            0   0.54085321    1.5691235    2.1485042    6.6131789 
 5615000    1.0636314 6.2713645e-05   0.56246105 0.0068954991            0   0.55556555    1.5821517    2.1446127    4.2852385 
 5620000    1.0721328 -1.3687471e-05   0.54817864 0.0045156014            0   0.54366304    1.5947975    2.1429761    1.6757771 
 5625000     1.033836 -7.0005068e-05   0.61267882 0.0092374331            0   0.60344139    1.5378311    2.1505099   -0.2389964 
 5630000   0.99825708 -8.7697015e-05   0.64703387   0.02063075            0   0.62640312    1.4849074    2.1319413  -0.86145017 
 5635000    1.1014351 -4.4138332e-05    0.4718654  0.021443917            0   0.45042148    1.6383848    2.1102502   0.60366178 
 5640000    1.0911217 9.9347478e-05   0.48456558  0.030675214            0   0.45389037    1.6230435    2.1076091    5.4986697 
 5645000   0.98570857 0.00014899533   0.64585003  0.021146116            0   0.62470391    1.4662415    2.1120915    7.1977987 
 5650000    0.9868227 -3.5114067e-06    0.6264205 0.0065833619            0   0.61983714    1.4678988    2.0943193    1.9744633 
 5655000    1.0593717 2.2910066e-05   0.48786759  0.013883994            0    0.4739836    1.5758155    2.0636831      2.84568 
 5660000    1.0017341 -5.6288981e-05   0.56255251   0.03140283            0   0.53114968    1.4900794    2.0526319   0.13130139 
 5665000   0.94159253 -5.480275e-05    0.6262924  0.035254007            0   0.59103839    1.4006189    2.0269113   0.15631074 
 5670000   0.98460993 4.4381532e-05   0.55942764  0.029590975            0   0.52983667    1.4646073    2.0240349    3.5389246 
 5675000    1.0132732 -4.69818e-05   0.50318581  0.047411429            0   0.45577438    1.5072439    2.0104297   0.40678427 
 5680000   0.98613618 1.1372511e-05   0.54053494 0.0087125992            0   0.53182234    1.4668776    2.0074125    2.3955942 
 5685000    1.0348359 -5.9892466e-06   0.49619057  0.010470921            0   0.48571965    1.5393184     2.035509     1.831076 
 5690000   0.96520389 -0.00013867555   0.59772172  0.023608196            0   0.57411352    1.4357408    2.0334625   -2.6999963 
 5695000    1.0411836 -0.00019896038   0.50263919 0.0025972032            0   0.50004198    1.5487606    2.0513998   -4.7397811 
 5700000     1.033094 0.00018680456    0.5486174 0.00032856238            0   0.54828884    1.5367273    2.0853447    8.4616069 
 5705000    1.0570608 0.00016947889   0.51402144  0.013264466            0   0.50075697     1.572378    2.0863994    7.8712789 
 5710000   0.97565475 -5.3113864e-05   0.62302926  0.034178409            0   0.58885085    1.4512864    2.0743157   0.26136247 
 5715000    0.9905037 -0.00021899111    0.6007397  0.022065736            0   0.57867396    1.4733743     2.074114   -5.4007824 
 5720000    1.0238478 7.6912974e-05   0.55437079  0.041809521            0   0.51256126    1.5229736    2.0773444    4.7026406 
 5725000    1.0230237 0.00025713162   0.53737964   0.05163681            0   0.48574283    1.5217478    2.0591275    10.835887 
 5730000   0.95252848 0.00015768718   0.64098648  0.069390621            0   0.57159586    1.4168861    2.0578726    7.4402615 
 5735000    1.0385874 1.9774198e-05   0.54872088 0.0090521564            0   0.53966873    1.5448987    2.0936196    2.7685789 
 5740000    1.0616287 -7.5753582e-05   0.53375855 0.00058615802            0   0.53317239    1.5791726    2.1129312  -0.47279107 
 5745000    1.0464993 1.2204932e-05   0.55826793 0.0035236145            0   0.55474431    1.5566677    2.1149357    2.5315307 
 5750000     1.009925 -3.156751e-05   0.60811245  0.017124905            0   0.59098754    1.5022635    2.1103759    1.0328716 
 5755000    1.0713385 -3.438514e-05   0.53730003  0.032631526            0    0.5046685     1.593616     2.130916   0.95723655 
 5760000    1.1037341 -0.00012886272   0.46695797 0.0066875256            0   0.46027045    1.6418044    2.1087624   -2.2897519 
 5765000    1.0345266 -3.0448424e-05   0.56780496 0.0064557507            0   0.56134921    1.5388583    2.1066633    1.0673571 
 5770000    1.0928369 0.00026951157   0.49152099  0.014687047            0   0.47683394    1.6255948    2.1171158    11.316444 
 5775000    1.0727567 0.00014099759   0.49811584 0.0085486934            0   0.48956715    1.5957256    2.0938414    6.9065593 
 5780000    1.0309705 -0.00010839722   0.56662609 0.0016590857            0     0.564967    1.5335686    2.1001947   -1.5997636 
 5785000    1.0804223 5.2005491e-05   0.47906248  0.012349472            0   0.46671301    1.6071281    2.0861906    3.8613114 
 5790000     1.017144 -1.2357735e-05   0.57233474  0.040152664            0   0.53218207    1.5130017    2.0853364    1.6635257 
 5795000    1.0481916 -0.00021340839    0.5302413   0.01321266            0   0.51702864    1.5591851    2.0894264   -5.1949134 
 5800000    1.0151322 -5.4977505e-06   0.56492911  0.011320258            0   0.55360885    1.5100092    2.0749383    1.8872818 
 5805000    1.0482736 -2.842827e-05   0.51424119 0.0060301762            0   0.50821101     1.559307    2.0735482    1.1031965 
 5810000    0.9750199 -4.7918315e-05   0.62005329 0.0080116677            0   0.61204163    1.4503421    2.0703954   0.43478359 
 5815000    1.0230632 0.00016191406   0.54757264  0.020866321            0   0.52670632    1.5218064    2.0693791    7.5960458 
 5820000    1.0062989 0.00012221206   0.57337356  0.016352985            0   0.55702057    1.4968697    2.0702432    6.2417482 
 5825000    1.0115977 -4.1204745e-05   0.57384865  0.030703737            0   0.54314491    1.5047516    2.0786002   0.67214492 
 5830000    1.0694879 -7.110426e-05   0.49926534  0.059624819            0   0.43964053    1.5908632    2.0901286  -0.33689685 
 5835000    1.0546988 4.9059654e-05   0.52082009  0.028978218            0   0.49184188    1.5688645    2.0896846    3.7642541 
 5840000    1.0932865 1.8249443e-05   0.47372763  0.018912859            0   0.45481477    1.6262636    2.0999913    2.7229056 
 5845000    1.0023763 -8.1010293e-05    0.6265869  0.024206634            0   0.60238027    1.4910347    2.1176216   -0.6475297 
 5850000    1.0599057 7.1356791e-05   0.56337005  0.039119059            0   0.52425099    1.5766097    2.1399797    4.5756249 
 5855000     1.010005 0.00014334088   0.63145777  0.043424941            0   0.58803283    1.5023824    2.1338402    7.0265421 
 5860000    1.0004101 0.0001230824   0.65103485  0.033247768            0   0.61778708      1.48811    2.1391448    6.3403574 
 5865000    1.0351376 -3.0494306e-05   0.60596239  0.036898625            0   0.56906376    1.5397671    2.1457295    1.1048572 
 5870000   0.99468863 -4.0982112e-05   0.66820104  0.028071071            0   0.64012997    1.4795993    2.1478004   0.74894428 
 5875000    1.0450391 5.5218485e-05   0.58900566  0.046452659            0     0.542553    1.5544957    2.1435014    4.0282923 
 5880000    1.0709084 -1.0267854e-05   0.53806901  0.017536739            0   0.52053227    1.5929762    2.1310453    1.7805692 
 5885000    1.0860918 -9.0837572e-05   0.50421112  0.015110566            0   0.48910055    1.6155616    2.1197727   -0.9808164 
 5890000    1.0107025 -2.5676704e-05   0.60255331  0.024930978            0   0.57762234      1.50342    2.1059733    1.2295418 
 5895000    1.0586639 6.0195636e-05   0.55647649   0.02211964            0   0.53435686    1.5747626     2.131239    4.1859168 
 5900000    1.0856083 -2.5577306e-06   0.49344401  0.041130263            0   0.45231375    1.6148424    2.1082864    2.0209825 
 5905000    1.0956954 2.0307727e-05    0.4767533  0.053306259            0   0.42344704    1.6298468    2.1066001    2.7997706 
 5910000    1.0350591 5.2148095e-05   0.54534862  0.044332339            0   0.50101628    1.5396505    2.0849991    3.8649874 
 5915000   0.89745008 -6.2951929e-06   0.73888059  0.081769756            0   0.65711083     1.334957    2.0738376    1.8589617 
 5920000    1.0670682  1.45644e-05   0.47883361   0.04109327            0   0.43774034     1.587264    2.0660976    2.5632291 
 5925000    1.0889282 8.4847044e-07   0.46150437  0.022511176            0    0.4389932    1.6197808    2.0812851    2.1102463 
 5930000    1.0459023 -1.0944317e-05   0.50557734 0.0075276105            0   0.49804973    1.5557797     2.061357     1.687791 
 5935000   0.96901273 0.00010252398   0.59134845 0.0092137085            0   0.58213474    1.4414064    2.0327549    5.5322399 
 5940000    1.0136531 0.00013739154   0.53867305  0.032920519            0   0.50575253    1.5078089     2.046482    6.7361132 
 5945000    1.0457717 0.00022015296    0.4824735  0.033782713            0   0.44869078    1.5555854    2.0380589    9.5526131 
 5950000   0.96890472 2.1386247e-05   0.57937722  0.037955359            0   0.54142186    1.4412458     2.020623    2.7506069 
 5955000   0.97101355 -0.00020749553   0.59611752  0.017731555            0   0.57838596    1.4443827    2.0405002   -5.0420139 
 5960000    0.9953753 -0.00016475673   0.53860748 0.0054054749            0   0.53320201    1.4806208    2.0192282   -3.6044683 
 5965000     1.048416 -1.0820809e-05   0.44938762 0.0052089902            0   0.44417863    1.5595188    2.0089064    1.6395561 
 5970000    0.9853607 -2.5633222e-06   0.53309284  0.012816312            0   0.52027653     1.465724    1.9988169    1.9113221 
 5975000   0.98081313 -2.7794393e-05   0.53360019  0.026919016            0   0.50668118    1.4589595    1.9925597    1.0438445 
 5980000   0.98954048 0.00013872852   0.50601233  0.021311779            0   0.48470055    1.4719415    1.9779538    6.7132205 
 5985000   0.98261224 0.00013287207   0.53291146  0.024604167            0   0.50830729    1.4616357    1.9945472    6.5299137 
 5990000   0.95805703 5.8828051e-05    0.5719808   0.02333153            0   0.54864927    1.4251098    1.9970906    4.0050881 
 5995000    0.9889971 5.6485621e-05   0.53053072  0.030634787            0   0.49989593    1.4711332    2.0016639    3.9297064 
 6000000   0.98469442 4.5367325e-05   0.52778286  0.041388412            0   0.48639445     1.464733    1.9925158    3.5410538 
 6005000    1.0081768 1.8063573e-05   0.52282767 0.0098411415            0   0.51298653    1.4996631    2.0224907    2.6390607 
 6010000    1.0093559 3.3546458e-05   0.52363761 0.0048565381            0   0.51878108    1.5014169    2.0250546     3.170107 
 6015000    1.0275936 -1.3836699e-05   0.51606489   0.02971464            0   0.48635025    1.5285455    2.0446104    1.5723178 
 6020000    1.0614729 1.5849058e-05   0.45543752  0.025154399            0   0.43028312     1.578941    2.0343785    2.5753597 
 6025000   0.97075159 0.00015910168   0.59609243  0.019954605            0   0.57613782     1.443993    2.0400854    7.4707562 
 6030000    1.0008331 9.6389838e-05   0.54800619  0.018290026            0   0.52971616    1.4887392    2.0367454    5.3268519 
 6035000   0.98769272 -0.0001289137   0.57306055  0.020660565            0   0.55239999    1.4691929    2.0422535   -2.3580008 
 6040000   0.98491302 -0.00015306763   0.57363763  0.031175323            0    0.5424623    1.4650581    2.0386957   -3.1860128 
 6045000    1.0329787 0.00018474259   0.50479678  0.015037024            0   0.48975976    1.5365558    2.0413526     8.347233 
 6050000     1.010787 0.00017393286   0.51503606  0.055466601            0   0.45956946    1.5035457    2.0185818    7.9554899 
 6055000    1.0064353 -2.628356e-05   0.52463177  0.049828709            0   0.47480306    1.4970726    2.0217043    1.1245588 
 6060000    1.0223156 -9.4999829e-06   0.51131243  0.019696245            0   0.49161618    1.5206945    2.0320069    1.7077408 
 6065000     1.072936 -1.0772111e-05   0.47135073 0.0026598009            0   0.46869093    1.5959923    2.0673431     1.699655 
 6070000    1.0539183 0.00013438852   0.50727806  0.020011926            0   0.48726614    1.5677034    2.0749815    6.6621098 
 6075000    1.0311236 5.9313307e-05   0.56081482  0.027057768            0   0.53375706    1.5337963    2.0946111     4.119172 
 6080000    1.0638465 -2.1513154e-05   0.52102089  0.038523079            0   0.48249781    1.5824716    2.1034925    1.3691768 
 6085000    1.0964906 0.00010057789   0.46890014  0.036165722            0   0.43273441    1.6310298    2.0999299    5.5329886 
 6090000    1.0784238 8.6542642e-05   0.49223814    0.0110597            0   0.48117844    1.6041553    2.0963935    5.0503823 
 6095000    1.0413729 -6.8167265e-05   0.57234325  0.012341853            0   0.56000139    1.5490421    2.1213854  -0.20539061 
 6100000    1.1142026 -0.00010318723   0.43710378  0.012557993            0   0.42454578    1.6573764    2.0944801   -1.4276441 
 6105000    1.0038934 2.4878228e-05   0.59095871  0.052497069            0   0.53846164    1.4932914    2.0842501    2.9334269 
 6110000    1.1045183 0.00012704955   0.46067777  0.034821318            0   0.42585645     1.642971    2.1036488    6.4402733 
 6115000    1.0027458 0.00014215156   0.60416621  0.016862717            0    0.5873035    1.4915844    2.0957506    6.9478571 
 6120000    1.0615303 7.4584061e-05   0.52529032 0.0085071687            0   0.51678315    1.5790264    2.1043167    4.6501193 
 6125000    1.0936618 3.1460875e-05   0.45609079  0.030937213            0   0.42515357     1.626822    2.0829127    3.1567773 
 6130000    1.1077738 -2.1170973e-05   0.42842267  0.038250308            0   0.39017236    1.6478135    2.0762362    1.3536003 
 6135000   0.95955304 -8.8121805e-05   0.63253998  0.046109892            0   0.58643009    1.4273351    2.0598751  -0.94801584 
 6140000   0.99104468 -5.8051627e-05   0.58258824  0.025451688            0   0.55713655     1.474179    2.0567672  0.075271658 
 6145000    1.0223192 6.5813518e-05   0.54451224  0.028638392            0   0.51587385    1.5206998    2.0652121    4.3116468 
 6150000   0.99494479 8.3805375e-05   0.58511309 0.0075908902            0    0.5775222    1.4799804    2.0650935    4.9256503 
 6155000    1.0027567 2.0401865e-05    0.5699285  0.016729782            0   0.55319872    1.4916006    2.0615291    2.7579127 
 6160000    1.0701518 -0.00015537546   0.47304089  0.018713432            0   0.45432746    1.5918508    2.0648917   -3.2385906 
 6165000    1.0282746 -0.00018258399   0.53455099  0.021375521            0   0.51317547    1.5295585    2.0641095   -4.1680905 
 6170000     1.040803 5.0077728e-05    0.5321587  0.016408221            0   0.51575048    1.5481944    2.0803531    3.7896729 
 6175000    1.0582358 4.4027478e-05   0.51086264  0.014548533            0   0.49631411    1.5741258    2.0849884     3.587793 
 6180000    1.0650136 -4.1609882e-05    0.4811797   0.02058189            0   0.46059781    1.5842077    2.0653874   0.64510345 
 6185000   0.99972479 -5.1002006e-05   0.57349569  0.024309387            0    0.5491863    1.4870906    2.0605863   0.31971784 
 6190000   0.96944254 1.1832433e-05   0.61455315  0.043664901            0   0.57088825    1.4420458    2.0565989    2.4604793 
 6195000    1.0067725 3.9986828e-05   0.57771482  0.025848169            0   0.55186665    1.4975742     2.075289    3.4401727 
 6200000    1.0358988 8.7797302e-05   0.50965173  0.017067389            0   0.49258434    1.5408994    2.0505512    5.0473657 
 6205000     1.009346 0.00010436827   0.55292983   0.01208671            0   0.54084312    1.5014022     2.054332    5.6167691 
 6210000    1.0319166 -4.2372808e-05   0.54581672  0.016426016            0   0.52939071     1.534976    2.0807927   0.63446753 
 6215000   0.96113682 -6.3857397e-05   0.66609988  0.064826733            0   0.60127314     1.429691    2.0957909  -0.08387491 
 6220000    1.0599538 -3.2512241e-05   0.51205559  0.036321721            0   0.47573387    1.5766813    2.0887369   0.97898569 
 6225000     1.029917 -6.1414058e-05   0.55254113   0.01912195            0   0.53341918    1.5320015    2.0845426 -0.011723897 
 6230000    1.0290056 -8.7857099e-05   0.52841301    0.0109083            0   0.51750471    1.5306459    2.0590589  -0.93979674 
 6235000   0.95174364 -0.00018735319    0.6301417  0.034048247            0   0.59609345    1.4157187    2.0458604   -4.3491287 
 6240000    1.0693863 -4.3795016e-05   0.46073714  0.014393515            0   0.44634363     1.590712    2.0514492    0.5565793 
 6245000   0.95377583 7.5804829e-05   0.63498327  0.033437033            0   0.60154623    1.4187415    2.0537248    4.6411963 
 6250000    1.0154592 -6.702701e-05   0.57582257  0.019695183            0   0.55612739    1.5104956    2.0863182  -0.20153712 
 6255000    1.0379657 9.4530758e-06   0.53103916  0.028913245            0   0.50212591     1.543974    2.0750132    2.3976782 
 6260000   0.97267014 6.396638e-06   0.63336655  0.033046918            0   0.60031963    1.4468468    2.0802134     2.298552 
 6265000    1.0434474 -0.00015701118   0.53480212  0.038202935            0   0.49659918     1.552128    2.0869302   -3.2723847 
 6270000    1.0039809 -0.00015209505   0.58838043  0.020620691            0   0.56775974    1.4934215     2.081802   -3.1097091 
 6275000    1.0451398 -3.9232171e-05     0.531295  0.018138251            0   0.51315675    1.5546455    2.0859405    0.7468157 
 6280000    1.0052791 -1.7787767e-06   0.57266114  0.035247232            0   0.53741391    1.4953527    2.0680138    2.0072982 
 6285000   0.97417261 2.8267498e-05   0.62117239  0.024639996            0   0.59653239    1.4490818    2.0702541    3.0351181 
 6290000    1.0102253 0.00018563992   0.56789769  0.012434793            0    0.5554629    1.5027102    2.0706079    8.4071173 
 6295000    1.0033474 8.4464322e-05   0.56158935   0.02268716            0   0.53890219    1.4924792    2.0540686    4.9371175 
 6300000     1.013721 -0.00014525456   0.53175228  0.038623167            0   0.49312911      1.50791    2.0396623     -2.91836 
 6305000    0.9515975 -0.00015796306   0.63935486  0.024846876            0   0.61450798    1.4155013    2.0548561   -3.3369496 
 6310000    1.0082051 -1.1919512e-05   0.55377172  0.056591272            0   0.49718044     1.499705    2.0534767     1.646624 
 6315000   0.99398174 4.8558881e-05   0.59641684  0.020906549            0   0.57551029    1.4785478    2.0749647    3.7324412 
 6320000   0.97542442 -1.5092086e-05    0.6331737   0.01157578            0   0.62159792    1.4509438    2.0841175    1.5689743 
 6325000    1.0000982 -0.00010588224   0.59900512  0.024336268            0   0.57466886     1.487646    2.0866512   -1.5274626 
 6330000   0.98675027 -0.00018694102    0.5769327  0.022165233            0   0.55476746     1.467791    2.0447237   -4.3361964 
 6335000    0.9102009 -0.00020541498   0.68702966  0.018738442            0   0.66829122    1.3539238    2.0409535   -4.9705443 
 6340000    1.0044272 -0.00016746889   0.55008496  0.011031068            0   0.53905389    1.4940855    2.0441705   -3.6721011 
 6345000    1.0103959 -3.0658624e-05   0.52253317   0.01283858            0   0.50969459    1.5029639     2.025497   0.97901599 
 6350000   0.99629625 0.00025631986   0.54234924  0.019367532            0    0.5229817    1.4819907    2.0243399    10.773391 
 6355000   0.91014395 0.00025433455   0.67622926  0.015121821            0   0.66110744    1.3538391    2.0300684    10.711354 
 6360000    1.0484149 0.00010595025   0.47453988 0.0078663543            0   0.46667352    1.5595172    2.0340571    5.6504923 
 6365000   0.99645859 -4.2473028e-05   0.54679694 0.0030810282            0   0.54371591    1.4822322    2.0290291   0.57928306 
 6370000   0.97693332 -1.5298245e-05   0.56015767 0.0066067246            0   0.55355094    1.4531883     2.013346    1.4911659 
 6375000    1.0187766 -3.9399056e-05   0.49300625 0.0091258122            0   0.48388044    1.5154303    2.0084365   0.66361539 
 6380000   0.92324611 -3.8940435e-05   0.60617531  0.002403446            0   0.60377186    1.3733286    1.9795039   0.65033706 
 6385000   0.89672969 -5.6842334e-05   0.64943784 0.0010817868            0   0.64835605    1.3338854    1.9833232  0.043104911 
 6390000   0.96137386 -0.00012432229    0.5305219 0.0085602489            0   0.52196165    1.4300436    1.9605655   -2.2829686 
 6395000   0.92513299 0.00017812169      0.57568  0.008998385            0   0.56668161    1.3761353    1.9518153    8.0317023 
 6400000    1.0040473 0.00019793714   0.45518634  0.013874123            0   0.44131221    1.4935203    1.9487067    8.7049611 
 6405000   0.90724565 -2.8195105e-05   0.58816805 0.0083601073            0   0.57980795    1.3495279     1.937696   0.97530304 
 6410000   0.91911895 3.7544767e-05    0.5580178  0.032532673            0   0.52548512    1.3671894    1.9252072    3.2067353 
 6415000   0.77553366 -6.7440511e-06   0.74634712  0.027399164            0   0.71894796    1.1536063    1.8999534    1.6697565 
 6420000   0.88130096 -6.5338675e-05    0.5932918  0.011502247            0   0.58178956    1.3109352     1.904227  -0.32599978 
 6425000   0.86990437 -1.3688992e-05   0.62520922  0.029188139            0   0.59602108    1.2939828     1.919192     1.451941 
 6430000   0.91074031 -0.00011810763   0.56343801  0.040768314            0   0.52266969    1.3547262    1.9181642   -2.1132429 
 6435000    0.8900014 -8.2840182e-05   0.58005284  0.017983001            0   0.56206984    1.3238771    1.9039299  -0.92368163 
 6440000    0.8606725 2.4698697e-05   0.59608766 0.0016833491            0   0.59440431    1.2802503     1.876338    2.7193869 
 6445000   0.94463742 -3.5190171e-05   0.44343751 0.0035004341            0   0.43993708    1.4051482    1.8485857   0.64742784 
 6450000   0.87330701 -2.3031889e-05   0.57942148  0.024501122            0   0.55492036    1.2990442    1.8784657    1.0923105 
 6455000   0.82359992 0.00021872997   0.65584359  0.057363784            0   0.59847981    1.2251049    1.8809485    9.3469314 
 6460000    0.9254414 0.00014388022   0.53544142  0.032111047            0   0.50333037    1.3765941    1.9120355    6.8231469 
 6465000   0.88662117 -2.8835246e-05   0.61220595  0.022388819            0   0.58981713     1.318849    1.9310549   0.94681188 
 6470000   0.92950067 -1.8429937e-05   0.54661106  0.020730291            0   0.52588077    1.3826323    1.9292433    1.3001681 
 6475000   0.96757189 9.7165626e-05     0.503182 0.0044719371            0   0.49871006    1.4392632    1.9424452    5.2590319 
 6480000   0.93743089 4.8752773e-05   0.55500698 0.0049596448            0   0.55004734    1.3944285    1.9494354    3.6135301 
 6485000   0.91592754 -5.2442373e-05   0.58939451  0.017200822            0   0.57219369    1.3624422    1.9518367   0.16180371 
 6490000   0.96253981 -0.00010417884   0.51547502  0.036323226            0    0.4791518     1.431778     1.947253    -1.608718 
 6495000   0.86894482 -0.00014456413   0.62138974  0.022346572            0   0.59904317    1.2925554    1.9139452   -3.0205103 
 6500000   0.94626339 -5.6110863e-05   0.51212505  0.016051512            0   0.49607354    1.4075668    1.9196918 0.0044410605 
 6505000   0.96474487 4.5536342e-05   0.46907394  0.016552158            0   0.45252179     1.435058    1.9041319    3.4584391 
 6510000   0.87480314 0.00013852592   0.59545486   0.01874161            0   0.57671325    1.3012697    1.8967245    6.6250761 
 6515000   0.87541113 0.00025434037   0.60179017  0.029270481            0   0.57251969    1.3021741    1.9039642    10.585449 
 6520000   0.96562723 0.00018321534   0.47477287  0.010873237            0   0.46389963    1.4363705    1.9111434    8.1648935 
 6525000   0.91032532 3.5834724e-05   0.54972038 0.0018820055            0   0.54783838    1.3541089    1.9038293    3.1269879 
 6530000    0.9559983 -2.1062188e-05   0.49238109 0.0030747694            0   0.48930632    1.4220475    1.9144286    1.1955059 
 6535000   0.96133577 -4.9545326e-05   0.49444667 0.0070522164            0   0.48739445     1.429987    1.9244336   0.23328649 
 6540000   0.85305409 2.6652926e-05   0.63441227 0.0074520268            0   0.62696024     1.268918    1.9033302    2.8130834 
 6545000   0.95890726 6.5784038e-05   0.48632653  0.024328782            0   0.46199775    1.4263746    1.9127011    4.1581296 
 6550000   0.90117062 -1.4655196e-05   0.59689029  0.048643206            0   0.54824708    1.3404913    1.9373816    1.4371509 
 6555000   0.85341165 -6.4780343e-05   0.66746481   0.03315796            0   0.63430685    1.2694498    1.9369146  -0.27425441 
 6560000   0.92751973 -5.2956759e-05   0.56675817  0.018739392            0   0.54801878    1.3796856    1.9464438   0.13885308 
 6565000   0.94104996 2.2985705e-05   0.55653846  0.037347415            0   0.51919104    1.3998118    1.9563503     2.740929 
 6570000   0.93897747 0.00016425465   0.58136285  0.031271599            0   0.55009125     1.396729    1.9780918    7.5846507 
 6575000   0.91892182 6.1858948e-05   0.64048257 0.0074838721            0    0.6329987    1.3668962    2.0073788    4.1188309 
 6580000    1.0200488 8.6152868e-05   0.49889775 0.0093806328            0   0.48951712    1.5173226    2.0162204     4.956905 
 6585000   0.96771959 0.00010232144   0.58679879  0.012795707            0   0.57400308    1.4394829    2.0262817    5.5188535 
 6590000   0.99353529 2.1039351e-05    0.5632362 0.0053166721            0   0.55791953    1.4778837    2.0411199    2.7592631 
 6595000   0.95105959 1.7729348e-05   0.61050154 0.0089352311            0   0.60156631    1.4147011    2.0252027    2.6303644 
 6600000    1.0141545 -4.9856764e-06   0.51925599 0.0041605223            0   0.51509547    1.5085549    2.0278109    1.8576331 
 6605000   0.97146064 -7.0110443e-05   0.59833325 0.0037106945            0   0.59462255    1.4450477    2.0433809  -0.34972218 
 6610000   0.95986264 -5.5630081e-05   0.59821073 0.0043283888            0   0.59388235    1.4277957    2.0260064   0.12716633 
 6615000   0.99031338 1.4007909e-06   0.55514249 0.0039243625            0   0.55121812    1.4730912    2.0282336    2.0760473 
 6620000    1.0342573 -5.1976581e-05   0.51176842 0.0057323451            0   0.50603607    1.5384578    2.0502262   0.27609224 
 6625000    1.0227988 -2.2385933e-05   0.51385073 0.0096445436            0   0.50420619    1.5214132    2.0352639    1.2711574 
 6630000   0.96871128 5.1109643e-05   0.60135937 0.0086751022            0   0.59268427     1.440958    2.0423174    3.7868599 
 6635000   0.98677765 1.8932781e-05   0.59573793  0.021984317            0   0.57375361    1.4678318    2.0635697    2.7098086 
 6640000    1.0189087 0.0001860686    0.5593628 0.0085209139            0   0.55084189    1.5156267    2.0749895    8.4261311 
 6645000    0.9993861 0.00019491876   0.60068028  0.011997756            0   0.58868252    1.4865868    2.0872671    8.7404942 
 6650000    0.9531266 5.0185327e-05    0.6461516 0.0081517215            0   0.63799988    1.4177758    2.0639274    3.7769199 
 6655000    1.0135653 -0.00010627082   0.55283166  0.010384264            0    0.5424474    1.5076783      2.06051   -1.5668674 
 6660000   0.99913863 -0.00014804036   0.57169072  0.010481897            0   0.56120883    1.4862187    2.0579094   -2.9952014 
 6665000    1.0087081 -0.00026258101   0.58039125  0.013349911            0   0.56704134    1.5004532    2.0808445   -6.8819208 
 6670000    1.0017112 -0.00014291627   0.60026596 0.0083025927            0   0.59196337    1.4900454    2.0903114   -2.7878973 
 6675000    1.0747417 4.9126476e-05   0.50177071 0.0028476352            0   0.49892308    1.5986782     2.100449    3.7772993 
 6680000    1.0887886 -1.1608052e-05   0.50652296 0.0072602773            0   0.49926268     1.619573     2.126096    1.7298745 
 6685000   0.98613647 7.796557e-05    0.6427345  0.010339758            0   0.63239475     1.466878    2.1096125    4.7708373 
 6690000    1.0551408 0.00017801055   0.53958214 0.0067174746            0   0.53286467     1.569522    2.1091041    8.1851977 
 6695000    1.0529534 0.00013500692   0.54803514  0.003161519            0   0.54487362    1.5662682    2.1143033    6.7225395 
 6700000    1.0301412 5.0123629e-05   0.59816903 0.0071680246            0     0.591001     1.532335     2.130504    3.8413906 
 6705000    1.0720668 -2.88038e-05   0.50913133  0.013049777            0   0.49608156    1.5946993    2.1038306    1.1206609 
 6710000    1.0388395 -7.4022954e-05   0.56805868 0.0084542666            0   0.55960441    1.5452738    2.1133324  -0.41331771 
 6715000   0.98900255 -5.6590213e-05   0.62655642  0.023857081            0   0.60269934    1.4711413    2.0976977   0.16608511 
 6720000    1.0565191 4.6883267e-07   0.53874623  0.031212139            0   0.50753409    1.5715721    2.1103183    2.1263212 
 6725000    1.0403971 1.3365464e-05   0.57107965  0.017448391            0   0.55363126    1.5475906    2.1186703    2.5748781 
 6730000    1.0502172 8.2086935e-05   0.55902928 0.0097768884            0   0.54925239     1.562198    2.1212273     4.923128 
 6735000    1.0085994 -2.1701689e-05   0.61141576  0.035850894            0   0.57556486    1.5002916    2.1117074    1.3709564 
 6740000    0.9647507 -0.00024144956   0.68856317  0.011714292            0   0.67684888    1.4350667    2.1236298   -6.1178484 
 6745000    1.0368392 -0.0001289751   0.58217288   0.02499146            0   0.55718142    1.5422983    2.1244712    -2.277879 
 6750000      1.01674 -9.5372201e-05   0.61463632  0.037586132            0   0.57705019    1.5124007     2.127037   -1.1283341 
 6755000    1.0308106 1.1399247e-05   0.59151157  0.017485547            0   0.57402603    1.5333308    2.1248424    2.5139367 
 6760000    0.9994055 9.632648e-05   0.62638135    0.0258421            0   0.60053925    1.4866157     2.112997    5.4009409 
 6765000    1.0137344 1.2016505e-05   0.57878413  0.012704641            0   0.56607949    1.5079299     2.086714    2.4968774 
 6770000    0.9668145 -9.687787e-06   0.62981391 0.0029414279            0   0.62687248    1.4381366    2.0679505     1.737274 
 6775000    1.0039038 2.5809658e-05   0.58578218  0.018135561            0   0.56764662    1.4933069    2.0790891    2.9600587 
 6780000    1.0157662 -1.6560618e-05   0.59108834  0.025216819            0   0.56587152    1.5109523    2.1020406    1.5367715 
 6785000   0.97122773 4.8406405e-05   0.66626231  0.055957984            0   0.61030433    1.4447012    2.1109636    3.7632355 
 6790000   0.96223437 8.3357568e-05   0.68933126  0.080723258            0     0.608608    1.4313236    2.1206549    4.9659266 
 6795000    1.0308787 4.9503112e-06   0.58598126  0.053643644            0   0.53233762    1.5334321    2.1194133    2.2883839 
 6800000   0.96465789 5.997992e-05   0.67047289  0.006698189            0    0.6637747    1.4349286    2.1054015    4.1527161 
 6805000    1.0651378 9.1928532e-05   0.53600392 0.0018012727            0   0.53420265    1.5843924    2.1203964    5.2582236 
 6810000    1.0223864 1.1255108e-05   0.59135432 0.0059619542            0   0.58539237    1.5207998    2.1121541    2.4963285 
 6815000    1.0341773 -1.0784526e-05   0.56647766  0.048359338            0   0.51811832    1.5383387    2.1048164    1.7367045 
 6820000   0.98647146 -4.4622134e-05   0.64837848  0.046714513            0   0.60166397    1.4673763    2.1157548   0.59265259 
 6825000    1.0126163 -4.2960382e-05   0.60194255  0.037658233            0   0.56428431    1.5062668    2.1082093   0.64182826 
 6830000    1.0354855 -6.5709016e-05   0.55518199  0.017287048            0   0.53789494    1.5402846    2.0954666  -0.14740114 
 6835000   0.94745902 2.6424138e-05   0.68651333  0.017587825            0    0.6689255    1.4093453    2.0958586    2.9978025 
 6840000    1.0169646 3.9033803e-05   0.59606157  0.049068296            0   0.54699327    1.5127349    2.1087964    3.4411502 
 6845000    1.0308574 5.6534043e-05   0.58641435 0.0088992271            0   0.57751512    1.5334003    2.1198147      4.04951 
 6850000     1.033403 -5.4308587e-06   0.57524763  0.011468268            0   0.56377936    1.5371869    2.1124345    1.9270612 
 6855000    0.9869005 -1.3865426e-05   0.65863368  0.037519315            0   0.62111437    1.4680145    2.1266482     1.653375 
 6860000    1.0242056 -5.7910539e-05   0.60559582  0.024631838            0   0.58096398    1.5235059    2.1291017   0.15242197 
 6865000   0.97933596 -8.2983973e-05   0.65515108  0.041086491            0   0.61406459    1.4567622    2.1119133  -0.72060628 
 6870000    1.0455141 0.00011211774   0.51593585  0.058416464            0   0.45751939    1.5552023    2.0711381    5.8980902 
 6875000   0.96079534 0.00013917171   0.65372356  0.085950448            0   0.56777312    1.4291831    2.0829066    6.8333011 
 6880000   0.99036247  5.18553e-05   0.60847177  0.025624505            0   0.58284727    1.4731642    2.0816359    3.8516302 
 6885000    1.0544537 -2.6248512e-05    0.5100625   0.01471097            0   0.49535153    1.5684999    2.0785624    1.1826132 
 6890000   0.97860798 -7.0249229e-05   0.60150666 0.0057415825            0   0.59576507    1.4556794     2.057186  -0.34065433 
 6895000    1.0397526 5.9424695e-05    0.5208644  0.016089543            0   0.50477486    1.5466321    2.0674965    4.0958594 
 6900000     1.006079 8.8540223e-05   0.55029994  0.053821556            0   0.49647838    1.4965425    2.0468424    5.0690154 
 6905000    1.0114408 -4.6573681e-05   0.51088458  0.023968944            0   0.48691563    1.5045183    2.0154028   0.42568785 
 6910000   0.97542268 -0.00011862303   0.56773406  0.033504521            0   0.53422954    1.4509412    2.0186753   -2.0303241 
 6915000   0.97595334 -0.00014467134   0.57401838 0.0056136396            0   0.56840474    1.4517306     2.025749    -2.912366 
 6920000   0.99059081 -0.00011229814   0.55710027  0.011219837            0   0.54588043    1.4735038    2.0306041   -1.8025057 
 6925000    1.0120045 -5.7332447e-05    0.5215467  0.026191642            0   0.49535506    1.5053566    2.0269033  0.069955806 
 6930000    1.0233633 7.7307577e-05   0.50450293   0.01546716            0   0.48903577     1.522253    2.0267559    4.6655212 
 6935000   0.98167645 0.00016270186    0.5650786  0.016966121            0   0.54811248    1.4602437    2.0253223    7.5788791 
 6940000    1.0573323 -1.7199388e-05   0.48063057  0.035593974            0    0.4450366    1.5727819    2.0534124      1.46634 
 6945000    1.0648207 -0.00014438056   0.49285339  0.025833186            0    0.4670202    1.5839207    2.0767741   -2.8514158 
 6950000     1.040994 -4.0476137e-05   0.52127313 0.0033130643            0   0.51796006    1.5484786    2.0697517    0.6881662 
 6955000    1.0669336 3.4987712e-05   0.46315048 0.0002120323            0   0.46293845    1.5870637    2.0502142    3.2444614 
 6960000    1.0156677 -5.8187748e-05   0.53943481 0.0031270849            0   0.53630772    1.5108057    2.0502405  0.064098719 
 6965000    1.0139443 -7.5353098e-05   0.51650672  0.010317347            0   0.50618938    1.5082421    2.0247489  -0.54730354 
 6970000    0.9751906 -8.2036134e-06   0.55793666  0.016721585            0   0.54121507     1.450596    2.0085327     1.728516 
 6975000   0.94983313 -2.0965479e-05   0.59987092  0.054433602            0   0.54543732    1.4128768    2.0127477     1.297126 
 6980000    1.0337174 4.9331457e-05   0.47247572  0.014720102            0   0.45775561    1.5376546    2.0101303    3.6939774 
 6985000   0.99358688 9.8111734e-05    0.5288984  0.023175712            0   0.50572269    1.4779605    2.0068589    5.3557394 
 6990000   0.97688876 5.844095e-05   0.58355049  0.032273619            0   0.55127687     1.453122    2.0366725     4.031457 
 6995000     1.023461 -4.7487092e-05    0.4954563  0.048135954            0   0.44732035    1.5223982    2.0178545   0.39696173 
 7000000    1.0091158 -2.6560515e-05   0.52714778   0.02611682            0   0.50103096    1.5010597    2.0282075    1.1216086 
 7005000   0.99274061 -8.9914296e-05   0.56701496  0.035376859            0    0.5316381    1.4767017    2.0437166    -1.025358 
 7010000    1.0042655 -0.00013309524   0.53681166  0.025669926            0   0.51114174    1.4938449    2.0306566   -2.5123277 
 7015000    1.0410044 0.00013412084   0.49966276  0.045157339            0   0.45450543    1.5484941    2.0481568    6.6261483 
 7020000    1.0083491 0.00016526408   0.54252168  0.040321553            0   0.50220013    1.4999193     2.042441    7.6834549 
 7025000   0.99568532 -4.238013e-05   0.56260686  0.019088965            0   0.54351789    1.4810819    2.0436888   0.59711367 
 7030000    1.0475343 -3.3535163e-05   0.47995497  0.028722587            0   0.45123238    1.5582072    2.0381622   0.89349529 
 7035000   0.98439869 -6.1473298e-05   0.54775911  0.027147795            0   0.52061131    1.4642931    2.0120522 -0.086236406 
 7040000   0.96306039 -0.00017193351   0.59625402  0.021579848            0   0.57467417    1.4325523    2.0288064   -3.8398574 
 7045000   0.99366487 -3.2829977e-05   0.56184256  0.025978402            0   0.53586416    1.4780765     2.039919    0.9193225 
 7050000    1.0991104 0.00013174605   0.40454075  0.018315988            0   0.38622476    1.6349267    2.0394674    6.5363992 
 7055000    1.0409928 0.00013479995    0.5052001  0.015715209            0   0.48948489    1.5484767    2.0536768    6.6548485 
 7060000   0.99833128 0.0001266672   0.58256731  0.035512219            0   0.54705509    1.4850178    2.0675851    6.3911587 
 7065000    1.0193885 3.8982214e-05   0.56051582  0.046087404            0   0.51442842    1.5163404    2.0768562    3.4074491 
 7070000     1.048942 -3.2166132e-05   0.50043636  0.022227475            0   0.47820889    1.5603012    2.0607376   0.96280028 
 7075000    1.0416123 -0.00019449304   0.51580665  0.010801085            0   0.50500557    1.5493983    2.0652049   -4.5734907 
 7080000   0.99618496 -0.00014943605   0.56413694  0.032068002            0   0.53206894    1.4818251    2.0459621   -3.0547885 
 7085000    1.0591252 -5.7449976e-05   0.46889677  0.016160381            0   0.45273639    1.5754487    2.0443455  0.083386274 
 7090000    1.0159226 -4.6621643e-05   0.51962404  0.017875938            0    0.5017481    1.5111849    2.0308089   0.43945686 
 7095000    1.0120216 0.00010957048   0.54914037   0.02279662            0   0.52634375    1.5053822    2.0545226    5.7945281 
 7100000    1.0507879 0.00014404357   0.51907128   0.05869316            0   0.46037812     1.563047    2.0821183    6.9988054 
 7105000    1.0670018 -2.1993944e-05   0.50691696 0.0078383752            0   0.49907858    1.5871652    2.0940821    1.3433555 
 7110000    1.0798239 -9.8174986e-05   0.50640453  0.010753792            0   0.49565074     1.606238    2.1126425    -1.238397 
 7115000    1.0343471 4.4173806e-05   0.56726348  0.038837798            0   0.52842569    1.5385913    2.1058547     3.613654 
 7120000    1.0135478 -7.3855901e-05   0.59582628  0.036422519            0   0.55940376    1.5076524    2.1034787   -0.4174694 
 7125000    1.0225099 -4.0312998e-05   0.57007428  0.018877203            0   0.55119708    1.5209835    2.0910578    0.7150408 
 7130000    1.0353131 0.00018227416   0.53865301  0.032587173            0   0.50606584    1.5400282    2.0786812    8.3003059 
 7135000    1.0160061 8.9005126e-05   0.59530628  0.068521231            0   0.52678505    1.5113091    2.1066154     5.144657 
 7140000    1.0437063 -4.4989537e-06   0.53799835  0.051016991            0   0.48698136    1.5525132    2.0905115    1.9369473 
 7145000    1.0262277 -5.2301921e-05   0.57424903  0.018217306            0   0.55603172    1.5265137    2.1007627   0.31552385 
 7150000    1.0097693 -7.6179929e-06   0.61285635 0.0079143365            0   0.60494201    1.5020318    2.1148881    1.8548606 
 7155000    1.1453687 0.00011762301   0.43116048  0.014829287            0   0.41633119    1.7037359    2.1348963    6.1497616 
 7160000    1.0579723 0.00011380218   0.55679563  0.015925186            0   0.54087045    1.5737337    2.1305294    6.0149771 
 7165000   0.99694452 2.8788373e-05   0.64860194  0.024232674            0   0.62436927     1.482955    2.1315569    3.1142001 
 7170000     1.019148 0.00011006288   0.60829711   0.06237544            0   0.54592167    1.5159826    2.1242798    5.8810929 
 7175000    1.0612371 0.00012279174   0.54581026  0.041958304            0   0.50385196    1.5785902    2.1244004    6.3156919 
 7180000    1.0506289 -0.00015789503   0.58231875  0.027662609            0   0.55465614    1.5628105    2.1451293   -3.2443545 
 7185000    1.0887609 -6.4108181e-05    0.5194978  0.031398934            0   0.48809887    1.6195318    2.1390296 -0.049196314 
 7190000    1.1052236 0.00012619106   0.50261465  0.021549146            0    0.4810655    1.6440201    2.1466347    6.4539561 
 7195000    1.0776681 -9.2975007e-05    0.5016731  0.021445797            0    0.4802273    1.6030312    2.1047043   -1.0688426 
 7200000    1.0454647 0.00012143891   0.58100197 0.0049443033            0   0.57605767    1.5551287    2.1361307    6.2812454 
 7205000     1.065699 1.6492715e-05   0.55020751  0.021027516            0   0.52917999    1.5852272    2.1354347     2.698386 
 7210000    1.0461048 -8.6126057e-05   0.55815084  0.082745064            0   0.47540577     1.556081    2.1142318  -0.82553762 
 7215000    1.0458292 6.3830511e-05   0.56442741  0.096717887            0   0.46770953    1.5556709    2.1200983    4.2988464 
 7220000    1.0206501 -8.3901661e-05   0.58809622  0.034989516            0    0.5531067     1.518217    2.1063132  -0.75753011 
 7225000    1.0122525 -7.0601245e-05   0.60736499  0.040968253            0   0.56639674    1.5057256    2.1130906  -0.29676525 
 7230000    1.0394611 1.3697641e-05   0.59885545  0.044807114            0   0.55404833    1.5461984    2.1450538       2.6126 
 7235000    1.0605828 1.5027318e-05   0.55865329  0.022104488            0    0.5365488    1.5776169    2.1362702    2.6492026 
 7240000    1.0715315 -0.0001067279   0.56321346 0.0033309532            0   0.55988251    1.5939031    2.1571165   -1.4858624 
 7245000     1.101882 -8.613067e-08   0.50359069 0.0052022944            0    0.4983884    1.6390495    2.1426402    2.1397003 
 7250000    1.1873581 0.00015792645   0.37701554 0.0057068634            0   0.37130868    1.7661952    2.1432107     7.533767 
 7255000    1.0405971 0.00014591372   0.61823081 0.0089902092            0    0.6092406    1.5478881    2.1661189    7.1466406 
 7260000    1.0460686 0.00012875835   0.59966238  0.050051067            0   0.54961131     1.556027    2.1556894    6.5506412 
 7265000    1.0886044 -5.2826475e-05    0.5760141  0.041994751            0   0.53401934     1.619299    2.1953131   0.39216945 
 7270000    1.0499345 -1.1708116e-05   0.62063275  0.064065858            0   0.55656689    1.5617775    2.1824103    1.7827733 
 7275000    1.1165832 -6.8769093e-05   0.52030088  0.041335721            0   0.47896515    1.6609176    2.1812185  -0.16609993 
 7280000     1.005245 -0.00012999317    0.6940171  0.042860106            0   0.65115699    1.4953019     2.189319   -2.2477814 
 7285000    1.1309695 3.0313228e-05    0.5051409  0.024797941            0   0.48034296    1.6823171     2.187458    3.2221495 
 7290000    1.0891279 8.7745312e-05   0.56513405  0.014181277            0   0.55095277    1.6200777    2.1852118    5.1802518 
 7295000    1.0927473 3.9780583e-05    0.5633428  0.013028939            0   0.55031386    1.6254616    2.1888044    3.5466482 
 7300000    1.0785224 4.4174739e-06    0.5924954  0.037900433            0   0.55459497     1.604302    2.1967974    2.3475805 
 7305000     1.121438 -3.8838316e-05   0.50573676  0.038406309            0   0.46733045     1.668139    2.1738757   0.84819454 
 7310000    1.0923218 3.3443167e-05   0.53397894  0.042303213            0   0.49167572    1.6248286    2.1588076    3.3003343 
 7315000     1.061157 -5.9101826e-05   0.58347466  0.048984931            0   0.53448973     1.578471    2.1619456   0.14460332 
 7320000    1.0564346 -0.00018141507   0.57316813  0.029779537            0    0.5433886    1.5714464    2.1446146   -4.0476863 
 7325000    1.1085967 -7.3405711e-05   0.47434144  0.021707086            0   0.45263435    1.6490376     2.123379  -0.38220256 
 7330000    1.0782815 8.0845826e-05   0.52714889  0.013700548            0   0.51344834    1.6039438    2.1310926    4.8906302 
 7335000    1.0838235 4.0245701e-05   0.53255197 0.0094483666            0   0.52310361    1.6121875    2.1447395    3.5184594 
 7340000    1.0435668 -1.0488978e-05   0.59308478 0.0042459769            0    0.5888388    1.5523056    2.1453903    1.7873666 
 7345000    1.1265119 1.4772502e-05   0.47229985 0.0032637335            0   0.46903612    1.6756865    2.1479863    2.6522211 
 7350000    1.0846252 -2.1642853e-05   0.56420977  0.021266448            0   0.54294332      1.61338    2.1775898    1.4388471 
 7355000    1.0554017 -3.3559247e-06   0.58733612  0.025949509            0   0.56138661    1.5699101    2.1572462    2.0426973 
 7360000    1.1557031 9.484064e-05   0.44225935  0.026658452            0    0.4156009    1.7191084    2.1613677    5.3985949 
 7365000    1.0623593 3.4449198e-06   0.54891615  0.073694297            0   0.47522185    1.5802594    2.1291756    2.2467622 
 7370000    1.0557762 -2.7730328e-05   0.56561248   0.04149471            0   0.52411777    1.5704671    2.1360796    1.1895511 
 7375000    1.0775576 4.3564843e-05   0.52777735   0.02304345            0    0.5047339    1.6028669    2.1306443    3.6176576 
 7380000    1.0626434 -4.6997811e-05    0.5434261  0.013711141            0   0.52971496    1.5806821    2.1241082   0.51991622 
 7385000    1.1036953 -6.3203611e-05    0.4713297  0.012418391            0   0.45891131    1.6417467    2.1130764 -0.044273549 
 7390000    1.0755918 5.2058624e-05   0.52002623  0.058141348            0   0.46188488    1.5999427     2.119969    3.8969033 
 7395000    1.0428179 -6.8361171e-05   0.56705621  0.019668835            0   0.54738738    1.5511916    2.1182478  -0.21514681 
 7400000     1.089452 -4.5353019e-05   0.48431069  0.025418957            0   0.45889173    1.6205599    2.1048706   0.55682084 
 7405000    1.0757868 0.00011499408   0.49665485  0.015370004            0   0.48128485    1.6002328    2.0968877    6.0220188 
 7410000    1.0962897 0.00021936397    0.4584509  0.016231254            0   0.44221964    1.6307309    2.0891818    9.5768054 
 7415000    1.0510599 4.1875648e-05   0.53587438  0.047579521            0   0.48829486    1.5634516     2.099326    3.5286815 
 7420000    1.0130588 -0.00025085244    0.5949559  0.040486832            0   0.55446907    1.5069249    2.1018808   -6.4605492 
 7425000    1.0572053 -8.6449605e-05   0.52911746  0.029055101            0   0.50006236    1.5725929    2.1017104  -0.84910281 
 7430000    1.0689881 3.0532207e-05   0.53633065  0.016955428            0   0.51937522    1.5901198    2.1264505    3.1686164 
 7435000    1.0813303 -2.0820959e-05   0.51435071  0.027533151            0   0.48681756    1.6084788    2.1228295    1.4121407 
 7440000      1.09191 -2.3121859e-06   0.51769422  0.013173684            0   0.50452054    1.6242161    2.1419103    2.0629877 
 7445000    1.0643603 6.677868e-05   0.56697753  0.031672196            0   0.53530533     1.583236    2.1502135    4.4295925 
 7450000    1.1111498 -3.3827386e-05   0.48892033  0.035222149            0   0.45369818    1.6528354    2.1417557   0.98711426 
 7455000    1.1318962 -3.6291026e-05   0.48488239 0.0047698646            0   0.48011253    1.6836955    2.1685779   0.92984424 
 7460000    1.1378397 1.0685124e-05   0.46920865  0.001630263            0   0.46757839    1.6925365    2.1617451     2.526464 
 7465000    1.0879132 -1.7484804e-05   0.52694866  0.007094575            0   0.51985409    1.6182709    2.1452195    1.5484049 
 7470000    1.0593851 -4.4069353e-05   0.60075898  0.065512066            0   0.53524691    1.5758354    2.1765944   0.67236045 
 7475000    1.1294617 -7.643401e-05   0.47487917  0.012584788            0   0.46229439    1.6800743    2.1549534  -0.45399409 
 7480000    1.1410346 -2.3799454e-05   0.45246214  0.015047886            0   0.43741425    1.6972889     2.149751    1.3373963 
 7485000    1.1237597 -7.7390062e-06   0.48109548  0.027491729            0   0.45360375    1.6715925     2.152688    1.8885299 
 7490000    1.0910441 3.669783e-05   0.52568934  0.025805959            0   0.49988338    1.6229281    2.1486174    3.4012367 
 7495000    1.0605332 5.4083656e-05   0.53335109  0.010554568            0   0.52279653    1.5775431    2.1108942    3.9569497 
 7500000    1.0937723 -6.5838676e-05   0.50169123  0.015754633            0   0.48593659    1.6269863    2.1286775  -0.11861593 
 7505000    1.0222388 -0.00011589208   0.61126261  0.072169731            0   0.53909288    1.5205803    2.1318429   -1.8239401 
 7510000    1.1572616 -2.6675924e-05   0.42298475  0.047376716            0   0.37560804    1.7214266    2.1444113    1.2338731 
 7515000     1.091753 6.9252442e-05     0.516612  0.033769323            0   0.48284268    1.6239826    2.1405946    4.5044113 
 7520000    1.0867335 0.00010455879   0.51478705  0.013279549            0    0.5015075    1.6165161    2.1313032    5.7002432 
 7525000    1.0942084 1.9839762e-05   0.48111478  0.013947439            0   0.46716734     1.627635    2.1087498     2.785947 
 7530000    1.0384162 -4.8560806e-05   0.54443493  0.036040147            0   0.50839478    1.5446441     2.089079   0.43153684 
 7535000    1.0675684 6.1173291e-05    0.5183348  0.034241377            0   0.48409342     1.588008    2.1063428    4.1943911 
 7540000    1.0970012 -7.9478907e-06   0.48963781  0.026215612            0    0.4634222    1.6317893    2.1214271    1.8501391 
 7545000    1.1297995 -2.570601e-05   0.43213638  0.014037987            0   0.41809839    1.6805767    2.1127131    1.2352813 
 7550000    1.0446379 -2.2049441e-05   0.52808654  0.017768359            0   0.51031818    1.5538989    2.0819854    1.3293645 
 7555000    1.0801311 3.4883402e-05   0.48231156  0.021165445            0   0.46114612     1.606695    2.0890066    3.2796934 
 7560000    1.0594254 0.00010962251   0.49520054  0.016058728            0   0.47914181    1.5758953    2.0710959    5.8128775 
 7565000    1.0671283 9.4271105e-05   0.51265176  0.039631055            0    0.4730207    1.5873534    2.1000051    5.3177922 
 7570000    1.0106179 8.0434448e-05   0.59114217  0.032065491            0   0.55907667    1.5032941    2.0944363    4.8399321 
 7575000    1.1331665 7.4449155e-05   0.44694847  0.019586199            0   0.42736227    1.6855852    2.1325337    4.6737315 
 7580000    1.0700039 -4.7802283e-05   0.53228249  0.047417453            0   0.48486504    1.5916308    2.1239133   0.49226208 
 7585000    1.0696168 6.5290499e-06   0.55910408  0.051738012            0   0.50736607    1.5910551    2.1501591    2.3730174 
 7590000     1.096087 7.8300271e-05   0.52451079   0.03480621            0   0.48970458    1.6304294    2.1549402    4.8275895 
 7595000    1.1203964 -1.2816065e-05   0.49715276  0.020968951            0    0.4761838    1.6665897    2.1637424    1.7262874 
 7600000    1.1186228 8.1942702e-05   0.48871874  0.022075509            0   0.46664323    1.6639515    2.1526702    4.9496478 
 7605000    1.0819388 3.3093503e-05   0.52725739  0.043895176            0   0.48336221    1.6093839    2.1366413    3.2662329 
 7610000    1.0804361 4.2281138e-05   0.53604205  0.040070495            0   0.49597155    1.6071488    2.1431908     3.586387 
 7615000    1.1026585 3.7655506e-05   0.51646402  0.040175396            0   0.47628863    1.6402046    2.1566686    3.4419765 
 7620000    1.0784615 1.1364724e-05   0.54582708   0.05164344            0   0.49418364    1.6042115    2.1500386    2.5379545 
 7625000    1.1708049 3.1785269e-06    0.4447876  0.030552383            0   0.41423522    1.7415722    2.1863598    2.2948535 
 7630000    1.1264876 5.4658958e-05   0.50653531  0.045708454            0   0.46082686    1.6756504    2.1821857    4.0478781 
 7635000    1.1289171 -1.1340858e-05   0.51789859 0.0083470657            0   0.50955152    1.6792642    2.1971628    1.8100615 
 7640000    1.1548034 -0.00012120363   0.46936043 0.0036815427            0   0.46567889      1.71777    2.1871305   -1.9499534 
 7645000    1.2094241 -5.7979285e-06   0.40802131 0.0055203023            0     0.402501    1.7990183    2.2070396     2.009137 
 7650000    1.0944765 -9.6859903e-06   0.58533405  0.025462466            0   0.55987158    1.6280338    2.2133678    1.8827527 
 7655000    1.1368148 3.4831858e-05   0.51447042  0.030697736            0   0.48377268     1.691012    2.2054824    3.3944099 
 7660000     1.097852 -6.3121438e-05   0.57095244  0.046856167            0   0.52409628    1.6330548    2.2040073    0.0494622 
 7665000    1.1532003 -4.1556866e-05   0.50680522 0.0029678252            0   0.50383739    1.7153854    2.2221906   0.80371624 
 7670000    1.2066664 8.3679566e-05   0.44017603  0.027003866            0   0.41317216    1.7949163    2.2350923    5.0913548 
 7675000    1.1178539 7.8239137e-05   0.56293896  0.029257532            0   0.53368143    1.6628077    2.2257467    4.8963092 
 7680000    1.1248948 -4.288714e-05   0.55218599   0.02212806            0   0.53005793     1.673281     2.225467   0.76158591 
 7685000    1.0981467 2.756369e-05   0.55903013  0.025710361            0   0.53331977    1.6334932    2.1925234     3.133364 
 7690000    1.0688531 5.5369143e-05   0.61691643  0.053341317            0   0.56357511     1.589919    2.2068355    4.0967689 
 7695000    1.1835614 -8.0717163e-05   0.48702689 0.0088767015            0   0.47815019    1.7605475    2.2475744  -0.50757142 
 7700000    1.1985851 -0.00011834777     0.462042  0.009102309            0   0.45293969    1.7828954    2.2449374   -1.7946664 
 7705000    1.1009609 -7.6878821e-05   0.59110252  0.025583032            0   0.56551949    1.6376794    2.2287819  -0.39534848 
 7710000    1.1516486 -4.4405687e-06   0.50520848  0.014481907            0   0.49072658    1.7130773    2.2182858    2.0667144 
 7715000    1.1940873 0.00017700537   0.43385815 0.0089528469            0    0.4249053    1.7762048     2.210063    8.2518462 
 7720000    1.1817855 8.6910396e-05   0.51865195   0.01800499            0   0.50064696    1.7579059    2.2765578    5.2430994 
 7725000    1.1637505 -7.0159361e-05    0.5268054  0.024812091            0   0.50199331    1.7310788    2.2578842  -0.13688863 
 7730000    1.1501633 0.00010103519   0.55690809  0.035715051            0   0.52119303    1.7108679     2.267776    5.7164439 
 7735000    1.1795078 7.8970001e-05   0.47522162  0.016190599            0   0.45903103    1.7545179    2.2297395    4.9252489 
 7740000    1.1677466 -2.4819023e-05   0.47080257 0.0057884385            0   0.46501414    1.7370231    2.2078257    1.3606697 
 7745000    1.1682928 0.00019821966   0.48329264  0.011240775            0   0.47205187    1.7378356    2.2211282     8.987026 
 7750000    1.1686351 6.1100935e-05   0.47184995  0.032572089            0   0.43927787    1.7383447    2.2101947    4.2957733 
 7755000    1.0905674 -0.00011751275   0.56624313  0.029256564            0   0.53698656     1.622219    2.1884621   -1.8226396 
 7760000     1.118355 -8.2687057e-06   0.51631186  0.012693163            0    0.5036187     1.663553    2.1798649    1.8976264 
 7765000    1.1615234 1.678075e-05   0.46655133  0.016417669            0   0.45013366     1.727766    2.1943173    2.7671003 
 7770000    1.1462523 1.7535004e-05   0.45432108  0.034934534            0   0.41938654    1.7050502    2.1593713    2.7578995 
 7775000    1.0501669 -7.0916341e-05   0.60021424  0.025759717            0   0.57445452    1.5621232    2.1623374  -0.25827365 
 7780000    1.1396537 -6.54597e-05   0.46864016  0.010422563            0    0.4582176    1.6952349    2.1638751 -0.070482697 
 7785000    1.1232653 0.00011695155   0.50196843  0.021143096            0   0.48082534    1.6708571    2.1728256    6.1647719 
 7790000    1.1481296 2.4964763e-05   0.47422234   0.03197422            0   0.44224812    1.7078428    2.1820652    3.0341958 
 7795000    1.0603515 -0.00020391832     0.583855  0.013293684            0   0.57056131    1.5772728    2.1611278   -4.7992843 
 7800000    1.0894688 -4.9704589e-05   0.53826541 0.0064123074            0    0.5318531    1.6205848    2.1588503   0.46226695 
 7805000    1.1190865 1.1681203e-05   0.49202245  0.016491668            0   0.47553078    1.6646412    2.1566637    2.5553821 
 7810000     1.128344 7.9240077e-05   0.48637042  0.037644856            0   0.44872557    1.6784117    2.1647821    4.8695101 
 7815000    1.0806675 0.00011472728    0.5448064  0.055090408            0   0.48971599     1.607493    2.1522994    6.0683238 
 7820000    1.0834079 5.480693e-06   0.55775025 0.0042921014            0   0.55345815    1.6115692    2.1693194    2.3563938 
 7825000    1.1177002 -4.6376098e-07   0.48528664  0.031717595            0   0.45356905     1.662579    2.1478656    2.1320359 
 7830000    1.1045954 5.6905255e-05   0.50372754  0.025931484            0   0.47779606    1.6430856    2.1468132    4.0891792 
 7835000     1.095501  8.64355e-05   0.48913787  0.011326983            0   0.47781088    1.6295577    2.1186955    5.0690273 
 7840000    1.0742986 -6.0554689e-05   0.50578111  0.014636132            0   0.49114497    1.5980192    2.1038003  0.036866871 
 7845000    1.0654076 -6.6340523e-05   0.51257284  0.032872747            0   0.47970009    1.5847939    2.0973667  -0.16705649 
 7850000    1.1026085 1.5772661e-05   0.44721809  0.011223941            0   0.43599415    1.6401301    2.0873482    2.6257217 
 7855000    1.0552462 -0.0001356934   0.52758575  0.023195619            0   0.50439013    1.5696787    2.0972645   -2.5344037 
 7860000    1.0711593 -0.00011145913   0.50494583  0.027903136            0    0.4770427    1.5933494    2.0982952   -1.7061762 
 7865000    1.1021186 4.6432736e-05   0.46824801  0.018116475            0   0.45013154    1.6394014    2.1076494    3.6925534 
 7870000    1.0406641 5.8777743e-05   0.53255095  0.016334276            0   0.51621668    1.5479878    2.0805388    4.0868191 
 7875000      1.06477 -1.8666382e-05   0.51703836  0.017284386            0   0.49975397    1.5838454    2.1008838    1.4637379 
 7880000    1.0759751 -2.5710396e-05   0.50777201  0.012445507            0   0.49532651    1.6005129     2.108285    1.2307034 
 7885000    1.1312641 7.4881518e-05   0.43846667  0.024398323            0   0.41406834    1.6827554    2.1212221    4.6771779 
 7890000    1.0713801 3.6301517e-05   0.50163914  0.041243266            0   0.46039588    1.5936778     2.095317    3.3344088 
 7895000    1.0903407 0.00011787228   0.46918895  0.010309028            0   0.45887992    1.6218818    2.0910708    6.1144445 
 7900000    1.0538402 -9.1179376e-06    0.5025191  0.038275539            0   0.46424356    1.5675874    2.0701064    1.7588808 
 7905000    1.0506677 3.3900501e-05   0.51393742  0.024215474            0   0.48972195    1.5628682    2.0768056    3.2339427 
 7910000    1.0829132 0.00020964763   0.47286827 0.0094650756            0    0.4634032    1.6108334    2.0837017    9.2396741 
 7915000    1.0971784 3.2729476e-05   0.43922547 0.0087533381            0   0.43047214    1.6320529    2.0712784    3.1884445 
 7920000    1.1036028 -0.00011928287    0.4444029  0.023003282            0   0.42139961    1.6416092    2.0860121   -1.9855098 
 7925000    1.0737122 -6.0923654e-05   0.49469957  0.039490248            0   0.45520932    1.5971468    2.0918464  0.012319014 
 7930000    1.1189215 -6.989283e-05   0.42182895  0.012496421            0   0.40933253    1.6643957    2.0862246  -0.29945063 
 7935000    1.0804497 -3.6312771e-05   0.48903895 0.0066069005            0   0.48243205    1.6071689    2.0962078   0.85673191 
 7940000    1.0617765 -0.00010895932    0.4945661 0.0072189456            0   0.48734715    1.5793925    2.0739586   -1.6451862 
 7945000    1.1161309 -1.6159741e-05   0.43179962 0.0072742991            0   0.42452532    1.6602447    2.0920443    1.5404584 
 7950000    1.1176058 -9.0483782e-05    0.4276731 0.0033958671            0   0.42427723    1.6624386    2.0901117  -0.99840137 
 7955000    1.0572599 -0.00012307348   0.51452694 0.0081098152            0   0.50641713    1.5726742    2.0872011    -2.113707 
 7960000    1.0634336 3.489482e-05   0.51468013  0.039631747            0   0.47504838    1.5818575    2.0965376    3.2876141 
 7965000    1.1024163 0.00010120781   0.47242361  0.035747818            0    0.4366758    1.6398443    2.1122679    5.5668278 
 7970000    1.0780149 -4.8238125e-05   0.50920555  0.032638081            0   0.47656747    1.6035472    2.1127528   0.46622478 
 7975000    1.1413646 -9.7674758e-05   0.42981069  0.023137253            0   0.40667343    1.6977799    2.1275905   -1.2063745 
 7980000    1.1079696 1.3927847e-05    0.4560675 0.0094790969            0    0.4465884    1.6481048    2.1041723    2.5795761 
 7985000    1.0954353 -1.0836736e-05   0.48365864  0.022079894            0   0.46157874      1.62946    2.1131186    1.7432247 
 7990000    1.0620766 -2.1032716e-05   0.54370692   0.02792718            0   0.51577974     1.579839    2.1235459    1.4056292 
 7995000    1.0394893 -3.7320435e-05   0.55715321  0.050634715            0    0.5065185    1.5462403    2.1033936    0.8295227 
 8000000    1.0206072 3.7731787e-05   0.58890261  0.020256704            0   0.56864591    1.5181532    2.1070558    3.3949675 
 8005000    1.0539636 1.6352738e-05   0.53258839 0.0060156032            0   0.52657279    1.5677708    2.1003592    2.6585327 
 8010000    1.0351808 -0.00010742563   0.56882474 0.0082915788            0   0.56053316    1.5398315    2.1086562   -1.5581388 
 8015000    1.0877159 -0.00012701163   0.48038835  0.015826994            0   0.46456135    1.6179774    2.0983658   -2.2369644 
 8020000     1.055795 5.1346991e-05   0.53148636  0.024192755            0   0.50729361    1.5704951    2.1019815    3.8546254 
 8025000    1.0427313 7.6406437e-05   0.52021905  0.031098574            0   0.48912047    1.5510628    2.0712818    4.6792882 
 8030000    1.0802055 4.9658139e-06   0.48714922  0.020171322            0    0.4669779    1.6068057    2.0939549    2.2634547 
 8035000    1.0649605 3.0108895e-06   0.52925481  0.017748788            0   0.51150602    1.5841288    2.1133836    2.2161553 
 8040000    1.0606645 6.5787489e-07   0.52913454   0.02900506            0   0.50012948    1.5777384    2.1068729    2.1293284 
 8045000    1.1101463 -0.000131188   0.45748385   0.02102263            0   0.43646122    1.6513426    2.1088265   -2.3690571 
 8050000    1.0504655 -1.6419214e-05   0.52745234  0.018674263            0   0.50877807    1.5625675    2.0900198    1.5295773 
 8055000    1.0391999 0.00011138963    0.5208398 0.0036806112            0   0.51715919    1.5458099    2.0666497    5.8687492 
 8060000    1.0836076 -5.1960836e-05   0.44896409  0.008022541            0   0.44094155    1.6118664    2.0608305   0.28723393 
 8065000    1.0681105 -0.00011781259    0.4689142 0.0071924341            0   0.46172176    1.5888144    2.0577286   -1.9636078 
 8070000    1.0122521 0.00011312552   0.55868179  0.040657386            0    0.5180244     1.505725    2.0644068    5.9257579 
 8075000    1.0342227 0.00022038633   0.52875884  0.050104378            0   0.47865447    1.5384063    2.0671651     9.589685 
 8080000   0.99529931 0.00011356836   0.58960833  0.033394108            0   0.55621422    1.4805077     2.070116    5.9465827 
 8085000     1.041755 -6.9190682e-05   0.52234434   0.01664018            0   0.50570417    1.5496106     2.071955  -0.28975365 
 8090000     1.025145 -0.00012676779   0.57227682   0.01619247            0   0.55608435    1.5249031      2.09718   -2.2298273 
 8095000    1.0331521 9.4913817e-05    0.5578971  0.021915877            0   0.53598123    1.5368138    2.0947109    5.3344359 
 8100000    1.0688682 0.00014511948   0.50941034    0.0201924            0   0.48921794    1.5899415    2.0993518    7.0527635 
 8105000    1.0632335 -0.00010787749   0.49849994  0.007006601            0   0.49149333    1.5815598    2.0800598   -1.6021586 
 8110000    1.0319731 -9.5666331e-05   0.54278023  0.020337559            0   0.52244267      1.53506    2.0778403   -1.1875705 
 8115000    1.0666277 5.7903999e-05   0.49751172  0.026494842            0   0.47101687    1.5866087    2.0841205     4.060577 
 8120000    1.0513588 2.446902e-05   0.49068817  0.019940244            0   0.47074792    1.5638963    2.0545844    2.8897937 
 8125000    1.0284851 1.7578222e-05   0.49937053  0.012208613            0   0.48716192    1.5298716    2.0292421    2.6292454 
 8130000    1.0178463 -1.9663709e-05   0.49437891  0.018744654            0   0.47563426    1.5140463    2.0084252    1.3372373 
 8135000    1.0104348 2.3484194e-06   0.51894893  0.017664194            0   0.50128474    1.5030217    2.0219707      2.10213 
 8140000    1.0033259 7.965451e-05   0.49570689  0.029403919            0   0.46630297    1.4924473    1.9881542    4.7070281 
 8145000    1.0046727 0.00014050794   0.50759263  0.013536579            0   0.49405606    1.4944507    2.0020433    6.7980475 
 8150000    1.0169802 0.00012359702   0.46829196 0.0038036544            0   0.46448831    1.5127581    1.9810501    6.1998285 
 8155000    1.0592856 6.1812142e-05   0.45002768  0.022241818            0   0.42778587    1.5756874    2.0257151    4.1355695 
 8160000   0.99680051 7.4820008e-05   0.53475978  0.028278525            0   0.50648126    1.4827408    2.0175005    4.5713568 
 8165000   0.99104316 4.2147995e-05    0.5565257  0.031459297            0    0.5250664    1.4741767    2.0307024    3.4693539 
 8170000      1.08004 -0.00010811124   0.43500553   0.01075351            0   0.42425202    1.6065594     2.041565   -1.6486321 
 8175000    1.0748166 -1.283293e-05   0.43256385 0.0048043566            0    0.4277595    1.5987897    2.0313535    1.5933228 
 8180000     1.028903 7.9948032e-05   0.50330762  0.010523726            0   0.49278389    1.5304932    2.0338008    4.7626936 
 8185000    1.0316249 -1.6740756e-05    0.5044366  0.021290501            0    0.4831461     1.534542    2.0389786    1.4675608 
 8190000    1.0533266 -0.00011389672   0.47772314  0.018513082            0   0.45921006    1.5668233    2.0445464   -1.8431284 
 8195000    1.0461385 -9.180295e-05   0.51270128   0.03597672            0   0.47672456    1.5561311    2.0688323   -1.0647084 
 8200000    1.0806417 -3.1579883e-05   0.44729151  0.011007135            0   0.43628438    1.6074545     2.054746   0.97681935 
 8205000     1.059936 9.1664341e-05   0.47001609  0.014541431            0   0.45547466    1.5766548    2.0466709    5.1754804 
 8210000    1.0025567 0.00011275173   0.54611913  0.016072028            0   0.53004711    1.4913031    2.0374223    5.8860146 
 8215000    1.0478169 3.7634806e-05   0.50059241  0.008244734            0   0.49234768    1.5586276      2.05922    3.3438214 
 8220000    1.0442048 6.3818561e-05   0.49256672  0.016738243            0   0.47582848    1.5532546    2.0458213    4.2241615 
 8225000    1.0715352 -6.4105524e-05    0.4476148  0.026236869            0   0.42137793    1.5939086    2.0415234  -0.14661182 
 8230000    1.0538257 -0.00026559466    0.4854629 0.0093975027            0    0.4760654    1.5675658    2.0530287   -7.0126025 
 8235000    1.0445702 -0.00012272661   0.49428878  0.012356134            0   0.48193265    1.5537981    2.0480869   -2.1409815 
 8240000    1.0682826 2.3278524e-05   0.47469771  0.030193872            0   0.44450384    1.5890704    2.0637681    2.8583417 
 8245000    1.0613064 -4.4861625e-05   0.49114251  0.026966234            0   0.46417628    1.5786933    2.0698358   0.53855902 
 8250000     1.011656 -7.186331e-05   0.56913532  0.030056491            0   0.53907883    1.5048383    2.0739737  -0.37896067 
 8255000    1.0740472 2.4824759e-06   0.47539348  0.020455226            0   0.45493825    1.5976453    2.0730388    2.1577739 
 8260000     1.084653 3.2324163e-05   0.45745698  0.001935052            0   0.45552193    1.6134214    2.0708784    3.1742098 
 8265000    1.0828616 -1.690341e-05   0.43566449 0.0016284362            0   0.43403606    1.6107566    2.0464211    1.4694513 
 8270000   0.99234561 -4.4009151e-05   0.58471381  0.050754577            0   0.53395923    1.4761141    2.0608279   0.55864889 
 8275000    0.9669732 -7.6933101e-05   0.62894421  0.028047306            0   0.60089691    1.4383726    2.0673169  -0.55866633 
 8280000    1.0852842 -4.7528363e-05   0.46281862  0.015806049            0   0.44701258    1.6143603    2.0771789   0.45487745 
 8285000    1.0847744 3.8075539e-05   0.45880939  0.017482199            0    0.4413272    1.6136019    2.0724113    3.3720564 
 8290000    1.0471588 5.7552602e-05     0.519114  0.038851985            0   0.48026202    1.5576487    2.0767627    4.0412249 
 8295000   0.99720706 1.4317275e-05   0.61232846  0.040884437            0   0.57144402    1.4833455     2.095674    2.5843703 
 8300000   0.98374432 8.7794447e-05   0.62496897   0.11386635            0   0.51110262    1.4633197    2.0882886    5.0850058 
 8305000    1.0449115 4.5659191e-05   0.53288369  0.034421051            0   0.49846264    1.5543059    2.0871896      3.64569 
 8310000    1.0726226 1.2820255e-05   0.47286728  0.017413924            0   0.45545336    1.5955262    2.0683935    2.5059915 
 8315000    1.0788231 5.2590622e-06   0.44721358  0.012182713            0   0.43503087    1.6047494     2.051963    2.2314723 
 8320000    1.0337011 3.0765239e-05   0.50388745  0.020716412            0   0.48317104    1.5376303    2.0415178     3.091638 
 8325000    1.0209003 5.2257271e-05   0.54816031  0.074462063            0   0.47369825    1.5185892    2.0667496    3.8504644 
 8330000    1.0104571 -0.00012773681   0.55790245   0.03462965            0    0.5232728    1.5030549    2.0609574   -2.2991257 
 8335000    1.0681072 -0.00027318107   0.48633889 0.0063875956            0   0.47995129    1.5888094    2.0751483   -7.2494323 
 8340000    1.0415418 -5.5349534e-05   0.53829082  0.035125755            0   0.50316507    1.5492934    2.0875842   0.19832015 
 8345000    1.0018545 -4.6365994e-05   0.59749267  0.059130184            0   0.53836248    1.4902586    2.0877513   0.50512533 
 8350000    1.0355192 -0.00012426793   0.55178156  0.030023923            0   0.52175764    1.5403348    2.0921164   -2.1495623 
 8355000    1.0312514 3.2345006e-05   0.55688868  0.017110699            0   0.53977798    1.5339864    2.0908751     3.194918 
 8360000    1.0412021 4.2232847e-05   0.52065299 0.0054572386            0   0.51519575    1.5487881    2.0694411     3.510989 
 8365000    1.0696706 -4.1195639e-05   0.49058888 0.0071535581            0   0.48343532    1.5911351     2.081724   0.67557949 
 8370000    1.0187371 -3.1442243e-05   0.56553771  0.010702064            0   0.55483564    1.5153714    2.0809091    1.0076805 
 8375000    1.0097781 -3.5655915e-05   0.59405784   0.01586778            0   0.57819006    1.5020449    2.0961028   0.87904752 
 8380000    1.0297762 2.6323742e-06   0.52626505 0.0052367498            0    0.5210283     1.531792    2.0580571    2.1479088 
 8385000    1.0660619 5.8510766e-05   0.48060046 0.0084624354            0   0.47213802     1.585767    2.0663675     4.063535 
 8390000    1.0708585 7.6078732e-05   0.47519724 0.0078502244            0   0.46734702     1.592902    2.0680992    4.6649199 
 8395000    1.0473841 3.0342947e-05    0.4906327  0.028266617            0   0.46236609    1.5579838    2.0486165    3.0843224 
 8400000    1.0298028 -6.5422288e-05   0.52917796  0.027775468            0    0.5014025    1.5318316    2.0610096  -0.17207117 
 8405000    1.0418247 2.395103e-05   0.54269231  0.012589027            0   0.53010328    1.5497143    2.0924066    2.9099351 
 8410000    1.1071428 4.7715046e-05    0.4507557  0.030306328            0   0.42044937    1.6468749    2.0976306    3.7263042 
 8415000    1.0193875 3.9051927e-05   0.57061672  0.070144005            0   0.50047271    1.5163388    2.0869556     3.419928 
 8420000    1.0452506 0.00018966576   0.53338774  0.020323066            0   0.51306467    1.5548102     2.088198    8.5621227 
 8425000   0.97937289 0.00014504334   0.62887646  0.034004378            0   0.59487208    1.4568172    2.0856936    7.0365063 
 8430000     1.020288 -0.00010148087   0.57282193  0.043458366            0   0.52936356    1.5176784    2.0905003     -1.37338 
 8435000    1.1003727 -7.5508364e-05   0.48606394  0.024609668            0   0.46145428    1.6368043    2.1228683   -0.4544839 
 8440000    1.0122461 0.00014007325   0.61825902  0.051551416            0   0.56670761     1.505716    2.1239751     6.905142 
 8445000    1.1125352 6.8266021e-05   0.45886716  0.004506452            0   0.45436071    1.6548961    2.1137632    4.4439101 
 8450000    1.1449697 -0.00014353015   0.43409187 0.0056789742            0    0.4284129    1.7031424    2.1372343   -2.7619282 
 8455000    1.0473378 -0.00010871933   0.55740341 0.0059484047            0     0.551455    1.5579149    2.1153183   -1.5956348 
 8460000    1.0498475 6.9135315e-05   0.54992935  0.010339767            0   0.53958958    1.5616481    2.1115775    4.4713962 
 8465000    1.0058491 7.203743e-05   0.59201951  0.031494219            0   0.56052529    1.4962005      2.08822    4.5470976 
 8470000     1.115485 4.3723311e-05   0.42919354  0.050333957            0   0.37885959     1.659284    2.0884775    3.5808999 
 8475000     1.036627 -3.6293264e-05   0.50424282  0.019860728            0   0.48438209    1.5419827    2.0462255   0.80741541 
 8480000    0.9946526 -0.00020000573   0.58070251  0.015747355            0   0.56495516    1.4795457    2.0602483   -4.7666139 
 8485000    1.0619055 2.0626069e-05   0.48447575  0.038240056            0    0.4462357    1.5795844    2.0640602    2.7680967 
 8490000    1.0194084 0.0002282709   0.52941074  0.049247741            0     0.480163      1.51637    2.0457807    9.8374275 
 8495000   0.99023555 5.508885e-05   0.56527752  0.012007442            0   0.55327007    1.4729754    2.0382529     3.918619 
 8500000    1.0630261 -4.5681554e-05   0.44723554 0.0024702255            0   0.44476531    1.5812513    2.0284868    0.4692231 
 8505000    1.0154119 -8.2636011e-05   0.53909924 0.0011992684            0   0.53789997    1.5104252    2.0495244  -0.77111809 
 8510000    1.1046978 0.00019367149   0.39614907 0.0065029399            0   0.38964613     1.643238    2.0393871    8.6500407 
 8515000    1.0675855 6.0133879e-05   0.47568053  0.014581285            0   0.46109925    1.5880334     2.063714    4.1162837 
 8520000    1.0319468 -5.8542619e-05   0.53463165 0.0060481331            0   0.52858352    1.5350209    2.0696525  0.071397816 
 8525000   0.98337069 -1.5070175e-06   0.58216608  0.012483361            0   0.56968272    1.4627639      2.04493    1.9934904 
 8530000    1.0483367 -0.00012748345   0.49817725  0.019964312            0   0.47821294    1.5594008     2.057578   -2.2938571 
 8535000    1.0667817 6.281493e-05   0.47124578  0.015074311            0   0.45617147    1.5868377    2.0580835    4.2021665 
 8540000   0.98359688 -0.00012360458   0.61698006 0.0096966032            0   0.60728346    1.4631004    2.0800804   -2.1389557 
 8545000    1.0271543 1.4568477e-05   0.53377695 0.0084624475            0    0.5253145     1.527892    2.0616689    2.5589396 
 8550000    1.1207752 -3.8347584e-05   0.40408478 0.0093178478            0   0.39476693    1.6671531    2.0712378   0.76230697 
 8555000    1.0175275 -5.8419467e-05   0.56234601  0.014432895            0   0.54791311    1.5135722    2.0759182  0.081867076 
 8560000    1.0265279 5.3239311e-05   0.56195448   0.01014092            0   0.55181356    1.5269603    2.0889147    3.9061499 
 8565000   0.97167236 -1.7757898e-05   0.62152695  0.050743715            0   0.57078323    1.4453626    2.0668896    1.4607533 
 8570000    1.0214306 4.3630217e-05   0.55124047  0.058044672            0    0.4931958     1.519378    2.0706184    3.5598632 
 8575000    1.0313663 -0.00011222979   0.53735818  0.041449779            0   0.49590841    1.5341574    2.0715155   -1.7592612 
 8580000    1.0500913 -6.6443618e-05   0.52059425  0.037347615            0   0.48324663    1.5620109    2.0826051  -0.18533705 
 8585000    1.0557108 6.4427489e-05   0.52581754  0.034448661            0   0.49136888    1.5703698    2.0961874    4.2953123 
 8590000   0.99805485 -5.7867621e-05   0.61483202  0.040014128            0   0.57481789    1.4846066    2.0994386   0.12422379 
 8595000     1.029373 3.0080437e-05   0.57966223   0.03109324            0   0.54856899    1.5311923    2.1108545    3.1376001 
 8600000    1.0536912 -4.5034815e-05   0.53145092  0.022585145            0   0.50886577    1.5673657    2.0988166   0.56162822 
 8605000    1.0634995 -8.7327104e-05   0.52864811  0.032707359            0   0.49594075    1.5819556    2.1106037  -0.87016148 
 8610000   0.99260093 -0.00012907288   0.60307829  0.052613314            0   0.55046498    1.4764939    2.0795722   -2.3261155 
 8615000    1.0351507 9.1232321e-05   0.54329523  0.027657138            0   0.51563809    1.5397867    2.0830819    5.1971452 
 8620000    1.0921625 0.00022195931   0.49039891 0.0058416134            0   0.48455729    1.6245917    2.1149906    9.6912017 
 8625000    1.0197929 -5.499666e-05   0.53927082  0.015700836            0   0.52356998    1.5169419    2.0562127   0.17899338 
 8630000   0.95008526 -7.9452673e-05   0.63710527  0.023873783            0   0.61323148    1.4132518    2.0503571  -0.66162746 
 8635000    1.0762188 -2.1899226e-05   0.44816801 0.0073222353            0   0.44084578    1.6008755    2.0490435      1.30155 
 8640000    1.0005383 -0.00023921315    0.5494174  0.012437532            0   0.53697986    1.4883007    2.0377181   -6.1274241 
 8645000    1.0401162 -0.0002135496   0.49735413  0.013123352            0   0.48423078    1.5471728     2.044527   -5.2446327 
 8650000   0.98206182 -3.8282174e-05    0.5536999  0.011651323            0   0.54204857     1.460817    2.0145169   0.70781866 
 8655000   0.95575909 7.8749599e-05   0.58835465  0.010402918            0   0.57795174    1.4216916    2.0100463    4.6980326 
 8660000    1.0461882 3.7359634e-05   0.44312341  0.015660751            0   0.42746266     1.556205    1.9993284    3.2745372 
 8665000    1.0294206 2.7905714e-05   0.48620921  0.015676412            0    0.4705328    1.5312632    2.0174724    2.9699874 
 8670000    1.0468238 0.00012696098   0.47311208 0.0056153291            0   0.46749675    1.5571504    2.0302625    6.3638639 
 8675000    1.0878765 -6.0287373e-05   0.40217346 0.0011104608            0   0.40106299    1.6182162    2.0203897 -0.037419295 
 8680000   0.97474787 -6.1814193e-07   0.55831239 0.0056309019            0   0.55268148    1.4499375    2.0082498    1.9871506 
 8685000    1.0458562 5.8803629e-05   0.44517848  0.021067358            0   0.42411112    1.5557111    2.0008896    4.0080534 
 8690000     1.025413 -0.00011754817   0.50728185   0.01626754            0   0.49101431    1.5253018    2.0325836   -1.9797274 
 8695000   0.97718069 -0.00010177806    0.5765326  0.014693754            0   0.56183884    1.4535563    2.0300889   -1.4439357 
 8700000   0.97546725 -3.0705771e-05   0.56196682  0.015514631            0   0.54645219    1.4510075    2.0129744   0.96488405 
 8705000    1.0397969 0.0001153259   0.43498823  0.012461034            0    0.4225272    1.5466978    1.9816861    5.9181433 
 8710000   0.97065658 0.00011664153    0.5481062 0.0094979191            0   0.53860829    1.4438517    1.9919579    5.9733221 
 8715000   0.99655498 5.3082882e-05   0.50219562 0.0074393822            0   0.49475624    1.4823755    1.9845712    3.7964669 
 8720000   0.96974105 -0.00014274965   0.53533542   0.01316373            0   0.52217169    1.4424898    1.9778252   -2.8946961 
 8725000    1.0125997 -0.00026699589    0.4534876  0.028810047            0   0.42467755     1.506242    1.9597296   -7.1537302 
 8730000   0.92850204 -7.4950963e-05   0.56380083  0.028711639            0   0.53508919    1.3811468    1.9449476  -0.61337858 
 8735000   0.93178966 -1.4762569e-05   0.56865997   0.01150447            0    0.5571555    1.3860371    1.9546971    1.4508014 
 8740000     0.959173 -0.0001339015   0.52486064  0.013004994            0   0.51185565    1.4267698    1.9516305   -2.6188739 
 8745000   0.95954066 -0.00015845437   0.54272538  0.010680309            0   0.53204507    1.4273167    1.9700421   -3.4385337 
 8750000   0.95107519 -4.7623643e-05   0.54446097  0.025884048            0   0.51857692    1.4147243    1.9591853   0.33363162 
 8755000    0.9376234 -0.0001217328   0.54934821  0.070736345            0   0.47861187    1.3947148     1.944063   -2.2110832 
 8760000   0.93828631 0.00011232646   0.55228345  0.056578941            0   0.49570451    1.3957009    1.9479843    5.7820609 
 8765000   0.98036621 0.00011305061   0.47841759  0.010605973            0   0.46781161    1.4582947    1.9367123    5.7955065 
 8770000   0.95829823 -4.5141504e-05    0.5145922  0.028052845            0   0.48653935    1.4254686    1.9400608   0.39923081 
 8775000    1.0063691 -4.8355807e-05   0.42908061  0.018615816            0   0.41046479     1.496974    1.9260546   0.27550972 
 8780000   0.96178018 -6.7850225e-05    0.5152261 0.0061008762            0   0.50912523     1.430648    1.9458741  -0.37008022 
 8785000    0.9648608 -6.0515787e-05   0.49169785  0.021517235            0   0.47018062    1.4352304    1.9269283  -0.13867724 
 8790000   0.93356481 5.2361185e-06   0.53974698  0.015897093            0   0.52384988    1.3886777    1.9284246    2.1071508 
 8795000    0.9396514 1.4275815e-05   0.51624117  0.013843587            0   0.50239759    1.3977315    1.9139726    2.4012538 
 8800000   0.92174281 4.4209814e-06   0.53400158  0.019937425            0   0.51406416    1.3710924     1.905094    2.0559968 
 8805000   0.91893788 8.2447199e-05   0.56465162  0.010648124            0   0.55400349    1.3669201    1.9315717    4.7457694 
 8810000   0.97404161 -5.8611972e-05    0.4821272  0.035707265            0   0.44641993    1.4488869    1.9310141 -0.069607883 
 8815000    0.8936962 -1.5221933e-08   0.59902144  0.043598558            0   0.55542288    1.3293731    1.9283945     1.927875 
 8820000   0.86544782 0.00014353084   0.66344553  0.023705259            0   0.63974027    1.2873536    1.9507992    6.8499851 
 8825000   0.98223064 -0.00019929134    0.5014789 0.0034487722            0   0.49803013    1.4610681     1.962547   -4.8399307 
 8830000   0.98941111 -3.1933856e-05   0.48088314  0.001163205            0   0.47971994     1.471749    1.9526322   0.86262321 
 8835000   0.86134244 0.00012477804   0.65060719 0.0010187891            0    0.6495884    1.2812469    1.9318541    6.1909445 
 8840000   0.94614297 -0.0001253094    0.5402855   0.00499983            0   0.53528567    1.4073877    1.9476732   -2.3295542 
 8845000   0.98456819 2.2391199e-05   0.49906872  0.015974292            0   0.48309443    1.4645452    1.9636139    2.7279002 
 8850000   0.94599524 7.6662951e-05   0.56373398  0.022392384            0   0.54134159    1.4071679    1.9709019     4.587664 
 8855000    1.0054491 -0.00011341239   0.48970414 0.0069144076            0   0.48278973    1.4956056    1.9853097   -1.8858333 
 8860000   0.97937005 0.00011623325   0.53707577  0.012472341            0   0.52460343     1.456813    1.9938887    5.9613171 
 8865000   0.99162957 8.395015e-05   0.51832972  0.015157152            0   0.50317257     1.475049    1.9933787    4.8588771 
 8870000    1.0128303 -3.8748578e-05   0.48344412 0.0058325948            0   0.47761153    1.5065851    1.9900292   0.66741111 
 8875000   0.90768005 1.8620736e-06   0.63636082 0.0049544286            0    0.6314064    1.3501741    1.9865349    2.0500937 
 8880000   0.92729583 1.0889578e-05   0.60799493 0.0035519881            0   0.60444294    1.3793525    1.9873475    2.3590451 
 8885000    1.0401167 0.00019393156    0.4321233 0.0028077736            0   0.42931552    1.5471736    1.9792969    8.5988275 
 8890000   0.97612627 -7.0699005e-05   0.57070078 0.0050368352            0   0.56566395    1.4519878    2.0226886  -0.39050412 
 8895000   0.96014096 -0.0001662494   0.58359344 0.0093833262            0   0.57421011    1.4282097    2.0118031   -3.6628431 
 8900000    0.9642641 0.00012459988   0.55445733  0.013462236            0    0.5409951    1.4343429    1.9888002    6.2418095 
 8905000   0.99732119 8.0728064e-05   0.52531067   0.01422777            0    0.5110829    1.4835153    2.0088259    4.7643439 
 8910000   0.96772711 -4.8298142e-05   0.55605701 0.0067459515            0   0.54931105    1.4394941    1.9955511   0.34697451 
 8915000    0.9193841 7.1133842e-05   0.60621411  0.031316225            0   0.57489788    1.3675839     1.973798    4.4018331 
 8920000   0.95160646 -0.00010752046   0.57318092  0.025174056            0   0.54800686    1.4155146    1.9886955   -1.6813362 
 8925000   0.96343673 -9.8861521e-05   0.55747164   0.02736848            0   0.53010316    1.4331121    1.9905838   -1.3838895 
 8930000   0.98768297 -3.0527052e-05   0.52983913  0.026595552            0   0.50324358    1.4691784    1.9990175    0.9570275 
 8935000   0.96146319 -0.00011978934   0.56034603  0.029468395            0   0.53087763    1.4301765    1.9905225    -2.098287 
 8940000   0.92340799 -2.557735e-05    0.6088272  0.012679109            0   0.59614809    1.3735694    1.9823966    1.1093564 
 8945000   0.99786075 -4.6334733e-05   0.52165575  0.013200905            0   0.50845484    1.4843179    2.0059736   0.42441472 
 8950000   0.95341397 -2.3300328e-05   0.57689444 0.0037085659            0   0.57318588    1.4182033    1.9950977    1.1997799 
 8955000   0.90323567 4.4406798e-05   0.62849608  0.047065356            0   0.58143072    1.3435631    1.9720591    3.4878112 
 8960000   0.97061764 5.0287251e-06   0.54429035  0.015032047            0    0.5292583    1.4437937    1.9880841    2.1597312 
 8965000   0.94841725 5.5983699e-06   0.57418825  0.012712669            0   0.56147558    1.4107707    1.9849589    2.1760499 
 8970000   0.98903262 6.0120681e-05   0.51828245 0.0062740182            0   0.51200844     1.471186    1.9894685    4.0415877 
 8975000   0.95674233 9.5332338e-05   0.54799366 0.0096698469            0   0.53832381    1.4231542    1.9711479    5.2251584 
 8980000     0.936207 0.00011380706   0.55051869  0.011502452            0   0.53901624    1.3926079    1.9431266     5.827741 
 8985000   0.92882816 1.5035335e-05   0.53111881 0.0064341288            0   0.52468468    1.3816319    1.9127507    2.4259568 
 8990000   0.97230349 8.2784136e-05   0.48707463  0.013106457            0   0.47396818    1.4463014    1.9333761    4.7590746 
 8995000   0.94409441 0.00017132151   0.54257983  0.034930635            0   0.50764919    1.4043404    1.9469203    7.7946943 
 9000000   0.95940973 -7.5793507e-05   0.52521864  0.018310245            0   0.50690839     1.427122    1.9523406  -0.63474443 
 9005000   0.96641814 -0.00018624425   0.53667698  0.015685379            0    0.5209916     1.437547     1.974224    -4.382913 
 9010000    0.9399637 -6.9586839e-05   0.55806286  0.017483568            0   0.54057929     1.398196    1.9562589   -0.4189719 
 9015000   0.96584324 -8.1748366e-05   0.50236869  0.031062856            0   0.47130583    1.4366918    1.9390605  -0.85128372 
 9020000    0.9662448 -6.7132189e-05   0.49571338  0.010513819            0   0.48519956    1.4372891    1.9330025  -0.35844286 
 9025000   0.94067018 4.8253208e-05   0.53598836 0.0049613444            0   0.53102702    1.3992469    1.9352353    3.5822781 
 9030000   0.95562302 -1.5522957e-05   0.50755576 0.0046503052            0   0.50290546    1.4214892     1.929045    1.3991947 
 9035000   0.97469583 -0.00012111484   0.49424502 0.0073750963            0   0.48686993      1.44986    1.9441051    -2.189948 
 9040000   0.84129785 -8.5115084e-05   0.67568565   0.01235737            0   0.66332828    1.2514305    1.9271162  -0.97814535 
 9045000    0.9785119 -9.6732365e-05   0.50016935 0.0079016418            0   0.49226771    1.4555365    1.9557058   -1.3460923 
 9050000   0.95844909 -5.57219e-05   0.50540467 0.0024204785            0   0.50298419     1.425693    1.9310977  0.029123483 
 9055000   0.98961586 5.0785939e-05   0.45984642 2.4669332e-05            0   0.45982175    1.4720536       1.9319    3.6653934 
 9060000   0.91798427 -0.00011135874   0.57501546 0.0013139381            0   0.57370152    1.3655016    1.9405171   -1.8605279 
 9065000    1.0022834 0.00010226203   0.45009495  0.018858118            0   0.43123683    1.4908966    1.9409915    5.4315355 
 9070000    0.9805487 0.00025270612   0.49619079   0.03018252            0   0.46600827    1.4585662     1.954757    10.580459 
 9075000   0.96980021 0.00012988702   0.49241265  0.011238742            0    0.4811739    1.4425778    1.9349905    6.3684673 
 9080000   0.95698892 5.7284499e-05   0.51628111 0.0038785484            0   0.51240256     1.423521    1.9398021     3.895113 
 9085000   0.99471103 -3.4439469e-05   0.45290879  0.015765447            0   0.43714334    1.4796327    1.9325414   0.75700758 
 9090000   0.94900545 -4.9191425e-05   0.51530093  0.022697923            0     0.492603    1.4116456    1.9269465   0.24787923 
 9095000    1.0135793 9.3419487e-05   0.43329979  0.011950576            0   0.42134921    1.5076992     1.940999    5.1297175 
 9100000     1.035402 -2.774416e-05   0.42976115  0.025190589            0   0.40457056    1.5401605    1.9699217     1.022921 
 9105000   0.96498082 -4.0157653e-05   0.53838509  0.036291507            0   0.50209358     1.435409    1.9737941    0.6030795 
 9110000    0.9807026 2.008833e-05   0.50937745  0.010034618            0   0.49934283    1.4587951    1.9681726    2.6538542 
 9115000    1.0340736 -8.5698408e-05    0.4526898 0.0054893931            0   0.44720041    1.5381845    1.9908743  -0.93429804 
 9120000    1.0580572 4.8967886e-05   0.44154419  0.018968823            0   0.42257537    1.5738601    2.0154043    3.6868415 
 9125000   0.91685352 -2.8630572e-06   0.65390895  0.018143292            0   0.63576566    1.3638196    2.0177286    1.9200029 
 9130000     1.022871 3.5266317e-05   0.48582551  0.015238816            0   0.47058669    1.5215207    2.0073462    3.2111031 
 9135000     1.063659 6.6248804e-05   0.43119501 0.0032620081            0     0.427933    1.5821927    2.0133877    4.2746802 
 9140000   0.99133164 -2.921922e-05   0.52255895 0.0011651035            0   0.52139384    1.4746058    1.9971648   0.99981539 
 9145000    1.0005425 -7.4506525e-05   0.52320538  0.013791243            0   0.50941413     1.488307    2.0115124  -0.53164368 
 9150000   0.99745657 -5.1865978e-05   0.53516508  0.037221616            0   0.49794347    1.4837166    2.0188817   0.24852302 
 9155000    1.0271884 -6.4641714e-05   0.46300943  0.027870258            0   0.43513917    1.5279427    1.9909522    -0.215485 
 9160000    1.0058628 -0.0001033123    0.5165284  0.011104542            0   0.50542386    1.4962209    2.0127493   -1.5136439 
 9165000    1.0700488 -1.1681154e-05   0.42489138 0.0094542698            0   0.41543711    1.5916976     2.016589    1.6178723 
 9170000    1.0167051 3.7426166e-05   0.51057956  0.019193908            0   0.49138565    1.5123488    2.0229283    3.3004082 
 9175000   0.97158743 4.1075548e-05   0.55321828  0.042599674            0   0.51061861    1.4452363    1.9984546       3.4005 
 9180000    1.0165365 5.7352358e-05   0.48534221  0.036598181            0   0.44874403     1.512098    1.9974403    3.9550674 
 9185000    1.0071641 -1.7739332e-05   0.52160587  0.036395741            0   0.48521013    1.4981566    2.0197624    1.4142599 
 9190000    1.0582485 -7.1095247e-05   0.42616059  0.014543126            0   0.41161747    1.5741447    2.0003053  -0.42641248 
 9195000    1.0163476 -5.960871e-05   0.50226724 0.0011495368            0    0.5011177    1.5118171    2.0140843 -0.020559677 
 9200000    1.0426843 6.2949706e-05     0.457148 0.0022125958            0    0.4549354     1.550993    2.0081409    4.1568243 
 9205000   0.99612162 0.00013812516   0.50262754 0.0099246542            0   0.49270289    1.4817309    1.9843585    6.6990305 
 9210000    1.0160382 4.7895712e-05   0.48057187  0.024153626            0   0.45641824    1.5113568    1.9919286     3.626769 
 9215000   0.99157587 3.9792435e-05   0.50459351  0.022213203            0   0.48238031    1.4749691    1.9795626    3.3378111 
 9220000    1.0208577 -0.00010417351   0.46698977 0.0064221212            0   0.46056765    1.5185259    1.9855156   -1.5702737 
 9225000     1.068229 -0.00011714745   0.40983212  0.015537039            0   0.39429508    1.5889906    1.9988228   -1.9998103 
 9230000    1.0254033 0.00017004109   0.46670851   0.02383671            0    0.4428718    1.5252874    1.9919959    7.7960652 
 9235000   0.98295638 0.00011431548   0.51594366  0.029394772            0   0.48654888    1.4621476    1.9780913    5.8800597 
 9240000    0.9664873 -3.4771595e-06   0.52607087   0.02653339            0   0.49953748    1.4376499    1.9637207    1.8450337 
 9245000    1.0120177 7.0193008e-05   0.46198438 0.0090892931            0   0.45289509    1.5053764    1.9673607    4.3632821 
 9250000    1.0049292 -0.00011444643   0.48221324  0.040431986            0   0.44178125    1.4948322    1.9770455   -1.9293926 
 9255000    1.0041902 -8.4362077e-05   0.49384378  0.013334358            0   0.48050942    1.4937329    1.9875766  -0.89198227 
 9260000    1.0473791 0.00011767221   0.41604345  0.011330436            0   0.40471301    1.5579765    1.9740199    5.9905647 
 9265000   0.99301125 0.00012676425   0.50735624  0.024333418            0   0.48302283    1.4771042    1.9844605     6.311347 
 9270000   0.98992157 3.5536083e-05   0.52915744  0.044602116            0   0.48455532    1.4725083    2.0016658    3.2146307 
 9275000   0.94527911 -5.4124371e-05    0.6008163  0.051055572            0   0.54976073    1.4061027     2.006919   0.15947376 
 9280000   0.95017182 4.1663078e-05   0.59861818  0.054847477            0    0.5437707    1.4133806    2.0119988    3.4340985 
 9285000    1.0601807 6.2244808e-05   0.43727214  0.032243435            0    0.4050287    1.5770188     2.014291    4.1389138 
 9290000    1.0289941 -9.9244527e-06   0.45605154   0.02807474            0    0.4279768    1.5306287    1.9866803    1.6479256 
 9295000    1.0000842 7.0218174e-05   0.49211742  0.073647119            0    0.4184703    1.4876253    1.9797427    4.3765231 
 9300000   0.99083385 -4.1226497e-06   0.49360676  0.022832027            0   0.47077474    1.4738653    1.9674721    1.8267523 
 9305000   0.99721497 -5.2282469e-05   0.49652956 0.0086176016            0   0.48791196    1.4833573    1.9798868   0.19531188 
 9310000   0.99072892 5.6167834e-05   0.52623926  0.015875979            0   0.51036328    1.4737093    1.9999485    3.9171439 
 9315000      1.03571 3.581778e-05    0.4641817  0.026254178            0   0.43792752    1.5406187    2.0048004    3.2273806 
 9320000    1.0121412 7.0394224e-05   0.49960388  0.018506544            0   0.48109734    1.5055601     2.005164    4.4079535 
 9325000     1.037064 4.377715e-06   0.46633614  0.013046544            0   0.45328959    1.5426327    2.0089688    2.1583948 
 9330000    1.0134958 -0.00012749993   0.50768412 0.0065795657            0   0.50110456     1.507575    2.0152591   -2.3367386 
 9335000    1.0735683 -7.1976653e-05   0.41302885  0.014076884            0   0.39895197    1.5969328    2.0099616  -0.44684144 
 9340000    1.0303284 -9.0322543e-06   0.45811008  0.028314427            0   0.42979565    1.5326135    1.9907236    1.6824227 
 9345000   0.98870621 1.4189155e-05   0.53561141  0.037218467            0   0.49839294    1.4707005    2.0063119     2.490635 
 9350000    1.0784558 0.00013622982   0.43119065  0.016448755            0   0.41474189     1.604203    2.0353936    6.6853714 
 9355000    1.0035221 -4.8914719e-06   0.54198529   0.02854775            0   0.51343754    1.4927391    2.0347244    1.8677622 
 9360000    1.1114911 0.00012713085    0.3807976  0.023169801            0    0.3576278     1.653343    2.0341406    6.3735403 
 9365000   0.97686641 0.00013988744   0.54570229 0.0074907591            0   0.53821153    1.4530888    1.9987911    6.7736158 
 9370000   0.99875419 -3.9691499e-05   0.49703638  0.010662502            0   0.48637388    1.4856469    1.9826832   0.62788009 
 9375000    1.0465016 3.9083354e-05   0.44252204  0.018635444            0    0.4238866    1.5566712    1.9991932    3.3332384 
 9380000    1.0297824 -3.6394691e-05   0.45490568  0.016917578            0    0.4379881    1.5318014     1.986707   0.74443493 
 9385000    1.0077003 6.3313398e-05   0.50794428  0.061057698            0   0.44688659    1.4989542    2.0068985    4.1679958 
 9390000   0.97033499 0.00027832772   0.52825689  0.034948074            0   0.49330882    1.4433733    1.9716302    11.471883 
 9395000    1.0152951 -6.5533213e-05   0.46752419  0.027698962            0   0.43982523    1.5102515    1.9777757  -0.25909129 
 9400000   0.96790548 -0.00030287029   0.52308176  0.016662923            0   0.50641883    1.4397594    1.9628412   -8.3751314 
 9405000   0.99173369 -0.00014557163   0.49100105  0.038057734            0   0.45294332    1.4752039    1.9662049     -3.00264 
 9410000   0.98716841 0.00011519867   0.48695623  0.046144808            0   0.44081142     1.468413    1.9553692    5.8874838 
 9415000   0.99955845 -3.8254116e-05     0.459335  0.042234708            0   0.41710029    1.4868432    1.9461782   0.64043772 
 9420000   0.96414726 -0.00025946517   0.54426807  0.041181831            0   0.50308624    1.4341691    1.9784371   -6.8779741 
 9425000    1.0288988 0.0001019397   0.46873427  0.014004666            0   0.45472961     1.530487    1.9992213    5.4787629 
 9430000     1.014422 0.00019571704   0.48716392 0.0089888418            0   0.47817507    1.5089527    1.9961166    8.6765916 
 9435000    1.0554045 -1.674982e-05   0.42836298  0.012208831            0   0.41615415    1.5699142    1.9982772      1.42655 
 9440000    1.0683206 -8.5568007e-05   0.41085378 0.0083335933            0   0.40252018    1.5891269    1.9999807  -0.92074059 
 9445000    1.0138353 7.4484632e-05    0.4993822  0.023571011            0   0.47581118    1.5080801    2.0074623    4.5498711 
 9450000    1.0218449 7.8328884e-05   0.50509592  0.039413548            0   0.46568237    1.5199943    2.0250902    4.6987161 
 9455000    1.0444259 -3.9623228e-05   0.46775989  0.025017153            0   0.44274274    1.5535836    2.0213435   0.66887061 
 9460000    1.0680578 4.1296648e-06   0.42041755 0.0064952052            0   0.41392235     1.588736    2.0091536    2.1501128 
 9465000    1.0713627 -0.00011507099   0.42797733  0.021628796            0   0.40634853     1.593652    2.0216293   -1.9061273 
 9470000    1.0377016 5.0306457e-05   0.49377646  0.028071546            0   0.46570492    1.5435811    2.0373575    3.7544846 
 9475000    1.0986193 0.00022978633   0.39897116  0.016108117            0   0.38286304    1.6341963    2.0331674     9.876541 
 9480000    1.0534168 -2.2315783e-05   0.46757948  0.012873684            0    0.4547058    1.5669574    2.0345369    1.2728249 
 9485000    1.0638256 -0.00012689948   0.44802245  0.022825323            0   0.42519713    1.5824406     2.030463   -2.3010393 
 9490000    1.0062772 -0.00011726565   0.50718362    0.0246672            0   0.48251642    1.4968373     2.004021   -1.9986466 
 9495000    1.0457853 -8.713159e-05    0.4229068  0.023173949            0   0.39973285    1.5556057    1.9785125  -0.99557913 
 9500000    1.0157903 7.6595589e-05   0.48396844  0.021024139            0    0.4629443    1.5109881    1.9949565    4.6094193 
 9505000     0.997581 0.00010605099    0.5026037  0.041430772            0   0.46117293    1.4839017    1.9865054    5.6063792 
 9510000    1.0606675 3.2550109e-05   0.41052288  0.038217224            0   0.37230565     1.577743    1.9882659    3.0993096 
 9515000    1.0224327 4.5896282e-05    0.4975923  0.038101907            0    0.4594904    1.5208686     2.018461    3.5850541 
 9520000    1.0245955 -1.7581143e-05   0.50944821  0.039788021            0   0.46966019    1.5240858     2.033534     1.433431 
 9525000    1.1083042 -0.00011236369   0.40180286  0.029591489            0   0.37221137    1.6486026    2.0504054   -1.7849419 
 9530000    1.0531652 -0.00013287819    0.4671013  0.020489286            0   0.44661202    1.5665832    2.0336845   -2.5018911 
 9535000     1.018299 3.2051859e-05   0.50937334  0.028455432            0   0.48091791    1.5147197     2.024093    3.1181298 
 9540000    1.0705099 0.00012724587   0.42020109  0.035895723            0   0.38430537    1.5923835    2.0125845    6.3559101 
 9545000    1.0371787 7.3651532e-05   0.48330807  0.024558341            0   0.45874973    1.5428033    2.0261113    4.5400836 
 9550000    1.0228484 0.00016214526   0.46043498 0.0092520002            0   0.45118298     1.521487    1.9819219    7.5164803 
 9555000    1.0218217 7.7814443e-05   0.49972308   0.00664456            0   0.49307852    1.5199597    2.0196828    4.6757491 
 9560000    1.0669029 -8.1091329e-05    0.4364441  0.017924577            0   0.41851952    1.5870181    2.0234622  -0.74445519 
 9565000    1.0295621 -6.624966e-07   0.50035703  0.052943815            0   0.44741321    1.5314737    2.0318307    2.0092175 
 9570000    1.0721696 -4.847417e-05    0.4333867  0.023955081            0   0.40943162    1.5948523     2.028239   0.37365402 
 9575000    1.0503734 5.0943731e-05   0.45536947  0.017501919            0   0.43786755    1.5624304    2.0177999    3.7566792 
 9580000    1.0791091 0.00014189478   0.44942876  0.023177286            0   0.42625148    1.6051748    2.0546036    6.8979453 
 9585000    1.0395114 -0.00020952512   0.48171372  0.019185494            0   0.46252823    1.5462732    2.0279869   -5.1238039 
 9590000    1.0419668 -5.752493e-05    0.4882703 0.0078820152            0   0.48038828    1.5499257     2.038196  0.074678367 
 9595000     1.057327 0.00013090936   0.45212338  0.013144911            0   0.43897847    1.5727739    2.0248973    6.4932702 
 9600000     1.079485 -5.8651353e-05   0.41266518   0.01247167            0   0.40019351     1.605734    2.0183991  0.016432962 
 9605000    1.0323614 -0.0001332439   0.46695397  0.017131189            0   0.44982278    1.5356376    2.0025916   -2.5454668 
 9610000   0.99295805 1.9994446e-05   0.51437953  0.018195848            0   0.49618368    1.4770251    1.9914046    2.6738817 
 9615000    1.0025945 6.4922722e-05   0.51645967  0.011939684            0   0.50451999    1.4913593     2.007819    4.2238479 
 9620000    1.0904497 -0.00013321009   0.39071277  0.020135407            0   0.37057736    1.6220439    2.0127567   -2.5341476 
 9625000    1.0124089 -5.5755246e-05   0.52807413  0.028484042            0   0.49959008    1.5059582    2.0340324   0.13091999 
 9630000    1.0515886 2.7446908e-05   0.44913708  0.018701645            0   0.43043543    1.5642381    2.0133752    2.9502296 
 9635000    0.9942818 6.8026884e-05   0.54689353  0.018081033            0   0.52881249    1.4789942    2.0258877     4.347872 
 9640000    1.0474418 1.7468536e-05   0.46966356  0.020690508            0   0.44897305    1.5580697    2.0277332    2.6239926 
 9645000   0.97934763 -9.9064057e-05   0.56528281  0.048171451            0   0.51711136    1.4567796    2.0220624   -1.3593241 
 9650000    1.0336618 -2.5871016e-06   0.46911407  0.018896388            0   0.45021768    1.5375719     2.006686    1.9183796 
 9655000    1.0349037 7.7930051e-05   0.45616973  0.015402044            0   0.44076769    1.5394193     1.995589    4.6556014 
 9660000    1.0293969 -5.3936634e-05   0.48781621  0.041331598            0   0.44648461     1.531228    2.0190442   0.17800704 
 9665000   0.96365685 -6.1284951e-05   0.58307552  0.045478188            0   0.53759734    1.4334396    2.0165151 -0.075344567 
 9670000     1.072803 2.850273e-05   0.44004993  0.020867971            0   0.41918196    1.5957944    2.0358444    3.0087376 
 9675000      1.05538 7.1857353e-05   0.46603704   0.04472357            0   0.42131347    1.5698778    2.0359148    4.4886458 
 9680000    1.0225557 -2.0734234e-05   0.51394963   0.01816273            0    0.4957869    1.5210517    2.0350013    1.3272728 
 9685000     1.063832 -3.6867111e-05   0.47861033 0.0043895364            0    0.4742208    1.5824501    2.0610604     0.802663 
 9690000     1.075391 -2.7589392e-05   0.46580185  0.011546667            0   0.45425518    1.5996441     2.065446    1.1237281 
 9695000    1.0689069 -0.00011166474    0.4883808  0.011849564            0   0.47653123     1.589999    2.0783798     -1.73311 
 9700000     1.070136 -0.00019524225   0.47912374  0.016456886            0   0.46266685    1.5918272     2.070951   -4.5933178 
 9705000   0.95137679 -0.00019984035    0.6551089  0.043915365            0   0.61119353     1.415173    2.0702819   -4.7509355 
 9710000    1.1044899 -7.1666338e-05   0.43340933  0.034858951            0   0.39855038    1.6429287    2.0763381  -0.36987294 
 9715000    1.0244434 -5.5439778e-05   0.54411135   0.01224356            0   0.53186779    1.5238595    2.0679708   0.17562641 
 9720000    1.0568076 7.8080453e-05   0.48591489  0.033542117            0   0.45237277    1.5720013    2.0579162    4.7230623 
 9725000    1.0407708 0.00016586072   0.51361706  0.029881148            0   0.48373592    1.5481465    2.0617636     7.723143 
 9730000   0.99058676 3.0700825e-05   0.56248059  0.045316329            0   0.51716427    1.4734978    2.0359784    3.0838999 
 9735000    1.0059227 -9.1634783e-06   0.52767667  0.045544202            0   0.48213247      1.49631    2.0239867    1.7112066 
 9740000    1.0530606 -1.8068802e-05   0.46564391  0.025145048            0   0.44049886    1.5664276    2.0320715    1.4153231 
 9745000     1.025003 -0.00011773935   0.51709734  0.075247487            0   0.44184986     1.524692    2.0417894    -1.977047 
 9750000     1.075484 -0.0001277414   0.45144788  0.030360332            0   0.42108755    1.5997824    2.0512303   -2.3090094 
 9755000   0.99809902 -0.0001472784   0.54196597   0.03624678            0   0.50571919    1.4846723    2.0266383   -3.0004644 
 9760000    1.0442964 -7.8942881e-05   0.47813858  0.044523146            0   0.43361543    1.5533909    2.0315295   -0.6630542 
 9765000   0.99152525 -0.00018758338   0.55373758  0.039157641            0   0.51457994    1.4748938    2.0286314   -4.3742146 
 9770000    1.0550007 7.2876734e-05   0.44747345  0.035194181            0   0.41227926    1.5693136     2.016787    4.5043129 
 9775000    1.0296748 -3.3133613e-05   0.49677134  0.053146811            0   0.44362453    1.5316412    2.0284126   0.89745193 
 9780000    1.0329989 -0.00022969409   0.49917271  0.019878298            0   0.47929441    1.5365859    2.0357586   -5.8044664 
 9785000    1.0330604 -5.8475103e-05   0.47307413   0.02751677            0   0.44555736    1.5366774    2.0097515  0.013801317 
 9790000    1.0670383 0.00019380804   0.43606535  0.020722445            0    0.4153429    1.5872194    2.0232848    8.6385993 
 9795000    1.0745307 0.00016533304   0.43314003 0.0064960413            0   0.42664399    1.5983644    2.0315044     7.674872 
 9800000     1.026773 -9.6403036e-05   0.50547839 0.0086816442            0   0.49679674    1.5273248    2.0328032   -1.2577538 
 9805000     1.035462 -0.00020376492   0.49530427  0.032954779            0   0.46234949    1.5402497     2.035554   -4.9196219 
 9810000    1.0235824 -7.4339658e-06   0.52725189  0.042213449            0   0.48503844    1.5225788    2.0498307    1.7960846 
 9815000    1.1024691 -3.5838116e-05   0.41607681 0.0051453665            0   0.41093145    1.6399228    2.0559996   0.83272521 
 9820000    1.0637609 9.0556642e-06   0.46603963  0.028232463            0   0.43780717    1.5823444     2.048384     2.357484 
 9825000    1.0525908 1.5430656e-05   0.47884249  0.044073028            0   0.43476947    1.5657288    2.0445713     2.571271 
 9830000    1.1166759 -8.2021554e-05   0.39864666   0.03396195            0   0.36468471    1.6610554     2.059702  -0.73996701 
 9835000     1.021531 -7.778121e-05   0.54711215  0.031553993            0   0.51555816    1.5195274    2.0666396   -0.5882924 
 9840000    1.1276178 -3.1414229e-05   0.41262382   0.04538123            0   0.36724259    1.6773314    2.0899552    1.0176829 
 9845000    1.0632934 -2.3603394e-05   0.50084028  0.035947309            0   0.46489298    1.5816489    2.0824892    1.2768267 
 9850000     1.016992 -4.8213393e-06   0.56333291  0.034889835            0   0.52844307    1.5127757    2.0761086    1.9115402 
 9855000    1.1108386 6.4237727e-05   0.40256518  0.019022833            0   0.38354234    1.6523724    2.0549376    4.2475854 
 9860000    1.1118183 4.3810917e-05   0.41030398  0.013382606            0   0.39692137    1.6538297    2.0641336    3.5595463 
 9865000    1.0517032 8.4745471e-05   0.50525305  0.021023323            0   0.48422973    1.5644085    2.0696616     4.962307 
 9870000    1.0045381 0.00013926338   0.55746322  0.030230454            0   0.52723276    1.4942504    2.0517136     6.805237 
 9875000    1.0891982 4.7051098e-05   0.44098323  0.011379189            0   0.42960404    1.6201823    2.0611655    3.6671763 
 9880000    1.0119714 5.4149743e-05   0.53068105  0.046815743            0   0.48386531    1.5053074    2.0359885    3.8842997 
 9885000    1.0276968 4.9815279e-05   0.51585537  0.045000228            0   0.47085515     1.528699    2.0445544    3.7449159 
 9890000    1.0619302 5.1785416e-05   0.46491957  0.036541911            0   0.42837766    1.5796212    2.0445407    3.8121496 
 9895000    1.0231244 1.9303431e-05   0.54022242  0.024531814            0   0.51569061    1.5218975    2.0621199    2.7210104 
 9900000    1.0335912 -1.7035457e-05    0.5438187  0.020414503            0    0.5234042    1.5374669    2.0812856    1.4998086 
 9905000      1.06821 -5.8799341e-05   0.51222388  0.030475481            0    0.4817484    1.5889624    2.1011862  0.094168745 
 9910000    1.0390306 -9.171095e-05    0.5633527  0.036950141            0   0.52640255     1.545558    2.1089107   -1.0214897 
 9915000    1.0854789 -0.00010262064   0.49370168  0.034107578            0    0.4595941    1.6146499    2.1083516   -1.3944328 
 9920000    1.0410487 -2.3545873e-06    0.5626005  0.070381107            0   0.49221939      1.54856    2.1111605    2.0307906 
 9925000    1.0315154 -5.9084292e-05   0.56889368  0.031932108            0   0.53696157    1.5343792    2.1032729  0.086529039 
 9930000    1.0874555 -0.00011815413    0.4715228  0.042865422            0   0.42865738      1.61759    2.0891128   -1.9438814 
 9935000    1.0528317 -2.7536797e-05   0.50844416  0.034189057            0   0.47425511    1.5660872    2.0745313    1.1346087 
 9940000     1.056598 5.6463658e-05   0.51278968  0.011305708            0   0.50148397    1.5716896    2.0844793    4.0117721 
 9945000    1.0587293 0.00011753614    0.5284276 0.0064341286            0   0.52199347    1.5748598    2.1032874    6.1151878 
 9950000    1.0971416 7.4647531e-05   0.50023054  0.013299403            0   0.48693113    1.6319981    2.1322287    4.6801977 
 9955000    1.1026308 3.7187771e-05   0.48918444  0.027527816            0   0.46165662    1.6401633    2.1293477    3.3986903 
 9960000    1.0966572 -6.8423359e-05   0.50158695  0.013945774            0   0.48764118    1.6312776    2.1328645  -0.20265281 
 9965000    1.0462724 -8.1736366e-05   0.53995029  0.034512459            0   0.50543783    1.5563302    2.0962804   -0.6936542 
 9970000    1.0929904 4.9646517e-05   0.45563398  0.023878936            0   0.43175504    1.6258232    2.0814572    3.7760583 
 9975000    1.0657426 6.2137059e-05    0.4779679  0.036930455            0   0.44103744    1.5852922    2.0632601     4.184205 
 9980000    1.1118586 5.5082763e-05   0.39928484  0.021353496            0   0.37793134    1.6538896    2.0531745    3.9333328 
 9985000    1.0329717 -0.00010215488   0.53403828  0.021529983            0    0.5125083    1.5365454    2.0705837   -1.4163027 
 9990000   0.97286077 -0.00011049781    0.6327651  0.016119484            0   0.61664562    1.4471304    2.0798955   -1.6917631 
 9995000    1.0793196 0.00014207345   0.47621498  0.011604195            0   0.46461078    1.6054879    2.0817029    6.9311433 
10000000     1.085095 2.8034494e-05   0.49119596   0.01257669            0   0.47861927    1.6140788    2.1052748    3.0621855 
10005000     1.034268 -9.1599923e-05   0.55188146  0.025058641            0   0.52682282    1.5384737    2.0903551   -1.0362556 
10010000    1.0305544 -8.5778258e-05    0.5773263   0.01781215            0   0.55951415    1.5329496    2.1102759  -0.81762193 
10015000    1.0950542 -4.7340163e-05   0.48034769  0.018438759            0   0.46190893    1.6288931    2.1092408   0.49336321 
10020000    1.0620407 -3.3497361e-05   0.49411394  0.008741948            0     0.485372    1.5797856    2.0738995   0.93052291 
10025000    1.0590182 9.9431783e-05   0.49485119 0.0028323099            0   0.49201888    1.5752895    2.0701407    5.4640789 
10030000    1.0699099 -4.079207e-05   0.49219773  0.024168452            0   0.46802928     1.591491    2.0836888   0.69131945 
10035000    1.0947446 9.7675427e-06   0.47264468  0.026460686            0   0.44618399    1.6284326    2.1010773    2.4344761 
10040000     1.035542 0.00019008383   0.60349171   0.04109376            0   0.56239795    1.5403687    2.1438604     8.632055 
10045000    1.1451936 -1.681166e-05   0.44087615  0.020943153            0     0.419933    1.7034755    2.1443517    1.5705137 
10050000    1.0499955 -0.00015986387   0.58629179  0.027256051            0   0.55903574    1.5618683    2.1481601   -3.3085267 
10055000    1.1156813 7.5330703e-06   0.50353199  0.051857803            0   0.45167418    1.6595759    2.1631079    2.4202367 
10060000    1.0977946 6.600258e-05   0.50759826  0.027282078            0   0.48031618    1.6329695    2.1405677    4.3934558 
10065000    1.0897565 9.6669199e-05   0.50374379  0.015858606            0   0.48788518    1.6210128    2.1247566    5.4243985 
10070000    1.1152017 9.0274733e-05   0.49170931 0.0075465266            0   0.48416278    1.6588625    2.1505718    5.2319493 
10075000    1.1441068 9.3456986e-05   0.44642294 0.0053151003            0   0.44110784    1.7018589    2.1482819    5.3382803 
10080000    1.1396314 2.9616678e-05   0.45400188 0.0068207446            0   0.44718113    1.6952017    2.1492036    3.1601195 
10085000    1.1747808 -4.6493723e-05    0.4171358   0.01878023            0   0.39835557    1.7474864    2.1646222   0.57763646 
10090000    1.1149674 4.7188414e-05   0.48894418   0.01758687            0   0.47135731     1.658514    2.1474581     3.758156 
10095000    1.0963343 3.3947657e-05   0.50016431  0.035042583            0   0.46512172    1.6307972    2.1309616    3.2897083 
10100000    1.1248643 5.900842e-05   0.44205161  0.038443322            0   0.40360829    1.6732356    2.1152873    4.1294413 
10105000    1.0898876 5.9721368e-06   0.50332386  0.031164896            0   0.47215897    1.6212078    2.1245317    2.3283806 
10110000    1.1018001 7.4480448e-06   0.46961065 0.0092331083            0   0.46037754    1.6389277    2.1085383    2.3627649 
10115000    1.0457684 0.00015226158    0.5471761  0.029033441            0   0.51814266    1.5555805    2.1027566    7.2999518 
10120000    1.0879975 1.2281294e-05   0.49468716   0.02210666            0    0.4725805    1.6183963    2.1130835     2.532285 
10125000    1.1578584 -1.1528485e-05   0.40443593  0.024169188            0   0.38026674    1.7223143    2.1267503    1.7332446 
10130000    1.0693704 8.3310007e-06   0.55086713  0.042617531            0    0.5082496    1.5906885    2.1415556    2.4259205 
10135000    1.0361302 -2.1349554e-05   0.58929829  0.050209188            0    0.5390891    1.5412436    2.1305419    1.4018105 
10140000    1.0546319 -7.2306711e-05   0.55924082  0.021997208            0   0.53724361     1.568765    2.1280058  -0.34006329 
10145000     1.026199 -3.5017488e-05   0.58615546  0.035667864            0    0.5504876     1.526471    2.1126264   0.91736282 
10150000    1.0988089 9.1158409e-06   0.48798325  0.024167784            0   0.46381547    1.6344782    2.1224614    2.4336155 
10155000    1.0534817 -5.2244908e-06   0.55715404  0.022060459            0   0.53509358     1.567054    2.1242081    1.9458788 
10160000    1.0780759 -1.8251717e-05   0.54107958  0.024795669            0   0.51628391    1.6036379    2.1447175    1.5217255 
10165000     1.100061 4.2727288e-05   0.50141219  0.026808539            0   0.47460365    1.6363408     2.137753    3.5961777 
10170000    1.0788179 0.00014263861   0.50478849  0.020107899            0   0.48468059    1.6047416    2.1095301    6.9782615 
10175000    1.0853592 8.9282853e-05   0.48250424  0.017177388            0   0.46532685    1.6144718     2.096976    5.1444974 
10180000    1.1109702 -1.6278269e-05   0.45651012  0.011276215            0   0.44523391    1.6525681    2.1090782    1.5534466 
10185000    1.1145886  5.76764e-05   0.44323301  0.017481488            0   0.42575152    1.6579505    2.1011835    4.0698713 
10190000     1.037738 1.5286165e-06   0.55464841  0.016814263            0   0.53783414    1.5436353    2.0982837    2.1504605 
10195000    1.0251879 -0.00013054367   0.57622361  0.020482679            0   0.55574093     1.524967    2.1011906      -2.3547 
10200000    1.0167005 -5.1354615e-05   0.55867455  0.034718265            0   0.52395628     1.512342    2.0710166    0.3181124 
10205000     1.078993 0.00014065094   0.41802375  0.017166534            0   0.40085721    1.6050021    2.0230259    6.8239112 
10210000    1.0362991 -4.0749842e-05   0.45389629   0.03474443            0   0.41915186    1.5414949    1.9953911   0.60446319 
10215000    1.0086311 -0.00021464804   0.49390529  0.037723569            0   0.45618172    1.5003388    1.9942441   -5.3324091 
10220000    1.0238894 -0.0001051593   0.48232808  0.011354502            0   0.47097358    1.5230355    2.0053636   -1.5840739 
10225000     1.050946 -7.6477514e-05   0.43073452  0.010559001            0   0.42017552    1.5632821    1.9940166  -0.61641585 
10230000    1.0458152 7.639095e-05   0.42233186 0.0081708636            0     0.414161    1.5556501    1.9779819    4.5854597 
10235000     1.014054 7.7086311e-05   0.47311191 0.0032328892            0   0.46987902    1.5084053    1.9815172      4.61273 
10240000    1.0020867 -9.3768053e-05   0.47490142  0.017020625            0    0.4578808    1.4906039    1.9655054   -1.2351109 
10245000    1.0092256 -7.4633948e-05   0.46706063  0.025136932            0    0.4419237     1.501223    1.9682837  -0.57922175 
10250000   0.94307513 -1.9003882e-05   0.56295605  0.048834607            0   0.51412145    1.4028243    1.9657803    1.3171145 
10255000    1.0476254 -6.8496464e-05    0.4197422   0.03188131            0   0.38786089    1.5583428     1.978085  -0.35992769 
10260000   0.94498798 -0.00013720612   0.56014424  0.045995301            0   0.51414894    1.4056696    1.9658139   -2.7174885 
10265000    1.0009496 -3.7522943e-05   0.48921576  0.019961442            0   0.46925432    1.4889125    1.9781283   0.69734512 
10270000   0.99223332 3.3059308e-05   0.48918798  0.064018641            0   0.42516934    1.4759471     1.965135    3.0935594 
10275000    0.9861554 9.6216575e-06   0.50775624  0.025560294            0   0.48219595    1.4669062    1.9746624    2.3030816 
10280000   0.99556321 -2.9227184e-06   0.48133357  0.029169228            0   0.45216434    1.4809003    1.9622338    1.8624717 
10285000   0.93806672 -8.6754492e-05   0.57474152  0.064240177            0   0.51050134    1.3953742    1.9701158  -0.99110423 
10290000   0.94491088 -2.0122836e-05   0.56192804  0.047714012            0   0.51421403    1.4055549     1.967483    1.2806235 
10295000   0.99521161 -1.654004e-05   0.49483537  0.029885321            0   0.46495005    1.4803773    1.9752126     1.410646 
10300000   0.97549741 -1.535024e-05   0.52132615   0.02689183            0   0.49443432    1.4510524    1.9723785    1.4484237 
10305000    1.0286166 -4.5877315e-05    0.4677077  0.011114188            0   0.45659351    1.5300672    1.9977749   0.43182916 
10310000   0.94797227 -4.2683714e-05   0.55001607  0.013794618            0   0.53622145    1.4101088    1.9601248    0.5031874 
10315000    1.0084714 1.3241302e-05   0.45370446  0.024705752            0   0.42899871    1.5001012    1.9538057    2.4057755 
10320000    1.0327583 3.7243267e-05   0.41546556  0.042852921            0   0.37261264    1.5362279    1.9516935    3.2229304 
10325000   0.93970102 9.9714829e-05   0.54129976  0.038436547            0   0.50286321    1.3978053     1.939105    5.3427045 
10330000   0.97919502 0.0001268142   0.50317204   0.02984534            0    0.4733267    1.4565526    1.9597246     6.288316 
10335000   0.95880134 2.3794582e-05   0.54082207  0.025850397            0   0.51497167     1.426217    1.9670391    2.7792274 
10340000    0.9482183 -3.5550543e-06   0.54817477  0.050872235            0   0.49730253    1.4104747    1.9586495    1.8373036 
10345000   0.99005622 4.0390409e-05   0.49161836  0.022949627            0   0.46866874    1.4727086     1.964327    3.3429863 
10350000   0.99607955 5.1845826e-05   0.50087059  0.028238052            0   0.47263254    1.4816683    1.9825389    3.7522098 
10355000    1.0392522 0.00011395617   0.44339722  0.022370964            0   0.42102625    1.5458876    1.9892849    5.8789888 
10360000    0.9639105 8.3257133e-05   0.54343535 0.0050242014            0   0.53841115    1.4338169    1.9772522    4.8190957 
10365000   0.93135966 -0.00015469379   0.60444789 0.0046803406            0   0.59976755    1.3853975    1.9898454   -3.2903694 
10370000    1.0576112 -8.5782925e-05   0.42740752  0.022844296            0   0.40456322    1.5731967    2.0006042  -0.92745291 
10375000   0.92848038 0.00012109965   0.59567504  0.020527313            0   0.57514773    1.3811146    1.9767896    6.1103243 
10380000   0.96376112 -3.2144006e-05    0.5561604  0.023232551            0   0.53292785    1.4335947    1.9897551   0.89257298 
10385000   0.98214471 -3.7524184e-05    0.5465399  0.022740818            0   0.52379908    1.4609402    2.0074801   0.72665468 
10390000    1.0376352 7.9903342e-05   0.46007947  0.014870497            0   0.44520897    1.5434824    2.0035618    4.7309293 
10395000    1.0128168 4.7880154e-05   0.52289235  0.009694948            0    0.5131974     1.506565    2.0294573    3.6637665 
10400000   0.98937211 -7.312766e-05   0.58112642  0.011593955            0   0.56953247     1.471691    2.0528174  -0.44327338 
10405000    1.0002505 3.3943883e-05   0.56033335  0.020410901            0   0.53992245    1.4878726    2.0482059    3.2068238 
10410000    1.0232875 -7.3949706e-05   0.53784951  0.010772079            0   0.52707743    1.5221402    2.0599897  -0.46416024 
10415000   0.96531261 -0.00023287561   0.60391722  0.010003733            0   0.59391348    1.4359025    2.0398197   -5.9090011 
10420000    1.0494683 -0.00012437231   0.48228189  0.010956565            0   0.47132533    1.5610842     2.043366   -2.2018756 
10425000   0.99455827 6.8969074e-05   0.56895323 0.0065187414            0   0.56243449    1.4794054    2.0483587    4.4025031 
10430000   0.97711483 4.8964442e-06   0.60342504  0.010363247            0   0.59306179    1.4534583    2.0568833    2.2240153 
10435000    1.0269285 -0.00013883831    0.5264584  0.018626237            0   0.50783217    1.5275561    2.0540146   -2.6849997 
10440000    1.0525843 -0.00011970923   0.52370898  0.021244204            0   0.50246477    1.5657191     2.089428   -1.9966469 
10445000   0.99027658 -1.0443513e-05   0.61326893   0.01578872            0   0.59748021    1.4730364    2.0863054    1.7298334 
10450000    1.0923837 -1.3038638e-06   0.45841821    0.0167192            0   0.44169901    1.6249207    2.0833389    2.0388337 
10455000    1.0786851 -0.00012425202   0.51282541 0.0029637672            0   0.50986164     1.604544    2.1173694   -2.1237663 
10460000    1.0840269 -0.00016155404   0.52251232 0.0041456071            0   0.51836671      1.61249    2.1350023   -3.3793756 
10465000    1.0491477 1.5570366e-05   0.56685231 0.00097887951            0   0.56587343    1.5606072    2.1274595     2.658928 
10470000    1.0972433 -7.5677268e-06   0.49477361 0.00075262739            0   0.49402098    1.6321493    2.1269229    1.8686112 
10475000    1.0173467 -7.8992237e-05    0.6306188  0.010377869            0   0.62024093    1.5133032     2.143922  -0.55234639 
10480000    1.0858317 7.5299266e-05   0.54847889  0.029336222            0   0.51914267    1.6151747    2.1636536    4.7338685 
10485000     1.115782 -3.6548902e-05   0.51136443  0.032394023            0   0.47897041    1.6597257    2.1710902    0.9235543 
10490000    1.0182556 5.9476061e-05   0.63868888  0.023726807            0   0.61496207    1.5146551     2.153344    4.1834602 
10495000    1.1057736 -0.00019521351   0.52115887  0.036089478            0   0.48506939    1.6448382    2.1659971   -4.4972906 
10500000    1.1090945 -5.2871442e-05     0.535317  0.016167437            0   0.51914956    1.6497781    2.1850951   0.38041656 
10505000    1.1254167 0.00013757713   0.50958065  0.038421785            0   0.47115886    1.6740573     2.183638    6.8796041 
10510000    1.0712893 5.1739109e-05   0.59928951  0.031856133            0   0.56743338    1.5935428    2.1928323    3.9588606 
10515000    1.1111699 7.3836283e-05   0.51479614  0.014059683            0   0.50073645    1.6528652    2.1676614    4.6879398 
10520000    1.0976677 3.7650966e-05   0.56127107  0.032406279            0   0.52886479    1.6327807    2.1940518    3.4792048 
10525000    1.0235997 3.7757735e-06   0.65964938  0.037062797            0   0.62258658    1.5226045    2.1822539    2.3111336 
10530000    1.1055548 7.6511971e-06   0.54957225  0.040321772            0   0.50925048    1.6445127     2.194085    2.4552459 
10535000    1.1007913 -7.4912153e-05   0.54533026  0.018075879            0   0.52725438    1.6374271    2.1827573  -0.37424413 
10540000     1.105172 -9.342264e-05   0.55247953 0.0010586942            0   0.55142084    1.6439434     2.196423  -0.99240317 
10545000    1.1492928 6.3854284e-05   0.49224651  0.016293412            0   0.47595309     1.709573    2.2018195    4.3813791 
10550000    1.1346596 0.00013966699   0.50552194  0.031138486            0   0.47438345    1.6878062    2.1933282    6.9606281 
10555000     1.077145 5.4732932e-06   0.56916973  0.013043009            0   0.55612672    1.6022531    2.1714228    2.3582446 
10560000    1.0632901 -0.00012235155   0.56835622  0.010847122            0   0.55750909     1.581644    2.1500002   -2.0262661 
10565000    1.0596766 -7.9590687e-05   0.55544019  0.027208673            0   0.52823152    1.5762689    2.1317091  -0.58498638 
10570000    1.1051902 5.0789973e-05   0.48784044  0.020969957            0   0.46687048    1.6439704    2.1318108    3.8654419 
10575000    1.1711315 3.2436428e-05   0.40430071 0.0099150371            0   0.39438567    1.7420581    2.1463588    3.2535223 
10580000      1.06597 -3.8097412e-05   0.56919169  0.045388308            0   0.52380339    1.5856304    2.1548221   0.85443039 
10585000    1.0708701 -6.4584444e-06   0.58493746  0.018732151            0   0.56620531    1.5929192    2.1778567    1.9574084 
10590000    1.0808457 1.7035386e-05   0.60136337  0.044514678            0   0.55684869     1.607758    2.2091213    2.7905959 
10595000    1.0474274 1.115757e-05   0.61705766   0.05333853            0   0.56371913    1.5580483    2.1751059     2.555951 
10600000    1.1085427 -8.0595656e-05   0.50114854  0.014925164            0   0.48622338    1.6489573    2.1501058  -0.60089254 
10605000     1.124412 -7.5810227e-05    0.4728381 0.0039752832            0   0.46886282    1.6725629     2.145401  -0.44225477 
10610000    1.0892669 1.4581969e-05   0.51745031 0.0057736653            0   0.51167665    1.6202846    2.1377349    2.6354661 
10615000    1.1004496 3.443518e-05    0.5134252 0.0042016313            0   0.50922357    1.6369187    2.1503439    3.3257314 
10620000    1.1105349 0.00015089147   0.49040929 0.0039641466            0   0.48644514    1.6519207      2.14233    7.2927588 
10625000    1.1088117 0.00010112633   0.50487377 0.0078883304            0   0.49698544    1.6493574    2.1542312      5.60601 
10630000    1.0459605 3.4215718e-05    0.6100508  0.015557773            0   0.59449302    1.5558663    2.1659171    3.3338136 
10635000    1.0787805 0.00019872995   0.58182958  0.024768886            0   0.55706069     1.604686    2.1865156    8.9698313 
10640000    1.0430415 0.00013457923   0.64549603  0.017106172            0   0.62838986    1.5515243    2.1970203     6.790658 
10645000    1.1412055 5.6937427e-07   0.51285072  0.020220432            0   0.49263028    1.6975433     2.210394    2.2298286 
10650000    1.1273574 -1.3743014e-05   0.55559701 0.0084856228            0   0.54711139    1.6769442    2.2325412    1.7634463 
10655000    1.1760323 -1.9905919e-06   0.50777826 0.0051788315            0   0.50259943    1.7493481    2.2571263    2.1891808 
10660000     1.133884 1.1479622e-05   0.58578352  0.017167447            0   0.56861607    1.6866525     2.272436    2.6642738 
10665000    1.2068812 -0.00010652776   0.47366173  0.023478478            0   0.45018325    1.7952358    2.2688975     -1.36725 
10670000    1.1091251 -0.00010971076   0.61706832  0.024988198            0   0.59208012    1.6498235    2.2668919   -1.4779019 
10675000    1.1614626 0.00016195914   0.52820239  0.063172686            0    0.4650297    1.7276756     2.255878    7.7840833 
10680000    1.1801349 -4.0962852e-05   0.49899556  0.021948579            0   0.47704698    1.7554507    2.2544463   0.85624757 
10685000    1.0841215 2.4794609e-05   0.64343098  0.034053243            0   0.60937773    1.6126307    2.2560617    3.1023843 
10690000     1.161911 8.6694047e-05    0.4996919  0.013236513            0   0.48645539    1.7283426    2.2280345    5.1871913 
10695000    1.1839813 2.6448334e-05   0.46959168  0.010017545            0   0.45957413    1.7611723    2.2307639    3.1335337 
10700000    1.0738945 -9.4472843e-05   0.62856909  0.012271306            0   0.61629778    1.5974181    2.2259872  -0.99868585 
10705000    1.1161611 4.2106846e-05   0.55691129 0.0069012997            0   0.55000999    1.6602897     2.217201     3.654448 
10710000    1.1201993 5.5023273e-05   0.53189034  0.029301736            0    0.5025886    1.6662964    2.1981867    4.0763144 
10715000    1.0971139 3.5511136e-05   0.54469305  0.019542042            0   0.52515101    1.6319569    2.1766499    3.3887634 
10720000    1.1378814 0.00011656391   0.48928755 0.0080119934            0   0.48127556    1.6925987    2.1818862     6.160601 
10725000    1.1471123 6.7102301e-06   0.47518258  0.016956151            0   0.45822642    1.7063296    2.1815122    2.4105547 
10730000    1.0728206 1.8029095e-05   0.59517223   0.01089977            0   0.58427246    1.5958206    2.1909929     2.806386 
10735000    1.0923746 -0.00011519803   0.56789107    0.0143144            0   0.55357667    1.6249072    2.1927983   -1.7392944 
10740000    1.1366672 3.1861574e-05    0.5001561  0.012887155            0   0.48726894    1.6907925    2.1909486    3.2784903 
10745000    1.0914033 2.1761505e-05   0.55896465 0.0037822176            0   0.55518244    1.6234624    2.1824271    2.9252198 
10750000    1.1442798 -6.6227157e-05   0.50378396 0.00030390872            0   0.50348005    1.7021162    2.2059001 -0.054653483 
10755000    1.1272155 3.0799955e-05   0.51663582 0.0030666805            0   0.51356914     1.676733    2.1933689     3.244674 
10760000    1.1182606 -0.00014609798   0.54011145 0.0055132705            0   0.53459818    1.6634127    2.2035241    -2.783287 
10765000    1.1297437 -7.7204083e-05   0.50102176 0.0046406994            0   0.49638106    1.6804937    2.1815155  -0.45371726 
10770000    1.0970766 -1.8962187e-05   0.55341202  0.009889115            0    0.5435229    1.6319014    2.1853134    1.5380708 
10775000    1.0772301 -1.5699539e-05   0.62018424  0.014079969            0   0.60610427    1.6023797     2.222564    1.6866864 
10780000     1.129021 -3.9704458e-05   0.54159972 0.0064766972            0   0.53512302    1.6794188    2.2210185   0.86577303 
10785000    1.1208657 -0.00015212214    0.5234142  0.016205305            0   0.50720889    1.6672878     2.190702   -3.0017336 
10790000     1.118833 -5.3046731e-05   0.52265699  0.021819374            0   0.50083762    1.6642641    2.1869211   0.37625928 
10795000    1.1245813 4.0236204e-05   0.50653686 0.0050816766            0   0.50145518    1.6728147    2.1793516    3.5527473 
10800000    1.1519241 -3.4383559e-05    0.4909644 0.0024129191            0   0.48855148    1.7134871    2.2044515     1.030826 
10805000    1.0820208 -5.7438265e-07   0.59317044 0.0061706578            0   0.58699978     1.609506    2.2026764    2.1830708 
10810000    1.0429095 5.1392342e-05   0.63123624  0.026565179            0   0.60467106    1.5513278    2.1825641     3.936756 
10815000    1.0542626 0.00012714003   0.59783711  0.032112228            0   0.56572488    1.5682156    2.1660527    6.5057657 
10820000    1.1077921 -4.708642e-05   0.53248088  0.017360601            0   0.51512028    1.6478407    2.1803216   0.57310515 
10825000    1.0191667 -0.00014664644    0.6292345  0.022288976            0   0.60694552    1.5160104    2.1452449   -2.8602869 
10830000    1.0355831 -8.9518583e-05   0.59730668 0.0067098046            0   0.59059688    1.5404298    2.1377365  -0.91783112 
10835000    1.0326946 -5.2121289e-05   0.60986389 0.0074039979            0    0.6024599    1.5361332     2.145997   0.36692372 
10840000    1.0820094 -1.2791959e-05    0.5567928  0.029439587            0   0.52735321     1.609489    2.1662818    1.7296496 
10845000    1.0318593 -9.2400315e-05   0.62063868  0.040115008            0   0.58052367    1.5348907    2.1555294   -0.9984014 
10850000    1.0436452 -0.00018129071   0.60244039  0.020992153            0   0.58144824    1.5524222    2.1548626   -4.0331936 
10855000    1.1645565 -4.6671785e-05   0.41188687  0.015495703            0   0.39639117    1.7322777    2.1441646   0.55110098 
10860000    1.0794924 0.00019719731   0.53447456  0.037766394            0   0.49670817     1.605745    2.1402195    8.8712209 
10865000    1.0196027 0.00016551835   0.61786332  0.015177823            0    0.6026855     1.516659    2.1345224    7.7842154 
10870000    1.0833725 3.0124759e-05   0.53663032  0.012996469            0   0.52363385    1.6115166    2.1481469    3.1764053 
10875000    1.1237788 -7.9822906e-05   0.46573436     0.021584            0   0.44415036     1.671621    2.1373554   -0.5872665 
10880000    1.0579038 -0.00010109273   0.54925025  0.022425664            0   0.52682458     1.573632    2.1228822   -1.3277496 
10885000    1.0072235 7.4855022e-05   0.61408551  0.045058012            0    0.5690275     1.498245    2.1123305     4.667382 
10890000   0.96614028 4.2461737e-05   0.66774533  0.047334685            0   0.62041064    1.4371337     2.104879    3.5542396 
10895000    1.0317885 9.7288855e-06   0.58068454  0.014681639            0    0.5660029    1.5347854    2.1154699    2.4475492 
10900000     1.060816 5.0221451e-05   0.54956845  0.025004256            0   0.52456419    1.5779638    2.1275322    3.8417577 
10905000    1.0686665 -9.9275937e-05    0.5253822  0.017601567            0   0.50778064    1.5896414    2.1150236    -1.273595 
10910000    1.0795593 -8.4833026e-06   0.50585933  0.014976458            0   0.49088287    1.6058444    2.1117037    1.8221403 
10915000    1.0003524 -3.3439309e-05   0.62459315  0.016918895            0   0.60767426    1.4880241    2.1126173   0.97122219 
10920000    1.0564077 0.00019314005   0.53180174  0.016506098            0   0.51529564    1.5714065    2.1032082    8.6957221 
10925000    1.0313787 0.00021956544   0.56358659  0.033674152            0   0.52991244    1.5341758    2.0977624    9.5922627 
10930000    1.0846251 7.0946178e-05   0.46897438  0.020657356            0   0.44831702    1.6133798    2.0823542    4.5039838 
10935000    1.0529978 8.9949267e-05   0.48794137  0.018613828            0   0.46932754    1.5663342    2.0542755    5.1245439 
10940000    1.0222039 0.00020264844   0.53470431  0.011673662            0   0.52303065    1.5205283    2.0552326    8.9722993 
10945000    1.0255511 0.00016246928   0.53898771  0.014575119            0    0.5244126    1.5255072     2.064495    7.6101132 
10950000   0.97152108 -8.0166597e-05   0.60706917  0.058150302            0   0.54891887    1.4451376    2.0522068  -0.68414638 
10955000    1.0273705 -0.00013250991   0.51883446  0.023281709            0   0.49555275    1.5282137    2.0470482   -2.4759568 
10960000    1.0873497 -6.1423379e-05   0.43197664 0.0052554659            0   0.42672117    1.6174327    2.0494094 -0.047175328 
10965000    1.0671736 2.3297961e-05   0.46352849 0.0061755476            0   0.45735294    1.5874207    2.0509492    2.8461863 
10970000    1.0465477 -4.9602702e-05   0.50105514 0.0084693105            0   0.49258583    1.5567397    2.0577949   0.36468929 
10975000    1.0505623 4.1494341e-05   0.51399614  0.012365447            0   0.50163069    1.5627115    2.0767076    3.4930478 
10980000    1.0958626 -9.2199715e-06   0.44275687 0.0081067003            0   0.43465017    1.6300957    2.0728525    1.7581442 
10985000    1.0405173 6.0927427e-05   0.53559056 0.0068980078            0   0.52869255    1.5477695    2.0833601    4.1630163 
10990000   0.94509552 2.8304341e-05   0.66088084  0.027444579            0   0.63343626    1.4058296    2.0667104    3.0328319 
10995000    1.0733833 4.3668557e-05   0.51880941  0.008650097            0   0.51015931    1.5966576    2.1154671    3.6060205 
11000000    1.1332192 5.3398768e-05   0.44400508 0.0055296948            0   0.43847539    1.6856636    2.1296687    3.9523466 
11005000    1.0198094 -6.6338948e-05   0.56611588   0.01312851            0   0.55298737    1.5169664    2.0830823  -0.18128709 
11010000    1.0578151 5.2121239e-05   0.50000556  0.014426015            0   0.48557954    1.5734999    2.0735055    3.8525771 
11015000    1.0514647 -8.0684697e-05   0.52302207  0.033368585            0   0.48965349    1.5640538    2.0870759  -0.66696182 
11020000    1.0689457 2.3022624e-05    0.4781502  0.036629758            0   0.44152044    1.5900567    2.0682069    2.8540458 
11025000    1.0252726 0.00012785043   0.53259334  0.048914185            0   0.48367916     1.525093    2.0576863    6.4216478 
11030000    1.0387255 -0.00017499054   0.53741837  0.015758737            0   0.52165964    1.5451042    2.0825225    -3.890488 
11035000    1.1037438 9.8667013e-05   0.46609949  0.026911199            0   0.43918829    1.6418189    2.1079184    5.4757524 
11040000   0.99117061 0.00017989499   0.62318339  0.029528745            0   0.59365465    1.4743663    2.0975497    8.2379652 
11045000    1.0803803 -6.6682721e-05   0.48684981  0.016398421            0   0.47045139    1.6070657    2.0939156    -0.182188 
11050000    1.0504546 1.9535864e-06   0.51691421   0.01790503            0   0.49900918    1.5625512    2.0794655    2.1461479 
11055000    1.1058745 -6.7150758e-06    0.4724335  0.021641002            0    0.4507925    1.6449884    2.1174219     1.888214 
11060000    1.0151801 -8.7287645e-05    0.5766013  0.027195423            0   0.54940587    1.5100804    2.0866817  -0.89273658 
11065000    1.0299524 0.00010160469    0.5581787  0.038242082            0   0.51993661    1.5320542    2.0902329    5.5583398 
11070000    1.0905303 -9.2292135e-06    0.4858871  0.032502907            0    0.4533842    1.6221639     2.108051    1.7930272 
11075000     1.092395 -1.8402167e-05   0.48271238  0.031713041            0   0.45099934    1.6249376      2.10765    1.4795227 
11080000   0.99043752 0.00019806487   0.62885778   0.02136056            0   0.60749722    1.4732758    2.1021336    8.8627477 
11085000    1.0737484 7.4717049e-05   0.53223421  0.040817701            0   0.49141651    1.5972007    2.1294349    4.6797769 
11090000    1.1220691 -6.8797722e-05    0.4620981  0.013471463            0   0.44862664    1.6690778    2.1311759  -0.21711965 
11095000    1.0351312 -2.2574672e-05   0.57995796  0.018197859            0    0.5617601    1.5397577    2.1197157    1.3491668 
11100000    1.0318416 -0.00013814411   0.58346413  0.031801365            0   0.55166276    1.5348644    2.1183285   -2.5969903 
11105000     1.030492 -9.8172769e-05   0.55707455  0.028738244            0    0.5283363    1.5328568    2.0899314   -1.2610325 
11110000    1.0385376 2.1666662e-05   0.53969336  0.025900774            0   0.51379259    1.5448247    2.0845181    2.8240735 
11115000    1.0805442 3.4067873e-05   0.47193809  0.030461168            0   0.44147693    1.6073095    2.0792476    3.2420977 
11120000    1.0576243 3.3664326e-05   0.50641761  0.018719122            0   0.48769849    1.5732161    2.0796337    3.2287094 
11125000    1.0853621 -5.086564e-05   0.47634278  0.012946674            0   0.46339611    1.6144761    2.0908189   0.35460499 
11130000    1.0044462 2.7954987e-05   0.55884406 0.0051813178            0   0.55366274    1.4941137    2.0529578    3.0071547 
11135000   0.98244677 -7.0130086e-05   0.59882742 0.0085612068            0   0.59026621    1.4613896     2.060217  -0.33355661 
11140000    1.0995083 -0.00010978574   0.43122859  0.013320167            0   0.41790843    1.6355186    2.0667472    -1.680606 
11145000   0.99770111 9.577169e-05   0.58976784   0.02353849            0   0.56622935    1.4840804    2.0738482    5.3428553 
11150000    1.0933477 -2.6793072e-05   0.45366237  0.053661424            0   0.40000095    1.6263546     2.080017    1.1654802 
11155000    1.0338841 -0.00013317665    0.5544365  0.019008573            0   0.53542792    1.5379026    2.0923391    -2.453424 
11160000    1.0571707 0.00016475867   0.52332606  0.011841703            0   0.51148435    1.5725414    2.0958675      7.71963 
11165000    1.0647059 0.00015406057   0.52073351  0.016249655            0   0.50448385    1.5837501    2.1044836    7.3630842 
11170000      1.03522 -4.4896414e-05   0.56819943  0.014014503            0   0.55418493    1.5398898    2.1080892   0.57562498 
11175000    1.0723828 -0.00010807577    0.5244777 0.0091017748            0   0.51537593    1.5951694    2.1196471   -1.5693391 
11180000    1.0861386 6.1476775e-05   0.50337322  0.010864469            0   0.49250875    1.6156312    2.1190044    4.2174117 
11185000    1.1169213 1.6230501e-05   0.45837331   0.01621167            0   0.44216164    1.6614204    2.1197937    2.6737948 
11190000    1.0515287 -0.0001106217   0.56266782   0.04271926            0   0.51994856    1.5641489    2.1268167   -1.6490706 
11195000    1.0560042 -6.2244854e-06   0.57425991  0.028746598            0   0.54551331    1.5708062    2.1450661    1.9326037 
11200000    1.1139977 4.4820531e-05    0.4942204  0.012677481            0   0.48154292    1.6570715    2.1512919     3.681166 
11205000     1.096201 0.00011996304   0.51954063 0.0066865194            0   0.51285411    1.6305989    2.1501395    6.2448779 
11210000    1.0477018 -0.00012460677   0.58810641 0.0052809258            0   0.58282548    1.5584564    2.1465628   -2.1066814 
11215000    1.0881885 2.8624328e-05   0.53184371 0.0035223711            0   0.52832134    1.6186804    2.1505241    3.1275678 
11220000       1.0231 1.5956105e-05   0.61380755  0.013401244            0   0.60040631    1.5218613    2.1356689    2.6803039 
11225000    1.0495707 4.1369284e-05   0.58043148  0.024950169            0   0.55548131    1.5612364    2.1416679    3.5537394 
11230000    1.0247413 -7.7260843e-05   0.61820521  0.046127324            0   0.57207788    1.5243027    2.1425079  -0.49466221 
11235000    1.0613735 -0.00013775477   0.57313089  0.017374355            0   0.55575654    1.5787931     2.151924   -2.5501055 
11240000    1.0638514 9.0472598e-05   0.58565245  0.012951434            0   0.57270101     1.582479    2.1681314    5.2562628 
11245000    1.1121204 0.00010808948   0.52511647 0.0021665044            0   0.52294997     1.654279    2.1793955    5.8688498 
11250000    1.1318107 -0.00011409157   0.48507262  0.010157653            0   0.47491497    1.6835685    2.1686411   -1.7256844 
11255000    1.0956433 -0.00013131014   0.54632717  0.017050509            0   0.52927666    1.6297694    2.1760965   -2.3059562 
11260000    1.0920125 3.7716178e-05   0.54175015  0.041178654            0   0.50057149    1.6243686    2.1661188    3.4534976 
11265000     1.039521 6.9308304e-05   0.61820021  0.024790948            0   0.59340926    1.5462874    2.1644876    4.5302111 
11270000    1.0609598 5.5477164e-05   0.58509702  0.019837496            0   0.56525952    1.5781777    2.1632747    4.0568953 
11275000    1.0398355 -5.6306014e-05   0.60032564  0.044826961            0   0.55549868    1.5467553     2.147081   0.22516903 
11280000    1.0581388 -2.7760251e-05   0.55792157  0.032133249            0   0.52578832    1.5739814     2.131903    1.1843531 
11285000    1.0282278 -0.00010123627   0.59719252  0.011262609            0   0.58592991    1.5294889    2.1266814     -1.32885 
11290000    1.0511378 -6.0131996e-05   0.56267755  0.014657624            0   0.54801992    1.5635674     2.126245  0.073739523 
11295000    1.0650852  5.95168e-05   0.52335951  0.011378917            0   0.51198059    1.5843143    2.1076738    4.1391806 
11300000    1.0370291 4.0886557e-05   0.55537819 0.0027247168            0   0.55265347    1.5425808     2.097959    3.4935535 
11305000    1.0592685 -9.8118204e-06   0.51944545 0.0099249699            0   0.50952048    1.5756619    2.0951073    1.7601972 
11310000    1.1056585 -0.00011111434   0.46559415  0.011543627            0   0.45405053     1.644667    2.1102612   -1.6824415 
11315000    1.0428506 1.8515417e-05   0.56896104  0.029425862            0   0.53953517    1.5512403    2.1202014    2.7521943 
11320000    1.0577329 0.00017855702   0.52211888  0.018008038            0   0.50411084    1.5733778    2.0954966    8.1902431 
11325000    1.0344391 0.00016327172   0.54169246 0.0065411008            0   0.53515136    1.5387282    2.0804206    7.6534286 
11330000    1.0298011 -4.6974567e-05   0.52789518  0.037139383            0    0.4907558    1.5318291    2.0597243   0.45632577 
11335000   0.97651602 -0.00022379781   0.61867107  0.036728863            0   0.58194221    1.4525676    2.0712386   -5.5677265 
11340000   0.96667672 -1.9267914e-05   0.60554185   0.02413575            0    0.5814061    1.4379316    2.0434735    1.3857953 
11345000   0.97241733 0.00013225593   0.58808044  0.026635164            0   0.56144528    1.4464708    2.0345512    6.5488868 
11350000    1.0152237 2.8986489e-05   0.51475805  0.013996274            0   0.50076178    1.5101452    2.0249032    3.0143087 
11355000   0.96514701 -3.4366025e-05   0.57381595  0.029459595            0   0.54435635    1.4356562    2.0094721   0.83644515 
11360000    1.0129919 -1.7013119e-05   0.50829202  0.015712732            0   0.49257929    1.5068255    2.0151175    1.4344031 
11365000   0.92623151 -1.2949311e-05   0.63259456 0.0060903014            0   0.62650426    1.3777694    2.0103639    1.5683608 
11370000    1.0386409 4.4787643e-05   0.46854771  0.010595907            0   0.45795181    1.5449784    2.0135261    3.5422777 
11375000   0.93883996 -3.584155e-05   0.60963851  0.014602378            0   0.59503614    1.3965244     2.006163   0.78277137 
11380000    1.0236058 -2.4219721e-05    0.5069279  0.033914562            0   0.47301334    1.5226136    2.0295415    1.2028417 
11385000   0.97875748 -4.9563833e-05   0.54778306  0.025701123            0   0.52208194    1.4559018    2.0036848   0.31190599 
11390000   0.98032925 -3.5956869e-05   0.51475526  0.036707321            0   0.47804794    1.4582398     1.972995   0.74566721 
11395000   0.96026037 -1.8294302e-05   0.52153915  0.018828595            0   0.50271055    1.4283873    1.9499264    1.3254809 
11400000   0.89273262 -6.2312209e-05   0.60403158  0.027870876            0    0.5761607    1.3279398    1.9319713  -0.19495205 
11405000   0.99673029 -7.7479255e-05   0.46266636  0.022200334            0   0.44046602    1.4826363    1.9453027  -0.69932258 
11410000    0.9500829 -3.6666831e-05   0.54107939 0.0050929736            0   0.53598642    1.4132483    1.9543277   0.70276654 
11415000    1.0347426 5.3465128e-05   0.42182335 0.0036290563            0    0.4181943    1.5391796    1.9610029     3.785946 
11420000   0.96342934 -6.5337546e-05   0.53734602 0.0072642589            0   0.53008176    1.4331011    1.9704472  -0.25974107 
11425000   0.99892269 -0.00016010606   0.49868671  0.010958274            0   0.48772843    1.4858975    1.9845842   -3.4803693 
11430000    1.0095732 0.00011252357   0.51744713  0.032910334            0   0.48453679    1.5017401    2.0191872    5.8599919 
11435000    1.0344542 8.326355e-05   0.52439508  0.037358137            0   0.48703694    1.5387506    2.0631456    4.9052081 
11440000    1.0388705 4.689291e-07   0.50424187  0.028154321            0   0.47608755    1.5453198    2.0495617    2.0655678 
11445000    1.0545354 8.9162249e-05   0.50802996  0.024378451            0   0.48365151    1.5686214    2.0766513    5.1200561 
11450000    1.0030609 2.6378768e-05   0.56956486  0.003715416            0   0.56584944    1.4920531    2.0616179    2.9620132 
11455000    1.0752487 2.2929673e-05   0.47053214 0.0083951017            0   0.46213704    1.5994324    2.0699645    2.8526307 
11460000    1.0191663 1.2074643e-06   0.53055518  0.010998841            0   0.51955634    1.5160099    2.0465651    2.0877799 
11465000    1.0387491 1.5712085e-05   0.50644319 0.0092946415            0   0.49714855    1.5451393    2.0515825    2.5878883 
11470000    1.0051096 3.3638275e-05   0.54495302  0.016049055            0   0.52890396    1.4951005    2.0400535      3.18824 
11475000   0.98100197 9.5863113e-06   0.56806494  0.040979564            0   0.52708537    1.4592404    2.0273054    2.3545181 
11480000   0.98901549 6.3696195e-05   0.57402432  0.042036409            0   0.53198791    1.4711605    2.0451849    4.2193483 
11485000     1.036553 5.3015458e-05   0.51746396 0.0078718471            0   0.50959211    1.5418726    2.0593366    3.8689309 
11490000   0.99514395 7.636048e-05   0.57361228   0.01764758            0    0.5559647    1.4802766    2.0538889    4.6603266 
11495000    1.0495896 2.0348528e-05   0.48938475  0.043337765            0   0.44604698    1.5612645    2.0506493    2.7452123 
11500000    1.0660001 -3.3763941e-05   0.49069047   0.01986631            0   0.47082416    1.5856751    2.0763656   0.92388974 
11505000    1.0085599 2.012719e-05   0.55679654  0.019245765            0   0.53755078    1.5002329    2.0570294    2.7440375 
11510000    1.0603554 -2.9999649e-05   0.47558286  0.015439646            0   0.46014322    1.5772786    2.0528615    1.0288735 
11515000    1.0867739 6.8084263e-06   0.44934868  0.017837437            0   0.43151124    1.6165761    2.0659248    2.2983191 
11520000    1.0712396 -3.1261716e-05   0.46662247  0.019810442            0   0.44681203    1.5934689    2.0600914    0.9930248 
11525000    1.0529571 -7.7525846e-05   0.52370366  0.013635737            0   0.51006793    1.5662737    2.0899774  -0.55623813 
11530000    1.0534259 -2.4500001e-05   0.53117568  0.002700087            0    0.5284756    1.5669711    2.0981468    1.2618801 
11535000    1.0271784 -2.2139295e-05   0.56463811   0.01152519            0   0.55311292    1.5279279     2.092566    1.3368781 
11540000    1.1249216 0.00015656693   0.42572354  0.039798506            0   0.38592503    1.6733209    2.0990445    7.4431958 
11545000    1.0674899 9.4011451e-05   0.51796171 0.0060914287            0   0.51187028    1.5878912    2.1058529    5.3147771 
11550000    1.0405248 -2.5964695e-05   0.57418542 0.0038597197            0    0.5703257    1.5477807    2.1219661    1.2357045 
11555000    1.0766562 0.00010731115   0.51312244  0.009973466            0   0.50314898    1.6015261    2.1146485    5.7775359 
11560000    1.1142409 7.6455435e-05   0.49835176  0.017008041            0   0.48134372    1.6574333     2.155785    4.7654639 
11565000    1.1063137 2.722942e-06   0.47658801  0.015685823            0   0.46090219    1.6456416    2.1222297    2.2151727 
11570000    1.0546572 0.00015540963   0.56813288  0.025383774            0   0.54274911    1.5688025    2.1369354     7.441584 
11575000    1.0191479 -3.8995404e-05    0.5951787   0.04580358            0   0.54937512    1.5159825    2.1111612    0.7801181 
11580000    1.0736871 1.225325e-05    0.5060971  0.023488609            0   0.48260849    1.5971096    2.1032067    2.5214509 
11585000   0.99185036 7.7013546e-05   0.58930613  0.019503409            0   0.56980272    1.4753774    2.0646835    4.6934126 
11590000    1.0109186 -8.5181808e-05   0.57023574  0.028990795            0   0.54124494    1.5037415    2.0739772  -0.83356185 
11595000   0.98539399 7.1334701e-05   0.58421761  0.041178958            0   0.54303865    1.4657736    2.0499912    4.4848823 
11600000   0.92687639 8.8942999e-05   0.68272962   0.08593171            0   0.59679791    1.3787286    2.0614583    5.0973793 
11605000      1.01911 -1.4537829e-05   0.54995729   0.10885297            0   0.44110433    1.5159261    2.0658834    1.5696589 
11610000    1.0415382 0.00014704907   0.53968527  0.033051516            0   0.50663375    1.5492881    2.0889734    7.1082484 
11615000     1.062114 6.1248051e-06   0.53116213  0.016430293            0   0.51473184    1.5798945    2.1110567    2.3201167 
11620000    1.0618178 -0.00017515182   0.51673351  0.014987137            0   0.50174637     1.579454    2.0961875   -3.8823279 
11625000     1.067872 -0.00019002287   0.52227382  0.012071514            0   0.51020231    1.5884596    2.1107334   -4.3753806 
11630000    1.0333058 1.2563104e-05   0.59986576 0.0051074494            0   0.59475832    1.5370423    2.1369081    2.5657287 
11635000    1.1150232 0.00016287542   0.49386161 0.0035798437            0   0.49028176     1.658597    2.1524586    7.7119397 
11640000    1.0858543 7.3386017e-05   0.53937557 0.0056119691            0   0.53376361    1.6152083    2.1545839    4.6594932 
11645000    1.0334956 -6.0332511e-06   0.61034379  0.018430817            0   0.59191298    1.5373248    2.1476686    1.9417336 
11650000    1.0921417 -3.5220726e-05   0.53561525   0.02131427            0   0.51430098    1.6245608    2.1601761   0.95797528 
11655000    1.0213877 -5.0432502e-05   0.63896389  0.027253436            0   0.61171046    1.5193143    2.1582782   0.43684877 
11660000    1.1044103 0.00010384202   0.50512087  0.037087146            0   0.46803372    1.6428104    2.1479313    5.6924055 
11665000    1.0641556 -1.5913438e-05   0.56973832  0.034203139            0   0.53553518    1.5829315    2.1526699    1.6094912 
11670000    1.0832656 -8.2482781e-05   0.53385724  0.019816074            0   0.51404117    1.6113575    2.1452148  -0.67019748 
11675000    1.0894635 -1.3845402e-05   0.50386996   0.03420142            0   0.46966854    1.6205769    2.1244469    1.6518572 
11680000    1.0164216 1.5508312e-05   0.61335703   0.03309925            0   0.58025778    1.5119271    2.1252841    2.6546345 
11685000    1.0271045 5.5190131e-05   0.61200586  0.025964414            0   0.58604144    1.5278179    2.1398238    4.0236469 
11690000   0.99679828 -2.0828549e-05   0.61846123  0.020378945            0   0.59808228    1.4827374    2.1011987    1.3902509 
11695000    1.1121604 6.3472901e-05   0.45518958  0.023289315            0   0.43190026    1.6543386    2.1095282    4.2760699 
11700000   0.97461782 -8.2804062e-05   0.65614977  0.037375703            0   0.61877407     1.449744    2.1058938  -0.72048487 
11705000   0.99178191 -9.2846235e-06   0.64181762  0.034744392            0   0.60707323    1.4752756    2.1170932    1.8001781 
11710000    1.0452601 -3.3711763e-05   0.53979666  0.015984525            0   0.52381214    1.5548244    2.0946211   0.94392625 
11715000    1.0812019 9.9218052e-05   0.48069467  0.023652214            0   0.45704246    1.6082879    2.0889825    5.4756254 
11720000    1.0335438 0.00012249927   0.56221158  0.047695873            0   0.51451571    1.5373964     2.099608    6.2809164 
11725000    1.0338368 9.4191879e-05   0.58879086  0.028585494            0   0.56020537    1.5378323    2.1266231     5.341706 
11730000    1.0284584 -6.9145214e-05   0.61493545  0.035364814            0   0.57957064    1.5298318    2.1447673  -0.21538935 
11735000    1.0433379 -2.6956821e-05   0.60669529  0.055056251            0   0.55163904    1.5519651    2.1586604    1.2385342 
11740000    1.0670591 8.850017e-05   0.56215765  0.023306153            0    0.5388515    1.5872504     2.149408    5.1702139 
11745000    1.0614644 -1.4043567e-05   0.56530257  0.023490268            0    0.5418123    1.5789283    2.1442309    1.6648771 
11750000    1.0918326 -0.00021639261   0.51421643  0.022180978            0   0.49203546     1.624101    2.1383175   -5.2478837 
11755000    1.0167645 -5.345045e-05   0.60164002   0.01366316            0   0.58797686    1.5124372    2.1140773   0.28963526 
11760000    1.0278059 6.8588228e-05   0.59891751  0.018571099            0   0.58034641    1.5288613    2.1277788    4.4689237 
11765000    1.0846239 8.5792095e-06    0.5518502   0.03189286            0   0.51995734     1.613378    2.1652282    2.4580652 
11770000    1.0695016 -1.0252224e-05   0.57848409  0.040164642            0   0.53831945    1.5908836    2.1693677    1.8194251 
11775000    1.1047583 -1.7862322e-05   0.53399182 0.0088856465            0   0.52510617    1.6433279    2.1773197    1.5676191 
11780000    1.0990344 5.0821779e-05   0.54854018 0.0071245795            0    0.5414156    1.6348137    2.1833538    3.9180706 
11785000    1.0877583 -9.333069e-05   0.57960024  0.010001696            0   0.56959854    1.6180405    2.1976407  -0.98804681 
11790000    1.1469801 -0.00010916488   0.48971762  0.013147535            0   0.47657008     1.706133    2.1958506   -1.5303106 
11795000    1.0399938 -0.00016415256   0.67358934   0.02444648            0   0.64914286    1.5469907      2.22058   -3.3824942 
11800000    1.0871255 0.00010115799   0.58397342  0.023288943            0   0.56068448    1.6170992    2.2010726    5.6539321 
11805000    1.1173873 7.5327927e-05   0.52551496  0.024176802            0   0.50133816    1.6621136    2.1876286    4.7588218 
11810000     1.013385 -7.7073592e-05   0.68748604 0.0076869611            0   0.67979908    1.5074102    2.1948962  -0.43588237 
11815000    1.0687052 0.0001490765   0.60396112 0.0043438578            0   0.59961727     1.589699    2.1936601     7.282138 
11820000     1.141116 0.00011100496    0.4851601  0.014714542            0   0.47044555      1.69741    2.1825701    5.9715394 
11825000    1.0531341 0.00014762067   0.59585621   0.02705672            0   0.56879949     1.566537    2.1623932    7.2011788 
11830000    1.0196725 8.7887702e-05   0.63845138  0.030583636            0   0.60786774    1.5167628    2.1552142    5.1551144 
11835000     1.098985 -0.00010704297   0.53039063  0.024413159            0   0.50597747    1.6347402    2.1651308   -1.4886026 
11840000    1.0786929 0.00011203958   0.54398817  0.027263049            0   0.51672512    1.6045557    2.1485439    5.9728282 
11845000    1.0792672 0.00017731975   0.54194604  0.021536427            0   0.52040961      1.60541    2.1473561    8.1998701 
11850000    1.0328511 4.9478352e-05   0.60484286  0.014929128            0   0.58991373     1.536366    2.1412088    3.8300699 
11855000    1.0125508 3.7105642e-06   0.63508371  0.026759459            0   0.60832425    1.5061693     2.141253     2.267907 
11860000    1.0208314 1.9645743e-05   0.64651237   0.03507963            0   0.61143274    1.5184868    2.1649991    2.8355738 
11865000    1.1025272 7.6298349e-05   0.52035376  0.053026429            0   0.46732734    1.6400092     2.160363      4.76468 
11870000    1.0189714 1.3926268e-05   0.63765521    0.0129053            0   0.62474991    1.5157199    2.1533751    2.6287251 
11875000    1.0322446 -0.00018524222   0.61295112  0.016945249            0   0.59600587    1.5354639     2.148415   -4.1745193 
11880000    1.1235324 -2.8812776e-05   0.47863291  0.026211871            0   0.45242104    1.6712544    2.1498873    1.1664113 
11885000    1.0565973 0.00026023772   0.57538911  0.013877323            0   0.56151178    1.5716884    2.1470776    11.029859 
11890000     1.063209 7.3816614e-05   0.57191117  0.013583429            0   0.55832775    1.5815234    2.1534345    4.6730416 
11895000    1.0693873 -3.1694833e-05   0.57917246  0.010866683            0   0.56830578    1.5907136    2.1698861    1.0880358 
11900000    1.1090548 -3.2582951e-05   0.55270241  0.035084826            0   0.51761758    1.6497191    2.2024215    1.0902567 
11905000    1.0443538 -5.3764825e-06   0.65353349  0.011176144            0   0.64235734    1.5534763    2.2070097    2.0234925 
11910000    1.0525302 -3.9320158e-05   0.62400636 0.0040291555            0   0.61997721    1.5656387    2.1896451   0.84751705 
11915000    1.0565873 -2.0421546e-05   0.61041315  0.010652184            0   0.59976097    1.5716736    2.1820867    1.4850313 
11920000    1.0814376 -3.2661578e-05   0.56289804  0.014232846            0    0.5486652    1.6086384    2.1715365     1.056688 
11925000    1.0725108 7.4661294e-05    0.5575925 0.0041971143            0   0.55339538    1.5953599    2.1529524    4.7013912 
11930000    1.0025011 0.00012055935   0.62305539  0.014911872            0   0.60814351    1.4912205    2.1142758    6.2293685 
11935000     1.052601 0.00015472764   0.50527824  0.021336446            0    0.4839418     1.565744    2.0710223    7.3523924 
11940000    0.9945378 -0.00013455927   0.59730046 0.0074502537            0   0.58985021     1.479375    2.0766754   -2.5162811 
11945000    1.1010769 -8.5805525e-05   0.44062837  0.016328524            0   0.42429984    1.6378519    2.0784802  -0.85034833 
11950000    1.0387634 0.00012768721   0.53555437  0.014600834            0   0.52095353    1.5451605    2.0807149    6.4391051 
11955000     1.038641 9.8489419e-05   0.55852246 0.0059767273            0   0.55254573    1.5449784    2.1035009    5.4652731 
11960000    1.0518309 -9.0352642e-05   0.55501551  0.013397834            0   0.54161768    1.5645985     2.119614  -0.96442281 
11965000    1.0582626 -0.00010092194   0.56742703  0.014404193            0   0.55302284    1.5741657    2.1415927   -1.3032094 
11970000    1.0336638 2.7398684e-05   0.61538579  0.030468666            0   0.58491713    1.5375749    2.1529607    3.0881691 
11975000    1.1008188 -8.138253e-05   0.51065676  0.023401188            0   0.48725557     1.637468    2.1481247  -0.62973229 
11980000    1.1020574 -7.7975674e-05    0.5291973  0.015779066            0   0.51341823    1.6393103    2.1685076  -0.49306205 
11985000    1.1255054 -6.0031362e-05   0.48907113  0.011253979            0   0.47781715    1.6741893    2.1632604   0.11418988 
11990000    1.0757527 -9.0526332e-05   0.56652541 0.0075895458            0   0.55893587    1.6001821    2.1667075  -0.92325796 
11995000    1.0517031 -0.00013743197   0.62950448 0.0048745838            0    0.6246299    1.5644083    2.1939128   -2.4970983 
12000000    1.0965271 -1.0025897e-05   0.54933391  0.013311829            0   0.53602209    1.6310841     2.180418    1.8382007 
12005000    1.0997101 -5.8595222e-05   0.57413941  0.015004136            0   0.55913527    1.6358188    2.2099582   0.20990793 
12010000    1.0924023 -7.9593519e-05   0.60720357 0.0099377515            0   0.59726581    1.6249485     2.232152  -0.48464009 
12015000    1.0979208 0.0001547537   0.58349745  0.015975235            0   0.56752221    1.6331571    2.2166546    7.4989143 
12020000    1.1360303 0.00025796118   0.52109714   0.01582391            0   0.50527323    1.6898451    2.2109422    11.016017 
12025000    1.1498263 0.00010177503   0.48456203 0.0063330706            0   0.47822896    1.7103666    2.1949286    5.6688496 
12030000    1.1486728 -4.7859581e-05   0.48517726  0.016489846            0   0.46868742    1.7086508     2.193828     0.560221 
12035000    1.0966808 -5.7096658e-05   0.57211664 0.0086881598            0   0.56342848    1.6313127    2.2034294   0.25453009 
12040000    1.1032012 0.00013750336   0.55586568  0.028116259            0   0.52774942    1.6410117    2.1968774    6.8903255 
12045000    1.1608967 4.5763929e-05   0.48010658  0.028940952            0   0.45116563    1.7268338    2.2069404    3.7690158 
12050000    1.1408145 -1.763939e-05   0.53783393  0.010249761            0   0.52758417    1.6969615    2.2347955    1.6327043 
12055000    1.1761266 8.0131509e-06   0.49548177  0.005960077            0    0.4895217    1.7494884    2.2449701    2.5184857 
12060000    1.1315395 -0.00017097085    0.5546998  0.028712446            0   0.52598736     1.683165    2.2378648   -3.5979401 
12065000    1.1284059 -2.5488773e-05   0.55615991 0.0079331044            0    0.5482268    1.6785038    2.2346637     1.364647 
12070000    1.0928505 -8.9433892e-05   0.58255771  0.015750992            0   0.56680672    1.6256151    2.2081728  -0.84450407 
12075000    1.1354658 1.7519787e-05   0.52899386  0.029633277            0   0.49936058    1.6890053    2.2179992    2.8160079 
12080000    1.1799532 -4.0199736e-05    0.4663715  0.010975408            0    0.4553961    1.7551803    2.2215518   0.84940085 
12085000    1.2008394 -3.6357161e-05   0.46495294  0.014496381            0   0.45045656    1.7862487    2.2512016    1.0102105 
12090000    1.1460974 7.8592538e-05    0.5410852 0.0098952336            0   0.53118997    1.7048198     2.245905    4.9285303 
12095000    1.1602842 -3.6995116e-06   0.50378947  0.012110974            0    0.4916785    1.7259227    2.2297122    2.1034356 
12100000    1.0916638 -8.3520642e-06   0.60342037  0.025320717            0   0.57809965    1.6238499    2.2272703    1.9421865 
12105000    1.0841391 2.363239e-05   0.58056558   0.04806572            0   0.53249986    1.6126569    2.1932224    2.9998747 
12110000    1.1561113 0.00011038797   0.46682537  0.017740794            0   0.44908458    1.7197156     2.186541    5.9544502 
12115000     1.153527 0.00012114523   0.45903703  0.003078569            0   0.45595846    1.7158714    2.1749084    6.3099988 
12120000    1.1181398 4.5975053e-06   0.52261794 0.0068979278            0   0.51572001    1.6632329    2.1858508     2.342779 
12125000     1.103942 -4.858848e-06   0.53376706  0.025615122            0   0.50815194    1.6421137    2.1758808    2.0100321 
12130000    1.1092512 -4.3492621e-05   0.51971784  0.035168904            0   0.48454893    1.6500112     2.169729   0.68518088 
12135000    1.0787244 0.00011954928   0.56098125  0.031188035            0   0.52979322    1.6046025    2.1655838    6.2461992 
12140000    1.1087237 5.3637626e-05   0.49627011  0.033386346            0   0.46288377    1.6492265    2.1454967    3.9763276 
12145000    1.0865756 -0.00011308352   0.51621087  0.026974033            0   0.48923684    1.6162812    2.1324921   -1.7274255 
12150000    1.1059191 4.6246831e-05   0.50274396  0.021817024            0   0.48092694    1.6450547    2.1477986    3.7263571 
12155000    1.1890621 7.5899824e-05   0.39299241  0.011562222            0   0.38143019    1.7687299    2.1617223    4.7524362 
12160000    1.0771401 -5.6614487e-05   0.54932402 0.0079988917            0   0.54132513    1.6022459      2.15157   0.21912882 
12165000    1.1637309 -5.6727279e-07   0.42464062 0.0069379873            0   0.41770264    1.7310497    2.1556903    2.1363274 
12170000    1.1031592 0.0001850568   0.53040782  0.016200837            0   0.51420698    1.6409493    2.1713571    8.4879626 
12175000    1.2004843 -3.52409e-05   0.36748738  0.024427069            0   0.34306031    1.7857204    2.1532077   0.95031835 
12180000     1.072038 -0.00016976122   0.54110803  0.031135199            0   0.50997283    1.5946566    2.1357646   -3.6587516 
12185000    1.1025749 4.2144128e-05   0.51720282  0.033944629            0   0.48325819    1.6400801    2.1572829    3.5958025 
12190000    1.0749631 7.9595073e-05   0.57308362  0.036960744            0   0.53612288    1.5990077    2.1720913    4.8889364 
12195000    1.1533804 0.00011814996   0.47535004   0.01822124            0    0.4571288    1.7156533    2.1910033    6.2238551 
12200000    1.1682123 6.8335402e-05   0.45112325  0.028761831            0   0.42236142    1.7377158     2.188839     4.521354 
12205000    1.1144627 -0.00014176397   0.55163884  0.041955896            0   0.50968294    1.6577633    2.2094021   -2.6294747 
12210000    1.1447959 4.5193079e-05   0.52910597  0.026404689            0   0.50270128     1.702884    2.2319899    3.7745803 
12215000    1.1891622 3.0316042e-05   0.45221633  0.017162921            0   0.43505341    1.7688787    2.2210951    3.2558826 
12220000    1.0961845 -5.5966411e-05   0.56578014  0.019812657            0   0.54596748    1.6305745    2.1963546   0.28603448 
12225000    1.1214904 -6.2832676e-05   0.55134727 0.0083442124            0   0.54300306     1.668217    2.2195642  0.074875557 
12230000    1.1806219 -0.00014212855   0.48617451 0.0087546364            0   0.47741987    1.7561751    2.2423496   -2.6089716 
12235000    1.1802263 -6.3503321e-05   0.45452429  0.017978622            0   0.43654566    1.7555867     2.210111   0.04253093 
12240000    1.1245204 2.2115854e-05   0.52846912   0.03453859            0   0.49393053    1.6727241    2.2011932     2.956081 
12245000     1.172038 -1.3281083e-05   0.47281364  0.017925841            0    0.4548878    1.7434065    2.2162201    1.7628925 
12250000    1.1246978 -6.0065363e-05   0.53096986    0.0032812            0   0.52768866    1.6729879    2.2039578    0.1537267 
12255000    1.0805505 0.00013728244   0.58615201 0.0068114667            0   0.57934054    1.6073189    2.1934709    6.8793784 
12260000    1.1370228 6.1247017e-05   0.51765539 0.0047160557            0   0.51293934    1.6913215    2.2089769    4.2995417 
12265000    1.0999925 -2.7744066e-05   0.57173105 0.0016338134            0   0.57009723    1.6362388    2.2079698    1.2609724 
12270000    1.1167126 -0.00016170319   0.53333691 0.0022120208            0   0.53112489      1.66111    2.1944469   -3.3250219 
12275000     1.143073 -0.0001654696   0.50218447  0.018543423            0   0.48364104    1.7003211    2.2025055   -3.4455235 
12280000    1.0811564 -0.00011676698   0.60624936  0.022744779            0   0.58350458    1.6082201    2.2144695   -1.7711769 
12285000    1.1256176 3.0680828e-05   0.53602647 0.0086183517            0   0.52740812    1.6743562    2.2103827    3.2576216 
12290000     1.164119 1.7538958e-05   0.46857942 0.0039469406            0   0.46463248    1.7316271    2.2002065    2.7988696 
12295000    1.0942803 -3.2056703e-05   0.57637399 0.0040159773            0   0.57235802    1.6277419    2.2041159    1.1099137 
12300000    1.0779233 5.2097991e-06   0.58364898  0.023239859            0   0.56040912    1.6034109    2.1870599    2.3648877 
12305000    1.0725645 6.8345741e-05   0.56034233  0.021298856            0   0.53904348    1.5954397     2.155782      4.48865 
12310000    1.1178979 1.5793029e-05   0.48302014  0.018823827            0   0.46419632    1.6628732    2.1458933    2.6849621 
12315000    1.0860671 -8.362151e-06   0.50033676 0.0051645792            0   0.49517218    1.6155247    2.1158615    1.8304334 
12320000    1.0726708 -3.2746652e-05   0.51347144 0.0011589802            0   0.51231246    1.5955979    2.1090693   0.99131693 
12325000    1.0841613 -2.9211032e-05   0.47893989 0.00031042833            0   0.47862946      1.61269    2.0916299      1.09456 
12330000    1.0672638 -8.8261043e-05   0.48952914 0.00068104935            0   0.48884809    1.5875549    2.0770841  -0.93555954 
12335000    1.0330267 -1.5448583e-05   0.53525334 0.0036402436            0    0.5316131    1.5366272    2.0718805    1.5445689 
12340000    1.0722796 0.00016661507   0.49069091  0.037162285            0   0.45352862     1.595016    2.0857069    7.7728345 
12345000   0.95159253 6.9543376e-05   0.64088596  0.033796866            0   0.60708909    1.4154939    2.0563799    4.4301271 
12350000    1.0486636 6.1389797e-05   0.49819829  0.017137331            0   0.48106096    1.5598871    2.0580854    4.1535238 
12355000    1.0795525 6.1603724e-06   0.43541861  0.017586874            0   0.41783173    1.6058343    2.0412529     2.251527 
12360000    1.0060446 -0.00013554459   0.54314395 0.0096514092            0   0.53349254    1.4964913    2.0396352   -2.5869533 
12365000    1.0331188 -6.3969584e-05   0.49717812  0.024111811            0   0.47306631    1.5367642    2.0339424  -0.14955277 
12370000    1.0123872 4.2443645e-05   0.51110409  0.049359435            0   0.46174465    1.5059259      2.01703    3.4657731 
12375000    1.0024783 4.8384689e-05   0.54110963  0.031756064            0   0.50935357    1.4911865    2.0322961    3.6838268 
12380000    1.0253491 6.0779214e-05   0.50138487  0.020053391            0   0.48133148    1.5252068    2.0265917    4.1011889 
12385000    1.0651749 -3.3361646e-05   0.44447658 0.0078362255            0   0.43664035    1.5844476    2.0289242   0.89018004 
12390000     1.014075 -0.00012860084    0.5333685  0.021528131            0   0.51184037    1.5084365     2.041805   -2.3477704 
12395000    1.1010388 -0.00011307367    0.4227387  0.024656429            0   0.39808227    1.6377952    2.0605339   -1.7990474 
12400000    1.0697461 8.1644451e-05   0.46224742  0.016639087            0   0.44560834    1.5912474    2.0534948    4.8402921 
12405000    1.0928261 -3.5474648e-06   0.45373497  0.012882464            0   0.44085251    1.6255789    2.0793139    1.9582271 
12410000    1.0774138 -1.7001448e-05   0.47606424 0.0074430798            0   0.46862116     1.602653    2.0787172    1.4984011 
12415000    1.0621482 1.4236983e-05   0.49656053  0.013092554            0   0.48346797    1.5799455     2.076506    2.5624617 
12420000    1.0808631 9.5456564e-05   0.48073886  0.016042323            0   0.46469654    1.6077839    2.0885227    5.3467735 
12425000    1.1000877 6.8765137e-05   0.45990512  0.055166616            0    0.4047385    1.6363804    2.0962855    4.4434688 
12430000    1.1548955 -0.00011606165   0.37035655 0.0079514852            0   0.36240507    1.7179071    2.0882637   -1.8733074 
12435000    1.0507546 5.4616973e-05   0.50214042  0.013413859            0   0.48872656    1.5629974    2.0651378    3.9293972 
12440000    1.0507864 -4.3789699e-05   0.48837354  0.039143324            0   0.44923022    1.5630447    2.0514183   0.55672988 
12445000    1.0751428 -6.4077504e-05   0.42979999  0.011900002            0   0.41789999    1.5992749    2.0290749  -0.15810392 
12450000    1.0702505 -0.00012166565   0.42610703  0.051633037            0   0.37447399    1.5919977    2.0181047   -2.1347496 
12455000    1.0254805 -1.4199242e-05   0.47087278 0.0082171262            0   0.46265566    1.5254022     1.996275    1.5116076 
12460000    1.0271215 -6.1451584e-05   0.47840429  0.021011324            0   0.45739297    1.5278432    2.0062475 -0.091299898 
12465000    1.0469118 -1.8328323e-05   0.42707787  0.043434994            0   0.38364288    1.5572813    1.9843591    1.3587524 
12470000    1.0736062 7.5176828e-05   0.38373708  0.012263566            0   0.37147351    1.5969893    1.9807263     4.546762 
12475000   0.97167098 -1.4755092e-05   0.50272214  0.024511837            0    0.4782103    1.4453606    1.9480827    1.4444423 
12480000    0.9584538 0.00012458321   0.50240175  0.031561518            0   0.47084024       1.4257    1.9281018     6.180542 
12485000    1.0398125 0.00022182386   0.41782932  0.008811908            0   0.40901741    1.5467211    1.9645505    9.5361383 
12490000    1.0623494 -6.1487501e-05   0.39566112 0.0074004531            0   0.38826066    1.5802447    1.9759058  -0.12286757 
12495000      0.96549 -0.000153302   0.52676914  0.020464553            0   0.50630459    1.4361664    1.9629355   -3.2697727 
12500000     1.012241 6.8476459e-07   0.45457041  0.021377757            0   0.43319266    1.5057085     1.960279    1.9836523 
12505000    1.0492142 0.00014285511   0.39159993  0.011866809            0   0.37973312    1.5607061     1.952306     6.828427 
12510000    1.0355389 0.00010474552   0.43165969  0.024362078            0   0.40729761    1.5403641    1.9720238    5.5473375 
12515000   0.98272332 5.8865509e-05   0.52219462   0.03284591            0   0.48934871    1.4618009    1.9839956    3.9932716 
12520000    1.0467281 -1.1785177e-05   0.40904899  0.019635226            0   0.38941376     1.557008     1.966057    1.5637896 
12525000   0.97977951 -0.00010144071   0.52827937  0.033701362            0     0.494578     1.457422    1.9857014   -1.4768082 
12530000     1.042478 7.066591e-05   0.45013021  0.035519857            0   0.41461035     1.550686    2.0008162    4.4128792 
12535000    1.0676777 6.3677589e-05    0.4119371  0.011472955            0   0.40046414    1.5881706    2.0001077    4.1736361 
12540000    1.0439578 -4.9212308e-05   0.44847829 0.0043873458            0   0.44409095    1.5528872    2.0013655   0.32158538 
12545000    1.0075245 -4.3283679e-06   0.50014385  0.022653173            0   0.47749068    1.4986927    1.9988366    1.8510949 
12550000      1.01064 -6.702615e-05    0.4953865  0.023445532            0   0.47194097    1.5033271    1.9987136  -0.28911237 
12555000    1.0423271 -3.6151129e-05   0.44895192  0.022701926            0   0.42624999    1.5504615    1.9994135   0.76545493 
12560000    1.0174375 -8.3556919e-05   0.48679796  0.012662779            0   0.47413518    1.5134383    2.0002362  -0.85183995 
12565000    1.0094258 3.2264499e-05    0.4808832 0.0065010955            0    0.4743821    1.5015209    1.9824041     3.083699 
12570000    1.0296883 9.6822454e-05   0.43859786 0.0074083993            0   0.43118947    1.5316614    1.9702593    5.2751324 
12575000    1.0514877 2.676815e-05   0.42258249  0.022852854            0   0.39972963     1.564088    1.9866705    2.9003567 
12580000    1.0701909  6.66231e-05   0.41147139  0.023490168            0   0.38798122     1.591909    2.0033804    4.2774489 
12585000    1.0659863 9.1614682e-05   0.41791634  0.012082536            0    0.4058338    1.5856546    2.0035709    5.1306854 
12590000    1.0641301 -0.00018048263    0.4338844  0.014128831            0   0.41975557    1.5828935    2.0167779   -4.1436958 
12595000    1.0435325 -0.00018888891   0.48036003  0.014527293            0   0.46583273    1.5522546    2.0326146   -4.4147934 
12600000    1.0303048 2.5543383e-05     0.500332 0.0068795002            0    0.4934525    1.5325784    2.0329104    2.9047912 
12605000    1.0886158 -0.00010996873   0.43526669  0.011817276            0   0.42344941     1.619316    2.0545827   -1.6990167 
12610000    1.0961019 -3.2227028e-05   0.43801895  0.018718633            0   0.41930032    1.6304515    2.0684705   0.96845458 
12615000    1.0859209 -1.1744176e-05   0.43689482  0.020662746            0   0.41623208    1.6153074    2.0522022    1.6513343 
12620000    1.0416459 4.4456573e-05   0.50490194   0.03693942            0   0.46796252    1.5494483    2.0543502    3.5718013 
12625000    1.0967457 -4.2045307e-05   0.42646811   0.04160843            0   0.38485968    1.6314092    2.0578773   0.62273084 
12630000    1.1152409 4.1987855e-06   0.43099936  0.040535265            0    0.3904641    1.6589209    2.0899203    2.2332388 
12635000    1.0626325 3.4405003e-05   0.47048558  0.034278581            0     0.436207    1.5806659    2.0511514    3.2255089 
12640000    1.0396724 -0.00011375545   0.49925945  0.020518127            0   0.47874132    1.5465127    2.0457722   -1.8370804 
12645000    1.1123372 0.0001038206   0.41927975   0.01862149            0   0.40065826    1.6546016    2.0738813    5.6176243 
12650000    1.1096254 2.4023415e-05   0.41596281  0.039383882            0   0.37657893    1.6505678    2.0665306    2.8865299 
12655000    1.0532353 -0.00026973191   0.49197099   0.01375737            0   0.47821362    1.5666874    2.0586584   -7.1481907 
12660000    1.0608358 -2.9297851e-06   0.47413367 0.0045683428            0   0.46956533    1.5779932    2.0521269    1.9521235 
12665000    1.0598665 0.00017621309   0.46853258 0.0032573877            0   0.46527519    1.5765515    2.0450841    8.0598242 
12670000    1.1289275 1.6053718e-05   0.35567992   0.00515933            0   0.35052059    1.6792797    2.0349596    2.5829265 
12675000      1.04592 -9.4212167e-05   0.49418504  0.010059293            0   0.48412574     1.555806    2.0499911   -1.1657842 
12680000    1.1068269 -1.5719206e-05   0.43127533 0.0037539377            0   0.42752139     1.646405    2.0776803    1.5411314 
12685000    1.1336834 7.1376892e-05   0.39746823 0.0042990899            0   0.39316914    1.6863541    2.0838224    4.5201536 
12690000    1.1123149 5.582778e-05   0.45202895 0.0084410576            0   0.44358789    1.6545684    2.1065973    4.0121855 
12695000    1.0856887 -1.7286894e-06   0.48143214 0.0069316893            0   0.47450045     1.614962    2.0963942    2.0373882 
12700000    1.0825851 -4.3336048e-05   0.50250663 0.0039061908            0   0.49860044    1.6103454     2.112852   0.63364827 
12705000    1.0828676 -0.00013925688    0.4891981 0.0022754939            0   0.48692261    1.6107656    2.0999637   -2.6533378 
12710000    1.0565032 -1.4293094e-05   0.51205519  0.032795185            0      0.47926    1.5715485    2.0836037    1.5957328 
12715000    1.0405824 0.00020730135   0.52413232  0.014192904            0   0.50993941    1.5478663    2.0719987    9.1478849 
12720000    1.1140066 9.4779994e-06   0.39645994 0.0017977613            0   0.39466218    1.6570847    2.0535447    2.3770604 
12725000    1.0445822 -0.0001808769   0.48945906 0.0041909428            0   0.48526811    1.5538161    2.0432751   -4.1306562 
12730000   0.98194369 -8.6664049e-05   0.55289853  0.012618808            0   0.54027973    1.4606412    2.0135398  -0.94459309 
12735000    1.0309368 0.00018177804   0.46708787  0.022585772            0    0.4445021    1.5335185    2.0006063    8.2052969 
12740000    1.0208216 0.00014461142   0.45462197 0.0067550407            0   0.44786693    1.5184721    1.9730941     6.909164 
12745000   0.96603224 -0.00012385125   0.55129952 0.0081802712            0   0.54311925     1.436973    1.9882725   -2.2391834 
12750000     1.009748 -0.00010590395   0.48696547  0.017198758            0   0.46976671    1.5020001    1.9889656   -1.6258892 
12755000   0.96685137 -6.8918779e-05   0.53302526  0.019383746            0   0.51364151    1.4381914    1.9712167  -0.38121101 
12760000   0.95114713 -9.4466475e-05   0.53978753  0.031630575            0   0.50815695    1.4148314    1.9546189   -1.2698368 
12765000   0.99157611 -4.191428e-05   0.49123191  0.037309594            0   0.45392232    1.4749695    1.9662014   0.53552729 
12770000    1.0083732 -4.8907904e-06   0.48445788   0.03405733            0   0.45040055    1.4999551     1.984413     1.817474 
12775000    1.0100985 8.9743223e-05   0.47325399  0.020130371            0   0.45312362    1.5025216    1.9757756    5.0390109 
12780000    1.0629315 0.00010493254   0.41327336  0.017640098            0   0.39563326    1.5811106    1.9943839    5.5760813 
12785000    1.0272298 1.7252573e-05   0.46947181  0.018121716            0    0.4513501    1.5280043    1.9974761     2.586364 
12790000   0.98587236 -3.9624334e-05   0.50637759 0.0050393213            0   0.50133827    1.4664851    1.9728627    0.6203521 
12795000    1.0491067 -8.7855107e-05   0.40700302  0.001519255            0   0.40548376    1.5605462    1.9675493   -1.0312384 
12800000    1.0210607 1.3962368e-05   0.44541296  0.010091308            0   0.43532165    1.5188277    1.9642407    2.4408229 
12805000    1.0096371 0.00013100091   0.47003908  0.024571171            0   0.44546791    1.5018351    1.9718742    6.4433718 
12810000     1.034321 5.8562809e-05   0.44171807  0.016266006            0   0.42545206    1.5385524    1.9802705    3.9792144 
12815000    1.0151315 -5.3769015e-05    0.4665434 0.0098233865            0   0.45672001    1.5100081    1.9765515   0.14123574 
12820000    1.0711541  5.89046e-06   0.40393875  0.013581328            0   0.39035742    1.5933418    1.9972805    2.1983415 
12825000   0.94285186 0.00016687373   0.56339358  0.016573214            0   0.54682036    1.4024921    1.9658857    7.6618422 
12830000    1.0300605 0.00023997108   0.44863171  0.042516808            0    0.4061149     1.532215    1.9808467     10.17186 
12835000    1.0430717 -2.145983e-05   0.44153018  0.021725927            0   0.41980425    1.5515692    1.9930993    1.2606038 
12840000   0.97726366 -0.00016892188    0.5321917  0.011348451            0   0.52084325    1.4536797    1.9858714   -3.7799953 
12845000   0.97441353 -3.2907183e-05    0.5331721  0.021764169            0   0.51140793    1.4494401    1.9826122   0.85938039 
12850000   0.98040486 6.8844046e-05   0.52851111  0.047896939            0   0.48061417    1.4583522    1.9868633    4.3367401 
12855000    1.0225614 5.405389e-05   0.47653598  0.040698822            0   0.43583716    1.5210601    1.9975961    3.8426355 
12860000    1.0331927 4.5136471e-05    0.4818047  0.020446163            0   0.46135853    1.5368741    2.0186788     3.559337 
12865000    1.0059553 7.7974495e-05   0.52420826   0.01924332            0   0.50496494    1.4963585    2.0205668    4.6820962 
12870000    1.0065055  -2.5527e-06    0.5356097  0.021839527            0   0.51377017    1.4971769    2.0327866    1.9456544 
12875000    1.0441133 -0.00019689686   0.49588414  0.010219415            0   0.48566472    1.5531186    2.0490027   -4.6717435 
12880000    1.0452387 2.6697742e-05   0.49394337  0.006664413            0   0.48727895    1.5547926     2.048736    2.9600189 
12885000    1.0328891 5.4881946e-05      0.50267 0.0091198339            0   0.49355016    1.5364225    2.0390925    3.9123963 
12890000    1.0231817 -8.7821269e-05   0.48637704  0.028426466            0   0.45795058    1.5219828    2.0083599  -0.98927277 
12895000    1.0552185 1.0193606e-05   0.43661037  0.040615909            0   0.39599446    1.5696375    2.0062479    2.3541896 
12900000   0.99163953 9.8662995e-05   0.52907893  0.045139006            0   0.48393992    1.4750638    2.0041427    5.3718396 
12905000   0.96213241 1.9954316e-06   0.53665396  0.015588351            0   0.52106561     1.431172    1.9678259    2.0359366 
12910000   0.98512864 -7.6337345e-05   0.49916149 0.0060316188            0   0.49312987    1.4653789    1.9645404  -0.64110769 
12915000    1.0192596 -8.7608057e-05    0.4386458 0.0090927109            0   0.42955309    1.5161486    1.9547944   -1.0355606 
12920000    1.0158191 4.8621051e-06   0.43425332  0.010353592            0   0.42389973    1.5110308    1.9452842     2.111244 
12925000   0.99707869 -4.6829689e-05   0.48751208 0.0076570357            0   0.47985504    1.4831546    1.9706666   0.37221325 
12930000   0.94458601 -0.00012626022   0.56928555 0.0035581611            0   0.56572739    1.4050717    1.9743572   -2.3353249 
12935000    1.0282796 2.2627601e-05   0.44633372  0.001341152            0   0.44499257    1.5295659    1.9758996    2.7482551 
12940000    1.0050819 4.6005562e-05   0.44548174 0.00060542617            0   0.44487631    1.4950593    1.9405411    3.5108642 
12945000   0.96094002 3.0791946e-05    0.5249356  0.012312374            0   0.51262323    1.4293983    1.9543339    3.0053656 
12950000   0.98176382 1.3936302e-06   0.51413705  0.031938797            0   0.48219826    1.4603737    1.9745107      2.02208 
12955000   0.97044201 -0.00012342369    0.5535233  0.018520146            0   0.53500316    1.4435325    1.9970558   -2.2158062 
12960000    0.9667691 -0.00011916452   0.54953882  0.036740502            0   0.51279832     1.438069    1.9876079   -2.0798744 
12965000   0.96440786 -0.0001636251   0.54776476  0.013895384            0   0.53386937    1.4345567    1.9823214   -3.6027485 
12970000    0.9901007 -8.8919808e-05   0.50962543  0.014058601            0   0.49556682    1.4727748    1.9824002   -1.0527292 
12975000    0.9951149 -8.0716397e-05   0.49439438  0.023240858            0   0.47115352    1.4802334    1.9746278   -0.7804919 
12980000   0.97101197 -8.7117016e-05   0.55200056 0.0043980375            0   0.54760252    1.4443803    1.9963809   -0.9772133 
12985000    1.0087174 -1.1814643e-05   0.49231117 0.0013572311            0   0.49095394    1.5004672    1.9927783    1.5895052 
12990000    1.0097073 3.421581e-05   0.50337401 0.00088677881            0   0.50248723    1.5019397    2.0053137    3.1732133 
12995000    1.0648275 -2.3260967e-05   0.42026443 0.0019809019            0   0.41828353    1.5839308    2.0041953    1.2102209 
13000000    1.0299299 -4.8074041e-05    0.4859091 0.0016825777            0   0.48422652    1.5320207    2.0179298    0.3770025 
13005000    1.0283856 7.1834388e-05   0.47814041  0.004969118            0    0.4731713    1.5297235    2.0078639     4.459811 
13010000    1.0628181 -3.7599269e-05    0.4536602  0.015511767            0   0.43814843    1.5809419    2.0346021   0.75121373 
13015000   0.99144903 -0.00016209475   0.55632613  0.012964057            0   0.54336208    1.4747804    2.0311066   -3.5017276 
13020000    1.0437935 -0.00010521505   0.45900351 0.0059875799            0   0.45301593    1.5526429    2.0116464   -1.5796939 
13025000    1.0110766 -8.9392906e-05   0.48671061  0.011654032            0   0.47505657    1.5039765    1.9906871   -1.0605908 
13030000   0.98101359 -0.00014920459    0.5335493  0.011942362            0   0.52160693    1.4592577     1.992807   -3.1000431 
13035000   0.93999645 -0.00016798936   0.57879051 0.0056620731            0   0.57312844    1.3982447    1.9770352   -3.7570016 
13040000   0.98668895 -0.00011837044   0.51253655  0.013727536            0   0.49880901    1.4676998    1.9802364   -2.0601415 
13045000   0.97769606 -3.4896818e-06   0.52247005  0.012584901            0   0.50988515    1.4543229    1.9767929    1.8576785 
13050000   0.99639409 9.4812691e-05   0.49746166 0.0050491154            0   0.49241255    1.4821362    1.9795979    5.2158711 
13055000    1.0042896 -2.5406145e-06   0.49071126  0.011598972            0   0.47911229    1.4938808    1.9845921    1.8978725 
13060000   0.98768981 7.9348888e-05   0.51185561  0.021363089            0   0.49049252    1.4691886    1.9810442    4.6894862 
13065000    1.0117597 0.00012918921   0.50370883  0.018578236            0   0.48513059    1.5049925    2.0087014    6.4183597 
13070000    1.0376182 -3.5908194e-05   0.43431428  0.029017812            0   0.40529646     1.543457    1.9777713   0.75210494 
13075000   0.97218225 -4.9613295e-05   0.50995975  0.033970719            0   0.47598903    1.4461211    1.9560808   0.26261369 
13080000   0.96202392 -9.0056104e-05   0.51669808  0.018283691            0   0.49841439    1.4310106    1.9477087   -1.1262064 
13085000   0.96666968 -2.3276783e-05   0.50207484   0.01067022            0   0.49140462    1.4379212     1.939996    1.1454818 
13090000   0.97407883 -3.1421633e-05   0.48196311   0.01902109            0   0.46294202    1.4489423    1.9309054   0.85838029 
13095000   0.94825428 -2.9904191e-05   0.53911997  0.040957834            0   0.49816214    1.4105282    1.9496482   0.92891848 
13100000   0.94161912 -0.00013789021   0.53780627   0.02646097            0    0.5113453    1.4006584    1.9384647   -2.7681877 
13105000   0.97861581 7.7669389e-05   0.46884714  0.040043472            0   0.42880367     1.455691    1.9245382    4.5756533 
13110000   0.92726464 0.00012314167   0.53225996  0.029011906            0   0.50324805    1.3793062    1.9115661    6.1148019 
13115000   0.96678872 -8.4062236e-05   0.45933428 0.0025003998            0   0.45683388    1.4380982    1.8974325  -0.97189183 
13120000   0.91547139 6.7658329e-05   0.54394615 4.6512261e-05            0   0.54389964    1.3617637    1.9057098    4.2151141 
13125000    0.9456111 1.5476554e-05     0.475559  0.006019052            0   0.46953995    1.4065965    1.8821555    2.4104219 
13130000    0.9988129 -0.00015051578   0.39117481  0.019748344            0   0.37142646    1.4857342     1.876909   -3.2606962 
13135000   0.89936255 1.6738901e-05   0.54795884  0.013577562            0   0.53438127    1.3378018    1.8857606    2.4571151 
13140000   0.92827646 2.8423679e-05   0.50356583  0.013079004            0   0.49048683    1.3808112    1.8843771     2.854572 
13145000   0.94926894 7.0968504e-05   0.47520493  0.034308828            0   0.44089611    1.4120376    1.8872425    4.3096341 
13150000   0.90152634 -3.4825745e-05   0.52745796   0.06076309            0   0.46669487    1.3410204    1.8684784   0.67975963 
13155000   0.93256681 -9.3157162e-05   0.48955467  0.010831576            0   0.47872309    1.3871931    1.8767478   -1.3030167 
13160000    0.9134889 2.3910945e-05   0.49278374 0.0066375363            0   0.48614621    1.3588147    1.8515985    2.6677587 
13165000   0.94156572 7.6435065e-05     0.456459 0.0020375584            0   0.45442144     1.400579     1.857038    4.4660216 
13170000   0.95369016 4.1869736e-06   0.44624315  0.010243835            0   0.43599931    1.4186141    1.8648573    2.0077726 
13175000   0.89178731 -4.503841e-05   0.51917926  0.012871787            0   0.50630747    1.3265336    1.8457129   0.30840181 
13180000   0.92778578 -6.1560521e-05   0.46695548  0.005425967            0   0.46152951    1.3800813    1.8470368  -0.25422896 
13185000   0.93376658 9.8095866e-06   0.42005943 0.0050614563            0   0.41499797    1.3889778    1.8090372    2.1438711 
13190000   0.86852322 1.3172635e-05   0.53240738 0.0093993268            0   0.52300805    1.2919283    1.8243357    2.2739616 
13195000   0.96963779 6.9208286e-05   0.39367577  0.014433991            0   0.37924178    1.4423362     1.836012    4.1983215 
13200000   0.98490925 1.1058892e-06   0.37638021 0.0036228096            0    0.3727574    1.4650525    1.8414327    1.8791804 
13205000   0.94114031 3.4671699e-05   0.44304526 0.0039346248            0   0.43911063    1.3999462    1.8429915    3.0264521 
13210000   0.93993903 -3.2485696e-05    0.4422238 0.0067972424            0   0.43542656    1.3981593    1.8403831   0.73153804 
13215000   0.92181048 -1.4631107e-05   0.49063736   0.02092411            0   0.46971325    1.3711931    1.8618304     1.362422 
13220000   0.85893439 0.00011677909   0.57940087  0.018319087            0   0.56108178    1.2776649    1.8570658    5.8431254 
13225000   0.95924031 9.234916e-05   0.43033043 0.0072036118            0   0.42312682      1.42687    1.8572004     5.009385 
13230000   0.91822029 0.00010405461   0.50043956 0.0084619129            0   0.49197765    1.3658527    1.8662922    5.4180228 
13235000   0.88325776 4.2449282e-05   0.53480114   0.01128407            0   0.52351707    1.3138459    1.8486471    3.2975826 
13240000   0.92440632 6.3266522e-06   0.49078774  0.014550531            0   0.47623721    1.3750544    1.8658421    2.0817919 
13245000   0.93852271 -5.7412694e-05   0.48013542  0.014391121            0    0.4657443    1.3960525    1.8761879 -0.083498664 
13250000   0.95468618 3.8483056e-06   0.47078817  0.010889362            0   0.45989881    1.4200957    1.8908839    2.0222394 
13255000    0.8919033 -0.00010053602   0.54940174  0.011511658            0   0.53789008    1.3267062    1.8761079   -1.5555216 
13260000    0.9874121 -0.00011631054   0.39891592  0.010630353            0   0.38828557    1.4687755    1.8676914   -2.1023751 
13265000   0.95084347 3.5511341e-05   0.45611884  0.011466685            0   0.44465216    1.4143797    1.8704985     3.082619 
13270000   0.93747486 4.7508653e-05   0.45758632  0.022608127            0   0.43497819    1.3944939    1.8520802    3.4737088 
13275000   0.95752898 5.1136046e-05   0.41950994  0.022995272            0   0.39651467    1.4243244    1.8438343     3.589278 
13280000   0.87165722 6.5685036e-05   0.53716883  0.029963718            0   0.50720512    1.2965901    1.8337589    4.0758082 
13285000   0.97329471 -9.0604408e-06   0.38361899  0.025919166            0   0.35769982    1.4477759    1.8313949    1.5221318 
13290000   0.93574771 -3.7496334e-05   0.43146205 0.0052694464            0   0.42619261    1.3919247    1.8233868   0.54351189 
13295000   0.91716351 -6.2867364e-05   0.45008245  0.014858391            0   0.43522406    1.3642807    1.8143632  -0.33150951 
13300000   0.90804877 -5.732134e-06   0.46169997  0.013323487            0   0.44837648    1.3507225    1.8124225    1.6167657 
13305000   0.91602969 0.00015125211    0.4665995  0.013066449            0   0.45353305    1.3625942    1.8291937    6.9919325 
13310000   0.95102153 2.6509167e-05   0.41910547  0.012355608            0   0.40674987    1.4146445      1.83375    2.7385962 
13315000   0.89561681 -4.4325245e-05   0.52414204  0.022304329            0   0.50183771      1.33223     1.856372   0.34340369 
13320000   0.92539242 -4.2655027e-05   0.45811683  0.011432352            0   0.44668448    1.3765212    1.8346381   0.37867979 
13325000   0.90999813 -0.00011664039   0.49523582 0.0052837837            0   0.48995204    1.3536222     1.848858   -2.1324674 
13330000    1.0037216 -2.3622201e-05   0.34738446 0.0041253072            0   0.34325915    1.4930359    1.8404204    1.0341159 
13335000   0.89764371 0.00010137602   0.47277344 0.0047944246            0   0.46797902     1.335245    1.8080185    5.2683198 
13340000    0.8510697 8.562972e-05   0.53935965 0.0072357166            0   0.53212394    1.2659662    1.8053258    4.7281536 
13345000   0.93929616 -2.8017568e-05   0.40730009 0.0017981075            0   0.40550198     1.397203    1.8045031   0.84817013 
13350000   0.96013133 3.5453382e-05   0.36493282 0.00026522247            0    0.3646676    1.4281953    1.7931282    3.0032703 
13355000   0.90624195 7.9094266e-05   0.44467537 0.0046571559            0   0.44001822    1.3480349    1.7927103    4.4924612 
13360000   0.86560036 -6.8145468e-06   0.51282767  0.012719609            0   0.50010806    1.2875805    1.8004082     1.567805 
13365000   0.91193018 -0.00011121558   0.45418803 0.0070535896            0   0.44713444    1.3564961    1.8106842   -1.9854744 
13370000   0.91568022 -0.00012328289    0.4416859  0.011355265            0   0.43033063    1.3620743    1.8037602   -2.4042956 
13375000   0.91314109 -1.8212842e-05   0.45376943  0.012978453            0   0.44079098    1.3582974    1.8120668    1.1904018 
13380000   0.88861591 4.0565367e-05   0.47631795 0.0048295137            0   0.47148843    1.3218162    1.7981341    3.1827653 
13385000   0.90410639 1.6104641e-05   0.45564955 0.0090502614            0   0.44659929    1.3448583    1.8005078    2.3502129 
13390000   0.87291369 8.7308233e-05   0.52675204  0.043231352            0   0.48352069    1.2984591    1.8252112    4.8053322 
13395000   0.90892513 8.3781104e-06   0.47016365  0.023352405            0   0.44681125    1.3520261    1.8221898    2.1081626 
13400000    0.8465396 -0.00017228045   0.55023867  0.014443979            0   0.53579469    1.2592277    1.8094663   -4.0710398 
13405000   0.92402139 -8.5397018e-05   0.43913376  0.018494931            0   0.42063883    1.3744818    1.8136156   -1.1012693 
13410000   0.92318083 -2.7429592e-05   0.41469313  0.023030858            0   0.39166228    1.3732315    1.7879246   0.85166123 
13415000   0.87029404 4.1711386e-06   0.48324182 0.0067905127            0    0.4764513    1.2945624    1.7778042    1.9201791 
13420000   0.92728368 -7.4367654e-05   0.41542737 0.0044092439            0   0.41101812    1.3793345    1.7947618  -0.74365407 
13425000   0.86017355 4.8918156e-05   0.51509522  0.016640383            0   0.49845483    1.2795082    1.7946034    3.4643431 
13430000   0.92926882 0.00013642311   0.42905967  0.014051371            0    0.4150083    1.3822874     1.811347    6.4679224 
13435000    0.9436286 0.00013812803   0.42825628  0.013000491            0   0.41525579    1.4036475    1.8319038    6.5466739 
13440000   0.88216261 0.00016450579   0.47523053  0.028698056            0   0.44653247    1.3122169    1.7874474    7.4025784 
13445000   0.89708158 -5.1768724e-05    0.4905991  0.014286384            0   0.47631272    1.3344088     1.825008  0.057968839 
13450000   0.83285142 -4.9508952e-05   0.59801895  0.042488588            0   0.55553037    1.2388665    1.8368854   0.14697988 
13455000   0.87455186 9.7848835e-05   0.55705818  0.049397726            0   0.50766046    1.3008959    1.8579541     5.197861 
13460000   0.96154087 -6.342495e-05   0.42711349  0.023751107            0   0.40336238     1.430292    1.8574055  -0.30749943 
13465000   0.93752649 -1.0706381e-05   0.48083059 0.0011428937            0   0.47968769    1.3945707    1.8754012    1.5099568 
13470000   0.90836831 9.6893871e-06   0.53085816 0.0034205218            0   0.52743764    1.3511979     1.882056    2.2127871 
13475000   0.99516745 -8.9771761e-05   0.42322316  0.013369281            0   0.40985388    1.4803116    1.9035347   -1.1606747 
13480000    0.9624861 -7.3839671e-06   0.47346696 0.0046969526            0      0.46877    1.4316981     1.905165    1.6531256 
13485000   0.98521995 0.00012766555   0.44142206 0.0032111591            0    0.4382109    1.4655147    1.9069367    6.2645875 
13490000   0.98516674 0.00018137987   0.46199943  0.020474605            0   0.44152483    1.4654355     1.927435    8.1185345 
13495000   0.97650564 -7.1158713e-05   0.50633878  0.026015924            0   0.48032286    1.4525521    1.9588909  -0.46999317 
13500000   0.97402785 2.2648264e-05   0.52800742  0.054612381            0   0.47339504    1.4488664    1.9768738    2.7499346 
13505000     1.019338 0.00011588876   0.44512308  0.025009558            0   0.42011353    1.5162653    1.9613884     5.917058 
13510000    0.9639166 1.0242886e-05   0.54063985  0.020852729            0   0.51978712    1.4338259    1.9744658    2.3240896 
13515000    1.0084404 2.7259086e-05   0.50726183  0.019807515            0   0.48745431     1.500055    2.0073169    2.9377603 
13520000    1.0300849 -0.00018580411   0.47386141  0.022114962            0   0.45174645    1.5322513    2.0061127   -4.3360008 
13525000    1.0425171 -7.6607531e-06   0.46661015  0.021959072            0   0.44465108    1.5507441    2.0173543    1.7558673 
13530000    1.0494932 4.6310568e-05   0.45879096  0.023040468            0   0.43575049    1.5611212    2.0199121    3.6006462 
13535000   0.99236689 1.0003705e-05   0.54494123  0.013996718            0   0.53094451    1.4761457     2.021087    2.3625468 
13540000   0.99207878 3.1594411e-05   0.53789985  0.017302043            0   0.52059781    1.4757172     2.013617    3.0920396 
13545000   0.97304516 4.2561355e-05   0.55913656   0.03530935            0   0.52382721    1.4474047    2.0065412    3.4593022 
13550000    1.0412068 -7.1721731e-05   0.44301799 0.0072141369            0   0.43580385    1.5487952    1.9918132  -0.45628861 
13555000   0.99573448 -2.5014886e-05   0.50003603  0.025351458            0   0.47468457     1.481155    1.9811911    1.1273496 
13560000   0.92928303 8.0962437e-05   0.60052431  0.031192279            0   0.56933203    1.3823085    1.9828328    4.7463507 
13565000    1.0030945 -0.00016834129   0.47177343  0.024346303            0   0.44742713     1.492103    1.9638765   -3.7821729 
13570000    1.0025324 -5.4097181e-05   0.44226399  0.013749129            0   0.42851486     1.491267     1.933531  0.087013885 
13575000   0.99722615 -8.4797037e-05   0.47886985  0.010626121            0   0.46824373    1.4833739    1.9622438  -0.93216179 
13580000    1.0097637 3.7794537e-05   0.44693442   0.01372334            0   0.43321108    1.5020235    1.9489579    3.2390115 
13585000   0.98044903 -3.8584469e-05   0.51647514  0.011608496            0   0.50486664    1.4584179    1.9748931   0.65787654 
13590000   0.95093441 -4.5732286e-05   0.57277679  0.062176546            0   0.51060024    1.4145149    1.9872917   0.42629637 
13595000   0.98074276 0.00011231492   0.52324349  0.056050233            0   0.46719326    1.4588548    1.9820983     5.815781 
13600000    1.0192732 4.7742293e-05   0.46466246  0.046182186            0   0.41848028    1.5161689    1.9808313    3.6104349 
13605000   0.96452869 5.9946617e-05   0.52517754  0.033389081            0   0.49178846    1.4347364     1.959914    4.0060918 
13610000   0.98679967 6.5609821e-05   0.48946139   0.02353751            0   0.46592388    1.4678645    1.9573259    4.1968078 
13615000    0.9878456 6.4897645e-05   0.48511758  0.024401806            0   0.46071577    1.4694203    1.9545379    4.1697109 
13620000   0.99454911 6.7833695e-05   0.47610806  0.024004601            0   0.45210346    1.4793918    1.9554999      4.27089 
13625000   0.97665274 2.7941669e-05   0.49901798  0.011916386            0    0.4871016     1.452771    1.9517889    2.9055312 
13630000   0.97504755 -6.3390147e-05   0.52543616  0.022130961            0    0.5033052    1.4503832    1.9758194  -0.18789761 
13635000    1.0367851 -3.0527849e-05   0.43423672  0.026614929            0   0.40762179    1.5422179    1.9764546   0.93443737 
13640000    1.0049854 1.4657674e-05   0.48581035   0.01404086            0   0.47176949    1.4949158    1.9807261    2.4810414 
13645000   0.99249235 -0.00014609412   0.49724414  0.010566225            0   0.48667791    1.4763324    1.9735765   -3.0131029 
13650000   0.96140011 -9.9153057e-05   0.54841614  0.018808446            0    0.5296077    1.4300827    1.9784988   -1.4059255 
13655000    1.0285225 4.072485e-05   0.42692387  0.025380716            0   0.40154315    1.5299272     1.956851    3.3469259 
13660000   0.95361334 -1.6076313e-05   0.54024935  0.043859087            0   0.49639026    1.4184998    1.9587492    1.4100111 
13665000   0.92571789 3.403553e-05   0.59781207  0.054918575            0   0.54289349    1.3770054    1.9748174    3.1365635 
13670000   0.94943043 4.5638214e-05   0.59086481  0.032721473            0   0.55814334    1.4122778    2.0031426    3.5609269 
13675000    1.0140885 2.3259604e-05   0.49657244  0.071036163            0   0.42553628    1.5084566    2.0050291    2.7989569 
13680000   0.91200673 -3.7630269e-05   0.64517021  0.065715821            0   0.57945439      1.35661    2.0017802    0.7173337 
13685000   0.96479947 -9.1072923e-06   0.55343694  0.028406201            0   0.52503074    1.4351392    1.9885761    1.6777139 
13690000     1.065892 5.2435515e-05   0.40774643  0.023231329            0    0.3845151    1.5855144    1.9932608    3.7830597 
13695000   0.94662745 5.0726777e-05   0.60548434  0.033532975            0   0.57195136    1.4081083    2.0135927    3.7450667 
13700000    1.0289805 4.1261521e-05   0.48956693  0.027289328            0    0.4622776    1.5306084    2.0201754    3.4285686 
13705000    1.0140346 0.00021191128   0.51723526  0.015136534            0   0.50209873    1.5083765    2.0256118    9.2588501 
13710000   0.99317346 0.0002694747   0.52662846  0.018368454            0      0.50826    1.4773455     2.003974    11.202044 
13715000   0.98394575 8.3971265e-05   0.53497048  0.025358805            0   0.50961167    1.4636193    1.9985898    4.8648089 
13720000    0.9673313 -1.997943e-06   0.54916534  0.017966516            0   0.53119883    1.4389053    1.9880706    1.9198742 
13725000   0.98241525 -7.8131516e-05   0.53604648  0.014096443            0   0.52195004    1.4613427    1.9973892  -0.66949991 
13730000   0.99036535 -6.8244795e-05   0.51888604  0.026157868            0   0.49272817    1.4731685    1.9920545  -0.33736785 
13735000   0.99638364 2.0389104e-05   0.51339976  0.039063129            0   0.47433663    1.4821207    1.9955204    2.6914685 
13740000    1.0154697 3.3068482e-05   0.48187259  0.034134663            0   0.44773793    1.5105112    1.9923838    3.1211213 
13745000   0.95823455 -4.8509719e-06    0.5315427   0.03432366            0   0.49721904    1.4253739    1.9569166    1.7913367 
13750000   0.98745712 -0.00011770084   0.46780833  0.015569501            0   0.45223883    1.4688425    1.9366508   -2.0808713 
13755000    1.0209202 -9.6485955e-05   0.44382327  0.049081057            0   0.39474221    1.5186189    1.9624421   -1.3309451 
13760000   0.98279717 9.5464242e-05   0.50480344  0.036139988            0   0.46866345    1.4619108    1.9667142     5.225227 
13765000   0.92293414 0.00022721327   0.58357979  0.047537334            0   0.53604246    1.3728645    1.9564443    9.7119908 
13770000   0.98317938 0.00018693837   0.48533018  0.023138433            0   0.46219175    1.4624793    1.9478095    8.3286391 
13775000   0.97794206 1.3166939e-05   0.47550499  0.013379375            0   0.46212561    1.4546888    1.9301938    2.3796253 
13780000    0.9756889 -0.0001354269   0.49168182  0.025428187            0   0.46625363    1.4513372    1.9430191   -2.6795523 
13785000    0.9323293 -0.00010527696     0.562276  0.034744547            0   0.52753145    1.3868398    1.9491158   -1.6443378 
13790000    1.0168808 3.6266783e-05   0.43163891  0.019642407            0    0.4119965    1.5126103    1.9442492    3.1821553 
13795000   0.98224629 0.00013075561    0.4748124  0.013273258            0   0.46153914    1.4610914    1.9359037    6.3990287 
13800000   0.98540067 7.9018666e-05    0.4730639 0.0056557594            0   0.46740814    1.4657835    1.9388474    4.6360179 
13805000     1.006286 -0.00010104065   0.45487678  0.001132361            0   0.45374442    1.4968504    1.9517272   -1.4971269 
13810000    1.0032989 -8.891471e-05   0.45981212 0.0012214981            0   0.45859063    1.4924072    1.9522193   -1.0827361 
13815000   0.98407997 -1.1524672e-05   0.46648673 0.0043833184            0   0.46210341    1.4638189    1.9303057    1.5369302 
13820000   0.92689082 5.4242253e-05   0.54604631 0.0063608399            0   0.53968547    1.3787501    1.9247964    3.7762653 
13825000   0.88162228 1.7178896e-05   0.60881353  0.013220544            0   0.59559299    1.3114131    1.9202267    2.5065997 
13830000   0.96130451 -1.9028775e-05   0.48927326  0.031087426            0   0.45818584    1.4299405    1.9192137    1.2696982 
13835000   0.97638346 -9.6953873e-06    0.4915964 0.0093696387            0   0.48222676    1.4523704    1.9439668    1.6130309 
13840000   0.95602747 -4.4117229e-05   0.50230458 0.0092806863            0    0.4930239    1.4220909    1.9243954   0.41852734 
13845000   0.96968848 9.2803921e-06   0.49616974  0.022546875            0   0.47362287    1.4424116    1.9385814    2.2553521 
13850000   0.95695032 2.7421177e-05   0.49006577  0.030879175            0   0.45918659    1.4234636    1.9135294    2.8495056 
13855000   0.96197369 8.8034715e-05   0.47382591  0.020950833            0   0.45287508    1.4309359    1.9047618    4.9096801 
13860000    0.9640484 7.9651746e-05   0.47946919  0.016815553            0   0.46265363     1.434022    1.9134912    4.6322708 
13865000   0.92877162 -5.7689035e-05   0.53266919  0.011157646            0   0.52151155    1.3815478     1.914217 -0.054902067 
13870000    0.9796948 -0.00012106973   0.43922737  0.010030387            0   0.42919698     1.457296    1.8965234     -2.23599 
13875000   0.93035893 3.6038938e-07   0.49923774   0.03377145            0   0.46546629    1.3839089    1.8831466    1.8954479 
13880000   0.94689396 -6.9116563e-05   0.47178072  0.037185951            0   0.43459477    1.4085048    1.8802855   -0.4788932 
13885000   0.94758171 -0.00022372654   0.47844634  0.014662026            0   0.46378432    1.4095278    1.8879741   -5.7485586 
13890000   0.90700511 -0.00023866212   0.54562676  0.038570788            0   0.50705597    1.3491701    1.8947969   -6.2515368 
13895000   0.93031831 -1.9945259e-05   0.52324044  0.041612542            0    0.4816279    1.3838485    1.9070889    1.2262907 
13900000   0.94690222 5.3657622e-05   0.50539181  0.018261525            0   0.48713029    1.4085171    1.9139089    3.7454224 
13905000   0.97158073 1.7513102e-06   0.48083198  0.029492527            0   0.45133945    1.4452263    1.9260583    1.9858364 
13910000   0.96900047 0.00014754129   0.48479655  0.032063722            0   0.45273283    1.4413882    1.9261848    6.9622607 
13915000   0.98404664 6.8749089e-05   0.46971857 0.0055021326            0   0.46421644    1.4637694    1.9334879    4.2801235 
13920000   0.93756001 -9.5640442e-06   0.54455049 0.0091336128            0   0.53541687    1.3946205     1.939171    1.6127183 
13925000   0.96633566 0.00010243953   0.49689784  0.033820492            0   0.46307735    1.4374243    1.9343221    5.4309249 
13930000   0.98064053 0.0001197965   0.48109828  0.020856085            0    0.4602422    1.4587028    1.9398011    6.0288551 
13935000   0.95800563 -4.7014774e-05    0.4956842   0.01078971            0   0.48489449    1.4250334    1.9207176   0.31594663 
13940000   0.96092376 -7.1824354e-05   0.50593235  0.021296127            0   0.48463623    1.4293741    1.9353064  -0.51629817 
13945000   0.98094722 3.8213033e-05   0.48027165  0.042119901            0   0.43815175     1.459159    1.9394306    3.2437688 
13950000   0.96681756 7.1404366e-05   0.47640003  0.037067147            0   0.43933289    1.4381411    1.9145412    4.3518102 
13955000   0.90518623 -2.4315244e-05   0.56981371    0.0202717            0   0.54954201    1.3464645    1.9162782    1.0863179 
13960000   0.97936037 9.8982473e-05   0.47117465  0.048074793            0   0.42309986    1.4567985    1.9279732    5.3065749 
13965000   0.96517334 0.00014659569   0.48138024  0.034032533            0    0.4473477    1.4356953    1.9170756    6.9208752 
13970000   0.93444066 3.4443229e-05   0.49146965  0.042791365            0   0.44867829    1.3899805    1.8814501    3.0571124 
13975000   0.92816948 7.4182221e-05   0.49958003  0.024096281            0   0.47548375    1.3806521    1.8802321    4.4123186 
13980000   0.97921802 -6.2315905e-05   0.43173039  0.018530087            0    0.4132003    1.4565868    1.8883172  -0.23873237 
13985000   0.86350839 -0.00012443072   0.60939725  0.087293148            0    0.5221041    1.2844687     1.893866   -2.3533694 
13990000    0.9179394 -7.4613673e-05   0.54183122  0.040163067            0   0.50166815    1.3654349    1.9072661  -0.63954728 
13995000   0.97637247 -3.0923228e-05    0.4399442  0.015548838            0   0.42439536    1.4523541    1.8922983   0.83678542 
14000000   0.96381241 4.669079e-06   0.45336908 0.0076639972            0   0.44570508     1.433671      1.88704    2.0464113 
14005000   0.86502862 1.3495752e-05   0.57700308 0.0076363402            0   0.56936674    1.2867301    1.8637332    2.3243882 
14010000    0.9095457 3.813231e-05   0.50356239  0.013484082            0    0.4900783    1.3529492    1.8565116    3.1580945 
14015000   0.94661109 -7.4310208e-05   0.46853511  0.018116687            0   0.45041842     1.408084    1.8766191    -0.659836 
14020000   0.94559957 -5.4289726e-05   0.44690027 0.0068111561            0   0.44008912    1.4065794    1.8534796 0.00039033418 
14025000   0.96466611 -1.9682641e-05   0.42435099 0.0057565996            0   0.41859439    1.4349408    1.8592918    1.1874577 
14030000   0.95246912 1.7973316e-05   0.42684397 0.0023931518            0   0.42445082    1.4167978    1.8436418     2.457131 
14035000   0.90779365 9.5348415e-06   0.50708673 0.0010927797            0   0.50599395     1.350343    1.8574298    2.1828857 
14040000   0.92865608 3.3319175e-05   0.47932892  0.027844541            0   0.45148438    1.3813759    1.8607048    2.9979993 
14045000   0.89937441 7.2083311e-05   0.49745159  0.035573982            0   0.46187761    1.3378194     1.835271    4.2957147 
14050000   0.89023195  2.16672e-05   0.51472192  0.011694881            0   0.50302704      1.32422    1.8389419    2.5785157 
14055000   0.90016205 -8.1081943e-05   0.49631214   0.02332727            0   0.47298487     1.338991    1.8353032  -0.93229379 
14060000   0.94203801 -5.2730439e-05   0.44009414  0.012483823            0   0.42761032    1.4012815    1.8413757  0.041510026 
14065000   0.89007899 2.1314399e-06   0.51345095  0.025131957            0   0.48831899    1.3239925    1.8374434    1.9101966 
14070000   0.85100324 -9.0348326e-06   0.55901982   0.06689065            0   0.49212917    1.2658673    1.8248871    1.5164982 
14075000    0.9189564 0.00010853236   0.46041599  0.028618801            0   0.43179718    1.3669476    1.8273636     5.531935 
14080000   0.91563302 0.00017586097   0.44631997  0.014746747            0   0.43157322    1.3620041    1.8083241    7.8110451 
14085000   0.92185789 8.2596059e-05   0.41250668 0.0093693255            0   0.40313736    1.3712636    1.7837703    4.6030491 
14090000   0.88615717 5.8883689e-06    0.4638678  0.019237633            0   0.44463016    1.3181588    1.7820266    1.9830163 
14095000   0.81356853 4.8878309e-05   0.57330363  0.050486231            0    0.5228174    1.2101832    1.7834868    3.4518664 
14100000   0.90852527 9.0831864e-05   0.43409635  0.023860816            0   0.41023553    1.3514313    1.7855277     4.885922 
14105000   0.93451746 -3.3306472e-05   0.41920353  0.032100382            0   0.38710315    1.3900947    1.8092983   0.67243734 
14110000   0.89366208 -9.4338734e-05   0.47049273  0.029068437            0   0.44142429    1.3293223    1.7998151   -1.4202804 
14115000   0.93177302 -8.3612674e-05   0.42451288   0.01937448            0    0.4051384    1.3860124    1.8105253    -1.043454 
14120000   0.94852341 -6.8525137e-05   0.40379484  0.012077838            0     0.391717    1.4109286    1.8147234  -0.52426793 
14125000    0.8942869 0.00014109405   0.48145211 0.0041528987            0   0.47729921    1.3302518    1.8117039    6.6277142 
14130000   0.92045152 0.00014928201   0.44721864  0.011443425            0   0.43577521    1.3691716    1.8163903    6.9118828 
14135000   0.89627296 -1.472817e-05   0.46647994  0.020370515            0   0.44610942     1.333206     1.799686    1.2969644 
14140000   0.87649802 4.4783711e-06   0.49862018  0.016204878            0    0.4824153    1.3037908     1.802411    1.9552727 
14145000   0.93573238 -8.0255319e-05   0.42357221 0.0092685115            0    0.4143037    1.3919019    1.8154741  -0.92390742 
14150000   0.92017719 -5.3388152e-05   0.44415411  0.026149504            0   0.41800461    1.3687636    1.8129177 -0.0093979054 
14155000   0.96897669 -5.9368129e-05   0.39753325 0.0077170715            0   0.38981617    1.4413528    1.8388861  -0.18754607 
14160000   0.96219266 -2.1681186e-05   0.44398539 0.00066838935            0     0.443317    1.4312616     1.875247    1.1351958 
14165000   0.93680282 0.00018011634   0.48401177 0.0027756329            0   0.48123613    1.3934942     1.877506    8.0254771 
14170000   0.94955826 0.00010846064   0.49529237  0.024826262            0   0.47046611    1.4124679    1.9077603    5.6098833 
14175000   0.96493088 2.3102697e-05   0.46989882  0.036017924            0    0.4338809    1.4353347    1.9052335    2.6938055 
14180000   0.95224174 0.00013231223   0.47926045  0.022858877            0   0.45640158    1.4164596      1.89572    6.4119775 
14185000   0.97170081 7.8499548e-05   0.43642234   0.03210757            0   0.40431477     1.445405    1.8818273    4.5612785 
14190000   0.92385707 4.2637174e-05   0.47235393  0.051259775            0   0.42109416    1.3742374    1.8465913    3.3019402 
14195000   0.88680576 3.6682141e-05   0.51855302  0.044954544            0   0.47359847    1.3191236    1.8376766    3.0897603 
14200000   0.90516797 -4.078062e-05   0.49452233   0.03722691            0   0.45729542    1.3464374    1.8409597   0.44898118 
14205000   0.90290361 -6.6861098e-05   0.49677169 0.0076042848            0    0.4891674    1.3430691    1.8398408  -0.44235135 
14210000   0.93665127 -0.00012322962   0.46157732 0.0062594514            0   0.45531787    1.3932688    1.8548461   -2.3513917 
14215000    1.0018889 5.0238482e-05   0.33855497 0.0023661599            0   0.33618881    1.4903098    1.8288647    3.5436716 
14220000   0.93623177 0.00014942211   0.42307847 0.0079538618            0   0.41512461    1.3926448    1.8157232    6.9159978 
14225000   0.90349085 2.1454257e-05   0.46192727   0.00859673            0   0.45333054    1.3439426    1.8058699    2.5381752 
14230000   0.91710024 -0.00019281595   0.45199905  0.011781673            0   0.44021737    1.3641866    1.8161857   -4.7652654 
14235000   0.96557853 -0.00013530361   0.39971849  0.014212655            0   0.38550584    1.4362981    1.8360165   -2.7823468 
14240000     0.976048 6.1524659e-05   0.37480509  0.010707552            0   0.36409754    1.4518714    1.8266765    3.9267182 
14245000   0.90277792 -7.4026037e-05   0.48146138  0.013574024            0   0.46788736    1.3428822    1.8243435  -0.70241185 
14250000   0.91096351 -9.2120126e-05   0.45649755  0.040731077            0   0.41576648    1.3550582    1.8115558   -1.3328112 
14255000   0.99528308 -1.8971259e-05   0.31860964  0.021519825            0   0.29708982    1.4804836    1.7990932    1.1515409 
14260000   0.89199087 2.4249606e-05   0.45805585  0.051465269            0   0.40659059    1.3268364    1.7848923    2.6126122 
14265000   0.90958851 0.0001030263   0.44485398  0.052200467            0   0.39265351    1.3530129    1.7978669    5.3144979 
14270000   0.89797447 5.9043471e-06   0.45095404   0.02686562            0   0.42408842     1.335737    1.7866911    1.9882261 
14275000   0.88349081 -3.9769935e-06   0.46826034   0.03501717            0   0.43324317    1.3141926    1.7824529    1.6467049 
14280000   0.89305275 -5.9403315e-05   0.46797771  0.013225109            0    0.4547526     1.328416    1.7963937  -0.23123947 
14285000   0.90608328 -0.00015658941   0.45699359  0.011144759            0   0.44584884    1.3477989    1.8047925   -3.5401259 
14290000   0.93536054 -4.1171593e-05   0.40148932  0.021905639            0   0.37958368    1.3913488    1.7928381   0.38751442 
14295000   0.90201933 -7.1202066e-05   0.44877832  0.025222256            0   0.42355606    1.3417537    1.7905321  -0.63983178 
14300000   0.95454181 -4.6429273e-05   0.38369301  0.028871795            0   0.35482122    1.4198809     1.803574    0.2187881 
14305000   0.93112284 -1.3163776e-05   0.41525709  0.025978858            0   0.38927823    1.3850452    1.8003023    1.3509788 
14310000   0.89888008 0.00011363302   0.47794026  0.068264165            0    0.4096761    1.3370841    1.8150244    5.6936981 
14315000   0.86258279 3.4953712e-05   0.54572886    0.1061127            0   0.43961616    1.2830919    1.8288208    3.0219075 
14320000   0.93949049 -0.00017978129   0.40129563  0.027803339            0   0.37349229    1.3974921    1.7987877    -4.337747 
14325000    0.8741601 -0.00010346278   0.50709422  0.053277878            0   0.45381635    1.3003131    1.8074074   -1.7241222 
14330000   0.89934201 -0.00010524044   0.50587259   0.03338745            0   0.47248514    1.3377712    1.8436438   -1.7485632 
14335000   0.97264511 1.307768e-05   0.39238092  0.023092308            0   0.36928861    1.4468096    1.8391905    2.2855753 
14340000   0.97287127 -8.6133508e-05   0.37498358   0.01881239            0   0.35617119     1.447146    1.8221296   -1.1178941 
14345000   0.92144411 -7.1547904e-05   0.45620616  0.015894359            0    0.4403118    1.3706481    1.8268543  -0.61531416 
14350000    0.9372679 -3.298703e-05   0.44263878  0.030189659            0   0.41244912     1.394186    1.8368248   0.71086748 
14355000   0.92817136 -0.0001271675    0.4360485  0.026970149            0   0.40907835    1.3806549    1.8167034   -2.5239471 
14360000   0.92674485 1.0187301e-05   0.45929978   0.04948434            0   0.40981544     1.378533    1.8378327    2.1855593 
14365000   0.89513296 -2.9079091e-06   0.49697932  0.014625975            0   0.48235334    1.3315103    1.8284896     1.729233 
14370000   0.94853606 -6.5366536e-05   0.41975237  0.016986005            0   0.40276636    1.4109474    1.8306998  -0.40047802 
14375000   0.91124993 -2.420438e-05   0.46257234  0.009551535            0    0.4530208    1.3554843    1.8180566   0.99188045 
14380000    0.9364059 -7.8568223e-05   0.43477997  0.022588727            0   0.41219124    1.3929038    1.8276837  -0.85411161 
14385000   0.91069487 0.00014681953   0.49895547  0.026259316            0   0.47269616    1.3546586    1.8536141    6.8650541 
14390000   0.95204523 2.5476375e-05   0.45460591  0.046502618            0   0.40810329    1.4161673    1.8707732    2.7403668 
14395000   0.92421598 1.128597e-05   0.52341141  0.040490995            0   0.48292042    1.3747713    1.8981827    2.2834105 
14400000   0.98073732 3.594742e-06   0.44337021  0.020201849            0   0.42316836    1.4588468     1.902217    2.0249175 
14405000   0.93483761 0.00018461467   0.47287352  0.022055449            0   0.45081807    1.3905709    1.8634445    8.1649585 
14410000   0.96936278 6.474865e-05   0.43810046  0.038087681            0   0.40001278    1.4419271    1.8800276    4.0901149 
14415000   0.98147771 -0.00020788673   0.41625239  0.013859478            0   0.40239291    1.4599481    1.8762005   -5.2196664 
14420000   0.92466284 -3.5419449e-05   0.51245936  0.022908777            0   0.48955058     1.375436    1.8878953   0.67891146 
14425000   0.99848059 -3.8067734e-05   0.42248892  0.019849225            0    0.4026397    1.4852399    1.9077288   0.60835015 
14430000   0.99765859 6.4009505e-05   0.44397394 0.0076223932            0   0.43635154    1.4840172    1.9279911    4.1128489 
14435000   0.95989424 -1.5715823e-05   0.47490427 0.0054905639            0    0.4694137    1.4278427    1.9027469    1.3663135 
14440000   0.95463856 -0.00012091166   0.46415359 0.0064271627            0   0.45772643    1.4200249    1.8841785   -2.2429394 
14445000   0.97005556 0.0001078855   0.47609383  0.010862229            0    0.4652316    1.4429576    1.9190515    5.6015433 
14450000   0.97050328 6.6488087e-05   0.47547068  0.028803537            0   0.44666715    1.4436236    1.9190943    4.1885544 
14455000   0.96923397 3.1929019e-05   0.46765849  0.011969367            0   0.45568912    1.4417355     1.909394    2.9992379 
14460000    1.0139166 1.4244698e-05   0.40481362    0.0164186            0   0.38839502     1.508201    1.9130146    2.3992336 
14465000    1.0146498 -7.3565952e-05   0.41227736  0.032121899            0   0.38015546    1.5092916     1.921569  -0.58948218 
14470000   0.92295839 -7.6645777e-05   0.52882069  0.020590715            0   0.50822997    1.3729006    1.9017213  -0.71445458 
14475000   0.97189403 4.924846e-05   0.45854731  0.009908039            0   0.44863927    1.4456924    1.9042397    3.5852538 
14480000   0.91192071 8.3293958e-05   0.55174563  0.036629822            0   0.51511581    1.3564821    1.9082277    4.7513281 
14485000   0.95863497 0.00014653727   0.49025481  0.018770948            0   0.47148386    1.4259695    1.9162243    6.9180298 
14490000   0.92344661 0.00022466266   0.55187028 0.0062065489            0   0.54566373    1.3736268    1.9254971    9.5939824 
14495000   0.99456611 5.7742658e-05   0.46802814  0.011061749            0   0.45696639    1.4794171    1.9474452    3.9183946 
14500000    1.0110816 -4.8234216e-05   0.43422389  0.019528218            0   0.41469567    1.5039838    1.9382077   0.29181315 
14505000    0.8993064 -7.1677196e-05   0.61169173  0.027438074            0   0.58425365    1.3377183      1.94941  -0.49717163 
14510000    1.0256202 -8.9639302e-05   0.41489057  0.033814562            0   0.38107601      1.52561    1.9405006   -1.1191876 
14515000   0.98697416 4.6146476e-05   0.46573741  0.029399553            0   0.43633786    1.4681241    1.9338615    3.5089945 
14520000    0.9284356 0.00021320723   0.55358821  0.055811673            0   0.49777653     1.381048    1.9346362    9.2121098 
14525000    1.0147451 0.00015426762   0.43065286  0.032655303            0   0.39799756    1.5094333    1.9400861    7.2057542 
14530000   0.90718972 2.026111e-05   0.59348893  0.030612189            0   0.56287674    1.3494447    1.9429336    2.6345129 
14535000   0.89243928 -0.00016655159   0.59362571  0.044351787            0   0.54927392    1.3275034    1.9211291   -3.7638319 
14540000    1.0200506 -2.8416795e-05   0.39866704  0.031887935            0   0.36677911    1.5173252    1.9159923   0.94603236 
14545000   0.94211554 0.0001432556   0.48866398  0.031739999            0   0.45692398    1.4013969    1.8900608    6.7798519 
14550000     0.920518 5.4244463e-05   0.53025088  0.020975047            0   0.50927583    1.3692705    1.8995214    3.7510657 
14555000   0.90264699 1.6637882e-05   0.54723629  0.015651099            0    0.5315852    1.3426874    1.8899237    2.4578301 
14560000   0.94712621 -0.00013504286   0.48238925  0.022436866            0   0.45995238    1.4088502    1.8912395   -2.7182235 
14565000    0.8948999 -0.00015714462   0.53499952  0.034842814            0    0.5001567    1.3311636    1.8661631   -3.4977067 
14570000   0.92975308 -8.091162e-05   0.47624855  0.014650748            0    0.4615978    1.3830077    1.8592563  -0.90252705 
14575000   0.88433938 -8.3781694e-06   0.54714465  0.025623175            0   0.52152147    1.3154548    1.8625995    1.5766246 
14580000   0.94852108 0.00020815563   0.44200456  0.019691159            0    0.4223134    1.4109251    1.8529297    8.9579753 
14585000   0.88672192 -7.1865455e-05   0.54357813   0.01843827            0   0.52513986    1.3189988     1.862577  -0.59043056 
14590000   0.85505397 -0.00016009687   0.58966949 0.0089122589            0   0.58075723    1.2718928    1.8615623   -3.6030777 
14595000   0.92310121 0.00017151927   0.48900978   0.00416226            0   0.48484752     1.373113    1.8621228    7.7166473 
14600000   0.95917274 4.0015075e-05   0.44891549  0.018153012            0   0.43076247    1.4267695    1.8756849    3.2415328 
14605000   0.88080507 -0.00013294324   0.58448347  0.014645642            0   0.56983783    1.3101975     1.894681    -2.643115 
14610000   0.91635168 -0.00017937325   0.50788699 0.0051639376            0   0.50272306    1.3630731    1.8709601   -4.2516467 
14615000   0.95430441 -0.00022378503   0.47761592   0.01069772            0    0.4669182    1.4195278    1.8971437   -5.7413853 
14620000   0.91856953 2.6912035e-05   0.50171998  0.008824391            0   0.49289559    1.3663722    1.8680922    2.7866896 
14625000   0.92738877 8.867264e-05   0.50421494 0.0060556288            0   0.49815931    1.3794908    1.8837057    4.9103985 
14630000    1.0062165 -8.3301283e-05   0.42021874 0.0057676476            0   0.41445109    1.4967471    1.9169658  -0.92638469 
14635000    0.9100019 -6.3694695e-05   0.55178461  0.006091458            0   0.54569315    1.3536278    1.9054124  -0.26869982 
14640000   0.98726251 1.1632771e-05   0.41941793 0.0041542379            0   0.41526369     1.468553    1.8879709    2.2850362 
14645000   0.94633846 1.8741451e-05    0.4867524  0.003663906            0    0.4830885    1.4076785    1.8944309    2.5341391 
14650000    0.9170257 -5.2623617e-05   0.51810427  0.011641853            0   0.50646241    1.3640757      1.88218   0.08596052 
14655000   0.92973099 -4.9522916e-05   0.50975244  0.019400286            0   0.49035215    1.3829748    1.8927273    0.2023451 
14660000   0.90604072 1.9461764e-05   0.56450285  0.023436553            0    0.5410663    1.3477356    1.9122384    2.5765333 
14665000   0.96692705 -1.8715701e-05   0.46480325  0.011460032            0   0.45334322     1.438304    1.9031072     1.264278 
14670000   0.94255789 6.6138775e-05   0.49730297 0.0057891779            0   0.49151379    1.4020549    1.8993578    4.1568947 
14675000   0.93039214 2.7185453e-07   0.51634397  0.034798946            0   0.48154503    1.3839583    1.9003023    1.9095816 
14680000   0.96310712 7.7217343e-05   0.44502485  0.027494932            0   0.41752992    1.4326218    1.8776467     4.513332 
14685000   0.93523194 0.00012230247   0.49981738  0.031111975            0   0.46870541    1.3911575    1.8909749    6.0655659 
14690000   0.91403604 -0.00018016517   0.51152108  0.013401166            0   0.49811992    1.3596286    1.8711497   -4.2784881 
14695000   0.90091028 5.9920324e-06   0.54651822  0.015098165            0   0.53142005     1.340104    1.8866223    2.0911503 
14700000   0.91095083 0.00018600393   0.52758441  0.022225626            0   0.50535878    1.3550394    1.8826238     8.231558 
14705000   0.92321592 0.00020396075   0.52100039   0.05897114            0   0.46202925    1.3732837    1.8942841    8.8561442 
14710000   0.95301498 4.4414098e-05   0.46900066  0.020025513            0   0.44897515    1.4176098    1.8866104    3.4026116 
14715000   0.94185363 -0.00011329073   0.44983267  0.014558068            0    0.4352746    1.4010073    1.8508399   -2.0161502 
14720000   0.90448159 5.2561901e-05   0.51147925  0.019612043            0   0.49186721    1.3454164    1.8568956    3.6510085 
14725000   0.84730064 -0.00011299501   0.59400541  0.028524897            0   0.56548052    1.2603597    1.8543651   -2.0025311 
14730000   0.92367324 -4.9579854e-05   0.49467901  0.011616688            0   0.48306232    1.3739639     1.868643   0.17631726 
14735000   0.92637353 -2.6326981e-05   0.49112912 0.0037105057            0   0.48741862    1.3779806    1.8691097   0.97048213 
14740000   0.99322704 6.0622557e-05   0.40713227  0.005859243            0   0.40127303    1.4774252    1.8845575    3.9538075 
14745000    0.9523007 3.1925113e-05   0.46586726  0.011141609            0   0.45472565    1.4165473    1.8824146    2.9721251 
14750000    1.0068441 4.314213e-05    0.3856927 0.0067179206            0   0.37897478    1.4976806    1.8833733     3.355958 
14755000   0.94161443 -4.507121e-05   0.48524456  0.012086802            0   0.47315776    1.4006515     1.885896   0.34746539 
14760000   0.96423625 7.2414308e-06   0.46380978  0.011775647            0   0.45203413    1.4343014    1.8981112    2.1452854 
14765000   0.91125629 -1.5911714e-05   0.53581362  0.055202948            0   0.48061067    1.3554937    1.8913073    1.3481875 
14770000   0.97371789 1.5279549e-05   0.44544766  0.047527811            0   0.39791985    1.4484054     1.893853     2.415395 
14775000   0.91949689 7.4947886e-05   0.52966628   0.07088288            0    0.4587834    1.3677516    1.8974179    4.4556391 
14780000   0.94336984 -3.5259893e-05   0.50695606  0.020241521            0   0.48671454    1.4032626    1.9102187   0.70668101 
14785000    1.0112003 -3.915333e-05   0.43138239 0.0044818606            0   0.42690053    1.5041604    1.9355428   0.59910913 
14790000   0.99188709 -5.2022688e-05   0.45267661 0.0074946552            0   0.44518196     1.475432    1.9281087   0.15240091 
14795000   0.93395081 9.2447192e-05    0.5477579  0.012305839            0   0.53545206    1.3892518    1.9370097    5.0925405 
14800000    1.0287301 -6.3209024e-05   0.40687814   0.01397242            0   0.39290572    1.5302361    1.9371142  -0.22042047 
14805000   0.95873918 -0.0001311815   0.53781089  0.028304951            0   0.50950594    1.4261245    1.9639354   -2.5137265 
14810000   0.98395256 0.00010998428   0.50497434  0.020016902            0   0.48495743    1.4636294    1.9686038    5.7227338 
14815000   0.95337022 -0.00012219157   0.56639718  0.046703452            0   0.51969372    1.4181382    1.9845354   -2.1862701 
14820000    1.0255801 2.0653409e-05   0.47851236  0.037990997            0   0.44052136    1.5255503    2.0040627    2.7090324 
14825000   0.97407153 1.3988454e-05   0.54660723 0.0079161083            0   0.53869113    1.4489314    1.9955386    2.4730112 
14830000    1.0701698 2.8938967e-05   0.39265598 0.0035164469            0   0.38913953    1.5918776    1.9845336     2.972317 
14835000    1.0005287 5.0131718e-06   0.48852269  0.010966692            0     0.477556    1.4882864    1.9768091    2.1479254 
14840000   0.95138986 -7.8822896e-05   0.54851656  0.010476825            0   0.53803974    1.4151924     1.963709  -0.72677919 
14845000    1.0142747 -2.5939663e-05   0.43937326  0.016926462            0    0.4224468    1.5087336    1.9481069    1.0626997 
14850000   0.97916572 -8.2225244e-05   0.52082624  0.014577718            0   0.50624853     1.456509    1.9773353  -0.82928639 
14855000   0.98847324 0.00011436335   0.51164347 0.0097390249            0   0.50190445     1.470354    1.9819974    5.8855999 
14860000   0.97797377 0.00012354559    0.5393348  0.017948406            0    0.5213864     1.454736    1.9940708    6.2110936 
14865000    1.0333019 -8.0466321e-06   0.46323852  0.030002354            0   0.43323617    1.5370366    2.0002751    1.7256167 
14870000     1.034013 -2.3892232e-05   0.47552115  0.019623433            0   0.45589771    1.5380944    2.0136155     1.198094 
14875000    1.0124889 1.9135654e-05   0.50111169  0.011920654            0   0.48919104    1.5060772    2.0071889    2.6603526 
14880000    1.0190205 9.5045963e-05   0.48486505  0.017710825            0   0.46715423     1.515793     2.000658    5.2448936 
14885000    1.0048269 -6.7901902e-06   0.49304841  0.024223173            0   0.46882523    1.4946799    1.9877284    1.7559565 
14890000    1.0054482 -5.079923e-05   0.47914935  0.019866064            0   0.45928328    1.4956042    1.9747536   0.24080654 
14895000   0.99034133 3.2980154e-05   0.49658952  0.038255061            0   0.45833446    1.4731327    1.9697222    3.0954448 
14900000   0.96388858 -0.00010075728   0.52320326  0.021257938            0   0.50194533    1.4337843    1.9569875   -1.4821942 
14905000    1.0164215 5.9329881e-06   0.43757048 0.0039773005            0   0.43359318    1.5119269    1.9494974    2.1520101 
14910000   0.99114907 -1.9412183e-05   0.45639787  0.023493231            0   0.43290464    1.4743342    1.9307321    1.2681296 
14915000   0.97074645 9.812897e-06   0.47014596  0.039149504            0   0.43099645    1.4439853    1.9141313    2.2490782 
14920000    0.9326747   3.2466e-05   0.53076402  0.031254132            0   0.49950988    1.3873536    1.9181176    3.0262904 
14925000   0.93960538 1.7877379e-05   0.49649629  0.026700473            0   0.46979582     1.397663    1.8941593    2.5043738 
14930000   0.92190664 0.00025429038    0.5174589  0.018729351            0   0.49872955    1.3713361     1.888795    10.568573 
14935000   0.92204494 3.7609698e-05    0.5140579  0.016214793            0   0.49784311    1.3715418    1.8855997    3.1693441 
14940000   0.96086726 0.00025346154   0.47288096  0.027131655            0   0.44574931    1.4292901     1.902171    10.553658 
14945000   0.93182393 6.4225987e-05   0.51565857  0.028079579            0   0.48757899    1.3860881    1.9017467    4.0939937 
14950000   0.94500315 1.9668361e-05   0.49585597  0.020842898            0   0.47501307    1.4056922    1.9015482    2.5728949 
14955000   0.97161314 4.9217685e-05   0.45385473  0.013117934            0    0.4407368    1.4452745    1.8991293    3.5790929 
14960000   0.95209695 1.4980267e-05   0.49388544  0.021170141            0    0.4727153    1.4162442    1.9101297    2.4214561 
14965000   0.97565669 0.00015072953   0.47537429  0.027926936            0   0.44744735    1.4512893    1.9266636    7.0715648 
14970000   0.99210985 5.0175147e-06   0.43474467  0.002592215            0   0.43215245    1.4757634    1.9105081    2.0817726 
14975000   0.98042024 -6.5840124e-05   0.43294165 0.0065597238            0   0.42638192    1.4583751    1.8913168  -0.35602616 
14980000   0.93573148 -0.00010662622   0.48400472  0.017361746            0   0.46664298    1.3919006    1.8759053   -1.7636031 
14985000   0.93995177 -3.7074575e-05   0.50621048  0.032634213            0   0.47357627    1.3981783    1.9043887   0.63890991 
14990000   0.97851929 -8.8152984e-05   0.43722956  0.035974509            0   0.40125505    1.4555474     1.892777   -1.1161782 
14995000   0.97836469 -4.6659322e-05   0.44403612  0.021097345            0   0.42293877    1.4553175    1.8993536   0.30671542 
15000000   0.94458983 2.085649e-05   0.50434545  0.036570824            0   0.46777462    1.4050774    1.9094228    2.6213244 
15005000   0.95213785 -1.6864228e-05    0.4876504  0.015431638            0   0.47221876    1.4163051    1.9039555    1.3283231 
15010000   0.97742038 -1.98126e-05    0.4400122  0.016661772            0   0.42335043    1.4539128     1.893925    1.2176549 
15015000   0.96107923 8.5344618e-05     0.463113  0.017701702            0    0.4454113    1.4296054    1.8927184    4.8058146 
15020000   0.92564675 0.00012619941   0.51640026   0.02569508            0   0.49070518    1.3768995    1.8932998    6.2009065 
15025000   0.90494752 1.8737049e-06   0.53880862  0.022432035            0   0.51637658    1.3461094     1.884918    1.9488738 
15030000   0.98107925 -0.00012855769   0.44329033 0.0079254253            0    0.4353649    1.4593554    1.9026457   -2.4854569 
15035000   0.95195793 -0.00011090852   0.52841171 0.0039447211            0   0.52446698    1.4160374    1.9444491   -1.8412285 
15040000    1.0065152 1.9932558e-05   0.44543103 0.0099529094            0   0.43547812    1.4971914    1.9426224     2.622987 
15045000    1.0035141 0.00012104329   0.46010287 0.0032384336            0   0.45686444    1.4927272    1.9528301    6.0844411 
15050000   0.99660958 3.8831461e-05   0.49227674 0.0082837794            0   0.48399296    1.4824568    1.9747335    3.3001807 
15055000    1.0089478 0.00013054758   0.47312954  0.018908749            0   0.45422079    1.5008099    1.9739394    6.4299636 
15060000   0.96290248 -1.7908832e-05   0.53907727    0.0231205            0   0.51595677    1.4323174    1.9713947    1.3601066 
15065000    1.0590245 6.8384627e-05    0.4018754  0.020548225            0   0.38132717    1.5752989    1.9771743    4.3113696 
15070000    1.0303832 5.1366483e-05   0.42934301  0.022370327            0   0.40697268     1.532695     1.962038    3.7153473 
15075000   0.98310815 0.00010445298   0.51089265  0.030549348            0    0.4803433    1.4623734     1.973266    5.5385943 
15080000      1.01626 -8.8938237e-05   0.46495488  0.010411544            0   0.45454334    1.5116868    1.9766417   -1.0591168 
15085000    1.0009148 -0.00010537248   0.49290365 0.0094706882            0   0.48343296    1.4888608    1.9817644   -1.6149496 
15090000   0.96136992 3.2833623e-05   0.53347164   0.02129491            0   0.51217673    1.4300378    1.9635094    3.0842304 
15095000     1.044831 -3.2716744e-05   0.41857631  0.017397486            0   0.40117882    1.5541861    1.9727625   0.85603091 
15100000    1.0252893 -0.00012765817   0.47300172  0.018683002            0   0.45431872    1.5251179    1.9981196   -2.3592791 
15105000   0.97020612 9.9274611e-06   0.55873726  0.037526015            0   0.52121125    1.4431816    2.0019189    2.3407762 
15110000   0.98572432 9.5471401e-05   0.54928577  0.047905468            0   0.50138031    1.4662649    2.0155507    5.2743078 
15115000     1.016122 -0.00013116893   0.49867811  0.025703754            0   0.47297436    1.5114815    2.0101596   -2.4670732 
15120000   0.99596886 -3.3645203e-05   0.55503391  0.012798663            0   0.54223525    1.4815037    2.0365376   0.88811467 
15125000    1.0641808 8.8638258e-05   0.45531939  0.019171081            0   0.43614831     1.582969    2.0382884    5.0638076 
15130000   0.98391932 1.8375424e-05   0.57573006  0.042342416            0   0.53338765      1.46358      2.03931    2.6665245 
15135000   0.96251428 3.1774282e-05   0.60477774  0.077904725            0   0.52687301      1.43174    2.0365177    3.1210799 
15140000    1.0125117 3.2338826e-05   0.53069355  0.031543909            0   0.49914964    1.5061111    2.0368047    3.1406366 
15145000    1.0062448 7.1013481e-05    0.5291453  0.043676999            0    0.4854683    1.4967892    2.0259345    4.4498613 
15150000    1.0254922 -4.1666467e-05   0.50063117  0.030410591            0   0.47022057    1.5254197    2.0260509   0.60383545 
15155000    1.0310129 -0.0001024987   0.48284135  0.012123562            0   0.47071779    1.5336316     2.016473   -1.4821494 
15160000    0.9867944 1.1213447e-05   0.52674926 0.0040307561            0    0.5227185    1.4678567    1.9946059    2.3773582 
15165000   0.98672087 -3.2024566e-05    0.5431489 0.0030882322            0   0.54006067    1.4677473    2.0108962   0.91779101 
15170000    1.0221681 -0.00013965638   0.50924296 0.0081442899            0   0.50109867     1.520475     2.029718   -2.7372197 
15175000   0.98548458 -8.2822822e-05   0.55584379  0.021089164            0   0.53475462    1.4659083    2.0217521  -0.80526688 
15180000   0.96598183 0.00018022395   0.56787411  0.014257251            0   0.55361686     1.436898    2.0047721    8.1564162 
15185000   0.95807812 0.00022715471   0.60695585  0.013227185            0   0.59372866    1.4251412     2.032097    9.7856444 
15190000    1.0348039 7.1660473e-05   0.50425462  0.037407903            0   0.46684672    1.5392709    2.0435255    4.4895363 
15195000    1.0532086 1.3404556e-05   0.45980285  0.041770927            0   0.41803192    1.5666478    2.0264506    2.4839928 
15200000    1.0258744 -4.1224238e-06   0.48506153  0.017968809            0   0.46709272    1.5259881    2.0110496    1.8703376 
15205000   0.98184416 -6.2529514e-06   0.54527095  0.027350304            0   0.51792065    1.4604932    2.0057641    1.7923301 
15210000   0.97464085 -3.1308048e-05   0.55263311   0.01187721            0    0.5407559    1.4497783    2.0024114   0.93376335 
15215000   0.98940204 -4.012523e-05   0.52543728  0.015431146            0   0.51000614    1.4717355    1.9971728   0.62756498 
15220000   0.96192989 0.00011430113    0.5566966  0.019523698            0   0.53717291    1.4308707    1.9875673    5.8890458 
15225000     0.965234 0.00013661822    0.5558426  0.032478614            0   0.52336398    1.4357856    1.9916282    6.6548635 
15230000   0.90421307 -1.9024576e-05   0.61937225   0.02693768            0   0.59243457    1.3450169    1.9643892     1.315017 
15235000   0.98180537 -1.209893e-05   0.49040591  0.003419993            0   0.48698592    1.4604355    1.9508414    1.5378646 
15240000   0.97984312 8.5206899e-05   0.48245342  0.004042544            0   0.47841088    1.4575166    1.9399701    4.8483655 
15245000   0.90473229 2.6505121e-05   0.58895537   0.01096069            0   0.57799468    1.3457893    1.9347447    2.8394528 
15250000   0.91561266 2.5424304e-06   0.59743004  0.011441552            0   0.58598848    1.3619738    1.9594039    2.0461855 
15255000   0.98830441 -7.6324156e-05   0.51169985 0.0093224697            0   0.50237738    1.4701028    1.9818027  -0.62339521 
15260000   0.96461696 -1.0852036e-05   0.53717972  0.012040232            0   0.52513949    1.4348677    1.9720475    1.6016313 
15265000   0.99670544 -9.4308043e-05   0.48897613  0.005469738            0   0.48350639    1.4825993    1.9715755   -1.2474724 
15270000   0.92124015 -7.4154107e-05   0.60361699   0.01012258            0   0.59349441    1.3703447    1.9739617  -0.55716513 
15275000   0.93020855 5.8983207e-05   0.56816581  0.010993814            0     0.557172    1.3836852     1.951851    3.9651445 
15280000    0.9082524 -0.0001084843   0.61876321  0.031474848            0   0.58728837    1.3510254    1.9697887   -1.7331423 
15285000   0.91280771 -0.00012526565   0.59830002  0.011858408            0   0.58644161    1.3578015    1.9561015   -2.3196326 
15290000   0.98985373 -9.949359e-05   0.50114242 0.0094046462            0   0.49173777    1.4724074    1.9735498    -1.422498 
15295000   0.94759356 9.3664896e-05   0.57741117 0.0043567304            0   0.57305444    1.4095454    1.9869566    5.1840517 
15300000   0.95703573 5.2496903e-05   0.55358723 0.0043643564            0   0.54922287    1.4235907    1.9771779    3.7690722 
15305000   0.95850402 -0.00013697809   0.54671707   0.02379605            0   0.52292102    1.4257747    1.9724918    -2.703027 
15310000    1.0078076 -5.6879191e-05   0.47366769  0.020870227            0   0.45279746    1.4991138    1.9727814  0.031305056 
15315000   0.99325762 1.6911744e-05   0.48714065  0.017458172            0   0.46968248    1.4774707    1.9646114    2.5418655 
15320000    0.9108456 -0.00010155726   0.60121391  0.030292712            0    0.5709212    1.3548828    1.9560967    -1.510391 
15325000   0.98725483 -9.7726582e-05   0.50129785  0.037103941            0   0.46419391    1.4685416    1.9698394   -1.3658946 
15330000   0.96544584 -7.4533686e-05   0.53052901  0.024000362            0   0.50652865    1.4361007    1.9666297  -0.57745346 
15335000    0.9021322 -8.7640366e-05   0.62925697  0.053569465            0   0.57568751    1.3419216    1.9711786   -1.0202792 
15340000    0.9821317 1.1656459e-06   0.50447008  0.040167465            0   0.46430261    1.4609209     1.965391    2.0051784 
15345000    1.0002446 -5.9760562e-06   0.49410872  0.031101274            0   0.46300745    1.4878638    1.9819725    1.7779898 
15350000     1.040783 -1.6042552e-05   0.44021976  0.048293798            0   0.39192596    1.5481647    1.9883844    1.4407987 
15355000   0.97946584 -0.00021413329   0.53173459  0.011196515            0   0.52053808    1.4569554      1.98869    -5.320393 
15360000   0.97553576 -0.00025689045   0.51641357  0.011131342            0   0.50528223    1.4511094     1.967523   -6.8010045 
15365000   0.96423658 -0.00011718618   0.54356265  0.014588982            0   0.52897367    1.4343019    1.9778646   -2.0220903 
15370000   0.96336381 -1.2987059e-05   0.55641484  0.018253157            0   0.53816169    1.4330037    1.9894185    1.5461269 
15375000   0.88558283 0.00012213412   0.67010466  0.020737946            0   0.64936672    1.3173045    1.9874091    6.1562537 
15380000   0.97364125 0.00020394159   0.54242355  0.026581396            0   0.51584216    1.4482914    1.9907149    8.9519213 
15385000   0.96835035 -4.915312e-05   0.56022421  0.027553401            0    0.5326708    1.4404211    2.0006454   0.32288552 
15390000   0.97206332 -5.8706975e-05   0.53016487  0.016553901            0   0.51361097    1.4459442    1.9761091 -0.027755699 
15395000   0.97029719 -2.6138852e-05   0.51644395  0.020015551            0   0.49642839    1.4433171     1.959761    1.0675549 
15400000   0.88628514  -0.00012783   0.65214362   0.07693399            0   0.57520963    1.3183491    1.9704928   -2.3927712 
15405000   0.94822634 -0.00013931437   0.55116988  0.024889213            0   0.52628067    1.4104867    1.9616566   -2.7936074 
15410000   0.98664195 -4.7234705e-05   0.48531872  0.055052383            0   0.43026634    1.4676299    1.9529486   0.34067068 
15415000    1.0599584 -5.1769916e-05   0.36016052  0.024486404            0   0.33567411    1.5766882    1.9368487   0.16976891 
15420000   0.94848254 -6.5872142e-05    0.5286474  0.017578234            0   0.51106916    1.4108678    1.9395152  -0.30892058 
15425000   0.97078516 0.00023763567   0.48837368  0.018875566            0   0.46949812    1.4440429    1.9324166    10.043714 
15430000   0.94341176 6.9684991e-05   0.54565001  0.030374816            0   0.51527519     1.403325     1.948975    4.3275561 
15435000    1.0070499 -2.6466618e-05   0.46660701  0.011706818            0   0.45490019    1.4979868    1.9645938    1.0611999 
15440000   0.95829005 9.7426219e-05   0.53465165  0.013223185            0   0.52142846    1.4254564    1.9601081    5.2855897 
15445000   0.97870608 1.1205533e-05   0.52359022   0.01604682            0    0.5075434    1.4558253    1.9794155    2.3618977 
15450000   0.97056689 -1.2703739e-05   0.51752654 0.0080718675            0   0.50945467    1.4437182    1.9612448    1.5276238 
15455000    1.0088845 -0.00015374917   0.45649532  0.024638219            0    0.4318571    1.5007158    1.9572111   -3.2907604 
15460000   0.98855918 8.1376221e-05   0.48447184  0.032640522            0   0.45183131    1.4704818    1.9549536    4.7325953 
15465000   0.98635985 0.00013379651   0.50195894  0.006460395            0   0.49549854    1.4672103    1.9691692      6.53609 
15470000   0.99739755 4.7831491e-05   0.50381366 0.0071444058            0   0.49666925    1.4836289    1.9874425    3.6200907 
15475000    1.0080509 -2.4776724e-05    0.5067336  0.017451367            0   0.48928223    1.4994757    2.0062093    1.1604971 
15480000    1.0018345 -0.00014989903   0.52843599  0.017563417            0   0.51087257    1.4902288    2.0186648   -3.0978887 
15485000    1.0063203 8.183351e-05   0.51920313  0.024316399            0   0.49488673    1.4969014    2.0161045     4.809355 
15490000    1.0275693 2.9635363e-05   0.49059234  0.035160143            0    0.4554322    1.5285093    2.0191016    3.0306554 
15495000    0.9926524 -0.00018796102   0.50578465  0.036148402            0   0.46963624    1.4765704    1.9823551   -4.4333811 
15500000    1.0331875 2.2363757e-05   0.43656735  0.023377502            0   0.41318984    1.5368664    1.9734338    2.7367833 
15505000   0.98899608 -1.9506554e-05   0.49628819  0.010343207            0   0.48594498    1.4711317    1.9674198    1.3015961 
15510000    1.0211938 -9.1612551e-05   0.47007285  0.021837296            0   0.44823555    1.5190258    1.9890987   -1.1379431 
15515000   0.98459511 0.00014578471   0.53738742  0.047231061            0   0.49015636    1.4645852    2.0019726    6.9780909 
15520000   0.96990806 -2.7715366e-05   0.55828482  0.024277912            0    0.5340069    1.4427382    2.0010231    1.0550052 
15525000    1.0557019 -5.9721517e-05   0.41076858  0.019413504            0   0.39135507    1.5703565    1.9811251 -0.057369328 
15530000   0.98770874 -1.900616e-05   0.50947978  0.028523731            0   0.48095605    1.4692168    1.9786965    1.3299529 
15535000   0.96134042 -0.00011937996   0.53486546  0.058008056            0   0.47685741    1.4299939    1.9648593   -2.1099768 
15540000    1.0182525 -7.1648811e-05   0.43628512  0.020878147            0   0.41540697    1.5146506    1.9509358  -0.49467697 
15545000   0.93734976 -1.9784472e-05   0.56666837   0.01363458            0   0.55303379    1.3943078    1.9609761    1.2856661 
15550000   0.99809752 9.5885538e-05   0.47626333 0.0044165678            0   0.47184676    1.4846701    1.9609334    5.2338264 
15555000    1.0201222 0.00022440346   0.44133051  0.013354451            0   0.42797606    1.5174318    1.9587623    9.6184002 
15560000    1.0321374 -5.2161705e-05    0.4049387     0.010239            0    0.3946997    1.5353044    1.9402431   0.15979023 
15565000    1.0019733 -0.00018030054   0.46286304 0.0055790819            0   0.45728396    1.4904354    1.9532984   -4.2009602 
15570000   0.97662099 -8.7456275e-05   0.49244429 0.00040846669            0   0.49203583    1.4527237     1.945168   -1.0400062 
15575000    1.0436003 -0.00015258657   0.42093039 0.0016236992            0   0.41930669    1.5523554    1.9732858   -3.2350026 
15580000    1.0426098 3.4890536e-06   0.43406805  0.012192193            0   0.42187586    1.5508821    1.9849501    2.1040431 
15585000   0.99200378 3.4270423e-05   0.51028052  0.028258019            0    0.4820225    1.4756056    1.9858861    3.1556499 
15590000   0.96680137 7.9905113e-05    0.5730317   0.03987884            0   0.53315286     1.438117    2.0111487    4.7385766 
15595000    1.0316383 0.00010597687   0.49655101  0.016782003            0   0.47976901     1.534562     2.031113    5.6484567 
15600000    1.0664934 9.7071401e-05   0.41951276  0.013897889            0   0.40561487     1.586409    2.0059217    5.3192922 
15605000    1.0501563 0.00011797941   0.42399891  0.014613635            0   0.40938528    1.5621076    1.9861065    6.0131372 
15610000    1.0054732 -6.9949398e-05   0.48781267  0.018370431            0   0.46944224    1.4956414    1.9834541  -0.40415201 
15615000   0.95554467 -0.00010043602   0.54201904  0.033365531            0   0.50865351    1.4213727    1.9633917   -1.4648243 
15620000   0.99320687 -7.7451875e-05   0.47639777  0.018356548            0   0.45804123    1.4773952     1.953793  -0.68989766 
15625000   0.97422887 -6.9586298e-05   0.52329625  0.016577254            0     0.506719    1.4491654    1.9724617  -0.40275061 
15630000   0.99881241 2.0967801e-06   0.47627572 0.0074633868            0   0.46881233    1.4857335    1.9620092    2.0335793 
15635000    1.0359163 -0.00013853006   0.41474489  0.005128468            0   0.40961643    1.5409254    1.9556703   -2.7728224 
15640000   0.93570868 -0.00016151127   0.55298642  0.026162306            0   0.52682412    1.3918667    1.9448531   -3.5680651 
15645000   0.92337613 -4.2298464e-05   0.57534393  0.031970982            0   0.54337295     1.373522    1.9488659   0.50507835 
15650000   0.94087752 -1.8629724e-05   0.51631599  0.038904691            0    0.4774113    1.3995553    1.9158713    1.2799767 
15655000   0.93660899 -5.203509e-05    0.5333308   0.02291339            0   0.51041741    1.3932059    1.9265367    0.1504056 
15660000   0.91230988 5.0448066e-06   0.55415184  0.018839744            0   0.53531209     1.357061    1.9112128    2.0834089 
15665000   0.93649764 3.3676069e-05   0.53106299  0.019759201            0   0.51130379    1.3930402    1.9241032    3.0735797 
15670000   0.97332171 6.8003406e-05   0.48318084  0.008472396            0   0.47470844     1.447816    1.9309969    4.2521798 
15675000    1.0024837 -3.3390801e-05   0.45003297 0.0093047859            0   0.44072818    1.4911945    1.9412274   0.80148811 
15680000   0.94737469 -2.6197589e-05   0.51409714  0.016382224            0   0.49771492    1.4092199     1.923317     1.029106 
15685000   0.96525259 5.4993792e-05   0.49169174 0.0070318503            0   0.48465989    1.4358132     1.927505    3.8046264 
15690000   0.93001353 -3.690091e-05   0.53871469 0.0083418843            0   0.53037281    1.3833951    1.9221098   0.66255878 
15695000   0.99397381 -2.8373139e-05   0.43587662  0.019691814            0   0.41618481     1.478536    1.9144127   0.94594287 
15700000    0.9222144 -4.65462e-05   0.52971831  0.031092923            0   0.49862538    1.3717939    1.9015122   0.31273527 
15705000   0.94770719 -0.00017015767   0.48199706  0.028729257            0    0.4532678    1.4097144    1.8917115    -3.916337 
15710000   0.90272444 -5.8651042e-06   0.53342337  0.027132364            0     0.506291    1.3428026     1.876226    1.6760304 
15715000   0.89873122 0.00018959325   0.54121543  0.020210508            0   0.52100492    1.3368627    1.8780781    8.3495279 
15720000   0.91584905 4.2723039e-05   0.50468338  0.018867872            0    0.4858155    1.3623255    1.8670088    3.3252886 
15725000   0.95876774 -0.00012210592   0.45733036  0.016688638            0   0.44064173     1.426167    1.8834974   -2.2843847 
15730000    0.9099393 -0.00010221411   0.54351408  0.033834938            0   0.50967915    1.3535347    1.8970488   -1.5918595 
15735000   0.92262845 -9.5095025e-05   0.53349904  0.030776009            0   0.50272303    1.3724098    1.9059088   -1.3400013 
15740000   0.94213119 5.152131e-05   0.48043244  0.028194492            0   0.45223795    1.4014201    1.8818526    3.6404466 
15745000   0.94714196 6.9915077e-05   0.45610204  0.022832745            0    0.4332693    1.4088737    1.8649757    4.2514104 
15750000   0.91184348 -6.5884535e-05    0.5117153  0.022043224            0   0.48967208    1.3563672    1.8680825   -0.3807763 
15755000   0.89626242 6.6820916e-05   0.51928275 0.0067751886            0   0.51250757    1.3331904    1.8524731    4.1332937 
15760000    0.9304135 1.1303394e-05   0.46349634  0.012658031            0   0.45083831    1.3839901    1.8474864    2.2333089 
15765000   0.92756453 -0.00012509365    0.4891323  0.024670464            0   0.46446184    1.3797522    1.8688845   -2.4009789 
15770000   0.92427197 7.9778713e-05   0.50576856  0.022951344            0   0.48281721    1.3748546    1.8806231    4.6037365 
15775000   0.86298133 4.4368019e-05   0.57326648  0.018574407            0   0.55469208    1.2836847    1.8569512    3.3713796 
15780000   0.96707619 3.3433363e-05   0.39632767  0.014857871            0    0.3814698    1.4385258    1.8348535    2.9760456 
15785000   0.89958514 -3.0646436e-05   0.50519646  0.010082476            0   0.49511398    1.3381329    1.8433293   0.79726435 
15790000    0.9263137 0.00010323622   0.47370523  0.011015459            0   0.46268977    1.3778916    1.8515969    5.3753932 
15795000   0.91207879 8.1216376e-05   0.50414459 0.0057581469            0   0.49838644    1.3567172    1.8608618    4.6330474 
15800000   0.91521131 -0.00015079578   0.49645716 0.0070606974            0   0.48939646    1.3613768     1.857834   -3.2893285 
15805000    0.9327343 -5.1768066e-05   0.47818234   0.02315848            0   0.45502386    1.3874423    1.8656246  0.098607961 
15810000   0.91980936 4.2663229e-05   0.52085996  0.039327618            0   0.48153235    1.3682164    1.8890764    3.3453146 
15815000     0.942579 4.8071182e-05   0.51358541  0.057417581            0   0.45616783    1.4020863    1.9156717    3.5565013 
15820000   0.90561422 1.5127186e-05   0.56614173   0.04236454            0   0.52377719    1.3471011    1.9132429    2.4295841 
15825000   0.92243798 0.00012252614   0.54703348  0.029679087            0   0.51735439    1.3721265      1.91916    6.1013857 
15830000   0.93969585 -4.350651e-05   0.53684422  0.020436853            0   0.51640737    1.3977976    1.9346418   0.44961958 
15835000   0.96677234 -6.7824231e-05   0.51195449  0.029096373            0   0.48285811    1.4380739    1.9500283  -0.36503875 
15840000   0.98363384 -4.4026229e-05   0.48657717  0.027724512            0   0.45885266    1.4631553    1.9497325   0.44697055 
15845000   0.89185968 -7.2247625e-05   0.61787432  0.031156908            0   0.58671741    1.3266413    1.9445156  -0.52153668 
15850000   0.97652633 5.0533295e-05   0.46869907  0.010422762            0   0.45827631    1.4525829     1.921282    3.6461518 
15855000   0.91839827 -8.8745839e-05   0.51469368  0.005502403            0   0.50919128    1.3661174    1.8808111   -1.1483802 
15860000   0.92954809 9.7804952e-06   0.50838982 0.0061631698            0   0.50222665    1.3827028    1.8910926    2.2249335 
15865000   0.93230849 -0.00014271596   0.49718531  0.011555605            0   0.48562971    1.3868089    1.8839942   -2.9873772 
15870000   0.92284995 3.5086244e-06   0.50266385  0.018043143            0   0.48462071    1.3727393    1.8754032    1.9951642 
15875000    1.0191852 -4.138253e-06   0.38009867  0.014660826            0   0.36543785     1.516038    1.8961367    1.7548843 
15880000   0.98022803 -6.8060455e-06   0.45313072  0.018173219            0    0.4349575    1.4580892    1.9112199    1.6789069 
15885000   0.95811878 6.9010665e-05   0.49769413  0.025750141            0   0.47194398    1.4252017    1.9228958    4.2784598 
15890000   0.95311872 -2.623837e-05   0.50789388   0.02621911            0   0.48167477    1.4177641     1.925658    1.0300549 
15895000   0.93563593 0.00012436512   0.52576362  0.049566737            0   0.47619688    1.3917584    1.9175221    6.1625181 
15900000    0.9378466 8.0418251e-05   0.51438249  0.024696745            0   0.48968574    1.3950468    1.9094293    4.6543723 
15905000   0.91847527 8.660749e-05   0.54545403   0.01677177            0   0.52868226     1.366232     1.911686    4.8678883 
15910000   0.93557423 3.6357362e-05    0.5040825  0.027925831            0   0.47615667    1.3916667    1.8957492    3.1367471 
15915000   0.89911001 3.3021638e-05   0.56530259  0.021144624            0   0.54415797    1.3374261    1.9027287    3.0298673 
15920000   0.92873606 -2.843818e-05   0.51241616  0.014232416            0   0.49818374    1.3814949     1.893911   0.92322116 
15925000   0.93565068 3.875095e-05   0.49321515  0.016676031            0   0.47653912    1.3917804    1.8849955    3.2076946 
15930000   0.92091031 3.9312313e-05   0.52793491  0.041457192            0   0.48647772    1.3698541     1.897789    3.2396493 
15935000   0.98341067 9.7765654e-06   0.41051883  0.012681189            0   0.39783764    1.4628234    1.8733422     2.207049 
15940000   0.94586773 0.00013362012    0.4849847 0.0066168498            0   0.47836785    1.4069782    1.8919629    6.4528629 
15945000   0.92155093 -0.00024048168   0.50638134 0.0053082781            0   0.50107306     1.370807    1.8771883   -6.3312529 
15950000   0.93656773 -5.1048855e-05   0.51416562   0.03141086            0   0.48275476    1.3931445    1.9073101   0.16484254 
15955000   0.92779786 5.563482e-05   0.53089597  0.043099936            0   0.48779604    1.3800993    1.9109953    3.8099972 
15960000   0.94602601 -0.00010236461   0.52724518  0.035594351            0   0.49165083    1.4072137    1.9344589   -1.5595865 
15965000   0.96982135 -7.199268e-05   0.49497213 0.0070836037            0   0.48788852    1.4426093    1.9375814  -0.51976876 
15970000   0.97061536 9.2906793e-05   0.49666244  0.016492465            0   0.48016997    1.4437903    1.9404528    5.1116713 
15975000   0.96622758 -0.00010131804   0.48339835  0.032750278            0   0.45064807    1.4372635    1.9206619   -1.5376605 
15980000   0.93458302 -0.00019780347   0.54034098  0.019507889            0   0.52083309    1.3901922    1.9305332   -4.8211584 
15985000   0.98945142 -6.9149318e-05   0.47210121  0.027788637            0   0.44431257     1.471809    1.9439102  -0.41638653 
15990000   0.98034266 6.4010095e-05   0.50782452  0.013204409            0   0.49462011    1.4582597    1.9660842    4.1509622 
15995000   0.99964192 0.00031227794   0.47930936 0.0032710507            0    0.4760383    1.4869674    1.9662767    12.625364 
16000000    1.0362271 -1.4880853e-05   0.42847735 0.0056196637            0   0.42285768    1.5413878    1.9698652    1.4619321 
16005000    1.0071756 -0.00013778943   0.51334169  0.011904716            0   0.50143698    1.4981737    2.0115154   -2.6916971 
16010000    1.0502403 -4.1032298e-05   0.47503852  0.011300072            0   0.46373845    1.5622325     2.037271   0.63670185 
16015000   0.95121144 -3.515777e-06   0.62481935  0.017089864            0   0.60772949     1.414927    2.0397464    1.9197412 
16020000     1.015993 1.261294e-05   0.50861726 0.0072992278            0   0.50131803    1.5112896    2.0199068    2.4504285 
16025000    1.0043501 -5.2878417e-05    0.5277405 0.0018343679            0   0.52590613    1.4939708    2.0217113    0.2167947 
16030000    1.0034097 -3.4524499e-05   0.51994455 0.0021677467            0    0.5177768    1.4925719    2.0125165   0.83408026 
16035000   0.99305213 7.5453576e-05   0.53137759  0.011337746            0   0.52003985     1.477165    2.0085426    4.5840247 
16040000    1.0274862 6.3741264e-05   0.46089382  0.015061901            0   0.44583192    1.5283857    1.9892795    4.1649813 
16045000    1.0066126 -7.0709961e-05   0.46780855  0.010090186            0   0.45771836    1.4973363    1.9651448  -0.44842184 
16050000     1.042596 5.6228445e-05   0.40092641  0.014503205            0   0.38642321    1.5508615     1.951788    3.8710522 
16055000   0.93910331 0.00017947337   0.56313161  0.030053063            0   0.53307854    1.3969162    1.9600478    8.0860722 
16060000   0.95809301 1.0972458e-05   0.53461821  0.018113286            0   0.51650492    1.4251634    1.9597816    2.3343081 
16065000   0.95711041 5.2694525e-05   0.52915815  0.018863436            0   0.51029471    1.4237017    1.9528599    3.7514997 
16070000   0.94426106 6.2171304e-05   0.53973352  0.020714444            0   0.51901907    1.4045883    1.9443219    4.0664357 
16075000   0.95502321 -3.3483601e-05   0.52796862  0.018132555            0   0.50983606     1.420597    1.9485656   0.80565873 
16080000   0.94133317 -0.0001444453   0.57499968  0.052034258            0   0.52296542    1.4002331    1.9752328   -2.9551668 
16085000      0.99201 2.3080874e-05   0.49670981  0.015678477            0   0.48103134    1.4756149    1.9723247    2.7601519 
16090000   0.99068227 7.9786928e-05   0.51534147   0.02156351            0   0.49377796    1.4736399    1.9889813    4.7123752 
16095000   0.96574636 2.2214107e-06   0.53533223  0.058216462            0   0.47711577    1.4365477    1.9718799    2.0477041 
16100000   0.94274682 0.00018066609   0.53658503  0.025147571            0   0.51143746    1.4023359    1.9389209    8.1056567 
16105000   0.98338663 4.8531205e-05   0.48776064 0.0094547529            0   0.47830589    1.4627876    1.9505482      3.60708 
16110000   0.97318351 9.107233e-05   0.48802355   0.01716534            0   0.47085821    1.4476105     1.935634    5.0442362 
16115000   0.99272715 2.6086049e-05    0.4810571  0.016220315            0   0.46483679    1.4766816    1.9577387    2.8481425 
16120000    1.0195959 -0.00014067225   0.45577014  0.012809755            0   0.44296038    1.5166489     1.972419   -2.8291937 
16125000   0.99561274 3.8696187e-05    0.5060123  0.013911332            0   0.49210096    1.4809739    1.9869862    3.3078161 
16130000     1.008936 -8.8208032e-05   0.48072057  0.029485764            0    0.4512348    1.5007923    1.9815129   -1.0293213 
16135000   0.98827801 -0.00019857859   0.50955135  0.015661389            0   0.49388996    1.4700635    1.9796149   -4.7985342 
16140000    1.0329642 8.7662076e-05   0.46400959 0.0032730658            0   0.46073652    1.5365343    2.0005438    4.9927427 
16145000   0.96342942 0.00023130561   0.54903303 0.0013786986            0   0.54765434    1.4331013    1.9821343    9.8773659 
16150000    1.0479749 -5.4122266e-05   0.42072176  0.005860086            0   0.41486167    1.5588627    1.9795845   0.13221115 
16155000   0.99741385 -0.00019965663   0.51739047  0.015901478            0   0.50148899    1.4836531    2.0010436   -4.8139027 
16160000    1.0235339 -9.9584571e-05   0.49285884 0.0076458794            0   0.48521296    1.5225066    2.0153655   -1.3837879 
16165000    1.0215343 4.9010609e-05   0.49248178  0.020816897            0   0.47166489    1.5195322     2.012014    3.6849094 
16170000   0.95855465 8.5367279e-05   0.58989323  0.032820503            0   0.55707272      1.42585    2.0157433    4.9296131 
16175000   0.99577975 2.053437e-05   0.52301099  0.014150876            0   0.50886012    1.4812224    2.0042334    2.7051399 
16180000   0.96915611 0.00010576762    0.5495434 0.0087777993            0    0.5407656    1.4416197    1.9911631    5.6013645 
16185000    1.0296031 9.5312693e-05   0.47816238  0.013928678            0    0.4642337    1.5315347    2.0096971     5.263037 
16190000   0.96321958 -1.6792224e-06   0.55702106  0.033112493            0   0.52390856    1.4327891    1.9898102    1.9324927 
16195000   0.97658604 -8.4196313e-05   0.52685286  0.011859052            0   0.51499381    1.4526717    1.9795246  -0.89437621 
16200000   0.94565279 -8.469074e-05   0.58265084  0.020856202            0   0.56179464    1.4066585    1.9893094  -0.90146788 
16205000    0.9958261 -2.3476801e-05   0.51986806  0.028056805            0   0.49181126    1.4812913    2.0011594    1.1998179 
16210000   0.96102464 1.103283e-05   0.57497219  0.024692322            0   0.55027987    1.4295242    2.0044963    2.3810836 
16215000   0.97245546 1.6914957e-05   0.58912781  0.032382246            0   0.55674557    1.4465275    2.0356553    2.6130192 
16220000    0.9673528 6.3572737e-05    0.5947864 0.0092350675            0   0.58555133    1.4389373    2.0337237    4.2036731 
16225000   0.98011462 8.7652819e-05   0.57042293  0.032264123            0   0.53815881    1.4579205    2.0283434    5.0202263 
16230000   0.96153798 -3.0915391e-05   0.57021205  0.025209212            0   0.54500284    1.4302877    2.0004998   0.94525444 
16235000   0.94447384 -0.00010809178    0.5881433  0.013876713            0   0.57426659    1.4049048    1.9930481   -1.6964847 
16240000    1.0286173 -4.9166067e-05   0.44774107  0.034374226            0   0.41336685    1.5300682    1.9778093   0.29960754 
16245000    0.9570061 9.8156047e-05   0.56924938  0.027900642            0   0.54134874    1.4235466     1.992796     5.343189 
16250000   0.98907792 0.00012139668   0.52120029  0.017366447            0   0.50383384    1.4712534    1.9924537    6.1361271 
16255000   0.97784744 -7.6832078e-05   0.52399452  0.057996692            0   0.46599783    1.4545481    1.9785426  -0.64399233 
16260000    1.0101662 1.2163693e-05   0.48378984  0.043193695            0   0.44059615    1.5026222    1.9864121    2.4015994 
16265000   0.93792414 7.5661028e-05    0.5848821  0.076473592            0   0.50840851    1.3951622    1.9800443    4.5626073 
16270000   0.92940424 -5.4430499e-05   0.58024638  0.048819582            0    0.5314268    1.3824888    1.9627352   0.10484081 
16275000   0.95365489 -2.5183883e-05   0.54505492   0.03186787            0   0.51318705    1.4185616    1.9636166    1.1040067 
16280000   0.98103459 -6.7864778e-05   0.50243649   0.01249401            0   0.48994248     1.459289    1.9617254  -0.35472564 
16285000    1.0012637 -5.8894226e-06   0.48803396  0.017204067            0   0.47082989    1.4893798    1.9774137    1.7763881 
16290000    1.0248176 8.0709326e-05   0.45022115   0.02002882            0   0.43019233    1.5244161    1.9746373    4.7295156 
16295000   0.89871069 -1.0772412e-05   0.63491289  0.025027315            0   0.60988558    1.3368322     1.971745    1.6040467 
16300000   0.96275519 6.8970657e-05   0.53020956  0.021216548            0   0.50899302    1.4320983    1.9623079    4.3165063 
16305000   0.93183689 -3.4940167e-05   0.58886053  0.019824459            0   0.56903607    1.3861074    1.9749679   0.78234353 
16310000      1.03495 -2.5776303e-05    0.4422321  0.022216847            0   0.42001526    1.5394881    1.9817202     1.101889 
16315000    0.9880973 7.2037267e-07   0.51938956   0.01903028            0   0.50035928    1.4697947    1.9891843     2.013773 
16320000   0.94208751 -9.0248624e-05   0.57480005 0.0095801756            0   0.56521988    1.4013552    1.9761552   -1.1043311 
16325000   0.96355618 -0.0001278866   0.56762674  0.023507557            0   0.54411918    1.4332898    2.0009166   -2.3642795 
16330000    1.0041248 -3.1721944e-05   0.49494466  0.024554554            0    0.4703901    1.4936356    1.9885803   0.90580463 
16335000   0.96894397 -3.9801028e-05   0.57987292  0.022265864            0   0.55760705    1.4413041    2.0211771    0.6626353 
16340000   0.99780945 -2.0718237e-05   0.53365134  0.042673802            0   0.49097753    1.4842416    2.0178929    1.3107104 
16345000   0.97231508 1.8323339e-05   0.57844912   0.03080644            0   0.54764269    1.4463187    2.0247678    2.6502044 
16350000    1.0133623 -3.2905327e-05   0.55688061   0.01548972            0   0.54139089    1.5073765    2.0642571   0.94108857 
16355000      1.03869 8.6308391e-05   0.50147809  0.012035216            0   0.48944287    1.5450513    2.0465294    4.9925225 
16360000    1.0705361 0.00012031033   0.42810795 0.0026342213            0   0.42547373    1.5924225    2.0205304     6.127123 
16365000   0.97038448 -1.1111776e-06    0.5689274 0.0075770546            0   0.56135035    1.4434469    2.0123743    1.9744461 
16370000   0.98239516 -0.00011431073   0.55126782  0.016077357            0   0.53519046    1.4613128    2.0125806   -1.8892258 
16375000   0.97145769 -9.2310379e-05   0.58215838  0.013905318            0   0.56825306    1.4450433    2.0272017   -1.1236593 
16380000   0.95226788 -0.0002381872    0.6136849  0.013536399            0    0.6001485    1.4164985    2.0301834   -6.0999398 
16385000    1.0350114 6.1822998e-06   0.50442069  0.010696423            0   0.49372427    1.5395794    2.0440001    2.2550226 
16390000   0.91693965 -3.8392011e-05     0.698726  0.018035263            0   0.68069074    1.3639477    2.0626737   0.75222641 
16395000   0.97688726 4.409553e-05    0.6070952  0.045511259            0   0.56158394    1.4531198     2.060215    3.5653424 
16400000    1.1159933 -7.382054e-05   0.41345825   0.02980424            0   0.38365401      1.66004    2.0734982  -0.44624287 
16405000    1.0239326 -8.4241967e-05   0.53493265  0.010029348            0    0.5249033    1.5230997    2.0580324  -0.81742676 
16410000    1.0487583 7.9025736e-05   0.49977295  0.016845362            0   0.48292758     1.560028    2.0598009    4.7572127 
16415000   0.94631275 -5.6929518e-05   0.62721369  0.029836411            0   0.59737727    1.4076402    2.0348539   0.09165969 
16420000    1.0402374 6.2197992e-05   0.48805948   0.04192713            0   0.44613235    1.5473531    2.0354126    4.1584374 
16425000   0.97817624 7.8223831e-05   0.58542285  0.048555699            0   0.53686715    1.4550372      2.04046    4.7105001 
16430000   0.96289818 -1.7377748e-05   0.60523623  0.039590968            0   0.56564526     1.432311    2.0375473    1.4443868 
16435000    1.0315754 -1.8310376e-05   0.52411974  0.024363415            0   0.49975632    1.5344684    2.0585881     1.433594 
16440000   0.99347098 -9.394717e-05   0.57099719  0.023564128            0   0.54743306    1.4777881    2.0487853   -1.1579448 
16445000   0.99228532 6.2226931e-05   0.56507902  0.042028752            0   0.52305027    1.4760244    2.0411034     4.165116 
16450000    1.0054273 0.00014562164    0.5662397   0.06283364            0   0.50340606    1.4955731    2.0618128    7.0323647 
16455000   0.97351203 4.7110144e-05   0.61455751  0.048858801            0   0.56569871    1.4480991    2.0626567    3.6706829 
16460000    1.0347882 4.3015419e-05   0.52198703  0.040430868            0   0.48155617    1.5392475    2.0612345    3.5294941 
16465000   0.97180658 6.431694e-05   0.61651269  0.029182636            0   0.58733005    1.4455623     2.062075    4.2574265 
16470000   0.96937884 -8.6933263e-05   0.61958227  0.044206105            0   0.57537616     1.441951    2.0615333  -0.90578875 
16475000    1.0359212 -9.4273136e-05   0.51006591  0.013794755            0   0.49627115    1.5409328    2.0509988   -1.1668576 
16480000    1.0672005 -1.1965602e-05   0.48543707   0.00634042            0   0.47909665    1.5874608    2.0728978     1.664472 
16485000   0.98667168 -8.0233335e-05   0.60900164  0.014177451            0   0.59482419    1.4676741    2.0766758  -0.66195541 
16490000    1.0223992 -4.0714807e-05   0.54226729  0.026318028            0   0.51594926    1.5208189    2.0630862   0.67335407 
16495000    1.0314002 6.4380671e-05   0.50424722  0.017616974            0   0.48663024    1.5342078     2.038455    4.2359819 
16500000   0.97098955 -5.0229558e-05   0.56556621  0.027732289            0   0.53783392     1.444347    2.0099132    0.2954109 
16505000   0.95427898 6.7337665e-05   0.61390601  0.037464612            0    0.5764414      1.41949     2.033396     4.331855 
16510000    1.0201048 4.2048867e-05   0.50622558  0.012842618            0   0.49338296    1.5174059    2.0236314    3.4588994 
16515000    1.0243845 -0.00010045883    0.5011703   0.01325998            0   0.48791032     1.523772    2.0249423   -1.4040526 
16520000    1.0452706 -2.4259282e-06   0.48162207  0.018935141            0   0.46268693    1.5548401    2.0364621    1.9536571 
16525000   0.92750661 -4.8273543e-05   0.62314281   0.03722082            0   0.58592199    1.3796661    2.0028089   0.35507196 
16530000    1.0144293 -0.00013555804   0.51010658  0.012712236            0   0.49739434    1.5089636    2.0190702   -2.6079777 
16535000    1.0119701 -0.00012844644   0.50080459  0.012055639            0   0.48874895    1.5053055    2.0061101   -2.3781949 
16540000    1.0296068 -0.00011869382   0.49153366  0.014764712            0   0.47676895      1.53154    2.0230737   -2.0283419 
16545000    1.0109831 -1.0519571e-05   0.52528289 0.0099931233            0   0.51528977    1.5038374    2.0291203    1.6700523 
16550000    1.0236698 -0.00010295063   0.52376486  0.019234637            0   0.50453022    1.5227089    2.0464737   -1.4675745 
16555000    1.0610814 -8.959672e-05   0.47790114  0.014436414            0   0.46346473    1.5783585    2.0562597    -1.001975 
16560000    1.0595754 -7.0086822e-05   0.50766684  0.014902363            0   0.49276447    1.5761184    2.0837852  -0.30851163 
16565000    1.0522765 -4.914466e-05    0.5067405  0.024720499            0      0.48202    1.5652614    2.0720019   0.39453078 
16570000     1.056301 -1.1903885e-05   0.48169786  0.018354884            0   0.46334298    1.5712477    2.0529455    1.6466262 
16575000   0.98119937 -2.3556265e-05   0.57935907  0.023686848            0   0.55567222    1.4595341    2.0388931    1.2348393 
16580000   0.99339371 5.5254031e-05   0.54887404  0.044256908            0   0.50461713    1.4776731    2.0265472    3.9125515 
16585000    1.0071664 6.4432761e-05   0.52433194  0.039227367            0   0.48510458      1.49816    2.0224919    4.2217969 
16590000     1.065544 -5.7517301e-05   0.45852429   0.01775212            0   0.44077217    1.5849967     2.043521  0.080263749 
16595000   0.95138189 -7.4234198e-05   0.62420951  0.018230414            0    0.6059791    1.4151806    2.0393901  -0.49447054 
16600000   0.99408543 -2.8380429e-05   0.54068372  0.017514328            0   0.52316939    1.4787021    2.0193858    1.0506671 
16605000    1.0165423 -7.5067318e-05   0.51962651  0.040111283            0   0.47951523    1.5121066    2.0317331  -0.53056468 
16610000    1.0023963 5.5524393e-05   0.54981319  0.020759817            0   0.52905337    1.4910645    2.0408777    3.9361103 
16615000   0.99016283 0.00015396064   0.54826986  0.022731177            0   0.52553868    1.4728672    2.0211371     7.276327 
16620000   0.99547446 9.5265533e-05   0.53704483  0.024345226            0    0.5126996    1.4807683    2.0178131    5.2695433 
16625000    1.0007034 8.227239e-06    0.5037441  0.029996881            0   0.47374722    1.4885464    1.9922905    2.2731135 
16630000    1.0672845 -6.4120037e-07   0.42963456  0.035081101            0   0.39455346    1.5875857    2.0172203     1.995334 
16635000   0.98813446 2.2896117e-05   0.56028765  0.036285226            0   0.52400243      1.46985    2.0301377    2.8116585 
16640000    1.0571848 -0.00010667454   0.45046133  0.018030705            0   0.43243062    1.5725625    2.0230238   -1.6181338 
16645000   0.99814537 -8.1492002e-05   0.52531656   0.04048316            0    0.4848334    1.4847412    2.0100578   -0.7715359 
16650000   0.93975208 7.0850396e-05    0.6155372   0.02923542            0   0.58630178    1.3978812    2.0134184    4.4317786 
16655000   0.99699644 7.4418708e-05   0.53626371  0.027355276            0   0.50890843    1.4830322    2.0192959    4.5594545 
16660000    1.0578576 -1.807877e-05   0.44170991  0.015650561            0   0.42605935    1.5735632    2.0152731    1.3981844 
16665000    1.0447535 4.9993027e-05   0.49020801  0.014265437            0   0.47594257    1.5540708    2.0442789    3.7507075 
16670000    1.0938222 1.4594182e-05   0.40821087  0.008448706            0   0.39976216    1.6270605    2.0352714    2.5334195 
16675000    1.0587115 -0.00023078924   0.46405173 0.0025389226            0   0.46151281    1.5748334    2.0388851   -5.8387208 
16680000    1.0530068 -6.9331838e-06   0.48455603 0.0098388544            0   0.47471718    1.5663477    2.0509037     1.814251 
16685000    1.0157111 2.8986521e-05   0.53971822  0.015147618            0   0.52457061    1.5108702    2.0505884     3.039995 
16690000    1.0563203 5.7618012e-05   0.45703073  0.011097548            0   0.44593319    1.5712764    2.0283071    3.9950019 
16695000    1.0196338 -3.3457302e-05   0.52723884   0.02004799            0   0.50719085    1.5167052    2.0439441    0.9019348 
16700000     1.018595 -0.00010649842    0.5391126  0.024787287            0   0.51432531    1.5151601    2.0542727   -1.5808736 
16705000    1.0002846 0.00014574019   0.56266905  0.037607168            0   0.52506188    1.4879234    2.0505925    7.0251908 
16710000    1.0484154 -0.00010958626   0.49339244 0.0099144169            0   0.48347802     1.559518    2.0529104   -1.6876339 
16715000    1.0006271 -3.3106109e-05   0.56038723  0.014039466            0   0.54634777    1.4884327      2.04882   0.91879812 
16720000   0.97808756 -2.263698e-05   0.58435891  0.026100769            0   0.55825814    1.4549053    2.0392642    1.2665886 
16725000    0.9960639 -0.00010713239   0.55567074 0.0080603505            0   0.54761039     1.481645    2.0373158   -1.6194698 
16730000    1.0662958 -9.9499391e-06   0.43037373 0.0065863045            0   0.42378743     1.586115    2.0164888    1.6768642 
16735000    1.0023274 9.2288799e-07   0.54020128  0.021988216            0   0.51821306    1.4909621    2.0311633    2.0626646 
16740000    1.0083337 -2.8298138e-05    0.5214246  0.025247099            0    0.4961775    1.4998964     2.021321    1.0554112 
16745000   0.98948945 4.5771396e-05   0.56325945  0.010111959            0   0.55314749    1.4718656     2.035125    3.5974553 
16750000    1.0285537 6.1234326e-05   0.48854909  0.020559117            0   0.46798997    1.5299737    2.0185228    4.1086544 
16755000    0.9885923 0.00011670204   0.53770282  0.043543316            0    0.4941595    1.4705311    2.0082339    5.9916636 
16760000   0.98443481 0.00012180994   0.54688584   0.03140895            0   0.51547689    1.4643468    2.0112326    6.1690118 
16765000   0.97428859  3.38016e-05   0.55692339  0.036617047            0   0.52030634    1.4492543    2.0061777     3.159939 
16770000    1.0214638 -0.00011676454   0.45154382  0.027267683            0   0.42427614    1.5194273    1.9709712   -2.0145917 
16775000   0.98928651 -8.9540557e-05   0.48523766  0.014030002            0   0.47120766    1.4715637    1.9568014   -1.0995163 
16780000   0.97633291 0.00010825132   0.49693944  0.015991057            0   0.48094838    1.4522952    1.9492346    5.6442131 
16785000   0.98030054 0.00012384549   0.49293481  0.024978701            0   0.46795611    1.4581971    1.9511319    6.1783912 
16790000   0.98123127 -8.185846e-05   0.50058735  0.019310447            0   0.48127691    1.4595815    1.9601689  -0.83393322 
16795000   0.94341645 -0.00010607568   0.56385274  0.062258609            0   0.50159413     1.403332    1.9671847   -1.6535319 
16800000   0.92650035 -8.6092556e-05     0.588524  0.041068064            0   0.54745594    1.3781693    1.9666933  -0.97193263 
16805000   0.95131151 -6.5373798e-05   0.55972713  0.020590033            0    0.5391371    1.4150759     1.974803  -0.25662263 
16810000    1.0173558 5.8566036e-05   0.46120706  0.034504939            0   0.42670212    1.5133167    1.9745238    3.9735778 
16815000   0.96145116 3.796936e-05    0.5354295  0.044799948            0   0.49062956    1.4301586    1.9655881    3.2616089 
16820000     0.916356 1.2686618e-05   0.60309975  0.014628365            0   0.58847138    1.3630795    1.9661793    2.3992159 
16825000    1.0121078 2.008874e-05   0.45151237 0.0097245239            0   0.44178785    1.5055103    1.9570227    2.6427184 
16830000   0.96601785 9.6306621e-05   0.52422218  0.015002885            0   0.50921929    1.4369516    1.9611737    5.2484397 
16835000   0.97638866 3.2482505e-05   0.50778363 0.0079726097            0   0.49981102    1.4523781    1.9601618    3.0688979 
16840000   0.92933686 -6.7065069e-05    0.5847193  0.003595876            0   0.58112343    1.3823886    1.9671079  -0.32204646 
16845000    1.0023855 -7.1143357e-05   0.48167504 0.0075621795            0   0.47411286    1.4910485    1.9727235   -0.4556364 
16850000    1.0035886 -5.7518835e-05   0.48293814  0.039518377            0   0.44341977    1.4928381    1.9757762  0.012466655 
16855000   0.94593468 7.122683e-05   0.59624104   0.05072805            0   0.54551299    1.4070778    2.0033189     4.434528 
16860000   0.97120178  9.12325e-05   0.53873683  0.030633925            0   0.50810291    1.4446626    1.9833995    5.0974688 
16865000   0.97915487 -9.4562376e-05   0.54423949  0.018193902            0   0.52604559    1.4564929    2.0007323   -1.2269968 
16870000   0.92165067 -6.6782954e-05   0.62227246  0.013001287            0   0.60927118    1.3709554    1.9932278    -0.286297 
16875000   0.97924706 -7.348585e-05   0.53286296 0.0064903009            0   0.52637266      1.45663     1.989493  -0.51882405 
16880000   0.97237664 -6.6953912e-05   0.54811687 0.0033744694            0    0.5447424    1.4464103    1.9945271  -0.29083308 
16885000    1.0508929 6.5931225e-05   0.45496238 0.0048011438            0   0.45016124    1.5632031    2.0181655     4.268618 
16890000   0.97761322 0.00012040374   0.54872341   0.01111899            0   0.53760442    1.4541997    2.0029231    6.1127042 
16895000    1.0134164 -4.3834416e-05   0.49603884 0.0085658582            0   0.48747298    1.5074569    2.0034957   0.50728097 
16900000    1.0762274 -0.0001454183   0.41013927 0.0055912411            0   0.40454803    1.6008882    2.0110275   -2.9525838 
16905000    1.0252118 0.00012797818   0.49018217  0.011026066            0   0.47915611    1.5250025    2.0151847    6.3835065 
16910000    1.0034484 2.6917223e-05   0.54322537  0.023027739            0   0.52019764    1.4926295    2.0358549    2.9546295 
16915000    1.0441107 -5.5865906e-05   0.49118261  0.016369672            0   0.47481293    1.5531147    2.0442973   0.13740768 
16920000    1.0114453 0.00020792255   0.54968207  0.021401192            0   0.52828088     1.504525     2.054207    9.1512968 
16925000    1.0867941 0.00012260102   0.44852099  0.016852368            0   0.43166862    1.6166063    2.0651273    6.2499086 
16930000    1.0276459 3.1860339e-05    0.5514542  0.023685583            0   0.52776861    1.5286233    2.0800775     3.167577 
16935000   0.97806658 -1.3530747e-05   0.64697662   0.02591609            0   0.62106053     1.454874    2.1018507    1.6400012 
16940000    1.0234173 -6.9741371e-05   0.59186235  0.011468549            0    0.5803938    1.5223333    2.1141956  -0.26630985 
16945000     1.058649 0.00014680642   0.55976871  0.023514479            0   0.53625423    1.5747404    2.1345091    7.1455016 
16950000   0.97896394 0.00020733781   0.68307711  0.056040151            0   0.62703696    1.4562089     2.139286    9.2164166 
16955000    1.0459267 7.8744844e-05   0.59535825  0.050939021            0   0.54441923    1.5558159    2.1511742    4.8389982 
16960000    1.0758857 0.00010017828   0.55769437  0.039139583            0   0.51855479      1.60038    2.1580744    5.5774931 
16965000      1.12154 0.00017445987   0.51684145   0.01881124            0   0.49803021    1.6682908    2.1851323    8.1400291 
16970000    1.0340114 2.9407715e-05   0.63545857 0.0080920255            0   0.62736654    1.5380919    2.1735505    3.1773338 
16975000    1.0504842 -0.00014330831   0.61773779  0.025300031            0   0.59243776    1.5625952     2.180333   -2.7112572 
16980000    1.0501809 -0.00017069604   0.60059047  0.037756017            0   0.56283446     1.562144    2.1627345   -3.6636903 
16985000    1.0949919 -6.3137674e-05   0.51308253  0.039043999            0   0.47403854    1.6288005    2.1418831 -0.013216225 
16990000    1.0696811 9.4535529e-05   0.55734144  0.031478954            0   0.52586248    1.5911507    2.1484921    5.3753048 
16995000    1.0152406 0.00011574185   0.64966674 0.0039654954            0   0.64570125    1.5101704    2.1598372    6.1104923 
17000000    1.0955456 0.00018211712   0.52992745 0.0084789875            0   0.52144846    1.6296241    2.1595515     8.375816 
17005000    1.0690545 7.8722984e-05   0.60192875  0.052729001            0   0.54919975    1.5902186    2.1921474    4.8792252 
17010000    1.1029663 -6.138195e-05   0.55719451  0.044927303            0    0.5122672    1.6406624    2.1978569   0.10268638 
17015000     1.102397 -6.8660208e-05   0.55284926  0.021726774            0   0.53112249    1.6398156    2.1926649   -0.1509369 
17020000    1.0961591 -3.4728481e-05    0.5642346  0.011972589            0   0.55226201    1.6305367    2.1947713    1.0093725 
17025000    1.0783679 -0.00019322726   0.57337406  0.013376949            0   0.55999711    1.6040722    2.1774463   -4.4180441 
17030000     1.087313 1.9390249e-05   0.54558074  0.012914686            0   0.53266606    1.6173781    2.1629588    2.8248126 
17035000    1.0540086 0.00017853173   0.58017053 0.0080814316            0    0.5720891    1.5678378    2.1480084    8.2418914 
17040000    1.0156304 7.4543582e-05   0.62213376  0.013670116            0   0.60846365    1.5107502     2.132884    4.6773049 
17045000    1.0516768 2.7380638e-06   0.56247483  0.029782809            0   0.53269203    1.5643693    2.1268441    2.2203034 
17050000    1.0866352 -5.5857001e-06   0.50978996  0.025955919            0   0.48383404    1.6163699    2.1261598    1.9355013 
17055000    1.0398802 7.6210118e-05   0.56147518  0.034748899            0   0.52672628    1.5468218    2.1082969    4.7096023 
17060000    1.0571653 2.2787121e-05   0.54094821  0.038285792            0   0.50266242    1.5725334    2.1134816     2.891282 
17065000    1.0753252 -0.00013785124   0.53179283  0.017527994            0   0.51426483    1.5995462     2.131339   -2.5739833 
17070000    1.1182678 -5.2543919e-05   0.45732623 0.0046935347            0   0.45263269    1.6634234    2.1207496   0.32725049 
17075000    1.0881859 8.090043e-05   0.47221711 0.00071125727            0   0.47150585    1.6186766    2.0908937     4.852295 
17080000    1.0614447 0.00012909269   0.51071115 0.0086911855            0   0.50201996     1.578899    2.0896102    6.4959739 
17085000    1.0050617 6.8650837e-05   0.58958774  0.043460979            0   0.54612676    1.4950293    2.0846171     4.427899 
17090000     1.025095 3.0816063e-05   0.55118085  0.018479131            0   0.53270172    1.5248289    2.0760097    3.1278647 
17095000    1.0456526 -1.3164011e-05   0.49707226  0.012571324            0   0.48450093    1.5554083    2.0524806     1.603149 
17100000    1.0325799 -0.0001013944   0.51348799  0.036459694            0    0.4770283    1.5359626    2.0494506   -1.4114782 
17105000     1.045243 -1.2036293e-05    0.4800996  0.036152297            0   0.44394731    1.5547989    2.0348985    1.6240597 
17110000    1.0322315 -4.9435338e-05    0.5282931  0.014034834            0   0.51425826    1.5354444    2.0637375   0.37634457 
17115000    1.0012749 -5.2823967e-05   0.55146407  0.011903098            0   0.53956097    1.4893964    2.0408605   0.23780243 
17120000    1.0785298 6.6441803e-05   0.43588197  0.010224662            0    0.4256573    1.6043131    2.0401951    4.3080753 
17125000   0.96736966 5.7199265e-05   0.59137128  0.027174754            0   0.56419653    1.4389624    2.0303337    3.9827352 
17130000   0.98057908 7.9648009e-06   0.57184184  0.033824582            0   0.53801725    1.4586114    2.0304532    2.3023184 
17135000   0.98437848 0.00020428143   0.55382041  0.030823227            0   0.52299718     1.464263    2.0180834    8.9908895 
17140000    1.0258614 0.00021348585   0.48932544 0.0083445732            0   0.48098086    1.5259688    2.0152943    9.3022779 
17145000    1.0216031 -3.0921042e-05    0.4756099  0.024024027            0   0.45158587    1.5196346    1.9952445   0.93980621 
17150000    1.0129696 5.8664128e-05   0.47785646  0.027504191            0   0.45035227    1.5067923    1.9846487    3.9870509 
17155000   0.97570626 1.0740394e-05   0.54260866   0.02112236            0    0.5214863    1.4513631    1.9939717    2.3605772 
17160000   0.95543399 5.4060213e-05   0.57192107  0.027648455            0   0.54427261    1.4212081    1.9931291    3.8383844 
17165000   0.99526642 4.277742e-05   0.50701052  0.010235197            0   0.49677533    1.4804588    1.9874693    3.4476053 
17170000    1.0540115 1.3355926e-07   0.41027395 0.0084137305            0   0.40186022    1.5678421     1.978116    1.9826749 
17175000   0.98351725 3.7981893e-05   0.51949625  0.023862825            0   0.49563342    1.4629819    1.9824782    3.2789268 
17180000   0.91952084 -6.9655347e-05   0.61024989  0.045886803            0   0.56436308    1.3677872    1.9780371  -0.39953205 
17185000   0.93010157 6.0623456e-05   0.60156262  0.033707499            0   0.56785512    1.3835261    1.9850887    4.0543694 
17190000   0.97934145 0.00010972798   0.51804799  0.056500763            0   0.46154722    1.4567704    1.9748184    5.7202002 
17195000   0.98506765 -0.00010934617   0.52909538  0.065147912            0   0.46394747    1.4652881    1.9943835   -1.7379659 
17200000    0.9845802 -8.6285253e-05   0.53575612    0.0282209            0   0.50753522    1.4645631    2.0003192  -0.94488411 
17205000   0.98444905 4.4005473e-05   0.53381602  0.015927953            0   0.51788807     1.464368     1.998184    3.5002375 
17210000    1.0093341 0.00013447326     0.474101   0.02238312            0   0.45171788    1.5013845    1.9754855    6.5655061 
17215000    0.9880847 2.1174955e-05   0.51777857 0.0014407602            0   0.51633781     1.469776    1.9875546    2.7103264 
17220000   0.96619789 -4.3981999e-05   0.54822375   0.00438553            0   0.54383822    1.4372194    1.9854431   0.48419088 
17225000    1.0079475 5.0452142e-06   0.49831823  0.020044067            0   0.47827416    1.4993219    1.9976401    2.1698501 
17230000   0.96903657 -8.4654388e-05   0.55070641  0.018054861            0   0.53265155    1.4414419    1.9921483  -0.89738814 
17235000   0.98946929 5.9658345e-06   0.52278138  0.019398029            0   0.50338335    1.4718356    1.9946169    2.1982508 
17240000    1.0652647 0.00011182172   0.42384435 0.0090429013            0   0.41480145    1.5845813    2.0084256    5.8252738 
17245000    1.0031618 -6.3411132e-05   0.51556996  0.020926536            0   0.49464343    1.4922032    2.0077732  -0.15666016 
17250000   0.98183037 -0.00012887231   0.51009074  0.008863048            0   0.50122769    1.4604727    1.9705634   -2.4282783 
17255000    1.0259661 4.4489158e-06   0.44959017 0.0074132598            0   0.44217691    1.5261245    1.9757147     2.127571 
17260000    0.9478538 -5.0838807e-05   0.55804605  0.014317768            0   0.54372828    1.4099325    1.9679786   0.23268063 
17265000   0.98688784 4.0807684e-05   0.49376288 0.0062908159            0   0.48747206    1.4679957    1.9617585    3.3546608 
17270000   0.95789227 0.0001571633   0.53464728  0.015866893            0   0.51878039    1.4248647     1.959512    7.3240194 
17275000    1.0167347 -0.00016655343    0.4600678  0.024675578            0   0.43539222    1.5123929    1.9724607   -3.7125631 
17280000   0.97630088 -0.00023110988   0.49668905  0.014304271            0   0.48238478    1.4522476    1.9489366    -5.939614 
17285000   0.94481202 7.7224988e-06   0.54858618  0.023802717            0   0.52478346    1.4054079    1.9539941    2.2175887 
17290000   0.95287402 6.7312671e-06   0.52896574  0.020784728            0   0.50818101    1.4174001    1.9463658    2.1761264 
17295000   0.95580646 -1.4655647e-05   0.51443879  0.015964617            0   0.49847418    1.4217621    1.9362009    1.4359548 
17300000   0.92560242 1.7227224e-05    0.5653998   0.01019084            0   0.55520896    1.3768336    1.9422334     2.530256 
17305000   0.96608106 8.8773766e-05   0.49424901  0.025078689            0   0.46917032    1.4370456    1.9312946    4.9614391 
17310000    0.9674658 -3.1435787e-05   0.47920448  0.034793764            0   0.44441072    1.4391054    1.9183099   0.84530166 
17315000   0.98712295 -8.7356477e-05   0.43742368  0.011008656            0   0.42641503    1.4683454    1.9057691   -1.0759987 
17320000   0.95586728 -4.4247439e-05   0.50428783  0.018716677            0   0.48557115    1.4218526    1.9261404   0.41582783 
17325000   0.94543132 -8.7143648e-05   0.50213273  0.037156919            0   0.46497581    1.4063291    1.9084618   -1.0660414 
17330000   0.89913144 7.1737577e-05   0.57382653  0.037543116            0   0.53628341     1.337458    1.9112845    4.3599272 
17335000   0.98617358 9.7583597e-05   0.47600701  0.010055506            0    0.4659515    1.4669332    1.9429402    5.2737936 
17340000   0.99037312 2.7526389e-05   0.46102477 0.0053068777            0   0.45571789      1.47318    1.9342048    2.8737722 
17345000   0.99927749 8.4214685e-05   0.47336392  0.013183113            0    0.4601808    1.4864253    1.9597892    4.8343171 
17350000   0.97314242 0.00012532002    0.5183831  0.023993214            0   0.49438989    1.4475494    1.9659325    6.2435226 
17355000   0.94894758 -3.7531019e-05   0.57051678  0.034113178            0   0.53640361    1.4115595    1.9820763   0.70101755 
17360000   0.97528698 -5.479304e-05   0.54230413 0.0080082868            0   0.53429584    1.4507394    1.9930435    0.1227744 
17365000    1.0040695 -1.7482735e-05   0.50922386 0.0038037808            0   0.50542008    1.4935534    2.0027772    1.4060332 
17370000    1.0636751 7.6587045e-05   0.42367394 0.0036201733            0   0.42005377    1.5822167    2.0058906    4.6200618 
17375000    1.0257437 0.00013410948   0.50276054 0.0016724455            0    0.5010881    1.5257937    2.0285543    6.6061579 
17380000    1.0372635 -9.1113326e-05   0.48443732 0.0097947637            0   0.47464256    1.5429295    2.0273668   -1.0826348 
17385000    1.0218597 1.010516e-06   0.49656277   0.03072087            0    0.4658419    1.5200163    2.0165791    2.0510714 
17390000   0.99410887 -6.0369224e-05   0.54925886   0.01470803            0   0.53455083     1.478737    2.0279958 -0.032607034 
17395000    1.0675542 -6.9290613e-06   0.43327586 0.0082727926            0   0.42500307    1.5879869    2.0212628    1.7847508 
17400000    1.0349214 -4.6273242e-06   0.47850159  0.014272974            0   0.46422862    1.5394456    2.0179472    1.8600012 
17405000   0.97196131 2.4212882e-06   0.56250861 0.0090901921            0   0.55341842    1.4457924    2.0083011    2.0909477 
17410000    1.0125038 0.00012635918   0.48560008 0.0075220879            0   0.47807799    1.5060994    1.9916995    6.3047596 
17415000    1.0258603 8.3276945e-06   0.48998659 0.0083613467            0   0.48162525    1.5259672    2.0159538    2.3002057 
17420000    1.0196764 2.1125261e-05   0.50285224 0.0079272582            0   0.49492498    1.5167686    2.0196209    2.7406964 
17425000    1.0404804 2.6340616e-05   0.45286433  0.019037848            0   0.43382648    1.5477145    2.0005789    2.8996719 
17430000    1.0540802 6.415238e-05   0.44277696  0.012739754            0   0.43003721    1.5679443    2.0107212    4.2004558 
17435000    1.0038052 0.00010655415   0.50809166 0.0058426555            0   0.50224901    1.4931602    2.0012519    5.6383002 
17440000     1.020419 5.2306113e-05   0.49172894  0.011299006            0   0.48042994    1.5178732    2.0096022    3.7949842 
17445000    1.0811363 8.378928e-05   0.40672487  0.015384182            0   0.39134069    1.6081903    2.0149152    4.8749226 
17450000    1.0732177 2.6059672e-06   0.42645633  0.014390442            0   0.41206589    1.5964113    2.0228676    2.1118179 
17455000    1.0768738 -4.0436047e-05   0.43429809 0.0095873133            0   0.42471078    1.6018497    2.0361478   0.65593071 
17460000    1.0650694 -6.3437935e-05   0.45004531  0.006723247            0   0.44332206    1.5842907     2.034336  -0.13101212 
17465000    1.0740864 4.7020212e-06    0.4566724  0.010795261            0   0.44587714    1.5977035    2.0543759    2.2148715 
17470000    1.0413843 -9.2651649e-06   0.49651597   0.01588008            0   0.48063589    1.5490591    2.0455751    1.7293241 
17475000    1.0784756 0.00011640054   0.44678405 0.0075856277            0   0.43919843    1.6042324    2.0510165    6.0241548 
17480000    1.0343745 6.757706e-05   0.50092362   0.01471976            0   0.48620386    1.5386321    2.0395557     4.346186 
17485000    1.0036517 -6.0440527e-05    0.5391227  0.022696598            0    0.5164261    1.4929319    2.0320546 -0.030982016 
17490000    1.0342962 5.4213064e-05    0.5077033  0.048401684            0   0.45930162    1.5385156    2.0462189    3.8966915 
17495000    1.0768214 9.7255443e-05    0.4242587 0.0055295466            0   0.41872915    1.6017718    2.0260305     5.345683 
17500000    1.0312162 3.0273432e-05   0.48852184 0.0038875553            0   0.48463429    1.5339341    2.0224559    3.0557891 
17505000    1.0857518 -7.3047668e-05   0.40591321 0.0057771109            0    0.4001361    1.6150557    2.0209689  -0.47239147 
17510000    1.1106409 -3.4789121e-05   0.36755413   0.01654579            0   0.35100834    1.6520783    2.0196324   0.83216378 
17515000    1.0335934 -9.4698768e-05   0.50116718   0.01791398            0    0.4832532    1.5374701    2.0386373   -1.1937473 
17520000    1.0346582 -6.4128613e-05   0.49216831   0.04271306            0   0.44945525    1.5390541    2.0312224  -0.15770091 
17525000    1.0378822 -1.1911224e-05   0.49317854  0.039290395            0   0.45388815    1.5438498    2.0370284    1.6304586 
17530000    0.9678336 -5.4072133e-05   0.58690182  0.043093984            0   0.54380784    1.4396525    2.0265543   0.18089217 
17535000    1.0343881 1.2893511e-06   0.48788475  0.027174806            0   0.46070994    1.5386523     2.026537    2.0705469 
17540000    1.1094212 8.6203519e-05   0.36230353  0.016896815            0   0.34540671    1.6502641    2.0125676     4.954981 
17545000   0.98995202 7.1190831e-05   0.53994795   0.04380303            0   0.49614492    1.4725536    2.0125016    4.4424819 
17550000    1.0439924 7.6635847e-05   0.45865031  0.045435379            0   0.41321493    1.5529387     2.011589    4.6274259 
17555000    1.0110389 2.527206e-05   0.52518694  0.038282096            0   0.48690484    1.5039204    2.0291073     2.891727 
17560000    1.0241754 0.00014329691   0.51588483  0.019494413            0   0.49639041    1.5234609    2.0393457    6.9305468 
17565000    1.0411124 1.1132936e-05   0.49900745 0.0060234928            0   0.49298395    1.5486547    2.0476622    2.4276664 
17570000    1.0585964 -1.5106636e-05   0.46858118 0.0094593856            0    0.4591218    1.5746621    2.0432433    1.5276034 
17575000   0.99231186 1.4135705e-05   0.55373684  0.021313002            0   0.53242384    1.4760639    2.0298007    2.5122995 
17580000    1.0437406  2.37943e-05   0.46915206 0.0070810285            0   0.46207104    1.5525642    2.0217162     2.833895 
17585000    1.0265944 -3.0086547e-05   0.49686281 0.0096564062            0    0.4872064    1.5270591    2.0239219    0.9969678 
17590000    1.0376925 -6.0555222e-05   0.46425545  0.012039935            0   0.45221551    1.5435676    2.0078231 -0.059128494 
17595000    1.0291501 5.7873081e-05   0.51540186  0.010343284            0   0.50505858    1.5308608    2.0462627    4.0216638 
17600000    1.1070575 6.0038108e-05   0.40151784 0.0063892034            0   0.39512864    1.6467481    2.0482659    4.0975667 
17605000    1.0893883 9.6954605e-05   0.43695732  0.021956461            0   0.41500086    1.6204652    2.0574225    5.3668064 
17610000     1.045118 1.0626264e-05   0.49756326  0.037492232            0   0.46007103     1.554613    2.0521763    2.4148861 
17615000    1.0019371 -0.00010696864     0.561925  0.010407196            0   0.55151781    1.4903815    2.0523065   -1.5988896 
17620000      1.08646 5.9603529e-05   0.43604786 0.0075468336            0   0.42850102    1.6161092    2.0521571    4.0866242 
17625000    1.0979677 -6.9316349e-06    0.4161409  0.021252801            0    0.3948881     1.633227    2.0493679    1.8127681 
17630000     1.027422 -5.5701418e-05   0.50843007  0.017388423            0   0.49104165    1.5282902    2.0367203    0.1354452 
17635000    1.0567207 3.4141175e-05   0.44321829  0.023820885            0   0.41939741    1.5718721    2.0150903    3.1804424 
17640000    1.0570163 9.4185102e-05   0.46513879  0.013024721            0   0.45211407    1.5723117    2.0374505     5.252302 
17645000    1.0084232 7.0834092e-05   0.50697939  0.015366596            0   0.49161279    1.5000296    2.0070089    4.4248126 
17650000     1.043939 2.370575e-05   0.45304926  0.024535311            0   0.42851395    1.5528592    2.0059085    2.8150648 
17655000      1.09758 -0.00012767618   0.38536221 0.0050098983            0   0.38035231    1.6326502    2.0180124   -2.3400012 
17660000    1.0091383 -4.6477063e-05   0.49260935  0.010175733            0   0.48243362    1.5010932    1.9937026    0.4072855 
17665000   0.98601119 -9.4979486e-05   0.52556781  0.029836544            0   0.49573127    1.4666916    1.9922595    -1.249707 
17670000    1.0463543 2.4965709e-06   0.43733931  0.013392079            0   0.42394723    1.5564521    1.9937914    2.0790076 
17675000    1.0122433 0.00020283246   0.46765044 0.0080979388            0    0.4595525     1.505712    1.9733624    8.8967105 
17680000    1.0037988 1.4725335e-05   0.47172481  0.019842549            0   0.45188226    1.4931507    1.9648755    2.4675002 
17685000   0.94599441 -0.00016170987   0.57287088  0.017944804            0   0.55492608    1.4071667    1.9800376   -3.5396594 
17690000    1.0130143 -0.00014973346   0.46755621  0.009382126            0   0.45817408    1.5068588     1.974415   -3.1364873 
17695000    1.0388103 -9.3548776e-05   0.45567167  0.011953609            0   0.44371806    1.5452304    2.0009021   -1.1922295 
17700000    1.0493483 -7.7840235e-05   0.46207686  0.008903571            0   0.45317329    1.5609056    2.0229824  -0.63396427 
17705000   0.99849118 6.9082888e-07    0.5468357 0.0025721644            0   0.54426354    1.4852556    2.0320913    2.0556716 
17710000    1.0449981 0.00014846727    0.4744134 0.0073860064            0   0.46702739    1.5544346     2.028848    7.0965308 
17715000    1.0636354 4.060255e-05   0.43839676   0.03471274            0   0.40368402    1.5821576    2.0205543    3.4064547 
17720000    1.0089939 -0.00010830137   0.52486839  0.033559461            0   0.49130893    1.5008784    2.0257468   -1.6709398 
17725000    1.0854154 1.8309119e-06   0.39000378 0.0043137303            0   0.38569005    1.6145554    2.0045592    2.0670543 
17730000    1.0264767 9.9901905e-05    0.4876481  0.011295033            0   0.47635306     1.526884    2.0145321    5.4245171 
17735000    1.0150621 5.3600148e-05   0.51014529  0.032939078            0   0.47720621    1.5099049    2.0200502    3.8496019 
17740000    1.0745534 7.1756566e-05   0.40560901  0.012734268            0   0.39287474    1.5983983    2.0040073    4.4532981 
17745000    1.0690997 6.8568511e-05   0.44400854 0.0051063063            0   0.43890223    1.5902858    2.0342944    4.3747662 
17750000    1.0183295 4.5796246e-05   0.51030245  0.015932092            0   0.49437036    1.5147651    2.0250676    3.5882461 
17755000    1.0733456 -8.7452652e-06   0.39971155  0.028936124            0   0.37077542    1.5966016    1.9963131    1.6978081 
17760000    1.0056579 3.0851599e-05   0.47220576  0.028314366            0   0.44389139    1.4959161    1.9681218    3.0211897 
17765000   0.98253525 7.4978096e-05   0.50826989  0.026332009            0   0.48193788    1.4615212    1.9697911    4.5290434 
17770000   0.99853926 -3.2141245e-05   0.46643235  0.018918177            0   0.44751418    1.4853271    1.9517595   0.85467169 
17775000    1.0142821 -0.00010731227   0.43404572   0.03653972            0     0.397506    1.5087447    1.9427904   -1.7201352 
17780000   0.95747068 0.00019206554   0.51163945  0.045539889            0   0.46609956    1.4242376    1.9358771    8.4917142 
17785000   0.99501894 0.00012997225   0.48731519  0.014304222            0   0.47301097    1.4800907    1.9674059    6.4037921 
17790000    1.0280555 2.7686558e-05   0.42934335  0.005969382            0   0.42337397    1.5292326     1.958576    2.9036105 
17795000   0.99725681 -2.2103461e-05   0.45028583  0.017934217            0   0.43235161    1.4834195    1.9337053    1.1792405 
17800000    0.9741247 -0.00013272776   0.48030396 0.0077075809            0   0.47259638    1.4490105    1.9293145   -2.6011265 
17805000    0.9823273 -6.259637e-05   0.46289844 0.0038208953            0   0.45907754    1.4612119    1.9241103  -0.21251246 
17810000   0.99972917 0.00019460646   0.45311344  0.010650311            0   0.44246313    1.4870971    1.9402106    8.5827778 
17815000   0.94156794 0.00029409724   0.50656298  0.012588382            0    0.4939746    1.4005823    1.9071453    11.945664 
17820000   0.94854374 -8.0906907e-06   0.48788308   0.01613199            0   0.47175109    1.4109588    1.8988419    1.6226796 
17825000   0.93695194 -0.00014334691   0.51381648  0.028799939            0   0.48501654     1.393716    1.9075325   -2.9853752 
17830000    1.0001161 7.8927104e-05   0.45519278  0.023327469            0   0.43186531    1.4876727    1.9428655    4.6369107 
17835000   0.99204816 -1.2554772e-06     0.479248  0.023776972            0   0.45547103    1.4756716    1.9549196     1.912066 
17840000   0.98062449 -0.0001550276   0.49854708  0.016882065            0   0.48166502    1.4586789     1.957226   -3.3343827 
17845000    1.0135975 -1.8625184e-05   0.47655573   0.01307021            0   0.46348552    1.5077262    1.9842819    1.3485423 
17850000    1.0418417 1.6960958e-06   0.43356284  0.014064961            0   0.41949788    1.5497395    1.9833024    2.0411958 
17855000     1.051987 -0.00011685002   0.43909028  0.011008199            0   0.42808208    1.5648307     2.003921   -1.9845596 
17860000    1.0402526 -7.6096151e-05   0.43614983  0.001636946            0   0.43451289    1.5473758    1.9835256   -0.6138897 
17865000   0.97982796 -1.5433785e-05   0.49562519 0.00018919763            0   0.49543599    1.4574941    1.9531193    1.4263128 
17870000   0.98224998 -0.00012308131   0.49049232 0.00076655781            0   0.48972576    1.4610968    1.9515892   -2.2495863 
17875000    1.0577516 1.6843731e-05   0.38078949 0.0014539027            0   0.37933559    1.5734056    1.9541951    2.5291277 
17880000    1.0032812 7.7994289e-05   0.44687154 0.0068671522            0   0.44000439    1.4923809    1.9392524    4.6014575 
17885000   0.95033044 6.7423535e-05   0.52599722   0.03037434            0   0.49562288    1.4136165    1.9396137    4.2410038 
17890000   0.92453775 -2.8049852e-05   0.55726087  0.017776968            0    0.5394839    1.3752499    1.9325108   0.97507583 
17895000   0.98503912 -0.00021170659   0.46188678  0.029109795            0   0.43277698    1.4652457    1.9271325   -5.2991191 
17900000   0.97811511 -2.1793742e-05   0.48378965  0.015034154            0    0.4687555    1.4549462    1.9387359    1.1948428 
17905000    0.9904671 -0.0001425786    0.4646593  0.010718053            0   0.45394125    1.4733198    1.9379791   -2.9287038 
17910000   0.93288912 -6.3740597e-05   0.54818579 0.0093006573            0   0.53888514    1.3876726    1.9358584  -0.23982068 
17915000   0.95272947 -4.2832241e-05   0.48843236 0.0053388826            0   0.48309347    1.4171851    1.9056174    0.4436103 
17920000   0.94683163 -0.00013522387   0.47441195 0.0025059902            0   0.47190596     1.408412     1.882824   -2.7328175 
17925000   0.95389318 0.00015182743   0.46407127 0.0040103564            0   0.46006092    1.4189161    1.8829874    7.0653636 
17930000   0.97361718 0.00014143013   0.47170807  0.052269542            0   0.41943853    1.4482556    1.9199636    6.7474454 
17935000   0.92027548 -6.9342711e-05   0.55247606  0.071517907            0   0.48095816    1.3689098    1.9213858  -0.44551204 
17940000   0.91892493 -8.6784039e-05   0.52406658  0.025172378            0   0.49889421    1.3669008    1.8909674   -1.0712611 
17945000   0.93474184 -9.1614021e-05   0.50234891  0.022996332            0   0.47935258    1.3904285    1.8927774   -1.2343145 
17950000   0.94412653 0.0001010171    0.4803334 0.0044141564            0   0.47591924    1.4043882    1.8847216     5.332772 
17955000   0.98810187 1.2554479e-05   0.42526656 0.00083359903            0   0.42443296    1.4698015    1.8950681    2.3235943 
17960000   0.94579358 -0.00017005211   0.45907894 0.0042800019            0   0.45479894    1.4068679    1.8659469   -3.9384986 
17965000   0.92608202 -0.0001666215   0.49527767 0.0045708548            0   0.49070681     1.377547    1.8728247   -3.8145224 
17970000   0.89511696 6.335807e-05    0.5402774 0.0039005254            0   0.53637687    1.3314865    1.8717639     4.034386 
17975000    0.9036022 1.6892412e-05    0.5253426  0.012380259            0   0.51296234    1.3441083    1.8694509    2.4460452 
17980000   0.92616255 -7.9853477e-05   0.48664732  0.024048287            0   0.46259903    1.3776668    1.8643141  -0.86135124 
17985000   0.94188462 -2.8443964e-05   0.45801918 0.0065341229            0   0.45148506    1.4010534    1.8590725   0.88818524 
17990000   0.95370528 -4.643246e-06   0.46030029 0.0054988869            0    0.4548014    1.4186366    1.8789369    1.7204474 
17995000   0.91574028 -7.6278801e-05   0.51799636  0.024965808            0   0.49303055    1.3621637      1.88016  -0.72348971 
18000000   0.91612532 -0.00024742882    0.5233317  0.027000674            0   0.49633102    1.3627364    1.8860681   -6.5595022 
18005000   0.97036474 -2.7021754e-05   0.45067066 0.0060043383            0   0.44466632    1.4434176    1.8940882   0.97174568 
18010000    0.9048655 0.00016301599   0.53239563 0.0063750246            0    0.5260206    1.3459874    1.8783831     7.442662 
18015000   0.88537213 2.8708113e-06   0.56489301  0.022596727            0   0.54229628     1.316991     1.881884    1.9798744 
18020000    0.9253427 -2.6948567e-05    0.5158034  0.011551072            0   0.50425233    1.3764473    1.8922507   0.97240625 
18025000   0.94740978 -4.4540009e-05   0.48905022  0.030606855            0   0.45844336    1.4092721    1.8983223   0.37802331 
18030000   0.93839481 -0.00025920432   0.50639165  0.020459235            0   0.48593242    1.3958623    1.9022539   -6.9452536 
18035000   0.91131587 -0.00022751618   0.54643224  0.031589003            0   0.51484324    1.3555824    1.9020146   -5.8638711 
18040000   0.92357129 -1.7068325e-05   0.52524374  0.024074237            0    0.5011695    1.3738123     1.899056    1.3164572 
18045000   0.96103942 3.0698862e-05   0.48380114  0.023755588            0   0.46004555    1.4295461    1.9133473    2.9612018 
18050000    0.8729974 0.00014670892   0.61740952  0.043282098            0   0.57412742    1.2985836    1.9159932    6.9236578 
18055000   0.99834593 0.00017944227   0.44268426  0.007486199            0   0.43519806    1.4850396    1.9277238    8.0526866 
18060000   0.96362052 7.3573877e-05   0.50598623 0.0066381204            0   0.49934811    1.4333855    1.9393718    4.4506934 
18065000   0.95838403 7.4878673e-05   0.53058881 0.0065885055            0    0.5240003    1.4255962    1.9561851    4.5120438 
18070000   0.91768634 0.0001160039    0.5598858  0.005491104            0   0.55439469    1.3650584    1.9249442    5.8845441 
18075000    0.9731807 -3.5376137e-05   0.47577048  0.011415895            0   0.46435459    1.4476063    1.9233768    0.7158713 
18080000   0.98812043 -6.5101719e-05    0.4458274  0.015630549            0   0.43019686    1.4698291    1.9156566  -0.30648212 
18085000   0.91105338 -4.9733225e-05    0.5669308  0.014275402            0    0.5526554    1.3551919    1.9221227   0.22456196 
18090000   0.98749482 -8.8502877e-05   0.44239267  0.020736575            0    0.4216561    1.4688985    1.9112912    -1.109607 
18095000   0.93345001 -4.9031233e-05   0.52360996  0.010699509            0   0.51291045    1.3885069    1.9121169   0.23851742 
18100000   0.93570744 8.3719595e-06   0.50739261  0.013722993            0   0.49366962    1.3918648    1.8992574    2.1850203 
18105000   0.93078745 0.00011550833   0.50135207 0.0073076189            0   0.49404445    1.3845463    1.8858984    5.8285827 
18110000   0.94095602 9.5093684e-05   0.44917333 0.0031831889            0   0.44599014    1.3996721    1.8488454    5.0947098 
18115000   0.94847294 -5.796866e-05   0.42449765 0.0017773405            0   0.42272031    1.4108535    1.8353511  -0.14331245 
18120000   0.95315617 -2.3855721e-05   0.40504864 0.0057562847            0   0.39929236    1.4178198    1.8228684    1.0085932 
18125000   0.92528745 9.2711324e-05    0.4386654  0.027869449            0   0.41079595    1.3763651    1.8150305     4.979577 
18130000   0.91795748 4.5521604e-05   0.41915362  0.019868023            0    0.3992856    1.3654618    1.7846154    3.3384194 
18135000    0.8615432 -0.00012023769   0.49002676  0.013699089            0   0.47632767    1.2815455    1.7715723   -2.3325409 
18140000   0.92389151 -7.9323604e-05   0.41600602  0.010813548            0   0.40519247    1.3742886    1.7902946  -0.91728437 
18145000    0.9149005 6.1390093e-05   0.42965587 0.0025414737            0    0.4271144    1.3609145    1.7905704    3.8860189 
18150000   0.93200708 -0.00011615715   0.39554777  0.003657762            0      0.39189    1.3863605    1.7819083   -2.1829224 
18155000   0.89975592 -0.00015134239   0.44782659  0.012150506            0   0.43567609    1.3383869    1.7862135   -3.3796066 
18160000   0.88451122 1.5612771e-05   0.47044165 0.0069157768            0   0.46352587    1.3157104    1.7861521     2.319068 
18165000   0.83631551 4.5344777e-05   0.52106917 0.0017509679            0    0.5193182    1.2440193    1.7650885    3.3128569 
18170000   0.92205744 8.2071118e-05   0.38950722  0.011190757            0   0.37831647    1.3715604    1.7610677    4.5624285 
18175000    0.8736932 -4.5076707e-06   0.46245763  0.016402047            0   0.44605559    1.2996186    1.7620763    1.6082144 
18180000   0.88094437 -0.00010319081   0.43455319  0.016657853            0   0.41789534    1.3104047    1.7449579   -1.7772883 
18185000   0.87222288 -4.1013546e-05   0.47102247  0.040185791            0   0.43083667    1.2974315     1.768454   0.36852498 
18190000   0.88426097 2.4910735e-05   0.43167434  0.023450747            0   0.40822359    1.3153382    1.7470125    2.5972989 
18195000   0.88450054 5.8389645e-05   0.42980236  0.017980298            0   0.41182206    1.3156946    1.7454969    3.7385301 
18200000   0.87523006 9.8583928e-05   0.47042507  0.018569746            0   0.45185532    1.3019047    1.7723298    5.1373279 
18205000   0.87800194 0.00010802804   0.47478726  0.017032258            0     0.457755    1.3060279    1.7808151    5.4681723 
18210000   0.86366489 0.00017782534   0.49518563  0.033609015            0   0.46157661    1.2847015    1.7798871    7.8496587 
18215000   0.89354223 0.0001269845   0.44990612  0.014147785            0   0.43575833    1.3291441    1.7790502    6.1134543 
18220000   0.88060633 -3.5163554e-05   0.44960236 0.0097654816            0   0.43983688    1.3099019    1.7595043   0.55925496 
18225000   0.83440746 -1.005316e-05   0.49608405   0.01591203            0   0.48017202    1.2411811    1.7372651    1.3941173 
18230000   0.86066601 0.00016726048   0.45761346  0.011535796            0   0.44607766    1.2802407    1.7378541    7.4470119 
18235000   0.85465794 8.7375736e-05   0.45242588  0.015127538            0   0.43729834    1.2713037    1.7237296    4.7061547 
18240000   0.85279165 -4.201999e-05    0.4529576  0.018493017            0   0.43446459    1.2685276    1.7214852   0.28720287 
18245000   0.86753434 -4.2725918e-05   0.42087889  0.010628243            0   0.41025064    1.2904573    1.7113362   0.25295822 
18250000   0.86945092 -3.2490803e-05   0.41860132  0.022520626            0   0.39608069    1.2933082    1.7119096   0.60289014 
18255000   0.94444206 7.9171671e-05   0.32343075 0.0067227136            0   0.31670804    1.4048576    1.7282883    4.4306814 
18260000   0.87588428 0.00023361158   0.40003283 0.00019021817            0   0.39984261    1.3028779    1.7029107    9.6768527 
18265000   0.85369836 0.00016022402   0.41022888 0.0040063736            0   0.40622251    1.2698763    1.6801052    7.1490851 
18270000   0.88481768 4.4628334e-06    0.3660882   0.00788856            0   0.35819964    1.3161663    1.6822545    1.8345859 
18275000   0.86369832 -7.9215674e-05   0.41591605  0.011746422            0   0.40416963    1.2847513    1.7006673   -1.0032277 
18280000   0.83774898 -7.2406093e-05   0.46157392  0.012530354            0   0.44904357    1.2461516    1.7077255  -0.76373579 
18285000   0.88333421 1.0899684e-06   0.40799366  0.009458721            0   0.39853493    1.3139596    1.7219533    1.7591576 
18290000   0.86146159 2.2838242e-05   0.43922739 0.0062415599            0   0.43298583    1.2814241    1.7206515    2.5001968 
18295000    0.9106036 -5.5616486e-05   0.36309731  0.013579653            0   0.34951765    1.3545229    1.7176202   -0.1807559 
18300000   0.83640709 -1.3455923e-05   0.44872274  0.022652457            0   0.42607029    1.2441556    1.6928783    1.2335828 
18305000   0.84024684 8.5577367e-05   0.45486689  0.037557345            0   0.41730955    1.2498672    1.7047341    4.6257749 
18310000   0.83853344 0.00013704414   0.46169133  0.014684725            0    0.4470066    1.2473185    1.7090098    6.3867831 
18315000   0.88727072 4.7880167e-06   0.38675504  0.011199033            0     0.375556    1.3198152    1.7065702    1.8700012 
18320000   0.87224668 -7.2582362e-05   0.40965857 0.0055556693            0    0.4041029    1.2974669    1.7071255  -0.77035245 
18325000   0.83900626 -1.9067275e-07   0.44801284 0.0043066632            0   0.44370617    1.2480218    1.6960346    1.6895264 
18330000    0.8485775 -4.8695409e-06   0.45368693  0.012818677            0   0.44086826     1.262259     1.715946    1.5497323 
18335000   0.82540187 -1.9238674e-05   0.48741958  0.031858748            0   0.45556083    1.2277853    1.7152049    1.0585248 
18340000   0.81338735 -3.2496377e-06   0.47895506  0.029653743            0   0.44930132    1.2099137    1.6888687    1.5779478 
18345000   0.82176655 -5.2577378e-05   0.48153672 0.0090445672            0   0.47249215    1.2223777    1.7039145 -0.090726701 
18350000   0.88838089 -0.00017229537   0.37531581  0.011031437            0   0.36428438    1.3214666    1.6967824   -4.1842329 
18355000   0.88057892 -0.00013069277   0.41704587  0.013655801            0   0.40339007    1.3098612     1.726907    -2.734073 
18360000   0.86375512 3.4236046e-05   0.42871635  0.030901063            0   0.39781529    1.2848357    1.7135521    2.8821424 
18365000   0.87397381 4.9609596e-05   0.42259739  0.022322439            0   0.40027495     1.300036    1.7226334    3.4159743 
18370000    0.8284534 4.7629288e-05   0.48567327  0.012422882            0   0.47325039    1.2323244    1.7179977    3.3437441 
18375000   0.89973019 5.8788567e-05   0.37968004 0.0055921507            0   0.37408789    1.3383487    1.7180287    3.7246784 
18380000   0.86237906 2.2876893e-05   0.41666694 0.0081857923            0   0.40848115    1.2827888    1.6994558    2.4803204 
18385000   0.87508744 9.7265277e-05    0.3829853  0.018672471            0   0.36431283    1.3016926    1.6846779     5.004666 
18390000   0.83265781 -5.0660942e-06   0.46098503  0.033887097            0   0.42709793    1.2385785    1.6995635    1.5266408 
18395000   0.84128163 -0.00010831853   0.44141099  0.023141608            0   0.41826938    1.2514064    1.6928174   -2.0044551 
18400000   0.89122968 0.00011391729   0.38011889   0.01436335            0   0.36575554    1.3257041     1.705823    5.5941998 
18405000    0.8710989 0.00014314775   0.43768104  0.024033595            0   0.41364744    1.2957596    1.7334406    6.6195506 
18410000   0.87639256 1.8617266e-05   0.40939464  0.019728138            0    0.3896665    1.3036339    1.7130286    2.3484979 
18415000   0.88526538 5.9235371e-05   0.39089557  0.015519732            0   0.37537584    1.3168323    1.7077278    3.7296285 
18420000   0.82521104 0.00015328217   0.44712262 0.0095533555            0   0.43756927    1.2275014     1.674624    6.9066554 
18425000   0.84528874 2.5886598e-05    0.4088381  0.018542812            0   0.39029529     1.257367    1.6662051     2.549801 
18430000   0.85671727 -0.00021371418   0.39369022  0.019037651            0   0.37465257    1.2743669    1.6680571   -5.6267202 
18435000    0.8652747 -8.6799168e-05   0.38820158  0.010615642            0   0.37758593    1.2870961    1.6752977   -1.2874473 
18440000   0.81294178 -4.1027584e-05   0.47730086  0.019851982            0   0.45744888    1.2092509    1.6865518   0.28614355 
18445000   0.87901546 -0.00010586492   0.36846912 0.0097493845            0   0.35871973    1.3075355    1.6760046    -1.937518 
18450000   0.85766768 1.0311439e-05   0.41501388  0.013114395            0   0.40189949    1.2757807    1.6907946    2.0427584 
18455000   0.88032112 1.1665965e-05   0.40146069  0.019870133            0   0.38159056    1.3094777    1.7109384    2.1091366 
18460000   0.84183727 8.3683102e-05    0.4390094  0.019218667            0   0.41979073    1.2522329    1.6912423    4.5476256 
18465000   0.86582707 0.00011643359   0.40473961   0.01376596            0   0.39097365    1.2879178    1.6926574     5.666924 
18470000   0.83017803 -4.4952564e-05   0.45562265  0.012788565            0   0.44283408    1.2348898    1.6905125   0.15613162 
18475000   0.82919211 -0.0001660905   0.45604357  0.021601992            0   0.43444157    1.2334233    1.6894668   -3.9797555 
18480000    0.9034264 -7.5890379e-05    0.3576743 0.0099470786            0   0.34772722    1.3438468    1.7015211  -0.88887053 
18485000   0.86551341 3.9204612e-05   0.42596072  0.025626796            0   0.40033393    1.2874512    1.7134119     3.051596 
18490000   0.85047216 5.9935306e-05   0.44622579  0.023654443            0   0.42257134    1.2650773    1.7113031    3.7570949 
18495000   0.78896621 -7.0340581e-06    0.5570438   0.01097685            0   0.54606695    1.1735872     1.730631    1.4905352 
18500000    0.8992762 8.9804431e-05   0.38736471 0.0085424672            0   0.37882225    1.3376734    1.7250381    4.7903626 
18505000   0.85454645 4.7917662e-05   0.43986536  0.020202002            0   0.41966336    1.2711378    1.7110032    3.3465927 
18510000   0.80589925 -0.00011615734   0.50120166  0.029337116            0   0.47186454    1.1987751    1.6999768   -2.2648604 
18515000   0.81351011 -8.1073505e-05   0.46797076    0.0165688            0   0.45140196    1.2100963     1.678067   -1.0892419 
18520000   0.85563256 -9.0863919e-05   0.41138563 0.0076708917            0   0.40371474    1.2727534    1.6841391   -1.4173494 
18525000   0.80787589 -2.8952222e-05   0.48785985  0.019356149            0    0.4685037    1.2017154    1.6895752   0.70133939 
18530000   0.85679246 0.00015496984   0.42394991  0.052793041            0   0.37115687    1.2744788    1.6984287    6.9880659 
18535000    0.8129084 0.00011915385   0.49650262  0.031477369            0   0.46502525    1.2092012    1.7057039     5.772822 
18540000   0.86321385 7.4311399e-05   0.43252116  0.032031306            0   0.40048986    1.2840306    1.7165518    4.2530475 
18545000   0.82363255 3.3770704e-05   0.50334181  0.043434741            0   0.45990707    1.2251534    1.7284952    2.8812019 
18550000   0.88239344 -8.2485283e-05   0.43257619  0.020233415            0   0.41234278    1.3125602    1.7451364   -1.0703612 
18555000   0.87183065 -4.1199116e-06   0.44736774  0.014278201            0   0.43308954    1.2968481    1.7442158    1.6035895 
18560000   0.93665919 0.0002478643   0.36881363  0.013244066            0   0.35556956    1.3932805    1.7620942    10.222529 
18565000   0.88143102 0.00024891548   0.45619366  0.018247658            0     0.437946    1.3111286    1.7673223    10.263637 
18570000   0.80528879 -2.863936e-05    0.5479072 0.0099905691            0   0.53791663    1.1978671    1.7457743   0.76821746 
18575000   0.84418352 -8.1758793e-05   0.48393778  0.014857872            0   0.46907991     1.255723    1.7396608   -1.0510394 
18580000   0.80211343 3.4309726e-05   0.54695798  0.024176212            0   0.52278177    1.1931437    1.7401017     2.911207 
18585000   0.84051783 -4.1146277e-05   0.49080902   0.01402775            0   0.47678127    1.2502703    1.7410793   0.33661971 
18590000   0.87895602 -5.6968167e-06   0.41797055 0.0095883891            0   0.40838216    1.3074471    1.7254176    1.5309663 
18595000   0.87661786  6.31998e-05   0.40838916 0.0095849877            0   0.39880417    1.3039691    1.7123582    3.8695781 
18600000   0.86344654 5.0279768e-05   0.43830432 0.0080390723            0   0.43026525    1.2843767     1.722681    3.4388971 
18605000   0.79207204 0.00010995993   0.57039315  0.021380216            0   0.54901293    1.1782072    1.7486003    5.5018992 
18610000   0.84454465 0.00014513418   0.50147467  0.032441504            0   0.46903317    1.2562602    1.7577348    6.7116482 
18615000   0.87134069 0.00011401503   0.47036351  0.010801275            0   0.45956224    1.2961193    1.7664828    5.6581958 
18620000   0.90553512 0.00010273244    0.4293489  0.010184447            0   0.41916445    1.3469835    1.7763324    5.2829331 
18625000   0.88370541 4.4755328e-06   0.47015666  0.011393589            0   0.45876307    1.3145118    1.7846685    1.9374333 
18630000   0.84841579 -7.3389568e-05   0.52777185  0.010610344            0    0.5171615    1.2620185    1.7897903  -0.71524024 
18635000   0.92629357 -0.00010189639   0.42015488  0.010871443            0   0.40928344    1.3778617    1.7980166   -1.6800468 
18640000   0.89773487 -6.570873e-05   0.46273929  0.018760836            0   0.44397845    1.3353806    1.7981199  -0.44473808 
18645000   0.89356036 4.4733155e-05   0.47170178  0.023068779            0     0.448633     1.329171    1.8008728    3.3277645 
18650000   0.92968936 6.2233791e-05   0.42620765  0.013607112            0   0.41260053    1.3829129    1.8091206    3.9333673 
18655000   0.90647918 -6.3157537e-05   0.47763967  0.018510554            0   0.45912911    1.3483878    1.8260274  -0.32974982 
18660000   0.90611504 -9.5917699e-05   0.46193034  0.028418006            0   0.43351233    1.3478461    1.8097765   -1.4642143 
18665000   0.90025098 4.0064837e-05    0.4692245  0.015459245            0   0.45376526    1.3391233    1.8083478    3.1758943 
18670000   0.95048309 2.0208273e-05   0.39954795  0.025297854            0    0.3742501    1.4138436    1.8133915    2.5031673 
18675000   0.83962342 -5.6770778e-05   0.56390694  0.026235111            0   0.53767183    1.2489398    1.8128468  -0.12492912 
18680000   0.91775658 -3.0822096e-05   0.46528847    0.0111338            0   0.45415467    1.3651629    1.8304514   0.77839049 
18685000   0.87574873 5.1287349e-06   0.52419746 0.0078679796            0   0.51632948    1.3026762    1.8268737    2.0019345 
18690000   0.94289941 4.3952324e-05   0.41732327  0.015720409            0   0.40160287    1.4025629    1.8198862    3.3201255 
18695000   0.86673529 -6.6611019e-05   0.54262916  0.010462964            0   0.53216619    1.2892687    1.8318979  -0.44175822 
18700000   0.92521395 -9.8910068e-05   0.45198467 0.0078919071            0   0.44409276    1.3762558    1.8282404   -1.5478899 
18705000   0.91231224 2.7153256e-05   0.46019235  0.018807746            0    0.4413846    1.3570645    1.8172568     2.744088 
18710000   0.86375903 0.00010504659   0.54177912  0.031631687            0   0.51014743    1.2848416    1.8266207    5.4122111 
18715000   0.94447472 5.6162659e-05   0.40461106  0.014503627            0   0.39010744    1.4049061    1.8095172     3.726536 
18720000    0.9386171 -2.3782493e-06   0.41268883  0.011331256            0   0.40135757    1.3961929    1.8088818    1.7277042 
18725000   0.92960628 1.131473e-05   0.41178969  0.018984459            0   0.39280523    1.3827893     1.794579    2.1807885 
18730000   0.84504429 -4.0828355e-05   0.55873815  0.014061145            0     0.544677    1.2570034    1.8157415    0.4221337 
18735000   0.87413955 9.5912289e-05   0.52435817  0.021601502            0   0.50275667    1.3002826    1.8246408    5.0984469 
18740000   0.93342175 0.00011373569   0.43638871   0.03342182            0   0.40296689    1.3884648    1.8248536    5.7070319 
18745000   0.83190241 -6.4822158e-05   0.58595807   0.05743348            0   0.52852459    1.2374548    1.8234129  -0.38918342 
18750000   0.92947526 -9.9389343e-05   0.43755913  0.042621678            0   0.39493745    1.3825945    1.8201536    -1.572336 
18755000   0.90388098 -1.0065799e-05   0.48697043  0.014900274            0   0.47207016     1.344523    1.8314934    1.4879141 
18760000   0.89109881 0.00016505548   0.50575888 0.0032647649            0   0.50249412    1.3255095    1.8312684    7.4651622 
18765000   0.89722298 0.00012901922    0.4904144 0.0051893217            0   0.48522508    1.3346192    1.8250336    6.2288897 
18770000   0.92923919 5.3783531e-05    0.4482697 0.0073873176            0   0.44088238    1.3822433     1.830513    3.6663242 
18775000   0.89464362 -3.8717363e-05   0.51713208 0.0098809164            0   0.50725116    1.3307824    1.8479145    0.5263618 
18780000   0.97511351 -1.7197103e-05   0.38263345  0.022296052            0    0.3603374    1.4504813    1.8331148    1.2461203 
18785000   0.88064632 4.6496579e-05   0.50340562   0.02238048            0   0.48102514    1.3099614     1.813367    3.4004503 
18790000   0.91797238 -5.5000903e-05   0.43910332    0.0275733            0   0.41153002    1.3654839    1.8045872 -0.072776931 
18795000   0.83152544 -6.1192097e-05   0.55954937  0.031886039            0   0.52766333    1.2368941    1.7964435  -0.29224678 
18800000   0.85429345 7.790079e-05   0.53079036  0.014124943            0   0.51666542    1.2707615    1.8015519    4.4605655 
18805000   0.86153469 8.3169158e-05   0.53769575  0.019150156            0   0.51854559    1.2815329    1.8192286    4.6580692 
18810000   0.91999259 -1.6040237e-06   0.46204701  0.025718777            0   0.43632824     1.368489     1.830536    1.7757853 
18815000   0.91786113 -2.9010792e-05   0.45631468   0.01393215            0   0.44238253    1.3653184    1.8216331   0.83139807 
18820000   0.91632464 -8.2855843e-05    0.4579681 0.0072402181            0   0.45072788    1.3630329     1.821001   -1.0071451 
18825000   0.87596105 -5.8272639e-05   0.52573376 0.0062294873            0   0.51950427    1.3029921    1.8287258  -0.16031358 
18830000    0.8983955 -6.2764572e-05   0.48969833  0.011752056            0   0.47794628    1.3363633    1.8260616  -0.31630242 
18835000   0.88538533 4.7925778e-05   0.52395763  0.020340497            0   0.50361713    1.3170107    1.8409683    3.4768349 
18840000   0.90651172 -2.0548436e-06    0.5033325  0.011153753            0   0.49217875    1.3484362    1.8517687      1.78163 
18845000   0.89433737 1.5233927e-05   0.51956343 0.0071349969            0   0.51242844    1.3303268    1.8498903     2.369875 
18850000   0.89648486 -2.8292901e-05   0.52479726  0.010345027            0   0.51445223    1.3335212    1.8583185   0.89258748 
18855000   0.94557039 -4.7966317e-05   0.47539087  0.021696497            0   0.45369437     1.406536    1.8819268   0.24467654 
18860000   0.93988491 -3.9465695e-05   0.47164441 0.0058220747            0   0.46582233    1.3980788    1.8697232   0.52262748 
18865000   0.90490597 -0.00011104991   0.50973369 0.0084277533            0   0.50130594    1.3460476    1.8557813   -1.9347221 
18870000   0.90119401 -5.8547122e-05   0.52907499  0.021356422            0   0.50771856    1.3405261    1.8696011  -0.12880736 
18875000   0.91575364 -2.2733953e-05   0.49087248  0.028470539            0   0.46240194    1.3621835     1.853056    1.0770704 
18880000   0.89185385 -6.0334765e-05   0.51086246  0.010968613            0   0.49989385    1.3266326    1.8374951  -0.22193157 
18885000   0.88172802 -5.1395469e-06   0.52656041  0.012804269            0   0.51375614    1.3115704    1.8381308     1.662701 
18890000   0.90944083 4.5175892e-05    0.4773511  0.018454066            0   0.45889703    1.3527932    1.8301443    3.3721481 
18895000    0.9221273 -3.1969357e-05   0.47533679  0.011874041            0   0.46346275    1.3716644    1.8470011   0.75578044 
18900000   0.86264898 -0.00010430839   0.56116647  0.029525609            0   0.53164086    1.2831904    1.8443568   -1.7160361 
18905000   0.87440408 1.5275547e-05   0.52023619  0.036296594            0    0.4839396    1.3006761    1.8209123    2.3423176 
18910000    0.9590475 6.3971169e-05   0.40987055  0.021567868            0   0.38830269    1.4265832    1.8364537     4.020003 
18915000   0.85496177 -5.5994055e-05     0.554415 0.0028200221            0   0.55159498    1.2717556    1.8261706 -0.085093095 
18920000   0.91499414 4.810531e-05    0.4680598 0.0072790302            0   0.46078077    1.3610538    1.8291136    3.4711082 
18925000   0.91087671 5.8732722e-05   0.45444396 0.0048418592            0    0.4496021    1.3549291    1.8093731    3.8141167 
18930000   0.92330262 7.3557582e-05   0.43871376 0.0015462847            0   0.43716748    1.3734127    1.8121264    4.3228919 
18935000   0.89252969 -2.1200924e-05   0.49445644 0.0027622605            0   0.49169417    1.3276379    1.8220943    1.0984361 
18940000   0.88878594 -0.00011989585   0.50498538  0.015865618            0   0.48911976    1.3220691    1.8270545   -2.2653907 
18945000   0.88804698 -6.7672888e-05   0.51531937  0.018394281            0   0.49692509    1.3209699    1.8362893    -0.473612 
18950000   0.94931522 4.2485348e-05   0.41251766  0.013478896            0   0.39903877    1.4121064     1.824624    3.2747906 
18955000   0.92884106 1.9836598e-05   0.48656986  0.033524483            0   0.45304538    1.3816511    1.8682209    2.5453102 
18960000   0.94812909 6.7684395e-05   0.46766427  0.020243249            0   0.44742102     1.410342    1.8780063    4.1883003 
18965000   0.91644125 9.5365419e-05   0.52556858  0.032939676            0    0.4926289    1.3632064    1.8887749    5.1439146 
18970000   0.96203231 -5.6333071e-05   0.48167694  0.013776894            0   0.46790005    1.4310231       1.9127  -0.01013549 
18975000   0.97025452 -7.7238065e-05   0.47313653  0.013348019            0   0.45978851    1.4432536    1.9163901   -0.7200025 
18980000   0.95586996 -0.00011288679   0.49013045 0.0087705302            0   0.48135992    1.4218566     1.911987   -1.9412153 
18985000   0.93279631 3.2840441e-06    0.5333881  0.013124491            0   0.52026361    1.3875345    1.9209226     2.033018 
18990000   0.92950639 5.2817095e-05   0.51942823  0.024939086            0   0.49448914    1.3826408     1.902069    3.7048925 
18995000    0.9428649 -5.5032151e-06   0.51911574  0.020680447            0   0.49843529    1.4025115    1.9216273    1.7337842 
19000000   0.93450048 -9.6191529e-05   0.56262196  0.012189602            0   0.55043236    1.3900695    1.9526914   -1.3306461 
19005000    0.9608006 -9.3505683e-05   0.53967425 0.0086779987            0   0.53099625    1.4291909    1.9688651   -1.2227955 
19010000   0.93034759 2.3701473e-05   0.57231328  0.024804965            0   0.54750832     1.383892    1.9562053    2.7652156 
19015000   0.95224786 1.1762046e-05   0.53594008   0.05193569            0   0.48400439    1.4164687    1.9524088    2.3538866 
19020000   0.97840448 -4.4795136e-05   0.50041442  0.026601599            0   0.47381283    1.4553767    1.9557911   0.42678377 
19025000     0.924571 -4.5290333e-05    0.5678613  0.051728814            0   0.51613248    1.3752994    1.9431607   0.39725065 
19030000   0.97291574 -6.2462293e-05   0.49799377  0.056395865            0   0.44159791    1.4472122    1.9452059  -0.18684031 
19035000    0.9794987 -3.8819345e-05   0.49415494  0.044269034            0   0.44988591    1.4570043    1.9511593   0.62612563 
19040000    0.9759302 4.9059318e-06   0.48837396  0.012896528            0   0.47547743    1.4516962    1.9400701    2.1075259 
19045000   0.90444996 0.00011483477   0.58376141 0.0049616188            0   0.57879979    1.3453693    1.9291307    5.8488243 
19050000   0.97230744 4.4989251e-05   0.47903282   0.01622418            0   0.46280864    1.4463073    1.9253401    3.4609732 
19055000    0.9739411 -0.00013036606    0.4579964   0.01265468            0   0.44534172    1.4487374    1.9067338   -2.5430944 
19060000   0.95760249 -3.0378026e-05   0.47285835  0.023408632            0   0.44944972    1.4244337     1.897292   0.86038876 
19065000   0.87787315 0.00010778262   0.58282565  0.027488836            0   0.55533682    1.3058363     1.888662    5.5676422 
19070000    0.9816912 5.275491e-05   0.41198052  0.007503789            0   0.40447673    1.4602657    1.8722462    3.6729471 
19075000   0.88395112 3.0953596e-06   0.56806246  0.026989092            0   0.54107337    1.3148773    1.8829397    1.9885947 
19080000   0.98504969 8.1270804e-05   0.42312314  0.042778232            0   0.38034491    1.4652614    1.8883846     4.662428 
19085000   0.93705803 -2.0036654e-05    0.5022607  0.032850947            0   0.46940975    1.3938738    1.8961345    1.2122167 
19090000   0.92632801 -0.00013072074   0.51861532  0.018451009            0   0.50016431    1.3779129    1.8965282   -2.5654065 
19095000   0.92518132 -2.4458097e-05   0.50636608  0.012371989            0   0.49399409    1.3762072    1.8825733    1.0477369 
19100000   0.93667692 0.00012514683   0.47419086 0.0080501011            0   0.46614075    1.3933069    1.8674978    6.1391762 
19105000   0.93731837 6.7222246e-05   0.47326218  0.001658323            0   0.47160386    1.3942611    1.8675233    4.1620426 
19110000   0.94806563 -1.7427443e-05   0.48120648 0.0021523339            0   0.47905414    1.4102476    1.8914541    1.2965974 
19115000   0.93804332 -9.7826106e-06   0.49667644  0.015736539            0    0.4809399    1.3953394    1.8920159    1.5581028 
19120000   0.93104283 8.0670482e-06   0.48595963  0.023782439            0   0.46217719    1.3849262    1.8708858    2.1462411 
19125000   0.90556662 7.1997357e-05   0.51645854 0.0048879395            0    0.5115706    1.3470303    1.8634889    4.3209987 
19130000   0.86369247 7.5134176e-05   0.56054502  0.014534281            0   0.54601074    1.2847426    1.8452876    4.4098674 
19135000   0.86048503 -8.8268122e-05   0.54482397  0.035145476            0   0.50967849    1.2799715    1.8247954   -1.1880898 
19140000   0.88273211 -0.00021297079   0.52480242  0.025184824            0   0.49961759     1.313064    1.8378664   -5.4315365 
19145000   0.92805541 -1.6764557e-05   0.44714556  0.016489907            0   0.43065565    1.3804824     1.827628    1.2553978 
19150000   0.88405455 9.7046825e-05   0.52479687  0.023738572            0    0.5010583    1.3150311     1.839828    5.1523597 
19155000   0.90761643 0.00013235158   0.46430795  0.015901354            0    0.4484066    1.3500794    1.8143874     6.331988 
19160000   0.86751613 7.7485623e-05   0.50552374 0.0046622845            0   0.50086146    1.2904302     1.795954    4.4407966 
19165000   0.87700742 5.2964659e-05   0.49142796 0.0088691824            0   0.48255878    1.3045485    1.7959765    3.6038369 
19170000   0.83523044 4.6261158e-05   0.54168023  0.019791915            0   0.52188832    1.2424053    1.7840855     3.363133 
19175000   0.89292145 -2.2375728e-05   0.44218571 0.0088549718            0   0.43333074    1.3282207    1.7704064    1.0066482 
19180000   0.91613497 -8.2455216e-05   0.43234657 0.00021957214            0     0.432127    1.3627508    1.7950973    -1.019374 
19185000   0.82635311 7.9577638e-06   0.57438157 0.0066294616            0    0.5677521    1.2292003    1.8035818    2.0752068 
19190000   0.90122801 9.2715635e-05   0.49650205  0.017045296            0   0.47945676    1.3405767    1.8370787    5.0017724 
19195000   0.88347511 3.1804839e-05   0.53371279  0.016689504            0   0.51702328    1.3141692     1.847882    2.9334872 
19200000   0.91493108 1.9534698e-05   0.48292747 0.0081796749            0   0.47474779      1.36096    1.8438875    2.5106718 
19205000   0.89454877 -4.5988843e-05   0.51293177  0.010684192            0   0.50224758    1.3306413    1.8435731   0.27382056 
19210000    0.9345562 -0.0001337719   0.45798207  0.040100354            0   0.41788172    1.3901523    1.8481344   -2.7179466 
19215000    0.9054163 -0.0001023212   0.49455198  0.016034884            0   0.47851709    1.3468067    1.8413587   -1.6512049 
19220000   0.86011779 -2.908513e-05   0.57862561  0.010786916            0   0.56783869    1.2794252    1.8580508    0.8652784 
19225000   0.92532042 4.0310732e-05   0.46639547  0.017910912            0   0.44848456    1.3764141    1.8428096    3.2187493 
19230000   0.88517881 -3.2264419e-05   0.52527347  0.024415765            0    0.5008577    1.3167035     1.841977   0.74068477 
19235000   0.91737048 -1.5639461e-05    0.4769983 0.0074274479            0   0.46957085    1.3645886    1.8415869    1.3077599 
19240000   0.91420103 7.1083134e-05   0.47343361  0.011394203            0    0.4620394     1.359874    1.8333076     4.259612 
19245000   0.85351978 2.2801297e-05   0.52866595  0.022964557            0    0.5057014    1.2696107    1.7982766    2.5765609 
19250000   0.88756353 -3.0056596e-05   0.48660011 0.0091687855            0   0.47743132    1.3202507    1.8068509   0.78091903 
19255000   0.90213145 -2.9690378e-05   0.46786347  0.011239095            0   0.45662437    1.3419205     1.809784   0.79635243 
19260000   0.89346652 5.7541781e-05   0.49695191  0.016125863            0   0.48082605    1.3290315    1.8259834    3.7900761 
19265000   0.90045408 2.8040934e-05   0.51017173  0.021055474            0   0.48911625    1.3394254    1.8495972    2.8067277 
19270000   0.88344251 -8.3160805e-06   0.55561305   0.01282429            0   0.54278876    1.3141207    1.8697338    1.5858782 
19275000   0.83510615 -6.9260623e-05   0.65020355  0.024684555            0     0.625519    1.2422204    1.8924239  -0.47167199 
19280000   0.92254183 -0.00013868754    0.5310987  0.025424401            0    0.5056743     1.372281    1.9033797   -2.8304883 
19285000   0.92544393 -6.3562728e-05   0.52018901 0.0068169863            0   0.51337203    1.3765978    1.8967869  -0.27282091 
19290000   0.99290541 -9.2710338e-05   0.43223398 0.0097214424            0   0.42251254    1.4769468    1.9091808   -1.2553321 
19295000    1.0055614 -0.00010717392   0.40169213  0.026659226            0    0.3750329    1.4957725    1.8974647   -1.7607385 
19300000   0.95482291 1.5993499e-05   0.48361294  0.031589846            0   0.45202309    1.4202991     1.903912    2.4498234 
19305000   0.89256929 1.8564367e-05   0.58227425  0.033376749            0    0.5488975    1.3276968    1.9099711    2.5436348 
19310000   0.91022027 4.6249625e-05   0.57464808  0.038110917            0   0.53653716    1.3539526    1.9286007    3.5072546 
19315000   0.95758521 8.202882e-05   0.50855057  0.014402847            0   0.49414772     1.424408    1.9329586    4.7328756 
19320000   0.98725114 5.0938504e-05   0.47135349  0.015786372            0   0.45556712    1.4685361    1.9398896    3.6785905 
19325000   0.94217893 5.3885562e-05   0.53713799 0.0082976949            0    0.5288403    1.4014912    1.9386292     3.777923 
19330000   0.95211849 -4.545469e-05   0.53202994 0.0098644234            0   0.52216552    1.4162763    1.9483062   0.39678611 
19335000    1.0155959 -0.00011167961   0.46048585 0.0071396847            0   0.45334617    1.5106989    1.9711848   -1.8408127 
19340000   0.98607545 8.7020447e-05   0.51503843 0.0055279544            0   0.50951048    1.4667872    1.9818257    4.9521236 
19345000    1.0277126 0.00016723916   0.46088016 0.0060323681            0   0.45484779    1.5287226    1.9896027    7.6980328 
19350000    1.0604539 9.7437024e-05   0.40838917  0.010448132            0   0.39794104    1.5774252    1.9858144    5.3116648 
19355000    1.0044719 8.5584273e-05   0.50198241  0.017570661            0   0.48441175     1.494152    1.9961344    4.9174109 
19360000   0.93430199 -3.4650291e-05   0.58943036  0.030009519            0   0.55942084    1.3897742    1.9792046   0.79647463 
19365000   0.98440327 -0.00016967837   0.53582028  0.029840872            0    0.5059794    1.4642999    2.0001201   -3.7915683 
19370000    1.0118249 -9.7105622e-05   0.49831909  0.014325678            0   0.48399342    1.5050896    2.0034087   -1.3111299 
19375000   0.96644106 3.6223664e-06   0.57775976  0.011367497            0   0.56639227    1.4375811    2.0153408    2.1389843 
19380000   0.92911095 7.8927497e-05   0.64897432  0.023229749            0   0.62574457    1.3820525    2.0310269    4.7250854 
19385000    1.0222022 0.00013257689   0.51181081  0.031431364            0   0.48037945    1.5205258    2.0323366    6.5576279 
19390000   0.99060812 -5.3472503e-05   0.52836369    0.0301308            0   0.49823289    1.4735296    2.0018933   0.17669852 
19395000    0.9692326 -0.00011214354   0.58388962  0.033254908            0   0.55063471    1.4417335    2.0256231   -1.8022098 
19400000   0.94535622 5.7313544e-05   0.61088845  0.026954424            0   0.58393403    1.4062174    2.0171058    3.9734081 
19405000    1.0536091 0.00012514568   0.42872045  0.030791473            0   0.39792898    1.5672435     1.995964    6.2676032 
19410000    1.0123891 0.00019870636    0.4907997  0.020603568            0   0.47019613    1.5059288    1.9967285    8.7792388 
19415000   0.99200728 0.0002331425   0.53553852  0.017858817            0    0.5176797    1.4756108    2.0111494      9.96908 
19420000    1.0625488 5.0679196e-05   0.41839373   0.04799634            0   0.37039739    1.5805414    1.9989351     3.728785 
19425000   0.91598511 -3.1483978e-05   0.61862647   0.05334104            0   0.56528543    1.3625278    1.9811543   0.90650121 
19430000   0.96820661 4.3750766e-05   0.53154077  0.032293456            0   0.49924732    1.4402073    1.9717481    3.4651076 
19435000   0.93220045 -3.4147253e-05   0.59172091   0.05352925            0   0.53819166    1.3866482    1.9783691    0.8128095 
19440000    0.9627891 -3.1965007e-05   0.53291719  0.042159662            0   0.49075752    1.4321488     1.965066   0.87399372 
19445000   0.98037237 -2.2810093e-05   0.50687459  0.023157122            0   0.48371747    1.4583039    1.9651785     1.186594 
19450000   0.99311968 -6.0889348e-05   0.49071696  0.023755571            0   0.46696139    1.4772655    1.9679825  -0.11037393 
19455000   0.98531912 -6.3586386e-05   0.49078796  0.020102948            0   0.47068501    1.4656622    1.9564501  -0.21396515 
19460000   0.93665693 -8.5344954e-06     0.535109  0.034162559            0   0.50094644    1.3932772    1.9283862    1.6370754 
19465000   0.98338406 1.7510031e-05   0.48217895  0.032493972            0   0.44968498    1.4627838    1.9449627    2.5426385 
19470000   0.97924453 -0.0001162196   0.48636153  0.036034688            0   0.45032684    1.4566262    1.9429878   -2.0239747 
19475000    1.0085562 2.3116312e-06   0.44376676  0.018460567            0   0.42530619    1.5002274    1.9439941    2.0228978 
19480000   0.98488779 1.9061626e-05   0.49752955  0.023292559            0   0.47423699    1.4650206    1.9625501     2.613187 
19485000   0.93373547 -7.637851e-05   0.56486164  0.014328803            0   0.55053283    1.3889315    1.9537932     -0.65326 
19490000   0.98770562 -7.8516847e-06   0.47852942  0.024175879            0   0.45435354    1.4692121    1.9477415    1.6797374 
19495000   0.97050709 6.1419994e-05   0.49344096  0.017045074            0   0.47639588    1.4436293    1.9370702    4.0335394 
19500000   0.94743491 8.3435885e-05   0.53247679 0.0069085653            0   0.52556823    1.4093094    1.9417862    4.7897311 
19505000   0.98338213 3.8326637e-05   0.46179646  0.017674173            0   0.44412228    1.4627809    1.9245774    3.2327933 
19510000   0.95264601 -0.00013694395    0.4985934  0.031266091            0   0.46732731    1.4170609    1.9156543    -2.758699 
19515000   0.94369255 -6.8140289e-05   0.50416697 0.0066215296            0   0.49754544    1.4037427    1.9079096  -0.41794555 
19520000   0.94284787 7.548288e-05   0.50024182 0.0023798333            0   0.49786198    1.4024862     1.902728    4.4792103 
19525000   0.91498907 5.0543238e-05   0.54378534  0.020141826            0   0.52364351    1.3610462    1.9048316    3.6300408 
19530000   0.94617489 -6.1424696e-05   0.51371002  0.040740081            0   0.47296994    1.4074351    1.9211452  -0.17548446 
19535000   0.90165658 -4.8350705e-05   0.59321188  0.024687616            0   0.56852427    1.3412142     1.934426   0.28405532 
19540000   0.89380582 0.00010658049   0.61731357 0.0084206574            0   0.60889291    1.3295362    1.9468497     5.584797 
19545000   0.93069716 3.0062184e-05   0.55410106   0.01529773            0   0.53880333     1.384412    1.9385131    2.9646356 
19550000   0.97997604 4.3401033e-05   0.48410734  0.030932009            0   0.45317533    1.4577144    1.9418217    3.4232436 
19555000   0.96166732 4.4048885e-05   0.51868616  0.038360685            0   0.48032547    1.4304801    1.9491663    3.4527016 
19560000   0.91668201 2.132974e-05   0.58411496    0.0293984            0   0.55471656    1.3635645    1.9476794    2.6757346 
19565000   0.99820371 -6.0525289e-05   0.47713239   0.01367093            0   0.46346146     1.484828    1.9619604  -0.10396943 
19570000    1.0075712 9.4796535e-06    0.4554708  0.011510644            0   0.44396016    1.4987622     1.954233    2.2778052 
19575000    1.0250188 9.5838532e-05   0.43731127 0.0026755654            0    0.4346357    1.5247154    1.9620267    5.2333153 
19580000   0.97651856 -0.00013364061   0.50189578 0.0020362144            0   0.49985957    1.4525714    1.9544671   -2.6071325 
19585000   0.94948516 -0.00019245917    0.5242115  0.016825376            0   0.50738613    1.4123592    1.9365707   -4.6327022 
19590000   0.98405468 -2.8308221e-06   0.48073771  0.041081635            0   0.43965608    1.4637813    1.9445191    1.8478937 
19595000   0.94869014 4.3879789e-05   0.54055189  0.043681417            0   0.49687047    1.4111766    1.9517285    3.4494919 
19600000    1.0008715 -8.7164203e-05   0.45470548  0.030958418            0   0.42374706    1.4887963    1.9435018    -1.031703 
19605000   0.99807609 2.2900654e-05   0.47361917  0.011700361            0    0.4619188    1.4846382    1.9582574     2.739933 
19610000    1.0155378 0.00015993581   0.48944175  0.017471115            0   0.47197064    1.5106124    2.0000542    7.4591964 
19615000   0.95882842 -2.0674124e-05   0.55977153   0.01101003            0   0.54876149    1.4262573    1.9860288     1.280352 
19620000   0.99848619 -0.0002179442   0.50039541  0.044706126            0   0.45568929    1.4852482    1.9856436   -5.4535185 
19625000   0.94139136 -0.00020682453   0.59227977  0.036293413            0   0.55598636    1.4003196    1.9925994   -5.0670111 
19630000   0.99866876 -8.1650163e-05   0.52169401  0.020625836            0   0.50106818    1.4855198    2.0072138  -0.77977845 
19635000    1.0432747 -1.8650386e-05   0.47820963  0.020745072            0   0.45746455    1.5518711    2.0300807    1.3934809 
19640000    1.0555848 5.9937182e-06   0.45475056  0.025075979            0   0.42967458    1.5701823    2.0249329    2.2295185 
19645000    1.0358149 0.00010039931   0.50044963  0.044450087            0   0.45599954    1.5407747    2.0412243    5.4681876 
19650000    1.0328336 0.00012287784   0.49654179  0.033973681            0   0.46256811    1.5363399    2.0328817    6.2271122 
19655000     1.028043 3.2219433e-05   0.50840616  0.038939953            0   0.46946621     1.529214    2.0376201    3.1373768 
19660000    1.0467513 -2.5228389e-05   0.47192132  0.019898382            0   0.45202294    1.5570425    2.0289638    1.1678348 
19665000   0.98116806 -0.00013458905   0.58781303  0.031349704            0   0.55646332    1.4594875    2.0473005   -2.5466723 
19670000    1.0371354 -0.0001496669   0.47662803  0.025574008            0   0.45105402    1.5427389    2.0193669   -3.0892633 
19675000    1.0154564 6.2992763e-06   0.51847624  0.018841992            0   0.49963425    1.5104914    2.0289676    2.2439829 
19680000    1.0395318 0.00016066805   0.46513263  0.035576588            0   0.42955604    1.5463035    2.0114362    7.4955722 
19685000   0.95110805 2.4523643e-05   0.58935245  0.053685516            0   0.53566694    1.4147732    2.0041257    2.8411994 
19690000     1.026215 -0.00010779629   0.49752412  0.035837861            0   0.46168626    1.5264947    2.0240189   -1.6554278 
19695000   0.96291898 8.2202563e-05   0.59788792  0.071110142            0   0.52677777     1.432342    2.0302299    4.8360774 
19700000    1.0551991 2.4751683e-05   0.46590401  0.020857558            0   0.44504645    1.5696087    2.0355127    2.8803701 
19705000     1.013629 -4.9429765e-05   0.54155435  0.026795122            0   0.51475922    1.5077731    2.0493275   0.36212483 
19710000   0.99371134 5.0012578e-05   0.58362045  0.031483153            0    0.5521373    1.4781456    2.0617661    3.7688621 
19715000    1.0401559 1.6189923e-05   0.50328745  0.061076462            0   0.44221099    1.5472319    2.0505193    2.6031354 
19720000    1.0363785 -6.7840618e-05   0.49071027  0.020835848            0   0.46987443     1.541613    2.0323233   -0.2833031 
19725000   0.99844051 -6.7921812e-05   0.53072207  0.010179542            0   0.52054253    1.4851803    2.0159023   -0.3024955 
19730000    1.0700623 -9.2157206e-05   0.41238154  0.010691383            0   0.40169016    1.5917176    2.0040992   -1.1415335 
19735000     1.050275 -1.6577877e-05   0.42953861 0.0025667077            0    0.4269719    1.5622841    1.9918227    1.4259645 
19740000    1.0809092 2.4152623e-05   0.38983067  0.014190827            0   0.37563984    1.6078525    1.9976831    2.8220927 
19745000    1.0295898 -8.7731839e-05   0.46029436  0.033156061            0   0.42713829    1.5315148    1.9918092   -1.0027709 
19750000   0.96570722 -8.3295684e-05   0.57850754  0.043401896            0   0.53510565    1.4364895     2.014997   -0.8281623 
19755000   0.99638924 8.9835465e-05   0.55214131    0.0412774            0   0.51086391     1.482129    2.0342703    5.1006542 
19760000    1.0811663 0.00011084843   0.42953086  0.035606104            0   0.39392475    1.6082348    2.0377657     5.821392 
19765000    1.0303456 2.4397115e-05   0.51784644  0.023435982            0   0.49441046    1.5326391    2.0504855    2.8832404 
19770000    1.0532842 -5.1481557e-05   0.49097933  0.008646112            0   0.48233322    1.5667602    2.0577395    0.3005024 
19775000    1.0526099 -2.7301903e-05   0.47600199  0.012504341            0   0.46349765    1.5657573    2.0417593    1.1098543 
19780000    1.0240644 0.00020396944   0.51271872  0.032963955            0   0.47975476    1.5232958    2.0360145    8.9981713 
19785000    1.0073753 0.00014461238    0.5260171  0.039268028            0   0.48674907    1.4984708    2.0244879    6.9605906 
19790000    1.0377404 -5.7785732e-05   0.48927201  0.011402227            0   0.47786978    1.5436389    2.0329109  0.060491258 
19795000    1.0080997 -3.2822704e-05   0.53741183   0.01280256            0   0.52460927    1.4995483    2.0369601   0.91661181 
19800000    1.0656469 -4.4426392e-05   0.44867591 0.0090801405            0   0.43959577    1.5851498    2.0338257   0.51740482 
19805000    1.0125477 3.3123551e-05    0.4962926  0.016231725            0   0.48006087    1.5061647    2.0024573    3.1330745 
19810000    1.0172805 9.1581653e-05   0.48846643  0.014223195            0   0.47424324    1.5132048    2.0016712    5.1276583 
19815000    1.0289502 1.0635846e-05   0.47441969  0.007809886            0    0.4666098    1.5305634    2.0049831    2.3680199 
19820000    1.0157317 -8.416762e-05   0.46857446     0.017631            0   0.45094346     1.510901    1.9794754    -0.893446 
19825000    1.0145728 1.9619395e-06   0.48140052  0.023971051            0   0.45742947     1.509177    1.9905775     2.057545 
19830000    1.0332598 9.2110705e-06   0.47421103  0.013959303            0   0.46025173     1.536974     2.011185    2.3255896 
19835000    1.0339851 -0.00011480861   0.45800848  0.010058429            0   0.44795005    1.5380528    1.9960613   -1.9227393 
19840000    1.0305202 -2.7603486e-05    0.4598622  0.016552226            0   0.44330998    1.5328989    1.9927611    1.0505621 
19845000    1.0479695 2.2118868e-05   0.45922859  0.019430035            0   0.43979855    1.5588546    2.0180832    2.7730739 
19850000    1.0319637 6.0353456e-05   0.48004664    0.0351105            0   0.44493614    1.5350461    2.0150927    4.0751574 
19855000    1.0356183 -3.0835227e-06   0.47647388  0.046803574            0    0.4296703    1.5404822     2.016956    1.9117051 
19860000    1.0701631 4.208726e-05    0.4248847  0.034393112            0   0.39049159    1.5918676    2.0167522    3.4533307 
19865000   0.98922678 9.5186076e-06   0.55336048  0.033935455            0   0.51942503    1.4714748    2.0248353    2.3497371 
19870000    1.0660172 -0.00012627155   0.44901286  0.029703567            0   0.41930929    1.5857006    2.0347135   -2.2753555 
19875000     1.029893 -0.00023382976   0.49226942  0.018430648            0   0.47383877    1.5319658    2.0242353   -5.9571537 
19880000    1.0438404 -4.2516135e-06   0.48372736  0.050305964            0    0.4334214    1.5527127      2.03644    1.8913183 
19885000    1.0302734 0.00011465192   0.51672973  0.034316623            0   0.48241311    1.5325317    2.0492614    5.9627135 
19890000    1.0717548 6.9505481e-05   0.47484695  0.032874243            0   0.44197271    1.5942353    2.0690823     4.441536 
19895000    1.0803095 4.9194611e-05   0.47362559  0.016253955            0   0.45737164    1.6069604     2.080586     3.759762 
19900000     1.098056 5.0646157e-05   0.44536609  0.025493756            0   0.41987234    1.6333584    2.0787244    3.8074466 
19905000    1.0647878 4.5647773e-05   0.49088636  0.044855882            0   0.44603048    1.5838719    2.0747583    3.6328689 
19910000      1.04033 -2.7090417e-07   0.51151974  0.014843868            0   0.49667587    1.5474908    2.0590106    2.0497637 
19915000    1.0935033 -3.8487757e-05   0.44901153 0.0095469472            0   0.43946458    1.6265862    2.0755978   0.76188233 
19920000    1.0679176 -5.9924441e-05   0.50292364  0.022678935            0   0.48024471    1.5885274    2.0914511  0.046030136 
19925000    1.0164198 6.3297012e-05    0.5745102  0.056552243            0   0.51795796    1.5119245    2.0864347    4.2469727 
19930000    1.0557855 -3.9563501e-05   0.51621172  0.041860764            0   0.47435096    1.5704809    2.0866927   0.73625851 
19935000    1.0248234 -3.7155698e-05   0.56434526  0.057573226            0   0.50677204    1.5244248      2.08877   0.82052223 
19940000    1.0975921 1.9685564e-05   0.43705147  0.029720277            0   0.40733119    1.6326682    2.0697197    2.7416536 
19945000    1.0798642 -7.1730799e-05   0.45693673  0.015324882            0   0.44161185    1.6062981    2.0632348  -0.38517649 
19950000    1.1065727 -0.000126951   0.43790831 0.0063834679            0   0.43152485    1.6460269    2.0839353   -2.2493255 
19955000    1.1181577 -3.7218437e-05   0.42461484  0.022737177            0   0.40187767    1.6632597    2.0878745   0.81748519 
19960000    1.0407606 7.4967694e-05   0.52686152   0.04641027            0   0.48045125    1.5481314     2.074993    4.6338903 
19965000    1.0610762 0.00012731968   0.48153546  0.028533434            0   0.45300202    1.5783509    2.0598864    6.4057315 
19970000    1.0694425 -1.9327255e-05   0.44117092  0.041374368            0   0.39979655    1.5907957    2.0319667     1.372263 
19975000    1.0012409 -1.2087506e-05   0.54868412  0.078717869            0   0.46996625    1.4893458    2.0380299     1.625443 
19980000   0.99121738 2.5274057e-05   0.54027269  0.011313529            0   0.52895916    1.4744359    2.0147086    2.8773964 
19985000    1.0217758 -7.4101129e-05   0.50993802  0.019694739            0   0.49024328    1.5198915    2.0298295  -0.49948899 
19990000   0.98560681 -7.3226998e-05    0.5523374  0.010945518            0   0.54139188    1.4660901    2.0184275  -0.48105401 
19995000     1.004474 -5.7171541e-05   0.49985435  0.024690703            0   0.47516365    1.4941551    1.9940094  0.042554128 
20000000    1.0301655 -0.000149361   0.44170004  0.013650056            0   0.42804998    1.5323712    1.9740712   -3.1241175 
Loop time of 246.039 on 1 procs for 20000000 steps with 120 atoms

Performance: 70232.892 tau/day, 81288.069 timesteps/s
99.5% CPU use with 1 MPI tasks x no OpenMP threads

MPI task timing breakdown:
Section |  min time  |  avg time  |  max time  |%varavg| %total
---------------------------------------------------------------
Pair    | 13.046     | 13.046     | 13.046     |   0.0 |  5.30
Bond    | 40.334     | 40.334     | 40.334     |   0.0 | 16.39
Neigh   | 20.621     | 20.621     | 20.621     |   0.0 |  8.38
Comm    | 51.442     | 51.442     | 51.442     |   0.0 | 20.91
Output  | 0.66948    | 0.66948    | 0.66948    |   0.0 |  0.27
Modify  | 111.24     | 111.24     | 111.24     |   0.0 | 45.21
Other   |            | 8.686      |            |       |  3.53

Nlocal:        120.000 ave         120 max         120 min
Histogram: 1 0 0 0 0 0 0 0 0 0
Nghost:        0.00000 ave           0 max           0 min
Histogram: 1 0 0 0 0 0 0 0 0 0
Neighs:        40.0000 ave          40 max          40 min
Histogram: 1 0 0 0 0 0 0 0 0 0

Total # of neighbors = 40
Ave neighs/atom = 0.33333333
Ave special neighs/atom = 5.9000000
Neighbor list builds = 4072
Dangerous builds = 0
write_restart restart.equil
System init for write_restart ...
WARNING: Communication cutoff 1.4200000000000002 is shorter than a bond length based estimate of 1.8. This may lead to errors. (../comm.cpp:667)
#--------------End of Input file ------------------
Total wall time: 0:04:06
