LAMMPS (29 Oct 2020)
###################### polyelectrolyte complexation ######################
clear

#Initialization
#------------------------------------
units				lj
dimension			3
atom_style			full
boundary			p p p

#Atom Definition
#-------------------------------------
read_data			data.complexation
Reading data file ...
  orthogonal box = (-120.00000 -120.00000 -120.00000) to (120.00000 120.00000 120.00000)
  1 by 1 by 1 MPI processor grid
  reading atoms ...
  200 atoms
  scanning bonds ...
  1 = max bonds/atom
  reading bonds ...
  199 bonds
Finding 1-2 1-3 1-4 neighbors ...
  special bond factors lj:    0.0      0.0      0.0     
  special bond factors coul:  0.0      0.0      0.0     
     2 = max # of 1-2 neighbors
     2 = max # of 1-3 neighbors
     4 = max # of 1-4 neighbors
     6 = max # of special neighbors
  special bonds CPU = 0.000 seconds
  read_data CPU = 0.004 seconds

#Force definition
#----------------------------------------------
#Bond definition
bond_style			harmonic
bond_coeff			1 5000 1
#Pair definition
special_bonds	lj 0 1 1
Finding 1-2 1-3 1-4 neighbors ...
  special bond factors lj:    0.0      1.0      1.0     
  special bond factors coul:  0.0      0.0      0.0     
     2 = max # of 1-2 neighbors
     2 = max # of 1-3 neighbors
     4 = max # of 1-4 neighbors
     6 = max # of special neighbors
  special bonds CPU = 0.000 seconds
pair_style		 lj/cut 1.12
pair_modify 		 shift yes
pair_coeff	1 1 1 1 1.12

#Timestep etc
#--------------------------------------------
timestep		1e-05
run_style		verlet
velocity		all	create	1	19

#Fix
#---------------------------------------
group polymers type 1
200 atoms in group polymers
fix 1 all nve
fix 2 all langevin 1	1	10	19
fix 3 polymers recenter INIT INIT INIT units box

#Dump
#------------------------------------------------
compute  1 all gyration
variable  myRg2 equal c_1
variable  i equal step
fix  mythermofile all print 5000 "$i ${myRg2}" file radius_of_gyration.dat screen no

thermo_style		 custom step temp press pe evdwl ecoul ebond ke etotal enthalpy
thermo 	5000
dump	3 all custom 5000 dump.lammpstrj id mol type xu yu zu
run		20000000
Neighbor list info ...
  update every 1 steps, delay 10 steps, check yes
  max neighbors/atom: 2000, page size: 100000
  master list distance cutoff = 1.42
  ghost atom cutoff = 1.42
  binsize = 0.71, bins = 339 339 339
  1 neighbor lists, perpetual/occasional/extra = 1 0 0
  (1) pair lj/cut, perpetual
      attributes: half, newton on
      pair build: half/bin/newton
      stencil: half/bin/3d/newton
      bin: standard
WARNING: Communication cutoff 1.4200000000000002 is shorter than a bond length based estimate of 1.8. This may lead to errors. (../comm.cpp:667)
Per MPI rank memory allocation (min/avg/max) = 165.7 | 165.7 | 165.7 Mbytes
Step Temp Press PotEng E_vdwl E_coul E_bond KinEng TotEng Enthalpy 
       0            1 1.4395255e-05            0            0            0            0       1.4925       1.4925       2.4875 
    5000   0.77763983 -0.00020802331   0.33173359            0            0   0.33173359    1.1606274     1.492361    -12.88621 
   10000   0.47299272 -0.00051230009   0.78732782            0            0   0.78732782   0.70594163    1.4932695   -33.916913 
   15000   0.65713227 -0.00030915039   0.52764553            0            0   0.52764553   0.98076991    1.5084154   -19.860059 
   20000   0.73388837 -0.00019030667   0.41265981            0            0   0.41265981    1.0953284    1.5079882   -11.646009 
   25000   0.57296525 -0.0004014817   0.64171377            0            0   0.64171377   0.85515064    1.4968644   -26.253551 
   30000    0.6086371 -0.00039018158   0.59375661            0            0   0.59375661   0.90839087    1.5021475   -25.467203 
   35000    0.7760633 -0.00017589714   0.35552617            0            0   0.35552617    1.1582745    1.5138006    -10.64421 
   40000   0.67870085 -0.00026122926   0.49581386            0            0   0.49581386     1.012961    1.5087749   -16.547391 
   45000   0.58164869 -0.00038603192   0.64181467            0            0   0.64181467   0.86811067    1.5099253   -25.172601 
   50000   0.68444374 -0.00024591776   0.46987778            0            0   0.46987778    1.0215323    1.4914101   -15.506425 
   55000    0.7447733 -0.00016681134   0.38001222            0            0   0.38001222    1.1115742    1.4915864   -10.038414 
   60000   0.67079517 -0.00026469727   0.48929201            0            0   0.48929201    1.0011618    1.4904538   -16.805422 
   65000   0.69873584 -0.00029592107   0.45342758            0            0   0.45342758    1.0428632    1.4962908   -18.957774 
   70000   0.77519703 -0.00017293623   0.32902233            0            0   0.32902233    1.1569816    1.4860039   -10.467348 
   75000   0.71375042 -0.00015501465   0.42736029            0            0   0.42736029    1.0652725    1.4926328     -9.22198 
   80000   0.72237151 -0.00026084242   0.43458274            0            0   0.43458274    1.0781395    1.5127222   -16.516706 
   85000   0.71716595 -0.00023636685    0.4465315            0            0    0.4465315    1.0703702    1.5169017   -14.820775 
   90000   0.77306325 -0.00011185295   0.37646141            0            0   0.37646141    1.1537969    1.5302583   -6.2010173 
   95000   0.76151533 -0.00016218676     0.408038            0            0     0.408038    1.1365616    1.5445996   -9.6657494 
  100000   0.73449167 -0.0002205043   0.45165882            0            0   0.45165882    1.0962288    1.5478876   -13.693369 
  105000    0.7678954 -0.00016486098   0.40731955            0            0   0.40731955    1.1460839    1.5534034   -9.8417875 
  110000   0.78463081 -0.00010951233   0.38167669            0            0   0.38167669    1.1710615    1.5527382   -6.0167538 
  115000   0.79198265 -0.0001167461   0.38718944            0            0   0.38718944    1.1820341    1.5692235   -6.5002667 
  120000   0.82386218 -0.00012453873   0.35572302            0            0   0.35572302    1.2296143    1.5853373   -7.0227796 
  125000   0.82196422 -0.00015781651   0.35289588            0            0   0.35289588    1.2267816    1.5796775   -9.3285994 
  130000    0.8153106 -0.00011748768   0.36986653            0            0   0.36986653    1.2168511    1.5867176   -6.5340307 
  135000   0.84080379 -4.6587355e-05    0.3310159            0            0    0.3310159    1.2548997    1.5859156   -1.6342024 
  140000   0.83219754 -9.3969869e-05   0.34831987 0.00018180651            0   0.34813807    1.2420548    1.5903747   -4.9048226 
  145000   0.85604333 -0.00011534588   0.32749935 0.00072885214            0    0.3267705    1.2776447     1.605144   -6.3675631 
  150000   0.83994256 -5.9796838e-05   0.35287332 0.0008583501            0   0.35201497    1.2536143    1.6064876   -2.5266698 
  155000   0.86634803 -7.1782662e-05   0.31845925 0.0001839702            0   0.31827528    1.2930244    1.6114837   -3.3501339 
  160000   0.83480527 -0.00014840329   0.36184549            0            0   0.36184549    1.2459469    1.6077924   -8.6498429 
  165000   0.84700917 -5.6283707e-05    0.3450017            0            0    0.3450017    1.2641612    1.6091629   -2.2811669 
  170000   0.88618631 -3.0829242e-05   0.29618005            0            0   0.29618005    1.3226331    1.6188131  -0.51210411 
  175000   0.87642484 -7.6139285e-05   0.31407631            0            0   0.31407631    1.3080641    1.6221404    -3.640607 
  180000   0.85850074 -6.9145036e-05   0.33311484            0            0   0.33311484    1.2813124    1.6144272   -3.1648777 
  185000     0.880156 -4.8250503e-05   0.31198849            0            0   0.31198849    1.3136328    1.6256213   -1.7094535 
  190000   0.84375637 -3.3585311e-05   0.36901939            0            0   0.36901939    1.2593064    1.6283258  -0.69309093 
  195000   0.88571574 -6.3056836e-05   0.29763029            0            0   0.29763029    1.3219307     1.619561   -2.7389274 
  200000   0.85636166 -3.1977746e-05   0.35734966            0            0   0.35734966    1.2781198    1.6354694  -0.57483237 
  205000   0.88456441 -5.0750352e-05   0.32330357            0            0   0.32330357    1.3202124    1.6435159   -1.8643484 
  210000   0.87288537 -5.1310478e-05   0.32514396            0            0   0.32514396    1.3027814    1.6279254   -1.9186549 
  215000   0.86443874 -1.1637687e-05   0.32875444            0            0   0.32875444    1.2901748    1.6189293   0.81453236 
  220000   0.88988582 -1.6719303e-05    0.2939126            0            0    0.2939126    1.3281546    1.6220672   0.46642893 
  225000   0.85323927 -8.3812812e-05    0.3504652            0            0    0.3504652    1.2734596    1.6239248   -4.1692168 
  230000   0.87909611 -4.1225346e-05   0.31542367            0            0   0.31542367     1.312051    1.6274746   -1.2220213 
  235000   0.87881512 7.4178308e-06   0.31840429            0            0   0.31840429    1.3116316    1.6300359    2.1427563 
  240000   0.86966285 -4.6904874e-05   0.32916245            0            0   0.32916245    1.2979718    1.6271343   -1.6149306 
  245000   0.85165933 -6.6767682e-05   0.34730734            0            0   0.34730734    1.2711015    1.6184089   -2.9965733 
  250000   0.87000827 -2.2698701e-05   0.33390636 6.5944419e-05            0   0.33384041    1.2984873    1.6323937   0.06345947 
  255000   0.88267089 -1.0863459e-05   0.32249123 0.00019680048            0   0.32229443    1.3173863    1.6398775   0.88899522 
  260000   0.86426487 -1.6284443e-05   0.36908717 0.00031391748            0   0.36877325    1.2899153    1.6590025   0.53342182 
  265000   0.92782609 -7.3198809e-05   0.29463769 0.00079369394            0   0.29384399    1.3847804    1.6794181   -3.3800836 
  270000   0.91562263 -7.3604467e-06    0.3405543 0.00032150041            0   0.34023279    1.3665668    1.7071211     1.198367 
  275000   0.94555077 -5.6309285e-06   0.30266416 6.3144924e-05            0   0.30260101    1.4112345    1.7138987    1.3246889 
  280000   0.93327868 -5.0545028e-05   0.31597685            0            0   0.31597685    1.3929184    1.7088953    -1.784777 
  285000   0.91395456 -5.5511516e-05   0.35403446            0            0   0.35403446    1.3640772    1.7181116   -2.1188443 
  290000   0.92499222 -1.616977e-05    0.3290648            0            0    0.3290648    1.3805509    1.7096157   0.59196117 
  295000   0.95258611 4.0279422e-07   0.28874871            0            0   0.28874871    1.4217348    1.7104835    1.7383246 
  300000   0.91034621 -2.6719805e-05   0.35982574            0            0   0.35982574    1.3586917    1.7185175  -0.12835548 
  305000   0.91902285 -4.3042279e-05   0.34093642            0            0   0.34093642    1.3716416     1.712578   -1.2625043 
  310000    0.9056077 1.4507741e-05   0.34633677            0            0   0.34633677    1.3516195    1.6979563    2.7007313 
  315000    0.9222668 -1.5873693e-05   0.33856403            0            0   0.33856403    1.3764832    1.7150472   0.61785754 
  320000   0.91007524 -3.5418119e-05   0.36338897            0            0   0.36338897    1.3582873    1.7216763  -0.72642415 
  325000   0.88047998 4.7291884e-06   0.40205729            0            0   0.40205729    1.3141164    1.7161737    2.0430552 
  330000   0.93545382 -1.9971972e-05   0.31637761            0            0   0.31637761    1.3961648    1.7125424   0.33207971 
  335000   0.87914422 -1.3679215e-05   0.38151307            0            0   0.38151307    1.3121227    1.6936358   0.74812845 
  340000   0.88265092 1.7116525e-05    0.3638782            0            0    0.3638782    1.3173565    1.6812347    2.8643289 
  345000   0.87964426 -3.3901071e-05   0.37007714            0            0   0.37007714    1.3128691    1.6829462  -0.66029585 
  350000   0.87684751 -2.2824294e-05   0.35396183            0            0   0.35396183    1.3086949    1.6626567  0.085041514 
  355000   0.89170403 -1.5804776e-05   0.33858669            0            0   0.33858669    1.3308683     1.669455   0.57702886 
  360000   0.89067555 1.1645185e-05   0.34725478            0            0   0.34725478    1.3293333     1.676588    2.4815032 
  365000    0.8738448 -3.9711045e-05   0.35847471            0            0   0.35847471    1.3042134    1.6626881   -1.0821393 
  370000   0.89895961 -4.1231157e-05   0.33214756            0            0   0.33214756    1.3416972    1.6738448   -1.1760528 
  375000   0.91663602 2.7349555e-05   0.31386667            0            0   0.31386667    1.3680793    1.6819459    3.5723471 
  380000   0.90267992 -1.4869153e-05   0.32317092            0            0   0.32317092    1.3472498    1.6704207   0.64266486 
  385000   0.90384562 -6.1328383e-05   0.31312626            0            0   0.31312626    1.3489896    1.6621159    -2.576902 
  390000   0.87666515 3.0416344e-05   0.35168212            0            0   0.35168212    1.3084227    1.6601049    3.7624826 
  395000   0.89812279 6.0195395e-06   0.34670992            0            0   0.34670992    1.3404483    1.6871582    2.1032288 
  400000   0.93010296 -6.805449e-05   0.32360534            0            0   0.32360534    1.3881787     1.711784   -2.9921423 
  405000   0.93067518 2.4006883e-05   0.36157931            0            0   0.36157931    1.3890327     1.750612    3.4099678 
  410000   0.94515293 3.8119998e-05   0.35080842            0            0   0.35080842    1.4106408    1.7614492    4.3963034 
  415000   0.87501895 -9.6492675e-05   0.45762458            0            0   0.45762458    1.3059658    1.7635904   -4.9059833 
  420000   0.90214999 4.6744098e-05   0.40888693            0            0   0.40888693    1.3464589    1.7553458    4.9862978 
  425000   0.93415983 -2.8577406e-05   0.36249214            0            0   0.36249214    1.3942336    1.7567257  -0.21854462 
  430000   0.89975476 -2.1466862e-05   0.41054435            0            0   0.41054435     1.342884    1.7534283   0.26963885 
  435000   0.96492915 -3.0683304e-05    0.3118812            0            0    0.3118812    1.4401568     1.752038    -0.368792 
  440000   0.90609772 4.112944e-05    0.3927056            0            0    0.3927056    1.3523508    1.7450564    4.5879234 
  445000   0.88875831 -5.4114146e-05   0.42130147            0            0   0.42130147    1.3264718    1.7477733   -1.9925965 
  450000   0.91493096 4.6867887e-06   0.39287929            0            0   0.39287929    1.3655345    1.7584137    2.0823646 
  455000   0.93119431 2.3638282e-05   0.35356644            0            0   0.35356644    1.3898075    1.7433739     3.377252 
  460000   0.91962421 -4.2958105e-05   0.36730421            0            0   0.36730421    1.3725391    1.7398434   -1.2294208 
  465000   0.95665261 2.5938825e-05   0.32827179            0            0   0.32827179     1.427804    1.7560758    3.5489674 
  470000   0.92151747 -3.4305118e-05   0.38618038            0            0   0.38618038    1.3753648    1.7615452  -0.60962458 
  475000   0.96111922 -2.1850863e-05   0.31640206            0            0   0.31640206    1.4344704    1.7508725   0.24054081 
  480000   0.93000134 -1.2403754e-06   0.36463653            0            0   0.36463653     1.388027    1.7526635    1.6669288 
  485000   0.94255233 1.4761746e-05   0.33615134            0            0   0.33615134    1.4067593    1.7429107    2.7632426 
  490000    0.9231489 -1.3522412e-05   0.37433292            0            0   0.37433292    1.3777997    1.7521327   0.81746356 
  495000   0.89193596 -3.5372007e-05   0.43485863            0            0   0.43485863    1.3312144     1.766073   -0.6788401 
  500000   0.91556214 4.5142332e-05    0.3850596 3.5619382e-05            0   0.38502398    1.3664765    1.7515361    4.8717741 
  505000   0.88606677 -0.00011160831   0.43458666 0.0021843586            0    0.4324023    1.3224547    1.7570413    -5.957325 
  510000   0.97530946 6.4615492e-05   0.30034148 0.0037184546            0   0.29662303    1.4556494    1.7559908    6.2222136 
  515000   0.94700485 -5.9573491e-05   0.34811453 0.00042576192            0   0.34768877    1.4134047    1.7615193   -2.3562004 
  520000   0.95365333 6.6727815e-06   0.34862137            0            0   0.34862137    1.4233276     1.771949    2.2331716 
  525000   0.93541349 -3.120357e-05   0.36718005            0            0   0.36718005    1.3961046    1.7632847  -0.39350606 
  530000   0.95322555 3.2610826e-05    0.3327563            0            0    0.3327563    1.4226891    1.7554454    4.0095057 
  535000   0.92349725 -4.8520026e-05   0.36558906            0            0   0.36558906    1.3783196    1.7439087   -1.6097955 
  540000   0.92548253 -1.1233454e-06   0.34541125            0            0   0.34541125    1.3812827    1.7266939    1.6490483 
  545000   0.95137558 2.4204149e-05   0.31978032            0            0   0.31978032     1.419928    1.7397084    3.4126992 
  550000   0.92367758 -7.1216875e-05   0.36250174            0            0   0.36250174    1.3785888    1.7410905   -3.1814199 
  555000   0.90740441 1.8199486e-05    0.3949447            0            0    0.3949447    1.3543011    1.7492458    3.0071943 
  560000   0.90425994 -8.6191199e-06   0.40096819            0            0   0.40096819     1.349608    1.7505761    1.1548226 
  565000   0.93111756 -1.9422745e-05   0.37016962            0            0   0.37016962     1.389693    1.7598626   0.41736246 
  570000   0.97588642 2.3677997e-05   0.31855017            0            0   0.31855017    1.4565105    1.7750607    3.4116838 
  575000    0.8781528 -4.9595934e-05   0.45625845            0            0   0.45625845    1.3106431    1.7669015   -1.6611695 
  580000   0.93489758 2.8549078e-05   0.37964528            0            0   0.37964528    1.3953346    1.7749799    3.7482922 
  585000   0.93063697 -1.6365451e-05   0.37269249 6.6398832e-05            0   0.37262609    1.3889757    1.7616682   0.63048819 
  590000   0.92602529 1.2117694e-05   0.38085847 0.0018103403            0   0.37904813    1.3820928    1.7629512    2.6005262 
  595000   0.91940735 -4.4509754e-05   0.38576439  0.003812548            0   0.38195184    1.3722155    1.7579799   -1.3185343 
  600000   0.95090029 5.938598e-06   0.35161512 0.0010405921            0   0.35057453    1.4192187    1.7708338    2.1813097 
  605000   0.95958064 -3.4603668e-05   0.33848154            0            0   0.33848154    1.4321741    1.7706556  -0.62114991 
  610000   0.92417724 2.063828e-05   0.38942771            0            0   0.38942771    1.3793345    1.7687622    3.1952802 
  615000   0.91735105 -3.1025809e-05   0.38972627            0            0   0.38972627    1.3691464    1.7588727  -0.38563122 
  620000    0.9359471 8.0704054e-07   0.35099623            0            0   0.35099623     1.396901    1.7478973    1.8036799 
  625000   0.89229866 -2.5547009e-05   0.39996388            0            0   0.39996388    1.3317558    1.7317196  -0.03408965 
  630000   0.92486287 3.9477909e-05   0.36478047 7.7558419e-06            0   0.36477272    1.3803578    1.7451383    4.4738514 
  635000    0.9043564 -4.420684e-05    0.3996532 0.0014196573            0   0.39823354    1.3497519    1.7494051   -1.3061717 
  640000   0.89427151 1.8861359e-05   0.41535573 0.0042271258            0   0.41112861    1.3347002     1.750056    3.0537531 
  645000   0.93910267 -3.1060375e-05   0.36248012 0.0027625998            0   0.35971752    1.4016107    1.7640909  -0.38280224 
  650000   0.91686606 -2.0552982e-05   0.38440565 0.0016914137            0   0.38271424    1.3684226    1.7528282   0.33220616 
  655000    0.9282914 3.4198278e-06   0.39121231 0.00068991109            0    0.3905224    1.3854749    1.7766872    2.0130657 
  660000   0.93808768 -3.2033738e-05   0.37975135 0.0005891568            0   0.37916219    1.4000959    1.7798472  -0.43432473 
  665000   0.92870793 -4.7639104e-05    0.4058551 0.00082000994            0   0.40503509    1.3860966    1.7919517   -1.5008632 
  670000   0.95686836 3.394577e-05   0.36785443 0.0020440033            0   0.36581043     1.428126    1.7959805    4.1423121 
  675000   0.91895051 -4.4953693e-05    0.4043857 0.0021806497            0   0.40220505    1.3715336    1.7759193   -1.3312799 
  680000   0.96350318 2.1968304e-05   0.34475524 0.0001914575            0   0.34456378    1.4380285    1.7827837    3.3012329 
  685000   0.92071374 1.2942033e-05   0.41117536            0            0   0.41117536    1.3741653    1.7853406     2.679894 
  690000    0.9540741 -3.8645924e-05   0.38382713 0.00044326512            0   0.38338386    1.4239556    1.8077827  -0.86342353 
  695000   0.93978211 4.4395687e-05    0.4210856 0.0020284788            0   0.41905712    1.4026248    1.8237104    4.8923403 
  700000   0.92519952 -4.7338559e-05   0.45184147 0.0086047166            0   0.44323676    1.3808603    1.8327018   -1.4393394 
  705000   0.95278317 -1.250552e-06   0.43790544 0.0065631282            0   0.43134232    1.4220289    1.8599343    1.7734962 
  710000   0.97993068 4.3629839e-06   0.41028622 0.0001209882            0   0.41016523    1.4625465    1.8728328    2.1744022 
  715000   0.99036175 -2.4842912e-05   0.38360417 0.00038059149            0   0.38322358    1.4781149    1.8617191     0.144577 
  720000    1.0044629 9.8542718e-06   0.36137192 0.00076587264            0   0.36060605    1.4991608    1.8605327      2.54166 
  725000   0.97297159 -2.9759454e-05   0.38924668 0.00037346945            0   0.38887321    1.4521601    1.8414068   -0.2155667 
  730000   0.98623183 2.463112e-05   0.37747535 7.5056522e-05            0   0.37740029     1.471951    1.8494264    3.5519294 
  735000   0.99082631 -1.1821975e-05   0.36316886 0.00016161735            0   0.36300724    1.4788083    1.8419771    1.0248422 
  740000   0.98460448 -1.0891317e-05    0.3742778 0.0013101049            0   0.37296769    1.4695222       1.8438    1.0909922 
  745000    0.9877701 5.1610502e-06   0.37845661 0.0070408287            0   0.37141578    1.4742469    1.8527035    2.2094353 
  750000   0.97817704 -1.9540882e-05   0.41732949  0.011370597            0   0.40595889    1.4599292    1.8772587   0.52659295 
  755000   0.95143263 6.7155056e-06   0.45193652 0.00063154083            0   0.45130498    1.4200132    1.8719497    2.3361255 
  760000   0.98314005 1.3857828e-05   0.42117062            0            0   0.42117062    1.4673365    1.8885071    2.8463602 
  765000    1.0038813 -2.6243032e-05   0.38111643            0            0   0.38111643    1.4982928    1.8794092  0.065490864 
  770000    1.0117195 2.6390486e-05   0.37949811 6.679222e-06            0   0.37949143    1.5099913    1.8894894    3.7135998 
  775000    1.0103694 3.3833539e-07   0.38365999 1.0978819e-05            0   0.38364901    1.5079763    1.8916363    1.9150221 
  780000   0.99039509 -3.1650461e-06   0.41351784 0.00014727853            0   0.41337056    1.4781647    1.8916825    1.6729145 
  785000   0.99020451 -2.3702088e-05   0.41510123 1.985611e-06            0   0.41509924    1.4778802    1.8929815   0.25469316 
  790000    1.0258044 -4.1525556e-06   0.36557356            0            0   0.36557356    1.5310131    1.8965867     1.609562 
  795000   0.99965826 -6.3437967e-05   0.40451072 3.6388564e-05            0   0.40447433      1.49199    1.8965007   -2.4883316 
  800000    1.0137801 3.6605863e-05    0.3749791  0.001357062            0   0.37362204    1.5130668    1.8880459    4.4182432 
  805000   0.96551108 -5.9545211e-05    0.4471496 0.0012199932            0   0.44592961    1.4410253    1.8881749   -2.2275901 
  810000   0.97298012 1.1939271e-05    0.4297225 0.00044228803            0   0.42928021    1.4521728    1.8818953    2.7071377 
  815000    1.0007248 1.6176496e-05   0.39410646 0.00012335661            0   0.39398311    1.4935818    1.8876882    3.0058077 
  820000    1.0183047 4.9117551e-06   0.39626503 1.2878637e-05            0   0.39625216    1.5198197    1.9160848    2.2555853 
  825000   0.98509225 -2.8512386e-05   0.43863223 0.00010835279            0   0.43852388    1.4702502    1.9088824 -0.061893731 
  830000   0.97651609 -3.4090907e-05   0.45721212            0            0   0.45721212    1.4574503    1.9146624  -0.44170108 
  835000    1.0051789 -2.5135349e-06    0.4297561            0            0    0.4297561    1.5002296    1.9299857    1.7562501 
  840000   0.99745978 -3.7660041e-06   0.42871037            0            0   0.42871037    1.4887087    1.9174191    1.6571129 
  845000    1.0317911 4.2338121e-05   0.36979233 0.0028090644            0   0.36698327    1.5399482    1.9097406    4.8361515 
  850000   0.98381809 6.3426909e-06   0.43883996 0.0077800226            0   0.43105994    1.4683485    1.9071885    2.3455953 
  855000   0.99241827 -4.1947712e-06   0.42125943 0.0015398947            0   0.41971953    1.4811843    1.9024437    1.6125011 
  860000   0.99309064 -3.0392681e-05   0.40659825            0            0   0.40659825    1.4821878     1.888786  -0.21195609 
  865000    1.0157004 4.3960096e-05   0.36943137            0            0   0.36943137    1.5159329    1.8853642     4.923886 
  870000   0.94336296 -4.9823293e-05   0.49403867            0            0   0.49403867    1.4079692    1.9020079   -1.5417781 
  875000    1.0220562 4.0536351e-07   0.38747165 0.0001441714            0   0.38732748    1.5254189    1.9128905    1.9409092 
  880000    1.0373547 -8.8449123e-06   0.39258683 0.0012225107            0   0.39136432    1.5482519    1.9408387    1.3294784 
  885000   0.99014976 -1.2473243e-05   0.45408287 0.0026861009            0   0.45139677    1.4777985    1.9318814    1.0697308 
  890000    1.0301269 5.0759673e-05    0.4010805 0.0048623887            0   0.39621811    1.5374645     1.938545    5.4470536 
  895000     1.038716 -2.5153188e-05   0.38529089 0.0033418836            0     0.381949    1.5502837    1.9355745   0.19698616 
  900000     1.002264 -6.1522753e-05   0.43725823 0.00042351397            0   0.43683471    1.4958791    1.9331373   -2.3193154 
  905000     1.001699 4.2062758e-05   0.44982463            0            0   0.44982463    1.4950357    1.9448604    4.8522382 
  910000   0.96711726 -6.1050324e-05   0.48425611            0            0   0.48425611    1.4434225    1.9276786   -2.2921198 
  915000    1.0068004 1.7653737e-05   0.40991644            0            0   0.40991644    1.5026497    1.9125661    3.1327924 
  920000    1.0352637 2.0838745e-05   0.37746873            0            0   0.37746873    1.5451311    1.9225999     3.362974 
  925000   0.99408187 -1.1554038e-05   0.43262462            0            0   0.43262462    1.4836672    1.9162918    1.1176767 
  930000   0.98314165 1.312693e-06    0.4498482            0            0    0.4498482    1.4673389    1.9171871    2.0079204 
  935000    1.0043521 3.6024301e-06   0.42439483            0            0   0.42439483    1.4989954    1.9233903    2.1723902 
  940000   0.99130758 -2.2697917e-05   0.43554552            0            0   0.43554552    1.4795266    1.9150721   0.34619206 
  945000    1.0002541 4.612692e-06   0.42979982            0            0   0.42979982    1.4928793    1.9226791    2.2415084 
  950000    1.0154167 -4.6496301e-05   0.39986713            0            0   0.39986713    1.5155094    1.9153765   -1.2984478 
  955000    1.0183738 4.3244862e-05   0.40293867 0.00069131141            0   0.40224736     1.519923    1.9228616    4.9119465 
  960000    1.0266284 8.9842995e-06   0.39684609 0.0042370261            0   0.39260906    1.5322429     1.929089    2.5500838 
  965000   0.99271479 -1.89895e-05    0.4679406 0.0026383061            0   0.46530229    1.4816268    1.9495674   0.63701318 
  970000    1.0160714 -5.273516e-05   0.45812458 8.7717814e-05            0   0.45803686    1.5164866    1.9746112   -1.6704431 
  975000    1.0115976 2.7519197e-05   0.44314789            0            0   0.44314789    1.5098094    1.9529573    3.8550842 
  980000    1.0111159 -7.5346673e-05    0.4606684 0.00074080377            0    0.4599276    1.5090905    1.9697589   -3.2382031 
  985000    1.0325362 4.810189e-05     0.412533 0.0024407041            0    0.4100923    1.5410603    1.9535933     5.278396 
  990000    1.0209275 -9.0627404e-05   0.43032067 0.00077322285            0   0.42954744    1.5237343    1.9540549   -4.3101113 
  995000    1.0470795 1.3318937e-05   0.39443953            0            0   0.39443953    1.5627661    1.9572056    2.8778105 
 1000000    1.0557956 -9.7976363e-06   0.39302835 0.00015450587            0   0.39287385     1.575775    1.9688033    1.2915907 
 1005000    1.0397185 1.9644368e-05   0.43267089 0.0008779199            0   0.43179297    1.5517798    1.9844507    3.3422694 
 1010000    1.0436856 -9.6800008e-06   0.42023391 0.0029176983            0   0.41731621    1.5577007    1.9779347     1.308853 
 1015000    1.0347281 1.7077328e-06   0.42527835  0.003864111            0   0.42141424    1.5443317      1.96961    2.0876485 
 1020000    1.0882071 1.7222593e-05   0.34611371 0.0010524415            0   0.34506127    1.6241491    1.9702628    3.1606885 
 1025000    1.0629104 -6.3525173e-05    0.3804728 0.00010658409            0   0.38036621    1.5863938    1.9668666   -2.4239933 
 1030000    1.0655806 4.1425095e-05   0.38560819 0.00038395961            0   0.38522423     1.590379    1.9759872    4.8392897 
 1035000   0.99915807 -4.1382406e-05   0.48524222 0.0017127762            0   0.48352945    1.4912434    1.9764856  -0.88386626 
 1040000    1.0166594 7.9223068e-06   0.45921657  0.004240853            0   0.45497572    1.5173642    1.9765807    2.5241706 
 1045000    1.0244941 2.1148496e-05   0.45430762 0.0015560011            0   0.45275161    1.5290575    1.9833651    3.4451491 
 1050000    1.0237283 -5.5731861e-05   0.45226608 1.5158752e-05            0   0.45225092    1.5279145    1.9801806   -1.8720057 
 1055000    1.0081478 9.2678915e-05    0.4835683            0            0    0.4835683    1.5046607     1.988229    8.3941955 
 1060000    1.0219105 -0.00010170339   0.46586229            0            0   0.46586229    1.5252014    1.9910637   -5.0386746 
 1065000    1.0505046 1.8825974e-05   0.43442578            0            0   0.43442578    1.5678782     2.002304    3.3035553 
 1070000    1.0550254 -4.0848607e-05   0.44709311            0            0   0.44709311    1.5746253    2.0217184  -0.80173726 
 1075000    1.0711941 3.2989288e-05   0.42192725            0            0   0.42192725    1.5987571    2.0206844     4.300904 
 1080000      1.06235 -3.1115437e-05   0.44008979            0            0   0.44008979    1.5855573    2.0256471  -0.12505191 
 1085000    1.0428828 -3.2052389e-05   0.48100839            0            0   0.48100839    1.5565026     2.037511  -0.17795013 
 1090000    1.0772191 3.8370619e-05   0.43051217            0            0   0.43051217    1.6077495    2.0382617    4.6904389 
 1095000     1.084963 -1.6682397e-05   0.41964815            0            0   0.41964815    1.6193073    2.0389555   0.88586823 
 1100000    1.0510585 -2.6643296e-05   0.47536827 0.00077747451            0   0.47459079    1.5687049    2.0440732   0.20248852 
 1105000     1.071292 -7.1411957e-06    0.4392426 0.0062912459            0   0.43295135    1.5989034    2.0381459    1.5445465 
 1110000    1.0623994 -6.3889823e-05   0.45236526 0.0017840851            0   0.45058117    1.5856311    2.0379964   -2.3780682 
 1115000    1.0701759 5.3774137e-06   0.43557343 0.00032643011            0     0.435247    1.5972376     2.032811    2.4044978 
 1120000   0.99919943 -2.7177903e-06   0.51244661 0.00079155307            0   0.51165505    1.4913051    2.0037518    1.8158981 
 1125000    1.0053096 8.0505507e-06   0.48432421 0.00090193944            0   0.48342227    1.5004245    1.9847487    2.5412028 
 1130000    1.0066079 -1.4755657e-05    0.4740143 0.0010548034            0    0.4729595    1.5023622    1.9763765   0.95646553 
 1135000    1.0184417 5.9426873e-05   0.46639445 0.0016595032            0   0.46473495    1.5200242    1.9864186    6.0940041 
 1140000     1.006271 -6.9940443e-05   0.46269465 0.0012068219            0   0.46148783    1.5018594     1.964554   -2.8697294 
 1145000    1.0146345 1.2256494e-05   0.47233841 0.00091410575            0    0.4714243     1.514342    1.9866804    2.8338492 
 1150000    1.0654764 -7.4405381e-05   0.39231438 0.0013164652            0   0.39099792    1.5902236    1.9825379    -3.160362 
 1155000     1.073547 3.7854041e-05   0.36654403 0.0047192542            0   0.36182478    1.6022689    1.9688129    4.5852842 
 1160000   0.96449219 -2.829095e-05   0.51127688 0.0041411703            0   0.50713571    1.4395046    1.9507815 -0.0046889618 
 1165000    1.0372477 2.0780418e-05   0.40736825 0.0013132757            0   0.40605497    1.5480922    1.9554605     3.391803 
 1170000    1.0267463 -1.2495686e-05   0.42621019            0            0   0.42621019    1.5324189    1.9586291    1.0949273 
 1175000    0.9983962 1.8840377e-05    0.4702265 0.0026190317            0   0.46760747    1.4901063    1.9603328    3.2625797 
 1180000    1.0292181 4.2668654e-05   0.42351205 0.0073473326            0   0.41616472     1.536108      1.95962    4.9088774 
 1185000    1.0026545 -5.3943417e-05   0.46238613 0.00069853787            0   0.46168759    1.4964618    1.9588479    -1.769721 
 1190000    1.0141006 6.3979979e-05   0.45705654            0            0   0.45705654    1.5135452    1.9706017    6.3928979 
 1195000    1.0457204 -7.9266385e-05   0.40726687 6.5205178e-05            0   0.40720167    1.5607377    1.9680045    -3.510888 
 1200000     1.029155 -2.4937202e-05   0.42873925 0.0004665915            0   0.42827266    1.5360138     1.964753    0.2410936 
 1205000    1.0176568 5.7707129e-05     0.445658 0.00090221822            0   0.44475578    1.5188527    1.9645107    5.9532275 
 1210000    1.0575295 -4.5254064e-05   0.40423556 0.0026952434            0   0.40154032    1.5783627    1.9825983   -1.1453627 
 1215000    1.0712239 -4.1349201e-05   0.40266308 0.0017602422            0   0.40090284    1.5988017    2.0014647  -0.85659201 
 1220000    1.0371788 4.3100431e-06   0.43863283 0.0011983569            0   0.43743447    1.5479894    1.9866223    2.2845324 
 1225000    1.0264325 -4.4221035e-05   0.45472547 9.0188871e-05            0   0.45463529    1.5319505    1.9866759    -1.069882 
 1230000    1.0250273 5.2140278e-05   0.46803793 0.0021838165            0   0.46585412    1.5298533    1.9978912    5.6018272 
 1235000   0.99643293 -1.917445e-05   0.51007362 0.0052039771            0   0.50486964    1.4871761    1.9972498   0.67191179 
 1240000    1.0378816 -2.8069425e-05   0.46218633 0.0020753615            0   0.46011097    1.5490384    2.0112247  0.071066016 
 1245000    1.0384789 -1.0705816e-05   0.44002944 0.0030209523            0   0.43700849    1.5499298    1.9899592    1.2499732 
 1250000    1.0334172 -1.9564509e-05   0.46772641 0.0026527014            0   0.46507371    1.5423752    2.0101016   0.65780273 
 1255000    1.0611639 -2.9951192e-05    0.4364261 0.0014354536            0   0.43499065    1.5837871    2.0202132 -0.050013193 
 1260000    1.0854804 3.6896361e-05   0.40400286 0.0028049545            0   0.40119791    1.6200795    2.0240824    4.5743589 
 1265000    1.0759367 1.6173291e-05   0.43981792 0.0096070976            0   0.43021082    1.6058355    2.0456534    3.1635513 
 1270000    1.0248313 -4.3614365e-05   0.51001858 0.0034021504            0   0.50661643    1.5295607    2.0395793  -0.97504565 
 1275000    1.0551147 4.2758183e-06   0.45477373 0.00036508682            0   0.45440864    1.5747586    2.0295323    2.3250769 
 1280000    1.0652593 1.0677812e-06   0.43080279 0.00092406168            0   0.42987872    1.5898996    2.0207024    2.0945074 
 1285000    1.0584945 -4.5264786e-05   0.44335958  0.005435148            0   0.43792443    1.5798031    2.0231627   -1.1055393 
 1290000    1.0532636 6.5657718e-05   0.45306946 0.0029630672            0   0.45010639     1.571996    2.0250654    6.5633269 
 1295000    1.0684758 6.3897359e-06   0.43328577 0.0089365665            0   0.42434921    1.5947001    2.0279858    2.4696444 
 1300000    1.0257871 -4.586371e-05   0.50799445  0.014471467            0   0.49352298    1.5309873    2.0389817    -1.131118 
 1305000    1.0744066 6.5373942e-05   0.44464085 0.0053037961            0   0.43933705    1.6035519    2.0481927    6.5668396 
 1310000    1.0315323 6.5351384e-05   0.51384872 0.00088867043            0   0.51296005    1.5395619    2.0534106    6.5704983 
 1315000    1.0739847 -4.5072804e-05   0.43075663 0.00037084223            0   0.43038579    1.6029222    2.0336788   -1.0817534 
 1320000    1.0490821 -2.5344896e-05   0.48830978 0.0016418718            0    0.4866679    1.5657551    2.0540648   0.30222564 
 1325000    1.0461597 -3.5830601e-05   0.47999735 0.0042017711            0   0.47579558    1.5613934    2.0413907  -0.43522044 
 1330000    1.0642895 2.019694e-05   0.44932608  0.008456209            0   0.44086987    1.5884521    2.0377782    3.4337906 
 1335000    1.0786084 -2.2425405e-05   0.41739025  0.010774389            0   0.40661586     1.609823    2.0272132   0.47716926 
 1340000    1.0363886 -3.4493736e-05   0.49629428 0.0063805966            0   0.48991368      1.54681    2.0431043  -0.34110272 
 1345000    1.0765418 2.2794455e-05   0.45062535 0.0025215858            0   0.44810376    1.6067387    2.0573641    3.6329168 
 1350000    1.1256595 -4.2358694e-05   0.38605548 0.0015662945            0   0.38448919    1.6800468    2.0661023  -0.86173067 
 1355000    1.0899861 2.8551312e-05   0.42320446 0.00024589139            0   0.42295857    1.6268043    2.0500088    4.0234754 
 1360000    1.0890853 1.3793529e-05   0.41867429 7.8991803e-06            0   0.41866639    1.6254599    2.0441341    2.9975428 
 1365000     1.027409 4.3595564e-05    0.5174202            0            0    0.5174202    1.5334079    2.0508281    5.0641535 
 1370000    1.0750288 -6.349215e-05   0.45834664 0.0018814686            0   0.45646517    1.6044805    2.0628271   -2.3257502 
 1375000    1.1075762 -6.7910434e-06   0.40139081 0.0068106265            0   0.39458018    1.6530575    2.0544483    1.5850514 
 1380000    1.0815766 -3.8747521e-05   0.44594109 0.0040861539            0   0.44185494     1.614253    2.0601941  -0.61803454 
 1385000    1.0313638 5.379582e-06   0.51200482 8.2325746e-05            0   0.51192249    1.5393104    2.0513153     2.423152 
 1390000    1.0656792 3.4252902e-05   0.45113534 8.0615212e-05            0   0.45105473    1.5905262    2.0416615    4.4092221 
 1395000    1.0564294 -2.396701e-05    0.4604097 0.00054619521            0   0.45986351    1.5767209    2.0371306   0.38053087 
 1400000    1.0839501 3.1222978e-07   0.38970136 0.0048634576            0    0.3848379    1.6177955    2.0074969    2.0290782 
 1405000    1.0226284 -2.1210263e-05   0.45798497 0.0073975277            0   0.45058744    1.5262729    1.9842579   0.51820453 
 1410000    1.0303781 7.2019853e-06   0.44675387 0.0028642521            0   0.44388962    1.5378393    1.9845932    2.4823944 
 1415000    1.0578337 5.6246273e-05   0.40868025 0.0024622931            0   0.40621796    1.5788167     1.987497    5.8752394 
 1420000    1.0588895 -4.5148449e-05   0.39139713 0.00039377848            0   0.39100335    1.5803926    1.9717897   -1.1488711 
 1425000    1.0103174 6.2551745e-05   0.45126316 0.00029877073            0   0.45096438    1.5078987    1.9591619    6.2827385 
 1430000    1.0021252 6.0096695e-05   0.46675446 0.0097851778            0   0.45696928    1.4956718    1.9624263    6.1163098 
 1435000   0.97807161 -4.0322839e-05   0.50303627  0.016569791            0   0.48646648    1.4597719    1.9628081  -0.82430648 
 1440000    1.0170032 5.3138999e-06   0.43720426 0.00090238251            0   0.43630187    1.5178772    1.9550815    2.3223782 
 1445000   0.96012639 -6.6876922e-05   0.52616034 0.00012854275            0   0.52603179    1.4329886     1.959149   -2.6633839 
 1450000    1.0129772 2.2210362e-05   0.44161398 0.0033527045            0   0.43826128    1.5118685    1.9534825    3.4886627 
 1455000    1.0241331 -3.7930572e-05   0.41765767 0.0040248554            0   0.41363281    1.5285187    1.9461764  -0.67558478 
 1460000   0.96385852 -2.305523e-06   0.48664682 0.0016422134            0   0.48500461    1.4385588    1.9252057    1.7658479 
 1465000   0.95711522 -2.2205729e-05   0.48941619   0.01649211            0   0.47292408    1.4284945    1.9179106   0.38305064 
 1470000   0.98093766 -1.0371204e-05   0.47055696 0.0064924263            0   0.46406453    1.4640495    1.9346064    1.2177488 
 1475000    1.0151192 -5.5910982e-06    0.4187989 0.0009382354            0   0.41786067    1.5150655    1.9338644    1.5474077 
 1480000   0.97541241 5.340007e-05   0.46615704            0            0   0.46615704     1.455803    1.9219601    5.6129729 
 1485000   0.94525222 -2.8081316e-05    0.5072509 0.0048112735            0   0.50243963    1.4107889    1.9180398 -0.022940752 
 1490000   0.96546136 4.9815521e-05   0.46982726  0.012538214            0   0.45728905    1.4409511    1.9107783    5.3540271 
 1495000   0.93794813 -2.0911884e-05   0.51355809 0.0025336434            0   0.51102445    1.3998876    1.9134457   0.46801625 
 1500000    0.9651518 -1.7272972e-05   0.48822649 0.00072820054            0   0.48749829    1.4404891    1.9287155   0.73480771 
 1505000   0.96347012 3.3921207e-05   0.47619571 0.0034457173            0   0.47274999    1.4379792    1.9141749    4.2588087 
 1510000   0.97493415 7.3505153e-05   0.45700802 0.0070178335            0   0.44999018    1.4550892    1.9120972    6.9927734 
 1515000   0.95951686 -5.2352961e-05   0.48390535 0.0047274491            0    0.4791779    1.4320789    1.9159843   -1.7026524 
 1520000   0.98177496 2.9087614e-05   0.46089945 0.0055707061            0   0.45532874    1.4652991    1.9261986    3.9367344 
 1525000     0.976762 -1.6323566e-05   0.47469644 0.0012683975            0   0.47342805    1.4578173    1.9325137   0.80422882 
 1530000    1.0023203 7.5748798e-06   0.45088277 0.0035337984            0   0.44734897    1.4959631    1.9468458    2.4704215 
 1535000    1.0088953 -4.0956481e-05   0.45052487 0.0074562139            0   0.44306865    1.5057762     1.956301  -0.87461096 
 1540000   0.98624841 3.5502968e-05   0.48159344  0.013880273            0   0.46771317    1.4719758    1.9535692    4.4075343 
 1545000   0.96493337 2.9070836e-05   0.50744102 0.0060193498            0   0.50142167    1.4401631    1.9476041    3.9569802 
 1550000   0.96183181 3.8885671e-05   0.51615071 0.0086543922            0   0.50749632     1.435534    1.9516847    4.6394623 
 1555000   0.95817157 -1.2605501e-05   0.52192591 0.0099007705            0   0.51202514    1.4300711     1.951997    1.0807048 
 1560000    1.0055326 1.4657184e-05   0.45778569 0.0030681609            0   0.45471753    1.5007574    1.9585431    2.9716477 
 1565000   0.96526547 -1.6967697e-05   0.51668873 0.00073432997            0    0.5159544    1.4406587    1.9573474   0.78454024 
 1570000    1.0141478 -2.3443197e-05   0.43745625 0.0048554608            0   0.43260079    1.5136156    1.9510718   0.33067806 
 1575000   0.97642179 -3.2101386e-05   0.49030525 0.0086361588            0   0.48166909    1.4573095    1.9476148  -0.27123306 
 1580000   0.98244993 5.8438394e-05   0.45915682 0.0013387388            0   0.45781809    1.4663065    1.9254633    5.9647251 
 1585000   0.99264873 -3.5667627e-05   0.44425577 2.9130679e-05            0   0.44422664    1.4815282     1.925784   -0.5395624 
 1590000   0.99106502 2.0214111e-05   0.47234179            0            0   0.47234179    1.4791645    1.9515063    3.3487057 
 1595000    1.0007642 7.1603912e-06   0.45030233            0            0   0.45030233    1.4936406     1.943943    2.4388692 
 1600000    1.0021163 -4.2880948e-05   0.45346138 0.00071786771            0   0.45274351    1.4956586      1.94912   -1.0148111 
 1605000   0.98247376 -9.0127272e-06   0.47895759 0.0030500035            0   0.47590759    1.4663421    1.9452997      1.32234 
 1610000   0.97383201 -5.7401329e-05    0.4949386 0.0024902862            0   0.49244832    1.4534443    1.9483829    -2.019197 
 1615000   0.99541867 8.7157827e-05    0.4541934 0.0012108162            0   0.45298258    1.4856624    1.9398558    7.9642048 
 1620000    0.9694531 -5.1478576e-05    0.4782972  0.001283699            0    0.4770135    1.4469088     1.925206   -1.6329932 
 1625000   0.96655153 2.667048e-05   0.48681668 0.0048833354            0   0.48193334    1.4425782    1.9293948    3.7728584 
 1630000   0.98779082 -9.05971e-05   0.44999888 0.0053246468            0   0.44467423    1.4742778    1.9242767   -4.3377949 
 1635000    1.0129145 8.7163354e-05   0.42437102 0.0032178627            0   0.42115316    1.5117749    1.9361459    7.9608769 
 1640000   0.96762477 -1.5455552e-05    0.4781488 0.0064453374            0   0.47170347      1.44418    1.9223288   0.85404102 
 1645000   0.97829477 4.1997451e-06   0.48042274  0.013216969            0   0.46720577    1.4601049    1.9405277    2.2308141 
 1650000   0.97235325 -6.732526e-05   0.50088409 0.0081253156            0   0.49275878    1.4512372    1.9521213   -2.7014007 
 1655000   0.98424469 -1.8146571e-05   0.48872225 0.0030310197            0   0.48569123    1.4689852    1.9577075   0.70341645 
 1660000   0.94425813 -5.8361633e-05   0.55453207 0.0037652658            0   0.55076681    1.4093053    1.9638373   -2.0701188 
 1665000    1.0178497 -2.700415e-05      0.44709 0.0025035388            0   0.44458646    1.5191407    1.9662307  0.099703783 
 1670000   0.99312551 -6.874885e-06   0.46872275 0.00084328215            0   0.46787946    1.4822398    1.9509626    1.4757705 
 1675000   0.96401461 -4.1331756e-05   0.51728998 0.00050637065            0   0.51678361    1.4387918    1.9560818  -0.90076922 
 1680000   0.96533825 1.4571496e-05   0.49995088  0.002546839            0   0.49740404    1.4407673    1.9407182       2.9479 
 1685000   0.98075096 -9.1578448e-06   0.48035821  0.019460577            0   0.46089763    1.4637708     1.944129    1.3111388 
 1690000   0.96215046 -1.0700409e-05   0.51412674  0.010988906            0   0.50313784    1.4360096    1.9501363     1.210524 
 1695000   0.96957874 3.8230571e-05   0.51306004 0.0037843416            0    0.5092757    1.4470963    1.9601563    4.6026533 
 1700000    1.0097318 -3.1431913e-05   0.46230693 0.0033717422            0   0.45893518    1.5070248    1.9693317  -0.20324214 
 1705000   0.97121393 -1.1916696e-06   0.53926984   0.01406365            0   0.52520619    1.4495368    1.9888066    1.9064384 
 1710000    1.0149449 -6.4408878e-05   0.47208648 0.0087128948            0   0.46337359    1.5148053    1.9868918   -2.4650499 
 1715000    1.0690835 3.3880707e-06    0.4031406 0.0029412303            0   0.40019937    1.5956071    1.9987477    2.2329312 
 1720000   0.96661332 -3.9269553e-05    0.5360316 0.0073235913            0   0.52870801    1.4426704     1.978702  -0.73560949 
 1725000    1.0478615 -3.1830274e-06   0.42801952 0.0019651014            0   0.42605441    1.5639333    1.9919528    1.7719419 
 1730000    1.0020373 1.6734119e-05   0.48973794 0.0016420184            0   0.48809592    1.4955406    1.9852785    3.1419408 
 1735000    1.0387072 9.823141e-07   0.44748269 0.0017665437            0   0.44571615    1.5502706    1.9977533    2.0656508 
 1740000   0.99223825 2.599462e-05   0.48452523 0.0018132529            0   0.48271197    1.4809156    1.9654408    3.7621889 
 1745000   0.99964444 5.531626e-07   0.48888505 0.0028097105            0   0.48607534    1.4919693    1.9808544     2.019089 
 1750000    1.0128477 -1.9853828e-05   0.45483251 0.0031510922            0   0.45168142    1.5116751    1.9665076   0.59421104 
 1755000    1.0001503 -2.6322509e-05   0.49404113 0.0035119304            0    0.4905292    1.4927243    1.9867655   0.16735363 
 1760000    1.0352894 3.0187263e-05   0.44754029 0.0062883093            0   0.44125198    1.5451695    1.9927098    4.0792534 
 1765000     1.021382 4.5747722e-06   0.46969883 0.0085508497            0   0.46114798    1.5244127    1.9941115    2.3103198 
 1770000   0.99901949 -7.3396742e-06   0.53023298 0.0065598945            0   0.52367308    1.4910366    2.0212696    1.5139513 
 1775000    1.0129662 -4.2942686e-05   0.49574115 0.0099405016            0   0.48580065     1.511852    2.0075932   -0.9606053 
 1780000     1.037862 -3.7017458e-05   0.45981219  0.005288124            0   0.45452406     1.549009    2.0088212  -0.54982552 
 1785000    1.0315272 4.4367744e-05   0.47231889 0.0045185995            0    0.4678003    1.5395543    2.0118732    5.0785717 
 1790000    1.0345635 -7.6735224e-05   0.46242664 0.0089764248            0   0.45345021     1.544086    2.0065127    -3.297426 
 1795000    1.0209767 1.005874e-05   0.50172565 0.0083432449            0   0.49338241    1.5238078    2.0255335    2.7207936 
 1800000   0.98697022 -1.0588476e-05   0.54036627 0.0024063639            0   0.53795991    1.4730531    2.0134193    1.2815438 
 1805000    1.0083074 2.6465371e-05   0.49594295 0.0018267723            0   0.49411618    1.5048988    2.0008418    3.8301282 
 1810000    1.0271883 -1.3632961e-05   0.47537874 0.0070672199            0   0.46831152    1.5330786    2.0084573    1.0661471 
 1815000    1.0447948 4.0387003e-05   0.46511899 0.0087977305            0   0.45632126    1.5593562    2.0244752    4.8160248 
 1820000    1.0039947 -4.0465871e-05    0.5321322 0.0099068966            0    0.5222253    1.4984621    2.0305943  -0.76640676 
 1825000    1.0577844 -1.5948838e-05    0.4489732 0.0085423231            0   0.44043088    1.5787432    2.0277164   0.92533271 
 1830000      1.06551 -7.6307317e-06   0.44930806  0.011489592            0   0.43781846    1.5902737    2.0395818    1.5121456 
 1835000    1.0228197 -6.1787852e-05   0.52160247 0.0049374838            0   0.51666499    1.5265584    2.0481609   -2.2226154 
 1840000    1.0571046 7.2789132e-05   0.48646042 0.0035457814            0   0.48291464    1.5777286    2.0641891    7.0953739 
 1845000    1.0714321 -3.238061e-05   0.47257274  0.016845692            0   0.45572704    1.5991124    2.0716851  -0.16646267 
 1850000    1.0327081 -2.7923602e-05   0.51113284 0.0059979168            0   0.50513492    1.5413168    2.0524496   0.12237025 
 1855000    1.0452311 -3.5024725e-06   0.49657258  0.003383333            0   0.49318925    1.5600074      2.05658    1.8144891 
 1860000    1.0612606 -1.14642e-05   0.46596009 0.0025642246            0   0.46339586    1.5839315    2.0498916    1.2574861 
 1865000    1.0838198 -9.7229395e-07   0.45891295 0.0040386479            0    0.4548743     1.617601    2.0765139     2.009309 
 1870000    1.0369332 4.4515781e-05   0.53471965 0.0047651648            0   0.52995449    1.5476228    2.0823424    5.1592732 
 1875000    1.0358231 -6.3613882e-05    0.5305065  0.010127424            0   0.52037908     1.545966    2.0764725    -2.320519 
 1880000     1.063301 4.5723883e-06   0.49319975 0.0094458054            0   0.48375395    1.5869767    2.0801764    2.3962199 
 1885000    1.1024911 -2.3497019e-06    0.4383099 0.0030352532            0   0.43527465     1.645468    2.0837779    1.9213665 
 1890000    1.0575284 -9.4662425e-06   0.51365619 0.0056593023            0   0.50799689    1.5783612    2.0920174    1.4377107 
 1895000      1.01038 9.0983108e-05   0.58784778  0.011472979            0    0.5763748    1.5079922      2.09584    8.3845924 
 1900000    1.0954688 1.9159421e-05   0.44765073  0.010655669            0   0.43699506    1.6349872    2.0826379    3.4069371 
 1905000    1.0958412 -6.8873683e-06   0.46064638  0.014614941            0   0.44603144    1.6355429    2.0961893    1.6201344 
 1910000    1.0171946 9.7723799e-06   0.56775578   0.01179291            0   0.55596287    1.5181629    2.0859187    2.7613856 
 1915000    1.0004546 6.0844542e-05   0.59163141   0.01521201            0    0.5764194    1.4931785    2.0848099    6.2903847 
 1920000    1.0345535 -3.3707222e-05   0.52758467  0.011228456            0   0.51635621     1.544071    2.0716557   -0.2581875 
 1925000    1.0441652 -2.0752869e-05   0.50830337   0.01141205            0   0.49689132    1.5584166      2.06672   0.63228164 
 1930000    1.0755165 -3.3793689e-05   0.46968678   0.01235062            0   0.45733616    1.6052083    2.0748951  -0.26092471 
 1935000    1.0553658 3.3746443e-06    0.5009004  0.010453296            0   0.49044711    1.5751335    2.0760339    2.3092893 
 1940000    1.0655556 -4.6657282e-05   0.47198899  0.014461389            0    0.4575276    1.5903418    2.0623308   -1.1626205 
 1945000    1.0473871 4.3183596e-05   0.49599108  0.018384857            0   0.47760623    1.5632252    2.0592163    5.0440665 
 1950000    1.0540003 6.5899055e-05   0.46823756 0.0092131599            0    0.4590244    1.5730954     2.041333    6.5962757 
 1955000      1.03749 -6.6730705e-05   0.50562608 0.0059078316            0   0.49971825    1.5484539      2.05408   -2.5583464 
 1960000     1.053634 -4.3167071e-05   0.49175019 0.0035110176            0   0.48823917    1.5725487    2.0642989  -0.91940901 
 1965000   0.99989224 4.6580989e-06   0.58054806  0.013271245            0   0.56727682    1.4923392    2.0728872     2.394855 
 1970000    1.0164955 1.8187554e-05   0.55301738  0.016558398            0   0.53645898    1.5171195    2.0701369    3.3272607 
 1975000    1.0828737 -2.178871e-05   0.45445936 0.0066218771            0   0.44783749    1.6161891    2.0706484   0.56461282 
 1980000    1.0192628 -1.3373358e-05   0.53962816 0.0071064994            0   0.53252166    1.5212498    2.0608779    1.1365114 
 1985000    1.0070782 2.7234567e-07   0.56834815 0.0082970371            0   0.56005111    1.5030642    2.0714124    2.0902369 
 1990000    1.0166246 -1.4359462e-05   0.55804467   0.00418183            0   0.55386284    1.5173122    2.0753569    1.0828309 
 1995000     1.037626 -1.700293e-05   0.51999282  0.015783911            0   0.50420891    1.5486568    2.0686496   0.89340709 
 2000000    1.0334204 -4.6620196e-05   0.52289263 0.0085790097            0   0.51431362      1.54238    2.0652727   -1.1571153 
 2005000    1.0240691 3.1783311e-05      0.53289  0.011142147            0   0.52174785    1.5284231    2.0613131    4.2581755 
 2010000    1.0550712 -3.04815e-05   0.50593398 0.0046113235            0   0.50132265    1.5746938    2.0806278 -0.026253498 
 2015000    1.0306322 3.0451313e-05   0.53549239   0.00209904            0   0.53339335    1.5382186     2.073711    4.1785058 
 2020000    1.0343923 1.5620061e-05   0.53572941 0.0037981442            0   0.53193127    1.5438306      2.07956    3.1592186 
 2025000    1.0830398 -1.5960709e-05   0.46252424 0.0030465702            0   0.45947767    1.6164369    2.0789612   0.97575694 
 2030000    1.0791046 -3.1894241e-05   0.46352037 0.0032085799            0   0.46031179    1.6105637     2.074084  -0.13044593 
 2035000    1.0014997 -5.291623e-05   0.54268526  0.012144917            0   0.53054034    1.4947383    2.0374235   -1.6201463 
 2040000    1.0419373 -8.282192e-08   0.49541007  0.012078934            0   0.48333114    1.5550913    2.0505014    2.0447768 
 2045000    1.0007725 1.3482192e-05   0.55914938 0.0056068404            0   0.55354254     1.493653    2.0528024    2.9846915 
 2050000   0.98599208 2.4951419e-05   0.57740569   0.01113167            0   0.56627402    1.4715932    2.0489989     3.773641 
 2055000    1.0043166 -3.9978829e-05   0.54176026 0.0065746335            0   0.53518562    1.4989426    2.0407028  -0.72263385 
 2060000    1.0310061 -2.1131285e-05    0.5079185  0.012329544            0   0.49558896    1.5387766    2.0466951   0.58610071 
 2065000    1.0347034 -4.5469658e-05     0.490659 0.0077030883            0   0.48295591    1.5442948    2.0349538    -1.107909 
 2070000    1.0000951 2.9710124e-05   0.54719801 0.0070244754            0   0.54017354    1.4926419    2.0398399    4.0934037 
 2075000    1.0254974 -1.5734997e-05   0.49347602 0.0062693234            0    0.4872067    1.5305549    2.0240309   0.93642789 
 2080000   0.97348021 -0.00011435436   0.56201177 0.0049844227            0   0.55702735    1.4529192     2.014931   -5.8892427 
 2085000    1.0267191 -6.1581419e-05    0.4852958 0.0092425567            0   0.47605325    1.5323782     2.017674   -2.2388337 
 2090000    1.0585046 1.7284221e-05   0.45753647 0.0024850081            0   0.45505146    1.5798182    2.0373546      3.23204 
 2095000    1.0236681 -6.0652231e-08   0.51458195 0.0054648536            0   0.50911709    1.5278246    2.0424065    2.0382143 
 2100000   0.99958701 3.5153339e-05   0.55208877 0.0068165352            0   0.54527223    1.4918836    2.0439724    4.4737712 
 2105000    1.0363188 -5.20564e-06   0.49889372 0.0012431772            0   0.49765054    1.5467058    2.0455995    1.6857857 
 2110000    1.0749307 2.3244201e-05   0.43626582 0.00019291171            0   0.43607291     1.604334    2.0405999     3.647239 
 2115000    1.0325968 -6.7096558e-05   0.51978413 0.0014345584            0   0.51834957    1.5411506    2.0609348   -2.5767793 
 2120000    1.0354222 1.077163e-05    0.5308512 0.0013843531            0   0.52946684    1.5453677    2.0762189     2.820754 
 2125000    1.0384335 -7.2330943e-05   0.52053967 0.0065460976            0   0.51399357     1.549862    2.0704017   -2.9291131 
 2130000    1.0572092 9.8025314e-06   0.49168436 0.0070991316            0   0.48458522    1.5778847     2.069569      2.74712 
 2135000    1.0183546 3.5860328e-05   0.55228642 0.0011375441            0   0.55114888    1.5198942    2.0721806    4.5508465 
 2140000    1.0702404 6.6391971e-05   0.46920984 0.0038966048            0   0.46531323    1.5973338    2.0665437    6.6555567 
 2145000    1.0139131 -5.1488853e-05   0.53485517 0.0019000099            0   0.53295516    1.5132652    2.0481204   -1.5107891 
 2150000     1.014657 2.8815735e-05   0.51954037 0.0047413888            0   0.51479898    1.5143755    2.0339159    4.0256595 
 2155000    1.0216202 -1.1087171e-05   0.50127825  0.008040744            0    0.4932375    1.5247682    2.0260465    1.2597012 
 2160000    1.0371938 -7.4247426e-06   0.47350582 0.0036470358            0   0.46985879    1.5480118    2.0215176    1.5083194 
 2165000    1.0178721 1.3064894e-05   0.49727787 0.0055943754            0   0.49168349    1.5191742     2.016452    2.9194975 
 2170000    1.0411382 -2.3147661e-05   0.48640208 0.0058053282            0   0.48059675    1.5538988    2.0403009   0.44033458 
 2175000     1.003625 -3.1817506e-05   0.54811148 0.0057521627            0   0.54235932    1.4979103    2.0460217  -0.15320428 
 2180000    1.0243811 -4.2141384e-06   0.52399258 0.0075583703            0   0.51643421    1.5288889    2.0528814    1.7616002 
 2185000    1.0626065 6.5714669e-05   0.46368868  0.023270441            0   0.44041824    1.5859402    2.0496289    6.5918268 
 2190000   0.99832334 -9.8643306e-05   0.54497121 0.0051062962            0   0.53986491    1.4899976    2.0349688   -4.7832565 
 2195000   0.99197065 8.8800892e-06   0.53782265 0.0045445214            0   0.53327813    1.4805162    2.0183388    2.6321306 
 2200000    1.0431534 2.8759065e-05   0.45484516 0.0013828299            0   0.45346233    1.5569065    2.0117516    3.9995782 
 2205000    1.0388588 -1.3731812e-05   0.45585274 0.0031262573            0   0.45272649    1.5504967    2.0063495    1.0572066 
 2210000   0.97021017 4.0125333e-06   0.55354566 0.0073722554            0    0.5461734    1.4480387    2.0015843    2.2789306 
 2215000   0.98847586 -3.5793346e-05     0.526937 0.0060677224            0   0.52086928    1.4753002    2.0022372  -0.47179888 
 2220000    1.0358119 -1.9589158e-06   0.46360386 0.0039841907            0   0.45961967    1.5459493    2.0095531    1.8741529 
 2225000    1.0113993 7.9265632e-06   0.50190264 0.0067793006            0   0.49512334    1.5095135    2.0114161    2.5593001 
 2230000   0.99138368 -9.5625723e-05   0.54133497 0.0073094263            0   0.53402554    1.4796401    2.0209751   -4.5886749 
 2235000    1.0143541 1.6158237e-05   0.50749373 0.0067769316            0    0.5007168    1.5139235    2.0214172    3.1382746 
 2240000    1.0465665 -2.5244057e-05   0.46580662 0.0064737376            0   0.45933288    1.5620005    2.0278071   0.28293784 
 2245000    1.0581006 3.7758559e-05   0.45495111 0.0018193976            0   0.45313171    1.5792151    2.0341662    4.6440378 
 2250000    1.0239119 -2.0264746e-05   0.50888607 0.00097695886            0   0.50790911    1.5281885    2.0370746   0.63637531 
 2255000    1.0337708 -4.1857841e-05   0.48399314 0.0022638344            0   0.48172931    1.5429029     2.026896  -0.86631789 
 2260000    1.0365937 -6.1658812e-05   0.47889896 0.0038226715            0   0.47507629     1.547116     2.026015   -2.2358421 
 2265000   0.98746361 -9.2379364e-07   0.53849055 0.0055327683            0   0.53295778    1.4737894      2.01228    1.9484274 
 2270000    1.0560096 1.0983517e-05   0.45147025 0.0012934326            0   0.45017682    1.5760943    2.0275645    2.7867452 
 2275000    1.0468066 8.1743283e-06   0.47360246  0.012787148            0   0.46081531    1.5623589    2.0359613    2.6009709 
 2280000    1.0079348 4.6150032e-05   0.51631198  0.018139451            0   0.49817253    1.5043427    2.0206547    5.2105449 
 2285000    1.0263481 -2.495523e-05    0.4725869 0.0064392138            0   0.46614768    1.5318245    2.0044114   0.27950596 
 2290000     1.059129 3.8702671e-05   0.44200875 0.0022213817            0   0.43978737      1.58075    2.0227587    4.6978873 
 2295000    1.0377529 -3.9253712e-05   0.47549485 0.0030078673            0   0.47248699    1.5488462    2.0243411  -0.68887554 
 2300000   0.98430377 1.6246713e-06   0.56032581 0.0023691143            0   0.55795669    1.4690734    2.0293992    2.1416965 
 2305000    1.0149307 -7.0335908e-05   0.49096766 0.0023204266            0   0.48864723    1.5147841    2.0057517   -2.8558662 
 2310000    1.0097279 7.0176014e-08   0.49473348 0.0028724478            0   0.49186103    1.5070189    2.0017524    2.0066029 
 2315000    1.0458141 -4.9618989e-05   0.45256106 0.0059721349            0   0.44658892    1.5608775    2.0134386   -1.4162259 
 2320000   0.95278839 4.9291252e-06   0.57227032 0.0080769054            0   0.56419341    1.4220367     1.994307    2.3350081 
 2325000   0.97804819 -2.631458e-05   0.52451428 0.0089043021            0   0.51560997    1.4597369    1.9842512    0.1653874 
 2330000   0.98911095 4.6232219e-05   0.50759456 0.0084120474            0   0.49918252    1.4762481    1.9838427    5.1794136 
 2335000   0.99118443 9.5757309e-06   0.48967299 0.0060468548            0   0.48362613    1.4793428    1.9690157    2.6308903 
 2340000   0.94685926 -2.5830388e-05    0.5596158 0.0032610784            0   0.55635472    1.4131875    1.9728032   0.18740685 
 2345000    1.0159934 -1.3071623e-05   0.46162625 0.0025441952            0   0.45908206    1.5163701    1.9779964    1.0744858 
 2350000    1.0345264 -3.889172e-05   0.45365989 0.0016126136            0   0.45204728    1.5440307    1.9976906   -0.6905051 
 2355000   0.98862766 -1.9516912e-05   0.51003332 0.0078778646            0   0.50215545    1.4755268    1.9855601   0.63655113 
 2360000   0.99601628 4.1995424e-05   0.47898868  0.017351127            0   0.46163755    1.4865543     1.965543    4.8682667 
 2365000   0.94247544 -1.4878075e-05   0.54144038 0.0092884611            0   0.53215192    1.4066446     1.948085   0.91971246 
 2370000   0.94100377 -3.7141476e-05    0.5339933 0.0088100281            0   0.52518327    1.4044481    1.9384414  -0.62877736 
 2375000   0.97278002 3.490425e-07   0.48532067 0.0037119142            0   0.48160875    1.4518742    1.9371949    1.9613207 
 2380000   0.95576117  9.88723e-06   0.50262257 0.0068735367            0   0.49574903    1.4264736    1.9290961    2.6125015 
 2385000   0.94279822 4.8947221e-07   0.51086072  0.011407418            0    0.4994533    1.4071264    1.9179871    1.9518194 
 2390000   0.92770475 4.8998949e-05   0.52312607  0.016279226            0   0.50684684    1.3845993    1.9077254    5.2945328 
 2395000   0.96881521 -4.4490006e-06   0.47129912 0.0096953847            0   0.46160373    1.4459567    1.9172558    1.6097409 
 2400000   0.92080452 -2.9802595e-05    0.5358202 0.0087774931            0   0.52704271    1.3743007     1.910121  -0.14983444 
 2405000   0.94596068 -3.1140773e-06   0.50620295  0.015591159            0   0.49061179    1.4118463    1.9180493    1.7028042 
 2410000   0.94931051 6.9999063e-06   0.49837372  0.016055377            0   0.48231834    1.4168459    1.9152196    2.3990532 
 2415000   0.95802409 4.0016104e-05   0.49696855  0.010553223            0   0.48641533     1.429851    1.9268195    4.6927326 
 2420000    0.9488468 3.0422275e-05   0.51166291 0.0042270224            0   0.50743588    1.4161539    1.9278168    4.0306044 
 2425000   0.94501177 -7.357989e-06   0.50252051  0.010200523            0   0.49231999    1.4104301    1.9129506    1.4043664 
 2430000   0.94092725 6.8742872e-07   0.49497676   0.01930333            0   0.47567343    1.4043339    1.8993107    1.9468258 
 2435000    0.9437307 6.3955618e-06   0.51300863   0.01965958            0   0.49334905    1.4085181    1.9215267    2.3635879 
 2440000   0.95564086 -3.1906583e-05   0.49585807 0.0046787497            0   0.49117932     1.426294     1.922152  -0.28323095 
 2445000   0.90488549 -4.251419e-05   0.56988468 0.0039035665            0   0.56598111    1.3505416    1.9204263   -1.0181545 
 2450000   0.91965033 2.0162095e-05   0.53556383 0.0035344705            0   0.53202936    1.3725781    1.9081419    3.3017459 
 2455000   0.93445935 -5.4661591e-05   0.51178175 0.0027876417            0    0.5089941    1.3946806    1.9064623   -1.8717468 
 2460000    0.9315265 -9.6321227e-06   0.51051196 0.0087023414            0   0.50180962    1.3903033    1.9008153    1.2350429 
 2465000   0.89197484 -6.1836136e-05   0.55143555  0.010838629            0   0.54059692    1.3312724     1.882708   -2.3914057 
 2470000   0.93301379 -1.4506482e-05   0.48469084  0.014298966            0   0.47039187    1.3925231    1.8772139   0.87452589 
 2475000   0.90884217 2.0077482e-06    0.5082241  0.020159686            0   0.48806441    1.3564469     1.864671    2.0034466 
 2480000   0.89665976 -2.2080646e-05    0.5226963 0.0064748512            0   0.51622145    1.3382647     1.860961   0.33474675 
 2485000   0.89442847 -2.9157227e-05    0.5290154 0.0071227139            0   0.52189268    1.3349345    1.8639499  -0.15139767 
 2490000   0.97183663 5.5988954e-06   0.40515442 0.0031243465            0   0.40203007    1.4504662    1.8556206    2.2426162 
 2495000   0.88540501 4.827995e-06   0.52479765 0.0037335667            0   0.52106408     1.321467    1.8462646    2.1799756 
 2500000   0.92274005 2.0388529e-05   0.45876884  0.015393396            0   0.44337544    1.3771895    1.8359584    3.2452135 
 2505000   0.89943291 -2.2021701e-06   0.50365212  0.026682589            0   0.47696954    1.3424036    1.8460557    1.6938417 
 2510000   0.85881436 -1.7216423e-05   0.55243256  0.012548975            0   0.53988359    1.2817804     1.834213   0.64421381 
 2515000   0.88270138 -3.6622372e-05   0.51937811  0.013373536            0   0.50600458    1.3174318    1.8368099  -0.69452842 
 2520000   0.91496503 2.3144643e-06   0.46627644  0.010294417            0   0.45598202    1.3655853    1.8318617    1.9918375 
 2525000   0.86233942 -1.0892961e-05   0.55113236 0.0072972714            0   0.54383509    1.2870416    1.8381739    1.0852525 
 2530000    0.8742587 -2.6791179e-07   0.52855312 0.0040719345            0   0.52448119    1.3048311    1.8333842    1.8148662 
 2535000   0.89499627 1.2642107e-07   0.48837638 0.0035467232            0   0.48482965    1.3357819    1.8241583    1.8328965 
 2540000   0.90428042 -5.9207061e-07   0.49221741  0.017313271            0   0.47490414    1.3496385    1.8418559     1.800932 
 2545000   0.91109945 -2.8440731e-06   0.48222542  0.011042227            0    0.4711832    1.3598159    1.8420414     1.645459 
 2550000   0.88312306 -3.7401055e-05   0.54385106  0.012475281            0   0.53137578    1.3180612    1.8619122  -0.72324872 
 2555000   0.90650965 -4.1442314e-05   0.52714961  0.024211249            0   0.50293836    1.3529657    1.8801153  -0.98437745 
 2560000   0.89793994 -7.3337271e-06   0.54481254   0.01330842            0   0.53150412    1.3401754    1.8849879    1.3780807 
 2565000   0.90165718 4.3884413e-05   0.53294044 0.0035977432            0    0.5293427    1.3457233    1.8786638    4.9119544 
 2570000   0.92518639 -5.9725003e-05   0.51518724 0.0088173934            0   0.50636985    1.3808407    1.8960279   -2.2321643 
 2575000   0.89970289 -2.8133069e-05   0.53751806 0.0089302663            0   0.52858779    1.3428066    1.8803246 -0.064233076 
 2580000   0.92376529 1.6582823e-05   0.51528585 0.0050020882            0   0.51028376    1.3787197    1.8940055    3.0402102 
 2585000   0.95919722 3.2298775e-05   0.46224238 0.0057956174            0   0.45644677    1.4316019    1.8938442    4.1263356 
 2590000   0.94213759 5.2167337e-05    0.4903627 0.0059715117            0   0.48439119    1.4061404     1.896503    5.5023094 
 2595000   0.95137536 5.4586918e-05   0.45782917 0.0061358884            0   0.45169329    1.4199277    1.8777569    5.6508047 
 2600000   0.87693287 5.1485575e-05   0.56445298 0.0040409286            0   0.56041205    1.3088223    1.8732753    5.4319582 
 2605000   0.93943772 -5.1924167e-05    0.4750194 0.0027482111            0   0.47227119    1.4021108    1.8771302   -1.7118682 
 2610000   0.93316539 -1.2570669e-05   0.50240484  0.010258679            0   0.49214616    1.3927494    1.8951542    1.0262696 
 2615000   0.93631728 2.7433473e-05   0.51066824  0.021280717            0   0.48938753    1.3974535    1.9081218    3.8043235 
 2620000   0.93305993 7.4796369e-06   0.50765394  0.011662322            0   0.49599162    1.3925919    1.9002459    2.4172384 
 2625000   0.96970289 1.9197829e-05   0.45504974 0.0051161899            0   0.44993355    1.4472816    1.9023313    3.2292853 
 2630000   0.95327002 -3.0740576e-05   0.49945851 0.0070677534            0   0.49239076    1.4227555     1.922214  -0.20257459 
 2635000    0.9419999 2.4745014e-05   0.52133138  0.016194491            0   0.50513689    1.4059348    1.9272662    3.6376416 
 2640000   0.89098256 -1.8100703e-05    0.5954105  0.024278681            0   0.57113182    1.3297915     1.925202   0.67408139 
 2645000   0.92425659 2.1273256e-06   0.51247448  0.014608397            0   0.49786608     1.379453    1.8919274    2.0389682 
 2650000   0.84510819 -5.508312e-05   0.63475137  0.013371663            0   0.62137971     1.261324    1.8960753   -1.9112699 
 2655000   0.95200571 -5.6289166e-05   0.49018207 0.0031409124            0   0.48704116    1.4208685    1.9110506   -1.9796566 
 2660000   0.95528673 -1.8692776e-06   0.49216428 0.0010717199            0   0.49109256    1.4257654    1.9179297    1.7887253 
 2665000   0.94932423 2.5268184e-05   0.49819248 0.0015207052            0   0.49667177    1.4168664    1.9150589    3.6615957 
 2670000   0.96692793 2.3664511e-06   0.47538766 0.0097909672            0   0.46559669    1.4431399    1.9185276    2.0820967 
 2675000   0.94212717 -3.8275091e-05   0.50607763 0.0080972224            0   0.49798041    1.4061248    1.9122024  -0.73337185 
 2680000   0.92683552 1.3243746e-05   0.53037501 0.0043811547            0   0.52599386     1.383302     1.913677    2.8290848 
 2685000   0.95048328 2.2822722e-05   0.49508792 0.0082416954            0   0.48684622    1.4185963    1.9136842    3.4911908 
 2690000    0.9224404 -4.1228263e-05   0.52976126    0.0180123            0   0.51174896    1.3767423    1.9065036  -0.94319395 
 2695000   0.92591634 -3.051354e-05    0.5466741  0.045055431            0   0.50161867    1.3819301    1.9286042  -0.18049168 
 2700000   0.94674555 -4.8205705e-05   0.51903911  0.021515522            0   0.49752358    1.4130177    1.9320568   -1.3999215 
 2705000   0.95707731 9.1333962e-05   0.48800655  0.003999238            0   0.48400731    1.4284379    1.9164444    8.2294479 
 2710000   0.95071125 -1.1131719e-05   0.48839341 0.0016726675            0   0.48672075    1.4189365      1.90733    1.1379055 
 2715000   0.93367783 9.0965411e-06   0.50861869 0.0019186647            0   0.50670003    1.3935142    1.9021329    2.5308858 
 2720000   0.91809272 3.1836776e-05   0.52790138 0.0030396002            0   0.52486178    1.3702534    1.8981548    4.0987127 
 2725000   0.92590364 2.0348362e-05   0.53442252 0.0035181755            0   0.53090435    1.3819112    1.9163337    3.3228125 
 2730000   0.97217556 -5.5921582e-06   0.45976471 0.0040277277            0   0.45573699     1.450972    1.9107367    1.5242068 
 2735000   0.96163751 2.7240101e-06   0.46837213 0.0058426884            0   0.46252945     1.435244    1.9036161    2.0918997 
 2740000   0.91491799 6.0716555e-06    0.5435069  0.015760725            0   0.52774617    1.3655151     1.909022    2.3286948 
 2745000   0.96117177 -1.3488915e-05   0.48016579  0.020014211            0   0.46015158    1.4345489    1.9147147   0.98236083 
 2750000   0.94270488 -1.0928742e-05   0.49047374 0.0032274953            0   0.48724625     1.406987    1.8974608    1.1420662 
 2755000   0.95499854 3.0270552e-05   0.46106367 0.0013735212            0   0.45969015    1.4253353     1.886399    3.9786995 
 2760000   0.94750784 -3.1386686e-05   0.47355198 0.0065303264            0   0.46702166    1.4141554    1.8877074  -0.28174034 
 2765000   0.93237588 8.4606726e-07   0.50216198 0.0080098048            0   0.49415218     1.391571     1.893733    1.9522131 
 2770000   0.94170047 6.8114153e-05   0.49042229  0.015941343            0   0.47448095    1.4054879    1.8959102    6.6039605 
 2775000    0.9281793 -1.7174134e-06   0.49266999  0.010225525            0   0.48244447    1.3853076    1.8779776      1.75927 
 2780000   0.92707419 4.4839483e-06   0.50144927  0.018985929            0   0.48246334    1.3836582    1.8851075     2.195038 
 2785000   0.90294261 -3.4736953e-05   0.52313434  0.016759509            0   0.50637483    1.3476418    1.8707762  -0.53024197 
 2790000   0.88841114 -4.0094277e-05   0.54651167  0.020357466            0   0.52615421    1.3259536    1.8724653  -0.89885115 
 2795000   0.96477127 2.7585682e-05   0.45748586  0.007451272            0   0.45003459    1.4399211     1.897407    3.8041294 
 2800000   0.89564476 -3.0398946e-06   0.55142201 0.0092026087            0   0.54221941    1.3367498    1.8881718    1.6780543 
 2805000   0.89760297 4.2063441e-05   0.54916753 0.0036843142            0   0.54548321    1.3396724      1.88884     4.796265 
 2810000   0.92739363 -5.1288917e-05   0.48701995 0.0049952897            0   0.48202466     1.384135    1.8711549    -1.673935 
 2815000   0.94042834 -4.6843183e-05   0.46485388  0.010500339            0   0.45435354    1.4035893    1.8684432   -1.3693576 
 2820000   0.95088622 -8.911676e-06   0.44762012 0.0083287371            0   0.43929138    1.4191977    1.8668178    1.2508428 
 2825000   0.91875625 2.786226e-05   0.49635337 0.0049134572            0   0.49143991    1.3712437    1.8675971    3.7934365 
 2830000   0.87242803 -1.1091198e-05    0.5660164 0.0079868477            0   0.55802955    1.3020988    1.8681152    1.1014917 
 2835000   0.92050604 -3.2258221e-05   0.49840094  0.008626132            0    0.4897748    1.3738553    1.8722562  -0.35743201 
 2840000   0.90387713 1.0537327e-05   0.53928299  0.020927543            0   0.51835544    1.3490366    1.8883196    2.6166597 
 2845000   0.88607192 5.9570299e-06   0.54892806 0.0082623378            0   0.54066572    1.3224623    1.8713904    2.2831403 
 2850000   0.93081375 -3.2765971e-06   0.48848886 0.0018246637            0   0.48666419    1.3892395    1.8777284      1.65125 
 2855000   0.94639949 -5.3018424e-05    0.4690413 0.0045580489            0   0.46448326    1.4125012    1.8815425   -1.7830909 
 2860000   0.93840932 -2.4911793e-06   0.48124724  0.021817867            0   0.45942937    1.4005759    1.8818231    1.7096328 
 2865000   0.93424225 2.1691826e-05   0.50418996  0.018734231            0   0.48545573    1.3943566    1.8985465    3.3978855 
 2870000   0.94328293 -2.9040808e-05   0.48785015  0.002629331            0   0.48522082    1.4078498    1.8956999  -0.11160072 
 2875000   0.92900428 5.1935191e-05   0.52022472 0.0025597736            0   0.51766495    1.3865389    1.9067636     5.496524 
 2880000   0.94960322 7.3525053e-05   0.50501632 0.0058814537            0   0.49913487    1.4172828    1.9222991    7.0043508 
 2885000   0.92232856 -2.4222328e-05   0.52338599  0.016048117            0   0.50733787    1.3765754    1.8999614   0.22571405 
 2890000   0.93939032 -7.9261107e-06    0.4901235  0.013509127            0   0.47661437    1.4020401    1.8921636    1.3443108 
 2895000   0.89366413 -2.7094879e-05   0.54173357 0.0014132504            0   0.54032032    1.3337937    1.8755273 0.0027292407 
 2900000   0.94927845 -3.8401169e-05     0.457896 0.0016141611            0   0.45628184    1.4167981    1.8746941  -0.77959473 
 2905000   0.98333484 6.2713553e-06   0.41318443 0.0014280589            0   0.41175637    1.4676272    1.8808117    2.3142878 
 2910000   0.90375962 -2.6332524e-05   0.53850214 0.0091918841            0   0.52931026    1.3488612    1.8873634  0.067259283 
 2915000   0.93372031 1.5750108e-05   0.48371101 0.0068590465            0   0.47685196    1.3935776    1.8772886     2.965936 
 2920000    0.9284999 -1.0686685e-05   0.48625688  0.012566811            0   0.47369007    1.3857861     1.872043    1.1333793 
 2925000   0.91887828 1.3856943e-05   0.50099301  0.013183911            0    0.4878091    1.3714258    1.8724188    2.8302107 
 2930000   0.91697112 -2.6597322e-05   0.49612511 0.0039624021            0   0.49216271    1.3685794    1.8647045  0.026297594 
 2935000   0.97472829 2.8387294e-05    0.4015092 0.00050517563            0   0.40100403     1.454782    1.8562912     3.818421 
 2940000   0.92215651 2.9084399e-05   0.47357674  0.001154593            0   0.47242215    1.3763186    1.8498953     3.860209 
 2945000   0.89740787 1.3336005e-06   0.51992963 0.0091577515            0   0.51077188    1.3393812    1.8593109    1.9514893 
 2950000   0.93608626 -1.9790696e-05   0.46244766   0.01798403            0   0.44446363    1.3971087    1.8595564   0.49162347 
 2955000   0.93383673 6.3032201e-05   0.47030867  0.016912143            0   0.45339653    1.3937513      1.86406    6.2208457 
 2960000    0.9290499 -2.6593603e-05   0.48444404  0.028719783            0   0.45572425     1.386607     1.871051  0.032901211 
 2965000   0.92640487 -3.323448e-05   0.50311263  0.010962103            0   0.49215052    1.3826593    1.8857719  -0.41139536 
 2970000   0.91735636 -3.3094189e-05    0.5147966  0.023437421            0   0.49135918    1.3691544     1.883951  -0.40351941 
 2975000   0.97643739 1.3532551e-05    0.4139422   0.02486331            0   0.38907889    1.4573328     1.871275    2.8066449 
 2980000   0.94159919 -2.6615735e-05   0.46551101 0.0052525356            0   0.46025848    1.4053368    1.8708478  0.031168182 
 2985000   0.97943443 1.4500956e-05   0.42688276 0.0045278112            0   0.42235494    1.4618059    1.8886886    2.8909947 
 2990000   0.96157347 7.6649762e-06   0.46641521 0.0078617957            0   0.45855342    1.4351484    1.9015636    2.4313668 
 2995000   0.94749197 -6.9760485e-05   0.49977532  0.013338479            0   0.48643684    1.4141318    1.9139071   -2.9079376 
 3000000   0.96820203 7.747576e-06   0.45360656  0.006983597            0   0.44662297    1.4450415    1.8986481    2.4341605 
 3005000      1.00133 1.7669376e-05   0.41266005 0.0057978475            0    0.4068622     1.494485     1.907145    3.1284523 
 3010000   0.97251502 6.6211571e-06   0.45849906 0.0042019136            0   0.45429715    1.4514787    1.9099777    2.3676321 
 3015000   0.94454084 3.956945e-06   0.50869582 0.0016655381            0   0.50703028    1.4097272     1.918423    2.1919271 
 3020000   0.93259642 4.3598627e-05   0.51388969 0.0082878277            0   0.50560187    1.3919002    1.9057898    4.9193269 
 3025000   0.93149325 6.4637692e-05   0.52302752  0.023838577            0   0.49918894    1.3902537    1.9132812    6.3810385 
 3030000   0.94259291 -1.6649049e-05   0.50008992  0.011708608            0   0.48838131    1.4068199    1.9069098   0.75612757 
 3035000   0.97731049 -2.889638e-05   0.45448135 0.0040752828            0   0.45040606    1.4586359    1.9131173 -0.084200497 
 3040000   0.95720487 -6.225142e-05   0.50311633 0.0093594218            0   0.49375691    1.4286283    1.9317446   -2.3710736 
 3045000   0.97787401 3.5525766e-05   0.46781412 0.0068515506            0   0.46096257     1.459477    1.9272911    4.3828321 
 3050000   0.98403796 2.0603344e-05   0.45224171 0.0070647348            0   0.44517697    1.4686767    1.9209184    3.3450215 
 3055000    0.9104821 -9.7896453e-06   0.57513705  0.010418747            0   0.56471831    1.3588945    1.9340316    1.2573713 
 3060000   0.95840451 6.6523888e-05   0.49378451  0.027389034            0   0.46639548    1.4304187    1.9242032    6.5223344 
 3065000   0.93971892 6.2782715e-05   0.53208497  0.013573126            0   0.51851184    1.4025305    1.9346154    6.2741567 
 3070000   0.96908858 1.6688122e-05   0.48171993 0.0031780817            0   0.47854184    1.4463647    1.9280846    3.0815676 
 3075000   0.97995352 8.7261683e-06   0.46525977 0.0086689733            0   0.45659079    1.4625806    1.9278404    2.5309932 
 3080000   0.95518953 3.8550822e-07   0.50238577  0.013764787            0   0.48862098    1.4256204    1.9280061    1.9546525 
 3085000   0.94319922 5.4913715e-05   0.50447981  0.022016201            0   0.48246361    1.4077248    1.9122046    5.7078406 
 3090000   0.98641176 5.1849034e-05   0.46061085   0.01788988            0   0.44272097    1.4722196    1.9328304    5.5166356 
 3095000   0.97957884 -4.8345376e-05   0.47134304  0.012459473            0   0.45888357    1.4620214    1.9333645   -1.4082679 
 3100000   0.98499992 2.6773597e-05   0.46218838  0.014303786            0   0.44788459    1.4701124    1.9323008    3.7828918 
 3105000   0.93688261 -2.6804159e-06   0.53360575  0.021648773            0   0.51195697    1.3982973     1.931903    1.7466327 
 3110000   0.96516383 -1.0039269e-05   0.48807214 0.0063844697            0   0.48168767     1.440507    1.9285792    1.2346649 
 3115000    1.0148785 2.0223256e-05   0.43824053 0.0069750699            0   0.43126547    1.5147062    1.9529467    3.3507782 
 3120000     1.000727 -2.6521756e-06   0.45981541  0.010714096            0   0.44910131    1.4935851    1.9534005    1.7700821 
 3125000   0.98209759 1.0669647e-05   0.48968178  0.024225342            0   0.46545643    1.4657806    1.9554624    2.6929484 
 3130000   0.93904496 3.9004344e-05    0.5349033  0.014432256            0   0.52047104    1.4015246    1.9364279    4.6324081 
 3135000   0.99349571 -4.168191e-05   0.45876988  0.010353895            0   0.44841598    1.4827923    1.9415622  -0.93949139 
 3140000   0.97937506 4.391703e-05   0.48234778  0.012886031            0   0.46946175    1.4617173    1.9440651    4.9796102 
 3145000   0.95068045 6.2345299e-05   0.51696726  0.016421141            0   0.50054612    1.4188906    1.9358578    6.2451649 
 3150000   0.98642983 -1.4813123e-05   0.46369307 0.0054977207            0   0.45819535    1.4722465    1.9359396   0.91205654 
 3155000    0.9707865 4.4927689e-06     0.467824 0.0050636007            0    0.4627604    1.4488988    1.9167228     2.227263 
 3160000   0.93045747 1.8242927e-06   0.53087463 0.0065010221            0   0.52437361    1.3887078    1.9195824    2.0456775 
 3165000   0.97734614 6.4147125e-05    0.4709563 0.0089204465            0   0.46203585    1.4586891    1.9296454    6.3634947 
 3170000   0.97853104 -1.1300293e-05   0.45023029  0.011912693            0    0.4383176    1.4604576    1.9106879    1.1296116 
 3175000   0.96984587 -2.187312e-05   0.47406254  0.014919942            0    0.4591426     1.447495    1.9215575   0.40968744 
 3180000   0.92667017 -1.3386076e-05   0.52540522  0.014516942            0   0.51088828    1.3830552    1.9084604   0.98321489 
 3185000   0.95271867 1.716383e-05   0.49823843  0.017735012            0   0.48050342    1.4219326    1.9201711     3.106535 
 3190000   0.97224196 -4.8826341e-05   0.48451712   0.01823798            0   0.46627914    1.4510711    1.9355882   -1.4392884 
 3195000   0.95672521 -2.2768393e-05   0.52490806  0.020767242            0   0.50414082    1.4279124    1.9528204   0.37906911 
 3200000    0.9926614 1.8805875e-06   0.48094711  0.023923518            0   0.45702359    1.4815471    1.9624942    2.0924804 
 3205000    0.9607156 -2.7899811e-05   0.53226255  0.016635635            0   0.51562692     1.433868    1.9661306  0.037695633 
 3210000   0.96849515 -3.1590328e-05   0.52085496  0.018518603            0   0.50233636     1.445479     1.966334  -0.21718947 
 3215000   0.97092327 -1.4424313e-05    0.5153342  0.018753293            0   0.49658091     1.449103    1.9644372   0.96742868 
 3220000   0.99972702 5.7609761e-05   0.47886299  0.012446892            0    0.4664161    1.4920926    1.9709556    5.9529422 
 3225000    1.0008585 2.9239834e-05   0.47482125  0.013545066            0   0.46127619    1.4937813    1.9686025    3.9896598 
 3230000   0.97152499 3.1835444e-05   0.51216783  0.024464417            0   0.48770342     1.450001    1.9621689    4.1626348 
 3235000    1.0188672 -6.6315146e-06   0.45483242   0.01028754            0   0.44454488    1.5206594    1.9754918    1.5171215 
 3240000   0.98627257 -2.6838145e-05   0.50694882 0.0075362156            0    0.4994126    1.4720118    1.9789606   0.12390803 
 3245000    1.0018792 2.8798654e-05   0.47877853  0.014652192            0   0.46412634    1.4953047    1.9740832    3.9646462 
 3250000   0.99517303 2.4068456e-05   0.48886356  0.016616103            0   0.47224746    1.4852957    1.9741593     3.637771 
 3255000   0.94396364 -5.9615159e-06   0.56262623  0.027279818            0   0.53534641    1.4088657     1.971492     1.559432 
 3260000    1.0115101 -8.2159399e-06    0.4652265  0.015311785            0   0.44991471    1.5096789    1.9749054    1.4070196 
 3265000   0.98927129 2.4447663e-05   0.48838019  0.016046914            0   0.47233328    1.4764874    1.9648676      3.65469 
 3270000     1.011587 1.9722065e-05   0.48254326 0.0094891655            0    0.4730541    1.5097935    1.9923368    3.3555259 
 3275000    1.0611065 3.085144e-05     0.415457  0.009332511            0   0.40612449    1.5837014    1.9991584    4.1316099 
 3280000    1.0244295 -2.1864816e-06   0.47855645  0.017532107            0   0.46102434     1.528961    2.0075174    1.8563878 
 3285000   0.97282621 -3.3685721e-05   0.56673537  0.025062179            0   0.54167319    1.4519431    2.0186785  -0.30967856 
 3290000     1.013753 -1.3359753e-05   0.50566891  0.016668238            0   0.48900067    1.5130264    2.0186953    1.0952692 
 3295000   0.99408617 4.1927821e-05   0.52522731   0.03287997            0   0.49234734    1.4836736    2.0089009    4.9069519 
 3300000    1.0176166 -5.9963058e-05   0.48109399  0.040250071            0   0.44084391    1.5187928    1.9998868   -2.1447598 
 3305000    1.0060165 -4.5380124e-05   0.49065931  0.016428381            0   0.47423093    1.5014796    1.9921389   -1.1445353 
 3310000    1.0185843 3.992807e-05   0.46079861  0.013116641            0   0.44768197     1.520237    1.9810356    4.7408638 
 3315000   0.98457523 1.0858163e-05   0.51834433  0.015049076            0   0.50329525    1.4694785    1.9878229    2.7383391 
 3320000   0.99303576 -4.1617537e-06    0.4875678  0.013447606            0   0.47412019    1.4821059    1.9696737    1.6820133 
 3325000   0.95284798 -5.045891e-05   0.57047344   0.03305085            0   0.53742259    1.4221256    1.9925991   -1.4951208 
 3330000    1.0166772 -7.7999817e-08   0.47687897  0.011617322            0   0.46526165    1.5173908    1.9942697    1.9888784 
 3335000    0.9403542 -1.3150206e-05    0.5800895 0.0036775555            0   0.57641195    1.4034786    1.9835682    1.0746259 
 3340000    1.0040208 3.4540779e-05    0.4643975  0.018623461            0   0.44577404     1.498501    1.9628985    4.3503571 
 3345000   0.97851755 -1.6257503e-05    0.5168413  0.022075733            0   0.49476557    1.4604374    1.9772787   0.85356014 
 3350000   0.94919853 3.2328372e-05   0.54613572   0.02024797            0   0.52588775    1.4166788    1.9628145    4.1973516 
 3355000    1.0080271 1.0100067e-05   0.46721916   0.01392998            0   0.45328918    1.5044805    1.9716996    2.6698162 
 3360000   0.96676735 -3.8117832e-06   0.53036768  0.012966858            0   0.51740082    1.4429003    1.9732679    1.7097975 
 3365000   0.97420683 -1.7072324e-06   0.52438969  0.015897274            0   0.50849241    1.4540037    1.9783934    1.8603895 
 3370000    0.9678266 -3.6924269e-05   0.54169849 0.0073666938            0    0.5343318    1.4444812    1.9861797  -0.56602578 
 3375000   0.96427628 4.6840242e-05   0.54887899  0.036275344            0   0.51260365    1.4391824    1.9880613    5.2256589 
 3380000   0.98193817 2.076292e-05   0.51153153  0.012867171            0   0.49866436    1.4655427    1.9770743    3.4122073 
 3385000   0.94022998 -0.00010655518   0.57457334  0.026677875            0   0.54789546    1.4032932    1.9778666   -5.3872273 
 3390000   0.98804938 -3.4011486e-06    0.4956493 0.0033074336            0   0.49234186    1.4746637     1.970313    1.7352256 
 3395000   0.94413007 2.8965841e-05   0.54775168  0.012774139            0   0.53497754    1.4091141    1.9568658    3.9589847 
 3400000   0.96480174 2.6847074e-05   0.49927203 0.0090875138            0   0.49018451    1.4399666    1.9392386    3.7949084 
 3405000   0.93754133 1.3531943e-05   0.53867058  0.026574112            0   0.51209647    1.3992804     1.937951    2.8732789 
 3410000   0.97779665 9.6255934e-06   0.49467735  0.020814175            0   0.47386317    1.4593615    1.9540388    2.6193599 
 3415000    0.9830566 -2.4286627e-05   0.48637729 0.0094341503            0   0.47694314     1.467212    1.9535893    0.2748976 
 3420000    1.0069078 2.5860055e-05   0.45676532  0.006598006            0   0.45016731    1.5028099    1.9595752    3.7470222 
 3425000   0.97770161 2.2336732e-06   0.50636071 0.0018442824            0   0.50451643    1.4592196    1.9655804    2.1199718 
 3430000   0.99553541 6.9109069e-05   0.47837933 0.0016884173            0   0.47669091    1.4858366    1.9642159    6.7410348 
 3435000   0.99028526 -1.9524612e-06   0.48092036 0.0032037401            0   0.47771662    1.4780007    1.9589211     1.823967 
 3440000   0.98888501 -6.0503326e-06   0.49640274  0.014245081            0   0.48215766    1.4759109    1.9723136    1.5541146 
 3445000   0.99528433 -1.1523274e-05   0.49646973  0.015982462            0   0.48048727    1.4854619    1.9819316    1.1854429 
 3450000   0.94900309 -4.2730928e-05   0.57004189  0.014927031            0   0.55511486    1.4163871     1.986429  -0.96713271 
 3455000   0.99285409 2.2053917e-05   0.51405825 0.0083470499            0    0.5057112    1.4818347     1.995893    3.5202597 
 3460000    1.0068159 -5.698174e-05   0.49966987 0.0050081325            0   0.49466173    1.5026728    2.0023427   -1.9362352 
 3465000    1.0444303 -1.0735544e-06   0.44897185 0.0091518516            0      0.43982    1.5588122    2.0077841      1.93358 
 3470000   0.99734218 -3.130879e-05   0.52654576  0.014918096            0   0.51162766    1.4885332     2.015079  -0.14898456 
 3475000    1.0201501 -2.3455803e-05   0.46676188 0.0076400993            0   0.45912178    1.5225741     1.989336   0.36807084 
 3480000    1.0024619 4.7018332e-05   0.50970188 0.0019965535            0   0.50770533    1.4961744    2.0058763    5.2557835 
 3485000    1.0207129 9.255648e-06   0.49169256 0.0026669374            0   0.48902562     1.523414    2.0151066     2.654857 
 3490000   0.98006998 2.5423474e-05    0.5637758  0.016087831            0   0.54768797    1.4627544    2.0265302    3.7838008 
 3495000    1.0380944 1.2592431e-05   0.45963354 0.0050116281            0   0.45462191    1.5493559    2.0089894    2.8793783 
 3500000    1.0136522 2.4485355e-06   0.50864261   0.01115411            0    0.4974885     1.512876    2.0215186    2.1907614 
 3505000   0.97019837 -2.5938427e-06   0.58002724 0.0083644125            0   0.57166283    1.4480211    2.0280483    1.8487619 
 3510000    1.0079886 -5.8241355e-06   0.52576168  0.017998075            0   0.50776361    1.5044229    2.0301846    1.6276204 
 3515000   0.94585966 5.2788077e-05    0.6238234  0.018311691            0    0.6055117    1.4116955    2.0355189    5.6842309 
 3520000    1.0094684 2.5412953e-07   0.52305471  0.011625529            0   0.51142918    1.5066315    2.0296862    2.0472517 
 3525000   0.99155075 3.1743416e-05   0.54390482  0.022972105            0   0.52093271    1.4798895    2.0237943    4.2178992 
 3530000    1.0361942 5.0381414e-05   0.48157021  0.030588747            0   0.45098147    1.5465199    2.0280901    5.5104535 
 3535000    1.0133285 2.4165361e-05   0.50291604  0.003200957            0   0.49971508    1.5123929    2.0153089    3.6856186 
 3540000    1.0183077 -7.0215987e-06   0.49464405  0.006703357            0   0.48794069    1.5198242    2.0144683    1.5291354 
 3545000    1.0391656 -2.0320509e-05   0.45941711  0.015985962            0   0.44343115    1.5509546    2.0103717   0.60581813 
 3550000   0.99038721 -9.5220112e-05   0.52514553   0.01936538            0   0.50578015    1.4781529    2.0032984   -4.5783157 
 3555000    1.0027747 5.953172e-06   0.50900053  0.011010197            0   0.49799033    1.4966413    2.0056418    2.4171251 
 3560000   0.99650499 -7.9243316e-05   0.51514908 0.0072770879            0   0.50787199    1.4872837    2.0024328   -3.4748652 
 3565000    1.0283037 -3.1477081e-05   0.47225328  0.019318765            0   0.45293451    1.5347433    2.0069966  -0.16869928 
 3570000    1.0439745 3.8296942e-05   0.45248725 0.0099759824            0   0.44251127     1.558132    2.0106193    4.6577039 
 3575000   0.98719736 -1.9841704e-05   0.53531041 0.0034240507            0   0.53188636    1.4733921    2.0087025   0.63724391 
 3580000   0.97021028 6.4973685e-05   0.55788808 0.0054621342            0   0.55242594    1.4480388    2.0059269     6.496908 
 3585000    1.0234649 1.5791004e-05   0.47184776 0.0068370542            0    0.4650107    1.5275214    1.9993692    3.0908434 
 3590000    1.0001281 -1.2145106e-05   0.50367901 0.0055574894            0   0.49812152    1.4926912    1.9963703    1.1569005 
 3595000   0.97061971 -5.1251374e-06   0.53165453  0.014814387            0   0.51684014    1.4486499    1.9803044    1.6260549 
 3600000    0.9848787 1.2154678e-06    0.5126274  0.030507895            0    0.4821195    1.4699315    1.9825589     2.066572 
 3605000   0.99993689 5.5419925e-05   0.48723005  0.016604655            0   0.47062539    1.4924058    1.9796359    5.8102611 
 3610000   0.95241332 -9.8237915e-05   0.53774428  0.018923412            0   0.51882086    1.4214769    1.9592211   -4.8309835 
 3615000   0.99854259 2.2140778e-05   0.46337977  0.017128049            0   0.44625172    1.4903248    1.9537046    3.4840751 
 3620000    1.0013096 -2.090513e-06   0.45421172  0.020250108            0   0.43396161    1.4944546    1.9486663      1.80417 
 3625000   0.99581207 -2.5250169e-05   0.46420894  0.012774768            0   0.45143418    1.4862495    1.9504585   0.20516677 
 3630000    1.0137464 -1.7350239e-05   0.46385839 0.0093710515            0   0.45448734    1.5130165    1.9768749   0.77762635 
 3635000   0.99960041 -5.0078593e-05   0.46720548  0.011189473            0   0.45601601    1.4919036    1.9591091   -1.5023233 
 3640000   0.99208431 1.8688316e-05   0.49161393  0.030875159            0   0.46073877    1.4806858    1.9722998    3.2640362 
 3645000   0.98932537 4.0053521e-05   0.50281968  0.017592917            0   0.48522676    1.4765681    1.9793878    4.7478871 
 3650000    1.0355569 2.612828e-05   0.45390689  0.011288165            0   0.44261872    1.5455687    1.9994756    3.8054624 
 3655000    1.0151198 -4.6436819e-05   0.48149107 0.0047779089            0   0.47671316    1.5150663    1.9965573   -1.2131556 
 3660000    1.0434444 4.5747387e-05   0.43762024  0.015113597            0   0.42250664    1.5573407    1.9949609    5.1570203 
 3665000    1.0147547 1.8900396e-05   0.46929238   0.02858476            0   0.44070762    1.5145215    1.9838138    3.2902092 
 3670000    1.0004409 -3.5214367e-05   0.47784177  0.013739773            0     0.464102     1.493158    1.9709998  -0.46301729 
 3675000    1.0300364 8.8592572e-06    0.4310451 0.0078922209            0   0.42315287    1.5373294    1.9683745    2.5807263 
 3680000   0.98483717 -6.8373481e-05    0.5154437  0.014342281            0   0.50110142    1.4698695    1.9853132   -2.7406618 
 3685000   0.94919493 3.8970061e-05   0.57537403  0.036441578            0   0.53893245    1.4166734    1.9920475    4.6856581 
 3690000    1.0017695 -2.207562e-05   0.48686538  0.022666914            0   0.46419847     1.495141    1.9820064   0.45613949 
 3695000    1.0312656 -1.5236952e-05   0.46826778  0.030300574            0    0.4379672    1.5391638    2.0074316   0.95425351 
 3700000   0.99880944 2.1835486e-05   0.50545431  0.025724927            0   0.47972938    1.4907231    1.9961774    3.5054462 
 3705000    1.0105256 2.3220469e-05    0.4775562  0.011689158            0   0.46586705    1.5082094    1.9857656    3.5907645 
 3710000   0.98826891 -1.5647262e-05    0.5038191  0.020906558            0   0.48291254    1.4749913    1.9788104   0.89727171 
 3715000    1.0107741 2.4721341e-06   0.47834616  0.010242593            0   0.46810356    1.5085804    1.9869265    2.1578004 
 3720000    1.0193878 8.355695e-05   0.48260413  0.024650589            0   0.45795354    1.5214364    2.0040405    7.7794968 
 3725000    0.9753724 -8.153954e-05   0.53712607  0.029477011            0   0.50764906    1.4557433    1.9928694   -3.6431436 
 3730000     1.055415 4.4431653e-05   0.45524241  0.012211215            0    0.4430312    1.5752069    2.0304493    5.1015652 
 3735000    1.0148772 2.7813693e-05    0.5169659 0.0058408317            0   0.51112507    1.5147043    2.0316702    3.9541526 
 3740000    1.0110782 -7.2277237e-05   0.52531603  0.016595673            0   0.50872036    1.5090342    2.0343503   -2.9614524 
 3745000    1.0312932 1.8810686e-05   0.49487893 0.0087097586            0   0.48616917    1.5392052    2.0340841    3.3342787 
 3750000    1.0075239 6.7929585e-06   0.52200647 0.0029877072            0   0.51901877    1.5037294    2.0257358    2.4952651 
 3755000    1.0160169 -4.3291574e-05   0.49888519  0.001006525            0   0.49787866    1.5164052    2.0152903  -0.97702324 
 3760000    1.0203666 8.4917433e-05   0.49394244 0.0021340283            0   0.49180841    1.5228972    2.0168397    7.8863326 
 3765000    1.0339528 6.1447734e-05   0.45903132 0.0027553436            0   0.45627597    1.5431745    2.0022059    6.2494732 
 3770000    1.0055755 -2.2960896e-05   0.48525699 0.0058630561            0   0.47939393    1.5008215    1.9860785   0.39902135 
 3775000    1.0014289 -1.3963356e-05   0.47506768 0.0079971649            0   0.46707052    1.4946327    1.9697003    1.0045532 
 3780000   0.96747736 -2.1648464e-05   0.51988763  0.010577103            0   0.50931053      1.44396    1.9638476   0.46750577 
 3785000   0.98601793 -5.1512756e-05   0.50436113 0.0080876077            0   0.49627353    1.4716318    1.9759929   -1.5845688 
 3790000   0.95528985 -7.0827558e-05   0.54416564  0.018027833            0   0.52613781    1.4257701    1.9699357   -2.9256651 
 3795000    1.0088377 -5.9155606e-05   0.50141817  0.018036842            0   0.48338133    1.5056903    2.0071084   -2.0817271 
 3800000   0.97732362 5.6398966e-05   0.53584594  0.010461382            0   0.52538456    1.4586555    1.9945014     5.892798 
 3805000   0.97767652 -1.4600186e-05   0.55719624   0.02458338            0   0.53261286    1.4591822    2.0163784    1.0072136 
 3810000   0.95778868 -1.2342286e-05    0.6027111  0.028538125            0   0.57417298    1.4294996    2.0322107    1.1791119 
 3815000    1.0379834 1.2253117e-05   0.48450662 0.0085064575            0   0.47600016    1.5491902    2.0336968    2.8806322 
 3820000   0.95885405 4.3332604e-05   0.58322001  0.021508753            0   0.56171125    1.4310897    2.0143097    5.0094593 
 3825000    1.0254129 2.4726657e-06    0.4746038  0.012365595            0    0.4622382    1.5304287    2.0050325    2.1759431 
 3830000    1.0220688 2.4559797e-05   0.48909024 0.0061703444            0   0.48291989    1.5254377    2.0145279    3.7121011 
 3835000   0.99363457 6.189154e-05   0.51970357 0.0027479691            0    0.5169556    1.4829996    2.0027032    6.2806464 
 3840000   0.99605482 -5.2098609e-06   0.51393191 0.00078868583            0   0.51314323    1.4866118    2.0005437    1.6404381 
 3845000   0.97115078 1.1886424e-05   0.54058104 0.0012651302            0   0.53931591    1.4494425    1.9900236    2.8116132 
 3850000    1.0264246 -7.2947702e-06   0.46766059 0.0094871556            0   0.45817343    1.5319387    1.9995993    1.4953848 
 3855000   0.99259537  8.48636e-06   0.47505515  0.016137269            0   0.45891788    1.4814486    1.9565037    2.5430809 
 3860000   0.93853404 -4.7202558e-06   0.56789851  0.024900441            0   0.54299807    1.4007621    1.9686606    1.6423965 
 3865000   0.94996244 -1.9349151e-05   0.55687912  0.027840046            0   0.52903907    1.4178189    1.9746981   0.63728475 
 3870000   0.97341019 1.6405305e-05   0.52002009  0.016547335            0   0.50347275    1.4528147    1.9728348    3.1067695 
 3875000   0.97731363 7.254294e-05   0.52536461 0.0098562994            0   0.51550831    1.4586406    1.9840052    6.9981732 
 3880000    0.9930674 -2.5155054e-05   0.50782719 0.0023219516            0   0.50550524    1.4821531    1.9899803   0.25126298 
 3885000    1.0135704 -7.1679557e-06   0.47098249 0.0039076425            0   0.46707485    1.5127538    1.9837363    1.4882872 
 3890000   0.98244229 6.901898e-05   0.51785019  0.023868216            0   0.49398197    1.4662951    1.9841453    6.7547372 
 3895000    1.0058315 -1.7466308e-05   0.49563095   0.02502554            0   0.47060541    1.5012035    1.9968344   0.78956326 
 3900000   0.99998255 -4.8203869e-05   0.49745562  0.016285854            0   0.48116976     1.492474    1.9899296   -1.3419218 
 3905000    1.0103207 -1.1702006e-05   0.49064615  0.014182624            0   0.47646352    1.5079037    1.9985498    1.1897072 
 3910000   0.99221886 -6.4310305e-06   0.51306272  0.013587531            0   0.49947519    1.4808866    1.9939494    1.5494365 
 3915000   0.99846392  3.02944e-05    0.4958232  0.024088292            0   0.47173491    1.4902074    1.9860306    4.0799795 
 3920000   0.98330295 -1.761401e-05   0.50251866  0.021920277            0   0.48059839    1.4675797    1.9700983   0.75261797 
 3925000   0.95512152 -2.6438614e-05   0.52614146 0.0082594817            0   0.51788197    1.4255189    1.9516603   0.12422336 
 3930000   0.98971881 -2.6386029e-07   0.45922967  0.010325592            0   0.44890408    1.4771553     1.936385     1.918147 
 3935000   0.93401928 1.4563182e-05   0.54394094  0.014420857            0   0.52952009    1.3940238    1.9379647    2.9445718 
 3940000   0.96744403 8.9749475e-06   0.49768994  0.019627523            0   0.47806242    1.4439102    1.9416002    2.5619485 
 3945000    1.0011107 -6.7894033e-06   0.44062579  0.027237813            0   0.41338798    1.4941577    1.9347835    1.4654999 
 3950000   0.96249158 -5.2747538e-05   0.49211114 0.0058462324            0   0.48626491    1.4365187    1.9286298     -1.71728 
 3955000   0.94622679 2.9736843e-05   0.52169871 0.0053956562            0   0.51630306    1.4122435    1.9339422    3.9893528 
 3960000   0.96184787 1.5378327e-05   0.50963394  0.009083672            0   0.50055027    1.4355579    1.9451919    3.0081419 
 3965000   0.97298103 -1.8126024e-05   0.48349446  0.014865213            0   0.46862925    1.4521742    1.9356686   0.68279787 
 3970000    1.0469421 -4.4404887e-05   0.38264877 0.0088203057            0   0.37382846    1.5625611    1.9452098    -1.124056 
 3975000    0.9470477 -2.9836689e-05   0.51996503  0.014282749            0   0.50568228    1.4134687    1.9334337  -0.12887825 
 3980000    1.0095066 6.7411943e-05   0.44212286  0.010864876            0   0.43125799    1.5066887    1.9488115    6.6083251 
 3985000   0.98294042 5.2903933e-05   0.47322947 0.0037890162            0   0.46944045    1.4670386     1.940268    5.5969879 
 3990000   0.97090176 3.7075329e-05   0.48253563 0.0026862514            0   0.47984938    1.4490709    1.9316065    4.4942532 
 3995000    1.0012159 -3.096199e-05   0.43002401  0.002447505            0   0.42757651    1.4943147    1.9243387  -0.21575404 
 4000000   0.99024149 -6.6928994e-05   0.43350329 0.0097361812            0    0.4237671    1.4779354    1.9114387   -2.7146934 
 4005000   0.95477837 -3.5331972e-05   0.51335556  0.015123914            0   0.49823164    1.4250067    1.9383623  -0.50378365 
 4010000   0.99485071 -2.1479498e-05   0.45817342 0.0055674965            0   0.45260592    1.4848147    1.9429881   0.45832521 
 4015000   0.98061912 1.671908e-05   0.46787844 0.0075098486            0    0.4603686     1.463574    1.9314525    3.0870753 
 4020000   0.96952125 8.1343094e-06   0.47392388 0.0077732593            0   0.46615062    1.4470105    1.9209343    2.4831778 
 4025000   0.97036341 -2.0673262e-05   0.47515442  0.011878311            0   0.46327611    1.4482674    1.9234218   0.49448594 
 4030000   0.97789614 -1.2353698e-05   0.45901573  0.010046748            0   0.44896898      1.45951    1.9185257    1.0646381 
 4035000   0.95980599 -1.0068714e-05   0.47023523   0.01619244            0   0.45404279    1.4325104    1.9027457    1.2067962 
 4040000   0.92417126 -2.6443115e-05   0.52599573  0.026783821            0   0.49921191    1.3793256    1.9053213  0.077573194 
 4045000   0.94227307 -3.3090927e-05   0.50253618  0.033424154            0   0.46911203    1.4063426    1.9088787  -0.37836612 
 4050000   0.96550775 1.5827219e-05   0.45980516  0.013484507            0   0.44632065    1.4410203    1.9008255    2.9948028 
 4055000    0.9589799 5.1330141e-05   0.49812085 0.0065819992            0   0.49153885    1.4312775    1.9293984    5.4773377 
 4060000   0.97170088 -1.296221e-05   0.46371939 0.0037684871            0   0.45995091    1.4502636     1.913983     1.018035 
 4065000   0.99807101 -3.1116237e-05   0.43104908  0.005473204            0   0.42557587     1.489621    1.9206701  -0.23008423 
 4070000   0.95239435 -2.6567978e-05   0.47862043 0.0064962931            0   0.47212414    1.4214486     1.900069  0.063690338 
 4075000   0.97501307 -1.4482306e-05   0.44488144  0.015715949            0   0.42916549     1.455207    1.9000884   0.89907148 
 4080000   0.93328542 3.8456921e-05   0.51570174  0.019593997            0   0.49610775    1.3929285    1.9086302    4.5667726 
 4085000   0.94277572 5.8042248e-05   0.50604732  0.011443175            0   0.49460415    1.4070928    1.9131401    5.9250203 
 4090000   0.94899086 3.2464315e-05    0.4891466 0.0023539286            0   0.48679267    1.4163689    1.9055155    4.1494489 
 4095000   0.94892716 -3.4860552e-05   0.49380595  0.019366664            0   0.47443929    1.4162738    1.9100797  -0.49948159 
 4100000   0.91866499 2.4421025e-05   0.56616049  0.050887969            0   0.51527252    1.3711075     1.937268    3.6252492 
 4105000   0.95541774 2.6151129e-05   0.50786624 0.0092757743            0   0.49859046     1.425961    1.9338272    3.7413932 
 4110000   0.97854677 3.629011e-05   0.47723017  0.008225895            0   0.46900428    1.4604811    1.9377112    4.4460836 
 4115000   0.97878357 1.0709187e-05   0.46306717 0.0052815726            0   0.45778559    1.4608345    1.9239017    2.6641206 
 4120000   0.95242997 3.5298517e-05   0.49217727 0.0066366704            0    0.4855406    1.4215017     1.913679    4.3535125 
 4125000   0.91464853 -2.8225185e-05   0.54240501  0.019105585            0   0.52329943    1.3651129    1.9075179 -0.043406874 
 4130000   0.98374215 4.4372429e-06   0.43588948  0.023167323            0   0.41272216    1.4682352    1.9041246    2.2108269 
 4135000   0.90591874 -2.788872e-05   0.53811121  0.018170934            0   0.51994027    1.3520837    1.8901949  -0.03747342 
 4140000   0.92841007 -4.6824169e-05   0.51280265  0.017076039            0   0.49572661     1.385652    1.8984547   -1.3380319 
 4145000   0.90040102 -2.0628386e-05   0.54581909  0.017506119            0   0.52831297    1.3438485    1.8896676   0.46383357 
 4150000   0.92193293 -4.0678576e-05   0.50764778  0.026741855            0   0.48090593    1.3759849    1.8836327   -0.9280705 
 4155000   0.91307403 -3.4921373e-05   0.50375964  0.012440242            0    0.4913194     1.362763    1.8665226  -0.54724268 
 4160000   0.88793428 2.8188479e-05   0.51468543 0.0037596294            0    0.5109258    1.3252419    1.8399273     3.788315 
 4165000   0.89311825 2.0925013e-05   0.50393199 0.0047670264            0   0.49916496     1.332979     1.836911    3.2832479 
 4170000   0.86517955 -6.1569852e-05   0.55329469 0.0024760989            0   0.55081859    1.2912805    1.8445752    -2.411133 
 4175000   0.90051487 -3.3802735e-05     0.496618  0.010995604            0    0.4856224    1.3440185    1.8406365  -0.49580862 
 4180000   0.89916848 -5.2392344e-06   0.50694193   0.02788107            0   0.47906086     1.342009    1.8489509     1.486815 
 4185000   0.89835806 2.1432676e-05   0.51966941  0.035202862            0   0.48446655    1.3407994    1.8604688    3.3418954 
 4190000   0.90390585 -4.6823961e-05   0.51888263  0.014583757            0   0.50429887    1.3490795    1.8679621   -1.3685101 
 4195000   0.94607909 1.3324944e-05   0.44456982   0.01039135            0   0.43417847     1.412023    1.8565929     2.777613 
 4200000   0.88674821 9.1404913e-05   0.53121275 0.0098246555            0    0.5213881    1.3234717    1.8546845     8.172592 
 4205000   0.88926075 9.5963863e-06   0.52275132  0.028423891            0   0.49432743    1.3272217     1.849973    2.5132752 
 4210000   0.89613045 -2.9988453e-05   0.52269666  0.021986937            0   0.50070973    1.3374747    1.8601714  -0.21263051 
 4215000   0.91235878 -1.4260488e-05   0.50072845 0.0094237917            0   0.49130466    1.3616955    1.8624239     0.876739 
 4220000   0.93974849 -4.0883314e-05   0.46363811  0.010579113            0     0.453059    1.4025746    1.8662127  -0.95964196 
 4225000    0.9138419 1.3830209e-05   0.50107659  0.019162046            0   0.48191455     1.363909    1.8649856    2.8209297 
 4230000   0.90848986 2.1239701e-05   0.50267972  0.021132077            0   0.48154764    1.3559211    1.8586008     3.326689 
 4235000   0.87465325 -2.9552835e-05   0.54643683   0.01070615            0   0.53573069      1.30542    1.8518568  -0.19083517 
 4240000   0.91678713 -6.9062809e-05   0.48108514 0.0031788701            0   0.47790627    1.3683048    1.8493899   -2.9242314 
 4245000    0.9043757 -3.9756352e-05   0.50810436  0.005750071            0   0.50235429    1.3497807    1.8578851  -0.89007398 
 4250000   0.89559742 -2.204158e-05   0.49782473  0.020778825            0    0.4770459    1.3366792    1.8345039   0.31098985 
 4255000   0.87061083 1.9104856e-05   0.51346069  0.024175009            0   0.48928568    1.2993867    1.8128474     3.133375 
 4260000     0.868114 3.8520516e-05   0.51932724  0.010395462            0   0.50893177    1.2956601    1.8149874    4.4775254 
 4265000    0.8737983 -8.6071776e-05   0.50688186 0.0072750498            0   0.49960681     1.304144    1.8110258   -4.1382553 
 4270000     0.904681 -4.3190612e-06   0.46681837  0.003484129            0   0.46333424    1.3502364    1.8170548    1.5185212 
 4275000   0.90984734 2.1443217e-05   0.46189849  0.003429523            0   0.45846897    1.3579471    1.8198456    3.3020008 
 4280000   0.88468304 1.413846e-05   0.50729287 0.0097407646            0   0.49755211    1.3203894    1.8276823    2.8049327 
 4285000   0.92883147 -8.228195e-06   0.46045174 0.0083927845            0   0.45205896     1.386281    1.8467327    1.2779999 
 4290000   0.92869458 -3.2883344e-05   0.47055712 0.0067604537            0   0.46379666    1.3860767    1.8566338  -0.41626298 
 4295000   0.92071158 -5.7928738e-06    0.4717543 0.0051536359            0   0.46660066     1.374162    1.8459163    1.4455129 
 4300000   0.86099202 -2.6011442e-05   0.57243606 0.0019331211            0   0.57050294    1.2850306    1.8574667  0.059555768 
 4305000   0.92731442 4.9704485e-06   0.45254439 0.00095899391            0   0.45158539    1.3840168    1.8365612    2.1801186 
 4310000   0.93033847 -4.9699445e-05   0.44832118 0.0018873177            0   0.44643387    1.3885302    1.8368513   -1.5983743 
 4315000   0.89541252 -3.6941093e-05    0.4927783 0.0062204526            0   0.48655785    1.3364032    1.8291815  -0.72418685 
 4320000   0.87427101 -1.3196524e-05   0.53313154  0.012630574            0   0.52050097    1.3048495     1.837981   0.92583731 
 4325000   0.92819174 -1.3567063e-05   0.45934725  0.011547842            0   0.44779941    1.3853262    1.8446734   0.90691803 
 4330000   0.92799119 6.0830409e-05    0.4856898  0.010067058            0   0.47562274    1.3850269    1.8707167    6.0753145 
 4335000   0.88433062 5.5420958e-06   0.55691662  0.023823171            0   0.53309345    1.3198634    1.8767801    2.2598497 
 4340000   0.90951653 -8.5742284e-06   0.53232021  0.019265569            0   0.51305464    1.3574534    1.8897736     1.297123 
 4345000   0.93801516 -2.5670253e-05    0.4847686 0.0062636892            0   0.47850492    1.3999876    1.8847562   0.11042832 
 4350000   0.96733205 1.613491e-05   0.46194166  0.006487859            0    0.4554538    1.4437431    1.9056848    3.0209297 
 4355000   0.90177932 4.1235965e-05   0.57089619  0.010019866            0   0.56087632    1.3459056    1.9168018    4.7670317 
 4360000   0.93558897 -1.4454914e-05   0.51854466   0.01404217            0   0.50450249    1.3963665    1.9149112   0.91578758 
 4365000   0.91529728 -3.6273513e-05   0.53867797  0.011785017            0   0.52689295    1.3660812    1.9047592  -0.60246607 
 4370000    0.9616837 -2.7224197e-06   0.46462379      0.01329            0   0.45133379    1.4353129    1.8999367    1.7117631 
 4375000   0.94464116 -4.8542486e-05   0.50348002  0.027484329            0    0.4759957    1.4098769     1.913357   -1.4418997 
 4380000   0.90205803 6.9738842e-05   0.55949762   0.01686858            0   0.54262904    1.3463216    1.9058192     6.726168 
 4385000   0.91016478 -5.4005809e-05   0.55350076  0.007839747            0   0.54566101    1.3584209    1.9119217   -1.8209598 
 4390000   0.94401394 -2.0166951e-05    0.5088867 0.0037645116            0   0.50512219    1.4089408    1.9178275   0.52388785 
 4395000   0.91586013 2.6371449e-05   0.55396807  0.018606619            0   0.53536145    1.3669213    1.9208893    3.7436839 
 4400000   0.95895055 9.9632556e-06   0.50994142  0.012256427            0   0.49768499    1.4312337    1.9411751    2.6298354 
 4405000   0.96762833 -1.0748739e-05   0.49256595  0.010858209            0   0.48170774    1.4441853    1.9367512    1.1937984 
 4410000   0.94288946 3.4104802e-05   0.50235226  0.011644038            0   0.49070823    1.4072625    1.9096148    4.2669387 
 4415000   0.94210728 3.1638032e-05   0.49769291  0.022274256            0   0.47541866    1.4060951     1.903788    4.0906088 
 4420000   0.93705092 -8.2108071e-06   0.49459742   0.02225517            0   0.47234225    1.3985485    1.8931459    1.3256149 
 4425000   0.97110037 1.0212766e-05   0.44636915 0.0035760244            0   0.44279312    1.4493673    1.8957364    2.6016428 
 4430000   0.93389252 6.2765544e-05   0.51050798 0.0026741595            0   0.50783382    1.3938346    1.9043426     6.242697 
 4435000   0.94674366 2.7820915e-05   0.49620134 0.0028287974            0   0.49337254    1.4130149    1.9092162    3.8321979 
 4440000   0.99581833 4.0732516e-05   0.43179676 0.0057248275            0   0.42607193    1.4862589    1.9180556    4.7334871 
 4445000   0.94848275 -3.7676993e-05   0.52330031  0.020974384            0   0.50232592    1.4156105    1.9389108  -0.66532296 
 4450000   0.99448689 4.3138028e-05   0.44450861   0.02070461            0     0.423804    1.4842717    1.9287803    4.9104808 
 4455000   0.94955796 1.6115496e-05   0.51075101  0.014660466            0   0.49609055    1.4172153    1.9279663    3.0418693 
 4460000    1.0115589 -9.3197762e-07   0.43923412  0.025276386            0   0.41395774    1.5097517    1.9489858    1.8845675 
 4465000   0.97146002 3.5210586e-06    0.5120982  0.022110358            0   0.48998784    1.4499041    1.9620023    2.2053778 
 4470000   0.90468883 -8.2522659e-05    0.6177683  0.023008438            0   0.59475986    1.3502481    1.9680164   -3.7359498 
 4475000    1.0112606 5.3221707e-05   0.45903346  0.033069277            0   0.42596419    1.5093065      1.96834    5.6470244 
 4480000    0.9638762 -3.0275282e-06   0.52322077  0.021258822            0   0.50196195    1.4385852     1.961806    1.7525432 
 4485000    0.9583446 -3.3551788e-05   0.50831975   0.02051369            0   0.48780606    1.4303293    1.9386491   -0.3804505 
 4490000   0.96053143 -2.5586286e-05   0.49720345  0.013171533            0   0.48403191    1.4335932    1.9307966   0.16227249 
 4495000    0.9324673 -4.0391151e-05   0.53454178  0.009393767            0   0.52514801    1.3917074    1.9262492  -0.86558711 
 4500000   0.96614804 -1.7023426e-05    0.4622285  0.019105593            0   0.44312291     1.441976    1.9042045   0.72754529 
 4505000   0.95892656 1.0201122e-05    0.4712257   0.01447385            0   0.45675185    1.4311979    1.9024236    2.6075251 
 4510000    0.9049129 3.4434559e-06   0.54976922 0.0079549382            0   0.54181428    1.3505825    1.9003517    2.1383634 
 4515000   0.97716486 4.0529048e-06   0.44789735 0.0015814284            0   0.44631592    1.4584186    1.9063159    2.1864527 
 4520000   0.98507081 3.9745246e-05   0.43524901 0.0080309216            0   0.42721809    1.4702182    1.9054672    4.6526586 
 4525000   0.96459368 4.7671206e-05    0.4677012  0.021164808            0    0.4465364    1.4396561    1.9073573    5.2023911 
 4530000   0.96259479 -9.9246982e-06   0.47036067  0.011256918            0   0.45910375    1.4366727    1.9070334    1.2210383 
 4535000    0.9269442 5.4613875e-05   0.52684763 0.0068547375            0   0.51999289    1.3834642    1.9103118    5.6852229 
 4540000   0.95618762 3.5264569e-05   0.47911378 0.0090006254            0   0.47011315      1.42711    1.9062238    4.3437108 
 4545000   0.93294247 -3.768346e-05   0.52856113 0.0099378523            0   0.51862328    1.3924166    1.9209778  -0.68370298 
 4550000   0.93321167 -3.0049497e-05   0.51443011  0.013254426            0   0.50117569    1.3928184    1.9072485  -0.16977267 
 4555000   0.97366314 -2.0058724e-05   0.44110287   0.04290086            0   0.39820201    1.4531922    1.8942951   0.50783612 
 4560000   0.93593279 3.7628231e-05   0.50224992  0.023105387            0   0.47914453    1.3968797    1.8991296    4.4999929 
 4565000   0.95596553 -3.6257366e-05   0.49185156  0.011074676            0   0.48077688    1.4267786    1.9186301  -0.58747904 
 4570000   0.97078296 -4.1885473e-05    0.4650532 0.0050579932            0    0.4599952    1.4488936    1.9139468  -0.98117713 
 4575000   0.95219886 5.5487005e-05   0.48370903   0.00809632            0   0.47561271    1.4211568    1.9048658    5.7401276 
 4580000   0.94609598 2.7745825e-05   0.49952419  0.014424635            0   0.48509955    1.4120483    1.9115724    3.8293638 
 4585000   0.93194717 -6.9790527e-05   0.50164691   0.01907676            0   0.48257015    1.3909312    1.8925781   -2.9313432 
 4590000   0.94018773 -3.2161172e-07   0.49403877  0.023155871            0    0.4708829    1.4032302     1.897269    1.8750392 
 4595000   0.94826144 1.7816421e-05   0.49759938 0.0049020585            0   0.49269732    1.4152802    1.9128796    3.1443506 
 4600000   0.94214803 -2.9334627e-05    0.5102802 0.0096671984            0     0.500613    1.4061559    1.9164361  -0.11117333 
 4605000   0.95478008 2.0932391e-06   0.50033136  0.024259551            0   0.47607181    1.4250093    1.9253406    2.0700253 
 4610000   0.94611281 -2.3788292e-05   0.52322273  0.012547293            0   0.51067543    1.4120734    1.9352961   0.29104936 
 4615000    1.0045099 -4.023201e-05   0.43916515  0.008503212            0   0.43066194     1.499231    1.9383961  -0.84244042 
 4620000   0.94707718 -3.8733304e-05   0.52880179  0.027273657            0   0.50152814    1.4135127    1.9423145  -0.73493152 
 4625000   0.94423314 -3.0814036e-05    0.5347082  0.020150257            0   0.51455794     1.409268    1.9439762  -0.18588998 
 4630000   0.96954322 -3.9825266e-05   0.49659701  0.016513053            0   0.48008396    1.4470433    1.9436403  -0.80908214 
 4635000   0.92982239 5.4610585e-05   0.55915442  0.022673022            0    0.5364814    1.3877599    1.9469143     5.721598 
 4640000   0.95002562 6.519579e-05   0.53755165  0.027945129            0   0.50960652    1.4179132    1.9554649    6.4617979 
 4645000   0.90577649 -2.9613551e-05   0.59422866  0.029934598            0   0.56429406    1.3518714    1.9461001  -0.10078859 
 4650000    1.0012198 1.1419392e-05   0.45602642  0.013639624            0   0.44238679    1.4943206     1.950347    2.7396553 
 4655000   0.93473355 -5.3125329e-05   0.54353179   0.01768493            0   0.52584686    1.3950898    1.9386216   -1.7334011 
 4660000   0.91886323 -4.5674248e-05   0.56843768  0.067964547            0   0.50047313    1.3714034     1.939841    -1.217163 
 4665000   0.91304889 -1.6642093e-05   0.59109361  0.021577685            0   0.56951592    1.3627255    1.9538191    0.8035176 
 4670000   0.94941446 5.4328385e-05   0.53176472   0.01621204            0   0.51555268    1.4170011    1.9487658    5.7039438 
 4675000    1.0041595 2.2752172e-05   0.46043814  0.010952143            0     0.449486     1.498708    1.9591462    3.5317763 
 4680000   0.96086426 1.204162e-05   0.53384869  0.013096379            0   0.52075231    1.4340899    1.9679386    2.8002554 
 4685000   0.96996865 5.9771646e-05    0.5179082  0.018280976            0   0.49962723    1.4476782    1.9655864    6.0970026 
 4690000   0.95901625 5.925863e-05   0.52121384  0.012738732            0   0.50847511    1.4313318    1.9525456    6.0485021 
 4695000   0.99405118 1.0782506e-05   0.48528274  0.012705502            0   0.47257724    1.4836214    1.9689041     2.714191 
 4700000   0.96958113 -1.0447312e-05   0.52090698  0.026818437            0   0.49408855    1.4470998    1.9680068    1.2458886 
 4705000   0.96013707 1.930514e-05   0.54409368  0.011453342            0   0.53264033    1.4330046    1.9770982    3.3114695 
 4710000    1.0022894 1.7400682e-05   0.47843819  0.020891264            0   0.45754693    1.4959169    1.9743551    3.1770902 
 4715000   0.95866043 -3.8957007e-06   0.53758324  0.043245786            0   0.49433745    1.4308007    1.9683839    1.6991131 
 4720000   0.99828065 -3.1360268e-07   0.48918316  0.015738082            0   0.47344508    1.4899339     1.979117    1.9574408 
 4725000    1.0042963 3.6639052e-05   0.49717401 0.0049790428            0   0.49219497    1.4989123    1.9960863    4.5285776 
 4730000    1.0152332 -4.818208e-06   0.51260348 0.0017917276            0   0.51081175    1.5152356    2.0278391    1.6948045 
 4735000    1.0261121 1.7390285e-05   0.50814802 0.0094974442            0   0.49865058    1.5314724    2.0396204    3.2416369 
 4740000    1.0219524 2.3066616e-05   0.51877833  0.013933725            0    0.5048446    1.5252639    2.0440422    3.6384068 
 4745000    1.0659646 -5.85854e-07   0.47675213 0.0023313273            0   0.47442081    1.5909522    2.0677043    2.0272101 
 4750000    1.0036595 5.0837563e-05   0.57931541 0.0018304352            0   0.57748498    1.4979619    2.0772773    5.5911696 
 4755000    1.0473503 -8.9335365e-06   0.51350899 0.0046501643            0   0.50885883    1.5631703    2.0766792    1.4591932 
 4760000     1.081838 -1.6688072e-05   0.48742173  0.002157965            0   0.48526377    1.6146432    2.1020649   0.94858542 
 4765000    1.0522971 -5.9839949e-06   0.52647889 2.9760051e-05            0   0.52644913    1.5705535    2.0970324    1.6834187 
 4770000    1.0137327 -6.9308316e-05   0.58182394 0.0063598539            0   0.57546409    1.5129961      2.09482   -2.6957708 
 4775000    1.0535105 -2.6954011e-05   0.52217441  0.015935591            0   0.50623882    1.5723644    2.0945388   0.23147761 
 4780000    1.0490814 2.6185043e-05   0.52397272  0.015195741            0   0.50877698    1.5657539    2.0897267    3.8996368 
 4785000    1.0510088 3.3935863e-05   0.53599541  0.029217546            0   0.50677786    1.5686307    2.1046261    4.4502729 
 4790000    1.0215293 -3.6512527e-05   0.57974934  0.029279383            0   0.55046996    1.5246325    2.1043818  -0.41936401 
 4795000    1.0210979 3.1747189e-05   0.56950526   0.02536318            0   0.54414208    1.5239886    2.0934939    4.2878596 
 4800000    1.0172862 2.7286789e-05   0.58289417  0.036109022            0   0.54678515    1.5182996    2.1011938    3.9872566 
 4805000    1.0212367 -7.1704237e-05   0.58155699    0.0504523            0   0.53110469    1.5241958    2.1057527   -2.8504441 
 4810000    1.0431852 -1.4166905e-05   0.53782149  0.024924553            0   0.51289694    1.5569539    2.0947754    1.1155589 
 4815000     1.009218 1.3868246e-05    0.6040624 0.0097054613            0   0.59435694    1.5062579    2.1103203    3.0688935 
 4820000    1.0358671 2.9712176e-05   0.55967455  0.021423897            0   0.53825065    1.5460317    2.1057063    4.1594119 
 4825000    1.0668178 -2.8448552e-05   0.51211677  0.022532896            0   0.48958387    1.5922255    2.1043423   0.13797838 
 4830000    1.0156637 1.7429675e-05   0.59053032  0.031591153            0   0.55893917    1.5158781    2.1064084    3.3111476 
 4835000    1.0379751 4.4204243e-05   0.55572319  0.033792073            0   0.52193112    1.5491778     2.104901    5.1602983 
 4840000    1.0016151 -1.821207e-05   0.60284596  0.019927605            0   0.58291836    1.4949106    2.0977565   0.83893824 
 4845000    1.0309868 4.4715123e-05   0.54979905  0.021176673            0   0.52862237    1.5387478    2.0885468    5.1792561 
 4850000    1.0075947 0.00010351882   0.58590051  0.011720871            0   0.57417964    1.5038351    2.0897356    9.2449562 
 4855000    1.0655315 9.8236587e-06   0.52665196  0.005166459            0    0.5214855    1.5903058    2.1169578    2.7959691 
 4860000    1.0601443 5.4149053e-06   0.54769666   0.02110353            0   0.52659313    1.5822654    2.1299621    2.5042403 
 4865000    1.0556888 2.3639346e-05   0.56269376  0.019220267            0    0.5434735    1.5756155    2.1383093    3.7722609 
 4870000    1.0933923 3.196284e-05   0.53226328  0.028597332            0   0.50366595     1.631888    2.1641512    4.3734228 
 4875000    1.0781959 2.1924034e-05   0.56487977   0.01831573            0   0.54656404    1.6092073    2.1740871    3.6894763 
 4880000    1.0858539 -6.139306e-05   0.55391934  0.020752827            0   0.53316652    1.6206369    2.1745562   -2.0689321 
 4885000    1.0618591 -3.4817823e-05   0.58641271  0.014568411            0    0.5718443    1.5848247    2.1712374  -0.23537054 
 4890000    1.0514358 1.9417776e-05   0.59426964  0.040213512            0   0.55405613    1.5692679    2.1635376    3.5056942 
 4895000    1.0487662 -1.8461033e-05   0.59085265  0.035358953            0    0.5554937    1.5652836    2.1561363   0.88010965 
 4900000    1.0725023 -6.9924194e-05   0.55393038 0.0085503938            0   0.54537998    1.6007096      2.15464   -2.6785203 
 4905000    1.0447978 -3.1942143e-05   0.58352648 0.0025524504            0   0.58097403    1.5593606    2.1428871 -0.064953811 
 4910000    1.0658153 -3.9121923e-05   0.51331313  0.019158996            0   0.49415413    1.5907293    2.1040425  -0.60006482 
 4915000    1.0304519 -2.1412189e-05   0.57963152  0.032506588            0   0.54712493    1.5379495     2.117581   0.63757048 
 4920000    1.0731857 -9.7858027e-07   0.49791347  0.019479165            0   0.47843431    1.6017296    2.0996431    2.0320036 
 4925000    1.0443106 -3.5974759e-05     0.535635 0.0091827658            0   0.52645224    1.5586336    2.0942686  -0.39230672 
 4930000     1.028302 -2.0004726e-05   0.56999057 0.0032451171            0   0.56674546    1.5347407    2.1047313   0.72200461 
 4935000    1.0289022 2.312693e-05   0.56222033  0.005740554            0   0.55647978    1.5356365    2.0978568    3.6963902 
 4940000    1.0076606 8.224577e-06   0.58521768  0.026752184            0    0.5584655    1.5039334    2.0891511    2.6576338 
 4945000    1.0334016 5.2242772e-06    0.5381354  0.024350551            0   0.51378485    1.5423519    2.0804873    2.4415894 
 4950000   0.99621553 -1.9116758e-05   0.57647952 0.0087942676            0   0.56768526    1.4868517    2.0633312   0.74198089 
 4955000    1.0104497 -3.8518246e-05   0.55219907 0.0070865484            0   0.54511252    1.5080962    2.0602952  -0.60208596 
 4960000    1.0022581 5.331916e-05   0.55140226 0.0088010133            0   0.54260125    1.4958703    2.0472725    5.7326928 
 4965000   0.99295506 1.7537678e-05   0.56007216  0.013926068            0    0.5461461    1.4819854    2.0420576    3.2542619 
 4970000     1.031344 -2.1493819e-05   0.50633588   0.01748237            0   0.48885351    1.5392809    2.0456168   0.55996401 
 4975000    0.9972171 -7.2111859e-05   0.55350558  0.011385245            0   0.54212033    1.4883465    2.0418521   -2.9425196 
 4980000    1.0321321 -4.8686167e-05   0.50327375  0.019733637            0   0.48354012    1.5404571    2.0437309    -1.321457 
 4985000    0.9778861 6.9567927e-05   0.59389499  0.020924578            0   0.57297041     1.459495      2.05339    6.8619251 
 4990000    1.0119217 1.3298254e-05   0.53907275  0.013233482            0   0.52583927    1.5102931    2.0493659    2.9685412 
 4995000   0.98591702 -7.1365198e-06   0.55477009  0.012567219            0   0.54220288    1.4714811    2.0262512     1.532975 
 5000000    1.0130039 1.7169246e-05   0.51063444  0.015937419            0   0.49469702    1.5119083    2.0225428    3.2092811 
 5005000   0.96105058 5.0219618e-05   0.57659804  0.017497987            0   0.55910005     1.434368     2.010966     5.482146 
 5010000   0.98224687 -2.5232362e-05   0.54502328  0.012816273            0   0.53220701    1.4660034    2.0110267   0.26696584 
 5015000   0.99486337 -6.1442615e-05   0.50614555  0.016748118            0   0.48939744    1.4848336    1.9909791   -2.2559344 
 5020000    0.9869562 -4.4157271e-05   0.50272371  0.010141555            0   0.49258216    1.4730321    1.9757558   -1.0763947 
 5025000   0.99244946 -1.1618648e-05   0.50539059  0.019843493            0    0.4855471    1.4812308    1.9866214    1.1835404 
 5030000   0.95402079 -1.4250434e-05   0.57544607  0.025877892            0   0.54956818     1.423876    1.9993221    1.0143321 
 5035000    1.0370468 -4.4110519e-05   0.46739785  0.013477286            0   0.45392056    1.5477923    2.0151902   -1.0337289 
 5040000    1.0033847 -4.1803763e-05   0.52245052  0.011566218            0   0.51088431    1.4975516    2.0200021  -0.86947397 
 5045000    1.0130577 -3.0292943e-05   0.50955927 0.0053026289            0   0.50425664    1.5119886    2.0215479  -0.07230037 
 5050000    1.0228157 -2.9012474e-05   0.48667142  0.010417725            0    0.4762537    1.5265524    2.0132238 0.0078815843 
 5055000    1.0008258 4.0182322e-05   0.54119135  0.031793493            0   0.50939786    1.4937326    2.0349239     4.812326 
 5060000   0.94540453 1.3842328e-05   0.61120446  0.027764146            0   0.58344031    1.4110163    2.0222207    2.9790025 
 5065000    1.0290143 -1.8186363e-05   0.49929566  0.037837037            0   0.46145863    1.5358038    2.0350995   0.77805805 
 5070000    1.0308821 -4.0968151e-05   0.49657062   0.01267266            0   0.48389796    1.5385915    2.0351621  -0.79655653 
 5075000   0.98567171 -4.7232929e-06   0.56410182  0.011481093            0   0.55262073     1.471115    2.0352169    1.7087428 
 5080000    1.0025344 -5.0170905e-05    0.5490056  0.012695433            0   0.53631016    1.4962826    2.0452882   -1.4225247 
 5085000   0.99929891 -8.3934626e-06     0.554693  0.016340049            0   0.53835295    1.4914536    2.0461466    1.4659905 
 5090000    1.0485319 2.092029e-05   0.47818823  0.019405255            0   0.45878297    1.5649338    2.0431221    3.4891325 
 5095000   0.97982205 -1.9789413e-05   0.58189582  0.019929577            0   0.56196625    1.4623844    2.0442802   0.67643603 
 5100000   0.99527892 -1.1913891e-05   0.56092286  0.035114563            0    0.5258083    1.4854538    2.0463767    1.2228885 
 5105000   0.97961123 -1.2888694e-05   0.56502049  0.020518975            0   0.54450151    1.4620698    2.0270902    1.1362237 
 5110000   0.99869786 -1.2208688e-05   0.54461558  0.021946347            0   0.52266924    1.4905566    2.0351721    1.1913076 
 5115000   0.95790666 -4.4370495e-05   0.62013444 0.0078782296            0   0.61225621    1.4296757    2.0498101   -1.0170785 
 5120000    1.0229214 -2.8799939e-05   0.51299755  0.016210531            0   0.49678702    1.5267103    2.0397078  0.049056002 
 5125000    1.0255558 -1.7716722e-05   0.49989568  0.019625556            0   0.48027012     1.530642    2.0305377   0.80595786 
 5130000   0.96949844 4.9402473e-05   0.57633388  0.020262963            0   0.55607092    1.4469764    2.0233103    5.4380093 
 5135000   0.94892554 5.1584685e-05    0.5942178  0.016070307            0   0.57814749    1.4162714    2.0104892    5.5760226 
 5140000    1.0152712 -2.4080103e-05   0.48990224  0.031902796            0   0.45799945    1.5152923    2.0051946   0.34077783 
 5145000   0.95017968 -1.7954716e-05   0.58879473  0.010842625            0   0.57795211    1.4181432    2.0069379   0.76590793 
 5150000   0.91314446 3.3127762e-05   0.63827584  0.020870193            0   0.61740565    1.3628681     2.001144    4.2909349 
 5155000   0.97183712 2.8490957e-05   0.56318832  0.034365769            0   0.52882256    1.4504669    2.0136552    3.9829502 
 5160000   0.96393325 -4.9516836e-06   0.57128096  0.035898684            0   0.53538228    1.4386704    2.0099513     1.667691 
 5165000    1.0131178 -9.2689411e-06   0.50355627  0.029436919            0   0.47411935    1.5120783    2.0156345    1.3749653 
 5170000    1.0577924 5.8538152e-06   0.45416996  0.022370607            0   0.43179936    1.5787552    2.0329251    2.4375408 
 5175000    1.0033141 -3.2690816e-05    0.5177524 0.0086125083            0   0.50913989    1.4974463    2.0151987   -0.2443905 
 5180000    1.0053303 2.5874698e-05   0.51001159 0.0083492192            0   0.50166237    1.5004554     2.010467    3.7989262 
 5185000   0.96330208 9.7306083e-06   0.54425145  0.011282236            0   0.53296921    1.4377284    1.9819798    2.6545594 
 5190000   0.95442552 -2.0394263e-05   0.54998479  0.010671318            0   0.53931347    1.4244801    1.9744649   0.56481345 
 5195000    1.0066964 1.5168427e-05   0.45746573 0.0088767034            0   0.44858903    1.5024944    1.9599602    3.0084018 
 5200000    1.0015087 1.5371645e-05   0.46356201  0.018716579            0   0.44484543    1.4947517    1.9583137    3.0208018 
 5205000   0.95754534 -5.1494488e-05   0.52334989  0.026306416            0   0.49704348    1.4291364    1.9524863   -1.6068127 
 5210000   0.92375605 -1.6209745e-05   0.56423118  0.021212892            0   0.54301829    1.3787059    1.9429371    0.8225195 
 5215000   0.95673997  2.49306e-06   0.49463627  0.017173812            0   0.47746246    1.4279344    1.9225707     2.094891 
 5220000   0.94423937 -2.3977812e-05    0.5319594  0.015697075            0   0.51626233    1.4092773    1.9412367   0.28389033 
 5225000   0.99224839 -3.2255873e-05   0.45663006 0.0097218643            0   0.44690819    1.4809307    1.9375608   -0.2919652 
 5230000   0.95148529 -7.0283941e-05   0.52198061  0.015948759            0   0.50603185    1.4200918    1.9420724   -2.9159536 
 5235000   0.94563148 -3.1884549e-05   0.52785893   0.01583045            0   0.51202848     1.411355    1.9392139  -0.26464612 
 5240000   0.94423853 -1.861705e-05   0.52196069  0.011223964            0   0.51073673     1.409276    1.9312367   0.64442617 
 5245000   0.93213596 -1.4241286e-05   0.54772802   0.01987922            0    0.5278488    1.3912129    1.9389409   0.95458327 
 5250000   0.98742926 5.8616471e-05   0.47690628  0.026743874            0    0.4501624    1.4737382    1.9506444    6.0022149 
 5255000   0.95632076 1.6256048e-05   0.51562299 0.0087094122            0   0.50691358    1.4273087    1.9429317    3.0665497 
 5260000   0.96556354 -6.0393968e-06   0.49121796  0.008066015            0   0.48315195    1.4411036    1.9323215    1.5148784 
 5265000   0.95340948 1.1221409e-05   0.51102816 0.0072773437            0   0.50375081    1.4229637    1.9339918    2.7096156 
 5270000   0.96555629 -9.8795397e-06    0.4949339  0.018190058            0   0.47674385    1.4410928    1.9360267    1.2531529 
 5275000   0.96772901 -3.7237462e-05   0.48622159  0.010820106            0   0.47540149    1.4443356    1.9305571  -0.64329626 
 5280000   0.97889036 1.4199544e-05   0.48685517 0.0053284633            0   0.48152671    1.4609939     1.947849    2.9293215 
 5285000   0.94756033 -3.0883469e-05   0.55396354  0.010940012            0   0.54302353    1.4142338    1.9681973  -0.16646805 
 5290000   0.94679338 2.8209717e-05   0.55781412  0.017550274            0   0.54026385    1.4130891    1.9709032    3.9207589 
 5295000    1.0029841 -1.6555673e-05   0.46690697  0.016796356            0   0.45011061    1.4969538    1.9638607    0.8195326 
 5300000   0.97760215 3.4539047e-06   0.51870214 0.0086317582            0   0.51007038    1.4590712    1.9777734    2.2165072 
 5305000   0.96157892 4.9804822e-05   0.54091558  0.013165197            0   0.52775038    1.4351565    1.9760721    5.4185814 
 5310000    0.9749807 -3.7252325e-05   0.49876931 0.0087282806            0   0.49004103    1.4551587     1.953928  -0.62095272 
 5315000   0.96987327 -4.2124809e-05   0.52359626 0.0085218111            0   0.51507444    1.4475359    1.9711321  -0.94053467 
 5320000    1.0095673 -7.3636884e-06   0.47020992  0.017750037            0   0.45245988    1.5067791    1.9769891    1.4680109 
 5325000   0.96791276 -3.8230417e-05   0.55034247  0.020071463            0     0.530271    1.4446098    1.9949523  -0.64753414 
 5330000   0.95464156 2.1465347e-05   0.57687678 0.0088169817            0    0.5680598    1.4248025    2.0016793    3.4853641 
 5335000    1.0054289 3.0784222e-05   0.50768713   0.01417305            0   0.49351408    1.5006027    2.0082898    4.1360952 
 5340000   0.97122471 -2.9456578e-05   0.56665728  0.020421193            0   0.54623609    1.4495529    2.0162102 -0.019828521 
 5345000    1.0389969 -4.7714599e-05   0.46075422  0.026233055            0   0.43452117    1.5507029    2.0114571   -1.2865759 
 5350000   0.96529999 -3.4099056e-05   0.56697468  0.016482724            0   0.55049196    1.4407102    2.0076849  -0.34924186 
 5355000    1.0054784 1.5375713e-05   0.51834562  0.015920921            0    0.5024247    1.5006765    2.0190221    3.0817914 
 5360000   0.98127404 -3.629442e-06    0.5619219  0.032687974            0   0.52923393    1.4645515    2.0264734    1.7756064 
 5365000    1.0093026 -2.5381971e-05   0.52328668   0.01058115            0   0.51270553    1.5063841    2.0296708   0.27526895 
 5370000    1.0055426 5.6421781e-05   0.52883358  0.017441197            0   0.51139238    1.5007723    2.0296059    5.9294794 
 5375000   0.99657171 3.2212345e-05   0.53472786  0.024499976            0   0.51022788    1.4873833    2.0221111    4.2486284 
 5380000   0.98277877 -1.5374848e-05   0.55710636 0.0090712699            0   0.54803509    1.4667973    2.0239037    0.9611942 
 5385000    1.0141612 -4.0997066e-05   0.50853916 0.0074429816            0   0.50109617    1.5136357    2.0221748  -0.81154241 
 5390000    1.0004633 -6.0728933e-05   0.53869808  0.032269279            0    0.5064288    1.4931915    2.0318896   -2.1656943 
 5395000    1.0272569 1.0174583e-05   0.50240071  0.028686986            0   0.47371373     1.533181    2.0355817    2.7388488 
 5400000   0.99842052 -4.947783e-05   0.56326629  0.022510129            0   0.54075616    1.4901426    2.0534089   -1.3664987 
 5405000    1.0617974 -4.0269757e-05   0.47964563 0.0030705385            0   0.47657509    1.5847326    2.0643783  -0.71906733 
 5410000    1.0540098 2.3013957e-06   0.49387776 0.0061051045            0   0.48777266    1.5731096    2.0669874    2.2260598 
 5415000   0.99110273 2.1537159e-06    0.5783984  0.020477902            0    0.5579205    1.4792208    2.0576192    2.2064841 
 5420000    1.0432827 1.6326874e-05   0.51353514  0.015115225            0   0.49841992    1.5570994    2.0706345     3.199148 
 5425000   0.96997205 -1.2279687e-05   0.63148175  0.033091288            0   0.59839046    1.4476833     2.079165    1.2303931 
 5430000    1.0315103 -2.2128023e-05   0.55336135  0.017812609            0   0.53554874    1.5395291    2.0928904   0.56340144 
 5435000    1.0532511 1.5560064e-05   0.53273501   0.01257994            0   0.52015507    1.5719773    2.1047123     3.180224 
 5440000    1.0683646 1.3997272e-05   0.50017404  0.011704889            0   0.48846915    1.5945341    2.0947082    3.0621996 
 5445000   0.97097444 -7.5881025e-06   0.61988001  0.016525168            0   0.60335484    1.4491794    2.0690594    1.5445697 
 5450000    1.0023475 1.6695511e-06   0.56452121  0.015821521            0   0.54869969    1.4960036    2.0605248    2.1759242 
 5455000    1.0449701 5.0269045e-05   0.50748565  0.023240396            0   0.48424526    1.5596179    2.0671036       5.5417 
 5460000   0.99552504 3.3185505e-05   0.55292673  0.051854304            0   0.50107243    1.4858211    2.0387479      4.33253 
 5465000    1.0170337 -3.0580524e-05   0.51351419  0.045023079            0   0.46849111    1.5179228     2.031437 -0.082288818 
 5470000   0.97325861 -2.6522543e-05   0.56297556  0.029306264            0   0.53366929    1.4525885     2.015564   0.18232582 
 5475000   0.97956719 -5.5347315e-06   0.56736537 0.0039157691            0    0.5634496     1.462004    2.0293694    1.6468088 
 5480000   0.99765315 -2.5570347e-05   0.54264213   0.00941559            0   0.53322654    1.4889973    2.0316395   0.26421711 
 5485000   0.99679911 -5.2556161e-05   0.54372668   0.01707153            0   0.52665515    1.4877227    2.0314494   -1.6012325 
 5490000    1.0245598 1.4751231e-05   0.49964066  0.016348075            0   0.48329259    1.5291555    2.0287962    3.0484013 
 5495000   0.98626317 4.1553639e-05   0.56347024  0.017610238            0      0.54586    1.4719978     2.035468    4.9076556 
 5500000    1.0160895 6.1885189e-06   0.51807088 0.0077605383            0   0.51031034    1.5165135    2.0345844    2.4623348 
 5505000   0.99687413 -2.2468205e-05   0.54694557   0.01418791            0   0.53275766    1.4878346    2.0347802    0.4817779 
 5510000     1.026383 -5.2125213e-05   0.51216812  0.044188214            0   0.46797991    1.5318766    2.0440447     -1.55885 
 5515000    1.0060952 -5.104064e-05   0.54575477 0.0093338705            0    0.5364209    1.5015972    2.0473519   -1.4805771 
 5520000    0.9807928 -7.0267017e-05   0.55752527 0.0041136867            0   0.55341158    1.4638333    2.0213585   -2.8354977 
 5525000   0.97919791 -9.7800641e-05   0.54576244 0.0067515747            0   0.53901086    1.4614529    2.0072153    -4.752765 
 5530000   0.98771179 -3.2640326e-05   0.52704796  0.014975933            0   0.51207203    1.4741599    2.0012078  -0.25489152 
 5535000   0.98614072 -6.591414e-06   0.50180996  0.016273845            0   0.48553611     1.471815     1.973625    1.5180264 
 5540000     0.977953 -1.0777615e-05   0.52325923  0.010575239            0   0.51268399    1.4595949    1.9828541    1.2379054 
 5545000     1.026184 6.299555e-06   0.47084773  0.014319316            0   0.45652842    1.5315796    2.0024274    2.4378526 
 5550000   0.97404274 1.2284914e-05   0.54014828  0.017134097            0   0.52301418    1.4537588    1.9939071    2.8430403 
 5555000   0.99084588 3.4448348e-05   0.52585523   0.01614019            0   0.50971504    1.4788375    2.0046927    4.3857625 
 5560000    1.0029903 3.9995126e-05   0.52493453  0.024543057            0   0.50039147     1.496963    2.0218976    4.7863607 
 5565000    1.0165153 -1.2276055e-05     0.500684  0.027191715            0   0.47349228    1.5171491    2.0178331    1.1693121 
 5570000    1.0463364 -3.1907562e-05   0.47605169  0.020019752            0   0.45603194    1.5616571    2.0377088  -0.16774188 
 5575000    1.0052245 4.857831e-05   0.52786734  0.028989837            0   0.49887751    1.5002975    2.0281649    5.3858976 
 5580000   0.97322915 3.5938185e-05   0.54565793  0.019610103            0   0.52604783    1.4525445    1.9982024    4.4822498 
 5585000    1.0065775 2.2278481e-05    0.5009971  0.002822588            0   0.49817451    1.5023169     2.003314    3.5432027 
 5590000    1.0088893 9.9646262e-06   0.48229057 0.0046051476            0   0.47768542    1.5057672    1.9880578    2.6768128 
 5595000   0.94841938 -6.2887254e-05   0.56704884  0.003408223            0   0.56364062    1.4155159    1.9825648   -2.3642022 
 5600000    0.9526271 -3.9632202e-05   0.54986932 0.0054748355            0   0.54439448    1.4217959    1.9716653  -0.76771255 
 5605000   0.98749272 1.4718641e-06   0.50518596   0.01483173            0   0.49035423    1.4738329    1.9790188    2.0807541 
 5610000    0.9884516 -9.6939757e-06    0.4819304  0.021352823            0   0.46057758     1.475264    1.9571944    1.2871468 
 5615000   0.98035448 -5.5873845e-06   0.48540885 0.0088317716            0   0.47657708    1.4631791    1.9485879    1.5623879 
 5620000   0.98424131 1.8130601e-05   0.49059632 0.0029248985            0   0.48767142    1.4689802    1.9595765    3.2127636 
 5625000   0.94952876 -1.1817095e-05   0.52729574 0.0019895925            0   0.52530615    1.4171717    1.9444674    1.1276698 
 5630000   0.95046964 -3.2630303e-06   0.53054619  0.020595369            0   0.50995082    1.4185759    1.9491221    1.7235815 
 5635000   0.94632863 4.6760532e-05   0.52717022  0.017626881            0   0.50954334    1.4123955    1.9395657    5.1716536 
 5640000   0.98589118 1.8265454e-06    0.4770801  0.011749944            0   0.46533015    1.4714426    1.9485227    2.0747735 
 5645000    1.0002574 -1.212405e-05   0.47288888  0.019205616            0   0.45368327    1.4928842    1.9657731    1.1277587 
 5650000   0.96515472 4.6842684e-05   0.51181075  0.020776968            0   0.49103378    1.4404934    1.9523042    5.1900705 
 5655000    0.9766344 7.6362151e-06   0.51146987  0.032222582            0   0.47924728    1.4576268    1.9690967    2.4969119 
 5660000   0.99098442 3.9582831e-05   0.49413533  0.046221313            0   0.44791402    1.4790442    1.9731796    4.7091449 
 5665000   0.97409683 2.0816045e-05   0.51509282  0.025431845            0   0.48966097    1.4538395    1.9689323    3.4077374 
 5670000   0.96705204 -8.2861276e-06   0.51877932  0.024948185            0   0.49383114    1.4433252    1.9621045    1.3893674 
 5675000   0.96593397 8.6148832e-07    0.5326639  0.026068151            0   0.50659575    1.4416564    1.9743204    2.0338664 
 5680000   0.91744366 -3.7699856e-05    0.6066491  0.030220819            0   0.57642829    1.3692847    1.9759338  -0.62988028 
 5685000   0.95424703 -1.2480137e-05   0.57919357  0.014640923            0   0.56455265    1.4242137    2.0034073    1.1407802 
 5690000   0.99841974 -3.3683964e-05   0.50741838  0.016782969            0   0.49063541    1.4901415    1.9975598  -0.33067574 
 5695000   0.97281896 -4.4271108e-05   0.54063622  0.013318594            0   0.52731763    1.4519323    1.9925685   -1.0674505 
 5700000   0.94044761 -7.1169358e-06   0.61897238  0.033731605            0   0.58524078    1.4036181    2.0225904    1.5306678 
 5705000    1.0144814 -7.1248795e-05   0.49094761  0.017020321            0   0.47392729    1.5141134    2.0050611   -2.9196556 
 5710000   0.97113374 -2.5639342e-05   0.53685594  0.022085434            0   0.51477051    1.4494171    1.9862731   0.21408176 
 5715000   0.95240303 3.2213715e-05     0.556365  0.010746933            0   0.54561807    1.4214615    1.9778265    4.2044385 
 5720000    1.0087624 1.615676e-05   0.49013683  0.011276375            0   0.47886045    1.5055779    1.9957148      3.11247 
 5725000    1.0179884 -3.5395548e-05    0.4885365 0.0085376753            0   0.47999883    1.5193477    2.0078842  -0.43865609 
 5730000    1.0115142 -4.3920466e-05   0.51807417  0.010960973            0   0.50711319    1.5096849    2.0277591   -1.0080235 
 5735000    1.0036703 -5.2296887e-05   0.52743357  0.016035097            0   0.51139847     1.497978    2.0254115   -1.5893493 
 5740000     1.028747 6.6002164e-06   0.49350805  0.013420849            0    0.4800872    1.5354049    2.0289129    2.4851199 
 5745000    1.0003938 5.4922339e-05   0.53731736  0.011149438            0   0.52616792    1.4930878    2.0304052    5.8266372 
 5750000    1.0064346 2.3251507e-05   0.52247346  0.010697695            0   0.51177576    1.5021037    2.0245772    3.6317213 
 5755000   0.99308154 4.9121399e-05   0.54909086    0.0124731            0   0.53661776    1.4821742    2.0312651    5.4265361 
 5760000    1.0136003 2.9905526e-05   0.51988848 0.0080048202            0   0.51188366    1.5127985     2.032687     4.099757 
 5765000    1.0454985 -1.7027494e-05   0.47067129 0.0090590188            0   0.46161227    1.5604065    2.0310777   0.85413736 
 5770000    1.0365933 2.9058067e-05   0.51629502  0.010022979            0   0.50627204    1.5471155    2.0634105     4.071904 
 5775000   0.98771658 4.4003195e-06   0.56769422 0.0086839326            0   0.55901029     1.474167    2.0418612    2.3460113 
 5780000     1.000834 -8.486375e-05   0.54736335 0.0045100006            0   0.54285335    1.4937448    2.0411081   -3.8246743 
 5785000   0.99504912 -4.5652714e-05    0.5387036 0.0065700203            0   0.53213358    1.4851108    2.0238144   -1.1317012 
 5790000    1.0170767 6.0566736e-07   0.49886441 0.0059290777            0   0.49293533     1.517987    2.0168514    2.0587151 
 5795000   0.99728293 2.9558364e-05   0.54019653  0.023167346            0   0.51702919    1.4884448    2.0286413    4.0717154 
 5800000    1.0208756 1.9061228e-05   0.52749104  0.015393661            0   0.51209738    1.5236569    2.0511479      3.36866 
 5805000    1.0399475 6.767013e-06   0.49045454 0.0088079966            0   0.48164655    1.5521217    2.0425763    2.5103122 
 5810000    1.0199289 1.7133002e-05   0.53294868  0.004856542            0   0.52809213    1.5222439    2.0551926    3.2394257 
 5815000   0.97275429 8.4711853e-06   0.58777594 0.0046681904            0   0.58310775    1.4518358    2.0396117    2.6251401 
 5820000    1.0512057 5.0688802e-06   0.47478098  0.014570743            0   0.46021024    1.5689246    2.0437056    2.3940666 
 5825000    1.0011959 -8.2082497e-06   0.54940106  0.014536868            0    0.5348642    1.4942849     2.043686    1.4763317 
 5830000    1.0273879 1.603117e-06   0.52505379  0.010622695            0    0.5144311    1.5333764    2.0584302    2.1692376 
 5835000    1.0277278 -1.8224798e-05   0.51791302  0.027864765            0   0.49004826    1.5338838    2.0517968   0.79209878 
 5840000    1.0352232 6.2432037e-05    0.5053925  0.027874995            0   0.47751751    1.5450706    2.0504631    6.3657656 
 5845000    1.0056205 3.4911014e-05   0.54038666  0.026544456            0   0.51384221    1.5008886    2.0412752    4.4543245 
 5850000    1.0263915 2.038985e-06   0.52272585  0.014432296            0   0.50829356    1.5318893    2.0546152    2.1955498 
 5855000    1.0251555 -3.0081009e-05    0.5387021  0.039268399            0    0.4994337    1.5300446    2.0687467 -0.010452621 
 5860000   0.99610221 -1.1054415e-05    0.5741978  0.034945352            0   0.53925244    1.4866825    2.0608803    1.2967992 
 5865000     1.037241 -4.4280734e-05   0.53276306  0.015104662            0    0.5176584    1.5480822    2.0808453  -0.97983902 
 5870000    1.0236386 -0.00010117599   0.54217191 0.0089211422            0   0.53325077    1.5277807    2.0699526   -4.9233315 
 5875000    1.0216741 -1.040355e-05   0.53701417  0.022547573            0    0.5144666    1.5248486    2.0618628    1.3427694 
 5880000    1.0505901 7.3075033e-05   0.50167162 0.0076071099            0   0.49406451    1.5680057    2.0696773    7.1206236 
 5885000    1.0697162 -2.4098627e-05   0.48851001 0.0043377841            0   0.48417223    1.5965515    2.0850615   0.41936438 
 5890000   0.99978647 -5.1826632e-05   0.58092443  0.020888953            0   0.56003548    1.4921813    2.0731057    -1.509151 
 5895000    1.0470777 -1.8458318e-05   0.52008253   0.01162565            0   0.50845688    1.5627635     2.082846   0.80700702 
 5900000    1.0692677 -9.8810353e-06   0.47563433  0.013159007            0   0.46247532    1.5958821    2.0715164    1.3885392 
 5905000   0.98477836 -1.8835012e-05   0.58663181  0.022530814            0   0.56410099    1.4697817    2.0564135   0.75453747 
 5910000    1.0089773 3.0205556e-05   0.54169831  0.025019402            0    0.5166789    1.5058986    2.0475969     4.135405 
 5915000    1.0117219 1.8846702e-05   0.53695116  0.027326685            0   0.50962447     1.509995    2.0469461    3.3496302 
 5920000    1.0223281 -5.3572624e-06   0.52869853  0.014017056            0   0.51468147    1.5258247    2.0545232    1.6842292 
 5925000   0.98958833 1.6864431e-06   0.54427932  0.023582427            0    0.5206969    1.4769606    2.0212399    2.1378069 
 5930000    1.0249489 -8.6974248e-06     0.485382  0.012032633            0   0.47334936    1.5297362    2.0151182    1.4139522 
 5935000    1.0121388 -2.596214e-05   0.50309632 0.0059273542            0   0.49716897    1.5106172    2.0137135   0.21921036 
 5940000   0.95930524 3.6955508e-05    0.5673587 0.0078539579            0   0.55950474    1.4317631    1.9991218    4.5534865 
 5945000   0.97225513 6.9197275e-06   0.55740365  0.025598896            0   0.53180476    1.4510908    2.0084944     2.486786 
 5950000    1.0167068 8.8002967e-06   0.49294515  0.021745815            0   0.47119934     1.517435    2.0103801    2.6186566 
 5955000    1.0085246 -2.6766524e-05   0.51291013   0.01957286            0   0.49333727    1.5052229    2.0181331   0.16803095 
 5960000    1.0196254 1.0294384e-05   0.49197828  0.020205392            0   0.47177289     1.521791    2.0137693    2.7253171 
 5965000    0.9868973 -2.1856133e-05   0.54416629  0.016565976            0   0.52760032    1.4729442    2.0171105   0.50641462 
 5970000   0.99628727 -3.3838636e-05   0.54379859 0.0091940454            0   0.53460455    1.4869588    2.0307573  -0.30816918 
 5975000    1.0017242 3.8496538e-05   0.53076164 0.0085966353            0     0.522165    1.4950734     2.025835    4.6867157 
 5980000    1.0087925 -2.9877036e-05   0.51259694 0.0032744266            0   0.50932251    1.5056228    2.0182198 -0.046880986 
 5985000   0.98104157 -0.00010755227   0.54713538 0.0024752081            0   0.54466017    1.4642045    2.0113399   -5.4226733 
 5990000    1.0224094 3.2817956e-06   0.48878048  0.015401135            0   0.47337934     1.525946    2.0147264    2.2415641 
 5995000   0.97270144 -5.767218e-06   0.55343395  0.013571045            0   0.53986291    1.4517569    2.0051909    1.6065608 
 6000000     0.964255 -0.0001052203   0.54771775 0.0086773621            0   0.53904039    1.4391506    1.9868683   -5.2859589 
 6005000   0.99649884 -2.8534208e-05   0.49907014 0.0072940251            0   0.49177611    1.4872745    1.9863447  0.014060188 
 6010000   0.94174006 3.8971669e-05   0.56376898  0.025229003            0   0.53853998     1.405547     1.969316    4.6630378 
 6015000   0.95750734 1.7593598e-06   0.53938542  0.028781435            0   0.51060399    1.4290797    1.9684651    2.0900721 
 6020000   0.97161886 -3.2493418e-05   0.52678685  0.010444991            0   0.51634186    1.4501411     1.976928   -0.2690171 
 6025000   0.99686708 -1.8221427e-06   0.47393411 0.0032000309            0   0.47073408    1.4878241    1.9617582    1.8358117 
 6030000   0.94798485 -4.931554e-06   0.56104496   0.00682337            0   0.55422159    1.4148674    1.9759123    1.6350433 
 6035000   0.97509328 -2.6586502e-06    0.4912404  0.010415216            0   0.48082518    1.4553267    1.9465671    1.7628012 
 6040000   0.91715927 -4.3458701e-05   0.58468381  0.023847993            0   0.56083581    1.3688602     1.953544   -1.0503214 
 6045000   0.95888739 -4.2318931e-05   0.52425097   0.01370593            0   0.51054504    1.4311394    1.9553904  -0.96969414 
 6050000    1.0050641 2.4095632e-05   0.45923703  0.010140947            0   0.44909608    1.5000581    1.9592952    3.6247853 
 6055000    0.9864162 1.5257633e-05    0.4925027  0.012118725            0   0.48038397    1.4722262    1.9647289    3.0193365 
 6060000   0.97088927 -2.1869421e-05   0.53041904  0.016755131            0   0.51366391    1.4490522    1.9794713   0.46785692 
 6065000   0.94712391 3.3659849e-05   0.59238105  0.031433698            0   0.56094736    1.4135824    2.0059635    4.3325322 
 6070000   0.96597179 3.116759e-06   0.56137013  0.023232391            0   0.53813774    1.4417129     2.003083    2.2185134 
 6075000   0.96267454 2.1493065e-06   0.58484297  0.036922695            0   0.54792027    1.4367917    2.0216347    2.1701948 
 6080000   0.95285182 3.8355865e-06     0.625623  0.018211209            0    0.6074118    1.4221313    2.0477543    2.3128701 
 6085000    1.0247824 2.3458718e-05   0.52134499 0.0051365314            0   0.51620846    1.5294877    2.0508327    3.6722993 
 6090000    1.0514373 -6.4087083e-05   0.46772063 0.0076508188            0   0.46006981    1.5692702    2.0369908   -2.3927084 
 6095000   0.94772637 -0.0001245651   0.60543216  0.011051953            0   0.59438021    1.4144816    2.0199138   -6.5900261 
 6100000    1.0490789 3.5244606e-05   0.46127352 0.0046797933            0   0.45659372    1.5657503    2.0270238     4.463131 
 6105000     1.044986 -2.448711e-05   0.46405435 0.00022729144            0   0.46382706    1.5596416    2.0236959    0.3311469 
 6110000    1.0095488 -6.2670915e-06    0.5109622 0.00080711238            0   0.51015508    1.5067515    2.0177137    1.5845324 
 6115000    0.9798481 5.0821624e-05   0.55764689  0.012390702            0   0.54525619    1.4624233    2.0200702    5.5328609 
 6120000     1.017535 2.5711081e-05   0.49303499  0.025214818            0   0.46782018     1.518671     2.011706    3.7888559 
 6125000   0.98596818 -3.6081295e-05   0.53253317  0.021269897            0   0.51126327    1.4715575    2.0040907  -0.48984843 
 6130000   0.98817069 -1.5277048e-05   0.51973164  0.017485032            0   0.50224661    1.4748448    1.9945764   0.93862685 
 6135000   0.93895454 7.3971223e-06   0.60267768  0.013435751            0   0.58924193    1.4013897    2.0040673    2.5153564 
 6140000   0.97018234 -2.8980461e-05    0.5512438  0.012095598            0    0.5391482    1.4479971    1.9992409 -0.0038885289 
 6145000   0.98467685 -3.630343e-05   0.53956702  0.037777715            0   0.50178931    1.4696302    2.0091972  -0.50009584 
 6150000   0.97748181 -3.6353259e-05     0.555174  0.011124653            0   0.54404935    1.4588916    2.0140656  -0.49867168 
 6155000   0.96143717 -2.0797508e-05   0.57428286 0.0071647002            0   0.56711816     1.434945    2.0092278   0.57170406 
 6160000   0.97564659 -4.2679473e-05   0.55034354  0.006356657            0   0.54398688    1.4561525    2.0064961  -0.94350907 
 6165000    1.0041484 4.8822932e-06   0.50942338  0.012341048            0   0.49708233    1.4986915    2.0081149     2.345579 
 6170000    1.0599832 -2.8822385e-05   0.43316232 0.0074136284            0   0.42574869    1.5820249    2.0151873  0.022984025 
 6175000    1.0094403 -3.4685278e-05   0.50877097 0.0053475043            0   0.50342346    1.5065896    2.0153606  -0.38208582 
 6180000   0.95422958 1.9965898e-05    0.5888025  0.041463942            0   0.54733856    1.4241876    2.0129901     3.393033 
 6185000   0.94376992 -3.3535295e-05   0.59462962  0.029353415            0   0.56527621    1.4085766    2.0032062  -0.31475339 
 6190000   0.99904459 -7.9365575e-05   0.52041916 0.0070906817            0   0.51332848     1.491074    2.0114932   -3.4742554 
 6195000    1.0325084 -6.2624325e-05     0.474875  0.003371606            0   0.47150339    1.5410188    2.0158938   -2.3126996 
 6200000    1.0141946 4.3402142e-05   0.50557932   0.00977716            0   0.49580216    1.5136855    2.0192648    5.0192209 
 6205000   0.99088825 -1.4031149e-05   0.53544079  0.011373434            0   0.52406736    1.4789007    2.0143415    1.0445085 
 6210000    1.0067998 -4.0499642e-05   0.51165034  0.018163098            0   0.49348724    1.5026487    2.0142991  -0.78503623 
 6215000    0.9657751 -4.1572851e-05   0.56655562  0.016155403            0   0.55040022    1.4414193     2.007975  -0.86554048 
 6220000   0.97384417 -2.8526161e-06   0.56360948  0.028476265            0   0.53513321    1.4534624    2.0170719    1.8198991 
 6225000   0.96996974 5.9206713e-05   0.57712695  0.040465169            0   0.53666178    1.4476798    2.0248068    6.1171748 
 6230000    1.0031796 1.885488e-05    0.5062994  0.024445627            0   0.48185377    1.4972455    2.0035449    3.3067942 
 6235000    1.0147333 4.7671894e-05   0.48135565   0.02514314            0   0.45621251    1.5144895    1.9958452    5.2909265 
 6240000   0.96760782 4.1253497e-05   0.53884716  0.028215326            0   0.51063183    1.4441547    1.9830018    4.8344435 
 6245000   0.98505428 -3.0707626e-05   0.52956556  0.019837147            0   0.50972842    1.4701935    1.9997591  -0.12275205 
 6250000    1.0122256 6.2191814e-06   0.50344008 0.0040144659            0   0.49942561    1.5107467    2.0141867    2.4440566 
 6255000    1.0232408 6.5081872e-05   0.50677058 0.0049806867            0   0.50178989    1.5271868    2.0339574    6.5324164 
 6260000    1.0420321 6.185444e-05   0.46970894  0.013974265            0   0.45573468    1.5552329    2.0249418    6.3003207 
 6265000   0.99260881 3.6285437e-05   0.52760803  0.020817134            0    0.5067909    1.4814686    2.0090767    4.5171261 
 6270000    1.0258678 -3.3906338e-07   0.46830582  0.012973922            0    0.4553319    1.5311077    1.9994135    1.9759775 
 6275000    1.0082266 -5.9179411e-05   0.49931162  0.014740679            0   0.48457095    1.5047781    2.0040898   -2.0863911 
 6280000   0.95871697 -9.9578216e-05   0.57245382  0.018790086            0   0.55366374    1.4308851    2.0033389   -4.8795074 
 6285000   0.99714604 4.5953296e-05   0.48562255  0.027248629            0   0.45837392    1.4882405     1.973863    5.1501549 
 6290000    1.0069082 4.3490187e-05   0.46646319  0.010398661            0   0.45606453    1.5028105    1.9692737    4.9753154 
 6295000    0.9399744 -2.1446596e-05   0.56818592  0.026863174            0   0.54132274    1.4029118    1.9710977   0.48870901 
 6300000   0.96271485 1.4361266e-05   0.54438249  0.036779916            0   0.50760258    1.4368519    1.9812344    2.9738851 
 6305000   0.97330418 1.6912102e-05   0.54342083  0.030524909            0   0.51289592    1.4526565    1.9960773    3.1650418 
 6310000   0.96866921 -1.1177729e-05   0.53734502  0.017955027            0      0.51939    1.4457388    1.9830838    1.2104792 
 6315000     1.000389  3.46556e-05   0.49283627   0.01105625            0   0.48178002    1.4930805    1.9859168    4.3813119 
 6320000    0.9789357 3.268849e-05   0.50420933   0.02609111            0   0.47811822    1.4610615    1.9652709    4.2246993 
 6325000   0.97381866 1.0344424e-06    0.5106336   0.02087206            0   0.48976154    1.4534244     1.964058    2.0355586 
 6330000   0.94429857 -5.7884333e-06   0.55316722  0.021007928            0   0.53215929    1.4093656    1.9625328    1.5624363 
 6335000    1.0209886 2.0196601e-05   0.46286224 0.0092878712            0   0.45357437    1.5238255    1.9866878    3.3826768 
 6340000   0.95787687 1.0817482e-05   0.54398602  0.019998922            0   0.52398709    1.4296312    1.9736172    2.7213216 
 6345000    1.0193583 -9.2152364e-06   0.46043519  0.028984576            0   0.43145061    1.5213922    1.9818274    1.3448702 
 6350000   0.94264694 -1.8937137e-05   0.57446456  0.020750219            0   0.55371434    1.4069006    1.9813651   0.67243024 
 6355000    1.0694236 2.341338e-05   0.38193132 0.0092832374            0   0.37264808    1.5961148    1.9780461     3.596379 
 6360000      0.94554 -2.3308978e-05   0.55930979 0.0037246429            0   0.55558514    1.4112184    1.9705282   0.35941166 
 6365000   0.98534304 -5.425755e-06   0.49624939  0.010831867            0   0.48541753    1.4706245    1.9668739    1.5918457 
 6370000   0.92260404 7.7569091e-05   0.57418229  0.024444102            0   0.54973818    1.3769865    1.9511688    7.3127444 
 6375000   0.97474993 3.4922033e-05   0.49419621  0.016265788            0   0.47793043    1.4548143    1.9490105    4.3628214 
 6380000   0.95242334 3.906375e-06   0.49325619 0.0080873494            0   0.48516884    1.4214918     1.914748    2.1847567 
 6385000   0.90208284 -4.6002623e-05   0.56809927 0.0088168382            0   0.55928243    1.3463586    1.9144579   -1.2652434 
 6390000   0.99019736 -1.3122299e-05   0.43167887  0.021106031            0   0.41057284    1.4778696    1.9095484    1.0025351 
 6395000   0.95559408 -2.5407795e-05   0.48249148  0.035741727            0   0.44674975    1.4262242    1.9087156   0.15252886 
 6400000   0.94289804 -4.7017343e-05   0.47868686  0.018814299            0   0.45987256    1.4072753    1.8859622   -1.3638766 
 6405000   0.92533205 -7.9708383e-06   0.50930943  0.013996771            0   0.49531266    1.3810581    1.8903675    1.3394232 
 6410000   0.95700157 3.4276115e-05   0.44848405  0.013267162            0   0.43521689    1.4283248    1.8768089     4.245974 
 6415000   0.93436458 -4.0236699e-05   0.48463078 0.0095003088            0   0.47513047    1.3945391    1.8791699  -0.90199073 
 6420000   0.92169272 -1.1236028e-05   0.48334043  0.018924859            0   0.46441557    1.3756264    1.8589668    1.0823325 
 6425000   0.90610563 1.1046318e-05   0.49723442  0.024897035            0   0.47233739    1.3523626    1.8495971    2.6131186 
 6430000   0.89757979 -2.9762514e-05   0.50127836  0.011531608            0   0.48974675    1.3396378    1.8409162  -0.21626875 
 6435000   0.94551315 -5.4287115e-05    0.4312122  0.017672586            0   0.41353961    1.4111784    1.8423906   -1.9099348 
 6440000   0.91295507 3.1532113e-05   0.45671255  0.020332423            0   0.43638013    1.3625854     1.819298    3.9987977 
 6445000   0.91323633 1.232164e-05   0.45173637  0.015551421            0   0.43618495    1.3630052    1.8147416    2.6664133 
 6450000   0.85367016 -1.407529e-05   0.53672886 0.0093772461            0   0.52735161    1.2741027    1.8108316   0.83794755 
 6455000   0.91409542 1.4170629e-05   0.42810955 0.0091463776            0   0.41896318    1.3642874     1.792397    2.7718709 
 6460000   0.88531478 -5.0796774e-05   0.48791556   0.01096054            0   0.47695502    1.3213323    1.8092479   -1.7018252 
 6465000   0.88896903 -3.1039248e-05    0.4732838  0.010064469            0   0.46321933    1.3267863    1.8000701  -0.34536273 
 6470000   0.93558505 1.0280285e-05   0.39388153  0.014554184            0   0.37932734    1.3963607    1.7902422    2.5008155 
 6475000   0.88441893 3.2920732e-05   0.49230044  0.031257165            0   0.46104327    1.3199952    1.8122957    4.0877767 
 6480000   0.89856607 -2.498732e-05   0.47411524  0.024085525            0   0.45002972    1.3411099    1.8152251  0.088101522 
 6485000   0.87893582 1.9064585e-06   0.49735543  0.013861195            0   0.48349424    1.3118117    1.8091671    1.9409416 
 6490000   0.95408266 4.618185e-05   0.38560761  0.021274122            0   0.36433349    1.4239684     1.809576    5.0016655 
 6495000   0.89670101 7.2252596e-05   0.45707614  0.021389064            0   0.43568708    1.3383263    1.7954024    6.7895019 
 6500000   0.88875684 -1.7934689e-06   0.46160639  0.019545714            0   0.44206068    1.3264696     1.788076    1.6641114 
 6505000   0.92369815 2.7422437e-05   0.40848921  0.010416179            0   0.39807304    1.3786195    1.7871087    3.6825476 
 6510000   0.85719241 -2.6410472e-05   0.50226015  0.010840877            0   0.49141927    1.2793597    1.7816198 -0.043872034 
 6515000   0.85451739 -1.9081287e-05   0.51174439  0.018324455            0   0.49341993    1.2753672    1.7871116   0.46821304 
 6520000   0.90195056 -8.4218731e-06   0.43799569  0.016117861            0   0.42187783    1.3461612    1.7841569     1.202037 
 6525000    0.9050452 -6.5401579e-07   0.42539747 0.0070185072            0   0.41837897      1.35078    1.7761774    1.7309719 
 6530000   0.88598538 5.2083926e-05   0.47850926   0.01980022            0   0.45870904    1.3223332    1.8008424    5.4008834 
 6535000   0.88109863 1.0709885e-05   0.46652354  0.020675356            0   0.44584818    1.3150397    1.7815632    2.5218305 
 6540000   0.93494901 4.5587512e-05   0.39195701 0.0080824125            0   0.38387459    1.3954114    1.7873684    4.9383773 
 6545000   0.86119599 1.6747468e-05   0.48831873 0.0047402721            0   0.48357846     1.285335    1.7736538    2.9312387 
 6550000   0.87418521 -3.8785378e-05   0.48257463  0.007307341            0   0.47526729    1.3047214    1.7872961  -0.89354927 
 6555000   0.91920645 2.8201798e-05   0.42255889  0.017382604            0   0.40517629    1.3719156    1.7944745    3.7437828 
 6560000   0.89991243 2.0358341e-05   0.46416938  0.017865894            0   0.44630348    1.3431193    1.8072887    3.2144572 
 6565000   0.89871202 -5.2655258e-05    0.4477669 0.0048813727            0   0.44288553    1.3413277    1.7890946   -1.8504368 
 6570000   0.92521458 -6.8641885e-06   0.42932749 0.0034866467            0   0.42584085    1.3808828    1.8102102    1.3357575 
 6575000   0.90095357 4.4063742e-05    0.4682993 0.0042330266            0   0.46406628    1.3446732    1.8129725    4.8586583 
 6580000   0.92974951 1.1524087e-05   0.41528015  0.010092575            0   0.40518758    1.3876511    1.8029313    2.5994762 
 6585000   0.88777174 4.5286734e-06   0.48297566  0.023196327            0   0.45977934    1.3249993     1.807975    2.1209969 
 6590000   0.93912376 1.2198385e-05   0.41236478  0.031284216            0   0.38108056    1.4016422     1.814007    2.6571594 
 6595000   0.90322362 -2.1050223e-05   0.46743295   0.01358698            0   0.45384597    1.3480612    1.8154942   0.36050277 
 6600000   0.89623708 3.1583052e-06   0.46794936  0.017139287            0   0.45081007    1.3376338    1.8055832    2.0238853 
 6605000   0.88615731 -4.495478e-05   0.47952768  0.020299381            0    0.4592283    1.3225898    1.8021175    -1.305157 
 6610000   0.90243846 -2.7144746e-05   0.44465159  0.015896363            0   0.42875523    1.3468894     1.791541 -0.084703825 
 6615000   0.84910548 1.1328872e-05   0.51876195  0.010858836            0   0.50790312    1.2672899    1.7860519    2.5691035 
 6620000   0.89859848 -3.576592e-05   0.41841707 0.0040769954            0   0.41434007    1.3411582    1.7595753   -0.7125651 
 6625000   0.89116308 -6.4840106e-05   0.43939477 0.0048705924            0   0.43452418    1.3300609    1.7694557   -2.7122925 
 6630000   0.88688727 -3.8930957e-05    0.4182231 0.0048633629            0   0.41335973    1.3236793    1.7419024  -0.94900541 
 6635000   0.82455662 1.4637519e-06   0.52259064  0.012423217            0   0.51016742    1.2306508    1.7532414    1.8544159 
 6640000   0.87569485 -1.4781707e-05   0.43670356  0.018117188            0   0.41858638    1.3069746    1.7436781   0.72196654 
 6645000   0.84258135 -3.0470055e-06   0.48556928  0.012742442            0   0.47282683    1.2575527    1.7431219    1.5325129 
 6650000    0.8425106 -1.5239731e-05   0.50550188  0.011481906            0   0.49401997    1.2574471    1.7629489   0.70957875 
 6655000   0.87388623 2.3144759e-06    0.4606933 0.0086847192            0   0.45200859    1.3042752    1.7649685    1.9249451 
 6660000    0.8778329 -5.9254143e-06   0.47591741  0.020476277            0   0.45544113    1.3101656     1.786083    1.3765184 
 6665000   0.90203047 3.4260157e-06   0.44939534  0.020009831            0   0.42938551    1.3462805    1.7956758     2.032482 
 6670000   0.90497553 2.5150013e-06   0.45112748  0.024169271            0   0.42695821     1.350676    1.8018035    1.9756403 
 6675000   0.90450329 3.5858376e-05   0.46723701  0.019963971            0   0.44727304    1.3499712    1.8172082    4.2957391 
 6680000   0.90868997 6.9705544e-05   0.45993333  0.010209986            0   0.44972335    1.3562198    1.8161531    6.6342003 
 6685000    0.9278712 3.9295247e-05   0.45121974  0.007923321            0   0.44329641    1.3848478    1.8360675     4.552155 
 6690000   0.89830395 -5.3170619e-05   0.48397766 0.0076753165            0   0.47630234    1.3407186    1.8246963   -1.8504569 
 6695000   0.91646113 -5.8207106e-05   0.44495389   0.00414392            0   0.44080997    1.3678182    1.8127721    -2.210503 
 6700000   0.89407443 -7.1723031e-06   0.48614326 0.0052825238            0   0.48086073    1.3344061    1.8205493    1.3247997 
 6705000   0.89966544 -1.0665717e-05   0.46984909 0.0053606352            0   0.46448845    1.3427507    1.8125998    1.0753854 
 6710000   0.90245041 1.3671415e-05   0.46225652 0.0047044519            0   0.45755207    1.3469072    1.8091638     2.754132 
 6715000   0.92128505 -1.6153476e-05   0.43372847 0.0087300203            0   0.42499845    1.3750179    1.8087464   0.69221812 
 6720000    0.8461188 5.5156637e-06   0.53695555  0.011802563            0   0.52515298    1.2628323    1.7997879    2.1810305 
 6725000   0.89089846 -4.7795591e-06   0.48241468  0.015805189            0   0.46660949    1.3296659    1.8120806    1.4817175 
 6730000    0.9179015 2.3075687e-05   0.44249123  0.015447892            0   0.42704334     1.369968    1.8124592    3.4074507 
 6735000   0.90962371 1.2709107e-05   0.44301544   0.02912532            0   0.41389012    1.3576134    1.8006288    2.6790823 
 6740000   0.86777519 8.8900778e-05   0.52566771  0.022711538            0   0.50295617    1.2951545    1.8208222     7.965644 
 6745000   0.92124445 4.1122882e-05   0.44390981 0.0096957814            0   0.43421403    1.3749573    1.8188672    4.6612808 
 6750000    0.9089537 -6.5214282e-05    0.4692581  0.014057499            0    0.4552006    1.3566134    1.8258715   -2.6817397 
 6755000   0.86298837 -1.3419132e-05   0.52983438  0.022092841            0   0.50774154    1.2880101    1.8178445   0.89031413 
 6760000   0.85159188 2.850934e-05   0.55475131  0.025600439            0   0.52915088    1.2710009    1.8257522    3.7963178 
 6765000   0.90323472 0.00010064587   0.47661954 0.0076636921            0   0.46895585    1.3480778    1.8246974      8.78134 
 6770000   0.91125143 1.7365123e-05   0.45568574 0.00086900183            0   0.45481674    1.3600428    1.8157285    3.0160058 
 6775000   0.88864521 1.5598984e-05   0.46716653  0.007333502            0   0.45983303     1.326303    1.7934695    2.8716713 
 6780000   0.89170494 -2.3219936e-05   0.47856669  0.016850671            0   0.46171602    1.3308696    1.8094363   0.20447434 
 6785000   0.91830367 1.4295728e-05   0.45011132 0.0087880289            0   0.44132329    1.3705682    1.8206795    2.8088002 
 6790000   0.85345657 5.0979363e-05   0.54156813  0.012126194            0   0.52944194    1.2737839    1.8153521    5.3390456 
 6795000   0.92636646 3.372589e-05   0.42984686  0.014770196            0   0.41507666    1.3826019    1.8124488    4.1435823 
 6800000    0.8953768 -2.1994647e-05   0.48712591  0.013533291            0   0.47359262    1.3363499    1.8234758   0.30320577 
 6805000   0.92945716 3.1697613e-05   0.45470956  0.013938426            0   0.44077113    1.3872148    1.8419244    4.0328634 
 6810000     0.911313 9.5200056e-06   0.47996916    0.0156433            0   0.46432586    1.3601346    1.8401038    2.4981266 
 6815000   0.89677899 -4.903301e-06   0.50330161  0.013418879            0   0.48988273    1.3384426    1.8417442    1.5028281 
 6820000   0.94502681 -1.3277175e-05   0.44789014  0.030990851            0   0.41689929    1.4104525    1.8583427   0.94062431 
 6825000   0.90931744 -1.7076051e-05   0.51146476  0.033607995            0   0.47785676    1.3571563     1.868621   0.68832442 
 6830000   0.94542372 -4.9199903e-05   0.46984057  0.025109816            0   0.44473076    1.4110449    1.8808855   -1.5198118 
 6835000   0.93081552 2.5345888e-05   0.49065155 0.0094066978            0   0.48124485    1.3892422    1.8798937    3.6318015 
 6840000   0.94202234 -9.5724468e-06   0.44597805 0.0053395276            0   0.44063852    1.4059683    1.8519464    1.1902989 
 6845000   0.95326267 -1.4091109e-05    0.4348755 0.0063074999            0     0.428568    1.4227445      1.85762   0.88364256 
 6850000   0.95702995 7.304799e-06   0.42661103 0.0076100085            0   0.41900103    1.4283672    1.8549782    2.3598859 
 6855000   0.90871588 -1.9726646e-06   0.49883131  0.027185813            0    0.4716455    1.3562585    1.8550898    1.7187392 
 6860000    0.9373412 -4.1106478e-06   0.43870742  0.020760813            0   0.41794661    1.3989817    1.8376892    1.5535612 
 6865000   0.87895401 1.4219766e-06   0.53041624  0.054658959            0   0.47575728    1.3118389    1.8422551    1.9405421 
 6870000   0.90442667 4.2190649e-05   0.49912296  0.026977497            0   0.47214546    1.3498568    1.8489798    4.7651974 
 6875000   0.91209188 -5.7769711e-06   0.49291839  0.010924275            0   0.48199412    1.3612971    1.8542155    1.4549113 
 6880000    0.9249392 -8.9252111e-05   0.47784505 0.0092561731            0   0.46858888    1.3804718    1.8583168   -4.3107891 
 6885000   0.92998133 -6.6705625e-07   0.46099164 0.0085289872            0   0.45246265    1.3879971    1.8489888    1.8028818 
 6890000   0.96525985 6.8096148e-05   0.41586356 0.0092702753            0   0.40659328    1.4406503    1.8565139    6.5633196 
 6895000   0.93082957 -1.66271e-05   0.46568319  0.010683143            0   0.45500004    1.3892631    1.8549463   0.70568118 
 6900000   0.94725314 -1.0152941e-05   0.43129228 0.0062287629            0   0.42506351    1.4137753    1.8450676    1.1432963 
 6905000   0.92000228 -1.8442518e-07   0.48143497 0.0075343276            0   0.47390064    1.3731034    1.8545384    1.8417909 
 6910000   0.93350989 -2.6439046e-05    0.4629751  0.015047058            0   0.44792804    1.3932635    1.8562386  0.028771776 
 6915000   0.90961199 -2.3402804e-05   0.48909976  0.012527581            0   0.47657218    1.3575959    1.8466957   0.22909384 
 6920000   0.91289159 3.9789039e-05   0.49381959   0.01190834            0   0.48191125    1.3624907    1.8563103    4.6065287 
 6925000   0.93421969 -1.8306433e-05    0.4880915  0.016012041            0   0.47207946    1.3943229    1.8824144   0.61707377 
 6930000    0.9493317 4.5589173e-05   0.45773651  0.017354225            0   0.44038229    1.4168776    1.8746141    5.0257377 
 6935000   0.94793311 1.0074288e-05   0.46725034  0.013380008            0   0.45387033    1.4147902    1.8820405    2.5783753 
 6940000   0.92939332 -6.235163e-05   0.48932277 0.0033347485            0   0.48598802    1.3871195    1.8764423   -2.4333023 
 6945000   0.93186765 4.2870125e-05   0.46758971  0.015938294            0   0.45165141    1.3908125    1.8584022    4.8215852 
 6950000   0.90803057 1.4647467e-05   0.49180746  0.040989473            0   0.45081798    1.3552356    1.8470431     2.859476 
 6955000   0.91641995 2.1803459e-05   0.48832733  0.021686158            0   0.46664117    1.3677568    1.8560841    3.3631392 
 6960000   0.90099685 2.2356202e-05   0.52254494  0.009467523            0   0.51307742    1.3447378    1.8672827    3.4125434 
 6965000   0.89569819 -4.0845031e-05   0.51617029  0.018840003            0   0.49733029    1.3368295    1.8529998  -0.97020873 
 6970000   0.88926019 -5.3511839e-06   0.51938456  0.031489398            0   0.48789516    1.3272208    1.8466054    1.4767316 
 6975000   0.93617424 4.0977107e-05   0.45420211  0.011015024            0   0.44318709      1.39724    1.8514422    4.6837798 
 6980000    0.8563581 -1.5198671e-05   0.56920148  0.022512332            0   0.54668915    1.2781145    1.8473159   0.79678384 
 6985000   0.91083162 -3.1834601e-05   0.49806069 0.0088794977            0    0.4891812    1.3594162    1.8574769  -0.34293076 
 6990000   0.91138634 -2.4952746e-05   0.48717527 0.0067108715            0    0.4804644    1.3602441    1.8474194   0.12268556 
 6995000   0.96381554 -1.217105e-05   0.41158347  0.012981245            0   0.39860223    1.4384947    1.8500782    1.0088152 
 7000000   0.88466487 -1.89859e-05   0.52994064  0.030316017            0   0.49962462    1.3203623     1.850303   0.53799753 
 7005000   0.95089895 -5.7603435e-05   0.46281921 0.0054774213            0   0.45734179    1.4192167    1.8820359   -2.0995135 
 7010000   0.90591981 4.1923634e-05    0.5326299 0.0073872835            0   0.52524262    1.3520853    1.8847152    4.7824768 
 7015000   0.94355461 4.8849068e-05   0.47208118 0.0066707783            0    0.4654104    1.4082553    1.8803364     5.256784 
 7020000   0.96302093 -6.110174e-06   0.43456883  0.010321073            0   0.42424776    1.4373087    1.8718776    1.4495423 
 7025000   0.91075608 -2.1260427e-05   0.51349932  0.027335067            0   0.48616426    1.3593035    1.8728028   0.40328206 
 7030000   0.96082403 -7.7432414e-06   0.44939232  0.029862186            0   0.41953014    1.4340299    1.8834222    1.3482094 
 7035000   0.93489007 3.6347754e-05   0.50312033 0.0056016413            0   0.49751869    1.3953234    1.8984438    4.4108005 
 7040000   0.97171218 -1.116239e-05   0.44535085  0.011960164            0   0.43339068    1.4502804    1.8956313    1.1240869 
 7045000   0.91007669 -6.8589077e-05   0.52649681  0.011208461            0   0.51528835    1.3582895    1.8847863   -2.8560907 
 7050000   0.93931217 -3.7742605e-06    0.4847528  0.018397175            0   0.46635563    1.4019234    1.8866762    1.6257993 
 7055000   0.94271877 2.1163309e-05   0.46995549  0.018873926            0   0.45108157    1.4070078    1.8769633    3.3397712 
 7060000   0.94795269 1.2993887e-05   0.47244286  0.013258744            0   0.45918412    1.4148194    1.8872623    2.7853997 
 7065000   0.93160844 2.199457e-06   0.48473091  0.015425171            0   0.46930574    1.3904256    1.8751565     2.027183 
 7070000   0.91255154 -6.3766841e-05   0.51035517  0.014140223            0   0.49621495    1.3619832    1.8723383   -2.5352257 
 7075000   0.94601813 4.7002482e-06   0.46407428  0.021027809            0   0.44304647    1.4119321    1.8760063    2.2008875 
 7080000   0.93344182 8.6801753e-05   0.48452774  0.014182613            0   0.47034513    1.3931619    1.8776897    7.8774269 
 7085000   0.97690569 -1.1926372e-05   0.42673736  0.028762707            0   0.39797465    1.4580317    1.8847691    1.0604183 
 7090000   0.91117242 1.450712e-05   0.50013451  0.028032325            0   0.47210219    1.3599248    1.8600593    2.8627915 
 7095000   0.91238078 5.713216e-05   0.49237944  0.020854286            0   0.47152516    1.3617283    1.8541078    5.8030826 
 7100000    0.9093094  -1.3229e-05   0.47569892   0.01864603            0   0.45705289    1.3571443    1.8328432   0.91845472 
 7105000   0.90402756 -2.3619871e-05   0.48394323  0.012943774            0   0.47099946    1.3492611    1.8332044   0.20059889 
 7110000   0.91771645 1.3770376e-05   0.48294614   0.01645096            0   0.46649518    1.3696918    1.8526379    2.8044464 
 7115000   0.88387664 1.2641001e-05   0.52425226  0.015405269            0   0.50884699    1.3191859    1.8434381    2.7171841 
 7120000   0.90699413 -4.7651094e-06   0.48096649  0.019002038            0   0.46196445    1.3536887    1.8346552    1.5052909 
 7125000   0.84791841 1.4326442e-05   0.55109463   0.01679849            0   0.53429614    1.2655182    1.8166129    2.8068565 
 7130000   0.92655817 5.1194788e-05   0.44131831  0.015979273            0   0.42533903    1.3828881    1.8242064    5.3627901 
 7135000   0.89488335 1.7271272e-05   0.47785373  0.022942501            0   0.45491123    1.3356134    1.8134671    3.0072574 
 7140000   0.87818256 -3.1126963e-05    0.5073767   0.01617527            0   0.49120143    1.3106875    1.8180642  -0.33343154 
 7145000   0.95213391 4.9924752e-05   0.40864222 0.0080884303            0   0.40055379    1.4210599    1.8297021     5.280501 
 7150000   0.92153129 8.2653108e-05   0.44031576   0.01976904            0   0.42054672    1.3753854    1.8157012    7.5286841 
 7155000   0.92959687 -1.0781719e-05   0.44855765  0.014223617            0   0.43433403    1.3874233     1.835981    1.0907485 
 7160000   0.91464054 -1.2700809e-05   0.46498612 0.0053827819            0   0.45960334     1.365101    1.8300871   0.95220722 
 7165000   0.86356497 1.1332849e-05    0.5212935 0.0098951627            0   0.51139833    1.2888707    1.8101642    2.5934908 
 7170000   0.91594927 6.0748695e-06   0.43946568  0.017654499            0   0.42181119    1.3670543      1.80652    2.2264149 
 7175000   0.91016984 -5.4127639e-06    0.4655304  0.011185946            0   0.45434445    1.3584285    1.8239589    1.4498286 
 7180000   0.92386476 4.0581192e-05   0.47367987 0.0054356242            0   0.46824424    1.3788682     1.852548      4.65752 
 7185000   0.91291214 3.0778069e-05   0.48943482  0.013845888            0   0.47558894    1.3625214    1.8519562    3.9793363 
 7190000   0.96255622 -4.2493524e-05    0.4313758  0.023835343            0   0.40754046    1.4366152     1.867991   -1.0691614 
 7195000   0.93523202 1.0649311e-05   0.46468067  0.014335278            0   0.45034539    1.3958338    1.8605145    2.5965948 
 7200000   0.92585858 2.8195848e-05   0.49575361 0.0072511394            0   0.48850247    1.3818439    1.8775975    3.8264946 
 7205000    0.9315141 -2.5891064e-05   0.51324842 0.0040956696            0   0.50915275    1.3902848    1.9035332    0.1139429 
 7210000   0.95039731 -3.1373889e-05   0.49882053 0.0049144088            0   0.49390612     1.418468    1.9172885  -0.25127469 
 7215000   0.96562321 -2.3624486e-05   0.46767406 0.0093868444            0   0.45828721    1.4411926    1.9088667   0.27594226 
 7220000    0.9622277 3.7913741e-05   0.47747513  0.012766515            0   0.46470862    1.4361248       1.9136    4.5341977 
 7225000   0.98630452 9.5396961e-05   0.46494122  0.017780738            0   0.44716048    1.4720595    1.9370007    8.5308387 
 7230000   0.95140172 4.5179461e-05   0.49930151  0.015551074            0   0.48375044    1.4199671    1.9192686    5.0420729 
 7235000   0.99769607 -1.2813236e-05   0.42989864 0.0024493802            0   0.42744926    1.4890614      1.91896    1.0333092 
 7240000   0.95245175 8.057989e-06   0.50510066 0.0060817974            0   0.49901886    1.4215342    1.9266349    2.4836031 
 7245000   0.98336264 3.1324001e-05   0.47525452  0.016599528            0   0.45865499    1.4676687    1.9429233    4.1080382 
 7250000   0.98717089 6.9880226e-06   0.46764581  0.013416023            0   0.45422979    1.4733526    1.9409984    2.4240105 
 7255000    1.0126543 -1.6367391e-05   0.42486328 0.0063984782            0    0.4184648    1.5113866    1.9362499   0.80493579 
 7260000   0.97496076 -3.8394611e-05   0.48745718  0.013266797            0   0.47419038    1.4551289    1.9425861  -0.71124937 
 7265000   0.96616949 3.164064e-05   0.49641809 0.0042430737            0   0.49217501     1.442008     1.938426    4.1254271 
 7270000   0.96651547 8.0408897e-05   0.49309111  0.014727236            0   0.47836388    1.4425243    1.9356155    7.4934784 
 7275000   0.97038694 -2.4595881e-05   0.50311897  0.018332301            0   0.48478667    1.4483025    1.9514215   0.25135416 
 7280000   0.92705422 -6.0792128e-05   0.56235415  0.035172613            0   0.52718154    1.3836284    1.9459826   -2.2559693 
 7285000   0.96146453 -4.3935845e-05   0.51241884  0.025930261            0   0.48648858    1.4349858    1.9474047   -1.0894409 
 7290000    1.0279465 2.7940822e-06   0.42805908   0.01581491            0   0.41224417    1.5342101    1.9622692    2.1553961 
 7295000   0.96223834 4.3022646e-05   0.53696557  0.010861776            0    0.5261038    1.4361407    1.9731063    4.9468316 
 7300000   0.95308963 1.7486601e-05   0.57057318  0.039860748            0   0.53071243    1.4224863    1.9930595    3.2017333 
 7305000   0.97891162 -4.4166972e-05   0.54409094  0.017668504            0   0.52642243    1.4610256    2.0051165   -1.0477046 
 7310000   0.97906818 -8.0399869e-05   0.53456162 0.0063929585            0   0.52816866    1.4612593    1.9958209   -3.5614181 
 7315000   0.94826482 -3.7890277e-05   0.57471842  0.024139934            0   0.55057848    1.4152852    1.9900037  -0.62897228 
 7320000   0.98795161 2.1685978e-05   0.52046857  0.020962334            0   0.49950624    1.4745178    1.9949863    3.4939212 
 7325000   0.96331654 4.2035104e-05   0.56813713  0.039986465            0   0.52815066    1.4377499    2.0058871    4.9113535 
 7330000   0.99700399 2.5812381e-06   0.50588318  0.032024652            0   0.47385852    1.4880285    1.9939116    2.1723268 
 7335000    1.0051996 -8.2273518e-06   0.48370652  0.017726136            0   0.46598038    1.5002604    1.9839669    1.4152923 
 7340000   0.91283287 1.5512985e-05   0.62100516   0.01651707            0   0.60448809    1.3624031    1.9834082    3.0556657 
 7345000   0.98329736 -9.8949163e-06   0.53319257  0.036241199            0   0.49695137    1.4675713    2.0007639    1.3168273 
 7350000   0.96777746 -1.9748769e-06   0.54744333  0.017194444            0   0.53024889    1.4444079    1.9918512    1.8553477 
 7355000   0.95803816 3.1025415e-05    0.5622206  0.023947576            0   0.53827302     1.429872    1.9920926    4.1365692 
 7360000     1.017285 4.7117705e-05   0.47799396  0.025036852            0   0.45295711    1.5182979    1.9962918    5.2530676 
 7365000   0.97182524 2.7743339e-05    0.5536231  0.016823422            0   0.53679968    1.4504492    2.0040723    3.9216919 
 7370000   0.96009895 4.8064211e-05   0.57866785  0.020040734            0   0.55862711    1.4329477    2.0116155    5.3338138 
 7375000   0.99617121 1.9837236e-05   0.54371386  0.030564002            0   0.51314986    1.4867855    2.0304994    3.4016492 
 7380000   0.98424253 1.3509718e-05   0.56559297  0.014375051            0   0.55121791     1.468982    2.0345749    2.9683666 
 7385000    1.0346089 4.204741e-05   0.49089514  0.010907814            0   0.47998732    1.5441538    2.0350489    4.9413659 
 7390000    1.0067086 2.4710172e-05   0.54020078  0.011590104            0   0.52861068    1.5025125    2.0427133    3.7506804 
 7395000   0.96809298 -2.9401693e-05   0.57714502   0.01454469            0   0.56260033    1.4448788    2.0220238 -0.010221207 
 7400000   0.99269072 2.1493157e-05   0.54320069   0.02965976            0   0.51354093    1.4815909    2.0247916    3.5103986 
 7405000   0.99999503 5.0114249e-05   0.55236146  0.025543938            0   0.52681752    1.4924926     2.044854     5.508751 
 7410000    1.0362235 5.0919796e-06   0.51188049  0.012173421            0   0.49970707    1.5465636    2.0584441    2.4104018 
 7415000    1.0107496 5.0048851e-06   0.55339011  0.012016166            0   0.54137394    1.5085438    2.0619339    2.4078716 
 7420000    1.0084187 -8.3992157e-06   0.56347343 0.0089777002            0   0.55449573    1.5050649    2.0685384    1.4879846 
 7425000    1.0167115 7.9321728e-06   0.54067506 0.0045744194            0   0.53610064     1.517442     2.058117    2.6063888 
 7430000   0.98993671 2.1799065e-05   0.56334828   0.00696044            0   0.55638784    1.4774805    2.0408288    3.5475802 
 7435000    1.0027907 2.1964299e-05   0.55710299  0.011125536            0   0.54597746    1.4966651    2.0537681    3.5719405 
 7440000    1.0107545 1.2607233e-05    0.5490651    0.0180995            0    0.5309656    1.5085511    2.0576163    2.9290282 
 7445000    1.0048742 -1.6894684e-05   0.54956162  0.031908241            0   0.51765338    1.4997747    2.0493363   0.88157579 
 7450000     1.011303 2.8747629e-05   0.54488598  0.011873291            0   0.53301269    1.5093697    2.0542557    4.0412918 
 7455000    0.9724065 7.9870673e-05   0.59509818  0.012193731            0   0.58290445    1.4513167    2.0464149    7.5670758 
 7460000   0.96671955 -3.4998635e-07   0.59211133  0.020631695            0   0.57147963    1.4428289    2.0349403    2.0107492 
 7465000    0.9845584 -6.6294442e-05   0.55929511 0.0067777373            0   0.55251737    1.4694534    2.0287485   -2.5535233 
 7470000      0.95717 -2.4135428e-05   0.60449549 0.0057645179            0   0.59873097    1.4285762    2.0330717   0.36483094 
 7475000    1.0115931 -6.0121639e-06   0.52710981  0.014260422            0   0.51284939    1.5098027    2.0369125    1.6213517 
 7480000    1.0345576 1.0294175e-07   0.50888167 0.0050863048            0   0.50379536    1.5440772    2.0529588    2.0600742 
 7485000    1.0088669 -2.809505e-06   0.56610183 0.0035877743            0   0.56251405    1.5057339    2.0718357    1.8776427 
 7490000    1.0296666 6.0711393e-05   0.54313232  0.015377075            0   0.52775525    1.5367774    2.0799097    6.2762812 
 7495000    1.0200172 6.7345449e-05   0.55212861  0.026469707            0   0.52565891    1.5223756    2.0745042    6.7294217 
 7500000    1.0274695 -1.2935288e-07   0.55580446  0.016663924            0   0.53914054    1.5334983    2.0893028    2.0803619 
 7505000    1.0179339 -4.5836465e-05   0.55647548   0.03050825            0   0.52596723    1.5192663    2.0757418   -1.0924746 
 7510000    1.0128609 3.8505041e-05   0.53368192  0.039302163            0   0.49437976    1.5116949    2.0453768    4.7068453 
 7515000   0.96336225 5.2342285e-05   0.60465773  0.036258762            0   0.56839897    1.4378182    2.0424759    5.6603747 
 7520000   0.96968667 -6.8626175e-05   0.59604715  0.018083667            0   0.57796348    1.4472574    2.0433045   -2.7001367 
 7525000    1.0448422 -3.7388215e-05   0.48252482 0.0068817449            0   0.47564308     1.559427    2.0419518  -0.54232161 
 7530000   0.99702976 1.2187563e-05   0.57054519  0.010177445            0   0.56036774    1.4880669    2.0586121    2.9010165 
 7535000    1.0202301 1.0280324e-05   0.53738094 0.0097080842            0   0.52767286    1.5226934    2.0600744    2.7706503 
 7540000    1.0745961 -2.8662232e-05   0.47180648  0.009484586            0   0.46232189    1.6038347    2.0756412  0.094507693 
 7545000    1.0442424 -2.8248635e-06   0.51981262  0.011853717            0    0.5079589    1.5585318    2.0783444    1.8830898 
 7550000    1.0306876 -3.5106586e-05    0.5437477  0.011756002            0    0.5319917    1.5383013     2.082049  -0.34451829 
 7555000    1.0125767 -1.7341817e-05   0.55578234  0.019673532            0   0.53610881    1.5112708    2.0670531    0.8683867 
 7560000   0.97699836 2.5130765e-05   0.61470535 0.0088365216            0   0.60586883    1.4581701    2.0728754    3.8099139 
 7565000      1.02485 2.2299474e-05   0.54414852  0.010765007            0   0.53338352    1.5295887    2.0737372    3.6150768 
 7570000    1.0348561 -8.7719047e-06   0.51906408  0.009759959            0   0.50930412    1.5445227    2.0635868    1.4572728 
 7575000   0.98595425 -2.449663e-05   0.57953272  0.017432303            0   0.56210042    1.4715367    2.0510694   0.35786234 
 7580000    1.0076983 -2.0704859e-05   0.54952452  0.018227301            0   0.53129722    1.5039898    2.0535143   0.62239444 
 7585000    1.0001488 5.2229786e-05   0.55743764 0.0098457127            0   0.54759192    1.4927221    2.0501598    5.6602826 
 7590000    1.0120211 4.7861836e-05   0.52888696 0.0033963241            0   0.52549063    1.5104415    2.0393285    5.3475386 
 7595000    1.0661292 -1.5392984e-05   0.47108986 0.0016796143            0   0.46941024    1.5911978    2.0622876    0.9983246 
 7600000    1.0263739 -4.3132027e-07   0.50379141 0.0064115251            0   0.49737989     1.531863    2.0356544    2.0058416 
 7605000   0.97801669 -2.4138585e-05   0.59817181  0.019827551            0   0.57834426    1.4596899    2.0578617   0.38940275 
 7610000   0.97949767 -6.3846946e-05   0.59564515  0.012043764            0   0.58360139    1.4619003    2.0575454   -2.3555555 
 7615000    1.0179078 -1.6479287e-05   0.53925112 0.0061423001            0   0.53310882    1.5192274    2.0584785   0.91943012 
 7620000    1.0114356 5.6064314e-05   0.54265606 0.0063184009            0   0.53633765    1.5095676    2.0522236     5.927389 
 7625000    1.0073429 -9.2518377e-06   0.53239254   0.01551777            0   0.51687477    1.5034593    2.0358518    1.3963648 
 7630000   0.98310457 -9.1348593e-05   0.55615661  0.034367162            0   0.52178944    1.4672836    2.0234402   -4.2905746 
 7635000    1.0167288 2.7343472e-06   0.51991054  0.011916371            0   0.50799417    1.5174677    2.0373783    2.2263763 
 7640000    1.0285293 -2.9409247e-05   0.51130806 0.0079337448            0   0.50337432      1.53508     2.046388  0.013620902 
 7645000   0.99441183 -5.1217264e-05   0.56292716  0.013361362            0    0.5495658    1.4841597    2.0470868   -1.4930505 
 7650000   0.97848553 3.0236384e-05   0.61245883  0.020748709            0   0.59171012    1.4603896    2.0728485    4.1627873 
 7655000    1.0614688 -4.9048038e-06   0.50154158    0.0247723            0   0.47676928    1.5842422    2.0857838    1.7467638 
 7660000    1.0272276 -5.8308498e-05   0.54151478  0.012231393            0   0.52928339    1.5331372     2.074652   -1.9556315 
 7665000     1.034941 1.0944596e-06   0.51465613  0.016453814            0   0.49820231    1.5446494    2.0593055    2.1349546 
 7670000    1.0596198 2.9826707e-05   0.47308699  0.010707405            0   0.46237959    1.5814826    2.0545696    4.1161916 
 7675000    0.9977638 -2.9498728e-05    0.5554078  0.017653885            0   0.53775391    1.4891625    2.0445703 0.0056181717 
 7680000    1.0254386 5.5555535e-05   0.50125953  0.022957182            0   0.47830235    1.5304671    2.0317266    5.8717252 
 7685000   0.97828726 5.4224363e-05   0.58142441  0.011641442            0   0.56978296    1.4600937    2.0415181    5.7895061 
 7690000    1.0579265 -1.7484719e-05    0.4726361  0.014926885            0   0.45770922    1.5789553    2.0515914    0.8430476 
 7695000      1.02154 -9.6005068e-06   0.51662461  0.019852678            0   0.49677193    1.5246485    2.0412731    1.3776861 
 7700000    1.0387313 -2.0342313e-05    0.4846165  0.024912138            0   0.45970436    1.5503065     2.034923    0.6288623 
 7705000    1.0276112 -8.3869705e-06   0.49473877  0.019738127            0   0.47500064    1.5337097    2.0284485    1.4487411 
 7710000    1.0240123 4.8232649e-05   0.52431514  0.019456541            0    0.5048586    1.5283383    2.0526534    5.3864941 
 7715000    1.0554019 -5.4799561e-06   0.47900886 0.0075971827            0   0.47141168    1.5751874    2.0541962    1.6754217 
 7720000    1.0339843 -7.177667e-06   0.53083162 0.0080147874            0   0.52281683    1.5432216    2.0740532    1.5779329 
 7725000     1.042272 2.5392961e-05   0.50480839  0.026350641            0   0.47845775    1.5555909    2.0603993    3.8155607 
 7730000    1.0232666 -1.2081993e-05     0.543492 0.0076893703            0   0.53580263    1.5272254    2.0707174    1.2356101 
 7735000    1.0239506 4.0970716e-05    0.5042689  0.026151061            0   0.47811784    1.5282463    2.0325152    4.8644111 
 7740000    1.0091319 1.1495349e-05   0.53263307  0.027658467            0    0.5049746    1.5061294    2.0387625     2.833321 
 7745000    1.0285047 3.8307256e-05   0.51325911  0.027341955            0   0.48591716    1.5350433    2.0483024    4.6960999 
 7750000    1.0466975 -1.0669256e-06   0.50350356  0.014412276            0   0.48909128     1.562196    2.0656996    1.9919537 
 7755000    1.0382843 -0.00010987173   0.51522242 0.0060134306            0   0.50920899    1.5496394    2.0648618    -5.529472 
 7760000    1.0085404 -2.9899861e-05   0.55736344  0.013577017            0   0.54378643    1.5052465    2.0626099 -0.0040684612 
 7765000    1.0123331 6.9424211e-05   0.56080109  0.021039257            0   0.53976183    1.5109072    2.0717083    6.8703098 
 7770000    1.0463904 7.3783922e-06   0.51024596  0.028733509            0   0.48151245    1.5617377    2.0719837    2.5819781 
 7775000   0.99350801 8.9022053e-06   0.58254797  0.015054807            0   0.56749316    1.4828107    2.0653587    2.6806791 
 7780000    1.0134786 8.6074093e-06   0.55001727 0.0069612491            0   0.54305602    1.5126168    2.0626341    2.6575782 
 7785000    1.0884851 -6.4044091e-06    0.4346665 0.0061130259            0   0.42855347    1.6245641    2.0592306    1.6165578 
 7790000    1.0192388 -2.6201067e-05   0.53187964   0.01796685            0   0.51391279    1.5212138    2.0530935   0.24207572 
 7795000   0.98419325 1.8050728e-05   0.58607576  0.014685644            0   0.57139011    1.4689084    2.0549842    3.3026505 
 7800000    1.0190507 -9.7911985e-06   0.54782499  0.010758923            0   0.53706607    1.5209332    2.0687582    1.3919906 
 7805000    1.0513358 -2.7182328e-05   0.51124782  0.017886941            0   0.49336088    1.5691187    2.0803665   0.20152396 
 7810000    1.0463053 2.5545328e-05   0.51881119  0.012509851            0   0.50630134    1.5616106    2.0804218    3.8461149 
 7815000    1.0616654 -8.8392592e-06   0.49506453  0.023002238            0    0.4720623    1.5845356    2.0796001    1.4686305 
 7820000   0.98337646 -1.4480326e-05     0.604067   0.03980194            0   0.56426506    1.4676894    2.0717564    1.0708762 
 7825000   0.99843334 -5.7958978e-06   0.57599658  0.025587576            0     0.550409    1.4901618    2.0661583    1.6655459 
 7830000    1.0988208 1.0485359e-05   0.44408187  0.015263568            0   0.42881831      1.63999    2.0840719    2.8088199 
 7835000    1.0274122 -2.3119276e-05   0.52700507  0.014831541            0   0.51217353    1.5334128    2.0604178   0.46241344 
 7840000    1.0227981 3.6819825e-06   0.52168469  0.014050387            0    0.5076343    1.5265262    2.0482109    2.3027095 
 7845000    1.0215684 3.3667123e-05   0.52145163  0.024066937            0    0.4973847    1.5246908    2.0461425     4.373214 
 7850000    1.0183388 -4.876395e-05   0.49556467  0.012633145            0   0.48293152    1.5198707    2.0154354   -1.3551288 
 7855000    1.0559208 -2.3657063e-05   0.43621393  0.012124225            0    0.4240897    1.5759618    2.0121757   0.37699951 
 7860000   0.99651755 -3.3840337e-05   0.53927215  0.025400963            0   0.51387119    1.4873024    2.0265746  -0.31246952 
 7865000    1.0330846 -2.2545847e-05   0.49403232  0.015931356            0   0.47810096    1.5418788    2.0359111   0.47754221 
 7870000    1.0346155 1.9319034e-05   0.46984056  0.021773616            0   0.44806695    1.5441637    2.0140043    3.3493359 
 7875000     1.055411 2.3327273e-05    0.4404229  0.020895649            0   0.41952725     1.575201    2.0156239     3.628005 
 7880000    1.0209351 3.968608e-05   0.49888888  0.015829337            0   0.48305954    1.5237456    2.0226345    4.7657363 
 7885000    1.0408767 7.5136957e-06    0.4824518   0.01599695            0   0.46645485    1.5535084    2.0359602    2.5553069 
 7890000    1.0125425 -4.0680966e-06   0.51335116  0.022166262            0   0.49118489    1.5112197    2.0245709     1.743384 
 7895000   0.99133729 -2.0302249e-05   0.54038735  0.012774304            0   0.52761305    1.4795709    2.0199583   0.61666678 
 7900000    1.0312491 -3.6648723e-05   0.48472395  0.016681886            0   0.46804207    1.5391393    2.0238633   -0.5092965 
 7905000    1.0209152 -1.8686956e-05   0.50168686  0.023236118            0   0.47845075    1.5237159    2.0254028   0.73376044 
 7910000   0.99986829 -1.4493802e-05   0.54190518  0.039631392            0   0.50227379    1.4923034    2.0342086     1.032397 
 7915000    1.0396501 -1.7087898e-05   0.50971421  0.017045994            0   0.49266822    1.5516778    2.0613921   0.88027653 
 7920000    1.0697115 5.9751857e-05   0.49031725  0.021150053            0   0.46916719    1.5965444    2.0868616      6.21691 
 7925000    1.0161441 8.2125231e-06   0.57171126  0.020011557            0   0.55169971    1.5165951    2.0883064     2.655956 
 7930000    1.0799935 -3.7224936e-05   0.47877914  0.016939063            0   0.46184008    1.6118903    2.0906694  -0.48231813 
 7935000    1.0276057 -6.2341267e-05   0.55217869  0.020981412            0   0.53119728    1.5337014    2.0858801   -2.2231482 
 7940000    1.0127207 -1.1676894e-05    0.5926721  0.037212351            0   0.55545975    1.5114857    2.1041578    1.2970508 
 7945000    1.0410052 2.6632647e-06   0.54592565   0.03104501            0   0.51488064    1.5537002    2.0996258    2.2837107 
 7950000    1.0215682 1.424663e-05   0.55560087  0.014809772            0   0.54079109    1.5246905    2.0802914    3.0650184 
 7955000    1.0621614 3.5769365e-07     0.503985   0.01357816            0   0.49040684    1.5852759    2.0892609    2.1139847 
 7960000    1.0140243 -1.0651302e-05   0.56583861 0.0069019071            0    0.5589367    1.5134313    2.0792699    1.3430519 
 7965000    1.0556494 -2.3699005e-05   0.51129846  0.010680588            0   0.50061787    1.5755567    2.0868552   0.44877994 
 7970000    1.0785911 2.6762891e-05   0.47048252   0.01578284            0   0.45469968    1.6097972    2.0802797    3.9301307 
 7975000    1.0042248 -2.4119866e-05   0.55330915  0.042657747            0    0.5106514    1.4988055    2.0521146   0.38494948 
 7980000    1.0252328 -2.8353748e-05   0.51392902  0.032727225            0    0.4812018      1.53016     2.044089  0.084277909 
 7985000    1.0146861 5.8369478e-06   0.51988841  0.022601985            0   0.49728642     1.514419    2.0343074    2.4377572 
 7990000    1.0214382 -3.7379402e-05   0.50566531  0.026210612            0    0.4794547    1.5244965    2.0301618   -0.5535025 
 7995000    1.0001568 2.2232492e-06   0.54592264  0.011245854            0   0.53467678    1.4927341    2.0386567    2.1923277 
 8000000    1.0382061 -5.9603035e-05   0.48150704  0.007149704            0   0.47435734    1.5495226    2.0310297   -2.0887321 
 8005000    1.0148377 -7.6076463e-05   0.50044399 0.0073137106            0   0.49313028    1.5146452    2.0150892   -3.2433159 
 8010000    1.0264266 1.5927249e-05   0.47166557 0.0056499827            0   0.46601558    1.5319418    2.0036073    3.1044988 
 8015000    1.0261577 -1.6202794e-05   0.45649036 0.0053234912            0   0.45116687    1.5315404    1.9880307    0.8680936 
 8020000    1.0303614 -1.8037002e-05    0.4488985 0.0046465993            0    0.4442519    1.5378144     1.986713   0.73999538 
 8025000   0.98400775 -5.924732e-06   0.52282896 0.0097986547            0    0.5130303    1.4686316    1.9914605    1.5819431 
 8030000    1.0255353 4.4189812e-06   0.48710973  0.019817417            0   0.46729231    1.5306115    2.0177212    2.3231612 
 8035000   0.96477981 -2.0499557e-05   0.55733197   0.04928701            0   0.50804496    1.4399339    1.9972658   0.58033646 
 8040000   0.98642855 5.9167396e-06   0.55097783  0.015341429            0    0.5356364    1.4722446    2.0232224    2.4321875 
 8045000    1.0739436 2.0411663e-05   0.42223687 0.0044678282            0   0.41776905    1.6028608    2.0250977    3.4359518 
 8050000    1.0254417 3.6981394e-05   0.49361329 0.0042055271            0   0.48940777    1.5304717     2.024085     4.580239 
 8055000    1.0210449 -6.9903522e-06   0.50991693 0.0046868506            0   0.50523008    1.5239095    2.0338265    1.5506533 
 8060000   0.95511471 -0.00011573557   0.61268611  0.017441757            0   0.59524436    1.4255087    2.0381948   -5.9614478 
 8065000    1.0370514 -1.1647539e-05   0.49593027  0.016685496            0   0.47924477    1.5477993    2.0437295    1.2386517 
 8070000   0.99338468 -4.1029818e-05    0.5675671  0.015006078            0   0.55256102    1.4826266    2.0501937   -0.7857873 
 8075000    1.0642809 1.9386926e-06   0.45742481 0.0095431218            0   0.44788169    1.5884392     2.045864    2.1798665 
 8080000    1.0461052 2.908925e-05   0.47358489  0.010328121            0   0.46325677     1.561312    2.0348969    4.0455458 
 8085000    1.0138288 1.1216294e-06   0.52286945  0.012475383            0   0.51039407    1.5131395     2.036009     2.113536 
 8090000      1.01021 -3.2721783e-05    0.5128007  0.011099437            0   0.50170127    1.5077384    2.0205391  -0.24119058 
 8095000    1.0225765 -5.405676e-05   0.50732168  0.010324717            0   0.49699696    1.5261954    2.0335171   -1.7028862 
 8100000    1.0414716 3.9001249e-06    0.5108538  0.015937825            0   0.49491598    1.5543964    2.0652502    2.3348269 
 8105000    1.0288945 5.4704946e-05   0.52996412  0.024633917            0    0.5053302     1.535625    2.0655892     5.846795 
 8110000    1.0664365 8.2233894e-06   0.46742434  0.022058932            0    0.4453654    1.5916565    2.0590809    2.6274815 
 8115000    1.0270873 2.8178901e-06   0.51756371  0.028682191            0   0.48888151    1.5329278    2.0504915    2.2452641 
 8120000    1.0154263 1.6718064e-05   0.51206471  0.022039324            0   0.49002538    1.5155237    2.0275884     3.183141 
 8125000    1.0131317 -3.5172183e-05   0.49179703  0.022456612            0   0.46934041    1.5120991    2.0038961  -0.42720512 
 8130000    1.0108668 -3.0303661e-05   0.48773622  0.019587969            0   0.46814826    1.5087187    1.9964549 -0.098134165 
 8135000    1.0270169 -7.0978002e-08   0.47120691  0.017613865            0   0.45359304    1.5328227    2.0040296    1.9991236 
 8140000   0.98713796 -2.3306156e-06   0.52959139   0.02171776            0   0.50787363    1.4733034    2.0028948    1.8418026 
 8145000   0.99197956 6.0438496e-05   0.50627352  0.032364231            0   0.47390929    1.4805295     1.986803    6.1643118 
 8150000   0.99278053 5.1741844e-06    0.5223752  0.012473101            0    0.5099021    1.4817249    2.0041001    2.3617398 
 8155000    1.0129469 2.6913963e-05   0.50984936 0.0069764794            0   0.50287288    1.5118232    2.0216726    3.8819657 
 8160000    1.0443796 5.6292575e-05   0.45698517  0.013438011            0   0.44354716    1.5587365    2.0157217    5.9066645 
 8165000    1.0150477 3.7036907e-05   0.50274003  0.013557629            0    0.4891824    1.5149586    2.0176987    4.5776897 
 8170000    1.0051363 7.3154167e-06   0.51605777  0.014759093            0   0.50129868    1.5001659    2.0162237    2.5218653 
 8175000    1.0137094 8.5795006e-06   0.50245137    0.0237369            0   0.47871447    1.5129613    2.0154127    2.6084277 
 8180000    1.0282507 3.1837741e-05   0.49201997   0.01644546            0   0.47557451    1.5346641    2.0266841    4.2273088 
 8185000    1.0780976 -1.0847768e-05    0.4182087 0.0041176891            0   0.41409101    1.6090606    2.0272693    1.2774715 
 8190000    1.0465838 -9.5303845e-05   0.47267594  0.012623134            0   0.46005281    1.5620263    2.0347022   -4.5526995 
 8195000   0.96707841 -2.9446245e-05   0.57244459  0.026119013            0   0.54632558    1.4433645    2.0158091 -0.019515309 
 8200000   0.97507311 -3.3324413e-05   0.56249086  0.015424285            0   0.54706658    1.4552966    2.0177875  -0.28559592 
 8205000    1.0057804 -5.3337097e-05   0.52510963 0.0076868362            0   0.51742279    1.5011272    2.0262369   -1.6604233 
 8210000    1.0415381 -1.6289562e-05   0.45285598 0.0052393729            0   0.44761661    1.5544957    2.0073516    0.8814171 
 8215000    1.0040516 9.3791929e-07   0.52534966 0.0082607494            0   0.51708891     1.498547    2.0238967    2.0887256 
 8220000   0.99619328 1.7698272e-05   0.52114954 0.0080542542            0   0.51309529    1.4868185     2.007968    3.2312726 
 8225000    1.0298591 6.4827748e-06   0.46915487  0.010720223            0   0.45843464    1.5370648    2.0062196     2.454309 
 8230000    1.0308966 -3.0128926e-05   0.45855798  0.019299799            0   0.43925818    1.5386131    1.9971711 -0.085340261 
 8235000   0.97647062 2.2676434e-05   0.54769945 0.0074324987            0   0.54026695    1.4573824    2.0050818     3.572477 
 8240000   0.99938848 3.4790121e-05   0.49901645 0.0089641123            0   0.49005233    1.4915873    1.9906038    4.3952969 
 8245000    1.0460359 -3.7082736e-06   0.44053592  0.018535402            0   0.42200052    1.5612086    2.0017445    1.7454286 
 8250000   0.97596493 -6.5087553e-05   0.52663771  0.023118009            0    0.5035197    1.4566277    1.9832654   -2.5155863 
 8255000   0.97265594 -4.480456e-05    0.5266179  0.014953629            0   0.51166428     1.451689    1.9783069   -1.1185843 
 8260000   0.98755012 -1.3721939e-07   0.49811976  0.026997465            0   0.47112229    1.4739186    1.9720383    1.9625537 
 8265000    1.0025819 1.3943794e-05   0.47472678  0.033375036            0   0.44135174    1.4963535    1.9710803    2.9348753 
 8270000    0.9694416 1.4679638e-05   0.51610271  0.018601331            0   0.49750138    1.4468916    1.9629943    2.9776509 
 8275000    1.0175045 6.1992463e-05   0.44759472  0.023748751            0   0.42384597    1.5186255    1.9662202    6.2511393 
 8280000   0.97382589 5.9510698e-05   0.49457968 0.0055412222            0   0.48903846    1.4534351    1.9480148    6.0613943 
 8285000   0.98500534 -9.6758841e-06   0.47384337  0.017843574            0   0.45599979    1.4701205    1.9439638    1.2751667 
 8290000   0.99453553 -3.362642e-05   0.46652048  0.026087363            0   0.44043312    1.4843443    1.9508648  -0.37339337 
 8295000   0.99070914 -6.6181319e-05   0.45617943  0.013538453            0   0.44264098    1.4786334    1.9348128     -2.63964 
 8300000   0.94961242 -2.8291235e-05   0.51703382  0.010800128            0   0.50623369    1.4172965    1.9343304 -0.021159795 
 8305000   0.98722365 3.5309268e-05   0.48534946  0.024270501            0   0.46107896    1.4734313    1.9587808    4.3993574 
 8310000    1.0038017 -1.8408981e-05   0.48712842  0.016177104            0   0.47095132     1.498174    1.9853024   0.71287367 
 8315000     1.027627 -3.119861e-05    0.4641801  0.013282184            0   0.45089792    1.5337333    1.9979134  -0.15853446 
 8320000    1.0271603 -1.077471e-05   0.47105692  0.017281295            0   0.45377563    1.5330368    2.0040937    1.2593457 
 8325000   0.97115782 1.7883224e-05   0.53251371   0.01933495            0   0.51317876     1.449453    1.9819668    3.2180552 
 8330000   0.99534364 -4.3060779e-06   0.48704226  0.020129366            0    0.4669129    1.4855504    1.9725926    1.6749565 
 8335000    1.0048144 -5.0368931e-05   0.44948103   0.01025781            0   0.43922322    1.4996855    1.9491665    -1.532334 
 8340000    0.9838312 -2.9273686e-05   0.48534566  0.021766517            0   0.46357915    1.4683681    1.9537137 -0.069683427 
 8345000    1.0277916 -6.7092209e-06   0.43589585  0.014757532            0   0.42113831     1.533979    1.9698749    1.5061335 
 8350000   0.95522092 9.906948e-06   0.53041497  0.013608899            0   0.51680607    1.4256672    1.9560822    2.6408504 
 8355000   0.98779068 7.2490465e-05   0.49319622   0.02008465            0   0.47311157    1.4742776    1.9674738    6.9780148 
 8360000    1.0202695 -6.9541045e-06   0.45665429 0.0056163446            0   0.45103794    1.5227522    1.9794065    1.4987388 
 8365000     1.069717 -2.266757e-05   0.37669319  0.017434698            0   0.35925849    1.5965526    1.9732458   0.40646336 
 8370000    1.0231238 3.8875955e-05   0.44997213  0.018877195            0   0.43109493    1.5270122    1.9769843    4.6640903 
 8375000    0.9388769 -2.3821598e-05   0.55295222  0.031831202            0   0.52112102    1.4012738     1.954226   0.30767713 
 8380000   0.99141689 -1.4860549e-05   0.48851652  0.034826381            0   0.45369014    1.4796897    1.9682062   0.94104509 
 8385000   0.97958643 -2.7546569e-05   0.49626898   0.03002282            0   0.46624616    1.4620328    1.9583017  0.054282905 
 8390000    1.0196451 3.5071353e-05   0.44104777  0.021874257            0   0.41917351    1.5218203     1.962868        4.387 
 8395000   0.99430653 -2.2006406e-05   0.46021918  0.024375758            0   0.43584342    1.4840025    1.9442217    0.4231389 
 8400000   0.99004279 2.2880637e-05   0.46495596  0.018248151            0   0.44670781    1.4776389    1.9425948    3.5241044 
 8405000    1.0138555 7.8833707e-05   0.42648256 0.0086578053            0   0.41782475    1.5131794    1.9396619    7.3886478 
 8410000   0.99687542 7.3269727e-07   0.44169925  0.017103283            0   0.42459597    1.4878366    1.9295358    1.9801798 
 8415000   0.97128592 -4.2576294e-06   0.48731966  0.024033272            0   0.46328638    1.4496442    1.9369639    1.6426765 
 8420000    0.9741628 1.6174179e-05   0.47734397  0.032040448            0   0.44530353     1.453938     1.931282    3.0492412 
 8425000   0.98381984 1.7930257e-05   0.47531584   0.04379531            0   0.43152053    1.4683511    1.9436669    3.1830063 
 8430000   0.96968722 -4.9971616e-05   0.48697334  0.021382412            0   0.46559093    1.4472582    1.9342315   -1.5198066 
 8435000   0.97054862 -5.0895962e-05   0.46668302   0.01280021            0   0.45388281    1.4485438    1.9152268    -1.602702 
 8440000   0.97331196 -3.3199095e-05    0.4806141 0.0087372819            0   0.47187681    1.4526681    1.9332822  -0.36143922 
 8445000   0.96797127 -2.6600692e-05   0.49336531  0.024440504            0   0.46892481    1.4446971    1.9380624  0.099422619 
 8450000    1.0020116 -1.546954e-05   0.43893023  0.031417361            0   0.40751287    1.4955022    1.9344325   0.86517785 
 8455000    1.0014416 -1.8547023e-05   0.43620297  0.013131133            0   0.42307184    1.4946516    1.9308546   0.64888438 
 8460000    1.0043986 -1.7705393e-05   0.43770957 0.0077676267            0   0.42994194    1.4990649    1.9367745   0.71297768 
 8465000    1.0029208 -4.1885038e-05   0.45617451  0.028211184            0   0.42796332    1.4968593    1.9530338  -0.94206003 
 8470000    1.0256554 2.0700251e-05   0.43819115  0.019868588            0   0.41832256    1.5307906    1.9689818    3.3997831 
 8475000    1.0339108 7.6734998e-06   0.43374216  0.019173194            0   0.41456896    1.5431119     1.976854    2.5072463 
 8480000    1.0390216 2.359883e-05   0.42022329  0.017408151            0   0.40281514    1.5507397     1.970963    3.6021141 
 8485000     0.984909 4.107232e-05   0.48696901  0.028066861            0   0.45890215    1.4699767    1.9569457    4.7958645 
 8490000   0.92873516 4.2076465e-05   0.54868464  0.029526889            0   0.51915775    1.3861372    1.9348219    4.8431471 
 8495000   0.96374233 3.5710967e-06   0.49355564  0.013121885            0   0.48043375    1.4383854    1.9319411    2.1787753 
 8500000    1.0098765 -1.0532197e-06   0.41101202    0.0131448            0   0.39786722    1.5072407    1.9182527    1.8454541 
 8505000   0.97286915 4.9778965e-05   0.47756995  0.030960475            0   0.44660948    1.4520072    1.9295772    5.3702992 
 8510000   0.97203942 -2.0501422e-05   0.46390615  0.017600306            0   0.44630584    1.4507688     1.914675   0.49761668 
 8515000   0.96435176 2.6136822e-05   0.46603858 0.0027407101            0   0.46329787     1.439295    1.9053336    3.7119107 
 8520000   0.98978768 7.9927033e-05   0.44788756 0.00022816394            0   0.44765939    1.4772581    1.9251457    7.4497022 
 8525000   0.98798176 -4.4246837e-06   0.46905806 0.00063193995            0   0.46842612    1.4745628    1.9436208    1.6377867 
 8530000    0.9507927 -1.105495e-05   0.50560806  0.016148738            0   0.48945932    1.4190581    1.9246662     1.160548 
 8535000   0.96513868 -2.5716849e-05   0.49554737 0.0099029241            0   0.48564444    1.4404695    1.9360169   0.15846825 
 8540000    1.0152242 2.9769464e-06   0.44405178 0.0093114991            0   0.43474028    1.5152222    1.9592739    2.1650405 
 8545000   0.97588337 5.8355454e-05   0.48388384  0.014903674            0   0.46898017    1.4565059    1.9403898    5.9739188 
 8550000   0.96766156 -1.0232238e-06   0.48824163  0.020213676            0   0.46802795    1.4442349    1.9324765    1.8617513 
 8555000   0.98599061 -4.2458446e-05   0.47030161  0.015473896            0   0.45482771     1.471591    1.9418926   -0.9928352 
 8560000    0.9700092 1.1737045e-05   0.48586252  0.010883794            0   0.47497873    1.4477387    1.9336012    2.7448658 
 8565000    1.0458831 2.2558019e-05    0.3985937  0.014569863            0   0.38402384    1.5609805    1.9595742    3.5187845 
 8570000   0.97583223 -2.1175012e-05   0.50167755   0.03015574            0   0.47152181    1.4564296    1.9581071   0.49449031 
 8575000    1.0166608 -3.6548475e-05   0.42926554  0.015690571            0   0.41357497    1.5173663    1.9466319  -0.57959875 
 8580000   0.99538889 -4.8486764e-05   0.46002474  0.024561809            0   0.43546293    1.4856179    1.9456427   -1.4057625 
 8585000   0.97316137 -1.8380815e-05    0.4830174  0.030375386            0   0.45264201    1.4524433    1.9354607   0.66497881 
 8590000   0.97508359 4.0381038e-05   0.49147052  0.013793692            0   0.47767683    1.4553123    1.9467828    4.7379201 
 8595000   0.95796494 7.3189755e-06   0.50232839  0.014737248            0   0.48759114    1.4297627    1.9320911    2.4379786 
 8600000   0.99320385 3.015101e-05   0.45298179  0.023677528            0   0.42930426    1.4823567    1.9353385    4.0193763 
 8605000   0.97845759 8.1072534e-05   0.49594703  0.032122964            0   0.46382407    1.4603479     1.956295    7.5600285 
 8610000     1.007499 -2.9377553e-05   0.46654546  0.022536208            0   0.44400925    1.5036923    1.9702377 -0.060338757 
 8615000   0.97126165 -4.4662538e-05   0.51236348  0.017539865            0   0.49482361     1.449608    1.9619715   -1.1251031 
 8620000    1.0396459 -1.2238255e-05   0.43207481  0.023138704            0   0.40893611    1.5516715    1.9837463    1.1378382 
 8625000   0.99987903 -3.67273e-05   0.49791224  0.021468522            0   0.47644372    1.4923194    1.9902317   -0.5483593 
 8630000    1.0089495 -1.3657894e-05   0.48118875  0.018083822            0   0.46310493    1.5058571    1.9870458    1.0430122 
 8635000     1.023563 2.9154785e-06   0.44967279  0.032998565            0   0.41667422    1.5276677    1.9773405    2.1788584 
 8640000    1.0069581 4.237932e-05   0.47443461  0.017869258            0   0.45656535    1.5028849    1.9773195    4.9065781 
 8645000    1.0543568 4.0154022e-05   0.41897054 0.0090681413            0    0.4099024    1.5736275     1.992598    4.7680441 
 8650000   0.98331011 -5.8689794e-06   0.52457374  0.019718648            0    0.5048551    1.4675903    1.9921641    1.5865002 
 8655000    1.0010493 2.2674435e-05   0.48754795  0.035642885            0   0.45190506    1.4940661     1.981614    3.5488709 
 8660000    1.0146348 4.7066686e-06   0.48114276  0.041172282            0   0.43997048    1.5143425    1.9954853    2.3208102 
 8665000    1.0108066 -2.6760831e-07   0.50034444  0.013328834            0    0.4870156    1.5086288    2.0089732    1.9904762 
 8670000    1.0528793 7.4641187e-06   0.44265395 0.0049124783            0   0.43774147    1.5714223    2.0140763    2.5299962 
 8675000    1.0017285 -1.1812339e-05   0.50402216  0.011892198            0   0.49212997    1.4950798     1.999102    1.1826331 
 8680000    1.0097043 8.6500772e-07   0.48624381 0.0052361417            0   0.48100766    1.5069837    1.9932275    2.0530168 
 8685000    1.0338436 -3.6078002e-05   0.45840707 0.00041082127            0   0.45799625    1.5430116    2.0014187   -0.4922928 
 8690000    1.0159881 3.2253057e-05   0.48901147 0.0016865495            0   0.48732492    1.5163622    2.0053737    4.2347049 
 8695000    1.0536984 6.192117e-05   0.44427627 0.0055629916            0   0.43871328    1.5726448    2.0169211    6.2969124 
 8700000   0.99183695 -2.5955327e-05   0.54059743  0.012236488            0   0.52836094    1.4803166    2.0209141   0.22688188 
 8705000    1.0438527 -2.0487796e-05    0.4706995  0.012506074            0   0.45819342    1.5579502    2.0286497   0.61253328 
 8710000    1.0659415 1.0594355e-05   0.44692633  0.022931029            0   0.42399531    1.5909177     2.037844    2.7701258 
 8715000    1.0718185 -1.1452837e-05   0.45583828  0.021430252            0   0.43440803    1.5996891    2.0555273    1.2639073 
 8720000    1.0164922 -2.8581152e-05   0.53991596  0.014772274            0   0.52514369    1.5171146    2.0570305  0.081501331 
 8725000     1.059729 -5.712203e-05   0.48921459  0.018705823            0   0.47050876    1.5816455    2.0708601   -1.8774147 
 8730000    1.0082456 -6.3910957e-05   0.54951906   0.04373171            0   0.50578735    1.5048065    2.0543255   -2.3631998 
 8735000    1.0323937 1.6672851e-05   0.52150633  0.025935989            0   0.49557034    1.5408476    2.0623539    3.2147814 
 8740000    1.0824836 6.1778169e-05   0.44153725  0.028894346            0   0.41264291    1.6156068     2.057144    6.3272511 
 8745000    1.0478865 5.0432221e-06   0.49054343  0.013464443            0   0.47707899    1.5639706    2.0545141    2.4031016 
 8750000    1.0282887 8.9606361e-06   0.51733687  0.021906272            0   0.49543059    1.5347209    2.0520578     2.671417 
 8755000     1.048692 -1.3247335e-05   0.49643458 0.0095319449            0   0.48690264    1.5651728    2.0616074    1.1459516 
 8760000    1.0244518 -1.9811771e-05   0.52732831 0.0082212594            0   0.51910705    1.5289942    2.0563226   0.68693297 
 8765000    1.0598052 5.5217457e-05   0.49465876  0.014215568            0    0.4804432    1.5817593     2.076418    5.8930486 
 8770000    1.0066463 5.6435592e-05   0.58548004  0.023743674            0   0.56173637    1.5024196    2.0878997    5.9887278 
 8775000    1.0497545 2.4791336e-05   0.50719438  0.037188376            0   0.47000601    1.5667585    2.0739529    3.7875301 
 8780000    1.0410393 -9.2822231e-06   0.52576323  0.042917601            0   0.48284563    1.5537511    2.0795143    1.4379271 
 8785000    1.0313432 6.0428416e-05   0.53315741  0.028395372            0   0.50476204    1.5392798    2.0724372    6.2492493 
 8790000    1.0581246 9.5252242e-05   0.48560853  0.021221508            0   0.46438702    1.5792509    2.0648594    8.6486944 
 8795000    1.0184156 5.3571365e-05   0.53148246  0.020001134            0   0.51148133    1.5199853    2.0514677    5.7543205 
 8800000    1.0313919 5.5270909e-05   0.49124947  0.026570065            0    0.4646794    1.5393523    2.0306018     5.850927 
 8805000    1.0143183 9.9988234e-06   0.52751481   0.02360254            0   0.50391227      1.51387    2.0413849    2.7325035 
 8810000    1.0255056 4.8253016e-06   0.50329669  0.013651455            0   0.48964523    1.5305671    2.0338638    2.3673886 
 8815000    1.0123382 2.856454e-05    0.5319296 0.0087259862            0   0.52320361    1.5109148    2.0428444    4.0172254 
 8820000     1.025984 1.556436e-05   0.50123369  0.028931338            0   0.47230236    1.5312811    2.0325148    3.1083234 
 8825000     1.016385 5.6118111e-05   0.51442339  0.038096842            0   0.47632655    1.5169546     2.031378    5.9102618 
 8830000    1.0061032 9.1108685e-05   0.53191608  0.021583701            0   0.51033238     1.501609    2.0335251    8.3309574 
 8835000    1.0604823 7.9217253e-05   0.45351069  0.021045155            0   0.43246554    1.5827698    2.0362805     7.511777 
 8840000    1.0032773 3.8073977e-05   0.52629348   0.04207771            0   0.48421577    1.4973914    2.0236849    4.6553582 
 8845000    1.0169563 -2.0828078e-06   0.49988147  0.030610259            0   0.46927121    1.5178072    2.0176887     1.873725 
 8850000    1.0235063 2.9432222e-05    0.4867494  0.045430312            0   0.44131909    1.5275831    2.0143325    4.0486877 
 8855000    1.0226966 3.5151445e-05   0.48949939  0.019320705            0   0.47017868    1.5263747    2.0158741     4.445542 
 8860000    1.0009763 -2.0867463e-05   0.52220867   0.03024759            0   0.49196108    1.4939571    2.0161658   0.57380673 
 8865000     1.039367 -7.6099619e-05   0.44936478 0.0099288571            0   0.43943592    1.5512553    2.0006201   -3.2593856 
 8870000   0.99961221 -5.002597e-05    0.5283429  0.014267387            0   0.51407552    1.4919212    2.0202641   -1.4375309 
 8875000    1.0021975 4.1074868e-05   0.51345396  0.046776653            0   0.46667731    1.4957798    2.0092338    4.8483287 
 8880000    1.0069662 -1.0007566e-05   0.51173715  0.051764102            0   0.45997304     1.502897    2.0146342    1.3229112 
 8885000    1.0932535 -4.0956879e-05   0.40845034  0.024996437            0    0.3834539    1.6316808    2.0401311  -0.79080832 
 8890000    1.0111725 -1.2176618e-05   0.51226384  0.040419904            0   0.47184393    1.5091749    2.0214388     1.179791 
 8895000    1.0177358 1.9283577e-05   0.48249692  0.016703223            0   0.46579369    1.5189706    2.0014676    3.3343484 
 8900000    1.0879062 3.7301682e-05   0.38867159 0.0036391931            0    0.3850324    1.6237001    2.0123716    4.5906639 
 8905000    1.0229997 8.0729073e-07   0.47853452 0.0061380412            0   0.47239647     1.526827    2.0053615    2.0611615 
 8910000    1.0456032 -6.1273282e-06   0.45517711 0.0079345232            0   0.44724259    1.5605628    2.0157399     1.592219 
 8915000   0.97479162 -1.3477986e-05   0.57246715   0.01514705            0    0.5573201    1.4548765    2.0273437    1.0957452 
 8920000    1.0247317 -2.751032e-05   0.49452328 0.0099456542            0   0.48457762    1.5294121    2.0239354   0.12242203 
 8925000    1.0387473 -3.2143061e-05   0.46919695  0.010945641            0   0.45825131    1.5503304    2.0195273  -0.20220102 
 8930000     1.020592 -8.8996578e-06   0.49384365  0.028461192            0   0.46538246    1.5232336    2.0170773    1.4019329 
 8935000    1.0108294 -4.4648838e-05   0.47993351  0.022458921            0   0.45747458    1.5086628    1.9885963   -1.0975314 
 8940000   0.98986072 -3.6521571e-05   0.51568942  0.019193241            0   0.49649618    1.4773671    1.9930565  -0.53131444 
 8945000   0.99060777 -1.8154641e-05   0.50330626  0.026778421            0   0.47652784    1.4784821    1.9817884   0.72693955 
 8950000    1.0260116 4.6920923e-05   0.45707756  0.028503929            0   0.42857363    1.5313223    1.9883999    5.2315741 
 8955000     1.009091 3.1893025e-05   0.48562588  0.020802507            0   0.46482337    1.5060683    1.9916941      4.19614 
 8960000    1.0015114 1.4668359e-05   0.49141159  0.028092444            0   0.46331915    1.4947558    1.9861674    3.0000443 
 8965000   0.98468611 -6.6273559e-05   0.50954464 0.0082127058            0   0.50133193     1.469644    1.9791887   -2.6016397 
 8970000   0.94732903 -7.0637275e-05    0.5591304  0.015387776            0   0.54374262    1.4138886     1.973019   -2.9094294 
 8975000   0.99190036 -2.0488887e-05    0.5079965  0.056572773            0   0.45142372    1.4804113    1.9884078   0.57221592 
 8980000    1.0362205 2.622678e-05   0.45060122  0.028201304            0   0.42239992    1.5465591    1.9971603    3.8099553 
 8985000   0.99569208 2.9025875e-05   0.49791049  0.015156291            0    0.4827542    1.4860704    1.9839809    3.9902494 
 8990000   0.99245633 3.8210922e-05   0.48173617  0.012868048            0   0.46886813    1.4812411    1.9629772    4.6041162 
 8995000    1.0220558 2.1661392e-05   0.45481481  0.007219949            0   0.44759486    1.5254183    1.9802331    3.4774685 
 9000000   0.98721904 -4.6347383e-05   0.50858868  0.028250458            0   0.48033822    1.4734244    1.9820131    -1.221518 
 9005000   0.99097922 -8.7094645e-06   0.50629799   0.02257581            0   0.48372218    1.4790365    1.9853345    1.3833363 
 9010000    1.0258533 2.9167303e-05   0.45616506   0.02132442            0   0.43484064    1.5310861    1.9872512    4.0032952 
 9015000   0.99192289 -1.1363969e-05   0.50706716  0.019169937            0   0.48789722    1.4804449    1.9875121    1.2020345 
 9020000    1.0056291 -3.7512289e-05   0.50274247  0.011277229            0   0.49146524    1.5009015     2.003644  -0.58920545 
 9025000   0.99410969 1.9879139e-05   0.54464303  0.017999063            0   0.52664397    1.4837087    2.0283517    3.4023978 
 9030000    1.1178695 6.3560658e-06   0.37297124  0.026568655            0   0.34640259    1.6684203    2.0413915    2.4807228 
 9035000   0.99242147 -3.3822235e-05   0.55391215  0.045207488            0   0.50870467     1.481189    2.0351012  -0.30269172 
 9040000   0.98133362 -3.3904034e-05   0.56284916  0.011306774            0   0.55154239    1.4646404    2.0274896  -0.31595726 
 9045000    1.0548949 -4.7576395e-05   0.46582775  0.012705903            0   0.45312185    1.5744307    2.0402585    -1.248222 
 9050000   0.98383926 -2.0673255e-05   0.56862251  0.043284786            0   0.52533772    1.4683801    2.0370026   0.60806724 
 9055000    1.0290291 4.6050116e-05   0.50507701  0.045838543            0   0.45923847    1.5358259     2.040903     5.223887 
 9060000      1.04406 1.364428e-05   0.48316148   0.01119965            0   0.47196183    1.5582596    2.0414211    2.9845137 
 9065000    1.0463949 1.8466275e-05   0.49326086  0.029261249            0   0.46399961    1.5617445    2.0550053    3.3313943 
 9070000     1.044423 2.2358482e-05   0.51602329  0.020495748            0   0.49552755    1.5588013    2.0748246    3.6202428 
 9075000    1.0253614 3.1093234e-05   0.53555138  0.024044772            0   0.51150661    1.5303519    2.0659033    4.2150676 
 9080000    1.0460685 2.5144755e-05    0.5066627  0.016730387            0   0.48993232    1.5612572    2.0679199    3.8059254 
 9085000    1.0557935 -7.027169e-06   0.47207636  0.028787056            0   0.44328931    1.5757718    2.0478482    1.5621303 
 9090000    1.0146432 -5.0524594e-06   0.53254854  0.014085937            0   0.51846261    1.5143549    2.0469035    1.6976775 
 9095000    1.0764867 -1.8250828e-05   0.44592671 0.0047891388            0   0.44113757    1.6066563     2.052583   0.79108582 
 9100000    1.0709943 7.5543528e-06   0.44875351 0.0034439605            0   0.44530955    1.5984591    2.0472126    2.5693694 
 9105000    1.0304798 6.2216504e-05   0.51162487  0.024437607            0   0.48718726     1.537991    2.0496159    6.3500207 
 9110000    1.0069624 -1.5148912e-05   0.53275213  0.033950931            0    0.4988012    1.5028914    2.0356435   0.98855072 
 9115000     1.044481 -4.3642116e-05   0.47400208  0.039554249            0   0.43444783    1.5588879      2.03289  -0.98365313 
 9120000    1.0093512 2.006512e-06   0.53401636  0.023403822            0   0.51061254    1.5064567     2.040473    2.1791631 
 9125000    1.0260605 -2.5610034e-05   0.52156276  0.017391012            0   0.50417174    1.5313953     2.052958   0.28279247 
 9130000    1.0634716 -2.1690692e-05   0.46439223  0.012318497            0   0.45207373    1.5872313    2.0516236   0.55236291 
 9135000    1.0922022 -2.3919953e-06   0.39836579 0.0089080955            0   0.38945769    1.6301118    2.0284776    1.8631429 
 9140000    1.0427235 1.5119026e-05    0.4812827  0.015703181            0   0.46557952    1.5562648    2.0375475    3.0825745 
 9145000   0.99963778 4.0468858e-05   0.53160541   0.02553484            0   0.50607057    1.4919594    2.0235648    4.8207722 
 9150000    1.0534666 5.6221499e-05    0.4464014  0.031906202            0    0.4144952    1.5722989    2.0187003    5.9047304 
 9155000   0.98907511 7.0439202e-05   0.54024079  0.037411377            0   0.50282942    1.4761946    2.0164354    6.8851931 
 9160000    1.0086265  2.82723e-05   0.49214046  0.022247626            0   0.46989284     1.505375    1.9975155    3.9516969 
 9165000   0.98938272 3.5506414e-05   0.52783991  0.026194013            0    0.5016459    1.4766537    2.0044936     4.458697 
 9170000    1.0481817 1.9356584e-06     0.424612  0.022342682            0   0.40226932    1.5644111    1.9890231    2.1228158 
 9175000   0.97819564 -5.5449897e-06   0.53354627  0.014608443            0   0.51893783     1.459957    1.9935033    1.6102336 
 9180000    1.0371824 -6.1625585e-06   0.45935899  0.018727831            0   0.44063116    1.5479947    2.0073537    1.5813977 
 9185000    1.0582783 8.9781375e-06   0.43319186 0.0085824378            0   0.42460942    1.5794804    2.0126722    2.6332411 
 9190000    1.0440137 -2.2100758e-05   0.46120318  0.017259727            0   0.44394346    1.5581904    2.0193936   0.49178918 
 9195000   0.96987752 -4.2093844e-05   0.53949967  0.015198548            0   0.52430112    1.4475422    1.9870419  -0.92248461 
 9200000    1.0243103 -3.4710804e-05   0.44434162 0.0087913025            0   0.43555032    1.5287831    1.9731247  -0.42608603 
 9205000    1.0348083 -1.4034845e-05   0.41347895 0.0073242679            0   0.40615468    1.5444514    1.9579304   0.98784188 
 9210000    0.9787371 3.1713139e-05     0.486168  0.019899854            0   0.46626814    1.4607651    1.9469331    4.1389453 
 9215000   0.98372145 2.5144873e-05   0.47526934  0.034889597            0   0.44037974    1.4682043    1.9434736    3.6814872 
 9220000   0.99569176 -1.8430174e-05   0.45456226  0.023701684            0   0.43086057      1.48607    1.9406322   0.66673855 
 9225000    1.0109358 -5.4008778e-05   0.42909268  0.021680855            0   0.40741183    1.5088217    1.9379144   -1.7951723 
 9230000   0.97985608 1.3235124e-05   0.49392887  0.012393751            0   0.48153512    1.4624352    1.9563641    2.8711758 
 9235000   0.98923953 2.0017355e-05   0.48852409  0.013742234            0   0.47478185      1.47644    1.9649641    3.3485637 
 9240000    1.0071477 -1.9406684e-05    0.4700214  0.023553293            0   0.44646811    1.5031679    1.9731893   0.63179926 
 9245000    1.0354819 -1.2816129e-05    0.4432976 0.0060728709            0   0.43722473    1.5454567    1.9887543    1.1029035 
 9250000    1.0174856 7.8070506e-06   0.45088887  0.021170769            0    0.4297181    1.5185973    1.9694862    2.5091095 
 9255000    1.0168502 -4.1658862e-05   0.43259337  0.018405591            0   0.41418778    1.5176489    1.9502422  -0.92921834 
 9260000    1.0245411 -3.2083745e-05   0.41528507  0.012367317            0   0.40291776    1.5291276    1.9444126  -0.27321584 
 9265000    1.0277668 -3.2579688e-06   0.39955593  0.025062235            0    0.3744937    1.5339419    1.9334978     1.708307 
 9270000   0.99946496 2.376205e-05   0.44011195   0.01428617            0   0.42582578    1.4917015    1.9318134    3.5742463 
 9275000   0.95758779 1.9372241e-05   0.52230924  0.029616696            0   0.49269254    1.4291998     1.951509    3.2905183 
 9280000   0.97145785  2.03898e-05   0.48831797  0.023470467            0    0.4648475    1.4499008    1.9382188    3.3475618 
 9285000     1.016939 -4.3504751e-06   0.42430765   0.03002788            0   0.39427977    1.5177815    1.9420892    1.6413843 
 9290000   0.98332878 -1.1952116e-05   0.46018047  0.011786555            0   0.44839391    1.4676182    1.9277987    1.1016684 
 9295000   0.94155541 1.2641497e-05   0.52001687  0.015498589            0   0.50451828    1.4052714    1.9252883    2.7990686 
 9300000    0.9645209 -2.3786836e-05    0.4749275  0.017774587            0   0.45715292    1.4395474    1.9144749   0.27032885 
 9305000   0.98009217 1.2483314e-05   0.44294235  0.017317969            0   0.42562438    1.4627876    1.9057299    2.7685766 
 9310000   0.92997178 5.9985958e-05   0.49371619  0.025698989            0    0.4680172    1.3879829    1.8816991    6.0279285 
 9315000    0.9422751 3.009934e-05   0.46565433  0.035455696            0   0.43019863    1.4063456    1.8719999    3.9524663 
 9320000   0.93250182 -4.1994651e-06   0.48634384  0.031088276            0   0.45525556     1.391759    1.8781028    1.5878358 
 9325000   0.95048793 -3.1836929e-05    0.4664422   0.01435561            0   0.45208659    1.4186032    1.8850454   -0.3155231 
 9330000   0.93612521 4.5951598e-05   0.47939557  0.024538742            0   0.45485683    1.3971669    1.8765624    5.0527369 
 9335000   0.92760223 4.6886779e-05   0.51135375  0.033742026            0   0.47761172    1.3844463    1.8958001    5.1366143 
 9340000   0.96086547 -1.137427e-05   0.47160937  0.028219443            0   0.44338993    1.4340917    1.9057011    1.1195115 
 9345000    0.9799764 5.0171653e-06   0.43154035  0.015293336            0   0.41624701    1.4626148    1.8941551    2.2409416 
 9350000   0.99797705 -7.4766813e-06   0.41051351  0.022003457            0   0.38851005    1.4894807    1.8999943     1.383206 
 9355000   0.97717431 -3.1564504e-05   0.45830934  0.016836819            0   0.44147252    1.4584327     1.916742  -0.26499648 
 9360000   0.93686783 -2.0127242e-05   0.51991711  0.014830659            0   0.50508645    1.3982752    1.9181923   0.52699736 
 9365000    0.9235115 -2.905256e-05   0.53375485  0.036251437            0   0.49750342    1.3783409    1.9120958 -0.096017166 
 9370000    0.9911538 1.4936813e-05   0.44009476  0.027018984            0   0.41307578     1.479297    1.9193918    2.9518243 
 9375000    1.0328508 5.9421685e-05   0.38683377  0.016893071            0    0.3699407    1.5415298    1.9283636    6.0355905 
 9380000   0.95843905 -2.60215e-05   0.50998554  0.010238723            0   0.49974681    1.4304703    1.9404558   0.14184972 
 9385000   0.96008951 -7.5903183e-06   0.47855202  0.014426997            0   0.46412502    1.4329336    1.9114856    1.3868428 
 9390000    1.0172309 7.5711161e-06   0.40286788  0.016159992            0   0.38670789     1.518217    1.9210849    2.4444005 
 9395000   0.99074175 -2.4882372e-05   0.45982573  0.014994921            0   0.44483081    1.4786821    1.9385078   0.21863821 
 9400000   0.97945577 2.3060503e-06   0.47866103 0.0087557713            0   0.46990526    1.4618377    1.9404988     2.099893 
 9405000    1.0123839 -1.1366491e-05   0.43342425  0.018100198            0   0.41532405     1.510983    1.9444072    1.1587554 
 9410000    1.0042166 -5.8232646e-05   0.44715575  0.013833509            0   0.43332224    1.4987933    1.9459491   -2.0790914 
 9415000    1.0210474 4.5625166e-05   0.42121588 0.0021050074            0   0.41911088    1.5239133    1.9451291    5.0987406 
 9420000   0.98630173 0.00010552683   0.46737296 0.0066123032            0   0.46076065    1.4720553    1.9394283    9.2334425 
 9425000   0.96910904  4.00192e-05   0.49867843 0.0078159393            0   0.49086249    1.4463952    1.9450737    4.7112008 
 9430000    1.0303921 3.5560163e-05   0.40860224 0.0042657618            0   0.40433647    1.5378602    1.9464624    4.4043809 
 9435000    1.0088983 1.3612338e-05   0.43693213  0.010523369            0   0.42640876    1.5057807    1.9427128    2.8835976 
 9440000    1.0083893 -3.1386357e-05   0.44350999  0.017426247            0   0.42608374     1.505021     1.948531  -0.22089403 
 9445000   0.97007044 -4.0775467e-05   0.50532819  0.011181892            0    0.4941463    1.4478301    1.9531583  -0.86524199 
 9450000    1.0592777 -8.6643712e-06   0.40981395  0.025724148            0    0.3840898     1.580972     1.990786    1.3919046 
 9455000     1.009428 2.6845295e-05    0.4829951  0.029935471            0   0.45305963    1.5065713    1.9895664    3.8451132 
 9460000   0.96498357 1.8702198e-05   0.53712518    0.0219191            0   0.51520608     1.440238    1.9773632    3.2700591 
 9465000   0.98737458 6.4887522e-06   0.47878271  0.014181848            0   0.46460086    1.4736566    1.9524393    2.4009418 
 9470000   0.99797314 -9.2206719e-06   0.46299173  0.029694769            0   0.43329696    1.4894749    1.9524666    1.3151338 
 9475000   0.99948493 -5.8990421e-06   0.45409133  0.020635956            0   0.43345538    1.4917313    1.9458226    1.5380808 
 9480000   0.96390577 6.1312684e-06   0.48924613  0.025278972            0   0.46396716    1.4386294    1.9278755    2.3516688 
 9485000    0.9681508 -2.5768015e-06   0.49231248  0.034589335            0   0.45772315    1.4449651    1.9372775     1.759169 
 9490000    0.9698913 -1.1775967e-05     0.477631  0.021941306            0   0.45568969    1.4475628    1.9251938    1.1112389 
 9495000   0.99987838 -1.2429942e-05   0.43653555  0.010825076            0   0.42571048    1.4923185     1.928854    1.0696964 
 9500000   0.97027499 1.5679556e-06   0.46390708   0.02336992            0   0.44053716    1.4481354    1.9120425    2.0204196 
 9505000   0.94607452 -1.1032861e-06   0.50836726  0.029462103            0   0.47890516    1.4120162    1.9203835    1.8441244 
 9510000   0.97960112 5.6133852e-05   0.47132197  0.038145856            0   0.43317611    1.4620547    1.9333766    5.8133485 
 9515000    1.0398734 6.3697091e-05   0.39062419  0.021072366            0   0.36955183    1.5520111    1.9426353    6.3453782 
 9520000   0.99373683 -2.8855475e-05   0.46635921  0.005434428            0   0.46092478    1.4831522    1.9495114 -0.044979001 
 9525000   0.96495637 -6.3821522e-05   0.47704569 0.0085965124            0   0.46844918    1.4401974    1.9172431   -2.4941005 
 9530000   0.99652513 -7.9646903e-06   0.42805595  0.036856902            0   0.39119904    1.4873138    1.9153697    1.3648503 
 9535000   0.97014542 6.8452856e-05   0.46181985  0.046093945            0   0.41572591     1.447942    1.9097619    6.6412233 
 9540000   0.99513841 7.0965975e-05   0.45365061  0.026481504            0   0.42716911    1.4852441    1.9388947    6.8440629 
 9545000    1.0082227 5.6764242e-05   0.43881587     0.025387            0   0.41342887    1.5047724    1.9435882    5.8671326 
 9550000   0.99145667 2.7125043e-05   0.44132563 0.0061331865            0   0.43519245    1.4797491    1.9210747    3.7959577 
 9555000    1.0012072 6.1261769e-06   0.42474662  0.005467494            0   0.41927913    1.4943017    1.9190483    2.3424897 
 9560000   0.97217451 4.1292762e-05   0.47542575  0.013870085            0   0.46155567    1.4509705    1.9263962    4.7805519 
 9565000   0.97666245 -2.2604959e-05   0.47128865  0.013567929            0   0.45772072    1.4576687    1.9289574    0.3665026 
 9570000   0.98978935 -3.6103944e-05   0.44147085  0.013514693            0   0.42795616    1.4772606    1.9187315  -0.57677315 
 9575000   0.98051106 6.0703582e-06   0.45259957 0.0061533858            0   0.44644618    1.4634128    1.9160123    2.3355955 
 9580000    0.9619639 -1.3572143e-05   0.47875874  0.015684558            0   0.46307418    1.4357311    1.9144899   0.97638334 
 9585000   0.99144499 -2.2885455e-05   0.44368356  0.014668385            0   0.42901517    1.4797316    1.9234152   0.34157257 
 9590000   0.99420994 -6.3367049e-06   0.45145533 0.0046591483            0   0.44679619    1.4838583    1.9353137    1.4973206 
 9595000   0.95895944 2.9727327e-05   0.50126565  0.009080877            0   0.49218478     1.431247    1.9325126    3.9872655 
 9600000   0.98367108 2.7529816e-05   0.44939781  0.012982159            0   0.43641566    1.4681291    1.9175269    3.8203878 
 9605000   0.93125353 -3.8475061e-05   0.51688291  0.018943266            0   0.49793964    1.3898959    1.9067788  -0.75261743 
 9610000   0.98819469 1.5304803e-05   0.45008771  0.023871743            0   0.42621597    1.4748806    1.9249683    2.9828363 
 9615000    0.9668786 4.7569359e-06   0.47464025   0.01401839            0   0.46062186    1.4430663    1.9177066     2.246506 
 9620000   0.99934677 -3.7102918e-05   0.43581352  0.026522153            0   0.40929137     1.491525    1.9273386  -0.63721514 
 9625000   0.94725048 3.7743394e-05   0.49506891  0.027008105            0    0.4680608    1.4137713    1.9088403    4.5176637 
 9630000   0.95045949 2.2811592e-05   0.49070774  0.041346807            0   0.44936093    1.4185608    1.9092685    3.4860058 
 9635000   0.95378051 -8.018827e-06   0.46684499  0.022980909            0   0.44386408    1.4235174    1.8903624    1.3361011 
 9640000   0.99179056 6.2406602e-05   0.41203758  0.023499855            0   0.38853772    1.4802474     1.892285    6.2058293 
 9645000   0.92567381 7.0033865e-05   0.50458815  0.015817894            0   0.48877025    1.3815682    1.8861563    6.7268971 
 9650000   0.95102631 2.5736165e-05   0.44829826 0.0092622136            0   0.43903605    1.4194068     1.867705    3.6465887 
 9655000   0.90268433 4.2471948e-05    0.5116876  0.020121462            0   0.49156614    1.3472564     1.858944     4.794605 
 9660000   0.91532635 -1.739644e-05   0.49594403  0.036912753            0   0.45903128    1.3661246    1.8620686   0.65962665 
 9665000   0.90073539 -2.6186493e-05    0.5098801  0.022145816            0   0.48773429    1.3443476    1.8542277  0.044217289 
 9670000   0.94356236 3.7990151e-05   0.44110776 0.0074843692            0   0.43362339    1.4082668    1.8493746    4.4752538 
 9675000   0.90991684 2.9051933e-05   0.48436414  0.042349235            0   0.44201491    1.3580509     1.842415    3.8504846 
 9680000   0.88998584 6.3083215e-05   0.51192145  0.048976414            0   0.46294503    1.3283039    1.8402253    6.2005371 
 9685000   0.91961452 -4.9586413e-05   0.46943372  0.022046273            0   0.44738745    1.3725247    1.8419584   -1.5854545 
 9690000   0.93150602 -3.938344e-05   0.43602628   0.01429783            0   0.42172845    1.3902727     1.826299  -0.89588432 
 9695000   0.91665255 -1.5860946e-05   0.46278487  0.013941317            0   0.44884355    1.3681039    1.8308888   0.73458018 
 9700000   0.93177259 3.0056461e-05   0.44624743  0.021086632            0    0.4251608    1.3906706     1.836918    3.9144206 
 9705000   0.91115724 4.6218262e-05   0.46804992  0.027722809            0   0.44032711    1.3599022    1.8279521    5.0225584 
 9710000    0.9346383 -2.6720875e-05   0.42848587  0.022738618            0   0.40574725    1.3949477    1.8234335 -0.023513345 
 9715000    0.9374117 -6.8546546e-06   0.43752379 0.0057867127            0   0.43173708     1.399087    1.8366108     1.362817 
 9720000   0.91080226 -6.0078467e-05   0.47707439  0.011687349            0   0.46538704    1.3593724    1.8364468   -2.3161769 
 9725000   0.92095339 -4.3078783e-05   0.44975011  0.026413786            0   0.42333632    1.3745229     1.824273   -1.1533324 
 9730000   0.91169124 2.0059315e-05   0.46182577 0.0046273201            0   0.45719845    1.3606992    1.8225249    3.2090248 
 9735000   0.92243057 -1.2755067e-06   0.44551373 0.0051319753            0   0.44038175    1.3767276    1.8222414    1.7340783 
 9740000   0.91078969 1.2093759e-05   0.45938748 0.0096364789            0     0.449751    1.3593536    1.8187411    2.6546617 
 9745000   0.93659313 -2.6428774e-05   0.43999593  0.015418487            0   0.42457744    1.3978652    1.8378612  0.011104281 
 9750000   0.88110782 -1.4195432e-05   0.52849073  0.021054249            0   0.50743648    1.3150534    1.8435441   0.86235588 
 9755000   0.88232145 7.7766204e-07   0.52819759  0.029412707            0   0.49878488    1.3168648    1.8450624    1.8988144 
 9760000   0.92143198 -1.4391946e-06   0.46934514   0.03688166            0   0.43246348    1.3752372    1.8445824    1.7451052 
 9765000   0.91195431 -4.0453927e-05   0.48505076  0.021309171            0   0.46374159    1.3610918    1.8461426  -0.95003286 
 9770000   0.95754827 -2.379466e-06   0.40887381  0.019506745            0   0.38936706    1.4291408    1.8380146    1.6735459 
 9775000   0.93169684 -1.5184098e-05   0.45915947  0.015980214            0   0.44317925    1.3905575     1.849717   0.80019217 
 9780000   0.94382701 -2.7434512e-05   0.45122808  0.011946228            0   0.43928185    1.4086618    1.8598899 -0.036383588 
 9785000   0.96016063 -4.9340998e-05   0.41582529  0.007682215            0   0.40814308    1.4330397     1.848865   -1.5615848 
 9790000   0.93326224 1.4626006e-05   0.45564218  0.012089987            0    0.4435522    1.3928939    1.8485361    2.8594856 
 9795000   0.92440686 7.6343424e-05   0.46589906  0.017943689            0   0.44795537    1.3796772    1.8455763    7.1224338 
 9800000     0.922516 -4.1304843e-06   0.45591087  0.017072884            0   0.43883799    1.3768551     1.832766    1.5472669 
 9805000   0.94073201 -4.1519481e-05   0.43863363 0.0070319239            0   0.43160171    1.4040425    1.8426762   -1.0271504 
 9810000   0.94364152 -3.8026832e-05   0.43892902  0.011692388            0   0.42723663     1.408385     1.847314   -0.7811006 
 9815000   0.93352576 2.473568e-05    0.4655701 0.0098251022            0     0.455745    1.3932872    1.8588573    3.5685875 
 9820000   0.97959563 4.7193173e-05   0.40761086 0.0066740814            0   0.40093678    1.4620465    1.8696573    5.1316495 
 9825000    1.0026896 -2.4997199e-05   0.38458887  0.011130722            0   0.37345815    1.4965143    1.8811032   0.15329676 
 9830000   0.95524842 -6.6893342e-05   0.45790848  0.014428492            0   0.44347998    1.4257083    1.8836167   -2.7400511 
 9835000   0.92079334 -3.4030231e-05   0.52009594  0.018606139            0    0.5014898    1.3742841      1.89438  -0.45778959 
 9840000    0.9557872 4.0690717e-05    0.4779625   0.02067138            0   0.45729112    1.4265124    1.9044749    4.7170173 
 9845000    0.9650769 -6.511858e-06   0.48946556   0.02294885            0   0.46651671    1.4403773    1.9298428    1.4797432 
 9850000   0.90702901 -3.9426047e-05    0.5643862  0.022924909            0   0.54146129    1.3537408     1.918127  -0.80700137 
 9855000   0.96621048 1.3768606e-05   0.48850716  0.020220251            0   0.46828691    1.4420691    1.9305763    2.8822623 
 9860000   0.97576607 4.6013882e-05   0.48765863  0.015602791            0   0.47205584    1.4563309    1.9439895     5.124469 
 9865000   0.94589825 4.3514944e-05   0.53700919  0.015770382            0   0.52123881    1.4117531    1.9487623    4.9565152 
 9870000   0.97982516 6.3780115e-06   0.50784147  0.019999644            0   0.48784182    1.4623891    1.9702305    2.4110787 
 9875000    0.9734848 -8.516541e-06   0.52326883  0.013458411            0   0.50981041    1.4529261    1.9761949    1.3875316 
 9880000   0.97728889 1.4396879e-05   0.50715983  0.018204645            0   0.48895518    1.4586037    1.9657635    2.9608757 
 9885000   0.96093494 3.6600431e-05   0.52314987  0.018784806            0   0.50436506    1.4341954    1.9573453    4.4871671 
 9890000   0.94212939 -5.4277964e-05   0.56431012  0.013836896            0   0.55047323    1.4061281    1.9704382   -1.7812547 
 9895000    1.0187937 -4.6182408e-05   0.44990247  0.010798614            0   0.43910386    1.5205495     1.970452    -1.221676 
 9900000   0.99836592 -5.0873315e-06   0.49068654  0.020724418            0   0.46996212    1.4900611    1.9807477    1.6291113 
 9905000    0.9347676 -4.7923039e-05   0.59995531  0.044504621            0   0.55545069    1.3951406     1.995096   -1.3173445 
 9910000   0.97143182 5.1537315e-06   0.53471402   0.02112447            0   0.51358955     1.449862     1.984576    2.3408019 
 9915000   0.96936397 1.6047256e-05   0.51136418  0.027390474            0   0.48397371    1.4467757    1.9581399    3.0673262 
 9920000   0.92020581 -2.0285965e-05   0.56238211  0.022793759            0   0.53958835    1.3734072    1.9357893   0.53362338 
 9925000   0.94766055 -2.0264721e-05   0.51994094   0.01612946            0   0.50381148    1.4143834    1.9343243    0.5336268 
 9930000   0.96488348 -1.9517515e-05   0.50899279  0.018770816            0   0.49022197    1.4400886    1.9490814   0.60003073 
 9935000    0.9355922 3.9609876e-05   0.54829365  0.018423071            0   0.52987058    1.3963714     1.944665    4.6824996 
 9940000   0.96548442 7.0162139e-06   0.51835027  0.019106525            0   0.49924374    1.4409855    1.9593358    2.4442965 
 9945000   0.94668777 7.3452136e-06   0.52568733  0.010220779            0   0.51546655    1.4129315    1.9386188      2.44632 
 9950000    1.0068399 3.8758568e-05   0.43847116 0.0088080209            0   0.42966314    1.5027085    1.9411797    4.6201719 
 9955000   0.93713312 -1.1456251e-05   0.54067121 0.0032555739            0   0.53741564    1.3986712    1.9393424    1.1474863 
 9960000   0.94245404 5.335713e-05    0.5227882 0.0051284938            0   0.51765971    1.4066127    1.9294009    5.6174457 
 9965000   0.96611352 7.596787e-05   0.47861512 0.0084970681            0   0.47011805    1.4419244    1.9205395    7.1714387 
 9970000    0.9614365 2.062115e-05   0.48257018  0.012594901            0   0.46997527     1.434944    1.9175141    3.3428481 
 9975000   0.95058163 -2.2883091e-05    0.5133846  0.019257141            0   0.49412746    1.4187431    1.9321277   0.35044845 
 9980000   0.92018493 -1.0294982e-05   0.56510828  0.012109374            0   0.55299891     1.373376    1.9384843    1.2268951 
 9985000   0.95001631 -6.0523297e-06   0.52549438 0.0084885104            0   0.51700587    1.4178993    1.9433937    1.5250567 
 9990000   0.97142431 4.9457009e-05   0.51141729 0.0091669735            0   0.50225031    1.4498508    1.9612681    5.3797365 
 9995000   0.96610976 7.5248033e-05   0.53977296  0.024431331            0   0.51534163    1.4419188    1.9816918    7.1828358 
10000000   0.93402372 4.4052482e-05   0.57731299  0.012056197            0   0.56525679    1.3940304    1.9713434     5.016251 
10005000   0.97676351 3.2353391e-05   0.51917893  0.013434227            0    0.5057447    1.4578195    1.9769985    4.2132649 
10010000    1.0151188 -3.0443158e-05   0.44958106  0.015598866            0   0.43398219    1.5150648    1.9646459  -0.13958522 
10015000   0.95450306 -4.1794733e-05   0.52486571  0.010958489            0   0.51390723    1.4245958    1.9494615  -0.93939041 
10020000    0.9832172 -9.2848948e-06   0.49513178  0.010986143            0   0.48414564    1.4674517    1.9625834    1.3208115 
10025000   0.98383212 2.8381497e-05   0.49733074  0.017215992            0   0.48011475    1.4683694    1.9657002    3.9274293 
10030000   0.92362754 4.5221242e-05    0.5958033   0.01911627            0   0.57668703    1.3785141    1.9743174    5.1000096 
10035000   0.94380818 -2.2932225e-05   0.56411324  0.013307989            0   0.55080525    1.4086337     1.972747   0.38767155 
10040000    0.9998129 -3.3370157e-05     0.494407 0.0074968958            0    0.4869101    1.4922207    1.9866277  -0.31991754 
10045000   0.99859044  2.48184e-05   0.49859734  0.014385269            0   0.48421207    1.4903962    1.9889936    3.7044414 
10050000   0.96365249 3.9634541e-05   0.53458286  0.019446104            0   0.51513676    1.4382513    1.9728342    4.7123737 
10055000   0.99846506 -3.7309349e-06   0.48175078 0.0081772652            0   0.47357352    1.4902091    1.9719599    1.7140777 
10060000   0.96106614 8.1953204e-06   0.53974154  0.011793358            0   0.52794819    1.4343912    1.9741328    2.5405933 
10065000   0.98477119 2.9817695e-05    0.4861914  0.013809301            0    0.4723821     1.469771    1.9559624    4.0169615 
10070000    0.9313864 -3.1571003e-05   0.55619071  0.021744717            0   0.53444599    1.3900942    1.9462849  -0.23590281 
10075000   0.96078859 -2.6498653e-06   0.52274183  0.028641562            0   0.49410027     1.433977    1.9567188    1.7735601 
10080000   0.96493023 -2.4840273e-05    0.5213515  0.018119915            0   0.50323159    1.4401584    1.9615099   0.24455019 
10085000    0.9267397 -4.296246e-05   0.57417322 0.0072717568            0   0.56690146     1.383159    1.9573322    -1.012233 
10090000   0.97784864 5.1129133e-05    0.5113393  0.016351731            0   0.49498757    1.4594391    1.9707784     5.504824 
10095000   0.96472748 -9.670102e-06   0.54116583  0.015336004            0   0.52582983    1.4398558    1.9810216    1.3126242 
10100000   0.98428865 -5.1851902e-05   0.52656438 0.0064121738            0    0.5201522    1.4690508    1.9956152   -1.5883883 
10105000    1.0167276 2.369988e-05   0.47359464 0.0051527351            0    0.4684419    1.5174659    1.9910606    3.6291963 
10110000    0.9870466 4.0938949e-05   0.53082125 0.0023824182            0   0.52843883    1.4731671    2.0039883    4.8336885 
10115000   0.97255798 -6.9232064e-05   0.55171695 0.0058935284            0   0.54582342    1.4515428    2.0032597   -2.7820606 
10120000   0.97825915 -6.5621612e-06   0.54558835  0.011403057            0   0.53418529    1.4600518    2.0056401    1.5520635 
10125000    1.0018928 6.8511961e-05   0.48715898  0.015793148            0   0.47136583     1.495325     1.982484    6.7180307 
10130000    1.0256269 1.5350406e-05   0.44221366  0.011111293            0   0.43110236    1.5307482    1.9729618    3.0339819 
10135000   0.95935658 1.0036645e-05    0.5529948  0.018599312            0   0.53439549    1.4318397    1.9848345    2.6785674 
10140000   0.96800922 -2.1790891e-05   0.55513411  0.037001916            0    0.5181322    1.4447538    1.9998879   0.49370147 
10145000   0.98094994 8.7004583e-06   0.54475506  0.044148676            0   0.50060638    1.4640678    2.0088228    2.6101985 
10150000   0.98290213  9.19815e-06   0.56015701  0.022506533            0   0.53765048    1.4669814    2.0271384    2.6629146 
10155000   0.96946608 -1.2013341e-05   0.56295139  0.017089988            0    0.5458614    1.4469281    2.0098795    1.1795174 
10160000   0.96245152 2.1139583e-05   0.58220907  0.016244022            0   0.56596505    1.4364589     2.018668     3.479836 
10165000   0.96342707 5.0171147e-05   0.56806964 0.0086318459            0   0.55943779    1.4379149    2.0059845    5.4738142 
10170000     1.022164 -8.185237e-06   0.47877783  0.011088151            0   0.46768968    1.5255797    2.0043576     1.438594 
10175000    1.0022595 2.2908672e-05   0.51155263  0.019527938            0   0.49202469    1.4958723    2.0074249    3.5908723 
10180000   0.95383621  3.37692e-06   0.57819617  0.022928497            0   0.55526768    1.4236005    2.0017967    2.2352094 
10185000   0.95548121 -3.1890805e-05   0.57510733  0.029200025            0    0.5459073    1.4260557     2.001163   -0.2031294 
10190000   0.97371437 -1.3589577e-06    0.5526131 0.0066345507            0   0.54597855    1.4532687    2.0058818    1.9119506 
10195000   0.99274229 -3.6381901e-05   0.54086497  0.013647735            0   0.52721724    1.4816679    2.0225328  -0.49218415 
10200000   0.95248448 -3.854729e-05   0.59226589  0.041305599            0   0.55096029    1.4215831     2.013849  -0.65053974 
10205000   0.94829667 1.4660597e-05   0.58607726  0.021984251            0     0.564093    1.4153328      2.00141    3.0147505 
10210000   0.97022969 -4.7798645e-05   0.55201949 0.0078536268            0   0.54416586    1.4480678    2.0000873    -1.303755 
10215000    1.0002985 6.6061258e-06   0.51417093 0.0077294156            0   0.50644152    1.4929455    2.0071165    2.4637319 
10220000    1.0089817 1.2344094e-05   0.50816098 0.0093694242            0   0.49879155    1.5059052    2.0140662      2.86729 
10225000   0.94550301 2.1494567e-05   0.59444021 0.0073047505            0   0.58713546    1.4111632    2.0056035    3.4913079 
10230000   0.93899917 8.7929722e-05   0.59283973   0.01397099            0   0.57886874    1.4014563     1.994296    8.0719984 
10235000   0.98134715 -3.0266723e-05   0.51567605  0.014457606            0   0.50121844    1.4646606    1.9803367  -0.11169925 
10240000   0.95586631 -1.6961853e-05   0.55193249  0.011105261            0   0.54082723    1.4266305     1.978563    0.8061597 
10245000   0.98712605 -1.7548337e-05   0.50068943 0.0051589937            0   0.49553043    1.4732856    1.9739751     0.761034 
10250000    1.0155358 2.0502562e-05   0.46648964 0.0048726575            0   0.46161698    1.5156872    1.9821768    3.3993139 
10255000   0.99149572 3.283626e-05   0.50669044  0.010518633            0    0.4961718    1.4798074    1.9864978    4.2561401 
10260000   0.98154831 6.789792e-06   0.53095847  0.011971569            0    0.5189869    1.4649609    1.9959193    2.4652297 
10265000   0.95060388 2.0368699e-05    0.5932546  0.013337551            0   0.57991705    1.4187763    2.0120309    3.4199154 
10270000   0.96117434 -2.9471849e-05   0.61883876  0.032170052            0   0.58666871    1.4345527    2.0533915  0.016297282 
10275000   0.99130129 2.9290929e-05   0.58192322  0.009062416            0    0.5728608    1.4795172    2.0614404    4.0860294 
10280000   0.97527446 4.1190426e-05   0.60091553  0.016163547            0   0.58475198    1.4555971    2.0565127    4.9035949 
10285000    1.0043701 -4.1176344e-05   0.55802097   0.00758172            0   0.55043925    1.4990223    2.0570433  -0.78906561 
10290000    1.0248466 -3.2542414e-05   0.51707622 0.0032512831            0   0.51382494    1.5295836    2.0466598  -0.20267183 
10295000   0.95723631 -5.425388e-05   0.59742631 0.0099936237            0   0.58743268    1.4286752    2.0261015   -1.7239267 
10300000   0.98209829 -4.4213431e-05   0.56710786  0.013065248            0   0.55404261    1.4657817    2.0328896   -1.0231428 
10305000   0.97681228 2.2089654e-05   0.58327856   0.02052082            0   0.56275774    1.4578923    2.0411709    3.5680078 
10310000   0.94657386 2.3378379e-05   0.62146682   0.02439531            0   0.59707151    1.4127615    2.0342283    3.6501419 
10315000    0.9554359 4.9012241e-05   0.59348476   0.02224336            0    0.5712414    1.4259881    2.0194728    5.4071989 
10320000   0.95696209 3.891918e-05   0.58497017 0.0072914931            0   0.57767868    1.4282659    2.0132361    4.7033298 
10325000    1.0325441 3.4622045e-05   0.47817532  0.017498608            0   0.46067671    1.5410721    2.0192475    4.4123232 
10330000   0.96503127 2.989983e-05   0.59160086   0.02971869            0   0.56188217    1.4403092      2.03191    4.0985863 
10335000   0.98754092 -1.3733615e-05   0.55678758  0.046429278            0    0.5103583    1.4739048    2.0306924    1.0814249 
10340000    1.0102779 3.3189125e-06   0.51489836  0.022540295            0   0.49235806    1.5078397    2.0227381    2.2521413 
10345000    1.0049078 -5.9829331e-05   0.51750474  0.010252101            0   0.50725264    1.4998249    2.0173297   -2.1180737 
10350000    1.0466452 -6.6849167e-05   0.44143044  0.024814177            0   0.41661627    1.5621179    2.0035484    -2.617066 
10355000   0.97960875 1.7858021e-05   0.56810841  0.013427545            0   0.55468087    1.4620661    2.0301745    3.2645209 
10360000     0.979818 1.8593562e-05   0.55836488 0.0095140298            0   0.54885085    1.4623784    2.0207432    3.3059302 
10365000   0.97329785 6.3229817e-05   0.56796585 0.0062353475            0    0.5617305     1.452647    2.0206129    6.3910578 
10370000    1.0128739 5.6528264e-05   0.51939659 0.0042554101            0   0.51514118    1.5117142    2.0311108    5.9383445 
10375000   0.97553715 5.718511e-06   0.58109486  0.016871872            0   0.56422299    1.4559892    2.0370841    2.4323475 
10380000     1.013813 -4.3219732e-05    0.5139216  0.012580346            0   0.50134125    1.5131158    2.0270374  -0.96031043 
10385000   0.99154257 -7.3222177e-05   0.55540843  0.020350374            0   0.53505806    1.4798773    2.0352857   -3.0258312 
10390000   0.96237992 -4.4117481e-05   0.57271907  0.030000835            0   0.54271824     1.436352    2.0090711   -1.0403292 
10395000   0.98633873 3.3301093e-05   0.54103075  0.025763629            0   0.51526712    1.4721106    2.0131413    4.3149129 
10400000    0.9939005 -1.0732604e-05   0.55247847   0.02018298            0   0.53229549    1.4833965     2.035875    1.2940374 
10405000    0.9823986 -5.0084118e-05   0.57957652  0.032295886            0   0.54728064    1.4662299    2.0458064   -1.4160078 
10410000   0.95282435 -1.9352827e-05   0.61620519  0.027486108            0   0.58871908    1.4220903    2.0382955   0.70062813 
10415000    1.0113782 -6.8314429e-06   0.50357904 0.0094891054            0   0.49408993    1.5094819     2.013061    1.5408716 
10420000   0.95900638 1.056406e-06   0.56634194  0.011326064            0   0.55501588     1.431317     1.997659    2.0706778 
10425000   0.94044603 2.5140294e-05   0.61202007  0.019819735            0   0.59220033    1.4036157    2.0156358    3.7533329 
10430000   0.96939372 -6.5252977e-05   0.58870601  0.017607502            0   0.57109851    1.4468201    2.0355261   -2.4747597 
10435000    0.9948098 4.2144088e-06   0.52924988   0.01607763            0   0.51317225    1.4847536    2.0140035    2.3053034 
10440000   0.94434269 5.0420657e-06   0.61957362  0.024974158            0   0.59459946    1.4094315    2.0290051    2.3775127 
10445000    0.9979137 -6.6497291e-06   0.54886575  0.010322199            0   0.53854355    1.4893862    2.0382519    1.5786227 
10450000     1.022858 2.3321751e-05    0.5160506 0.0099967894            0   0.50605381    1.5266155    2.0426661    3.6546656 
10455000    1.0278365 -5.255332e-05   0.51559757   0.02250716            0   0.49309041     1.534046    2.0496436   -1.5828418 
10460000    0.9885694 -5.9936836e-05   0.58218775  0.020034187            0   0.56215356    1.4754398    2.0576276   -2.0852065 
10465000   0.97485755 -5.4090754e-05   0.61818947  0.020327004            0   0.59786247    1.4549749    2.0731644   -1.6655885 
10470000    1.0100912 -3.736147e-05   0.57503086  0.013705293            0   0.56132557    1.5075611     2.082592  -0.49983285 
10475000   0.97519725 -2.6568349e-05   0.63571407  0.014763884            0   0.62095019    1.4554819     2.091196   0.25479169 
10480000   0.99802048 -1.5178832e-05   0.57645469 0.0067789944            0    0.5696757    1.4895456    2.0660003    1.0168394 
10485000    1.0032567 -4.4572616e-05   0.55714805 0.0019273899            0   0.55522066    1.4973606    2.0545087   -1.0263505 
10490000    0.9984175 3.574537e-06   0.56686504  0.017724372            0   0.54914066    1.4901381    2.0570031    2.3040751 
10495000   0.98951798 -1.1975024e-05   0.57571174  0.045181357            0   0.53053038    1.4768556    2.0525673    1.2248537 
10500000    1.0354784 3.3650003e-05   0.51031214  0.013493166            0   0.49681897    1.5454516    2.0557637    4.3816519 
10505000     1.013407 -8.2799764e-05   0.55598345  0.017104952            0    0.5388785    1.5125099    2.0684933   -3.6546264 
10510000    1.0158902 -6.1741122e-05    0.5581326  0.015978208            0   0.54215439    1.5162162    2.0743488   -2.1931976 
10515000    1.0078538 -2.0433999e-05   0.54626771  0.010710593            0   0.53555711    1.5042219    2.0504896   0.63809157 
10520000   0.97117689 1.6194165e-05   0.60142773  0.026707118            0   0.57472061    1.4494815    2.0509092    3.1702499 
10525000   0.99111494 3.0876866e-05   0.57982062  0.036104764            0   0.54371586     1.479239    2.0590597    4.1932687 
10530000    0.9980858 -6.9579255e-06    0.5910119   0.03289987            0   0.55811203    1.4896431     2.080655    1.5997232 
10535000   0.97646583 -9.9111692e-06   0.62563685  0.030507583            0   0.59512927    1.4573752    2.0830121    1.3979521 
10540000   0.96584042 -1.9815435e-05    0.6329049  0.025557171            0   0.60734773    1.4415168    2.0744217    0.7047789 
10545000    1.0386956 8.6870143e-07   0.49683273   0.01992013            0    0.4769126    1.5502532     2.047086    2.1071306 
10550000   0.97217847 -8.2208515e-05   0.60454239  0.012032266            0   0.59251012    1.4509764    2.0555188   -3.6267338 
10555000   0.96785131 -3.605691e-05   0.61126604  0.029957194            0   0.58130884    1.4445181    2.0557841  -0.43646953 
10560000   0.99602253 1.9685873e-05   0.56989485  0.022429791            0   0.54746506    1.4865636    2.0564585     3.417146 
10565000    1.0422957 1.9599434e-05   0.50136415  0.011574464            0   0.48978969    1.5556263    2.0569904    3.4117033 
10570000    1.0086268 -4.7881755e-06   0.55813915 0.0038176498            0    0.5543215    1.5053756    2.0635147     1.732556 
10575000    1.0553143 2.6471685e-05   0.51273539 0.0043490937            0   0.50838629    1.5750565    2.0877919    3.9175148 
10580000    1.0224841 3.2340372e-05   0.54511753 0.0068705927            0   0.53824693    1.5260576    2.0711751    4.3065416 
10585000    1.0038467 0.00010100028   0.58879377  0.011856003            0   0.57693777    1.4982412     2.087035    9.0681742 
10590000   0.96972696 4.2655374e-07   0.62843867  0.016772533            0   0.61166614    1.4473175    2.0757562    2.1052396 
10595000    1.0536524 -1.3546696e-05   0.52882941  0.028582008            0    0.5002474    1.5725763    2.1014057    1.1650581 
10600000    1.0100776 -4.3271017e-05   0.58966673  0.023246753            0   0.56641998    1.5075408    2.0972075  -0.89368519 
10605000    1.0772506 -3.9338689e-05    0.4969859  0.010680025            0   0.48630588    1.6077965    2.1047824   -0.6143078 
10610000    1.0006023 -3.7510643e-05    0.5944138  0.022929642            0   0.57148416    1.4933989    2.0878127  -0.50492292 
10615000    1.0458246 -1.8518696e-05   0.52100547  0.010670235            0   0.51033524    1.5608932    2.0818987    0.8018864 
10620000    1.0671948 -6.2055644e-05   0.48818513 0.0060594809            0   0.48212565    1.5927882    2.0809734   -2.2083127 
10625000    1.0275521 2.0387951e-05   0.56457682  0.012224236            0   0.55235259    1.5336215    2.0981983    3.5074135 
10630000    1.0280331 5.9827447e-05   0.57457815  0.012708405            0   0.56186974    1.5343394    2.1089175    6.2441906 
10635000    1.0442116 -4.2255396e-05   0.55060235   0.03008331            0   0.52051904    1.5584858    2.1090882  -0.81160475 
10640000    1.0603859 -2.3974037e-05   0.51997619  0.029771617            0   0.49020457    1.5826259    2.1026021   0.44551665 
10645000    1.0388999 -8.335388e-05   0.57199646  0.010443216            0   0.56155324     1.550558    2.1225545   -3.6388657 
10650000     1.020806 -1.8806283e-05   0.58494423 0.0069397126            0   0.57800451     1.523553    2.1084972   0.80860693 
10655000    1.0601667 -8.8529673e-05   0.55643712 0.0096271004            0   0.54681002    1.5822988    2.1387359   -3.9804351 
10660000    1.0737139 4.179722e-05   0.54434257 0.0086784289            0   0.53566414    1.6025179    2.1468605    5.0358843 
10665000     1.075774 2.5544984e-05   0.53569201 0.0062837658            0   0.52940824    1.6055927    2.1412847     3.906954 
10670000      1.10148 4.130496e-05   0.48638069  0.017247479            0   0.46913321    1.6439588    2.1303395    4.9853384 
10675000    1.0434601 -8.1094351e-06     0.583769  0.028223455            0   0.55554554    1.5573642    2.1411332    1.5806091 
10680000    1.0511477 -3.4054077e-06   0.60711352  0.043025243            0   0.56408828    1.5688379    2.1759515    1.9405697 
10685000    1.0632779 0.00012143488   0.59000045 0.0085773244            0   0.58142312    1.5869423    2.1769427    10.570521 
10690000    1.1185232 -3.0983743e-06   0.49286529 0.0085739496            0   0.48429134    1.6693958    2.1622611    1.9481015 
10695000    1.0992788 -3.1173894e-05   0.52380568  0.022632721            0   0.50117296    1.6406737    2.1644793 0.0097398108 
10700000    1.0729614 2.5282149e-05   0.56036172  0.024075741            0   0.53628598    1.6013948    2.1617565    3.9092587 
10705000      1.10184 1.1733584e-05    0.5164199  0.016040492            0    0.5003794    1.6444962    2.1609161    2.9719414 
10710000    1.0869678 -2.9258746e-05   0.53438513  0.020812481            0   0.51357265    1.6222994    2.1566845   0.13432002 
10715000     1.052893 -5.8463397e-05   0.60692194  0.030880629            0   0.57604131    1.5714428    2.1783648   -1.8626252 
10720000    1.0432192 -6.4567917e-05   0.61541645  0.022323698            0   0.59309275    1.5570047    2.1724211   -2.2905133 
10725000    1.0515893 -6.5961592e-05    0.5874616  0.025123039            0   0.56233856    1.5694971    2.1569587   -2.4023066 
10730000    1.0565179 3.5593033e-05   0.57535774  0.021653168            0   0.55370457    1.5768529    2.1522107    4.6124011 
10735000    1.0472192 -3.7032917e-05   0.60213631  0.015828575            0   0.58630774    1.5629747     2.165111  -0.39460419 
10740000    1.0599194 -7.2379048e-05   0.56801292  0.031175101            0   0.53683782    1.5819297    2.1499426   -2.8528972 
10745000     1.002749 -7.3579752e-06   0.63474312   0.03638609            0   0.59835703    1.4966029     2.131346    1.6227627 
10750000    1.0074754 -2.7736901e-05   0.61293838  0.031341141            0   0.58159724    1.5036571    2.1165954   0.19942084 
10755000    0.9883085 -1.8682617e-05   0.62707209  0.045259262            0   0.58181283    1.4750504    2.1021225   0.81078007 
10760000    1.0000621 -1.1788265e-05   0.62076471  0.017791604            0   0.60297311    1.4925927    2.1133574    1.2985525 
10765000    1.0498333 -1.1509242e-05   0.54678396 0.0072433575            0    0.5395406    1.5668761    2.1136601    1.3181413 
10770000   0.95394496 3.8313749e-05    0.6514688  0.023082187            0   0.62838662    1.4237629    2.0752317     4.723478 
10775000     1.041486 -1.9900008e-05   0.53117843 0.0066756808            0   0.52450275    1.5544178    2.0855963   0.71010771 
10780000   0.99563052 -2.3093196e-05    0.6026734 0.0086010377            0   0.59407236    1.4859786     2.088652   0.49245028 
10785000   0.97765889 -3.0610992e-05   0.63327116  0.018297641            0   0.61497351    1.4591559    2.0924271 -0.023404684 
10790000     1.039108 -1.2309142e-05    0.5572105  0.014972277            0   0.54223822    1.5508687    2.1080792    1.2572713 
10795000    1.0209593 2.0024381e-05   0.59908247  0.021039297            0   0.57804317    1.5237817    2.1228642    3.5069494 
10800000    1.0306153 4.0870374e-05   0.56552048  0.032323628            0   0.53319685    1.5381934    2.1037139    4.9286741 
10805000   0.98907181 5.2410028e-05   0.63660042  0.026004171            0   0.61059625    1.4761897    2.1127901    5.7353712 
10810000    1.0453498 -1.175432e-05   0.56170752  0.018445169            0   0.54326235    1.5601846    2.1218922    1.3094336 
10815000    1.0167478 -4.6983056e-06   0.59342265  0.015948188            0   0.57747446    1.5174961    2.1109187    1.7861718 
10820000   0.99447682 2.8146588e-05   0.60880408   0.02456636            0   0.58423772    1.4842567    2.0930607    4.0385529 
10825000   0.97807704 4.5196354e-05   0.63414036  0.020738358            0   0.61340201      1.45978    2.0939204    5.2178923 
10830000    1.0326563 -2.3717032e-05   0.55639187 0.0089452728            0    0.5474466    1.5412395    2.0976314   0.45831011 
10835000   0.99871428 -2.1769881e-05   0.61280895  0.020170202            0   0.59263875    1.4905811      2.10339   0.59865586 
10840000    1.0448719 3.6166925e-05   0.53910951  0.022513668            0   0.51659584    1.5594713    2.0985808    4.5984386 
10845000    1.0430565 5.1632585e-05   0.55759321  0.041018843            0   0.51657437    1.5567619    2.1143551    5.6831994 
10850000    1.0228622 2.4748557e-05   0.59343676  0.041350258            0    0.5520865    1.5266219    2.1200587    3.8306789 
10855000    1.0221444 1.8948374e-05   0.60490678  0.022635544            0   0.58227124    1.5255506    2.1304574     3.440169 
10860000    1.0481178 3.311182e-05   0.56444935  0.011647297            0   0.55280205    1.5643158    2.1287651    4.4174541 
10865000    1.0962515 -4.2097839e-05   0.49775401  0.020143821            0   0.47761019    1.6361554    2.1339095  -0.77589315 
10870000    1.0529826 -3.3297099e-05   0.58360973  0.051979645            0   0.53163009    1.5715765    2.1551862  -0.14630923 
10875000    1.0347869 -5.0777898e-05    0.6145238  0.016559148            0   0.59796465    1.5444195    2.1589433    -1.350825 
10880000    1.0334379 1.8911283e-05   0.59909875 0.0098245202            0   0.58927423    1.5424061    2.1415048    3.4486527 
10885000    1.0594993 -3.04766e-05   0.54420633 0.0077734385            0    0.5364329    1.5813028    2.1255091  0.018966526 
10890000    1.0369366 1.3968138e-05   0.58102867 0.0044610107            0   0.57656766    1.5476278    2.1286565    3.0941342 
10895000     1.050744 -1.1811506e-06   0.56473545  0.012321127            0   0.55241432    1.5682355    2.1329709    2.0513298 
10900000    1.0302578 4.1928746e-05   0.56933843  0.012649058            0   0.55668937    1.5376598    2.1069983    5.0051132 
10905000    1.0679296 9.3154499e-06   0.51388544  0.014634167            0   0.49925127    1.5938849    2.1077704    2.7516543 
10910000    1.0517997 4.1800892e-05   0.54585393  0.010284846            0   0.53556909    1.5698111     2.115665    5.0049427 
10915000   0.99295849 6.5668248e-05    0.6425745  0.018834357            0   0.62374015    1.4819905     2.124565    6.6635543 
10920000    1.0345427 -1.4382118e-05   0.57084925  0.032093809            0   0.53875544     1.544055    2.1149043    1.1208123 
10925000    1.0250001 1.0421112e-05   0.59605766  0.016351478            0   0.57970618    1.5298127    2.1258704    2.8461777 
10930000    1.0763752 -3.5260327e-05   0.52210799  0.024911575            0   0.49719642    1.6064899    2.1285979  -0.30859588 
10935000    1.0242181 4.8885001e-07    0.5997017 0.0069768115            0   0.59272489    1.5286455    2.1283472    2.1621365 
10940000    1.0405967 -3.3639881e-05   0.56215497  0.017227005            0   0.54492797    1.5530906    2.1152455  -0.20994303 
10945000    1.0034878 2.2066965e-05   0.62665402   0.02434743            0   0.60230659    1.4977055    2.1243595    3.6496281 
10950000    1.0334529 7.5570227e-06   0.58741517  0.033017046            0   0.55439813    1.5424284    2.1298436     2.652185 
10955000    1.0822779 2.0006187e-05   0.52674575  0.019395103            0   0.50735064    1.6152997    2.1420455    3.5248731 
10960000    1.0479709 -2.2067023e-05   0.57764836 0.0095315304            0   0.56811683    1.5640966     2.141745   0.61647236 
10965000     1.057902 -1.1440372e-05   0.56511184 0.0057049528            0   0.55940689    1.5789187    2.1440305     1.353272 
10970000    1.0572284 6.2662901e-06   0.55270069  0.010174597            0   0.54252609    1.5779135    2.1306141    2.5637401 
10975000    1.0977585 3.3668442e-05   0.49962383  0.015304493            0   0.48431934    1.6384045    2.1380284    4.4651911 
10980000    1.0389635 -8.257876e-06    0.5834068  0.021882304            0   0.56152449    1.5506531    2.1340599    1.5632755 
10985000    1.0389859 -2.779177e-05   0.59494248  0.036887051            0   0.55805543    1.5506864    2.1456289   0.22466175 
10990000    1.0825674 2.2896652e-05   0.53096237  0.010080025            0   0.52088235    1.6157319    2.1466943    3.7293108 
10995000   0.98223266 -7.0785321e-05   0.68041231  0.019255724            0   0.66115659    1.4659823    2.1463946   -2.7462868 
11000000    1.0735462 -2.0902672e-05   0.54923244  0.017711899            0   0.53152054    1.6022677    2.1515001   0.70670746 
11005000   0.96909782 -1.1751821e-05   0.69156118 0.0061123904            0   0.68544879    1.4463785    2.1379397    1.3256538 
11010000    1.0430746 -3.5885462e-05   0.58455592 0.0055460258            0   0.57900989    1.5567888    2.1413448  -0.33905841 
11015000    1.0704992 9.0943702e-06   0.52130254 0.0094924552            0   0.51181008      1.59772    2.1190225    2.7476254 
11020000    1.0489001 5.1313182e-05   0.56349896  0.012911714            0   0.55058725    1.5654834    2.1289824    5.6757496 
11025000    1.0489321 -8.2081878e-06   0.55938341  0.012096011            0    0.5472874    1.5655312    2.1249146    1.5575647 
11030000    1.0249647 -1.4590152e-05   0.59761792  0.011346111            0   0.58627181    1.5297598    2.1273777    1.1189064 
11035000    1.0790007 -1.4523456e-05   0.51219383 0.0032930746            0   0.50890075    1.6104086    2.1226024    1.1187411 
11040000    1.0647622 1.6839765e-05   0.54613395 0.0077879913            0   0.53834596    1.5891575    2.1352915     3.299256 
11045000    1.0097037 -3.6228732e-05   0.63818861  0.034348524            0   0.60384008    1.5069828    2.1451714  -0.35895851 
11050000    1.0607086 -4.8594247e-06   0.55823317 0.0050420012            0   0.55319117    1.5831076    2.1413408    1.8054573 
11055000    1.0385673 4.7999389e-05   0.60007876  0.011108104            0   0.58897065    1.5500617    2.1501405    5.4678582 
11060000    1.0675454 -4.0875958e-06   0.54360756  0.016764888            0   0.52684268    1.5933115    2.1369191    1.8543845 
11065000    1.0213968 2.0559075e-05   0.59112515 0.0033089262            0   0.58781623    1.5244347    2.1155599    3.5366031 
11070000    1.0525207 9.4450189e-05    0.5582139 0.0060583192            0   0.55215558    1.5708871     2.129101    8.6574981 
11075000   0.99826363 8.0999163e-05   0.62738291  0.012773026            0   0.61460989    1.4899085    2.1172914    7.7159535 
11080000     1.037696 1.5014375e-05    0.5542065  0.015761248            0   0.53844525    1.5487612    2.1029677    3.1407614 
11085000   0.97637097 6.1060177e-05   0.64602557  0.026382001            0   0.61964357    1.4572337    2.1032592    6.3237387 
11090000     1.049724 4.7303465e-06   0.53713383  0.022416251            0   0.51471758    1.5667131     2.103847    2.4308085 
11095000   0.98772075 1.8882751e-05   0.63393883  0.021499293            0   0.61243954    1.4741732     2.108112    3.4132878 
11100000     1.011849 1.4328483e-05   0.60151508  0.013047686            0   0.58846739    1.5101846    2.1116997    3.1020844 
11105000    1.0694663 4.6612123e-05   0.52795047  0.012412382            0   0.51553809    1.5961785     2.124129    5.3459589 
11110000    1.0914373 2.5173386e-05   0.46626321 0.0090124429            0   0.45725076    1.6289701    2.0952333    3.8352178 
11115000    1.0223972 -3.9813312e-05   0.56039036 0.0088189426            0   0.55157141    1.5259278    2.0863182  -0.66557797 
11120000    1.0488072 -5.3561805e-05   0.52418525  0.019633582            0   0.50455167    1.5653448      2.08953    -1.612662 
11125000   0.95924436 -1.3049272e-05   0.62920818   0.01626379            0   0.61294439    1.4316722    2.0608804    1.1589147 
11130000    1.0102332 -1.2185055e-05   0.57197727  0.019331742            0   0.55264552     1.507773    2.0797503    1.2375193 
11135000    1.0031142 1.5313303e-05   0.58139335  0.026232533            0   0.55516082    1.4971479    2.0785413    3.1369968 
11140000   0.98574828 6.6587735e-05   0.61647426  0.024889019            0   0.59158524    1.4712293    2.0877036    6.6902478 
11145000   0.98181022 5.7258475e-06   0.62642741  0.021505728            0   0.60492169    1.4653517    2.0917792    2.4875497 
11150000    1.0305114 1.3006224e-05    0.5741936 0.0044557806            0   0.56973782    1.5380383    2.1122319    3.0112221 
11155000    1.0180621 4.8319739e-05   0.59350841 0.0022641751            0   0.59124424    1.5194577    2.1129661    5.4528264 
11160000   0.99646992 3.058904e-05   0.61433093 0.0082898564            0   0.60604107    1.4872314    2.1015623    4.2158767 
11165000    1.0265311 3.7055524e-05   0.57345512  0.026162312            0   0.54729281    1.5320977    2.1055529    4.6668306 
11170000    1.0361038 4.5815264e-05   0.55301043  0.016972087            0   0.53603834    1.5463849    2.0993954    5.2661464 
11175000    1.0405085 9.4267645e-05   0.54752946  0.011858137            0   0.53567132     1.552959    2.1004884    8.6162681 
11180000   0.99505595 2.6515107e-05   0.60186724  0.019809876            0   0.58205737     1.485121    2.0869883    3.9197125 
11185000    1.0013416 -1.8090679e-05   0.60654331  0.023383572            0   0.58315974    1.4945023    2.1010456   0.85061785 
11190000    1.0106821  1.39586e-05   0.59226038  0.012557219            0   0.57970316    1.5084431    2.1007035    3.0655219 
11195000    1.0300572 3.4134017e-05   0.53818108  0.013428377            0    0.5247527    1.5373603    2.0755414    4.4348846 
11200000   0.99838311 1.4686444e-05   0.59360307  0.021955702            0   0.57164737    1.4900868    2.0836899    3.0988169 
11205000    1.0118912 7.170487e-05   0.56806516  0.021002592            0   0.54706256    1.5102476    2.0783127    7.0345533 
11210000    1.0056182 -1.8893163e-05   0.56231875  0.017576138            0   0.54474261    1.5008852     2.063204   0.75730858 
11215000   0.99953988 -4.3463763e-05   0.58501132 0.0095074722            0   0.57550385    1.4918133    2.0768246  -0.92739068 
11220000    1.0089944 5.1476671e-05   0.57482265 0.0072292324            0   0.56759342    1.5059242    2.0807468    5.6388143 
11225000    1.0291142 2.7032024e-05   0.54367169 0.0087968783            0   0.53487481    1.5359529    2.0796246    3.9480782 
11230000    1.0261797 4.8632632e-06   0.55958665  0.012373364            0   0.54721329    1.5315731    2.0911598    2.4273085 
11235000   0.99394102 -9.6188895e-06   0.59769288  0.014522258            0   0.58317062     1.483457    2.0811498    1.4162922 
11240000    0.9873438 1.9363942e-05   0.58223229 0.0096244835            0    0.5726078    1.4736106    2.0558429    3.3942786 
11245000    1.0088292 1.3585841e-05   0.55918063 0.0077817531            0   0.55139887    1.5056775    2.0648582    3.0039115 
11250000    1.0054677 5.8136964e-05   0.56664322  0.010103745            0   0.55653947    1.5006606    2.0673038    6.0857308 
11255000    1.0540423 6.6757156e-05   0.49779008  0.020949292            0   0.47684079    1.5731581    2.0709482    6.6852028 
11260000   0.96875331 5.6736715e-06   0.61145749  0.024692254            0   0.58676524    1.4458643    2.0573218     2.449486 
11265000    1.0294241 -1.8801143e-05   0.53110756  0.021126818            0   0.50998074    1.5364154     2.067523   0.76798796 
11270000    1.0035334 -4.445638e-05   0.58718825  0.014270717            0   0.57291754    1.4977735    2.0849618  -0.98786323 
11275000    1.0297158 -2.5974156e-05   0.54326018  0.011862085            0    0.5313981    1.5368508     2.080111   0.28477735 
11280000   0.97217258 -4.7609569e-05    0.6170604  0.015708551            0   0.60135185    1.4509676     2.068028   -1.2227454 
11285000    1.0158408 -4.564599e-06    0.5390314  0.016422281            0   0.52260912    1.5161424    2.0551738    1.7396687 
11290000   0.94748616 4.2915926e-05   0.65961235  0.015392166            0   0.64422018    1.4141231    2.0737354    5.0400842 
11295000    1.0389016 4.9087678e-05   0.52056399  0.018673663            0   0.50189033    1.5505607    2.0711247     5.464065 
11300000    1.0389091 -4.0778831e-05   0.52401546   0.03083133            0   0.49318413    1.5505719    2.0745873  -0.74404547 
11305000    0.9961262 -6.5965687e-05   0.58002212  0.021613735            0   0.55840838    1.4867183    2.0667405   -2.4928078 
11310000    1.0285465 -4.7222897e-05   0.53960145   0.01728114            0   0.52232031    1.5351056     2.074707   -1.1893396 
11315000   0.98220866 -3.4673665e-06   0.61435389  0.028912737            0   0.58544116    1.4659464    2.0803003    1.8406359 
11320000    1.0083868 1.0355865e-05   0.56752868  0.017548398            0   0.54998028    1.5050174     2.072546    2.7883434 
11325000    1.0207688 -1.554141e-05   0.54792451  0.015575837            0   0.53234867    1.5234974    2.0714219   0.99719968 
11330000   0.98164957 -2.4710686e-05    0.6018701  0.020633157            0   0.58123694     1.465112    2.0669821   0.35897946 
11335000    1.0524152 -8.6313425e-05   0.49561671 0.0064698023            0   0.48914691    1.5707297    2.0663464   -3.8996375 
11340000    1.0135224 -2.4985383e-05   0.57476839  0.016287769            0   0.55848062    1.5126822    2.0874506   0.36046093 
11345000    1.0184423 2.1236162e-05   0.56294114  0.024757996            0   0.53818315    1.5200252    2.0829663    3.5508098 
11350000     1.039574 1.784452e-05   0.54232147  0.024778829            0   0.51754264    1.5515641    2.0938856    3.3272988 
11355000    1.0011694 -3.0773544e-05   0.59595577  0.030330063            0    0.5656257    1.4942454    2.0902012 -0.036866227 
11360000    1.0079631 1.764752e-06   0.58259064  0.017899535            0    0.5646911    1.5043849    2.0869755    2.2089552 
11365000   0.99061155 5.6925861e-06   0.59525636    0.0320781            0   0.56317826    1.4784877    2.0737441    2.4672157 
11370000     1.002664 -1.4051296e-06   0.56821991  0.032473253            0   0.53574666     1.496476    2.0646959    1.9675734 
11375000   0.97749666 -2.938227e-05   0.60354033  0.034985817            0   0.56855451    1.4589138    2.0624541  0.031551553 
11380000    1.0204855 -8.0824122e-05   0.54219165  0.028392207            0   0.51379945    1.5230746    2.0652662   -3.5212971 
11385000     1.072664 3.7165973e-05   0.46426002  0.012478847            0   0.45178117    1.6009511    2.0652111    4.6341232 
11390000    1.0159633 -4.7247196e-05   0.54649189 0.0086546101            0   0.53783728    1.5163252    2.0628171    -1.202909 
11395000    1.0202492 7.9589721e-06   0.58489403  0.017126417            0   0.56776761    1.5227219    2.1076159      2.65774 
11400000    1.0698337 6.3995104e-05   0.51705017  0.022074632            0   0.49497554    1.5967267    2.1137769    6.5371185 
11405000    1.0137633 -1.1942261e-05   0.60299668  0.020275952            0   0.58272073    1.5130417    2.1160383    1.2905893 
11410000   0.94617777 5.9385777e-05   0.71559665 0.0085443859            0   0.70705226    1.4121703     2.127767    6.2325119 
11415000    1.0545102 4.5805664e-05   0.55488373  0.011310867            0   0.54357286    1.5738564    2.1287401    5.2948276 
11420000   0.97664449 -9.0787407e-05    0.6628576  0.013079442            0   0.64977815    1.4576419    2.1204995   -4.1547261 
11425000    1.0592779 -2.0457043e-05   0.54914247   0.00564195            0   0.54350052    1.5809723    2.1301148   0.71612391 
11430000    1.0258318 1.4320321e-06    0.5937049  0.010780792            0   0.58292411     1.531054    2.1247589     2.223741 
11435000    1.0419782 7.6495427e-06    0.5641382  0.015875524            0   0.54826268    1.5551524    2.1192906     2.648027 
11440000    1.0286658 5.9665832e-06    0.5970432  0.032096312            0   0.56494689    1.5352837    2.1323269    2.5447371 
11445000    1.0728783 -2.7796738e-05    0.5170389  0.017520014            0   0.49951889    1.6012709    2.1183098   0.19699922 
11450000    1.0900252 -2.4207993e-05    0.5101901  0.007749451            0   0.50244064    1.6268626    2.1370527   0.46379625 
11455000   0.97908894 -8.0201912e-06   0.66526497 0.0093280847            0   0.65593688    1.4612902    2.1265552    1.5721996 
11460000    1.0542281 4.0254158e-06   0.55935085  0.011400432            0   0.54795041    1.5734354    2.1327862     2.411023 
11465000    1.0312439 -1.3418144e-05   0.58328276  0.012221321            0   0.57106144    1.5391315    2.1224142    1.1949521 
11470000    1.0354049 2.5183356e-05   0.56464016  0.015893153            0     0.548747    1.5453418    2.1099819    3.8506555 
11475000     1.074897 7.7765675e-05   0.51687692  0.014825888            0   0.50205103    1.6042838    2.1211607    7.4963242 
11480000    1.0508873 3.2804172e-05   0.55284756  0.016303059            0   0.53654451    1.5684493    2.1212969    4.3887212 
11485000    1.0113949 1.8252466e-05   0.61389621  0.025690225            0   0.58820599    1.5095069    2.1234031    3.3850136 
11490000    1.0257612 4.9478515e-05   0.59368079   0.02496137            0   0.56871942    1.5309485    2.1246293    5.5445843 
11495000    1.0333733 -4.1655857e-05   0.56056874  0.022923105            0   0.53764564    1.5423096    2.1028784  -0.77637443 
11500000    1.0214503 -2.0067127e-05   0.58222457  0.022004431            0   0.56022014    1.5245145    2.1067391   0.71969926 
11505000    1.0153888 8.3009336e-05   0.59600213  0.025471707            0   0.57053042    1.5154678    2.1114699    7.8490752 
11510000    1.0469685 7.6495002e-05   0.54084975  0.028877095            0   0.51197266    1.5626005    2.1034502    7.3907848 
11515000    1.0376009 -6.2335248e-05   0.57278655   0.02197014            0   0.55081641    1.5486193    2.1214058   -2.1872065 
11520000    1.0535306 -5.1860286e-05   0.55268202  0.013159889            0   0.53952213    1.5723944    2.1250764   -1.4595066 
11525000   0.98527326 -3.1187303e-05   0.65786007  0.035676025            0   0.62218404    1.4705203    2.1283804 -0.027285989 
11530000    1.0135182 9.065383e-06   0.61785148  0.031452314            0   0.58639917    1.5126759    2.1305274    2.7571267 
11535000    1.0817884 4.8386364e-05   0.51014867  0.018105057            0   0.49204362    1.6145691    2.1247178    5.4691833 
11540000    1.0917176 -3.9424034e-05   0.51563466   0.01912137            0   0.49651329    1.6293886    2.1450232    -0.579966 
11545000     1.081104 -5.5109664e-05   0.51677043  0.017750694            0   0.49901974    1.6135477    2.1303181   -1.6788619 
11550000    1.0233839 -1.405504e-05   0.60776964   0.01875791            0   0.58901173    1.5274005    2.1351702    1.1636858 
11555000    1.0063525 -5.4098369e-05   0.63066265   0.02060588            0   0.61005677    1.5019811    2.1326438   -1.6066355 
11560000    1.0761461 3.2477871e-06   0.54199539  0.017085181            0   0.52491021     1.606148    2.1481434    2.3726304 
11565000     1.022158 5.2408662e-05   0.63235539  0.020467017            0   0.61188837    1.5255708    2.1579262    5.7804129 
11570000    1.0374252 1.3322395e-06   0.59192303  0.022588656            0   0.56933437    1.5483571    2.1402801    2.2323645 
11575000    1.0236075 -4.5851765e-05   0.60298805  0.027756372            0   0.57523167    1.5277341    2.1307222   -1.0385518 
11580000    1.0591094 4.2938072e-05    0.5383888 0.0050687497            0   0.53332005    1.5807207    2.1191095     5.086989 
11585000    1.0575406 1.6079787e-06   0.53773351 0.0017611586            0   0.53597235    1.5783793    2.1161128    2.2272563 
11590000    1.0197122 -2.7908314e-06   0.59642487 0.0066195999            0   0.58980527    1.5219205    2.1183453    1.9254431 
11595000    1.0212629 2.2955206e-06   0.58834565  0.007503542            0    0.5808421    1.5242349    2.1125806    2.2712469 
11600000    1.0538701 3.027656e-07   0.52458206  0.011090078            0   0.51349198    1.5729011    2.0974832    2.1184103 
11605000    1.0090201 -1.6243018e-05   0.59288387   0.01380686            0   0.57907701    1.5059625    2.0988464   0.97612897 
11610000    1.0482827 5.431592e-05   0.51979551  0.015482647            0   0.50431287    1.5645619    2.0843574    5.8386738 
11615000    1.0175136 4.3810784e-05   0.55090542  0.018887598            0   0.53201782     1.518639    2.0695444    5.0977459 
11620000    0.9899651 -5.3101239e-05   0.56847015  0.014042909            0   0.55442724    1.4775229    2.0459931   -1.6243646 
11625000    1.0099361 1.0637917e-05   0.54061712 0.0096310173            0    0.5309861    1.5073297    2.0479468    2.7832396 
11630000   0.97918775 4.2460395e-05   0.58420936  0.024792076            0   0.55941728    1.4614377    2.0456471    4.9805096 
11635000    1.0242673 4.8709769e-06   0.50132573  0.020952368            0   0.48037336     1.528719    2.0300447    2.3667267 
11640000   0.92887754 -7.9406502e-07   0.63518729  0.034462715            0   0.60072458    1.3863497     2.021537    1.9666512 
11645000    1.0298863 1.1617592e-05   0.49699508  0.020456239            0   0.47653884    1.5371053    2.0341004    2.8371084 
11650000   0.94926298 -4.7224707e-06   0.61111151  0.026339214            0   0.58477229     1.416775    2.0278865    1.7014693 
11655000   0.97820274 -3.7687609e-06   0.56216165  0.024769785            0   0.53739187    1.4599676    2.0221292    1.7616325 
11660000     1.023152 -2.9142049e-05   0.49453326  0.021893771            0   0.47263949    1.5270543    2.0215876 0.0072891038 
11665000   0.99153696 -1.3213363e-05   0.53474159  0.026044793            0    0.5086968    1.4798689    2.0146105    1.1013028 
11670000   0.94879205 3.4571952e-05   0.60217138  0.030889632            0   0.57128175    1.4160721    2.0182435    4.4078569 
11675000    1.0314839 3.5599517e-05   0.47584029  0.035357505            0   0.44048278    1.5394897      2.01533    4.4759687 
11680000    1.0067338 -5.0815764e-06   0.52233127  0.025519414            0   0.49681185    1.5025502    2.0248815    1.6736429 
11685000   0.98331267 -1.5529168e-05   0.54968874  0.013434598            0   0.53625414    1.4675942    2.0172829   0.94390679 
11690000   0.97438679 -3.7982586e-06   0.56496136  0.020999889            0   0.54396148    1.4542723    2.0192336     1.756698 
11695000   0.99223292 6.2184245e-06   0.53411818  0.065334906            0   0.46878327    1.4809076    2.0150258    2.4448433 
11700000   0.94633085 -2.3580921e-05   0.60953629   0.03227164            0   0.57726465    1.4123988    2.0219351   0.39202184 
11705000   0.99642642 -3.6881625e-05   0.53474026  0.013604527            0   0.52113573    1.4871664    2.0219067  -0.52735121 
11710000   0.98524548 -4.5072249e-05   0.55009282  0.017276251            0   0.53281657    1.4704789    2.0205717   -1.0948222 
11715000    1.0640083 -1.0054398e-05   0.41455425  0.013679425            0   0.40087482    1.5880324    2.0025866    1.3076266 
11720000   0.97720071 5.5289565e-05   0.55466581  0.028281326            0   0.52638449    1.4584721    2.0131379    5.8347526 
11725000    1.0067673  8.32098e-05   0.51502855  0.024382523            0   0.49064603    1.5026002    2.0176288    7.7690901 
11730000   0.99852793 -4.6319328e-07   0.52355261  0.032050149            0   0.49150246    1.4903029    2.0138555    1.9818396 
11735000   0.99155232 3.7477027e-06   0.54976066   0.04395411            0   0.50580655    1.4798918    2.0296525    2.2886937 
11740000     1.000827 1.0622264e-05   0.56240652   0.02752245            0   0.53488407    1.4937343    2.0561409    2.7903517 
11745000   0.94660752 3.5912489e-05   0.63349103  0.043329299            0   0.59016173    1.4128117    2.0463028     4.528574 
11750000    1.0009084 1.3247369e-05   0.54297124  0.044910644            0    0.4980606    1.4938559    2.0368271    2.9524852 
11755000    1.0232693 -4.6377393e-05   0.51819857  0.044825401            0   0.47337317    1.5272294    2.0454279   -1.1601774 
11760000    1.0426041 -3.9963934e-05   0.47956922  0.031205967            0   0.44836325    1.5560866    2.0356558   -0.7266513 
11765000    1.0077847 -4.0994572e-05    0.5355306  0.026163145            0   0.50936746    1.5041186    2.0396492  -0.79389557 
11770000    1.0019063 -1.3875856e-05   0.55006168  0.022601598            0   0.52746008    1.4953451    2.0454068    1.0863076 
11775000   0.98694907 3.7364505e-05   0.57721278  0.016007056            0   0.56120573    1.4730215    2.0502343    4.6328689 
11780000   0.97172597 9.4065068e-05   0.60072252  0.016638176            0   0.58408435     1.450301    2.0510235    8.5528011 
11785000    1.0425767 2.4129592e-05    0.4828331  0.012700813            0   0.47013229    1.5560457    2.0388788    3.7067162 
11790000    1.0258121 1.9928245e-05   0.50947222  0.018249348            0   0.49122287    1.5310246    2.0404969    3.4179372 
11795000    1.0223046 -1.4058996e-05   0.54957835  0.012570991            0   0.53700736    1.5257896     2.075368    1.1036102 
11800000    1.0260784 -1.2102452e-05   0.53797418 0.0065419495            0   0.53143223    1.5314221    2.0693963    1.2328748 
11805000    1.0719207 4.1137827e-05   0.48588934  0.011826446            0    0.4740629    1.5998417     2.085731    4.9291776 
11810000    1.0599543 -3.4766344e-05   0.50569495  0.025122397            0   0.48057255    1.5819818    2.0876768  -0.31537294 
11815000    1.0122396 -4.1710707e-05   0.58024755  0.022515249            0    0.5577323    1.5107677    2.0910152  -0.79202885 
11820000   0.99330482 3.4411258e-05   0.60110097  0.025355429            0   0.57574554    1.4825074    2.0836084    4.4621146 
11825000     1.063202 6.8759772e-05   0.49419448  0.024095377            0    0.4700991    1.5868289    2.0810234    6.8336988 
11830000    1.0378141 -5.0607138e-05   0.52965544  0.016268521            0   0.51338692    1.5489375    2.0785929   -1.4193725 
11835000      1.02174 -7.4208636e-05   0.56019422  0.012353213            0   0.54784101    1.5249469    2.0851411   -3.0441598 
11840000    1.0062783 -1.7018736e-05   0.57767813  0.021059937            0   0.55661819    1.5018703    2.0795484   0.90321343 
11845000    1.0154606 -7.6882262e-05   0.56696724  0.011520161            0   0.55544707     1.515575    2.0825423   -3.2315597 
11850000   0.98434274 -6.2856663e-07    0.6160908   0.00230312            0   0.61378768    1.4691315    2.0852223    2.0417758 
11855000    1.0797415 1.2431823e-05   0.46607379  0.005631758            0   0.46044204    1.6115141    2.0775879    2.9368756 
11860000    1.0570696 -5.7813808e-05   0.48691316  0.011425632            0   0.47548752    1.5776764    2.0645896   -1.9315009 
11865000    1.0147358 -2.2071845e-05   0.56433828  0.020650689            0   0.54368759    1.5144931    2.0788314   0.55322551 
11870000    1.0365482 -1.6699663e-05   0.54382272  0.011791935            0   0.53203079    1.5470482    2.0908709   0.93659018 
11875000    1.0270668 1.3755811e-05   0.55257011  0.011879252            0   0.54069086    1.5328973    2.0854674     3.036269 
11880000    1.0129525 1.0413467e-05   0.56752059 0.0023361859            0   0.56518441    1.5118315    2.0793521     2.799131 
11885000     1.016501 -8.9860934e-06   0.55394709 0.0046467364            0   0.54930035    1.5171278    2.0710749    1.4499561 
11890000    1.0320737 1.7246953e-05   0.51740549 0.0076303984            0   0.50977509    1.5403699    2.0577754    3.2498848 
11895000    1.0230445 -5.541431e-05    0.5214971  0.015319225            0   0.50617788    1.5268939     2.048391   -1.7818462 
11900000    1.0225277 -1.7486672e-05    0.5372107  0.019915607            0   0.51729509    1.5261226    2.0633333   0.85465458 
11905000    1.0004314 -4.5575592e-05   0.54952978  0.010281733            0   0.53924805    1.4931439    2.0426737   -1.1075112 
11910000    1.0084594 -9.1913766e-05    0.5288363 0.0054804772            0   0.52335582    1.5051257     2.033962   -4.3191175 
11915000    1.0149583 -2.3599347e-05   0.52388127  0.022618083            0   0.50126319    1.5148253    2.0387066   0.40751968 
11920000   0.96644858 9.7333245e-06   0.57878293  0.032649885            0   0.54613304    1.4424245    2.0212074    2.6939748 
11925000    1.0043022 1.4197608e-05   0.49020029  0.025824241            0   0.46437605     1.498921    1.9891213      2.97046 
11930000   0.98242139 -3.1655941e-05   0.52101413  0.013005616            0   0.50800852    1.4662639    1.9872781  -0.20078056 
11935000   0.97128279 -2.2365242e-07   0.53942833 0.0052593925            0   0.53416894    1.4496396    1.9890679     1.973609 
11940000   0.99192071 1.1343656e-05    0.5135008 0.0039125336            0   0.50958826    1.4804417    1.9939425     2.778016 
11945000   0.97448548 -1.8477118e-05    0.5403038  0.011524039            0   0.52877976    1.4544196    1.9947234   0.71758502 
11950000    0.9914332 -4.7209856e-05    0.5036838  0.018379865            0   0.48530393    1.4797141    1.9833979   -1.2797474 
11955000   0.96775093 -3.7254033e-05    0.5279129  0.025764089            0   0.50214881    1.4443683    1.9722812  -0.60271762 
11960000   0.96764117 -7.2581961e-06    0.5291711  0.028516337            0   0.50065476    1.4442044    1.9733755     1.471689 
11965000    1.0112431 -3.1656629e-06   0.46251295  0.022134298            0   0.44037865    1.5092804    1.9717933    1.7529827 
11970000   0.98784454 5.6014814e-05   0.50467398  0.012233541            0   0.49244044     1.474358     1.979032    5.8507759 
11975000   0.99851534 5.5477787e-05   0.49568852  0.021441551            0   0.47424697    1.4902841    1.9859727    5.8205973 
11980000   0.95271483 -8.708106e-06   0.55923358  0.021603627            0   0.53762996    1.4219269    1.9811605    1.3792562 
11985000   0.94451692 -7.2834083e-05   0.56273746  0.015985006            0   0.54675246    1.4096915     1.972429   -3.0618629 
11990000   0.97627593 -2.9419355e-05    0.5165118  0.013940752            0   0.50257105    1.4570918    1.9736036 -0.059862215 
11995000    1.0426091 -2.6397058e-05   0.43451411 0.0055714811            0   0.42894263    1.5560941    1.9906082   0.16604354 
12000000   0.98637337 8.9995216e-06   0.51681682 0.0054199961            0   0.51139683    1.4721623    1.9889791     2.611026 
12005000   0.97599675 2.2389512e-05   0.53654753  0.010909716            0   0.52563781    1.4566751    1.9932227    3.5407858 
12010000    1.0109145 -3.5555218e-05   0.49157486  0.034266013            0   0.45730885    1.5087899    2.0003648  -0.45721189 
12015000    1.0115982 -1.0513912e-05   0.48753032  0.019794262            0   0.46773606    1.5098103    1.9973406     1.270619 
12020000     1.002038 -3.3571174e-06   0.49650623  0.011115937            0   0.48539029    1.4955417    1.9920479    1.7600039 
12025000   0.94196886 -3.169074e-06   0.56533542  0.040135158            0   0.52520027    1.4058885     1.971224    1.7521776 
12030000   0.99627865 -7.1456462e-06   0.47436429  0.038978709            0   0.43538558    1.4869459    1.9613102    1.4674031 
12035000   0.95106631 -2.2689998e-05   0.54260542  0.016048088            0   0.52655733    1.4194665    1.9620719   0.39373921 
12040000   0.95305638 2.2393372e-05   0.55213624   0.01359056            0   0.53854568    1.4224366    1.9745729    3.5224028 
12045000   0.97935583 1.5483474e-05   0.54182723 0.0069658127            0   0.53486142    1.4616886    2.0035158    3.0737335 
12050000    1.0203407 5.4997174e-06   0.48751338  0.012011656            0   0.47550173    1.5228584    2.0103718    2.3905123 
12055000    1.0058946 1.8635217e-05   0.51442257  0.017652817            0   0.49676975    1.5012977    2.0157202    3.3037864 
12060000   0.99240197 4.3485927e-06   0.52518333  0.012197694            0   0.51298563    1.4811599    2.0063433     2.306918 
12065000   0.97754689 6.6817632e-06   0.54674791  0.024526141            0   0.52222177    1.4589887    2.0057366    2.4675801 
12070000   0.99920137 -4.4370795e-06   0.51589272  0.021560884            0   0.49433184    1.4913081    2.0072008    1.7005098 
12075000   0.98639606 9.0258792e-06   0.54012164  0.030409253            0   0.50971239    1.4721961    2.0123178    2.6361865 
12080000    0.9914263 3.4733949e-05   0.51258807  0.024256383            0   0.48833168    1.4797038    1.9922918    4.3931024 
12085000   0.96641299 5.668898e-05   0.56321679 0.0091289982            0   0.55408779    1.4423714    2.0055882    5.9239305 
12090000     1.047027 3.6674346e-05    0.4255243   0.01184242            0   0.41368188    1.5626878    1.9882121    4.5231429 
12095000   0.95986621 2.0403374e-05   0.52331677  0.019458403            0   0.50385837    1.4326003    1.9559171    3.3661983 
12100000   0.96963834 2.825834e-05   0.52051987  0.019887463            0    0.5006324    1.4471852    1.9677051    3.9209216 
12105000    1.0139499 1.0878853e-05   0.47286196  0.020460012            0   0.45240195    1.5133202    1.9861821    2.7381285 
12110000    1.0496368 4.9506953e-06    0.4114771  0.013558179            0   0.39791892    1.5665829      1.97806    2.3202521 
12115000   0.95936123 4.8746332e-06   0.53213352   0.01580477            0   0.51632875    1.4318466    1.9639802    2.3009148 
12120000   0.95455439 -2.7318066e-05   0.54896629 0.0092439422            0   0.53972234    1.4246724    1.9736387  0.085414008 
12125000   0.98652993 -5.1527106e-05   0.50351283  0.011991566            0   0.49152126    1.4723959    1.9759088   -1.5856448 
12130000    1.0069076 -3.5639619e-05   0.48306974  0.034484727            0   0.44858501    1.5028096    1.9858793  -0.47753112 
12135000   0.96872862 7.6519098e-07   0.53406485  0.024299226            0   0.50976562    1.4458275    1.9798923    2.0327823 
12140000   0.98906024 1.7267631e-05   0.49637854  0.018052154            0   0.47832638    1.4761724    1.9725509    3.1660896 
12145000   0.97342386 -1.1894054e-05   0.53706941   0.02292654            0   0.51414287    1.4528351    1.9899045    1.1677875 
12150000   0.97988835 -8.4628472e-05   0.53058204  0.026494226            0   0.50408782    1.4624834    1.9930654   -3.8564546 
12155000   0.96134176 -7.5081354e-05   0.57175863   0.01593685            0   0.55582178    1.4348026    2.0065612    -3.183062 
12160000    1.0076715 -1.1124137e-05   0.48619597  0.018289434            0   0.46790654    1.5039498    1.9901458    1.2212454 
12165000    1.0039099 -4.2546108e-07   0.47856575  0.021333609            0   0.45723214    1.4983355    1.9769013    1.9474934 
12170000   0.97456716 2.3196941e-05   0.52314035  0.014692056            0    0.5084483    1.4545415    1.9776818    3.5810544 
12175000    1.0015144 1.4932193e-05   0.48180855  0.015268943            0    0.4665396    1.4947603    1.9765688     3.008682 
12180000   0.96078234 1.2125594e-06   0.55025799  0.017708306            0   0.53254968    1.4339676    1.9842256    2.0680377 
12185000   0.99838855 3.9264876e-05   0.49862628  0.018090378            0    0.4805359    1.4900949    1.9887212    4.7027094 
12190000   0.99022548 4.6445778e-05    0.5010303 0.0071700996            0    0.4938602    1.4779115    1.9789418     5.189274 
12195000    1.0149315 4.3539027e-05   0.47946273 0.0065203641            0   0.47294236    1.5147853     1.994248    5.0036656 
12200000   0.98035349 2.9197294e-05   0.51538711  0.010423417            0    0.5049637    1.4631776    1.9785647    3.9966817 
12205000    1.0363842 -3.1584284e-05   0.43418996  0.014680194            0   0.41950976    1.5468033    1.9809933  -0.20211241 
12210000   0.99150686 -7.661963e-05   0.51414173  0.015056329            0    0.4990854     1.479824    1.9939657   -3.3019831 
12215000     1.008374 -6.5229633e-05   0.49414392 0.0080562264            0   0.48608769    1.5049982    1.9991421   -2.5095301 
12220000   0.99151814 -2.1033501e-05   0.50203338   0.01768718            0    0.4843462    1.4798408    1.9818742   0.52803861 
12225000   0.97416005 1.4829392e-06   0.51883833  0.018115176            0   0.50072315    1.4539339    1.9727722     2.075273 
12230000    1.0078756 5.7254933e-07   0.47032331 0.0068505567            0   0.46347275    1.5042544    1.9745777    2.0141523 
12235000   0.98708074 -1.4357897e-05   0.50986935 0.0092658393            0   0.50060351     1.473218    1.9830874   0.99066954 
12240000    1.0170747 5.0035523e-05   0.45756422  0.023050046            0   0.43451417     1.517984    1.9755482    5.4340036 
12245000   0.98545376 2.1547393e-05   0.51901592  0.021392637            0   0.49762328    1.4707897    1.9898057    3.4791614 
12250000    1.0012615 -1.6716983e-05    0.4924635  0.018552405            0    0.4739111    1.4943829    1.9868464    0.8313685 
12255000    1.0139172 -6.7663162e-05   0.45231881  0.011876869            0   0.44044194    1.5132715    1.9655903   -2.7112874 
12260000   0.99136655 -6.711552e-05   0.49014691 0.0085881664            0   0.48155874    1.4796146    1.9697615   -2.6692632 
12265000   0.99357261 1.8613112e-05   0.47854527  0.012826369            0    0.4657189    1.4829071    1.9614524    3.2479907 
12270000   0.99748491 2.2803258e-05   0.46777371  0.010120646            0   0.45765306    1.4887462    1.9565199    3.5326811 
12275000   0.97827573 -1.9318826e-05   0.48997625  0.017960749            0    0.4720155    1.4600765    1.9500528   0.61473549 
12280000     1.005571 -1.8217867e-05   0.43636103  0.015047498            0   0.42131354    1.5008147    1.9371757   0.67795671 
12285000   0.99877625 8.4966372e-06   0.47185619  0.014274497            0    0.4575817    1.4906736    1.9625298    2.5498173 
12290000   0.98317005 -6.237879e-06   0.49073455  0.016347136            0   0.47438742    1.4673813    1.9581159    1.5269537 
12295000    1.0018761 1.1951682e-06   0.46224075  0.016423653            0    0.4458171       1.4953    1.9575408    2.0401508 
12300000   0.96663953 -1.4667351e-05    0.5171121  0.025810925            0   0.49130117    1.4427095    1.9598216   0.94601429 
12305000   0.97745444 9.2130752e-06   0.48437088  0.026708771            0   0.45766211    1.4588507    1.9432216    2.5800294 
12310000   0.97635953 5.3961831e-05   0.49041003  0.033846857            0   0.45656317    1.4572166    1.9476266    5.6774684 
12315000   0.98579012 1.4684084e-05   0.47163221  0.018737833            0   0.45289438    1.4712917     1.942924    2.9578878 
12320000   0.97383054 -1.3240075e-05   0.49194159  0.024993743            0   0.46694784    1.4534421    1.9453837    1.0302297 
12325000   0.96500952 1.4559057e-05   0.49760174  0.019199036            0   0.47840271    1.4402767    1.9378785    2.9442005 
12330000   0.95829303 9.6805434e-06   0.52194104 0.0038219085            0   0.51811914    1.4302523    1.9521934    2.6213125 
12335000   0.99844054 1.1370552e-06   0.47046359  0.014618515            0   0.45584507    1.4901725    1.9606361    2.0392293 
12340000   0.96111482 -5.4780613e-06   0.52723743  0.017962945            0   0.50927448    1.4344639    1.9617013    1.5830577 
12345000   0.98345459  3.12415e-05   0.49469014  0.015388031            0   0.47930211     1.467806    1.9624961    4.1219086 
12350000   0.96583526 -1.2693509e-05   0.54091487   0.02143739            0   0.51947748    1.4415091     1.982424    1.1050486 
12355000   0.99782356 -1.530036e-05   0.49180239 0.0079917154            0   0.48381067    1.4892517    1.9810541   0.92349316 
12360000    1.0146682 2.7197553e-05   0.48533642 0.0098348863            0   0.47550153    1.5143923    1.9997287    3.8796236 
12365000    1.0625451 -1.9121742e-05   0.41377001   0.02268237            0   0.39108764    1.5858485    1.9996186   0.67792376 
12370000    1.0197363 -3.4349382e-05   0.48020839   0.02736974            0   0.45283865    1.5219564    2.0021648  -0.37206446 
12375000   0.97592028 2.4355059e-05   0.52530762  0.018915356            0   0.50639227     1.456561    1.9818686    3.6652903 
12380000    1.0111564 1.7406957e-05      0.46997  0.016242396            0    0.4537276     1.509151     1.979121    3.1822898 
12385000    1.0193235 -1.7063671e-06   0.47759483  0.027897304            0   0.44969752    1.5213403    1.9989351     1.880991 
12390000   0.99597063 8.3405133e-06   0.51788295  0.020618719            0   0.49726423    1.4864862    2.0043691    2.5808654 
12395000   0.99430842 1.8258897e-05    0.5224479  0.024212818            0   0.49823508    1.4840053    2.0064532    3.2685082 
12400000    1.0014619 5.5292808e-06   0.49296055  0.017956846            0   0.47500371    1.4946818    1.9876424    2.3698263 
12405000    1.0266944 6.8056279e-06   0.46942446  0.016423937            0   0.45300052    1.5323415    2.0017659    2.4721709 
12410000    1.0302065 -8.6054448e-06   0.45885413  0.017925942            0   0.44092819    1.5375832    1.9964374     1.401629 
12415000   0.99943602 -1.6586921e-05   0.49386891  0.025715611            0    0.4681533    1.4916583    1.9855272   0.83903919 
12420000    1.0248379 7.0678494e-05   0.44981345  0.015393067            0   0.43442038    1.5295706     1.979384    6.8646815 
12425000   0.98292219 -3.9544617e-06    0.5067453  0.018860984            0   0.48788431    1.4670114    1.9737567    1.7004243 
12430000   0.98662487 -3.7150582e-05   0.50666711    0.0161048            0   0.49056231    1.4725376    1.9792047  -0.58864349 
12435000    1.0693461 -9.7116494e-06    0.3774822 0.0085736915            0   0.36890851    1.5959991    1.9734813    1.3022121 
12440000    1.0011321 -3.4617857e-05   0.48471287  0.017347699            0   0.46736517    1.4941896    1.9789025  -0.41388382 
12445000   0.97360267 -3.1367351e-05   0.53528929  0.034950036            0   0.50033926     1.453102    1.9883913     -0.17972 
12450000    1.0101414 -3.197639e-05   0.44893943  0.023332213            0   0.42560722     1.507636    1.9565755   -0.2536326 
12455000   0.99238174 4.343937e-05   0.49053622  0.014483654            0   0.47605256    1.4811298     1.971666    4.9741953 
12460000   0.97801018 -7.6454668e-06   0.50398756  0.027663785            0   0.47632377    1.4596802    1.9636678    1.4352131 
12465000     0.942331 -2.9175983e-06   0.55998389  0.019107891            0     0.540876     1.406429    1.9664129    1.7647485 
12470000   0.99672616 -3.3646894e-05   0.46288385  0.009626706            0   0.45325714    1.4876138    1.9504976  -0.37517567 
12475000    1.0081016 -2.8333554e-05   0.45109644  0.007369169            0   0.44372727    1.5045916     1.955688 -0.002727259 
12480000   0.95140778 -1.3858893e-05    0.5279115 0.0097426502            0   0.51816885    1.4199761    1.9478876   0.98996091 
12485000   0.97828051 -6.1222886e-05   0.47495857  0.015309775            0   0.45964879    1.4600837    1.9350422   -2.2966836 
12490000   0.98823708 -9.3375484e-06   0.46187843  0.024172735            0    0.4377057    1.4749438    1.9368223    1.2914109 
12495000   0.96075805 -4.0911914e-05   0.50742492  0.022049221            0    0.4853757    1.4339314    1.9413563  -0.88647519 
12500000   0.99267032 -7.2864721e-05   0.47076698  0.018467829            0   0.45229915    1.4815605    1.9523274   -3.0840821 
12505000   0.98909226 -1.5773659e-05   0.48650901  0.031163677            0   0.45534533    1.4762202    1.9627292   0.87245393 
12510000   0.96006551 -3.1956991e-05   0.52071442  0.032616016            0   0.48809841    1.4328978    1.9536122  -0.25525499 
12515000   0.99942064 -2.0336709e-05   0.46649054  0.016229529            0   0.45026101    1.4916353    1.9581258   0.55245256 
12520000   0.95192525 3.7846405e-06   0.51871361  0.004675545            0   0.51403806    1.4207484     1.939462    2.2010564 
12525000   0.99767945 -1.0207885e-05   0.45296644 0.0049853326            0    0.4479811    1.4890366     1.942003     1.236434 
12530000   0.98771093 -5.4845122e-06   0.46559694  0.010602229            0   0.45499471    1.4741586    1.9397555     1.560666 
12535000   0.96504052 -1.5133767e-05   0.49931192  0.025824262            0   0.47348766     1.440323    1.9396349   0.89358896 
12540000    0.9875608 -8.1959357e-06   0.45884424  0.017384662            0   0.44145957    1.4739345    1.9327787    1.3662757 
12545000    1.0196797 5.1813445e-07   0.43460283 0.0087271491            0   0.42587568    1.5218719    1.9564747    1.9922882 
12550000   0.99258503 6.8656239e-05   0.48431914  0.015165844            0    0.4691533    1.4814332    1.9657523    6.7112715 
12555000    1.0242023 1.6260592e-05   0.44193945   0.02691287            0   0.41502658    1.5286219    1.9705613    3.0944934 
12560000   0.96374205 -5.1595659e-05   0.53619143  0.036317354            0   0.49987408     1.438385    1.9745764   -1.5917155 
12565000    1.0071786 1.1240727e-05   0.47997945  0.016302003            0   0.46367745    1.5032141    1.9831935    2.7601526 
12570000    1.0546886 3.2179388e-06   0.42950731  0.011751905            0    0.4177554    1.5741228    2.0036301     2.226054 
12575000   0.97757382 3.5966447e-05   0.53268719  0.018089268            0   0.51459792    1.4590289    1.9917161     4.477717 
12580000    1.0604672 1.2385153e-05   0.40632141  0.028985087            0   0.37733633    1.5827474    1.9890688    2.8451305 
12585000   0.98372278 -1.4135466e-05   0.52371015  0.023629792            0   0.50008036    1.4682063    1.9919164     1.014873 
12590000   0.99521919 -3.4830393e-06   0.51670342  0.032913729            0    0.4837897    1.4853646    2.0020681    1.7613204 
12595000      1.00106 -8.7575789e-06   0.50450702  0.016759608            0   0.48774741     1.494082     1.998589    1.3932652 
12600000    1.0322631 4.7382135e-05   0.45410405  0.023813095            0   0.43029095    1.5406528    1.9947568      5.26981 
12605000    0.9918376 -8.6833498e-06   0.50186616  0.017255105            0   0.48461105    1.4803176    1.9821838    1.3819906 
12610000    1.0416094 -3.7274717e-05      0.42738  0.019391761            0   0.40798823     1.554602     1.981982  -0.59444641 
12615000   0.95165237 3.8330234e-06   0.56485968  0.018584148            0   0.54627553    1.4203412    1.9852008    2.2501394 
12620000    1.0099193 4.1139412e-06   0.45070557 0.0043942543            0   0.44631132    1.5073046    1.9580101    2.2423657 
12625000    1.0144296 -4.0047449e-05    0.4342029 0.0071060083            0   0.42709689    1.5140361     1.948239  -0.81984061 
12630000    1.0387374 -6.6160355e-06   0.39053333  0.011064408            0   0.37946892    1.5503156     1.940849    1.4835486 
12635000   0.96862378 2.4025758e-05    0.5055367  0.012390542            0   0.49314615     1.445671    1.9512077    3.6118681 
12640000    1.0234594 2.7288686e-05   0.42628981 0.0095537628            0   0.41673604    1.5275131    1.9538029    3.8399969 
12645000   0.98510487 4.7888209e-05   0.48166277 0.0095895287            0   0.47207324     1.470269    1.9519318    5.2619648 
12650000   0.98346068 -4.8480331e-06   0.49514286  0.030944558            0    0.4641983    1.4678151    1.9629579    1.6278619 
12655000   0.98655492 -3.2167401e-05   0.47743593  0.028001552            0   0.44943438    1.4724332    1.9498692  -0.27354157 
12660000   0.98786568 2.2111126e-05   0.49914551  0.029368548            0   0.46977696    1.4743895     1.973535    3.5018561 
12665000   0.93000114 -4.0558305e-06   0.55934237  0.020508383            0   0.53883399    1.3880267    1.9473691    1.6670301 
12670000   0.96652199 1.7040587e-05   0.50037624  0.014970413            0   0.48540583    1.4425341    1.9429103    3.1207557 
12675000    1.0031249 1.6492847e-05   0.44324003 0.0071091828            0   0.43613085    1.4971639    1.9404039    3.0803895 
12680000   0.97625001 -2.0075411e-05   0.48681367  0.019511133            0   0.46730254    1.4570531    1.9438668   0.55625442 
12685000   0.98101867 4.3339781e-05   0.46179079  0.019460231            0   0.44233055    1.4641704    1.9259612    4.9216068 
12690000    1.0055403 7.8780699e-06   0.42472514  0.024116638            0    0.4006085    1.5007689     1.925494    2.4700262 
12695000    1.0023002 -4.5782824e-05   0.44222699  0.031412546            0   0.41081444    1.4959331      1.93816   -1.2263488 
12700000    1.0091969 -3.0039579e-05    0.4307649  0.014603597            0    0.4161613    1.5062263    1.9369912  -0.13934447 
12705000   0.96447275 -2.5266582e-05   0.48145719  0.013463244            0   0.46799395    1.4394756    1.9209328   0.17450661 
12710000   0.96685819 -4.6885614e-05   0.46508544  0.015532723            0   0.44955271    1.4430358    1.9081213   -1.3326124 
12715000   0.97445095 -4.2849395e-06   0.46670749  0.010306718            0   0.45640077     1.454368    1.9210755    1.6249005 
12720000    1.0146223 4.7397219e-05   0.40735582 0.0087808335            0   0.39857498    1.5143238    1.9216796    5.1977753 
12725000      1.00341 9.4103398e-06   0.44894755  0.019890517            0   0.42905703    1.4975894    1.9465369    2.5969796 
12730000    1.0237376 -3.5193477e-05   0.44367148  0.019939429            0   0.42373205    1.5279284    1.9715999  -0.46097326 
12735000   0.96070249 -2.4872542e-05   0.52611668  0.015413469            0   0.51070321    1.4338485    1.9599651   0.24077504 
12740000    1.0312673  1.34513e-05    0.4363068  0.028392035            0   0.40791476    1.5391664    1.9754732    2.9052271 
12745000    1.0330998 8.4050684e-06   0.43589507  0.018826314            0   0.41706876    1.5419014    1.9777965    2.5587548 
12750000    1.0404431 -7.2788687e-05   0.43356595  0.014230992            0   0.41933495    1.5528614    1.9864273   -3.0447268 
12755000     1.013315 -4.1200101e-05   0.48516979  0.024548335            0   0.46062145    1.5123726    1.9975424   -0.8502086 
12760000    1.0059297 5.6160405e-05   0.49475089  0.036863638            0   0.45788726    1.5013501     1.996101    5.8779082 
12765000    1.0083441 2.0649521e-05   0.49140863   0.02088672            0   0.47052191    1.5049536    1.9963623    3.4236572 
12770000    1.0209305 -3.9206408e-06   0.47022304  0.027508486            0   0.44271455    1.5237388    1.9939618    1.7229671 
12775000   0.99703058 -7.051992e-06    0.4880926  0.010714577            0   0.47737803    1.4880681    1.9761607    1.4887271 
12780000    1.0049003 2.7860843e-05   0.45422396    0.0271456            0   0.42707836    1.4998137    1.9540376    3.8797791 
12785000   0.98006864 1.2508568e-05   0.50252401  0.029994304            0   0.47252971    1.4627525    1.9652765    2.8298687 
12790000    1.0234311 -1.600907e-05   0.46458919  0.024815594            0    0.4397736     1.527471    1.9920602   0.88551325 
12795000    1.0224389 -1.5124811e-05   0.46348537  0.022215155            0   0.44127021      1.52599    1.9894754   0.94404842 
12800000   0.98504195 -6.4469883e-06   0.54262812  0.026298166            0   0.51632996    1.4701751    2.0128032    1.5671874 
12805000    1.0363886 4.2217898e-05   0.47051336  0.020775881            0   0.44973748      1.54681    2.0173234    4.9354245 
12810000    1.0484203 4.8677012e-05   0.45150035  0.013060116            0   0.43844024    1.5647673    2.0162677    5.3808228 
12815000    1.0344947 3.6215268e-05   0.47281771  0.020557345            0   0.45226036    1.5439834    2.0168011    4.5200004 
12820000   0.98966967 -3.5441353e-05   0.53137572  0.027905635            0   0.50347009     1.477082    2.0084577  -0.44124859 
12825000   0.99633318 -0.00010408197   0.51308768  0.012578869            0   0.50050881    1.4870273    2.0001149   -5.1940305 
12830000    1.0312477 -4.1806795e-05   0.44702632 0.0098789337            0   0.43714739    1.5391372    1.9861635  -0.90352213 
12835000   0.95473473 1.847574e-05    0.5378986  0.004891581            0   0.53300702    1.4249416    1.9628402    3.2398833 
12840000    1.0092896 -1.3708194e-05   0.44275163  0.022406213            0   0.42034542    1.5063648    1.9491164    1.0016061 
12845000    1.0225202 -1.8251214e-05   0.45083609  0.014583129            0   0.43625296    1.5261114    1.9769475   0.71542362 
12850000     1.028933 3.4091188e-05   0.44546065 0.0058080211            0   0.43965263    1.5356824    1.9811431     4.337526 
12855000    1.0010388 4.1333741e-05   0.47458922 0.0099909064            0   0.46459831    1.4940505    1.9686397    4.8256278 
12860000   0.95481659 -3.9217424e-06   0.53172116 0.0074564765            0   0.52426469    1.4250638    1.9567849    1.6857141 
12865000    1.0150864 -4.2130776e-05   0.42602346 0.0042093465            0   0.42181412    1.5150164    1.9410399  -0.97103931 
12870000    1.0143987 -1.4303155e-05   0.43304825 0.0057148846            0   0.42733337      1.51399    1.9470383   0.95840422 
12875000   0.99272181 3.2077796e-05   0.47597833  0.014920383            0   0.46105794    1.4816373    1.9576156    4.1748329 
12880000    1.0555562 2.9597332e-05   0.37468896  0.016134738            0   0.35855423    1.5754176    1.9501066    3.9958742 
12885000    0.9774833 -3.2111052e-05   0.47973122   0.01242428            0   0.46730694    1.4588938     1.938625  -0.28089087 
12890000   0.98580318 6.2181352e-06   0.47239245  0.011238207            0   0.46115425    1.4713113    1.9437037    2.3735012 
12895000   0.99068801 3.1421187e-05   0.46593995 0.0093145913            0   0.45662536    1.4786018    1.9445418    4.1163742 
12900000   0.97789421 -2.925004e-05   0.48730571  0.024692158            0   0.46261356    1.4595071    1.9468128 -0.074949953 
12905000   0.98371394 -6.3990205e-05   0.50125332  0.013430267            0   0.48782305     1.468193    1.9694464   -2.4535566 
12910000     0.998234 2.2071042e-05   0.46641585  0.020843258            0   0.44557259    1.4898642    1.9562801    3.4818305 
12915000   0.99470784 -1.5692557e-05   0.46077626 0.0093872149            0   0.45138904    1.4846014    1.9453777   0.86070813 
12920000   0.99031701 -1.9499949e-05   0.45344874 0.0058290018            0   0.44761974    1.4780481    1.9314969   0.58366042 
12925000   0.98549903 -7.3362194e-05    0.4397849 0.0073409391            0   0.43244396    1.4708573    1.9106422   -3.1601526 
12930000    1.0015371 -5.0195036e-05   0.42193851  0.010087565            0   0.41185094    1.4947942    1.9167327   -1.5527482 
12935000   0.98696895 6.7037214e-05   0.45326431  0.015228356            0   0.43803595    1.4730512    1.9263155    6.5599277 
12940000   0.97286189 -1.8512266e-05   0.47514831  0.037315446            0   0.43783287    1.4519964    1.9271447   0.64757684 
12945000    1.0069046 -1.499011e-05   0.41489893  0.023150071            0   0.39174886    1.5028052    1.9177041   0.88158769 
12950000   0.94285297 -5.4298326e-06   0.49324567  0.020896213            0   0.47234945    1.4072081    1.9004537    1.5251437 
12955000   0.95782472 -1.9410629e-05    0.4662372  0.027040105            0   0.43919709    1.4295534    1.8957906   0.55412792 
12960000   0.90722773 4.710353e-05   0.51660336  0.017054187            0   0.49954917    1.3540374    1.8706407    5.1264367 
12965000   0.94622978 2.2266719e-05   0.46348308 0.0084858168            0   0.45499726    1.4122479     1.875731    3.4148067 
12970000   0.94921356 -6.0677169e-05   0.48046773 0.0053430925            0   0.47512464    1.4167012     1.897169    -2.296837 
12975000   0.97347588 6.6178525e-09   0.44843741   0.01091629            0   0.43752112    1.4529127    1.9013502    1.9018076 
12980000   0.93521611 -7.5337282e-06   0.49786232   0.01975541            0   0.47810691      1.39581    1.8936724    1.3729411 
12985000   0.97427849 -3.6900886e-05   0.44886752 0.0072934462            0   0.44157407    1.4541106    1.9029782  -0.64761108 
12990000   0.97649158 9.1459654e-06   0.45712805 0.00063305972            0   0.45649499    1.4574137    1.9145417    2.5467109 
12995000     0.960547 -3.5943064e-05   0.49334118 0.0056578435            0   0.48768333    1.4336164    1.9269576  -0.55742704 
13000000    0.9468707 -8.6495412e-07   0.48284046  0.019811543            0   0.46302892    1.4132045     1.896045    1.8362594 
13005000   0.97834716 1.9951764e-05   0.43619122  0.020584718            0    0.4156065    1.4601831    1.8963744    3.2754402 
13010000    0.9272754 1.9096009e-05   0.49611774  0.033798647            0    0.4623191    1.3839585    1.8800763    3.1999924 
13015000    0.9361037 5.8598045e-06   0.48889102  0.028907377            0   0.45998364    1.3971348    1.8860258    2.2910555 
13020000   0.90058462 -2.2415676e-05     0.548048  0.033247159            0   0.51480084    1.3441225    1.8921705   0.34279901 
13025000   0.88022666 3.894418e-05   0.57795436  0.031835061            0    0.5461193    1.3137383    1.8916927    4.5835144 
13030000   0.95901021 -4.3512047e-05   0.44972427  0.031089669            0    0.4186346    1.4313227     1.881047   -1.1265057 
13035000   0.96729482 -1.5197452e-05   0.44280705  0.034647811            0   0.40815924    1.4436875    1.8864946   0.83604669 
13040000   0.94037788 2.5701314e-05   0.49013363  0.029517064            0   0.46061656     1.403514    1.8936476    3.6701225 
13045000   0.88358377 3.1595039e-05   0.58722854  0.021304347            0    0.5659242    1.3187488    1.9059773    4.0898264 
13050000    0.9318715 6.4539703e-05   0.51667548  0.024049145            0   0.49262633    1.3908182    1.9074937    6.3684779 
13055000   0.92455446 -2.9145673e-06   0.53813546  0.031482464            0     0.506653    1.3798975     1.918033    1.7165781 
13060000   0.95030422 1.6820295e-05   0.50276084  0.032565032            0   0.47019581    1.4183291    1.9210899    3.0837087 
13065000    0.9489482 -8.7749783e-06   0.50306594  0.024811102            0   0.47825484    1.4163052    1.9193711    1.3128446 
13070000   0.93225808 -8.6632603e-05    0.5295033  0.022946265            0   0.50655704    1.3913952    1.9208985   -4.0671471 
13075000   0.95131825 -1.6537345e-06   0.49759335  0.030145691            0   0.46744766    1.4198425    1.9174358    1.8031297 
13080000   0.98716419 4.0400572e-05   0.44981156  0.019595409            0   0.43021615    1.4733426    1.9231541    4.7156417 
13085000   0.93838807 3.5866587e-05   0.50047729  0.011155942            0   0.48932135    1.4005442    1.9010215      4.38012 
13090000   0.94291506 5.0227875e-06   0.49450063  0.012190224            0   0.48231041    1.4073007    1.9018014    2.2489764 
13095000   0.96158257 1.6431508e-05   0.46024437  0.017002362            0   0.44324201     1.435162    1.8954064    3.0311522 
13100000   0.94927141 -5.98459e-06   0.46835111  0.023668553            0   0.44468256    1.4167876    1.8851387    1.4714838 
13105000   0.93639625 3.860332e-05   0.49392737  0.013344945            0   0.48058242    1.3975714    1.8914988    4.5597602 
13110000   0.94283774 2.1146872e-05   0.49017138 0.0068556184            0   0.48331576    1.4071853    1.8973567    3.3590285 
13115000   0.94012716 -4.642784e-05   0.49209288  0.015323201            0   0.47676967    1.4031398    1.8952327   -1.3138597 
13120000   0.95884778 -4.5170037e-05   0.46760389  0.018324234            0   0.44927966    1.4310803    1.8986842   -1.2234688 
13125000   0.93192399 -1.9083324e-05    0.4898691  0.012297221            0   0.47757188    1.3908966    1.8807657   0.56172631 
13130000   0.95492064 1.2984935e-06   0.47800225  0.015731109            0   0.46227114    1.4252191    1.9032213    1.9929732 
13135000   0.95022281 5.9222723e-05   0.48055011  0.026869981            0   0.45368013    1.4182075    1.8987577    5.9922322 
13140000   0.89547549 5.6868878e-05   0.55681513   0.04551091            0   0.51130422    1.3364972    1.8933123    5.8240891 
13145000    0.9160362 -2.2762618e-05   0.51214725  0.036659634            0   0.47548762     1.367184    1.8793313   0.30597914 
13150000   0.94808772 5.3439393e-06   0.47080271  0.035156253            0   0.43564646    1.4150209    1.8858236    2.2551967 
13155000   0.94105655 1.1473006e-05   0.48649066  0.041020997            0   0.44546966    1.4045269    1.8910176    2.6840317 
13160000   0.89122317 -4.3064957e-05   0.55622903  0.025859996            0   0.53036904    1.3301506    1.8863796   -1.0902702 
13165000   0.96479758 2.2470277e-05   0.46898017  0.023885097            0   0.44509508    1.4399604    1.9089406    3.4620861 
13170000   0.95805709 3.6671101e-05   0.46419364  0.033085702            0   0.43110794    1.4299002    1.8940938    4.4288003 
13175000   0.93601287 -8.5287845e-06   0.50995797 0.0077732206            0   0.50218475    1.3969992    1.9069572    1.3174476 
13180000   0.93857089 -9.637648e-06   0.50369034 0.0062303686            0   0.49745997    1.4008171    1.9045074    1.2383532 
13185000   0.96185096 -4.2697257e-05   0.45451362  0.015772175            0   0.43874145    1.4355626    1.8900762   -1.0611582 
13190000    0.9656965 -1.6827718e-05   0.44749639  0.016020501            0   0.43147589     1.441302    1.8887984   0.72566651 
13195000    0.9532173 3.6400496e-05   0.45783148 0.0069954316            0   0.45083605    1.4226768    1.8805083    4.3965106 
13200000   0.95902801 2.8228225e-05   0.46925245  0.013211897            0   0.45604055    1.4313493    1.9006018    3.8517367 
13205000   0.89442921 -3.8215454e-05   0.56488549  0.018743754            0   0.54614173    1.3349356    1.8998211  -0.74163107 
13210000   0.92538383  1.65142e-05   0.51592833  0.014959736            0   0.50096859    1.3811354    1.8970637    3.0385252 
13215000    0.9286536 -8.0906335e-06   0.50104241  0.013389065            0   0.48765334    1.3860155    1.8870579    1.3278333 
13220000   0.93254345 -6.2061591e-05   0.49324326  0.017633138            0   0.47561012    1.3918211    1.8850644   -2.4046328 
13225000    0.9031733 -9.7088072e-06   0.56368283  0.035109265            0   0.52857357    1.3479861     1.911669    1.2405962 
13230000   0.99017298 -2.9525905e-05   0.44367556  0.019676999            0   0.42399856    1.4778332    1.9215087  -0.11932179 
13235000   0.96140823 1.7827254e-05   0.49982428   0.02752689            0   0.47229739    1.4349018    1.9347261    3.1669458 
13240000     0.968958 7.5443429e-05    0.4937899   0.01238833            0   0.48140157    1.4461698    1.9399597    7.1546095 
13245000    0.9523695 2.7616474e-05   0.52235199  0.013192799            0   0.50915919    1.4214115    1.9437635    3.8526141 
13250000   0.91593628 -2.9454667e-05   0.55966767  0.013624772            0   0.54604289    1.3670349    1.9267026    -0.109204 
13255000   0.99500889 -5.2485107e-06   0.46819366  0.011216772            0   0.45697688    1.4850508    1.9532444    1.5904674 
13260000   0.99028142 -1.1266004e-05   0.49227032  0.013484927            0   0.47878539     1.477995    1.9702653    1.1915591 
13265000    1.0111938 -5.6251263e-05   0.46106225 0.0074151233            0   0.45364713    1.5092068    1.9702691   -1.9178182 
13270000    1.0035657 -5.2911967e-05   0.45784911 0.0050035795            0   0.45284553    1.4978218    1.9556709   -1.7016043 
13275000   0.99494107 1.049888e-06   0.47943123 0.0051155704            0   0.47431566    1.4849495    1.9643808     2.036949 
13280000   0.99664923 -2.901601e-05   0.47694515 0.0094481157            0   0.46749703     1.487499    1.9644441 -0.041142526 
13285000   0.96060491 -3.8608295e-05   0.50644588  0.012552017            0   0.49389387    1.4337028    1.9401487  -0.72845664 
13290000   0.92480873 -1.958364e-05   0.55217409  0.018516095            0   0.53365799     1.380277    1.9324511   0.57882996 
13295000   0.96676957 3.6684678e-06   0.49915338  0.019143825            0   0.48000956    1.4429036     1.942057    2.1956215 
13300000   0.97993209 8.4170796e-06   0.47767534  0.019206213            0   0.45846913    1.4625486     1.940224    2.5220125 
13305000   0.99038147 -1.9048669e-05   0.47323573  0.010964025            0   0.46227171    1.4781443    1.9513801   0.63473605 
13310000   0.99474824 5.9657891e-05   0.46083423  0.012907283            0   0.44792695    1.4846618     1.945496    6.0690494 
13315000     1.000575 5.5375398e-05   0.46407232  0.011095918            0   0.45297641    1.4933582    1.9574305     5.784978 
13320000   0.95848196 3.340973e-05   0.51320345  0.024177263            0   0.48902618    1.4305343    1.9437378    4.2530183 
13325000   0.98511508 -8.8955575e-06   0.45582072  0.012157358            0   0.44366336    1.4702843     1.926105     1.311244 
13330000    0.9705462 -1.3483778e-05   0.48469738  0.013921393            0   0.47077598    1.4485402    1.9332376    1.0012388 
13335000   0.95671072 3.310915e-05   0.50019954  0.021436988            0   0.47876255    1.4278908    1.9280903    4.2165948 
13340000   0.97671417 8.7167186e-06   0.46114007  0.018813941            0   0.44232613    1.4577459     1.918886    2.5213856 
13345000   0.97134234 3.1508022e-06   0.46141505 0.0092440341            0   0.45217102    1.4497284    1.9111435     2.128927 
13350000   0.93284048 -1.3277125e-05   0.50567231  0.022767304            0     0.482905    1.3922644    1.8979367   0.98022182 
13355000   0.93082018 -5.7404847e-06   0.50509459  0.026508018            0   0.47858657    1.3892491    1.8943437    1.4975614 
13360000   0.97755379 1.7948651e-05    0.4476745  0.011790708            0    0.4358838     1.458999    1.9066735    3.1472843 
13365000    0.9746991 5.2331317e-05   0.44857397  0.013136541            0   0.43543743    1.4547384    1.9033124     5.520453 
13370000   0.93884085 -2.0397253e-05   0.48898556  0.018475927            0   0.47050964      1.40122    1.8902055   0.48034738 
13375000   0.93361551 1.0279645e-05   0.52400208  0.011229904            0   0.51277218    1.3934212    1.9174232    2.6279523 
13380000   0.97896813 3.7485251e-05   0.46044695  0.013891944            0   0.44655501    1.4611099    1.9215569    4.5125374 
13385000   0.95242212 3.3931149e-06   0.50629723  0.011565018            0   0.49473221      1.42149    1.9277872    2.1623193 
13390000   0.95548893 -1.900305e-05   0.50161091  0.023333179            0   0.47827773    1.4260672    1.9276781   0.61418733 
13395000    0.9390238 2.3318372e-05    0.5098034  0.059628499            0    0.4501749     1.401493    1.9112964    3.5230623 
13400000    0.9663944 2.2606696e-05   0.47182376  0.023085302            0   0.44873846    1.4423436    1.9141674    3.4767422 
13405000   0.91762104 1.9317596e-05   0.52170314   0.01782536            0   0.50387778    1.3695494    1.8912525    3.2264848 
13410000   0.91181772 -3.8477596e-05   0.54059951  0.015299207            0   0.52530031    1.3608879    1.9014875  -0.75808395 
13415000   0.95677113 -2.6240728e-05   0.46631585  0.024502699            0   0.44181315    1.4279809    1.8942968  0.080537643 
13420000   0.91309944 -1.3121698e-05   0.53069396   0.01752638            0   0.51316758    1.3628009    1.8934949   0.98652308 
13425000   0.94480718 -9.0389217e-05   0.49568021   0.01182905            0   0.48385116    1.4101247    1.9058049   -4.3418978 
13430000   0.96281682 -6.830691e-05   0.44923839  0.017348605            0   0.43188978    1.4370041    1.8862425   -2.8351311 
13435000   0.93625283 -9.9669366e-06   0.47942777  0.023216253            0   0.45621152    1.3973573    1.8767851    1.1878705 
13440000   0.90208447 2.7297714e-05   0.52748785  0.030465158            0   0.49702269    1.3463611    1.8738489    3.7606669 
13445000   0.94395406 -2.6264733e-05    0.4730534  0.022791925            0   0.45026147    1.4088514    1.8819048  0.066486484 
13450000   0.91788517 -2.5693468e-05   0.52148233  0.027251542            0   0.49423079    1.3699436    1.8914259   0.11549347 
13455000   0.94310887 -3.7942041e-06   0.48999499  0.012211429            0   0.47778356      1.40759     1.897585    1.6353296 
13460000   0.96478226 3.3698417e-05   0.48167931 0.0097008884            0   0.47197842    1.4399375    1.9216168    4.2508514 
13465000   0.94659814 7.1051978e-05   0.50948672  0.023918488            0   0.48556823    1.4127977    1.9222844    6.8333971 
13470000    0.9952164 5.377043e-05   0.44039462  0.024232594            0   0.41616202    1.4853605    1.9257551    5.6423672 
13475000   0.96015738 -7.0558603e-05   0.49810381  0.024364688            0   0.47373913    1.4330349    1.9311387    -2.945872 
13480000   0.97099247 1.9268237e-05   0.48045664  0.026166076            0   0.45429056    1.4492063    1.9296629    3.2614834 
13485000   0.94014598 3.309003e-05   0.52163843  0.035448987            0   0.48618944    1.4031679    1.9248063    4.2119891 
13490000   0.95566047 -6.8971177e-06   0.51918625  0.016836145            0   0.50235011    1.4263232    1.9455095    1.4687807 
13495000    0.9889365 -2.1002548e-05   0.46290578  0.022619118            0   0.44028667    1.4759877    1.9388935    0.4871974 
13500000   0.97266443 -4.9161244e-05   0.50981843  0.034494205            0   0.47532423    1.4517017    1.9615201   -1.4365051 
13505000   0.99395795 2.3542864e-05   0.46444355  0.042849661            0   0.42159389    1.4834822    1.9479258    3.5752086 
13510000   0.98312866 -7.2411202e-06   0.48061373  0.026872817            0   0.45374091    1.4673195    1.9479333     1.447427 
13515000   0.95361342 -5.5528686e-05   0.51243347  0.014454936            0   0.49797853     1.423268    1.9357015   -1.9024413 
13520000   0.93669244 4.7140851e-08   0.52263838  0.027910445            0   0.49472794    1.3980135    1.9206518    1.9239102 
13525000   0.98481102 2.086586e-05    0.4527601  0.019619714            0   0.43314038    1.4698304    1.9225905    3.3648388 
13530000   0.92686211 0.00010586055   0.51712967  0.017483284            0   0.49964639    1.3833417    1.9004714    9.2175522 
13535000   0.95266131 8.4213038e-05   0.48225137 0.0090633754            0     0.473188     1.421847    1.9040984    7.7249035 
13540000    0.9613783 4.1037124e-06   0.47118713  0.012367237            0   0.45881989    1.4348571    1.9060442    2.1896928 
13545000   0.94026375 -5.190247e-05   0.50749912  0.032673605            0   0.47482552    1.4033437    1.9108428   -1.6766559 
13550000    0.9334941 -3.9181198e-05   0.51002604  0.026062859            0   0.48396318    1.3932399     1.903266  -0.80493841 
13555000   0.90409454 8.8914928e-06   0.55200523  0.029730494            0   0.52227473    1.3493611    1.9013663    2.5159463 
13560000   0.97994525 2.5906058e-05   0.45404089  0.019781734            0   0.43425916    1.4625683    1.9166092    3.7072359 
13565000   0.95947532 -3.1413654e-06   0.48085181  0.019771057            0   0.46108075    1.4320169    1.9128687    1.6957375 
13570000   0.97070798 4.1965512e-06   0.47184541  0.025041002            0   0.44680441    1.4487817    1.9206271    2.2106927 
13575000   0.94859361 1.156467e-05   0.50357251   0.01856606            0   0.48500645     1.415776    1.9193485    2.7186985 
13580000   0.94802603 -5.5121772e-06   0.50061464  0.023831204            0   0.47678344    1.4149288    1.9155435    1.5345418 
13585000   0.94651502 5.8743933e-05   0.49359523  0.017878182            0   0.47571705    1.4126737    1.9062689    5.9666496 
13590000   0.94084994 1.3642365e-06   0.48691608  0.017451723            0   0.46946436    1.4042185    1.8911346    1.9854306 
13595000   0.92930539 1.4421186e-05   0.45103562  0.022781953            0   0.42825367    1.3869883    1.8380239    2.8348163 
13600000   0.94160807 1.124075e-05   0.42741705 0.0098044815            0   0.41761256      1.40535    1.8327671    2.6097277 
13605000   0.92042658 1.8474159e-05   0.45599427  0.016454768            0    0.4395395    1.3737367    1.8297309    3.1066648 
13610000   0.92789244 6.7789872e-06   0.45508323  0.026983592            0   0.42809964    1.3848795    1.8399627    2.3085263 
13615000   0.91917225 -6.4004989e-05   0.49813318  0.028080292            0   0.47005289    1.3718646    1.8699978   -2.5540271 
13620000   0.91242179 3.6404286e-05   0.49841755  0.035101897            0   0.46331566    1.3617895    1.8602071    4.3764713 
13625000    0.9259211 1.9726628e-05   0.46986681  0.015802163            0   0.45406464    1.3819372    1.8518041    3.2153086 
13630000   0.94010191 2.2235376e-05    0.4510995    0.0115173            0    0.4395822    1.4031021    1.8542016    3.3911108 
13635000   0.94825417 4.2184845e-06   0.45919457  0.024068757            0   0.43512581    1.4152693    1.8744639    2.1660456 
13640000    0.9475589 -1.7188041e-05   0.46953176  0.018628807            0   0.45090295    1.4142317    1.8837634   0.69572604 
13645000   0.92888122 -2.1789518e-05   0.50229365  0.031651478            0   0.47064217    1.3863552    1.8886489   0.38255735 
13650000   0.93180984 2.2018075e-05    0.4994284  0.013293204            0   0.48613519    1.3907262    1.8901546    3.4120439 
13655000   0.99646146 6.1307423e-05   0.41622733 0.0074729109            0   0.40875442    1.4872187    1.9034461    6.1410151 
13660000   0.97167008 -3.1155673e-05   0.47077409 0.0057335324            0   0.46504056    1.4502176    1.9209917  -0.23248844 
13665000   0.93326732 -4.6077606e-05    0.5300907  0.011248697            0     0.518842    1.3929015    1.9229922    -1.261892 
13670000   0.93283934 5.8549583e-05   0.53824898  0.013322247            0   0.52492673    1.3922627    1.9305117    5.9774589 
13675000   0.92993051 3.4038742e-05   0.55968424  0.021634983            0   0.53804925    1.3879213    1.9476055    4.3003633 
13680000   0.99043597 1.6914304e-06   0.46150695  0.037585008            0   0.42392194    1.4782257    1.9397326    2.0566443 
13685000   0.95673846 -4.1467666e-05    0.5170987  0.024884989            0   0.49221371    1.4279321    1.9450308   -0.9212142 
13690000   0.94804163 -2.9682976e-05   0.54745401  0.012238335            0   0.53521568    1.4149521    1.9624061 -0.089281168 
13695000     1.005771 4.4669322e-05   0.46668037 0.0090792248            0   0.45760114    1.5011132    1.9677935     5.055337 
13700000   0.97087657 2.9598013e-05   0.51193938  0.025985181            0    0.4859542    1.4490333    1.9609727    4.0067874 
13705000   0.99236484 -4.6621281e-06   0.48624357  0.014123646            0   0.47211993    1.4811045    1.9673481    1.6451018 
13710000   0.97621251 -1.8746298e-05    0.5378695 0.0057223095            0   0.53214719    1.4569972    1.9948667   0.69912255 
13715000    1.0402908 -1.4176598e-06    0.4405515 0.0080888875            0   0.43246261     1.552634    1.9931855    1.8951969 
13720000   0.99093625 -9.6060168e-06     0.506809  0.018984315            0   0.48782468    1.4789723    1.9857813    1.3218135 
13725000   0.97968885 -1.3917301e-05   0.52225474  0.020514403            0   0.50174034    1.4621856    1.9844404    1.0224765 
13730000   0.98430287 -2.407531e-05   0.52855464  0.011821021            0   0.51673362     1.469072    1.9976267   0.33354124 
13735000   0.99694776 -6.4900471e-05   0.51351214  0.013308798            0   0.50020334    1.4879445    2.0014567   -2.4844638 
13740000   0.95364623 -7.0072115e-05   0.57573659  0.012573446            0   0.56316314     1.423317    1.9990536    -2.844331 
13745000   0.98835229 -1.6425796e-05    0.5352778    0.0269311            0    0.5083467    1.4751158    2.0103936   0.87504259 
13750000    1.0238673 2.3661017e-06   0.49561903  0.022256192            0   0.47336284    1.5281219    2.0237409    2.1872859 
13755000    1.0199122 -4.8290596e-05     0.520712  0.013027606            0   0.50768439     1.522219     2.042931    -1.294915 
13760000    1.0045114 9.4149706e-06    0.5234008   0.01880601            0   0.50459479    1.4992333    2.0226341    2.6733969 
13765000    0.9780463 4.246831e-05   0.53433285  0.021434609            0   0.51289824    1.4597341     1.994067    4.9294766 
13770000    1.0088469 -3.7703743e-05   0.51464528  0.030725287            0   0.48391999    1.5057041    2.0203493  -0.58573336 
13775000   0.97895759 -3.1650679e-05   0.57752065  0.011978532            0   0.56554212    1.4610942    2.0386148  -0.14908008 
13780000   0.98845405 -7.0110122e-05   0.57619825 0.0064871107            0   0.56971114    1.4752677    2.0514659   -2.7945457 
13785000    1.0177117 -8.237873e-05   0.54895989 0.0047734143            0   0.54418647    1.5189347    2.0678946   -3.6261232 
13790000    1.0306893 3.0764332e-05   0.52353617  0.015485785            0   0.50805038    1.5383037    2.0618399    4.1882705 
13795000    1.0414691 2.0180562e-05   0.51863926  0.030116853            0    0.4885224    1.5543926    2.0730318    3.4679122 
13800000    1.0312278 1.7661979e-05    0.5026084  0.011051953            0   0.49155645    1.5391075    2.0417159    3.2625119 
13805000    1.0295503 7.7353748e-05   0.51669296  0.010276244            0   0.50641672    1.5366039    2.0532969    7.3999879 
13810000    1.0058381 -1.5443749e-05   0.56703027  0.021006102            0   0.54602417    1.5012133    2.0682436    1.0007717 
13815000    1.0313386 3.5115272e-05   0.53184956  0.039559548            0   0.49229001    1.5392728    2.0711224      4.49829 
13820000    1.0636408 -7.9747432e-06    0.4681338  0.039120852            0   0.42901294    1.5874839    2.0556177    1.5044034 
13825000    1.0308193 -2.225625e-05    0.5269068  0.046832053            0   0.48007475    1.5384978    2.0654046   0.52705255 
13830000    1.0548199 2.0105613e-06   0.50152627  0.009800825            0   0.49172544    1.5743188     2.075845     2.214815 
13835000    1.0660859 3.6333646e-05   0.49361534  0.023427172            0   0.47018817    1.5911332    2.0847485    4.5961301 
13840000    1.0827254 3.4015677e-05   0.47442413  0.010526887            0   0.46389725    1.6159676    2.0903918    4.4415554 
13845000    1.1019748 -2.7601582e-05   0.44434266  0.014759426            0   0.42958323    1.6446974    2.0890401   0.18121875 
13850000      1.00962 -9.8844601e-05   0.59147563  0.026425409            0   0.56505022    1.5068578    2.0983334   -4.7338054 
13855000    1.0899922 1.5752849e-05   0.46766815  0.026830818            0   0.44083734    1.6268133    2.0944815    3.1833184 
13860000    1.0963524 5.9753276e-05   0.47923918  0.022697862            0   0.45654131     1.636306    2.1155452    6.2456916 
13865000    1.0953755 -1.9255468e-05     0.469077  0.014238264            0   0.45483874    1.6348479    2.1039249   0.77298698 
13870000    1.0329138 -2.0658053e-05    0.5575034  0.017189458            0   0.54031394    1.5416239    2.0991273   0.67124267 
13875000    1.0181919 -4.2774356e-05   0.58373985  0.047940049            0    0.5357998    1.5196514    2.1033912  -0.85317227 
13880000    1.0273232 -3.0212447e-06   0.57457525  0.056305566            0   0.51826968    1.5332799    2.1078552    1.8990267 
13885000    1.0771835 1.0062803e-05   0.49422117  0.032182905            0   0.46203826    1.6076964    2.1019176    2.7974585 
13890000    1.0452946 3.9588191e-05   0.55630284  0.042804234            0   0.51349861    1.5601021     2.116405    4.8527407 
13895000    1.0637819 9.8955363e-06   0.53781323  0.026984894            0   0.51082833    1.5876945    2.1255077    2.8094872 
13900000    1.0905943 -6.9893252e-06   0.50737402  0.024559273            0   0.48281475     1.627712     2.135086    1.6519839 
13905000    1.0521571 6.9767937e-05    0.5656936    0.0292087            0    0.5364849    1.5703444     2.136038    6.9583978 
13910000    1.0254158 2.261235e-05   0.60542051  0.030705173            0   0.57471534     1.530433    2.1358535    3.6988192 
13915000    1.0367867 0.00010859368   0.57851496  0.021781798            0   0.55673317    1.5474042    2.1259192    9.6319143 
13920000    1.0521883 2.6296443e-05   0.55438237  0.020525884            0   0.53385648     1.570391    2.1247734    3.9423835 
13925000    1.0861097 -4.9743728e-05   0.50609477  0.033963571            0   0.47213119    1.6210187    2.1271134    -1.311173 
13930000    1.0724918 6.8377255e-05    0.5312361  0.044121282            0   0.48711482    1.6006941    2.1319302     6.858166 
13935000    1.0843524 2.7840644e-05   0.52353006  0.028620626            0   0.49490943    1.6183959     2.141926    4.0662713 
13940000    1.0498917 -2.829842e-05   0.57805616  0.013702056            0    0.5643541    1.5669633    2.1450195    0.1890327 
13945000    1.1137715 2.3342798e-06    0.5012879  0.014912448            0   0.48637545     1.662304    2.1635919    2.3249373 
13950000    1.1143927 1.3979472e-05   0.48975448  0.022841926            0   0.46691255    1.6632311    2.1529856    3.1192467 
13955000    1.1318349 5.4972768e-05   0.46376147  0.013124608            0   0.45063686    1.6892636     2.153025    5.9527427 
13960000     1.133411 7.0034773e-05   0.44714288  0.014187372            0   0.43295551    1.6916159    2.1387588    6.9795622 
13965000     1.095425 -8.3272701e-05   0.52857013 0.0025079629            0   0.52606216    1.6349218     2.163492   -3.5923171 
13970000    1.1131498 -4.9186144e-05   0.50051937 0.0020949921            0   0.49842438     1.661376    2.1618954   -1.2378509 
13975000    1.1135188 1.1903743e-05   0.48968055 0.0061517818            0   0.48352877    1.6619269    2.1516074    2.9743941 
13980000    1.0504822 1.7647924e-05   0.58563178  0.021401109            0   0.56423067    1.5678446    2.1534764    3.3733009 
13985000    1.0873106 -1.1543242e-05   0.52128566  0.018702858            0   0.50258281     1.622811    2.1440967    1.3462278 
13990000    1.1164441 -5.6760079e-05   0.49055654  0.018705396            0   0.47185114    1.6662928    2.1568494   -1.7664073 
13995000     1.091965 -0.00011392337   0.52345115  0.023920263            0   0.49953088    1.6297577    2.1532089   -5.7211747 
14000000    1.0864976 -2.3898822e-05   0.54250278  0.019414911            0   0.52308787    1.6215977    2.1641005   0.51221395 
14005000    1.1117236 -5.5870623e-07   0.49560705  0.018379897            0   0.47722715    1.6592475    2.1548546    2.1162368 
14010000    1.1075744 -2.6948555e-05   0.52698151 0.0098842245            0   0.51709728    1.6530549    2.1800364   0.31735227 
14015000    1.1037507 2.4561481e-05   0.55004145  0.026349406            0   0.52369204    1.6473479    2.1973893    3.8950789 
14020000    1.0666746 -2.9618049e-05   0.61001842  0.033489184            0   0.57652924    1.5920119    2.2020303   0.15483071 
14025000    1.1075942 1.1385119e-05    0.5794531   0.01988887            0   0.55956423    1.6530844    2.2325375    3.0194769 
14030000    1.1288053 -8.7858157e-06   0.53629338  0.035945915            0   0.50034746     1.684742    2.2210354    1.6137598 
14035000    1.1021805 -6.7258065e-05   0.58230815  0.021920289            0   0.56038787    1.6450044    2.2273125   -2.4215649 
14040000    1.1296088 -1.0207557e-05   0.52938201  0.030405049            0   0.49897696    1.6859411    2.2153231    1.5097767 
14045000    1.0862482 1.024141e-05   0.57678514  0.036067343            0   0.54071779    1.6212255    2.1980106    2.9058969 
14050000    1.1210875 3.0625006e-06   0.51591326  0.030155639            0   0.48575762    1.6732231    2.1891364    2.4008164 
14055000    1.1269083 1.5010062e-06   0.51474126  0.019473935            0   0.49526732    1.6819107    2.1966519    2.3004015 
14060000    1.1239116 -2.4120553e-05   0.52875534  0.014556886            0   0.51419845     1.677438    2.2061934   0.53898072 
14065000    1.1089272 -4.2686618e-05   0.56466302 0.0027464369            0   0.56191658    1.6550739    2.2197369  -0.73076213 
14070000    1.1245005 1.2381634e-05   0.53179019 0.0063176772            0   0.52547251     1.678317    2.2101072    3.0659258 
14075000     1.076224 3.5987699e-05   0.57328788  0.010556567            0   0.56273132    1.6062643    2.1795521    4.6670219 
14080000    1.0889968 -5.7989829e-06    0.5468637  0.014154752            0   0.53270895    1.6253277    2.1721914    1.7713657 
14085000    1.0576173 -1.2258264e-06   0.60007445  0.069627646            0    0.5304468    1.5784939    2.1785683    2.0938392 
14090000    1.0528197 1.2953575e-05   0.62387873  0.046921915            0   0.57695681    1.5713334    2.1952121    3.0905632 
14095000    1.1112652 2.6357209e-05   0.54734243  0.014001387            0   0.53334104    1.6585634    2.2059058    4.0277161 
14100000    1.1262256 9.9714127e-05   0.50114191 0.0025887919            0   0.49855312    1.6808918    2.1820337    9.0742742 
14105000   0.99280701 5.6886271e-05   0.68635125 0.0095380132            0   0.67681324    1.4817645    2.1681157    6.1000948 
14110000    1.0567332 -2.2421729e-05   0.56626675  0.012398586            0   0.55386817    1.5771743     2.143441   0.59365113 
14115000    1.1223191 -3.5471132e-05   0.48192033 0.0054412561            0   0.47647907    1.6750613    2.1569816  -0.29478305 
14120000    1.0460016 1.4886535e-05    0.6014297 0.0083835133            0   0.59304618    1.5611574    2.1625871    3.1915444 
14125000    1.0206936 -1.8514319e-05   0.64769007  0.018529124            0   0.62916095    1.5233852    2.1710753    0.8913656 
14130000    1.0569724 -3.9883486e-06   0.59863306  0.018540626            0   0.58009244    1.5775313    2.1761644    1.9004897 
14135000     1.065403 1.6081911e-05   0.59228641  0.012798796            0   0.57948762    1.5901139    2.1824003     3.293982 
14140000    1.0657112 2.7687869e-06   0.56462516  0.030243523            0   0.53438164     1.590574    2.1551992    2.3465777 
14145000    1.0052372 2.4101882e-05   0.63228444  0.018578534            0    0.6137059    1.5003165    2.1326009     3.798523 
14150000    1.0677168 -3.6137936e-05   0.55120787  0.024076063            0    0.5271318    1.5935673    2.1447751  -0.35307896 
14155000     1.090024 -3.522323e-05   0.53109783  0.022280046            0   0.50881779    1.6268608    2.1579586  -0.27667104 
14160000    1.0348055 6.9380622e-06   0.58114457  0.012589984            0   0.56855459    1.5444472    2.1255918    2.6051506 
14165000     1.069291 -3.6424084e-05   0.53023993  0.013089273            0   0.51715065    1.5959168    2.1261567    -0.391476 
14170000    1.0362482 3.7067713e-06   0.57881186 0.0093163681            0    0.5694955    1.5466005    2.1254123    2.3816244 
14175000    1.0129218 8.0416614e-05   0.62422882 0.0079408073            0   0.61628801    1.5117857    2.1360146    7.6944109 
14180000    1.0634885 -4.3187258e-06   0.54773558  0.017548091            0   0.53018749    1.5872566    2.1349922    1.8364819 
14185000    1.0482885 -3.4263953e-05   0.56446317  0.014058837            0   0.55040433    1.5645706    2.1290337   -0.2392907 
14190000     1.064504 -2.1136126e-05   0.55269102  0.023049948            0   0.52964107    1.5887722    2.1414632   0.68053421 
14195000    1.0570697 -7.9991748e-05   0.56949473  0.036994716            0   0.53250002    1.5776765    2.1471712   -3.3818584 
14200000    1.0420118 4.8853304e-05   0.60820024  0.025746676            0   0.58245357    1.5552026    2.1634028    5.5401432 
14205000    1.0830131 3.3175584e-05   0.56215847 0.0079185082            0   0.55423997    1.6163971    2.1785556    4.4716519 
14210000     1.089296 -8.4291224e-05   0.52824734  0.018843747            0   0.50940359    1.6257742    2.1540216   -3.6721878 
14215000    1.0884836 -4.362082e-06   0.50506744  0.012913921            0   0.49215352    1.6245617    2.1296292    1.8281221 
14220000    1.0778382 2.304409e-05   0.53561859  0.018144684            0    0.5174739    1.6086735    2.1442921    3.7370996 
14225000     1.080811 -1.492965e-05   0.54215977  0.035001096            0   0.50715868    1.6131104    2.1552702    1.1233328 
14230000    1.0432038 2.8158308e-05   0.59952881  0.044705058            0   0.55482375    1.5569816    2.1565104    4.1028127 
14235000    1.0777559 3.0031541e-05   0.56139415  0.021394549            0    0.5399996    1.6085507    2.1699448    4.2457249 
14240000    1.0512028 -3.3469523e-05   0.61501531  0.038322009            0    0.5766933    1.5689201    2.1839355  -0.12947796 
14245000    1.1093902 8.0708167e-06   0.50530401  0.014471239            0   0.49083277    1.6557649    2.1610689    2.7189238 
14250000    1.0864401 -2.0209832e-05   0.52370204   0.01261979            0   0.51108225    1.6215119     2.145214   0.74831035 
14255000    1.0969432 -1.625317e-05   0.51747879 0.0061378384            0   0.51134095    1.6371877    2.1546665    1.0312474 
14260000    1.0915243 -4.4174714e-06   0.53714397 0.0026845731            0   0.53445939    1.6290999    2.1662439    1.8609083 
14265000     1.090637 -2.3551017e-05   0.55775788  0.010693827            0   0.54706405    1.6277758    2.1855336   0.55768735 
14270000    1.0809102 -3.4376936e-05   0.57653422  0.041279326            0   0.53525489    1.6132585    2.1897927  -0.18634113 
14275000    1.1102417 -6.5133048e-05   0.51171832    0.0325935            0   0.47912482    1.6570358    2.1687541   -2.3332422 
14280000    1.1375496 -3.1774435e-05    0.4692846 0.0054133608            0   0.46387123    1.6977928    2.1670774 -0.029171628 
14285000    1.0297154 4.3024754e-05   0.62896674 0.0093316237            0   0.61963512    1.5368502    2.1658169    5.1396879 
14290000    1.1206243 -8.8600936e-06   0.50261818  0.017829512            0   0.48478867    1.6725318      2.17515    1.5627403 
14295000    1.1043171 -5.2269118e-05   0.52409991  0.015557325            0   0.50854259    1.6481933    2.1722932   -1.4405482 
14300000    1.0390908 -7.532465e-06   0.62113735  0.021122364            0   0.60001499     1.550843    2.1719804    1.6513364 
14305000     1.080942 -2.2788299e-05   0.57736924  0.023784833            0   0.55358441     1.613306    2.1906752   0.61554798 
14310000     1.077382 -2.9210725e-05    0.5649089  0.020486112            0   0.54442279    1.6079926    2.1729015   0.15385624 
14315000    1.1056523 1.3744494e-06    0.5320473  0.051134067            0   0.48091323    1.6501861    2.1822334    2.2772353 
14320000    1.1104646 -3.7404081e-05   0.52799774  0.024040547            0   0.50395719    1.6573684    2.1853661  -0.40000394 
14325000    1.0685646 -5.6449255e-05   0.57079889  0.015297733            0   0.55550116    1.5948326    2.1656315    -1.736141 
14330000    1.1045404 -7.1321245e-06   0.51383701 0.0090122853            0   0.50482473    1.6485266    2.1623636    1.6693911 
14335000    1.1010992 -3.8545737e-05   0.52377866  0.017167105            0   0.50661155    1.6433906    2.1671693  -0.49711208 
14340000    1.1172735 2.0344966e-05   0.49178975  0.020170691            0   0.47161906    1.6675308    2.1593205    3.5655645 
14345000    1.0729604 3.1366288e-05   0.56146479  0.014027688            0    0.5474371    1.6013934    2.1628582     4.330896 
14350000    1.0899769 -5.3084004e-05   0.53101106  0.030914825            0   0.50009623    1.6267905    2.1578015   -1.5113648 
14355000    1.0448687 -8.2816976e-06   0.60691399  0.038293206            0   0.56862079    1.5594665    2.1663805    1.5939496 
14360000    1.0863764 4.372198e-07   0.55006746  0.009800882            0   0.54026657    1.6214168    2.1714842    2.2017048 
14365000    1.1214399 -1.6399159e-05   0.48954624 0.0041936155            0   0.48535263    1.6737491    2.1632953    1.0297855 
14370000    1.1400767 2.6609564e-05   0.46327433 0.0083430585            0   0.45493128    1.7015645    2.1648389     4.004092 
14375000    1.0254039 4.5285521e-06   0.64071013  0.034695892            0   0.60601424    1.5304153    2.1711255     2.484139 
14380000    1.0863877 -8.0629039e-06   0.54224875  0.033734013            0   0.50851474    1.6214336    2.1636823    1.6063744 
14385000    1.0960612   4.1442e-05   0.53469166  0.012139417            0   0.52255224    1.6358714     2.170563     5.035034 
14390000    1.1164241 4.5993099e-05   0.51552315  0.010863379            0   0.50465977     1.666263    2.1817861    5.3608291 
14395000    1.0909805 5.4331964e-05   0.55771731  0.017701558            0   0.54001575    1.6282883    2.1860056     5.941431 
14400000    1.1050998 -2.0460142e-06   0.53457941  0.034379426            0   0.50019999    1.6493614    2.1839408    2.0425203 
14405000    1.0546741 1.2979285e-05   0.60417393  0.026555829            0    0.5776181     1.574101     2.178275    3.0754031 
14410000    1.1125063 4.764637e-06   0.50440107  0.019336641            0   0.48506443    1.6604156    2.1648167    2.4941484 
14415000    1.1224348 -2.6036382e-05   0.49962742 0.0066332455            0   0.49299417    1.6752339    2.1748613   0.37522662 
14420000    1.1079756 4.4093963e-05   0.50583409 0.0063693819            0    0.4994647    1.6536535    2.1594876    5.2072623 
14425000    1.0985367  -1.8631e-05   0.52106074  0.032325137            0   0.48873561     1.639566    2.1606268   0.87285206 
14430000    1.1024669 -2.6986757e-05   0.50194029  0.024765307            0   0.47717499    1.6454319    2.1473722   0.28204756 
14435000    1.1050262 -6.59432e-06   0.49468412  0.016864686            0   0.47781944    1.6492517    2.1439358    1.6881364 
14440000    1.0829914 -1.2839377e-05    0.5328892  0.023902605            0   0.50898659    1.6163647    2.1492539    1.2617962 
14445000      1.08001 -1.2078953e-05   0.53575813  0.017540996            0   0.51821713    1.6119149     2.147673    1.3127758 
14450000    1.0985798 1.4994934e-05   0.49797533   0.03520758            0   0.46276775    1.6396303    2.1376056    3.1740555 
14455000    1.1090771 5.4169062e-06   0.47731598  0.017778955            0   0.45953702    1.6552975    2.1326135      2.50703 
14460000    1.1026118 -2.6581658e-05   0.47300358  0.010696685            0   0.46230689    1.6456482    2.1186517   0.28132753 
14465000    1.1047349 -3.3215637e-05   0.46899862  0.010407429            0   0.45859119    1.6488169    2.1178155   -0.1780493 
14470000    1.0269431 -4.1277584e-05   0.57270838 0.0082227594            0   0.56448562    1.5327125    2.1054209  -0.74768567 
14475000    1.0838649 6.5421189e-06   0.48548789  0.017638945            0   0.46784894    1.6176684    2.1031563    2.5553476 
14480000    1.0938094 -4.5641694e-05    0.4981076  0.024584874            0   0.47352273    1.6325106    2.1306182   -1.0241357 
14485000    1.0816435 -9.7673734e-06   0.49838196    0.0199954            0   0.47838656     1.614353    2.1127349    1.4376141 
14490000    1.0579829 -4.2938185e-06   0.53096733 0.0058355205            0   0.52513181    1.5790394    2.1100068     1.813218 
14495000    1.0886963 -6.1652232e-05   0.48286246   0.00144697            0   0.48141549    1.6248792    2.1077416   -2.1536607 
14500000    1.1116096 -1.4001802e-05   0.46512125 0.0072389345            0   0.45788232    1.6590773    2.1241986     1.156394 
14505000    1.1010683 4.7866005e-05    0.5038032   0.02638481            0   0.47741839    1.6433445    2.1471477    5.4556459 
14510000    1.1047621 3.732554e-05   0.49417635  0.025015923            0   0.46916043    1.6488575    2.1430338    4.7229751 
14515000    1.1028424 2.0937203e-05   0.49226589  0.024183794            0    0.4680821    1.6459924    2.1382582    3.5854377 
14520000    1.0618559 -1.2292905e-05   0.54202919  0.018163192            0     0.523866    1.5848199    2.1268491    1.2771635 
14525000    1.0619831 -2.6283046e-06    0.5286623  0.015613718            0   0.51304858    1.5850098    2.1136721    1.9320037 
14530000    1.0469361 1.8367554e-05   0.52201551  0.021821079            0   0.50019443    1.5625522    2.0845677     3.354133 
14535000    1.1059331 3.5634753e-05   0.45911573  0.018636015            0   0.44047972    1.6506052     2.109721    4.5727951 
14540000    1.0998831 3.2363687e-05   0.48300049  0.021505649            0   0.46149484    1.6415755     2.124576     4.361554 
14545000    1.0812847 -4.6554585e-06   0.51004231  0.026879461            0   0.48316285    1.6138175    2.1238598    1.8020745 
14550000    1.0407237 -2.2880391e-07   0.55979162  0.020094848            0   0.53969678    1.5532801    2.1130717    2.0972568 
14555000    1.1016926 -1.3828694e-05   0.46572132 0.0072984877            0   0.45842283    1.6442763    2.1099976    1.1541583 
14560000    1.0772897 -4.66842e-05   0.49832897  0.011010571            0    0.4873184     1.607855    2.1061839    -1.120628 
14565000    1.0479122 -5.3341092e-05   0.54368244  0.018809871            0   0.52487257     1.564009    2.1076914   -1.5792449 
14570000    1.1029355 -7.5032293e-05   0.46573319  0.019977722            0   0.44575547    1.6461312    2.1118644   -3.0743677 
14575000    1.0387638 -1.4495079e-05   0.54838459  0.059444235            0   0.48894036    1.5503549    2.0987395    1.0968397 
14580000    1.0675603 5.6928698e-05   0.50722169  0.042567592            0   0.46465409    1.5933338    2.1005555    6.0354671 
14585000    1.1005046 1.6781785e-06   0.48689562  0.029591587            0   0.45730403    1.6425032    2.1293988    2.2453945 
14590000    1.1147677 1.3720885e-05   0.47948334  0.023748642            0    0.4557347    1.6637908    2.1432742    3.0916617 
14595000    1.0708001 3.0693392e-05   0.52450689  0.011182109            0   0.51332478    1.5981691     2.122676    4.2442032 
14600000    1.0834399 -2.0831753e-05   0.50976574 0.0070470803            0   0.50271866    1.6170341    2.1267998   0.68690905 
14605000    1.0830093 8.0597004e-06   0.49443318  0.013088125            0   0.48134506    1.6163914    2.1108245     2.667911 
14610000    1.1137974 3.0791511e-05   0.43991605  0.019699134            0   0.42021691    1.6623427    2.1022587     4.230568 
14615000    1.0797698 -1.5868667e-05   0.48802463  0.029198055            0   0.45882658    1.6115564    2.0995811    1.0027388 
14620000     1.045965 -3.8820893e-05   0.54000798  0.019000569            0   0.52100741    1.5611028    2.1011108  -0.58218933 
14625000    1.0668915 -9.1513938e-06   0.50571573   0.01965029            0   0.48606544    1.5923356    2.0980514     1.465507 
14630000    1.0931746 -2.3979967e-05   0.48154043  0.031732678            0   0.44980775     1.631563    2.1131035   0.45560816 
14635000    1.0762679 -9.3657449e-05   0.50008755  0.034966316            0   0.46512123    1.6063298    2.1064174   -4.3671855 
14640000    1.0446935 -4.804521e-05   0.55353769  0.047451644            0   0.50608605     1.559205    2.1127427   -1.2081422 
14645000    1.0509465 5.8957866e-06   0.54450156  0.033579848            0   0.51092171    1.5685377    2.1130393     2.520556 
14650000    1.0550229 2.2814167e-05   0.53499263  0.021332546            0   0.51366009    1.5746216    2.1096142    3.6865295 
14655000    1.0479108 -1.1030095e-05   0.53280948  0.030797383            0    0.5020121    1.5640068    2.0968163    1.3344161 
14660000    1.0253202 -2.112152e-05   0.55452506  0.033663525            0   0.52086154    1.5302904    2.0848155   0.62489603 
14665000    1.0600945 -1.3320445e-06   0.51860366  0.012453575            0   0.50615009     1.582191    2.1007947    2.0087238 
14670000     1.089172 -2.3592369e-05   0.49134673 0.0089956181            0   0.48235111    1.6255893     2.116936   0.48623141 
14675000     1.096336 -3.1019178e-05   0.46861862 0.0077366326            0   0.46088199    1.6362815    2.1049001 -0.039145469 
14680000    1.0503842 -1.3282671e-05    0.5516103  0.028965613            0   0.52264469    1.5676984    2.1193087    1.2012105 
14685000    1.0622732 -1.5072854e-05   0.52362074  0.045013607            0   0.47860713    1.5854427    2.1090634    1.0672278 
14690000    1.0494278 -6.9022712e-05    0.5532824  0.046256786            0   0.50702561     1.566271    2.1195534   -2.6512965 
14695000    1.0306226 -3.7150048e-05   0.59048284  0.045642424            0   0.54484042    1.5382043    2.1286871  -0.43912418 
14700000    1.0863944 6.2823856e-06   0.50763986  0.022307664            0   0.48533219    1.6214436    2.1290835     2.563322 
14705000    1.1131679 -1.3713747e-05   0.45556853  0.021698553            0   0.43386997    1.6614031    2.1169716    1.1690774 
14710000    1.0792863 -8.4823721e-06   0.50521958   0.01346042            0   0.49175916    1.6108347    2.1160543    1.5297528 
14715000    1.0662421 -4.7234248e-05   0.51635262  0.012450658            0   0.50390196    1.5913663    2.1077189   -1.1571123 
14720000    1.0451531 -9.582199e-05   0.56480338  0.013165266            0   0.55163811     1.559891    2.1246944   -4.4985216 
14725000    1.0496006 -6.3693146e-05   0.56388727  0.014818002            0   0.54906927    1.5665288    2.1304161   -2.2720541 
14730000    1.1273176 1.2761546e-05   0.45845199  0.022721357            0   0.43573063    1.6825215    2.1409735    3.0230515 
14735000    1.0254598 3.8673446e-05   0.61520265  0.026560642            0   0.58864201    1.5304987    2.1457014      4.81881 
14740000    1.0521843 -9.3314126e-06   0.57114553  0.017150903            0   0.55399462     1.570385    2.1415305    1.4965433 
14745000    1.1429357 -4.4375313e-06   0.44877494 0.0058432129            0   0.44293173    1.7058316    2.1546065    1.8478843 
14750000    1.1004255 1.0975659e-05   0.51478904  0.009535479            0   0.50525356     1.642385     2.157174    2.9158116 
14755000    1.0862058 -3.2698007e-05   0.55057573   0.01507501            0   0.53550072    1.6211622    2.1717379 -0.088348318 
14760000    1.0871874 -6.4900653e-05   0.56766966  0.011066063            0   0.55660359    1.6226272    2.1902969   -2.2956363 
14765000     1.111702 1.2500379e-05   0.52889972  0.017002737            0   0.51189698    1.6592153     2.188115    3.0521412 
14770000    1.0595618 6.1455482e-05   0.61516334  0.019774675            0   0.59538867     1.581396    2.1965593    6.4443622 
14775000    1.1056156 -1.8547061e-06   0.52569079  0.019161259            0   0.50652953    1.6501313    2.1758221    2.0476248 
14780000    1.0560468 -2.048257e-05   0.61894779  0.011691583            0   0.60725621    1.5761499    2.1950977   0.77934243 
14785000    1.0894564 -2.1645928e-05   0.58315036 0.0038490734            0   0.57930129    1.6260136     2.209164   0.71299744 
14790000     1.116688 1.430496e-05   0.54713004  0.009791371            0   0.53733867    1.6666569    2.2137869    3.2025457 
14795000    1.1105734 8.3198583e-05   0.53588612  0.012299611            0   0.52358651    1.6575307    2.1934169    7.9441029 
14800000    1.1424149 1.4245933e-05   0.47272843  0.015060561            0   0.45766786    1.7050543    2.1777827    3.1624616 
14805000    1.0760112 -3.3943295e-05   0.56482771  0.015258239            0   0.54956947    1.6059468    2.1707745  -0.17538604 
14810000    1.0927086 -2.261389e-05   0.54693949  0.011452038            0   0.53548746    1.6308676    2.1778071   0.61473495 
14815000    1.0840543 -1.1063953e-07   0.55118458 0.0074716477            0   0.54371294     1.617951    2.1691356    2.1614882 
14820000    1.0967545 3.9785929e-05   0.54172583 0.0041295695            0   0.53759626    1.6369061     2.178632    4.9286354 
14825000    1.1406343 3.2929351e-05   0.47894065   0.01107977            0   0.46786088    1.7023967    2.1813374    4.4574142 
14830000    1.0746246 -7.3542281e-06     0.574511  0.020741535            0   0.55376947    1.6038773    2.1783883     1.670064 
14835000    1.0558335 -1.1149798e-05   0.57660194  0.020438404            0   0.55616354    1.5758314    2.1524334    1.3817593 
14840000    1.1029177 1.3727024e-05   0.50343332  0.012829071            0   0.49060425    1.6461047     2.149538    3.0983499 
14845000    1.0371165 -5.9694816e-05   0.59485033 0.0091854957            0   0.58566484    1.5478963    2.1427466   -1.9833591 
14850000    1.0818999 -9.0799775e-06   0.51356672   0.02064307            0   0.49292365    1.6147356    2.1283024    1.5006943 
14855000    1.0228188 -3.3607743e-05   0.59370032  0.029992985            0   0.56370734    1.5265571    2.1202574  -0.20270982 
14860000    1.0780307 -4.4968022e-05   0.51392442  0.021930571            0   0.49199385    1.6089608    2.1228852  -0.98530443 
14865000    1.0882649 4.9070787e-05   0.49787421  0.017443765            0   0.48043044    1.6242354    2.1221096    5.5138824 
14870000    1.0629189 3.1754294e-05   0.52832078  0.011724527            0   0.51659626    1.5864064    2.1147272     4.309584 
14875000    1.0647925 1.0031789e-05   0.51917136  0.013169514            0   0.50600185    1.5892028    2.1083741    2.8017714 
14880000     1.077804 8.939832e-07   0.52106309  0.013047951            0   0.50801514    1.6086225    2.1296856    2.1914777 
14885000    1.0780294 3.6345991e-05   0.48630883  0.022191118            0   0.46411772    1.6089589    2.0952678    4.6075026 
14890000    1.0606414 -5.0814579e-06   0.53254536  0.017553199            0   0.51499217    1.5830072    2.1155526    1.7643222 
14895000    1.0724617 -7.6882349e-05   0.52135866  0.041353067            0   0.48000559    1.6006491    2.1220078   -3.1921002 
14900000    1.0251288 -2.8910518e-05   0.59014914  0.053363055            0   0.53678608    1.5300047    2.1201539   0.12185889 
14905000     1.019931 -5.2224415e-05   0.58473411  0.015673367            0   0.56906074     1.522247    2.1069811   -1.5027705 
14910000     1.042557 -2.8451978e-05   0.55199826 0.0066967508            0   0.54530151    1.5560163    2.1080145   0.14141378 
14915000    1.0477094 2.6572165e-05   0.54086232  0.010639753            0   0.53022257    1.5637063    2.1045686    3.9412367 
14920000    1.0430177 -5.7999235e-05   0.54753929  0.016046651            0   0.53149264    1.5567039    2.1042432    -1.904664 
14925000     1.007239 -2.086103e-05   0.59786631  0.017746373            0   0.58011994    1.5033043    2.1011706   0.65925615 
14930000    1.0496641 9.8755341e-06   0.53182526 0.0055850057            0   0.52624025    1.5666237     2.098449    2.7810459 
14935000    1.0604507 -1.7271972e-05   0.51180941 0.0041841442            0   0.50762527    1.5827227    2.0945321   0.90069342 
14940000    1.0355528 -5.8788616e-05   0.54387664  0.016941433            0   0.52693521    1.5455626    2.0894392   -1.9740299 
14945000    1.0491811 -1.4990121e-05   0.51759242  0.013175064            0   0.50441735    1.5659029    2.0834953    1.0473781 
14950000    1.0558467 5.5108636e-05    0.4966774 0.0041312983            0    0.4925461    1.5758512    2.0725286    5.8816375 
14955000     1.015398 6.6540903e-05   0.55852153  0.017160739            0   0.54136079    1.5154815     2.074003    6.6733102 
14960000    1.0170332 1.8136269e-05   0.55123355  0.016278346            0   0.53495521    1.5179221    2.0691556    3.3227346 
14965000     1.037558 -3.5134678e-05   0.52626634 0.0048734214            0   0.52139292    1.5485554    2.0748217  -0.35368723 
14970000    1.0084525 -2.0574027e-05   0.56220572  0.006818556            0   0.55538716    1.5051154    2.0673211    0.6452443 
14975000    1.0220827 3.5883343e-05   0.56376549  0.011110988            0    0.5526545    1.5254584    2.0892239    4.5694806 
14980000    1.0477247 4.0815322e-05   0.52677358  0.028333378            0    0.4984402    1.5637291    2.0905027    4.9116578 
14985000    1.0686898 -4.2416337e-05   0.48997817  0.022234022            0   0.46774415    1.5950195    2.0849977  -0.84681956 
14990000    1.0977081 -6.8988472e-05    0.4610574 0.0060308168            0   0.45502659    1.6383294    2.0993868   -2.6690964 
14995000    1.0234027 5.7224115e-06   0.57346871   0.01675101            0    0.5567177    1.5274285    2.1008972    2.4964303 
15000000    1.0871343 -1.1951843e-05   0.47851065  0.011850596            0   0.46666005    1.6225479    2.1010586    1.2749472 
15005000    1.0282258 -7.4799844e-06   0.57459831  0.010026445            0   0.56457187     1.534627    2.1092253    1.5922088 
15010000    1.0921246 9.8672519e-06   0.48346476  0.014361925            0   0.46910283     1.629996    2.1134608    2.7954852 
15015000    1.0703189 3.9468515e-05   0.51543992  0.016769957            0   0.49866996     1.597451    2.1128909    4.8409547 
15020000    1.0045915 -3.1768268e-05   0.61590039  0.011022772            0   0.60487762    1.4993528    2.1152532  -0.08056949 
15025000     1.069984 -2.3209255e-05   0.52854267  0.039391455            0   0.48915121    1.5969511    2.1254938   0.52127009 
15030000    1.0583806 -9.0710759e-06   0.54961112  0.025598132            0   0.52401299    1.5796331    2.1292442    1.5022514 
15035000     1.021389 -9.3366431e-05   0.59131486  0.017068918            0   0.57424595     1.524423    2.1157379   -4.3377498 
15040000     1.040675 4.0368764e-05   0.57057625  0.003995602            0   0.56658065    1.5532074    2.1237836    4.9140726 
15045000    1.0951058 6.9597595e-05   0.49871461 0.0018337186            0    0.4968809    1.6344454      2.13316    6.9437457 
15050000    1.0627042 -7.2927909e-05   0.54575642 0.0077922169            0    0.5379642     1.586086    2.1318424   -2.9089346 
15055000    1.0387548 -8.162273e-05   0.58415251  0.020896388            0   0.56325612    1.5503415     2.134494   -3.5072691 
15060000    1.0036903 -5.3420225e-05   0.62152434  0.022670634            0    0.5988537    1.4980077    2.1195321   -1.5728739 
15065000    1.0568174 1.5803742e-05   0.54839422 0.0095484789            0   0.53884574       1.5773    2.1256942    3.2180488 
15070000    1.0614295 2.5327949e-05   0.53684338  0.018416393            0   0.51842699    1.5841836     2.121027    3.8716948 
15075000    1.0008369 -5.255089e-06   0.61499142  0.025762361            0   0.58922906    1.4937491    2.1087405    1.7455087 
15080000    1.0329813 -2.5594381e-05   0.55952972  0.038303862            0   0.52122586    1.5417247    2.1012544   0.33217075 
15085000    1.0149433 2.5543629e-05   0.57973703  0.012479685            0   0.56725734    1.5148029    2.0945399    3.8601155 
15090000     1.015932 -1.1168378e-05    0.5512207  0.017054533            0   0.53416617    1.5162785    2.0674992    1.2955409 
15095000    1.0348966 -5.1413549e-05   0.53350969  0.021709401            0   0.51180029    1.5445832    2.0780929   -1.4756115 
15100000    1.0116481 -7.9297884e-05   0.54540491  0.012675904            0     0.532729    1.5098848    2.0552897     -3.42578 
15105000    1.0094391 -3.2839733e-05   0.53490372   0.01284462            0    0.5220591    1.5065878    2.0414915  -0.22839079 
15110000    1.0207324 2.1548887e-05    0.5409638  0.023147874            0   0.51781592    1.5234431    2.0644069    3.5538659 
15115000    1.0283767 4.5898555e-06   0.52377047  0.013110613            0   0.51065986    1.5348523    2.0586227    2.3758735 
15120000    1.0179778 -1.4850107e-05   0.52613202 0.0096142956            0   0.51651772    1.5193319    2.0454639    1.0190245 
15125000   0.99572139 -1.7515831e-05   0.56790727  0.017342882            0   0.55056439    1.4861142    2.0540215   0.84332724 
15130000    1.0188663 3.2134661e-05    0.5253979 0.0054943767            0   0.51990352     1.520658    2.0460559    4.2672036 
15135000    1.0112284 -5.9191052e-06   0.55841062  0.016873851            0   0.54153677    1.5092583     2.067669    1.6585404 
15140000   0.99215608 3.2781563e-05   0.57732405  0.021203294            0   0.55612076    1.4807929     2.058117    4.3239786 
15145000   0.95607207 -5.144207e-06   0.59544046  0.023151468            0     0.572289    1.4269376     2.022378    1.6668104 
15150000    1.0005221 9.2970775e-05   0.50985555  0.024079545            0   0.48577601    1.4932792    2.0031348    8.4292748 
15155000   0.96830248 3.8041614e-05   0.55443616   0.02216734            0   0.53226882    1.4451915    1.9996276     4.629064 
15160000   0.99299212 1.1966647e-06   0.54457053  0.022053426            0    0.5225171    1.4820407    2.0266113    2.1093247 
15165000   0.99682483 2.4351411e-05   0.55280185  0.016720955            0    0.5360809    1.4877611    2.0405629    3.7237324 
15170000   0.97015524 8.4028498e-07   0.57584426 0.0095738647            0    0.5662704    1.4479567     2.023801    2.0818815 
15175000   0.98380108 2.3617109e-05   0.52938112 0.0090237387            0   0.52035738    1.4683231    1.9977042    3.6301188 
15180000   0.93230842 -4.0154527e-05   0.59413823  0.015736743            0   0.57840148    1.3914703    1.9856085  -0.78987234 
15185000   0.95166148 -4.3017704e-05   0.53967612  0.020834176            0   0.51884194    1.4203548    1.9600309   -1.0133528 
15190000    1.0079351 3.1889429e-05   0.46252598  0.032692626            0   0.42983335    1.5043431    1.9668691    4.1710664 
15195000   0.96093813 3.2211206e-05   0.52547815  0.036264737            0   0.48921341    1.4342002    1.9596783    4.1861169 
15200000   0.92852959 -3.7507614e-05   0.58397065   0.01337163            0   0.57059903    1.3858304    1.9698011   -0.6227252 
15205000   0.96949086 -4.4194761e-05   0.53466915 0.0082228364            0   0.52644631    1.4469651    1.9816342   -1.0731076 
15210000    1.0064572 5.8310599e-05   0.48777103  0.018930472            0   0.46884056    1.5021374    1.9899085    6.0203371 
15215000   0.98101639 -1.2950447e-05   0.53491042  0.026000022            0    0.5089104     1.464167    1.9990774    1.1039425 
15220000     1.013813 -2.1900601e-05    0.4911062   0.01505201            0   0.47605419    1.5131159    2.0042221   0.49045253 
15225000   0.94592863 -5.5687552e-05   0.58515178  0.015892375            0    0.5692594    1.4117985    1.9969503   -1.8521734 
15230000    0.9588301 -8.6169106e-06   0.54923704  0.015199268            0   0.53403777    1.4310539     1.980291    1.3846901 
15235000    1.0257105 3.5152666e-05   0.44682638  0.020491336            0   0.42633504    1.5308729    1.9776993    4.4074516 
15240000    1.0081554 2.6529335e-05   0.46307276 0.0079691981            0   0.45510356    1.5046719    1.9677446    3.8014523 
15245000    1.0034424 1.0623564e-05   0.47546764 0.0093924755            0   0.46607516    1.4976378    1.9731054    2.7074062 
15250000   0.96088823 -1.0048089e-05   0.53897898 0.0088764164            0   0.53010257    1.4341257    1.9731047    1.2785807 
15255000   0.92189734 -6.5473582e-06   0.60677187  0.014591108            0   0.59218076    1.3759318    1.9827037    1.5301503 
15260000   0.97581719 -1.1882069e-05   0.53063109 0.0061113997            0   0.52451969    1.4564072    1.9870383    1.1657497 
15265000   0.98640618 4.052164e-07   0.49971244 0.0066716351            0   0.49304081    1.4722112    1.9719237    1.9999322 
15270000   0.97698194 -5.8303175e-06    0.5101143  0.012670118            0   0.49744418    1.4581456    1.9682599    1.5652683 
15275000   0.96471196 -5.0968493e-05   0.52694121  0.014407135            0   0.51253408    1.4398326    1.9667738   -1.5561684 
15280000   0.94917185 -0.0001044116   0.54668455  0.027820682            0   0.51886387     1.416639    1.9633235    -5.253606 
15285000     1.000031 7.9248235e-05   0.48559995   0.01657534            0   0.46902461    1.4925463    1.9781462    7.4557842 
15290000   0.94659941 7.1431841e-05   0.55770538 0.0095758725            0   0.54812951    1.4127996     1.970505    6.9078738 
15295000   0.98862678 -5.0614157e-05   0.51385507 0.0076331363            0   0.50622193    1.4755255    1.9893805     -1.50907 
15300000    0.9736966 1.7987385e-05   0.55762382  0.019909138            0   0.53771468    1.4532422     2.010866     3.254154 
15305000   0.98654581 7.8927009e-06   0.53889715   0.02489869            0   0.51399846    1.4724196    2.0113168    2.5568602 
15310000   0.98965407 -6.4599704e-06   0.52672895 0.0096906297            0   0.51703832    1.4770587    2.0037876    1.5572745 
15315000   0.96510964 -3.3191515e-05    0.5488594  0.014162273            0   0.53469713    1.4404261    1.9892855    -0.304912 
15320000     0.945933 -0.00011445979   0.58662438  0.014564994            0   0.57205939     1.411805    1.9984294   -5.9130316 
15325000   0.98205125 -1.3549272e-05   0.53325149  0.013529845            0   0.51972165    1.4657115     1.998963    1.0624373 
15330000   0.94726552 4.5022926e-06   0.59543493  0.020440013            0   0.57499492    1.4137938    2.0092287    2.3204272 
15335000   0.97404863 6.891639e-06   0.53266717 0.0070581378            0   0.52560903    1.4537676    1.9864348    2.4627848 
15340000    1.0035471  1.79697e-05   0.48487266  0.012624182            0   0.47224848    1.4977941    1.9826668    3.2247324 
15345000   0.96286876 -3.5349112e-05    0.5345899  0.019968926            0   0.51462098    1.4370816    1.9716715  -0.47165907 
15350000    0.9702551 -1.7211809e-05   0.51257956  0.016548239            0   0.49603132    1.4481057    1.9606853   0.77100508 
15355000   0.99958259 3.5078187e-05   0.45301107 0.0074961042            0   0.44551497     1.491877    1.9448881    4.3694924 
15360000   0.92222334 2.6457691e-05   0.57179293 0.0057812393            0    0.5660117    1.3764183    1.9482113    3.7769669 
15365000   0.94622086 6.3753367e-05   0.54768333  0.018151383            0   0.52953195    1.4122346     1.959918    6.3665507 
15370000   0.96572926 7.8683211e-05   0.50300568  0.011430282            0    0.4915754    1.4413509    1.9443566    7.3829401 
15375000   0.94329402 5.8407082e-05   0.54075363 0.0010751751            0   0.53967845    1.4078663      1.94862    5.9857175 
15380000    0.9467058 3.698916e-05   0.53774301 0.0027737206            0   0.53496929    1.4129584    1.9507014    4.5073922 
15385000   0.97163445 -7.4641926e-05   0.52438438 0.0055842692            0   0.51880011    1.4501644    1.9745488   -3.1847011 
15390000   0.92730577 -6.928393e-05   0.57618155  0.017871526            0   0.55831002    1.3840039    1.9601854   -2.8287198 
15395000   0.97755015 -1.3262711e-05   0.50487835  0.022798131            0   0.48208022    1.4589936    1.9638719    1.0471534 
15400000   0.97681874 -1.7565646e-05   0.51661901  0.019825987            0   0.49679302     1.457902     1.974521   0.76038352 
15405000   0.97841541 7.464061e-07   0.51305989  0.023760654            0   0.48929924     1.460285    1.9733449    2.0249365 
15410000    1.0148305 7.0273497e-05   0.47679107  0.021771319            0   0.45501975    1.5146345    1.9914256    6.8487297 
15415000   0.97267822 -3.5186875e-05   0.55387419  0.026171015            0   0.52770318    1.4517222    2.0055964  -0.42652036 
15420000    1.0275216 2.7204221e-05   0.47792808  0.020426394            0   0.45750168     1.533576    2.0115041    3.8918598 
15425000   0.96587951 1.5555862e-05   0.55825994  0.018889933            0   0.53937001    1.4415752    1.9998351    3.0750563 
15430000   0.96500897 -4.6022726e-05   0.54258251  0.032022111            0    0.5105604    1.4402759    1.9828584   -1.1982324 
15435000    1.0126353 2.8030293e-05   0.47694609  0.022659215            0   0.45428688    1.5113582    1.9883043    3.9257582 
15440000    1.0034683 1.917822e-05   0.49443782  0.027439628            0    0.4669982    1.4976765    1.9921143    3.3177129 
15445000   0.94669682 3.3531267e-05   0.57307334  0.020422716            0   0.55265062     1.412945    1.9860183    4.3036995 
15450000   0.99687518 3.9330679e-05   0.49146958   0.01760453            0   0.47386505    1.4878362    1.9793058    4.6978423 
15455000   0.96795755 3.0077794e-05   0.52945689  0.032723869            0   0.49673302    1.4446766    1.9741335    4.0531106 
15460000    1.0247117 1.4045082e-05   0.44893696  0.026487761            0    0.4224492    1.5293822    1.9783192    2.9491152 
15465000   0.98572375 -4.4050384e-05   0.52852927  0.011296733            0   0.51723253    1.4711927     1.999722   -1.0450406 
15470000    1.0116809 -1.8879584e-05   0.51927441  0.013248157            0   0.50602625    1.5099338    2.0292082   0.72425134 
15475000    1.0514588 -1.8169494e-05    0.4703375  0.011296733            0   0.45904077    1.5693022    2.0396397   0.78376429 
15480000   0.97616032 3.3008836e-06   0.57539673  0.018009755            0   0.55738697    1.4569193     2.032316    2.2604731 
15485000    1.0142186 2.6265312e-05   0.52437291  0.012218581            0   0.51215433    1.5137212    2.0380941    3.8535525 
15490000    1.0295972 -2.1028029e-05   0.51763341 0.0072353844            0   0.51039802    1.5366738    2.0543072   0.60084982 
15495000   0.99745653 -2.2706551e-05   0.55335413  0.010041174            0   0.54331295    1.4887039     2.042058   0.47258117 
15500000    1.0055002 7.4114886e-05   0.53639951  0.019408533            0   0.51699098    1.5007091    2.0371086    7.1599295 
15505000    1.0385195 4.4297623e-05   0.48140321  0.033608671            0   0.44779454    1.5499903    2.0313935    5.0932453 
15510000    1.0634806 -8.032643e-05   0.46053176  0.020038079            0   0.44049368    1.5872448    2.0477765   -3.5043863 
15515000    1.0206743 -4.278634e-05   0.50982526 0.0067865417            0   0.50303871    1.5233564    2.0331817  -0.92421013 
15520000    1.0268434 -2.1172844e-05   0.49522522  0.015109031            0   0.48011619    1.5325638     2.027789   0.56432204 
15525000   0.99736137 3.5643444e-05    0.5294086   0.02710852            0   0.50230008    1.4885618    2.0179704    4.4816453 
15530000    0.9768325 6.1089696e-05   0.53345058  0.013542081            0   0.51990849    1.4579225    1.9913731    6.2138928 
15535000   0.94353831 3.6197745e-07   0.56020951  0.019961836            0   0.54024767    1.4082309    1.9684404    1.9934603 
15540000   0.98556499 -1.0161868e-05   0.50489255  0.018255914            0   0.48663663    1.4709558    1.9758483      1.27346 
15545000    1.0505207 -4.3836395e-05   0.42295016 0.0093880469            0   0.41356212    1.5679021    1.9908523   -1.0391193 
15550000    0.9736824 -3.4219767e-05   0.51210792  0.013308476            0   0.49879944     1.453221    1.9653289   -0.3999414 
15555000   0.96360001 -2.0882316e-06   0.49866292  0.020357359            0   0.47830556     1.438173    1.9368359    1.7924974 
15560000   0.96017646 1.383783e-06   0.48548866  0.014382463            0   0.47110619    1.4330634     1.918552    2.0141991 
15565000   0.97907593 2.4709724e-05   0.46656361 0.0088226407            0   0.45774097    1.4612708    1.9278344    3.6357706 
15570000   0.98284349 -8.0349687e-06   0.47802521  0.010164062            0   0.46786115    1.4668939    1.9449191    1.3895421 
15575000   0.94876966 7.925939e-06    0.5185243   0.01255766            0   0.50596664    1.4160387     1.934563    2.4824039 
15580000   0.98464831 3.6151834e-05   0.46991764  0.015709373            0   0.45420827    1.4695876    1.9395053      4.43832 
15585000   0.93060005 1.9050199e-05     0.550495   0.03308879            0   0.51740621    1.3889206    1.9394156    3.2561654 
15590000    0.9687215 -2.5955726e-05   0.50070854   0.03846652            0   0.46224202    1.4458168    1.9465254   0.15246563 
15595000   0.96800391 -1.2693612e-05     0.512506  0.019449791            0   0.49305621    1.4447458    1.9572518    1.0798694 
15600000    1.0022303 1.8383172e-05   0.46837416 0.0050968549            0    0.4632773    1.4958287    1.9642028    3.2348477 
15605000    1.0120631 -2.0668778e-06   0.46183609 0.0053291606            0   0.45650693    1.5105042    1.9723403    1.8294777 
15610000    1.0090497 5.0327688e-05   0.45359785  0.016042706            0   0.43755515    1.5060067    1.9596045    5.4382543 
15615000   0.94889943 3.3407136e-05   0.54245488  0.037135385            0    0.5053195    1.4162324    1.9586873    4.2677885 
15620000   0.98378092 1.9126798e-05   0.49684789  0.018245536            0   0.47860235     1.468293    1.9651409    3.2871852 
15625000   0.93691555 -5.9747745e-05   0.57637847  0.015664948            0   0.56071352    1.3983465    1.9747249   -2.1550392 
15630000   0.98405374 -1.1079804e-05   0.51682462  0.019789084            0   0.49703554    1.4687002    1.9855248    1.2196888 
15635000   0.98068822 1.4138141e-05   0.54298613  0.023503516            0   0.51948261    1.4636772    2.0066633    2.9838916 
15640000   0.98707365 4.2182758e-05   0.52770686  0.020628056            0   0.50707881    1.4732074    2.0009143    4.9165865 
15645000    1.0036268 2.8193183e-05   0.50883877  0.020247674            0    0.4885911     1.497913    2.0067518    3.9554646 
15650000   0.96815528 4.0461576e-05   0.55229334  0.010473534            0   0.54181981    1.4449718    1.9972651    4.7939692 
15655000    1.0054195 3.4710705e-05   0.48929811  0.019728707            0    0.4695694    1.5005885    1.9898866    4.3890906 
15660000   0.97823845 -4.3503195e-05    0.5168727  0.016266151            0   0.50060655    1.4600209    1.9768936   -1.0300472 
15665000   0.95898038 -8.4050629e-05   0.54876739 0.0083845999            0   0.54038279    1.4312782    1.9800456   -3.8295339 
15670000   0.99118285 9.445396e-06   0.49501276  0.013123187            0   0.48188958    1.4793404    1.9743532    2.6272189 
15675000   0.97319034 -3.5526092e-05   0.52822782    0.0298258            0   0.49840202    1.4524866    1.9807144  -0.47484907 
15680000    1.0038707 -5.1621425e-05   0.48064289  0.023069688            0    0.4575732     1.498277    1.9789199    -1.589153 
15685000   0.97134059 -1.2106401e-06   0.52920252  0.016593834            0   0.51260868    1.4497258    1.9789283    1.8952489 
15690000    1.0308937 3.4440724e-05   0.43196584  0.019728742            0    0.4122371    1.5386089    1.9705747    4.3511175 
15695000   0.98141192 -1.4859589e-05   0.51326804  0.014394135            0   0.49887391    1.4647573    1.9780253   0.95093054 
15700000    1.0059416 7.1018704e-05   0.47988251   0.01797022            0   0.46191228    1.5013678    1.9812503    6.8900631 
15705000    1.0248544 6.6837651e-05    0.4774789  0.021749575            0   0.45572932    1.5295952    2.0070741    6.6268925 
15710000    1.0010087 -4.8356737e-06   0.50630138  0.032319685            0   0.47398169    1.4940055    2.0003069    1.6660651 
15715000    1.0019061 -3.32037e-06   0.49524958  0.034267993            0   0.46098159    1.4953448    1.9905944    1.7610904 
15720000   0.95176518 -1.1890696e-05    0.5761923  0.050106502            0    0.5260858    1.4205095    1.9967018    1.1748169 
15725000    1.0289609 -2.2406436e-05   0.45899091  0.025655422            0   0.43333549    1.5357241     1.994715   0.44598215 
15730000    1.0018153 1.3579477e-05   0.50336892  0.016427157            0   0.48694176    1.4952093    1.9985782    2.9371917 
15735000    1.0169357 3.3145061e-05    0.4886591   0.03120436            0   0.45745474    1.5177766    2.0064357    4.2974223 
15740000   0.96126108 4.6423036e-07   0.57381849  0.024802312            0   0.54901618    1.4346822    2.0085007    2.0405883 
15745000    1.0486345 4.2402653e-05    0.4290548  0.017855269            0   0.41119953     1.565087    1.9941418    4.9250131 
15750000   0.99627108 2.3997379e-05     0.513708  0.023935849            0   0.48977215    1.4869346    2.0006426    3.6593415 
15755000    1.0012731 -1.7768042e-05   0.47716084   0.02595501            0   0.45120583    1.4944001     1.971561   0.74343395 
15760000    1.0020541 -2.871346e-05   0.46699218  0.011587427            0   0.45540475    1.4955657    1.9625579 -0.022116443 
15765000    1.0344023 -4.4450564e-05   0.42322325 0.0072585685            0   0.41596469    1.5438455    1.9670687   -1.1053542 
15770000   0.97122443 -2.3676213e-05   0.53155879 0.0085300981            0   0.52302869    1.4495525    1.9811113   0.34461141 
15775000   0.96986184 4.8451677e-05   0.54631708  0.022209036            0   0.52410805    1.4475188    1.9938359    5.3428158 
15780000    1.0428816 -6.0352897e-06   0.45640716  0.028695554            0    0.4277116    1.5565008     2.012908    1.5957487 
15785000   0.97233948 -2.5221843e-06   0.57288898  0.025651968            0   0.54723701    1.4512167    2.0241057    1.8497723 
15790000   0.99964256 1.2197619e-05   0.55358973  0.015033352            0   0.53855638    1.4919665    2.0455562    2.8886556 
15795000    1.0289035 -1.1783971e-05   0.50555913  0.023880076            0   0.48167905    1.5356385    2.0411976    1.2266896 
15800000    1.0210896 -3.3548217e-05   0.52478601  0.024546901            0   0.50023911    1.5239763    2.0487623  -0.27009048 
15805000    1.0057717 -3.8765075e-05   0.52850631    0.0189064            0   0.50959991    1.5011142    2.0296205  -0.64982148 
15810000    1.0042446 3.6470623e-06   0.53303636  0.034433887            0   0.49860247    1.4988351    2.0318714    2.2839564 
15815000   0.99389775 -6.5991986e-05    0.5537197  0.025656277            0   0.52806342    1.4833924    2.0371121    -2.524254 
15820000    1.0641435 -2.6150908e-05   0.45133997  0.013354027            0   0.43798594    1.5882341    2.0395741   0.23202332 
15825000    1.0010565 -2.1632803e-05   0.54108988 0.0058894515            0   0.53520043    1.4940768    2.0351667   0.53990731 
15830000    1.0636804 -6.9819245e-05   0.45970423 0.0072728212            0   0.45243141    1.5875429    2.0472472   -2.7786591 
15835000     1.019919 -3.21202e-05   0.50945484  0.013950806            0   0.49550403    1.5222291    2.0316839  -0.18846428 
15840000    1.0184349 -4.3719424e-05   0.48711628  0.027533648            0   0.45958263    1.5200141    2.0071304   -1.0147562 
15845000    1.0026368 -6.1551719e-05   0.50412926  0.005995708            0   0.49813356    1.4964354    2.0005647   -2.2538902 
15850000    1.0597431 -1.4768157e-05   0.43834029 0.0073549659            0   0.43098532    1.5816665    2.0200068   0.99923181 
15855000   0.99728074 -8.4429106e-06   0.52462943  0.017519288            0   0.50711014    1.4884415    2.0130709    1.4294969 
15860000    1.0431372 3.6965571e-06   0.45010229  0.015952433            0   0.43414985    1.5568823    2.0069846    2.2624906 
15865000   0.99796687 2.101195e-05   0.51848543  0.012871091            0   0.50561434    1.4894656     2.007951     3.460297 
15870000    1.0007836 2.0775585e-05   0.52599999  0.053885852            0   0.47211414    1.4936696    2.0196696     3.455678 
15875000    0.9997257 5.115038e-05   0.53727655  0.042636849            0    0.4946397    1.4920906    2.0293672    5.5648814 
15880000      1.01987 -3.3146105e-06    0.4884471  0.018928638            0   0.46951846     1.522156    2.0106031    1.7814973 
15885000    1.0208293 2.9410353e-05   0.49697313  0.012705948            0   0.48426718    1.5235877    2.0205608    4.0534044 
15890000    1.0520169 4.1684891e-05   0.44240126  0.020210682            0   0.42219058    1.5701352    2.0125364    4.8937961 
15895000   0.97784072 5.8788691e-06   0.55832263 0.0067541073            0   0.55156852    1.4594273    2.0177499    2.4240973 
15900000   0.99847853 6.7332954e-05   0.52647605 0.0082147406            0   0.51826131    1.4902292    2.0167053     6.670759 
15905000    1.0773531 2.3539718e-05   0.42548474  0.027673142            0   0.39781159    1.6079495    2.0334342    3.6604996 
15910000    1.0367749 8.9539555e-07   0.50022853  0.033492586            0   0.46673594    1.5473865    2.0476151    2.1095048 
15915000    1.0222899 1.3450185e-05   0.53540507   0.02842645            0   0.50697862    1.5257677    2.0611728    2.9908496 
15920000     1.074958 -1.8311319e-05   0.47127363  0.025915877            0   0.44535775    1.6043748    2.0756485   0.80997012 
15925000    0.9871338 3.4809725e-06   0.60984022  0.062804564            0   0.54703566    1.4732972    2.0831374    2.3237422 
15930000   0.97813652 -2.459699e-05   0.61045885  0.065572523            0   0.54488633    1.4598688    2.0703276   0.37018366 
15935000    1.0554091 -7.2274109e-05   0.50705222  0.026059649            0   0.48099257    1.5751981    2.0822503   -2.9133361 
15940000     1.052542 -8.0268711e-05    0.4960222  0.012989044            0   0.48303316     1.570919    2.0669412   -3.4812321 
15945000     1.062076 8.6778197e-06   0.48683398  0.012525894            0   0.47430808    1.5851484    2.0719824    2.6717933 
15950000    1.0595447 8.6642471e-05   0.49504203  0.015200783            0   0.47984124    1.5813705    2.0764125    8.0651401 
15955000    1.0707643 2.8202983e-06    0.4738451  0.016261379            0   0.45758372    1.5981157    2.0719608    2.2668998 
15960000   0.99321562 -3.9682265e-05     0.572604  0.036092186            0   0.53651181    1.4823743    2.0549783  -0.68785987 
15965000    1.0532091 2.8551409e-05   0.47109786  0.030866034            0   0.44023183    1.5719146    2.0430125    4.0164859 
15970000    1.0515853 2.3864367e-05   0.45936005  0.014355996            0   0.44500405    1.5694911    2.0288512    3.6783562 
15975000   0.99525119 -2.7955376e-06   0.52957433   0.01977831            0   0.50979602    1.4854124    2.0149867    1.8217592 
15980000    1.0376467 6.3951019e-06   0.47004562  0.012394471            0   0.45765115    1.5486877    2.0187333    2.4607627 
15985000     1.000724 2.2472173e-05   0.52194333  0.037161261            0   0.48478207    1.4935806    2.0155239    3.5688005 
15990000   0.97810859 3.5730717e-05    0.5489691  0.041173693            0   0.50779541    1.4598271    2.0087962    4.4785034 
15995000    1.0413541 -3.2818353e-05   0.44916218  0.020468558            0   0.42869362    1.5542211    2.0033832  -0.26502133 
16000000   0.98050293 -1.6312522e-05   0.55467776  0.010160503            0   0.54451726    1.4634006    2.0180784   0.89055683 
16005000    1.0168785 5.0900197e-05   0.50647794 0.0099648148            0   0.49651313    1.5176912    2.0241692    5.5423908 
16010000    1.0401613 7.0299371e-05   0.49308675  0.024062495            0   0.46902425    1.5524408    2.0455275    6.9046201 
16015000    1.0299942 3.8491499e-05   0.51848383  0.020951012            0   0.49753282    1.5372664    2.0557502    4.7162826 
16020000   0.93973086 1.2496715e-05   0.65181164  0.049033432            0   0.60277821    1.4025483      2.05436    2.9181329 
16025000    1.0348122 5.6564361e-05   0.50840478  0.015280445            0   0.49312433    1.5444573    2.0528621    5.9625907 
16030000   0.98723368 1.5567971e-05   0.55228095   0.01519383            0   0.53708712    1.4734463    2.0257272    3.1017854 
16035000    1.0041974 1.3773791e-05   0.49388681  0.031873419            0    0.4620134    1.4987646    1.9926514    2.9446959 
16040000   0.99594421 6.906031e-05   0.49209395  0.023275595            0   0.46881836    1.4864467    1.9785407    6.7519893 
16045000   0.98709291 5.3496088e-05   0.50833252    0.0136131            0   0.49471942    1.4732362    1.9815687    5.6792183 
16050000   0.99977793 2.221169e-05   0.46476108 0.0096040776            0     0.455157    1.4921686    1.9569296    3.4922017 
16055000    1.0072619 -2.1558156e-05   0.44837238 0.0085343272            0   0.43983806    1.5033383    1.9517107   0.46161098 
16060000   0.98250203 1.8495833e-05   0.49622127  0.011539513            0   0.48468176    1.4663843    1.9626056    3.2410375 
16065000    1.0029674 2.5279494e-05   0.47527097  0.027591922            0   0.44767905    1.4969288    1.9721998    3.7195184 
16070000    0.9636222 4.6564556e-05   0.53488078  0.047587301            0   0.48729348    1.4382061    1.9730869    5.1916291 
16075000   0.97814349 1.6279524e-05   0.51821102  0.032542761            0   0.48566826    1.4598792    1.9780902    3.1033309 
16080000    1.0200105 -1.3425249e-05   0.47147786  0.011242075            0   0.46023578    1.5223657    1.9938436    1.0658904 
16085000   0.98988271 1.2830421e-05   0.52118454  0.013677473            0   0.50750707    1.4773999    1.9985845    2.8854232 
16090000    1.0137378 1.7394197e-05   0.49253972  0.010437258            0   0.48210246    1.5130036    2.0055433    3.2078302 
16095000    0.9962931 -2.287384e-05   0.53713615 0.0088727652            0   0.52826338    1.4869674    2.0241036   0.44306375 
16100000    1.0104414 -1.8451382e-05    0.5110501  0.018365335            0   0.49268477    1.5080838    2.0191339   0.74377439 
16105000   0.96045904 -1.1992857e-05   0.56970788  0.010976647            0   0.55873124    1.4334851     2.003193    1.1742467 
16110000   0.98444955 -3.3073655e-05   0.51402739  0.021806663            0   0.49222073    1.4692909    1.9833183  -0.30273266 
16115000    1.0225274 -2.5555894e-05   0.46025694  0.027645412            0   0.43261152    1.5261222    1.9863791   0.21995575 
16120000   0.98420171 3.8668809e-07   0.50655535  0.043158431            0   0.46339692    1.4689211    1.9754764    2.0022043 
16125000   0.93897976 -1.3276471e-05   0.57725906  0.033419023            0   0.54384004    1.4014273    1.9786864    1.0610167 
16130000   0.98759719 -8.0430035e-06   0.50947352  0.015531833            0   0.49394168    1.4739888    1.9834623    1.4275299 
16135000   0.97028644 2.0578874e-05   0.53468667  0.014042118            0   0.52064455    1.4481525    1.9828392     3.405251 
16140000   0.96363565 -7.8391193e-06   0.53976235 0.0086248567            0   0.53113749    1.4382262    1.9779885    1.4361486 
16145000     1.014508 -4.3642983e-05   0.48808358 0.0040839314            0   0.48399965    1.5141532    2.0022368   -1.0143662 
16150000     1.016685 1.0770221e-05    0.5141519  0.041183628            0   0.47296828    1.5174023    2.0315542    2.7759919 
16155000    1.0226306 1.7439056e-05   0.50068298    0.0535917            0   0.44709128    1.5262761    2.0269591    3.2323467 
16160000    1.0212715 -3.183613e-05   0.51653269  0.026555815            0   0.48997688    1.5242477    2.0407803  -0.15973295 
16165000    1.0339918 -4.7245091e-05   0.48924468  0.026421386            0    0.4628233    1.5432327    2.0324774   -1.2331033 
16170000   0.99357404 -8.728503e-06   0.54202411 0.0087119989            0   0.53331211    1.4829093    2.0249334    1.4216192 
16175000   0.94961868 1.0481241e-05   0.60154933  0.037709678            0   0.56383965    1.4173059    2.0188552    2.7433186 
16180000     1.006593 7.5501849e-06   0.50177121  0.062360307            0   0.43941091      1.50234    2.0041112      2.52598 
16185000   0.97621884 -2.8332218e-06   0.56627576  0.029586936            0   0.53668882    1.4570066    2.0232824    1.8274501 
16190000    1.0565149 8.7903964e-06    0.4539658 0.0088213134            0   0.44514449    1.5768485    2.0308143    2.6384065 
16195000    1.0589742 1.2312895e-05   0.44975647  0.030635916            0   0.41912056    1.5805189    2.0302754    2.8813427 
16200000   0.96634726 3.1661851e-06   0.58697733  0.032314923            0   0.55466241    1.4422733    2.0292506    2.2480973 
16205000    1.0145013 -2.0800229e-05   0.51235015    0.0128757            0   0.49947445    1.5141431    2.0264933   0.58878146 
16210000    1.0011216 -3.4083117e-05   0.53382827 0.0068010815            0   0.52702719     1.494174    2.0280022  -0.32782279 
16215000     1.021414 1.0469634e-05   0.49562514  0.022726093            0   0.47289905    1.5244604    2.0200856    2.7437467 
16220000      1.00077 -1.0851284e-05   0.51721311  0.040034559            0   0.47717855    1.4936492    2.0108623    1.2608215 
16225000    1.0007526 8.7745155e-07   0.51727511  0.029354164            0   0.48792095    1.4936233    2.0108984    2.0715478 
16230000    1.0343896 4.3605907e-05   0.46524302  0.011280504            0   0.45396252    1.5438264    2.0090694    5.0231098 
16235000   0.99439852 6.311327e-05   0.51015107 0.0086697792            0   0.50148129    1.4841398    1.9942909    6.3566801 
16240000   0.99501915 1.5823688e-05    0.5167543  0.019887394            0   0.49686691    1.4850661    2.0018204    3.0955537 
16245000   0.98285922 -1.3152036e-05   0.53840168  0.046972614            0   0.49142907    1.4669174    2.0053191    1.0962504 
16250000   0.99384107 5.9059685e-06   0.53860167  0.049075755            0   0.48952592    1.4833078    2.0219095      2.43013 
16255000    1.0012871 1.8980127e-06   0.52215779  0.039820405            0   0.48233739    1.4944209    2.0165787    2.1477694 
16260000   0.98254155 3.8648748e-06   0.57171603  0.020293545            0   0.55142248    1.4664433    2.0381593    2.3052994 
16265000    1.0180672 1.5671072e-06   0.51236313  0.010743688            0   0.50161945    1.5194653    2.0318284    2.1401469 
16270000    1.0268162 2.3386878e-05   0.50763048  0.022131937            0   0.48549855    1.5325232    2.0401536    3.6566546 
16275000    1.0358617 4.2159091e-06   0.50728933  0.023073637            0    0.4842157    1.5460236    2.0533129    2.3447165 
16280000    1.0022553 -3.9415689e-05   0.55850751  0.019698477            0   0.53880903    1.4958661    2.0543736  -0.67003883 
16285000    1.0452195 9.8747321e-06   0.50845339  0.022335509            0   0.48611788    1.5599902    2.0684436     2.750985 
16290000    1.0077645 -1.764077e-05   0.57272946  0.026709757            0    0.5460197    1.5040885    2.0768179   0.85748791 
16295000     1.068431 -1.8443455e-05   0.49017244  0.024390208            0   0.46578224    1.5946333    2.0848057   0.80999416 
16300000    1.0154288 0.00010251275   0.54708028  0.021239681            0    0.5258406    1.5155274    2.0626077    9.1482887 
16305000    1.0252962 3.7769334e-05   0.52607485  0.022092561            0   0.50398229    1.5302545    2.0563294    4.6669458 
16310000   0.99308959 -5.1708172e-06   0.55597137  0.026652947            0   0.52931843    1.4821862    2.0381576    1.6807507 
16315000    1.0438869 1.0472197e-05   0.50252259  0.014583953            0   0.48793864    1.5580012    2.0605238    2.7843621 
16320000   0.98395992 -4.0782963e-05   0.59177206  0.025430877            0   0.56634118    1.4685602    2.0603322  -0.75858615 
16325000    1.0461718 -2.9758394e-05   0.48932995 0.0087830229            0   0.48054693    1.5614115    2.0507414 -0.0061587863 
16330000    1.0155537 -6.4083297e-06   0.54458947  0.056170811            0   0.48841865    1.5157139    2.0603034    1.6173596 
16335000    1.0353411 -7.8223727e-07   0.49873656  0.020237457            0   0.47849911    1.5452466    2.0439832    1.9899149 
16340000    1.0454499 1.698107e-05    0.4848689  0.017360958            0   0.46750794     1.560334    2.0452029    3.2189345 
16345000   0.96762346 4.6141542e-05   0.60068967  0.029474667            0   0.57121501     1.444178    2.0448677    5.2341711 
16350000    1.0154644 3.687494e-05   0.54248746  0.037245915            0   0.50524155    1.5155806     2.058068    4.6068639 
16355000    1.0555374 1.9848721e-05   0.49692006  0.024933355            0   0.47198671    1.5753896    2.0723097    3.4442533 
16360000   0.99591703 -3.4011297e-05   0.56167338  0.022465951            0   0.53920743    1.4864062    2.0480795  -0.30278127 
16365000    1.0135596 2.0761092e-05   0.52437589  0.049757519            0   0.47461837    1.5127377    2.0371136    3.4721203 
16370000   0.98244431 -3.7091993e-05   0.55941003  0.024118957            0   0.53529107    1.4662981    2.0257082  -0.53809039 
16375000    1.0313226 -7.5748681e-06   0.48083826  0.013759284            0   0.46707897    1.5392489    2.0200872    1.4965123 
16380000   0.99972417 -4.9551638e-05   0.51402701  0.011274349            0   0.50275266    1.4920883    2.0061153   -1.4188938 
16385000    1.0019874 -8.3969681e-05   0.51920933  0.024087648            0   0.49512168    1.4954661    2.0146755   -3.7893089 
16390000   0.97662314 -2.0305455e-05   0.59045867  0.019382333            0   0.57107633      1.45761    2.0480687   0.64455563 
16395000    1.0519979 -2.5573422e-05   0.49764702  0.016889263            0   0.48075776    1.5701068    2.0677539   0.30011895 
16400000    1.0326563 5.0656406e-06   0.52196697  0.012621129            0   0.50934584    1.5412396    2.0632066    2.4133436 
16405000    1.0353929 2.2431696e-05   0.51316699  0.010663221            0   0.50250377     1.545324     2.058491    3.6089698 
16410000   0.97487945 7.0406452e-07   0.58499408  0.037012213            0   0.54798187    1.4550076    2.0400017    2.0886666 
16415000    1.0257026 -2.8718032e-06   0.51615143  0.017398363            0   0.49875306    1.5308611    2.0470125    1.8485135 
16420000    1.0334505 -2.9291646e-06   0.52494655  0.043986425            0   0.48096013    1.5424249    2.0673715    1.8649076 
16425000    1.0290954 -2.5364327e-06   0.51662517   0.01481679            0   0.50180838    1.5359248      2.05255    1.8772318 
16430000    1.0582565 -7.3831231e-06   0.47800528 0.0042740031            0   0.47373128    1.5794479    2.0574532    1.5471317 
16435000    1.0605472 -7.0161455e-06   0.48562808  0.015131166            0   0.47049691    1.5828667    2.0684948    1.5835388 
16440000   0.98203207 3.9554287e-05   0.62756821  0.019594387            0   0.60797382    1.4656829    2.0932511    4.8272434 
16445000    1.0172653 3.0766422e-05   0.58207609   0.02566477            0   0.55641132    1.5182685    2.1003446    4.2269197 
16450000    1.0268237 -8.1603104e-06   0.57961699  0.018969149            0   0.56064784    1.5325344    2.1121514    1.5481108 
16455000    1.0703187 1.1751249e-05   0.50604009  0.030040309            0   0.47599978    1.5974507    2.1034908    2.9157371 
16460000    1.0377837 -3.3998351e-05   0.54001415  0.026110022            0   0.51390412    1.5488922    2.0889063  -0.26105965 
16465000    1.0530613 -1.7434754e-05   0.52116482   0.04975633            0   0.47140849     1.571694    2.0928588   0.88776858 
16470000   0.99832369 2.4274551e-05   0.61249156  0.030170232            0   0.58232133    1.4899981    2.1024897    3.7803466 
16475000    1.0063836 6.4132872e-06   0.60768364  0.038542073            0   0.56914157    1.5020275    2.1097111    2.5529975 
16480000    1.0479128 -1.3802572e-05   0.53011425  0.015343247            0   0.51477101    1.5640099    2.0941242    1.1400904 
16485000    1.0608584 4.2517055e-05   0.52778713 0.0052362492            0   0.52255088    1.5833312    2.1111183    5.0498971 
16490000    1.0368743 -4.2086712e-05    0.5682659  0.015163879            0   0.55310202    1.5475349    2.1158008  -0.79323275 
16495000    1.0346889 5.3827221e-05   0.56027794  0.022624604            0   0.53765333    1.5442732    2.1045512    5.8250887 
16500000    1.0273015 1.2733453e-05   0.59681321   0.01012919            0   0.58668402    1.5332475    2.1300607     3.010197 
16505000    1.0290863 -3.1791237e-07    0.6026381  0.017854413            0   0.58478368    1.5359113    2.1385494    2.1165753 
16510000    1.0702246 4.633944e-05   0.52250762  0.025347109            0   0.49716051    1.5973102    2.1198179    5.3227999 
16515000    1.0709687 -1.7321254e-05   0.50887551  0.021982253            0   0.48689325    1.5984207    2.1072962   0.91005117 
16520000     1.056673 8.4333685e-06   0.51435481  0.016000019            0   0.49835479    1.5770844    2.0914392    2.6743536 
16525000   0.98264739 -1.6449647e-05   0.62746537  0.041990059            0   0.58547531    1.4666012    2.0940666   0.95706697 
16530000   0.97867366 -8.4779676e-05   0.65815276  0.030450416            0   0.62770235    1.4606704    2.1188232    -3.741148 
16535000    1.0180825 -2.942088e-05   0.59988485  0.019526015            0   0.58035884    1.5194881    2.1193729  0.085801699 
16540000     1.092184 -5.501607e-06   0.48534863  0.012607365            0   0.47274127    1.6300846    2.1154332    1.7351622 
16545000    1.0204456 -2.5845847e-06   0.58637284  0.012029527            0   0.57434331     1.523015    2.1093878    1.9307414 
16550000    1.0054636 2.9295009e-05   0.62793519  0.020018881            0   0.60791631    1.5006544    2.1285896    4.1534606 
16555000    1.0156402 -1.2445361e-05   0.60597402  0.012340905            0   0.59363311     1.515843    2.1218171    1.2615937 
16560000     1.076732 4.5585452e-06   0.50259027  0.015132297            0   0.48745797    1.6070225    2.1096128    2.4246994 
16565000    1.0149261 1.6568069e-05   0.58505094  0.016674981            0   0.56837596    1.5147772    2.0998281    3.2450131 
16570000    1.0044726 6.8547893e-05   0.60672954  0.032536245            0   0.57419329    1.4991753    2.1059049    6.8439353 
16575000    1.0693153 7.6499792e-05   0.52139095 0.0046225025            0   0.51676845    1.5959531     2.117344    7.4050097 
16580000    1.0115738 0.0001005495   0.58957263 0.0068569321            0    0.5827157    1.5097739    2.0993465    9.0493283 
16585000    1.0383623 4.4708397e-05   0.56615858  0.015052429            0   0.55110615    1.5497558    2.1159144    5.2061588 
16590000    1.0307166 -2.4743881e-05   0.58149088  0.023250378            0    0.5582405    1.5383446    2.1198355   0.40953842 
16595000    1.0137665 4.8723415e-05   0.60409327  0.034632763            0   0.56946051    1.5130464    2.1171397    5.4849022 
16600000    1.0564065 -2.4515197e-05   0.55381338  0.022825112            0   0.53098826    1.5766867    2.1305001   0.43600965 
16605000    1.0408267 -3.4596186e-05    0.5757326  0.021502624            0   0.55422998    1.5534338    2.1291664  -0.26212193 
16610000    1.0498183 7.7436372e-06     0.573277  0.020145628            0   0.55313137    1.5668538    2.1401308     2.675371 
16615000    1.0816107 -5.7449405e-05    0.5109617  0.025507871            0   0.48545383     1.614304    2.1252657   -1.8456372 
16620000   0.99289374 1.0871804e-05   0.64531671  0.025190581            0   0.62012613    1.4818939    2.1272106    2.8786697 
16625000    1.0413384 2.2085762e-05   0.57800462  0.034657728            0   0.54334689    1.5541975    2.1322021      3.65877 
16630000    1.0479186 -3.1316213e-05   0.56224252  0.017835404            0   0.54440712    1.5640184     2.126261 -0.038315655 
16635000    1.0405782 4.4534114e-06   0.55165906  0.010983982            0   0.54067508     1.553063    2.1047221    2.4125419 
16640000    1.0039802 -1.7733521e-05   0.59006257  0.013428359            0   0.57663421    1.4984404     2.088503   0.86276205 
16645000    1.0773941 -3.4780838e-05   0.49458284  0.016265626            0   0.47831721    1.6080107    2.1025936  -0.30145795 
16650000    1.0622523 -3.8288179e-05   0.50674779  0.026709805            0   0.48003798    1.5854116    2.0921594  -0.55431956 
16655000    1.0508684 2.4176056e-05   0.53240404  0.032665833            0   0.49973821    1.5684211    2.1008252    3.7718742 
16660000    1.0670304 3.0519841e-05   0.51038717  0.011974106            0   0.49841306    1.5925429    2.1029301    4.2124615 
16665000    1.0648582 5.8558349e-05   0.50879722  0.013710454            0   0.49508676    1.5893009    2.0980981    6.1456511 
16670000    1.0186188 -1.2994785e-05   0.58489854  0.024138606            0   0.56075993    1.5202885     2.105187    1.2069875 
16675000    1.0876419 -4.2617169e-06   0.49407626 0.0075226774            0   0.48655358    1.6233056    2.1173818     1.822812 
16680000    1.0530392 1.9126122e-05   0.55344524  0.017315414            0   0.53612983     1.571661    2.1251062    3.4471038 
16685000    1.0459613 5.9804362e-07   0.57229449  0.026231654            0   0.54606283    1.5610972    2.1333917    2.1747285 
16690000    1.0472192 2.9708516e-05   0.57661576    0.0201603            0   0.55645546    1.5629746    2.1395904     4.193043 
16695000    1.0177472 5.8177384e-07   0.59969345  0.020003657            0   0.57968979    1.5189877    2.1186811    2.1588933 
16700000    1.0361774 1.2942911e-06   0.56789639  0.031772711            0   0.53612368    1.5464948    2.1143912    2.2038526 
16705000    1.0559877 6.1205271e-05   0.52843109  0.016415475            0   0.51201562    1.5760616    2.1044927     6.335001 
16710000    1.1029389 2.4725458e-05   0.47198973 0.0070180282            0    0.4649717    1.6461363    2.1181261    3.8271497 
16715000    1.0197027 -1.2637181e-05   0.58505459  0.012241051            0   0.57281354    1.5219063    2.1069608    1.2334789 
16720000    1.0513696 -4.4693081e-06   0.53869436 0.0084989498            0   0.53019541    1.5691691    2.1078635    1.7989449 
16725000     1.054217 1.0366976e-05   0.53752424 0.0052723396            0    0.5322519    1.5734189    2.1109431    2.8275085 
16730000    1.0519287 7.0688119e-05   0.54714835  0.011360569            0   0.53578778    1.5700035    2.1171519    7.0031147 
16735000    1.0038295 1.2568206e-05    0.6369751  0.031475338            0   0.60549976    1.4982155    2.1351906     3.003905 
16740000    1.1296946 -1.4330254e-05   0.46638124  0.015283491            0   0.45109775    1.6860692    2.1524504    1.1619433 
16745000    1.0944875 2.2758958e-06    0.5261963 0.0070491364            0   0.51914717    1.6335226    2.1597189    2.3170289 
16750000    1.0598882 -2.8355502e-05   0.56392715 0.0066433991            0   0.55728375    1.5818831    2.1458103     0.185878 
16755000    1.0854974 -1.5018753e-05   0.54066724   0.01622375            0   0.52444349    1.6201049    2.1607721    1.1226759 
16760000    1.0679183 1.627094e-05   0.56145361  0.012043427            0   0.54941019    1.5938681    2.1553217     3.279969 
16765000     1.098798 1.4844994e-05   0.51023784 0.0095748334            0   0.50066301    1.6399561    2.1501939    3.1762799 
16770000    1.0725484 3.2915576e-05   0.54455545  0.011871579            0   0.53268387    1.6007785    2.1453339    4.4204585 
16775000    1.0760292 1.7607062e-05   0.53301389  0.003500217            0   0.52951367    1.6059736    2.1389875    3.3559876 
16780000    1.0631817 1.6391864e-05   0.55469622 0.0050674671            0   0.54962875    1.5867987    2.1414949    3.2745005 
16785000    1.0351823 -8.8696448e-05   0.59985086  0.014369318            0   0.58548154    1.5450095    2.1448604   -3.9858381 
16790000    1.0737759 -9.5747509e-05   0.55633878  0.010397567            0   0.54594121    1.6026105    2.1589493   -4.4591185 
16795000     1.087471 -7.9471469e-06   0.54108712 0.0022266674            0   0.53886046    1.6230505    2.1641376    1.6148308 
16800000    1.1127348 -1.2985072e-05   0.51123653 0.0016332949            0   0.50960323    1.6607566    2.1719932     1.274465 
16805000    1.0360572 -5.2349248e-06   0.62464221 0.0040854771            0   0.62055673    1.5463154    2.1709576    1.8091196 
16810000    1.0887996 2.6230625e-05   0.54057584 0.0047056496            0   0.53587019    1.6250334    2.1656093    3.9786701 
16815000    1.0582333 -2.6503549e-05   0.56622371 0.0072468022            0   0.55897691    1.5794133     2.145637   0.31371163 
16820000    1.1095464 -6.8925695e-06   0.48573899  0.022335632            0   0.46340336     1.655998     2.141737    1.6653226 
16825000    1.0332079 -1.3925661e-05   0.58448159 0.0079241118            0   0.57655748    1.5420629    2.1265444    1.1640028 
16830000     1.074886 2.4293152e-05   0.49819599 0.0061330655            0   0.49206293    1.6042673    2.1024633     3.781606 
16835000    1.0294225 -1.1200156e-05   0.56432988  0.012438436            0   0.55189145    1.5364131     2.100743    1.3265882 
16840000    1.0768192 -5.0351107e-05   0.48595993  0.014985811            0   0.47097412    1.6071527    2.0931126   -1.3871559 
16845000    1.0751471 -1.6052583e-05   0.48535435  0.016266742            0   0.46908761    1.6046571    2.0900114   0.98045689 
16850000    1.0193065 3.2980912e-05   0.56751053  0.013582398            0   0.55392813     1.521315    2.0888255    4.3684661 
16855000    1.0427775 3.3764878e-05   0.51732671  0.012662173            0   0.50466454    1.5563454    2.0736721    4.4075005 
16860000    1.0314057 -1.0111318e-05   0.52134191  0.004747852            0   0.51659406     1.539373    2.0607149    1.3618207 
16865000    1.0232115 -2.9690197e-05   0.52685312 0.0012140966            0   0.52563903    1.5271432    2.0539964 0.0018099298 
16870000    1.0507312 -5.7856705e-06   0.49094364 0.0086446628            0   0.48229897    1.5682163      2.05916    1.6592544 
16875000     1.019091 -3.7666144e-05   0.55296039  0.018223192            0    0.5347372    1.5209933    2.0739537  -0.52953015 
16880000    1.0626584 -3.3974519e-05   0.49761343  0.015064845            0   0.48254859    1.5860177    2.0836312  -0.26468763 
16885000    1.0326788 -2.1902361e-05   0.56473629  0.012730504            0   0.55200578    1.5412731    2.1060094   0.59211821 
16890000     1.024237 1.1809014e-05   0.56936262  0.030356682            0   0.53900594    1.5286737    2.0980363    2.9142753 
16895000    1.0146448 3.8367476e-05   0.58485179  0.026278977            0   0.55857281    1.5143574    2.0992092    4.7511691 
16900000    1.0636085 -1.3654014e-05   0.51173698  0.010769057            0   0.50096792    1.5874357    2.0991727    1.1554072 
16905000    1.0482441 -1.8124613e-05   0.52608191  0.015900964            0   0.51018094    1.5645043    2.0905862     0.837813 
16910000    1.0237363 -5.6496715e-06     0.571476  0.033043966            0   0.53843203    1.5279264    2.0994024    1.7088971 
16915000    1.0414545 -4.9759299e-05   0.54377468  0.041045166            0   0.50272951    1.5543708    2.0981455   -1.3412172 
16920000        1.063 -3.5559806e-05   0.51423507  0.028157993            0   0.48607708    1.5865275    2.1007626  -0.35713124 
16925000    1.0103204 -1.1461407e-05   0.58390599  0.018136152            0   0.56576983    1.5079032    2.0918092    1.2995967 
16930000   0.98773806 -3.4646553e-05   0.61460894 0.0072583583            0   0.60735058    1.4741991     2.088808  -0.30596174 
16935000    1.0580652 -2.9714949e-05   0.50206034  0.010634891            0   0.49142545    1.5791623    2.0812226  0.027325295 
16940000    1.0055427 6.0081662e-05   0.57066423  0.021664279            0   0.54899995    1.5007725    2.0714367    6.2242812 
16945000    1.0116077 2.7544907e-05   0.55838308  0.018642695            0   0.53974039    1.5098245    2.0682076    3.9721116 
16950000     1.011839 -2.3813139e-05   0.55210595   0.01388337            0   0.53822258    1.5101696    2.0622756    0.4163114 
16955000    1.0279497 -2.5135231e-05   0.52403302  0.021682357            0   0.50235066    1.5342149    2.0582479   0.32090072 
16960000    1.0092372 2.242625e-05   0.55587127  0.041472728            0   0.51439855    1.5062865    2.0621578    3.6122602 
16965000     1.004025 1.5143843e-05   0.56769263  0.019504454            0   0.54818818    1.4985074       2.0662    3.1129424 
16970000    1.0886742 1.3549539e-05   0.44609135   0.02227969            0   0.42381166    1.6248462    2.0709376    3.0074817 
16975000   0.97901691 -1.9365717e-07    0.5791839   0.01592254            0   0.56326136    1.4611827    2.0403666    2.0269811 
16980000    1.0181988 2.7884503e-05   0.53310103  0.019274149            0   0.51382689    1.5196617    2.0527627    3.9801396 
16985000    1.0336486 1.6925168e-05   0.51011234  0.021967791            0   0.48814455    1.5427205    2.0528329    3.2227004 
16990000   0.99923365 7.5501893e-06   0.56945523    0.0188707            0   0.55058453    1.4913562    2.0608115    2.5826805 
16995000    1.0993728 4.2660305e-05   0.43305975  0.012085908            0   0.42097384    1.6408139    2.0738737    5.0225539 
17000000    1.0592815 2.495432e-05   0.51631406 0.0049090854            0   0.51140498    1.5809777    2.0972918    3.8221344 
17005000    1.0560554 -3.691796e-07   0.50192704  0.017578403            0   0.48434863    1.5761627    2.0780897     2.052572 
17010000    1.0447571 -6.0250188e-06   0.52039794  0.023697431            0    0.4967005    1.5592999    2.0796978    1.6632485 
17015000    1.0314149 -4.7768312e-05    0.5756598 0.0043217166            0   0.57133808    1.5393868    2.1150466   -1.1866991 
17020000    1.0660383 -1.0587045e-05   0.51739197 0.0042238551            0   0.51316811    1.5910622    2.1084541    1.3766775 
17025000    1.0745773 1.6854439e-05    0.5233238  0.012548213            0   0.51077558    1.6038066    2.1271304    3.2921093 
17030000    1.0897147 2.4668308e-05   0.51446436   0.01414042            0   0.50032394    1.6263993    2.1408636    3.8459371 
17035000     1.074294 9.6538506e-06   0.53883878  0.014800401            0   0.52403838    1.6033838    2.1422226    2.8094967 
17040000     1.081264 -2.4637114e-05   0.52382752  0.024247396            0   0.49958013    1.6137865     2.137614   0.43469665 
17045000    1.0736533 -4.3552981e-05   0.53857538  0.024270309            0   0.51430507    1.6024275    2.1410029  -0.86937913 
17050000    1.0541933 -2.188715e-05   0.55074367  0.026741788            0   0.52400188    1.5733835    2.1241271   0.61128734 
17055000    1.0439715 2.659943e-05   0.54548711  0.022861946            0   0.52262516    1.5581274    2.1036145    3.9421671 
17060000    1.0628931 3.6440495e-05   0.50271874  0.017738949            0   0.48497979    1.5863679    2.0890866    4.6078536 
17065000    1.0204189 1.1932502e-05   0.54804589  0.030450877            0   0.51759501    1.5229752    2.0710211    2.8957956 
17070000    1.0104364 1.8240545e-05   0.56917025  0.018779665            0   0.55039058    1.5080763    2.0772465     3.338033 
17075000    1.0557122 -2.4255623e-05   0.49634038  0.014280074            0    0.4820603    1.5756505    2.0719909   0.39544222 
17080000    0.9693536 2.6429084e-05   0.60404845  0.044852759            0   0.55919569    1.4467603    2.0508087     3.877587 
17085000    1.0528886 2.8281868e-05   0.48561279  0.028673918            0   0.45693887    1.5714363    2.0570491    4.0118918 
17090000    1.0667343 -2.3461688e-05   0.45439794  0.014427912            0   0.43997002    1.5921009    2.0464988   0.42482695 
17095000     1.042287 3.3542691e-05   0.50266295 0.0092133413            0    0.4934496    1.5556133    2.0582763    4.3767471 
17100000    1.0276948 2.6434329e-05   0.51114525  0.015439637            0   0.49570561    1.5338345    2.0449797    3.8721206 
17105000    1.0305765 2.8701735e-05   0.51326127  0.022683877            0   0.49057739    1.5381355    2.0513967    4.0352606 
17110000    1.0241468 2.4843188e-05   0.51031532  0.042036395            0   0.46827893    1.5285392    2.0388545    3.7560156 
17115000    1.0283957 -2.748529e-05   0.50527017  0.033776372            0    0.4714938    1.5348805    2.0401507   0.14036742 
17120000    1.0209582 -7.426679e-06   0.50996563  0.034313097            0   0.47565253    1.5237802    2.0337458    1.5204137 
17125000    1.0567448 1.9577088e-06   0.44414647  0.028437101            0   0.41570937    1.5771916    2.0213381    2.1566549 
17130000   0.95087955 -7.8889964e-08   0.59608757  0.035043555            0   0.56104401    1.4191877    2.0152753    2.0098224 
17135000    1.0452673 -7.5858459e-06   0.44999342  0.022793455            0   0.42719996    1.5600615    2.0100549    1.4857212 
17140000   0.99240043 2.7746422e-05   0.53762714  0.026124241            0    0.5115029    1.4811576    2.0187848    3.9366175 
17145000   0.98832077 -3.2489235e-05   0.56906337  0.031483165            0   0.53758021    1.4750687    2.0441321  -0.20152383 
17150000    1.0395906 -6.275519e-05   0.48161957  0.016397073            0   0.46522249     1.551589    2.0332085   -2.3044302 
17155000    1.0082173 -7.6973635e-06   0.52142389  0.010954991            0   0.51046889    1.5047644    2.0261883    1.4941465 
17160000   0.97960315 1.2432049e-05   0.57312832 0.0074935166            0    0.5656348    1.4620577     2.035186    2.8944892 
17165000    1.0479609 -6.4415775e-06   0.46775614  0.016400044            0    0.4513561    1.5640817    2.0318378     1.586596 
17170000    1.0099221 -2.7975272e-05   0.51345606  0.019495939            0   0.49396012    1.5073088    2.0207648  0.087114031 
17175000    1.0100631 -1.8811119e-05   0.51725384  0.018733469            0   0.49852037    1.5075192    2.0247731   0.72454856 
17180000    1.0212942 1.7974561e-05   0.52265867  0.020580337            0   0.50207833    1.5242816    2.0469403     3.289342 
17185000    1.0336732 -4.9404546e-06   0.49870797  0.019165233            0   0.47954274    1.5427572    2.0414652     1.699981 
17190000   0.96571665 -3.728337e-05   0.59450646  0.024562143            0   0.56994431    1.4413321    2.0358386  -0.54118795 
17195000   0.96836095 4.3923349e-06   0.57915539  0.016759847            0   0.56239555    1.4452787    2.0244341    2.3280323 
17200000    1.0323984 1.8116925e-05   0.45244496  0.020519134            0   0.43192582    1.5408545    1.9932995    3.2455413 
17205000    1.0170023 2.6651844e-06   0.48624485  0.013707408            0   0.47253744    1.5178759    2.0041208    2.1883383 
17210000   0.94789051 -4.4630965e-05   0.59808303  0.061345535            0   0.53673749    1.4147266    2.0128096   -1.0720827 
17215000     1.002999 2.7006962e-05   0.50041055  0.053749251            0    0.4466613     1.496976    1.9973866    3.8641078 
17220000   0.97568838 3.8063291e-05   0.55121879  0.036384546            0   0.51483424    1.4562149    2.0074337    4.6383684 
17225000   0.99087366 -2.9110118e-05   0.52585456  0.018002796            0   0.50785176    1.4788789    2.0047335 -0.0073578286 
17230000     1.025761 -3.9963177e-06   0.47478998  0.014787311            0   0.46000267    1.5309482    2.0057382    1.7295127 
17235000   0.95877586 2.6535106e-05   0.57580297  0.038497481            0   0.53730549     1.430973    2.0067759    3.8408824 
17240000    1.0158519 -3.010401e-05   0.48903905    0.0184923            0   0.47054675    1.5161589     2.005198 -0.075591166 
17245000    1.0017621 -1.665396e-05   0.49673806  0.011822424            0   0.48491564      1.49513    1.9918681   0.84074632 
17250000    1.0044818 1.0198315e-05   0.50288909 0.0095187349            0   0.49337035    1.4991891    2.0020781    2.7069857 
17255000   0.97514702 8.0958684e-06   0.55174442  0.014031808            0   0.53771262    1.4554069    2.0071514    2.5667378 
17260000   0.98280671 1.142553e-05   0.54624739  0.031616975            0   0.51463042     1.466839    2.0130864    2.8028191 
17265000   0.97311304 9.2416847e-06   0.55109692  0.025500649            0   0.52559627    1.4523712    2.0034681    2.6422534 
17270000    1.0033238 6.8289252e-05   0.48750883  0.026846992            0   0.46066184    1.4974608    1.9849696    6.7051227 
17275000    1.0066443 4.1011152e-05   0.49225473  0.037218143            0   0.45503659    1.5024167    1.9946714    4.8293622 
17280000    0.9781618 -4.0097061e-06   0.53226253  0.028568802            0   0.50369373    1.4599065     1.992169    1.7150181 
17285000    1.0180508 -4.15527e-06   0.48077275  0.029632239            0   0.45114052    1.5194408    2.0002135    1.7130013 
17290000   0.96235544 -4.5555821e-05     0.569175  0.042480767            0   0.52669424    1.4363155    2.0054905   -1.1433279 
17295000   0.96745151 -9.6396094e-06   0.54679119  0.028519648            0   0.51827154    1.4439214    1.9907126    1.3244228 
17300000    1.0080384 -5.7796213e-05   0.49810327  0.018752521            0   0.47935075    1.5044973    2.0026005   -1.9922737 
17305000    1.0286079 -5.8102914e-05   0.46145171  0.035153587            0   0.42629812    1.5351972    1.9966489   -2.0194245 
17310000   0.97755813 6.2693695e-05   0.52550762  0.029531313            0   0.49597631    1.4590055    1.9845131    6.3179013 
17315000   0.98938476 6.1577387e-05    0.5085406  0.040325289            0   0.46821531    1.4766568    1.9851973    6.2414263 
17320000    1.0090131 -6.3573098e-06   0.45615506  0.017802575            0   0.43835248    1.5059521    1.9621072    1.5226899 
17325000   0.94813363 -3.5458375e-05   0.54932454  0.024889706            0   0.52443483    1.4150894     1.964414  -0.48646887 
17330000    1.0004422 -1.7130464e-05   0.46939152  0.023323265            0   0.44606826      1.49316    1.9625515   0.77849381 
17335000   0.97437757 7.8398904e-06   0.50967152  0.014686983            0   0.49498454    1.4542585    1.9639301    2.5058233 
17340000   0.97836462 4.8818487e-05    0.5064038  0.010929504            0   0.49547429    1.4602092     1.966613    5.3409468 
17345000   0.99972793 2.308668e-05    0.4915758  0.012536119            0   0.47903968    1.4920939    1.9836697     3.579421 
17350000   0.98738761 -2.0843963e-05   0.52207798  0.014460324            0   0.50761766     1.473676     1.995754    0.5550193 
17355000    1.0097425 4.0826993e-05   0.51121847  0.024612226            0   0.48660624    1.5070407    2.0182591    4.8402209 
17360000    1.0220852 2.2556485e-05   0.47511152  0.020611487            0   0.45450004    1.5254622    2.0005737     3.559678 
17365000    0.9723519 3.230852e-06   0.55390592  0.042826404            0   0.51107952    1.4512352    2.0051411    2.2284576 
17370000   0.99749682 2.5807978e-05   0.52015867  0.021568593            0   0.49859008     1.488764    2.0089227    3.7927701 
17375000    1.0186451 2.2974895e-05   0.46859744 0.0097958947            0   0.45880155    1.5203278    1.9889253      3.57695 
17380000   0.99842009 -8.1269185e-06   0.51197414  0.026661199            0   0.48531294     1.490142    2.0021161    1.4403835 
17385000    1.0220848 -2.8410921e-05   0.47566488  0.021345346            0   0.45431953    1.5254616    2.0011265  0.037363618 
17390000    1.0339387 -2.7425138e-06   0.48052101  0.013089775            0   0.46743123    1.5431535    2.0236745     1.834112 
17395000    1.0127914 -6.3634332e-05   0.48982148  0.035261016            0   0.45456046    1.5115911    2.0014126   -2.3969924 
17400000   0.99263997 -2.4192341e-05   0.51314223  0.023478727            0   0.48966351    1.4815151    1.9946574   0.32248278 
17405000    1.0024189 2.8710082e-05   0.49190723  0.039184749            0   0.45272248    1.4961103    1.9880175    3.9724584 
17410000    1.0202098 -5.0232491e-05   0.45340363  0.019613248            0   0.43379038    1.5226632    1.9760668    -1.496003 
17415000   0.97037892 -8.1567864e-05    0.5247681  0.012300493            0   0.51246761    1.4482905    1.9730586   -3.6649121 
17420000   0.97338309 -9.2567682e-06   0.52766659  0.014387517            0   0.51327908    1.4527743    1.9804409     1.340613 
17425000    1.0214119 3.4248513e-05   0.45907278  0.023501263            0   0.43557152    1.5244572      1.98353    4.3507872 
17430000   0.99100118 2.2186574e-05   0.50725802  0.030746487            0   0.47651153    1.4790693    1.9863273    3.5198633 
17435000    1.0012402 3.351053e-05   0.46230476  0.041716231            0   0.42058853    1.4943509    1.9566557    4.2729035 
17440000   0.97824564 1.2380825e-05   0.48048838  0.026663221            0   0.45382516    1.4600316      1.94052    2.7962826 
17445000   0.97793303 -5.6521167e-06    0.5010687  0.043187586            0   0.45788112     1.459565    1.9606338    1.5699594 
17450000   0.97717938 -1.2922741e-05   0.50065813    0.0400565            0   0.46060163    1.4584402    1.9590984    1.0658785 
17455000    1.0023751 -1.607809e-05   0.47697831  0.029344159            0   0.44763416    1.4960449    1.9730232   0.86170562 
17460000    0.9828803 -3.0646583e-05   0.49226324   0.01001503            0   0.48224821    1.4669489    1.9592121  -0.15907974 
17465000   0.99235764 -2.7185079e-05   0.48862666  0.011555479            0   0.47707118    1.4810938    1.9697204  0.090687768 
17470000   0.97450394 -1.5217931e-05   0.49131911  0.022622673            0   0.46869643    1.4544471    1.9457662   0.89390284 
17475000    1.0164967 4.4193729e-06   0.43614151  0.015639243            0   0.42050227    1.5171214    1.9532629    2.2587299 
17480000    1.0417356 -2.4846035e-05   0.41047292    0.0171208            0   0.39335212    1.5547903    1.9652632   0.24790532 
17485000   0.95764394 -2.8142834e-05   0.51890692  0.043216809            0   0.47569011    1.4292836    1.9481905  0.002957847 
17490000   0.95536516 4.7942977e-06   0.52507668  0.037482654            0   0.48759403    1.4258825    1.9509592     2.282341 
17495000    1.0315722 2.754713e-06   0.40920899  0.026548736            0   0.38266026    1.5396215    1.9488304    2.1392362 
17500000     1.014835 1.6387546e-05   0.45055757  0.012616334            0   0.43794124    1.5146412    1.9651988    3.0979059 
17505000    1.0168023 -1.8267253e-05   0.45474839   0.01631639            0     0.438432    1.5175774    1.9723258   0.70969325 
17510000   0.96782282 -2.9554084e-05   0.52298522  0.039666113            0    0.4833191    1.4444756    1.9674608 -0.075317476 
17515000   0.97065976 -1.9741872e-06   0.51836533  0.019854782            0   0.49851055    1.4487097     1.967075    1.8306192 
17520000    1.0268517 -5.6773781e-05   0.44691436  0.015892137            0   0.43102222    1.5325762    1.9794906   -1.9447132 
17525000    1.0207685 1.1858844e-05   0.46082988  0.028486759            0   0.43234312     1.523497    1.9843269    2.8040102 
17530000    1.0132631 2.7313977e-05   0.47009243  0.039076376            0   0.43101606    1.5122951    1.9823875    3.8703296 
17535000    1.0255834 -5.2800375e-05   0.44396659  0.040911144            0   0.40305545    1.5306833    1.9746499   -1.6749121 
17540000    1.0394594 3.4258916e-05   0.42780998  0.024106395            0   0.40370359    1.5513931    1.9792031    4.3471794 
17545000    1.0493602 5.8232647e-05   0.41447897  0.019097357            0   0.39538161    1.5661701     1.980649    6.0056896 
17550000    1.0432812 -2.941462e-05   0.42209783  0.013814422            0   0.40828341    1.5570972    1.9791951 -0.053943505 
17555000    1.0025446 -4.7909012e-05   0.49871935  0.028933779            0   0.46978557    1.4962978    1.9950172   -1.3164537 
17560000    1.0280978 -3.7480081e-05   0.45390346  0.032638837            0   0.42126462    1.5344359    1.9883394  -0.60228387 
17565000    1.0100535 -2.9520394e-06   0.47617423  0.035523321            0   0.44065091    1.5075048    1.9836791    1.7796341 
17570000    1.0273995 -1.0017102e-05   0.46202054   0.02769658            0   0.43432396    1.5333938    1.9954144    1.3030322 
17575000    1.0360778 2.0500132e-05   0.46585254  0.033266529            0   0.43258601    1.5463461    2.0121987    3.4291678 
17580000    1.0213851 3.0970721e-06    0.4788449   0.01649357            0   0.46235133    1.5244173    2.0032622    2.2173318 
17585000    1.0347606 -7.593586e-05   0.45025379 0.0027409107            0   0.44751288    1.5443803    1.9946341   -3.2540526 
17590000    1.0362036 -1.5598186e-06   0.44746133 0.0077577984            0   0.43970353    1.5465339    1.9939952    1.8861806 
17595000   0.99003776 4.7468482e-05   0.48896435  0.020136234            0   0.46882812    1.4776314    1.9665957    5.2476172 
17600000     1.008447 -1.9908196e-05   0.45415536   0.03991869            0   0.41423667    1.5051071    1.9592625   0.58320797 
17605000    1.0037209 -2.1512098e-05    0.4756939  0.034674047            0   0.44101985    1.4980535    1.9737473   0.48683112 
17610000    1.0211301 1.5968628e-05   0.46326161  0.027060839            0   0.43620077    1.5240367    1.9872983    3.0910499 
17615000    1.0143399 4.2671519e-06   0.46874841  0.018279477            0   0.45046893    1.5139023    1.9826507    2.2775962 
17620000    1.0377566 4.0411456e-06   0.42594967  0.038532763            0   0.38741691    1.5488517    1.9748014    2.2541254 
17625000    1.0053014 1.5103346e-05    0.4719335  0.030301367            0   0.44163213    1.5004123    1.9723458    3.0162891 
17630000   0.99452929 -4.5350056e-05   0.48577846  0.017425707            0   0.46835275     1.484335    1.9701134   -1.1644824 
17635000    1.0435159 -1.6354565e-05   0.41782349   0.01678377            0   0.40103972    1.5574476     1.975271   0.84484353 
17640000    1.0047127 1.4233998e-05   0.47656844  0.030328275            0   0.44624016    1.4995337    1.9761022    2.9599561 
17645000     1.023701 -1.3690713e-05   0.43421061  0.033077137            0   0.40113347    1.5278738    1.9620844    1.0157823 
17650000   0.99302581 1.6420354e-05   0.49095796  0.036743447            0   0.45421451     1.482091     1.973049    3.1080239 
17655000   0.99763155 6.0687279e-05   0.47513031  0.025769736            0   0.44936057    1.4889651    1.9640954    6.1588001 
17660000    1.0005024 -1.2367824e-05   0.46804669  0.032395959            0   0.43565073    1.4932498    1.9612965    1.1064325 
17665000     1.002952 2.6917873e-05   0.46953234  0.033615269            0   0.43591707    1.4969059    1.9664382    3.8270016 
17670000    1.0056891 -1.7564015e-05   0.45681799  0.019433472            0   0.43738452     1.500991     1.957809   0.74378426 
17675000    1.0057922 -1.52868e-05    0.4785353   0.03512876            0   0.44340654    1.5011448    1.9796801    0.9230565 
17680000   0.98671002 7.5441399e-05   0.51270851  0.046695168            0   0.46601334    1.4726647    1.9853732    7.1998827 
17685000     1.098017 4.7297797e-05   0.37502137  0.040222494            0   0.33479888    1.6387904    2.0138118    5.2830355 
17690000    1.0129793 -4.592979e-05   0.49761629  0.021303817            0   0.47631248    1.5118716    2.0094879   -1.1651792 
17695000    1.0406871 2.2149202e-06   0.46001811 0.0079379686            0   0.45208014    1.5532255    2.0132436    2.1663389 
17700000     1.021696 4.0552821e-05   0.49425152  0.024457595            0   0.46979393    1.5248813    2.0191328    4.8221438 
17705000    1.0203126 -2.890969e-05   0.46960906  0.021472582            0   0.44813648    1.5228165    1.9924256  -0.00581216 
17710000      1.02591 -3.5256235e-05   0.44990946  0.011666818            0   0.43824264    1.5311707    1.9810802  -0.45583073 
17715000   0.98587631 7.6259544e-06    0.4848763  0.011953604            0    0.4729227    1.4714204    1.9562967    2.4834027 
17720000    1.0106945 9.449144e-06   0.44429147  0.027718493            0   0.41657298    1.5084616    1.9527531    2.6058779 
17725000    1.0326697 -8.1617268e-06   0.42476901  0.028454098            0   0.39631491    1.5412595    1.9660285    1.4018899 
17730000    1.0083121 7.6363024e-07   0.47272403  0.031581074            0   0.44114296    1.5049058    1.9776298     2.030412 
17735000    1.0356488 -7.7621869e-06   0.45044478  0.012686844            0   0.43775793    1.5457059    1.9961507    1.4596283 
17740000    1.0303257 1.4317028e-05   0.46358463  0.031201703            0   0.43238293     1.537761    2.0013457    2.9909386 
17745000    1.0771126 -2.1372652e-05   0.42694851  0.019312424            0   0.40763609    1.6075906    2.0345391   0.55726141 
17750000    1.0786315 -5.6795693e-05   0.41978867  0.014466865            0   0.40532181    1.6098575    2.0296462   -1.8960721 
17755000    1.0246883 2.8000119e-05   0.49303559  0.048059715            0   0.44497587    1.5293472    2.0223828     3.957751 
17760000    1.0225229 3.4791374e-05   0.48283069   0.05864792            0   0.42418277    1.5261154    2.0089461    4.4137258 
17765000   0.98759426 -2.8122044e-05   0.52623301  0.043385316            0   0.48284769    1.4739844    2.0002174  0.056421755 
17770000    1.0620563 -5.9950681e-06   0.41977707  0.020878197            0   0.39889887     1.585119     2.004896    1.5905169 
17775000    1.0465045 1.7818367e-06   0.44803306  0.013303195            0   0.43472986     1.561908    2.0099411    2.1331016 
17780000    1.0558536 -1.5922668e-05   0.45132673  0.030619709            0   0.42070702    1.5758615    2.0271882   0.92661338 
17785000    1.0455496 1.0146187e-05   0.44719276  0.034038004            0   0.41315476    1.5604827    2.0076755      2.70898 
17790000    1.0349182 1.7184024e-06   0.45414016  0.022576674            0   0.43156348    1.5446155    1.9987556    2.1175316 
17795000    1.0286875 -5.8014524e-06   0.45815438  0.019127754            0   0.43902662     1.535316    1.9934704     1.592474 
17800000    1.0674177 6.1605603e-06   0.41019675  0.033263403            0   0.37693335     1.593121    2.0033177    2.4291357 
17805000    1.0400785 -2.0451784e-05   0.45290969   0.04346867            0   0.40944102    1.5523172    2.0052269   0.59159958 
17810000    1.0148775 3.7800621e-06   0.49407941  0.031865079            0   0.46221433    1.5147046     2.008784    2.2700619 
17815000     1.058615 4.1978113e-05    0.4345644  0.019159616            0   0.41540479    1.5799828    2.0145472    4.9160744 
17820000    1.0413435 -2.9697806e-05   0.44703238  0.025420342            0   0.42161204    1.5542051    2.0012375 -0.051474855 
17825000    1.0152201 -3.4563077e-05   0.50405169   0.04346339            0    0.4605883     1.515216    2.0192677  -0.36973221 
17830000    1.0505431 5.6835926e-06   0.44984466  0.029715061            0    0.4201296    1.5679355    2.0177802    2.4106301 
17835000    1.0370353 1.6793625e-05   0.48765821  0.036069183            0   0.45158903    1.5477752    2.0354334    3.1962088 
17840000    1.0561539 -1.6696471e-05   0.45699135  0.042698987            0   0.41429236    1.5763096     2.033301   0.87924094 
17845000    1.0369557 -4.6098764e-06   0.48015309  0.026237802            0   0.45391529    1.5476563    2.0278094    1.7091747 
17850000    1.0917116 -7.5185471e-06   0.39824746 0.0097197805            0   0.38852768    1.6293796     2.027627    1.5079451 
17855000    1.0560219 -3.9351001e-05   0.46008514  0.014447307            0   0.44563783    1.5761128    2.0361979  -0.68374329 
17860000    1.0342761 7.5750836e-06   0.48451236  0.017012264            0    0.4675001    1.5436571    2.0281695    2.5517593 
17865000    1.0650614 8.3526273e-06   0.43723571  0.010749268            0   0.42648644    1.5896042    2.0268399    2.6041735 
17870000    1.0648743 1.6436546e-05    0.4370748  0.038790207            0   0.39828459    1.5893249    2.0263997    3.1624938 
17875000    1.0583686 -6.6124728e-06   0.46134301  0.033270409            0    0.4280726    1.5796151    2.0409581     1.583904 
17880000    1.0065268 -3.3663542e-05     0.553465  0.037568195            0   0.51589681    1.5022412    2.0557062  -0.27111783 
17885000    1.0656154 3.277058e-05   0.48114235  0.056291631            0   0.42485072     1.590431    2.0715733    4.3366758 
17890000    1.0596445 3.4090264e-05   0.46999171  0.033330496            0   0.43666121    1.5815194    2.0515111    4.4078302 
17895000    1.0418837 -1.9970768e-05   0.48483061  0.055941379            0   0.42888923    1.5550114     2.039842   0.65946257 
17900000    1.0575596 -1.0858125e-05   0.47598754  0.030630947            0   0.44535659    1.5784078    2.0543953    1.3038817 
17905000    1.0559269 1.1318278e-05   0.47049066  0.063017213            0   0.40747345    1.5759709    2.0464615    2.8287809 
17910000    1.0270306 1.7110557e-05   0.51213872  0.039714885            0   0.47242383    1.5328432    2.0449819    3.2276636 
17915000    1.0689023 -2.5483702e-05   0.44769899  0.024006148            0   0.42369284    1.5953367    2.0430357   0.28160223 
17920000    1.0509679 1.8301133e-05   0.49296152  0.017157813            0   0.47580371    1.5685696    2.0615312    3.3265055 
17925000    1.0856231 -2.7124335e-05   0.42666098 0.0071645376            0   0.41949644    1.6202925    2.0469534   0.17211943 
17930000    1.1068017 2.0178259e-05   0.40408063  0.023894996            0   0.38018563    1.6519016    2.0559822    3.4507035 
17935000    1.0923181 1.0025919e-05   0.45375486   0.01554736            0    0.4382075    1.6302848    2.0840397    2.7770312 
17940000    1.0521027 9.3953552e-06   0.51048921  0.015574147            0   0.49491506    1.5702633    2.0807526    2.7301595 
17945000    1.0776185 1.7042942e-05   0.48268349  0.014490828            0   0.46819267    1.6083456    2.0910291    3.2690372 
17950000    1.1041514 -8.217631e-06   0.45432963  0.017276835            0    0.4370528    1.6479459    2.1022756    1.5342729 
17955000    1.0753452 -4.5172404e-05   0.49061435   0.04358532            0   0.44702903    1.6049528    2.0955671   -1.0267494 
17960000    1.1075626 -5.4069554e-05   0.45652212  0.033633763            0   0.42288835    1.6530372    2.1095593   -1.6277282 
17965000    1.0932894 1.1166646e-05   0.49820771  0.023296037            0   0.47491167    1.6317345    2.1299422    2.9017808 
17970000    1.0961478 3.3702323e-05   0.49344407  0.022488781            0   0.47095529    1.6360006    2.1294447    4.4589493 
17975000    1.0971358 1.752713e-05    0.5021135  0.028227143            0   0.47388636    1.6374752    2.1395887     3.351064 
17980000    1.0798525 -2.10262e-05    0.5328931  0.031183727            0   0.50170937    1.6116799     2.144573   0.69124205 
17985000    1.1434801 3.4116958e-06   0.45177298  0.017400532            0   0.43437245    1.7066441     2.158417    2.3942334 
17990000    1.0923402 -1.3693568e-05    0.5123433  0.026651943            0   0.48569136    1.6303177     2.142661    1.1961616 
17995000    1.0620768 -1.0052674e-05   0.54486158  0.069986053            0   0.47487553    1.5851496    2.1300112    1.4351703 
18000000    1.0766309 4.0262557e-05   0.52792338  0.051081311            0   0.47684207    1.6068717    2.1347951     4.917743 
18005000    1.1138216 -1.5642159e-06   0.48694886 0.0083005935            0   0.47864826    1.6623788    2.1493277     2.041209 
18010000    1.1157507 -1.3936611e-05   0.48857515   0.01730954            0   0.47126561    1.6652579     2.153833    1.1905345 
18015000    1.0912656 1.0003728e-05   0.52566248  0.024692531            0   0.50096995    1.6287139    2.1543764     2.845834 
18020000    1.1137856 2.6132812e-05   0.49873463  0.017758229            0    0.4809764     1.662325    2.1610596    3.9673596 
18025000    1.0780444 -6.1934557e-07   0.56448979  0.012056611            0   0.55243318    1.6089813    2.1734711    2.1306619 
18030000    1.1545781 4.4218008e-06   0.45461514  0.015543546            0   0.43907159    1.7232078    2.1778229    2.4834578 
18035000    1.1329934 1.0954842e-05   0.47349442  0.044270943            0   0.42922348    1.6909926     2.164487    2.9216857 
18040000    1.1108421 -3.0503613e-06   0.51513699  0.017679411            0   0.49745758    1.6579318    2.1730688    1.9622278 
18045000    1.1592186 1.3888714e-05   0.43728873  0.024301244            0   0.41298749    1.7301337    2.1674225    3.1274104 
18050000    1.0807263 8.3469462e-05   0.54878804  0.024439066            0   0.52434897    1.6129839     2.161772    7.9311812 
18055000    1.1124961 5.8099519e-05    0.5036008 0.0074758841            0   0.49612492    1.6604004    2.1640012    6.1798399 
18060000    1.1330118 -8.583493e-05   0.49314741 0.0073219788            0   0.48582543    1.6910201    2.1841675   -3.7487429 
18065000    1.1263351 -7.9364385e-05   0.49497195  0.013024133            0   0.48194782    1.6810551    2.1760271   -3.3096392 
18070000    1.1053042 -1.6971965e-05   0.54245064  0.021640367            0   0.52081028    1.6496665    2.1921171    1.0190148 
18075000    1.1579291 -8.2450354e-06   0.45235745  0.011443745            0    0.4409137    1.7282092    2.1805667    1.6106698 
18080000    1.0768457 -4.2013121e-05   0.57503939   0.03201059            0    0.5430288    1.6071923    2.1822317  -0.72171527 
18085000    1.0628446 -2.6879925e-05   0.60036062  0.062367133            0   0.53799349    1.5862956    2.1866562   0.32871578 
18090000    1.1194747 9.3246377e-06   0.52422287  0.037739466            0    0.4864834     1.670816    2.1950388    2.8395578 
18095000    1.1388262 -6.0372614e-06   0.49895357  0.034256036            0   0.46469754    1.6996981    2.1986517    1.7813562 
18100000    1.0887919 3.6729775e-05   0.57434684  0.034405822            0   0.53994102     1.625022    2.1993688    4.7381309 
18105000    1.0982046 1.0809833e-05   0.55102447  0.041571293            0   0.50945317    1.6390704    2.1900949    2.9372705 
18110000    1.0864958 -3.1443312e-05   0.55084532  0.022425582            0   0.52841974     1.621595    2.1724403 -0.00092145374 
18115000    1.1312568 1.5147029e-05   0.48482896  0.020073369            0   0.46475559    1.6884008    2.1732298    3.2201924 
18120000    1.1239894 8.2628757e-05   0.49638261  0.014852087            0   0.48153052    1.6775541    2.1739368    7.8852365 
18125000     1.088722 4.5890836e-05   0.54379697   0.01190239            0   0.53189458    1.6249176    2.1687146    5.3406891 
18130000    1.1178028 -6.9531692e-05   0.50984354  0.020901064            0   0.48894247    1.6683207    2.1781643   -2.6278663 
18135000    1.1315487 -5.921552e-05   0.49234322  0.013477905            0   0.47886531    1.6888364    2.1811797   -1.9117971 
18140000    1.0921784 1.2613315e-05   0.52739818  0.027278503            0   0.50011968    1.6300763    2.1574745    3.0293068 
18145000    1.1172062 2.8387698e-05   0.49912449 0.0073341416            0   0.49179035    1.6674302    2.1665547    4.1287124 
18150000    1.1327368 6.1898982e-05     0.475779 0.0032353656            0   0.47254364    1.6906097    2.1663887    6.4448463 
18155000    1.1030572 5.5756943e-05    0.5286071  0.021101921            0   0.50750518    1.6463129      2.17492    6.0288399 
18160000    1.1240175 1.0968381e-05   0.47321724  0.013189073            0   0.46002817    1.6775961    2.1508133    2.9089478 
18165000    1.0918095 -2.1358413e-06   0.50073632  0.036009101            0   0.46472722    1.6295256    2.1302619    1.9826326 
18170000    1.1051521 2.0846236e-05   0.48724353  0.022362809            0   0.46488072    1.6494395    2.1366831    3.5775749 
18175000    1.1022233 -3.3751416e-06   0.48416969  0.013835566            0   0.47033412    1.6450683     2.129238    1.8959482 
18180000    1.0894085 8.2854219e-06    0.5037033  0.021746792            0   0.48195651    1.6259422    2.1296455    2.7023339 
18185000    1.0887433 -5.2573046e-06   0.50570995  0.018605587            0   0.48710436    1.6249494    2.1306594    1.7672745 
18190000    1.0871852 -2.2981462e-05   0.52776669  0.022807714            0   0.50495897     1.622624    2.1503907   0.56191201 
18195000    1.1403144 5.5893818e-06   0.45101172 0.0057578368            0   0.44525388    1.7019192     2.152931     2.539269 
18200000    1.1089092 -3.2711459e-05   0.50997962  0.035556891            0   0.47442273     1.655047    2.1650267 -0.095989344 
18205000     1.087996 -3.9362362e-05   0.57058007  0.032474078            0     0.538106     1.623834    2.1944141  -0.52631239 
18210000    1.1855911  1.23262e-05   0.43099952  0.012994311            0   0.41800521    1.7694947    2.2004943    3.0524812 
18215000    1.1941862 2.3978298e-05   0.43538663  0.018166401            0   0.41722023     1.782323    2.2177096    3.8750895 
18220000    1.1392909 3.2989823e-05   0.50591756  0.027950827            0   0.47796674    1.7003917    2.2063093    4.4865658 
18225000    1.1002343 6.4412788e-05   0.57303819  0.041639332            0   0.53139886    1.6420998    2.2151379    6.6673498 
18230000    1.1589645  8.10472e-06   0.50018705 0.0055573104            0   0.49462974    1.7297545    2.2299416    2.7901398 
18235000    1.1999828 -5.7280931e-06   0.46077954 0.0040968423            0    0.4566827    1.7909744    2.2517539    1.8558281 
18240000    1.1643929 4.7710643e-05   0.49697125  0.021305826            0   0.47566543    1.7378564    2.2348276    5.5325872 
18245000    1.1594936 2.105697e-05   0.49555513  0.016817701            0   0.47873743    1.7305442    2.2260994    3.6815572 
18250000    1.1489441 1.2040137e-05   0.50684974  0.026958972            0   0.47989077     1.714799    2.2216488    3.0538631 
18255000    1.1872245 1.1846059e-05   0.45953031  0.032541623            0   0.42698869    1.7719326    2.2314629    3.0502625 
18260000    1.1611374 7.4628303e-06    0.4958816  0.056852347            0   0.43902926    1.7329976    2.2288792    2.7447101 
18265000    1.1160813 -3.7861989e-05   0.55609182  0.044256793            0   0.51183503    1.6657513    2.2218432   -0.3951775 
18270000    1.1033226 -3.6293254e-05   0.58106074  0.042840706            0   0.53822003    1.6467089    2.2277697  -0.28082002 
18275000    1.1371106 -2.2086093e-06   0.51577354  0.033613689            0   0.48215985    1.6971376    2.2129112    2.0602521 
18280000    1.1845673 3.5447364e-05    0.4762223  0.043962545            0   0.43225976    1.7679667     2.244189    4.6943108 
18285000    1.1540857 4.1487099e-05   0.53745425  0.018971017            0   0.51848323    1.7224729    2.2599272    5.1275155 
18290000    1.1144234 5.8438976e-05   0.57069201  0.031491149            0   0.53920086     1.663277     2.233969     6.273271 
18295000    1.1488413 8.7806712e-06   0.52810044  0.028058654            0   0.50004179    1.7146457    2.2427461    2.8496661 
18300000    1.1252604 -1.2179271e-05   0.54586407  0.021501264            0   0.52436281    1.6794511    2.2253152     1.383484 
18305000    1.1626429 1.7573818e-05   0.49846615  0.013818232            0   0.48464792    1.7352445    2.2337107     3.448413 
18310000    1.1234942 3.2268351e-05   0.56210585  0.048722256            0   0.51338359    1.6768151     2.238921    4.4693094 
18315000    1.0980693 -1.6680864e-05   0.59749391  0.050758549            0   0.54673536    1.6388685    2.2363624    1.0833811 
18320000    1.1482767 -3.8704884e-05   0.50660513  0.056310528            0    0.4502946    1.7138029     2.220408  -0.45487352 
18325000    1.1128011 -2.7558869e-05   0.55065164  0.036896938            0    0.5137547    1.6608557    2.2115073   0.30663831 
18330000    1.0879282 -5.5445392e-06   0.58034407  0.061392427            0   0.51895164    1.6237329     2.204077    1.8208384 
18335000    1.0857391  1.69776e-05   0.58108028  0.041191017            0   0.53988926    1.6204657    2.2015459    3.3750377 
18340000    1.0878498 4.2101942e-05    0.5566607  0.029288845            0   0.52737185    1.6236158    2.1802765    5.0903627 
18345000    1.1090317 2.2855695e-05   0.51182058  0.032155597            0   0.47966498    1.6552298    2.1670503     3.746836 
18350000    1.1230909 -3.7989343e-05   0.48270998  0.034122019            0   0.44858796    1.6762132    2.1589232  -0.46690018 
18355000    1.1085548 -2.0476663e-05   0.49890095  0.029972866            0   0.46892809     1.654518     2.153419   0.73807203 
18360000    1.0976408 3.4093253e-05   0.51197047  0.028277983            0   0.48369249    1.6382288    2.1501993    4.5067249 
18365000    1.0494582 3.7638973e-05   0.58957969  0.048378052            0   0.54120164    1.5663164    2.1558961    4.7575019 
18370000    1.0997888 -1.2090768e-05   0.51558477  0.079116648            0   0.43646812    1.6414348    2.1570196    1.3213057 
18375000    1.0892954 -3.6576499e-05   0.52729536  0.019042997            0   0.50825237    1.6257733    2.1530687  -0.37509895 
18380000    1.1121798 -4.8585637e-05    0.4705002  0.017925047            0   0.45257515    1.6599283    2.1304285   -1.2278107 
18385000     1.075593 7.0954262e-06    0.5128765  0.034600673            0   0.47827583    1.6053225     2.118199    2.6086349 
18390000    1.0360271 -6.1017651e-05   0.56204317  0.031454668            0    0.5305885    1.5462704    2.1083136   -2.1092264 
18395000    1.1068427 1.5474902e-06   0.45567989  0.046265789            0    0.4094141    1.6519628    2.1076427    2.2146052 
18400000    1.0713422 4.5770725e-05   0.50825541  0.028201879            0   0.48005353    1.5989782    2.1072336    5.2709062 
18405000    1.0925357 2.4292786e-05   0.48942532   0.02587871            0   0.46354661    1.6306096    2.1200349    3.7991523 
18410000    1.0786533 -2.6233155e-05   0.50254141  0.018975013            0   0.48356639      1.60989    2.1124314   0.29919576 
18415000    1.1024346 -2.7299664e-05   0.46599366  0.024268173            0   0.44172548    1.6453836    2.1113773   0.22442452 
18420000    1.0433057 1.8571514e-05   0.56572834  0.031302567            0   0.53442578    1.5571337    2.1228621    3.4065251 
18425000    1.0315052 -2.4483888e-05   0.56623089  0.052400795            0    0.5138301    1.5395215    2.1057524   0.41342606 
18430000    1.0965291 -9.9443583e-06   0.47272361   0.02227211            0    0.4504515    1.6365697    2.1092933    1.4219392 
18435000    1.0462031 2.9824382e-05   0.51993856  0.026033314            0   0.49390524    1.5614581    2.0813967     4.142858 
18440000    1.0566815 2.4648715e-05   0.49534984 0.0099840153            0   0.48536582    1.5770971    2.0724469    3.7761661 
18445000     1.031725 -3.1226194e-05   0.53923438  0.031552251            0   0.50768213    1.5398495    2.0790839 -0.079270652 
18450000    1.0696078 -3.4911108e-05    0.4823077  0.029660943            0   0.45264676    1.5963897    2.0786974  -0.33435842 
18455000    1.0016931 1.2681543e-05   0.57632289  0.042009216            0   0.53431367    1.4950269    2.0713498     2.947898 
18460000    1.0573281 3.4134594e-05   0.50759536  0.018765021            0   0.48883034    1.5780621    2.0856575    4.4450407 
18465000    1.0398274 6.7305733e-05   0.51659768  0.037440451            0   0.47915723    1.5519424    2.0685401    6.7207123 
18470000    1.0620171 2.921559e-05   0.50403553  0.020578467            0   0.48345707    1.5850605     2.089096    4.1084776 
18475000    1.0202986 -4.4246022e-05   0.55193125  0.030052061            0   0.52187919    1.5227956    2.0747269  -0.98355819 
18480000    1.0139712 -4.0338179e-05   0.55444988  0.029587153            0   0.52486273     1.513352    2.0678019  -0.72037305 
18485000    1.0478161 2.0250015e-05   0.50281086  0.024398932            0   0.47841192    1.5638655    2.0666764    3.4663574 
18490000    1.0235538 4.348421e-05   0.54320244  0.015767927            0   0.52743452    1.5276541    2.0708566    5.0764851 
18495000    1.0513164 4.0258717e-05   0.50348897  0.034039856            0   0.46944911    1.5690897    2.0725786    4.8552612 
18500000    1.0239908 2.7874973e-05   0.54539728  0.020013715            0   0.52538357    1.5283063    2.0737036    4.0004217 
18505000    1.0254889 2.5847363e-07   0.52855993  0.019383572            0   0.50917635    1.5305422    2.0591021    2.0769678 
18510000    1.0455191 -6.2470323e-05   0.49821785  0.019203417            0   0.47901444    1.5604373    2.0586551   -2.2592936 
18515000    1.0244513 -5.207761e-05   0.53994288  0.026033327            0   0.51390955    1.5289936    2.0689364    -1.530668 
18520000    1.0219102 2.0572791e-05   0.57589512  0.016358442            0   0.55953668     1.525201    2.1010961    3.5230875 
18525000    1.0682976 6.0325864e-05   0.51228058  0.012057528            0   0.50022305    1.5944342    2.1067148    6.2764385 
18530000    1.0567803 7.2000495e-06   0.52558343  0.020582663            0   0.50500077    1.5772445     2.102828    2.6004954 
18535000   0.99309154 -2.1756393e-05     0.596762   0.01540917            0   0.58135283    1.4821891    2.0789511   0.57514923 
18540000    1.0515392 -1.3951087e-05   0.50447391  0.021636732            0   0.48283718    1.5694223    2.0738962    1.1095971 
18545000    1.0545149 -2.0589106e-05   0.51131778  0.035790119            0   0.47552766    1.5738635    2.0851813    0.6620623 
18550000    1.0261664 -1.0334357e-05   0.56184489  0.026628563            0   0.53521633    1.5315534    2.0933983    1.3790875 
18555000    1.0277044 -1.6325264e-05   0.56801058  0.030903317            0   0.53710726    1.5338488    2.1018594   0.97345711 
18560000    1.0145191 5.7163113e-06    0.5999128 0.0097892588            0   0.59012355    1.5141698    2.1140826     2.509194 
18565000    1.0732551 1.5229695e-05   0.49829675  0.016398575            0   0.48189818    1.6018332      2.10013    3.1528065 
18570000   0.97574722 -1.3253046e-05    0.6346797  0.022785175            0   0.61189452    1.4563027    2.0909824    1.1749319 
18575000    1.0317532 -4.1626234e-05   0.55996965  0.033233889            0   0.52673577    1.5398917    2.0998614  -0.77734393 
18580000    1.0440011 -5.919249e-05   0.51348911  0.028652554            0   0.48483656    1.5581716    2.0716607   -2.0197242 
18585000    1.0005982 -2.7611522e-05   0.58433673  0.029341531            0    0.5549952    1.4933928    2.0777295   0.16922114 
18590000    1.0074998 5.928992e-05   0.59216553  0.039845816            0   0.55231971    1.5036934    2.0958589    6.1939782 
18595000    1.0096136 3.518328e-06   0.57038011   0.04484015            0   0.52553996    1.5068484    2.0772285    2.3204153 
18600000   0.99511152 -5.6711881e-05   0.57042202  0.017062704            0   0.55335931    1.4852039     2.055626   -1.8642993 
18605000    1.0254418 -1.497665e-05   0.52850213  0.022835442            0   0.50566669    1.5304719    2.0589741     1.023788 
18610000    1.0778829 6.2440752e-05   0.45193593  0.013816705            0   0.43811922    1.6087402    2.0606761    6.3765809 
18615000    1.0743146 2.2369792e-05   0.48267026 0.0090538565            0    0.4736164    1.6034146    2.0860848    3.6322849 
18620000    1.0303132 -3.0081331e-05   0.52535184  0.013382783            0   0.51196906    1.5377424    2.0630942 -0.016127327 
18625000    1.0440561  4.20548e-05    0.5156951  0.018786014            0   0.49690909    1.5582537    2.0739488    4.9807765 
18630000    1.0885122 2.3999138e-05   0.46166094  0.028159927            0   0.43350102    1.6246044    2.0862653    3.7450858 
18635000    1.0474372 -2.8601716e-05   0.52293533  0.040864865            0   0.48207047       1.5633    2.0862354   0.10928475 
18640000    1.0400502 1.892928e-05    0.5365821  0.044532054            0   0.49205004    1.5522749     2.088857    3.3972489 
18645000    1.0372215 2.266071e-05   0.51640814  0.029037477            0   0.48737066    1.5480531    2.0644612    3.6307695 
18650000    1.0319653 -1.9579425e-05     0.525684  0.027115216            0   0.49856879    1.5402083    2.0658923   0.71256246 
18655000    1.0544442 2.408273e-06   0.48676514  0.026505791            0   0.46025935     1.573758    2.0605232     2.226983 
18660000    1.0370743 -3.9778385e-05   0.51739872  0.012767012            0    0.5046317    1.5478334    2.0652322  -0.68424979 
18665000    1.0190683 -2.4807176e-05   0.55021297 0.0040057013            0   0.54620727    1.5209595    2.0711724   0.35650044 
18670000    1.0748453 -2.2462194e-07     0.468726 0.0092996811            0   0.45942631    1.6042065    2.0729325    2.0574067 
18675000    1.0874191 -8.6251365e-07   0.44420588  0.019608135            0   0.42459775     1.622973    2.0671789     2.007562 
18680000    1.0593271 -2.5153416e-05   0.50033593  0.012702793            0   0.48763314    1.5810457    2.0813816   0.34277755 
18685000    1.0587076 -3.9077438e-05   0.50619898 0.0068199198            0   0.49937906    1.5801211    2.0863201  -0.61471243 
18690000    1.0431155 4.1900233e-05   0.54046112  0.032264848            0   0.50819627    1.5568499     2.097311    4.9934551 
18695000    1.0502812 9.0327126e-05   0.56572611  0.015461955            0   0.55026416    1.5675447    2.1332708    8.3766818 
18700000    1.0669824 2.7199708e-05   0.54161478  0.011318152            0   0.53029663    1.5924713    2.1340861    4.0141298 
18705000    1.1011628 -6.1120696e-07   0.49148886    0.0114479            0   0.48004096    1.6434854    2.1349743    2.0927277 
18710000    1.0899881 2.0678442e-05   0.49965343   0.02964001            0   0.47001342    1.6268072    2.1264606    3.5557545 
18715000    1.0787322 -6.4142152e-06   0.51294731  0.047350138            0   0.46559717    1.6100078    2.1229551    1.6796046 
18720000    1.0586022 -3.7935705e-05    0.5535801  0.049576574            0   0.50400352    1.5799637    2.1335438  -0.48857211 
18725000    1.0760157 1.2263142e-05   0.52256221  0.036577515            0    0.4859847    1.6059535    2.1285157    2.9761441 
18730000    1.0567245 6.6559261e-05   0.53960915  0.038937273            0   0.50067187    1.5771614    2.1167705    6.7173466 
18735000    1.0259611 3.3864239e-05   0.55734655  0.028037683            0   0.52930887    1.5312469    2.0885935    4.4292897 
18740000    1.0152297 -3.0690082e-05   0.54769352  0.057831675            0   0.48986184    1.5152304    2.0629239 -0.058374568 
18745000    1.0606336 -6.0034567e-05   0.48441474  0.037794204            0   0.44662053    1.5829956    2.0674104   -2.0821789 
18750000    1.0455975 -1.0552801e-05   0.51564313  0.021276506            0   0.49436663    1.5605542    2.0761973    1.3467877 
18755000   0.98710731 1.1457343e-05   0.58199909  0.041062638            0   0.54093645    1.4732577    2.0552568    2.8471883 
18760000    0.9764325 4.2805623e-05   0.59826447  0.030686581            0   0.56757789    1.4573255      2.05559    5.0143146 
18765000    1.0075142 1.6175245e-05   0.55096834  0.037352189            0   0.51361616     1.503715    2.0546833    3.1727162 
18770000    1.0351756 9.5850738e-06   0.52646234  0.041932319            0   0.48453002    1.5449996    2.0714619    2.7339822 
18775000    1.0738791 -6.4157625e-06   0.48795736  0.016912937            0   0.47104443    1.6027645    2.0907219    1.6472644 
18780000    1.0174808 -3.6692473e-05   0.57074917  0.025972651            0   0.54477652    1.5185901    2.0893393  -0.44684449 
18785000    1.0119335 -2.7291576e-05   0.60673192  0.050011327            0   0.55672059    1.5103107    2.1170426   0.23064885 
18790000    1.0759387 -3.1014144e-05   0.51549955  0.049592112            0   0.46590744    1.6058386    2.1213381  -0.02235953 
18795000    1.0293056 4.2263305e-07   0.59232882     0.042246            0   0.55008282    1.5362386    2.1285674    2.1577798 
18800000     1.065076 5.7414575e-06   0.54226978  0.049643398            0   0.49262638     1.589626    2.1318958    2.5287453 
18805000    1.1227981 2.7907147e-05   0.45478215 0.0094759272            0   0.44530622    1.6757762    2.1305583    4.0595003 
18810000    1.0673863 3.0504941e-05   0.52069189  0.013657187            0    0.5070347     1.593074    2.1137659    4.2222674 
18815000    1.0476952 -1.238815e-05   0.55197686  0.028410628            0   0.52356623    1.5636851     2.115662    1.2593931 
18820000    1.0315124 5.0490522e-06   0.59761196  0.034331692            0   0.56328027    1.5395323    2.1371442    2.4861347 
18825000    1.0620492 4.3517934e-05   0.54948824  0.025076865            0   0.52441137    1.5851085    2.1345967    5.1425563 
18830000    1.0484005 7.0807043e-06   0.58135789  0.025092739            0   0.55626515    1.5647377    2.1460956    2.6355138 
18835000    1.0682009 -4.0606122e-05   0.56783692 0.0068787264            0    0.5609582    1.5942899    2.1621268  -0.64456839 
18840000    1.1308943 1.1368654e-05   0.48541838 0.0020479098            0   0.48337047    1.6878598    2.1732782    2.9590795 
18845000    1.0950884 3.5414696e-05   0.52597945   0.02701741            0   0.49896204    1.6344195    2.1603989    4.6082627 
18850000    1.0551928 -2.37423e-05   0.58942346  0.039415516            0   0.55000795    1.5748753    2.1642987   0.52323093 
18855000    1.1143074 -3.825875e-05   0.51374905  0.032212131            0   0.48153692    1.6631038    2.1768529  -0.46759192 
18860000    1.0223133 -2.833894e-05   0.61622183  0.012388447            0   0.60383339    1.5258026    2.1420244    0.1832369 
18865000    1.0463304 -4.581155e-05    0.5646747 0.0053210152            0   0.55935368    1.5616482    2.1263229   -1.0401714 
18870000    1.0933241 -1.0226585e-05   0.50155594 0.0077512297            0   0.49380471    1.6317862    2.1333422    1.4264806 
18875000    1.1008422 1.2076723e-05   0.50442034 0.0059457019            0   0.49847464    1.6430069    2.1474273    2.9821704 
18880000    1.0516339 5.6234868e-06   0.58461958  0.012490083            0    0.5721295    1.5695636    2.1541831    2.5428786 
18885000    1.0836022 1.9950882e-05   0.54201897  0.023717046            0   0.51830192    1.6172763    2.1592953    3.5383002 
18890000    1.0665881 -1.1169745e-06   0.56829677   0.03527421            0   0.53302256    1.5918827    2.1601795    2.0829742 
18895000    1.0493171 5.6872074e-06   0.61248164  0.035354685            0   0.57712696    1.5661058    2.1785874    2.5716872 
18900000    1.1124203 -1.8656073e-05   0.51039722  0.019975989            0   0.49042123    1.6602874    2.1706846   0.88117679 
18905000    1.0915107 -6.23395e-05   0.54960081  0.022795041            0   0.52680576    1.6290797    2.1786805   -2.1302258 
18910000    1.0934998 -4.1482245e-05   0.54638215  0.037789262            0   0.50859289    1.6320485    2.1784306  -0.68882216 
18915000    1.0589929 -4.147007e-05   0.58082853  0.037128228            0    0.5437003     1.580547    2.1613755  -0.70503572 
18920000    1.0946773 -5.1382726e-06   0.54935258  0.039951857            0   0.50940072    1.6338058    2.1831584     1.828001 
18925000    1.1440751 -2.5292431e-05   0.47677058  0.024955061            0   0.45181552    1.7075321    2.1843027   0.43608984 
18930000    1.1177597 -1.6914126e-05   0.50095214  0.022760437            0   0.47819171    1.6682564    2.1692085    1.0001041 
18935000    1.0733811 -4.8932893e-06   0.56077174   0.01928738            0   0.54148436    1.6020213     2.162793    1.8245688 
18940000    1.0463779 -1.69501e-05   0.59150043  0.031459006            0   0.56004142    1.5617191    2.1532195   0.98162856 
18945000    1.0702992 -3.9467692e-05   0.58318125  0.031503671            0   0.55167758    1.5974216    2.1806029  -0.54740404 
18950000    1.1155801 1.952474e-06   0.53915184   0.03077149            0   0.50838035    1.6650033    2.2041551    2.3391101 
18955000    1.0353368 4.4776344e-05   0.66153669  0.043459159            0   0.61807753    1.5452402    2.2067769    5.3017178 
18960000    1.0587301 1.6986504e-05   0.61517479  0.030985139            0   0.58418965    1.5801547    2.1953295    3.3694366 
18965000    1.0490461 -5.660683e-06   0.60501333  0.011538875            0   0.59347445    1.5657013    2.1707146    1.7794482 
18970000    1.0463631 -2.5036777e-05   0.61640173  0.010940136            0    0.6054616    1.5616969    2.1780986   0.44755658 
18975000    1.0656306 -3.3347409e-06   0.59937747  0.023681228            0   0.57569624    1.5904537    2.1898312    1.9593339 
18980000    1.0536055 3.8718307e-05    0.6083412  0.038826203            0     0.569515    1.5725063    2.1808475    4.8570568 
18985000    1.0632614 -3.0354675e-06   0.59609032  0.038431553            0   0.55765877    1.5869177     2.183008    1.9731965 
18990000    1.0556851 -4.7553303e-05    0.5772732   0.01904595            0   0.55822725      1.57561    2.1528832   -1.1340011 
18995000    1.0454466 -7.4159008e-06   0.59488153  0.030256607            0   0.56462492     1.560329    2.1552106    1.6426235 
19000000    1.0569566 8.2176378e-06   0.58148527  0.016188335            0   0.56529693    1.5775078    2.1589931    2.7269962 
19005000     1.076205 -2.8937963e-05   0.54407454  0.005312926            0   0.53876161     1.606236    2.1503105   0.15011851 
19010000    1.0137956 -5.1888543e-07    0.6191717  0.017251839            0   0.60191987    1.5130899    2.1322617    2.0963963 
19015000    1.0838661 -2.3949797e-05   0.52802809  0.014978453            0   0.51304964    1.6176701    2.1456982   0.49028826 
19020000    1.0371081 -1.6070964e-05   0.59456023 0.0097506376            0   0.58480959    1.5478838     2.142444     1.031619 
19025000    1.0474058 4.8352953e-05   0.56496392 0.0098245726            0   0.55513935    1.5632532    2.1282172    5.4703733 
19030000    1.0266719 1.6018206e-05    0.6093131  0.013723454            0   0.59558964    1.5323079     2.141621    3.2487994 
19035000    1.0589327 6.1369468e-06   0.57908528 0.0097780929            0   0.56930719     1.580457    2.1595423     2.583728 
19040000    1.0660806 8.9821719e-06   0.55770905  0.015216697            0   0.54249235    1.5911253    2.1488343     2.769682 
19045000    1.0957704 -3.953261e-06   0.52190465  0.016543593            0   0.50536106    1.6354374     2.157342    1.8840926 
19050000    1.0447662 -2.298509e-05    0.5898835  0.039099433            0   0.55078407    1.5593136    2.1491971   0.56046768 
19055000     1.087493 2.7778686e-06   0.53115395  0.022239487            0   0.50891446    1.6230832    2.1542372    2.3462435 
19060000    1.0364698 5.2049954e-05   0.62936794  0.026363849            0   0.60300409    1.5469311    2.1762991    5.7739919 
19065000    1.0769371 5.8026446e-05   0.58002087  0.030488068            0   0.54953281    1.6073286    2.1873494    6.1981374 
19070000    1.0608727 2.7586001e-05   0.59195198  0.017608654            0   0.57434332    1.5833526    2.1753046     4.082049 
19075000    1.0807115 1.2328312e-06   0.57219326   0.01993867            0    0.5522546     1.612962    2.1851552    2.2703685 
19080000    1.0075536 -5.9051444e-05   0.68414621  0.017277023            0   0.66686919    1.5037738      2.18792   -1.8937158 
19085000    1.0704402 1.321034e-05   0.61056296  0.032234304            0   0.57832865     1.597632     2.208195    3.1212937 
19090000    1.1575355 7.3274875e-05   0.46473552   0.01682973            0   0.44790579    1.7276217    2.1923572    7.2571166 
19095000     1.054301 -6.0896281e-06   0.61186771  0.014324826            0   0.59754289    1.5735443     2.185412    1.7644969 
19100000    1.0486827 -1.9646283e-05   0.59765966  0.050758488            0   0.54690117     1.565159    2.1628186   0.80486757 
19105000    1.0717699 2.5737932e-05   0.55474913  0.038452356            0   0.51629678    1.5996165    2.1543656    3.9333715 
19110000    1.0800782 3.1616932e-05   0.54217954 0.0065274701            0   0.53565207    1.6120166    2.1541962    4.3395585 
19115000     1.065712 -1.3825607e-05   0.58870601  0.012793931            0   0.57591208    1.5905751    2.1792811    1.2236551 
19120000    1.0640864 -1.4425539e-05    0.5904333  0.017876063            0   0.57255724     1.588149    2.1785823     1.181489 
19125000    1.0733128 2.6360796e-05   0.55337526 0.0087478121            0   0.54462744    1.6019193    2.1552946    3.9773528 
19130000    1.1108843 -3.4023354e-06   0.50234238  0.015051041            0   0.48729133    1.6579948    2.1603371    1.9251677 
19135000    1.0264116 3.000595e-05   0.62551889  0.038910893            0     0.586608    1.5319193    2.1574382    4.2314495 
19140000    1.0845652 8.6651653e-05   0.53278786  0.025185454            0   0.50760241    1.6187136    2.1515014    8.1408637 
19145000    1.0191276 2.8941712e-05   0.63151475  0.035365941            0   0.59614881    1.5210479    2.1525626    4.1530138 
19150000    1.0383796 1.7840711e-06   0.61938044  0.029075097            0   0.59030534    1.5497815     2.169162     2.292477 
19155000    1.0423729 2.0721624e-05   0.62519935  0.014980944            0    0.6102184    1.5557416    2.1809409    3.6132196 
19160000    1.0608167 1.1863092e-05   0.60888738  0.014872312            0   0.59401507    1.5832689    2.1921563    3.0121332 
19165000    1.0997893 -1.1546249e-05   0.55194357  0.013230818            0   0.53871275    1.6414355    2.1933791    1.3953024 
19170000    1.0660093 -3.1968411e-05   0.61080389  0.012558923            0   0.59824497    1.5910189    2.2018228 -0.0078337956 
19175000    1.0744648 -6.0154902e-06    0.6079488 0.0099185497            0   0.59803025    1.6036387    2.2115875    1.7957968 
19180000    1.0701366 -2.2170905e-05   0.60311926  0.007149797            0   0.59596946    1.5971788    2.2002981   0.66784512 
19185000    1.0319755 -1.2002565e-05   0.65959156  0.012102972            0   0.64748859    1.5402234    2.1998149    1.3701976 
19190000    1.0462871 -3.3486826e-06   0.62468646  0.032310029            0   0.59237643    1.5615834    2.1862699     1.954809 
19195000    1.0636146 -2.0795223e-06   0.61123753  0.027256023            0   0.58398151    1.5874449    2.1986824    2.0549458 
19200000    1.0302337 5.5739532e-05   0.64142372  0.014476675            0   0.62694704    1.5376238    2.1790476     6.031764 
19205000    1.0772519 7.3057699e-05   0.59803222 0.0072220535            0   0.59081016    1.6077984    2.2058306    7.2555788 
19210000     1.069308 8.8918341e-06   0.61937389  0.016221514            0   0.60315238    1.5959422    2.2153161    2.8299196 
19215000     1.071893 2.1515197e-05   0.60603843  0.019250206            0   0.58678823    1.5998003    2.2058388    3.6929692 
19220000    1.0521191 -1.1130386e-05   0.63133046   0.02037298            0   0.61095748    1.5702877    2.2016181    1.4322859 
19225000    1.0581274 -8.5096322e-05   0.63115746  0.044585326            0   0.58657214    1.5792551    2.2104126   -3.6714452 
19230000    1.0761857 -1.8368018e-05   0.60205342  0.020036309            0   0.58201712    1.6062072    2.2082606   0.93866323 
19235000    1.0918472 1.8758481e-05   0.59500315 0.0065380719            0   0.58846508    1.6295819    2.2245851    3.5211713 
19240000    1.1200295 9.0342279e-06   0.55405974 0.0038293015            0   0.55023044     1.671644    2.2257037    2.8501496 
19245000    1.1141292 2.4926558e-05   0.57501611  0.013038226            0   0.56197789    1.6628379     2.237854    3.9607777 
19250000    1.1063398 1.327778e-05   0.58647361  0.018811453            0   0.56766216    1.6512121    2.2376857    3.1554459 
19255000    1.1151112 3.8885083e-05   0.58759847  0.027249239            0   0.56034923    1.6643035     2.251902    4.9396389 
19260000    1.0670698 3.3823865e-06   0.66492234  0.030153577            0   0.63476876    1.5926016     2.257524    2.4913145 
19265000    1.0736593 -4.3176629e-05   0.66127898  0.017274768            0   0.64400422    1.6024365    2.2637155  -0.72065312 
19270000    1.0902074 1.1255908e-05   0.64015703  0.043879436            0    0.5962776    1.6271345    2.2672915    3.0452999 
19275000    1.0407168 -2.1219301e-05   0.70560275  0.026540454            0    0.6790623    1.5532698    2.2588726   0.79219449 
19280000    1.0829119 -4.4516193e-05   0.66485447  0.024842306            0   0.64001217    1.6162461    2.2811005  -0.79585876 
19285000    1.1327151 1.9744055e-05   0.61211781  0.020139335            0   0.59197848    1.6905773    2.3026951    3.6674042 
19290000    1.1699185 2.1351267e-05   0.56625494  0.011964936            0   0.55429001    1.7461034    2.3123583    3.7881579 
19295000    1.1039819 2.3236363e-05   0.65362539 0.0043819692            0   0.64924342     1.647693    2.3013184    3.9074158 
19300000    1.1614124 -1.8632895e-06   0.56736236 0.0054978262            0   0.56186454    1.7334081    2.3007704    2.1719799 
19305000    1.0884197 -2.4334005e-05   0.67853894  0.011478456            0   0.66706048    1.6244664    2.3030054   0.62103893 
19310000    1.1259258 3.3304249e-05    0.6309364 0.0090146848            0   0.62192172    1.6804442    2.3113806    4.6133703 
19315000    1.1418823 1.5428198e-06   0.57275891  0.027972081            0   0.54478683    1.7042594    2.2770183     2.383658 
19320000    1.0838202 3.9764307e-05   0.64010478  0.043918383            0    0.5961864    1.6176017    2.2577064    5.0062153 
19325000    1.1246948 8.7001662e-05   0.59387833  0.024827338            0   0.56905099     1.678607    2.2724853    8.2860402 
19330000    1.0531785 -2.4279799e-05    0.6975043  0.033061199            0   0.66444311    1.5718689    2.2693732   0.59115352 
19335000    1.1932945 -3.4746171e-05   0.48834509  0.013895593            0   0.47444949    1.7809921    2.2693372  -0.13231812 
19340000    1.0846492 -5.4766858e-05    0.6563047  0.012284173            0   0.64402052    1.6188389    2.2751436   -1.5103417 
19345000    1.1115797 -9.0043095e-06    0.6170452  0.035275039            0   0.58177016    1.6590327    2.2760779    1.6537001 
19350000    1.1448094 1.7816185e-05   0.57659318  0.021896214            0   0.55469697     1.708628    2.2852212    3.5166759 
19355000    1.1454206 4.9505343e-06   0.57825949  0.026351091            0    0.5519084    1.7095403    2.2877998    2.6299807 
19360000     1.098913 -1.1069996e-05   0.64435388  0.042337782            0   0.60201609    1.6401276    2.2844815    1.5193234 
19365000    1.0816252 -3.668816e-05    0.6557218  0.032290854            0   0.62343094    1.6143256    2.2700474  -0.26583825 
19370000    1.1464611 -5.4492484e-06   0.55823667  0.012780459            0   0.54545621    1.7110932    2.2693298    1.8926778 
19375000    1.1145761 -1.7162759e-05   0.62307902  0.017205891            0   0.60587313    1.6635048    2.2865838    1.1002939 
19380000    1.1559032  3.12914e-06   0.54666591  0.018894963            0   0.52777095    1.7251855    2.2718514    2.4881376 
19385000    1.1109222 -2.3421778e-05   0.62229383  0.027118515            0   0.59517531    1.6580513    2.2803452   0.66143185 
19390000    1.1141257 -1.3938159e-05   0.59872827  0.037086039            0   0.56164224    1.6628326    2.2615608    1.2981553 
19395000    1.1230709 1.5900715e-05   0.60652261  0.049578497            0   0.55694411    1.6761833    2.2827059    3.3817633 
19400000    1.1273174 -1.8629631e-05    0.5996769  0.038166484            0   0.56151042    1.6825212    2.2821981   0.99451802 
19405000    1.1234756 -1.8492749e-05   0.61292147  0.020554765            0   0.59236671    1.6767873    2.2897088      1.01149 
19410000     1.169718 1.7178037e-05   0.54985884  0.014866218            0   0.53499262    1.7458041    2.2956629    3.4830088 
19415000    1.1063845 -5.7981463e-05   0.62927358  0.022083395            0   0.60719018    1.6512788    2.2805524   -1.7271263 
19420000    1.0901457 2.8845884e-05   0.64774069  0.024077848            0   0.62366284    1.6270424    2.2747831    4.2686106 
19425000     1.134364 -1.3134192e-05   0.58226083  0.026458108            0   0.55580272    1.6930383    2.2752992    1.3674638 
19430000    1.1045365 4.2517721e-05   0.61215675   0.04147484            0   0.57068191    1.6485207    2.2606774    5.1995023 
19435000    1.1430237 0.0001089055   0.55672896 0.0069754323            0   0.54975353    1.7059629    2.2626918    9.7902403 
19440000      1.10162 2.8296301e-05    0.6337087  0.028542873            0   0.60516583    1.6441679    2.2778766    4.2337169 
19445000    1.1089887 -1.7808027e-06    0.6272979  0.057638582            0   0.56965932    1.6551657    2.2824636    2.1593745 
19450000    1.1069794 1.541044e-05   0.63493439  0.038509327            0   0.59642506    1.6521667    2.2871011    3.3522707 
19455000    1.1127828 -3.401619e-05   0.61254387  0.015828854            0   0.59671502    1.6608283    2.2733722 -0.077826859 
19460000    1.1134659 -7.6651849e-06   0.61996988  0.020991336            0   0.59897855    1.6618479    2.2818178    1.7520002 
19465000    1.1763648 3.1701368e-05   0.54950734  0.013892774            0   0.53561457    1.7557244    2.3052318    4.4964303 
19470000     1.126487 1.2308357e-06   0.64136624  0.021736463            0   0.61962978    1.6812818    2.3226481    2.4077234 
19475000    1.1184199 4.2362191e-06   0.64981872  0.017112567            0   0.63270615    1.6692417    2.3190604    2.6118678 
19480000    1.1645272 1.9518499e-05   0.59051306   0.03351089            0   0.55700217    1.7380568    2.3285698    3.6776885 
19485000    1.2103527 5.3561488e-05   0.52312412  0.049780896            0   0.47334322    1.8064514    2.3295755    6.0317456 
19490000    1.1838183 6.3186979e-05   0.57764619  0.022263781            0   0.55538241    1.7668488     2.344495     6.711979 
19495000    1.1318383 6.4414237e-05   0.66619575  0.012347868            0   0.65384788    1.6892686    2.3554644    6.8077765 
19500000    1.1347838 2.9899939e-05   0.65665721  0.027670215            0   0.62898699    1.6936648     2.350322    4.4170057 
19505000    1.1517277 -3.8985492e-05   0.64049488  0.016464942            0   0.62402994    1.7189536    2.3594484  -0.33522874 
19510000    1.1839244 -4.5970898e-05   0.59219053  0.013859179            0   0.57833135    1.7670071    2.3591976  -0.81831082 
19515000    1.1930612 -4.5432315e-06   0.58124322 0.0077729055            0   0.57347032    1.7806439    2.3618871     2.047859 
19520000    1.1511346 -2.0672397e-05   0.65956492  0.024690726            0   0.63487419    1.7180684    2.3776333   0.94875724 
19525000    1.1581188 -5.1684508e-05   0.65925235  0.022886171            0   0.63636618    1.7284923    2.3877446   -1.1846886 
19530000    1.1824128 -3.9630967e-05   0.61114955  0.019689212            0   0.59146034    1.7647512    2.3759007  -0.36339169 
19535000    1.1776744 1.8273397e-05   0.61727334  0.028501467            0   0.58877188    1.7576791    2.3749524    3.6380096 
19540000    1.1654206 6.0219964e-05   0.62830395  0.018993043            0   0.60931091    1.7393903    2.3676943    6.5300982 
19545000    1.2105614 -3.2002715e-06   0.54873775  0.022397921            0   0.52633983    1.8067629    2.3555006    2.1342979 
19550000    1.1886765 -1.9873704e-05   0.59142753  0.013084543            0   0.57834298    1.7740997    2.3655272   0.99185675 
19555000    1.1523602 3.995165e-05   0.63633899  0.011525304            0   0.62481369    1.7198976    2.3562366    5.1176946 
19560000    1.1050889 3.5643358e-05   0.69383641  0.012728155            0   0.68110825    1.6493452    2.3431816    4.8068505 
19565000    1.1843817 -7.4559786e-06   0.58087238  0.033635566            0   0.54723681    1.7676897    2.3485621    1.8332048 
19570000    1.1603627 -1.604152e-05   0.62342377  0.039911808            0   0.58351196    1.7318414    2.3552651    1.2464753 
19575000    1.1128313 -2.552558e-05    0.6908512  0.040233852            0   0.65061735    1.6609007    2.3517519   0.58742383 
19580000    1.1183045 -4.0955732e-05   0.69847101  0.024953587            0   0.67351743    1.6690695    2.3675405  -0.46331964 
19585000    1.1807104 1.420125e-05   0.60406082   0.03327898            0   0.57078184    1.7622102     2.366271    3.3478615 
19590000    1.1634747 -3.5960188e-05   0.64476255   0.03378709            0   0.61097546     1.736486    2.3812485   -0.1043197 
19595000    1.1919059 -4.1089274e-05   0.61315207  0.013469326            0   0.59968275    1.7789195    2.3920716  -0.44801907 
19600000    1.1723468 -3.190239e-05   0.63927536  0.031651342            0   0.60762402    1.7497276     2.389003    0.1839098 
19605000    1.1805153 -2.1158414e-05   0.61631202  0.030257283            0   0.58605473    1.7619191    2.3782311    0.9157615 
19610000    1.1261629 -2.58898e-05   0.67753272 0.0053421456            0   0.67219057    1.6807981    2.3583308   0.56882783 
19615000    1.1158171 -2.9028268e-05   0.69119395  0.013382408            0   0.67781154     1.665357    2.3565509   0.35011703 
19620000    1.1394785 1.0254285e-05   0.65288932  0.016521447            0   0.63636787    1.7006717     2.353561    3.0623372 
19625000    1.1766711 7.5956471e-06   0.57778558  0.010204683            0    0.5675809    1.7561816    2.3339672    2.8589783 
19630000    1.1697381 1.2113803e-06   0.58815739  0.012518112            0   0.57563928     1.745834    2.3339914     2.417722 
19635000    1.0916208 2.0046323e-06   0.70148544  0.048946093            0   0.65253935     1.629244    2.3307295    2.4692896 
19640000    1.1627468 -1.6008145e-05   0.58945096  0.027738069            0   0.56171289    1.7353996    2.3248506    1.2183676 
19645000    1.1492655 3.1263678e-05   0.60197399  0.022783252            0   0.57919073    1.7152788    2.3172528    4.4781982 
19650000     1.115154 6.5811896e-06   0.67760577  0.066407157            0   0.61119861    1.6643673    2.3419731    2.7968649 
19655000    1.1340003 -2.854297e-05    0.6359644  0.031628992            0   0.60433541    1.6924954    2.3284598   0.35556972 
19660000    1.1030034 -1.1756112e-05   0.66180826  0.062754122            0   0.59905414    1.6462325    2.3080408    1.4954583 
19665000     1.125232 -3.1192105e-05   0.63388259  0.018182169            0   0.61570042    1.6794088    2.3132914   0.15729307 
19670000    1.0892145 -1.5333981e-05   0.67803855  0.013338934            0   0.66469962    1.6256526    2.3036911    1.2438064 
19675000    1.1328636 -2.4630977e-05   0.62456951  0.018508237            0   0.60606127    1.6907989    2.3153684   0.61287531 
19680000    1.1798905 -5.3022247e-05   0.56858782   0.01013224            0   0.55845558    1.7609866    2.3295745   -1.3353232 
19685000    1.1262185 2.4863297e-05   0.64912019 0.0087394118            0   0.64038078    1.6808811    2.3300013    4.0485524 
19690000    1.1421293 -3.3958178e-05    0.6102459  0.016045574            0   0.59420032     1.704628    2.3148739 -0.032315346 
19695000    1.1647445 -3.4326062e-05   0.57012683  0.019313522            0   0.55081331    1.7383812     2.308508 -0.064109408 
19700000    1.1204254 1.5402228e-05   0.59521005  0.011277322            0   0.58393272    1.6722349     2.267445     3.332047 
19705000    1.1346352 -8.6614331e-06   0.57828231  0.047684114            0    0.5305982     1.693443    2.2717253    1.6730471 
19710000    1.0696629 1.8956596e-05   0.65655434  0.023606419            0   0.63294792    1.5964718    2.2530262    3.5633061 
19715000    1.0882806 7.380994e-05   0.60738541  0.016305291            0   0.59108012    1.6242588    2.2316443    7.3333873 
19720000    1.0457392 1.8433138e-05   0.66580189 0.0054852601            0   0.66031663    1.5607658    2.2265677    3.5006662 
19725000    1.0617056 -4.4188211e-05   0.64143324 0.0039275782            0   0.63750566    1.5845956    2.2260289  -0.82826024 
19730000    1.0473103 -1.9661486e-06   0.66905898  0.014713003            0   0.65434598    1.5631106    2.2321696    2.0962694 
19735000    1.0759407 -2.7054888e-05   0.61480209  0.021465988            0    0.5933361    1.6058415    2.2206436   0.35060969 
19740000    1.0467907 -1.3693236e-05    0.6589566  0.011933634            0   0.64702297    1.5623351    2.2212917    1.2748152 
19745000    1.1000913 1.101737e-05   0.57900237 0.0034616601            0   0.57554071    1.6418863    2.2208887    2.9824093 
19750000    1.0688494 -2.8493257e-05    0.6439036  0.011669085            0   0.63223452    1.5952577    2.2391613   0.26970734 
19755000    1.0740315 1.6729551e-05   0.61867399  0.015125922            0   0.60354807     1.602992     2.221666    3.3780125 
19760000    1.0805303 3.3687477e-05   0.60647961  0.019054899            0   0.58742471    1.6126915    2.2191711    4.5476495 
19765000    1.0478026 -6.4361435e-06   0.65453295  0.019337135            0   0.63519581    1.5638454    2.2183783    1.7735121 
19770000     1.076594 -1.0943578e-05   0.59904649 0.0083048246            0   0.59074167    1.6068166    2.2058631     1.449443 
19775000    1.1118467 -3.6986665e-05   0.55769699  0.011596575            0   0.54610041    1.6594311    2.2171281  -0.33939017 
19780000    1.0933439 -3.0925072e-05   0.58732809  0.026222107            0   0.56110598    1.6318158    2.2191439  0.081602964 
19785000    1.0902583 -1.7020067e-05   0.59916503  0.020449964            0   0.57871507    1.6272105    2.2263756    1.0499485 
19790000    1.0500413 -1.7058714e-05   0.65029272  0.012520168            0   0.63777256    1.5671866    2.2174793     1.038381 
19795000    1.0800307 3.1781958e-06   0.59800682 0.0081176636            0   0.58988916    1.6119458    2.2099526    2.4296295 
19800000    1.1049436 1.5685007e-05   0.58331935   0.01489412            0   0.56842523    1.6491283    2.2324476    3.3165953 
19805000    1.0605629 -3.6889964e-06    0.6429372  0.026861539            0   0.61607566    1.5828901    2.2258273    1.9708439 
19810000    1.0136518 1.2002416e-05   0.69130082  0.012211695            0   0.67908913    1.5128752    2.2041761    3.0337831 
19815000    1.0266349 7.4368293e-05   0.66315993  0.018263052            0   0.64489688    1.5322527    2.1954126     7.335749 
19820000    1.0336771 -1.8678203e-05   0.64293336  0.024274931            0   0.61865843    1.5427631    2.1856964   0.89465908 
19825000    1.0523625 -7.2757647e-05   0.60530732   0.01559929            0   0.58970803     1.570651    2.1759583   -2.8530502 
19830000    1.0391311 -2.8030055e-06   0.61210322  0.014348935            0   0.59775429    1.5509032    2.1630064    1.9692626 
19835000    1.0306742 2.484317e-05   0.60400449  0.013215111            0   0.59078938    1.5382812    2.1422857    3.8594456 
19840000     1.071042 -5.2942652e-06   0.55760078  0.018227867            0   0.53937291    1.5985301    2.1561309    1.7901913 
19845000     1.002088 -6.7773359e-05   0.65820186  0.021291501            0   0.63691036    1.4956164    2.1538183   -2.5306763 
19850000    1.0013007 -1.9993682e-05   0.67325077  0.010795245            0   0.66245553    1.4944414    2.1676921   0.78572885 
19855000    1.0042587 3.1605049e-05   0.66539307  0.012103605            0   0.65328946     1.498856    2.1642491    4.3487901 
19860000    1.0139593 4.835167e-05    0.6350223  0.028411017            0   0.60661129    1.5133342    2.1483565     5.490424 
19865000    1.0252337 5.091654e-05   0.63774169  0.041160314            0   0.59658137    1.5301613    2.1679029    5.6872542 
19870000   0.96607113 5.7311428e-06   0.72284945  0.030146508            0   0.69270294    1.4418612    2.1647106    2.5608472 
19875000    1.0124077 3.3206368e-05   0.65021329  0.041302352            0   0.60891094    1.5110186    2.1612319     4.456456 
19880000    1.0346018 3.9129172e-05   0.61498773   0.01978094            0   0.59520679    1.5441432    2.1591309    4.8637393 
19885000     1.036862 -7.3225768e-06   0.61538146  0.015650458            0     0.599731    1.5475165    2.1628979    1.6567614 
19890000    1.0310247 -8.3674609e-06   0.60956338  0.029942366            0   0.57962101    1.5388044    2.1483678    1.5700089 
19895000    1.0209187 -4.2114424e-05   0.63980003  0.032023463            0   0.60777657    1.5237211    2.1635211  -0.74742785 
19900000    1.0395628 2.123557e-05   0.63155085  0.023194093            0   0.60835676    1.5515474    2.1830983    3.6509009 
19905000   0.99948824 -1.5083363e-05   0.69938782  0.039344734            0   0.66004309    1.4917362     2.191124    1.1485619 
19910000    1.0722429 6.6749192e-06   0.59952708  0.010609323            0   0.58891776    1.6003225    2.1998496      2.66122 
19915000    1.0601136 -2.8577818e-05   0.59383707 0.0052796834            0   0.58855739    1.5822195    2.1760565   0.20075779 
19920000    1.0078622 -6.0342651e-05   0.65145088 0.0075608228            0   0.64389006    1.5042343    2.1556852   -2.0151989 
19925000    1.0614191 6.8432602e-05   0.57711943 0.0095200979            0   0.56759933    1.5841679    2.1612874    6.8913488 
19930000    1.0608896 4.3867102e-06   0.57350879  0.018433746            0   0.55507505    1.5833777    2.1568865    2.4600959 
19935000    1.0665823 1.8172956e-06   0.57553692  0.021825376            0   0.55371154    1.5918741     2.167411    2.2930225 
19940000    1.0111345 2.9435223e-05   0.65760906  0.011517916            0   0.64609114    1.5091182    2.1667272    4.2012899 
19945000    1.0290911 1.4894069e-05   0.62088565 0.0065979303            0   0.61428772    1.5359185    2.1568041    3.1862822 
19950000    1.0282017 4.2399484e-05   0.62917909  0.018717234            0   0.61046186     1.534591    2.1637701    5.0944224 
19955000    1.0497358 6.2441017e-06   0.60158911  0.021180076            0   0.58040903    1.5667307    2.1683198    2.5999121 
19960000     1.051212 -3.1705674e-05   0.60921107  0.023446965            0    0.5857641    1.5689339     2.178145   -0.0133512 
19965000    1.0189881 1.9139009e-05   0.65214722  0.036554904            0   0.61559232    1.5208398     2.172987    3.4958753 
19970000     1.073513 2.0500771e-05   0.57031211  0.030260561            0   0.54005155    1.6022182    2.1725303    3.5895436 
19975000    1.0645717 4.1824701e-06   0.61370779  0.016099509            0   0.59760828    1.5888733    2.2025811    2.4916734 
19980000    1.0905396 1.4885693e-05   0.57178249 0.0046322908            0    0.5671502    1.6276304    2.1994129     3.228312 
19985000    1.0934826 -1.6905569e-05   0.57049738 0.00090549768            0   0.56959188    1.6320227    2.2025201    1.0340072 
19990000    1.0032531 6.3346415e-06   0.68164896   0.01557033            0   0.66607863    1.4973553    2.1790043    2.6168547 
19995000    1.0673655 6.2428433e-05    0.5771223   0.01731759            0   0.55980471     1.593043    2.1701653    6.4852185 
20000000    1.0713209 6.7202736e-05   0.60298391 0.0038319769            0   0.59915193    1.5989465    2.2019304    6.8469835 
Loop time of 553.044 on 1 procs for 20000000 steps with 200 atoms

Performance: 31245.279 tau/day, 36163.517 timesteps/s
99.3% CPU use with 1 MPI tasks x no OpenMP threads

MPI task timing breakdown:
Section |  min time  |  avg time  |  max time  |%varavg| %total
---------------------------------------------------------------
Pair    | 18.821     | 18.821     | 18.821     |   0.0 |  3.40
Bond    | 59.4       | 59.4       | 59.4       |   0.0 | 10.74
Neigh   | 85.607     | 85.607     | 85.607     |   0.0 | 15.48
Comm    | 196.36     | 196.36     | 196.36     |   0.0 | 35.50
Output  | 1.0476     | 1.0476     | 1.0476     |   0.0 |  0.19
Modify  | 179.13     | 179.13     | 179.13     |   0.0 | 32.39
Other   |            | 12.68      |            |       |  2.29

Nlocal:        200.000 ave         200 max         200 min
Histogram: 1 0 0 0 0 0 0 0 0 0
Nghost:        0.00000 ave           0 max           0 min
Histogram: 1 0 0 0 0 0 0 0 0 0
Neighs:        42.0000 ave          42 max          42 min
Histogram: 1 0 0 0 0 0 0 0 0 0

Total # of neighbors = 42
Ave neighs/atom = 0.21
Ave special neighs/atom = 5.9400000
Neighbor list builds = 4305
Dangerous builds = 0
write_restart restart.equil
System init for write_restart ...
WARNING: Communication cutoff 1.4200000000000002 is shorter than a bond length based estimate of 1.8. This may lead to errors. (../comm.cpp:667)
#--------------End of Input file ------------------
Total wall time: 0:09:13
