LAMMPS (29 Oct 2020)
###################### polyelectrolyte complexation ######################
clear

#Initialization
#------------------------------------
units				lj
dimension			3
atom_style			full
boundary			p p p

#Atom Definition
#-------------------------------------
read_restart			restart.equil
Reading restart file ...
  restart file = 29 Oct 2020, LAMMPS = 29 Oct 2020
  restoring atom style full from restart
  orthogonal box = (-80.000000 -80.000000 -80.000000) to (80.000000 80.000000 80.000000)
  1 by 1 by 1 MPI processor grid
  restoring pair style lj/cut from restart
  restoring bond style harmonic from restart
  60 atoms
  59 bonds
Finding 1-2 1-3 1-4 neighbors ...
  special bond factors lj:    0.0      1.0      1.0     
  special bond factors coul:  0.0      0.0      0.0     
     2 = max # of 1-2 neighbors
     2 = max # of 1-3 neighbors
     4 = max # of 1-4 neighbors
     6 = max # of special neighbors
  special bonds CPU = 0.000 seconds
  read_restart CPU = 0.006 seconds

#Force definition
#----------------------------------------------
#Bond definition
bond_style			harmonic
bond_coeff			1 5000 1
#Pair definition
special_bonds	lj 0 1 1
dielectric		80
pair_style		 lj/cut 1.12
pair_modify 		 shift yes
pair_coeff	1 1 1 1 1.12

#Timestep etc
#--------------------------------------------
timestep		0.001
run_style		verlet
velocity		all	create	1	9

#Fix
#---------------------------------------
group polymers type 1
60 atoms in group polymers
fix 1 all nve
fix 2 all langevin 1	1	1	9

#Dump
#------------------------------------------------
compute  1 all gyration
variable  myRg2 equal c_1
variable  i equal step
fix  mythermofile all print 5000 "$i ${myRg2}" file radius_of_gyration.dat screen no

thermo_style		 custom step temp press pe evdwl ecoul ebond ke etotal enthalpy
thermo 	5000
dump	3 all custom 5000 dump.lammpstrj id mol type xu yu zu
run		2000000
Neighbor list info ...
  update every 1 steps, delay 10 steps, check yes
  max neighbors/atom: 2000, page size: 100000
  master list distance cutoff = 1.42
  ghost atom cutoff = 1.42
  binsize = 0.71, bins = 226 226 226
  1 neighbor lists, perpetual/occasional/extra = 1 0 0
  (1) pair lj/cut, perpetual
      attributes: half, newton on
      pair build: half/bin/newton
      stencil: half/bin/3d/newton
      bin: standard
WARNING: Communication cutoff 1.4200000000000002 is shorter than a bond length based estimate of 1.8. This may lead to errors. (../comm.cpp:667)
Per MPI rank memory allocation (min/avg/max) = 54.71 | 54.71 | 54.71 Mbytes
Step Temp Press PotEng E_vdwl E_coul E_bond KinEng TotEng Enthalpy 
 2000000            1 -0.00012130765   0.43871753 0.0060657727            0   0.43265176        1.475    1.9137175   -6.3675516 
 2005000    1.1423845 -4.0228043e-05    0.6347381 0.00029042357            0   0.63444767    1.6850172    2.3197553  -0.42647908 
 2010000   0.81192925 7.1734242e-06     0.413836  0.012930513            0   0.40090549    1.1975956    1.6114316    2.1011374 
 2015000    1.0369942 7.133064e-06   0.63435511 0.0070657568            0   0.62728935    1.5295665    2.1639216    2.6508721 
 2020000   0.95080948 -1.7642107e-05   0.51073912   0.03501601            0   0.47572311     1.402444    1.9131831   0.70881524 
 2025000   0.90820598 0.00013716806   0.59434018 0.0041209378            0   0.59021924    1.3396038     1.933944     11.29795 
 2030000    1.1049659 -7.9916149e-05   0.41044853  0.012902528            0     0.397546    1.6298247    2.0402733   -3.4153358 
 2035000   0.95113395 -2.8984267e-05   0.47687507  0.014028371            0    0.4628467    1.4029226    1.8797976 -0.098861619 
 2040000    0.9282035 -6.704558e-05   0.59775433  0.018892212            0   0.57886212    1.3691002    1.9668545   -2.6101238 
 2045000    1.2394967 -5.7295159e-05   0.42833626  0.001596055            0    0.4267402    1.8282577    2.2565939   -1.6547556 
 2050000     1.122592 3.217684e-05   0.40072277  0.012819109            0   0.38790366    1.6558233     2.056546    4.2531516 
 2055000   0.83708472 -7.2549262e-05   0.68808446 0.0040178428            0   0.68406662       1.2347    1.9227844   -3.0299119 
 2060000     1.158789 -3.809453e-05   0.49004219 0.0093939402            0   0.48064825    1.7092138     2.199256  -0.40133064 
 2065000    1.0060439 -8.2465131e-05   0.35936145  0.023535023            0   0.33582643    1.4839147    1.8432761   -3.7863435 
 2070000    1.0133176 -1.3318201e-05   0.65043964 0.0050435903            0   0.64539605    1.4946435    2.1450831    1.2358939 
 2075000   0.87823086 -7.9418662e-05   0.35566296 0.0006051233            0   0.35505784    1.2953905    1.6510535   -3.7705939 
 2080000    1.0406117 -2.5018761e-05   0.52567701 9.5132537e-05            0   0.52558187    1.5349022    2.0605792   0.35263181 
 2085000   0.91624695 -3.5224838e-05   0.44763895  0.010951614            0   0.43668734    1.3514643    1.7991032  -0.60557904 
 2090000    1.0874762 -1.1214572e-05   0.53813424 0.0070542577            0   0.53107999    1.6040275    2.1421617    1.3765802 
 2095000   0.99880142 0.00011174164   0.51974882 0.0021743099            0   0.51757451    1.4732321    1.9929809    9.6212104 
 2100000    1.0519117 -7.8158784e-05   0.74954986 0.0032285899            0   0.74632127    1.5515697    2.3011196   -3.0345201 
 2105000    1.1018371 -6.7110391e-05   0.53729549 0.0081142393            0   0.52918125    1.6252098    2.1625053   -2.4188974 
 2110000    1.1279467 0.00013479373   0.66797615  0.010300231            0   0.65767592    1.6637214    2.3316976    11.533616 
 2115000    1.0222336 -0.00010122226   0.53961666  0.025577925            0   0.51403874    1.5077945    2.0474112    -4.862695 
 2120000    1.3337067 2.2914209e-06    0.4730299 0.0074866409            0   0.46554325    1.9672174    2.4402472    2.5966749 
 2125000   0.98402156 -6.6449927e-05    0.5079122  0.020824788            0   0.48708741    1.4514318     1.959344    -2.576971 
 2130000    1.1291154 1.8082347e-06   0.65601141 0.0020514902            0   0.65395992    1.6654452    2.3214566    2.4448988 
 2135000    1.0651703 0.00012386902   0.40211289 0.00012029483            0    0.4019926    1.5711262    1.9732391    10.429364 
 2140000     1.023538 4.5348783e-05   0.41889993  0.031746632            0    0.3871533    1.5097186    1.9286185    5.0244288 
 2145000   0.93633109 6.9179743e-06   0.66579061  0.033366255            0   0.63242436    1.3810884     2.046879     2.519146 
 2150000    1.0218657 -3.8142439e-05   0.38747781 0.0090823746            0   0.37839544    1.5072519    1.8947297  -0.70912751 
 2155000   0.95618936 7.2904893e-05   0.62532166 0.0044550441            0   0.62086662    1.4103793     2.035701     7.012675 
 2160000   0.93754538 1.5259454e-05   0.49631461  0.038794715            0    0.4575199    1.3828794    1.8791941    2.9209061 
 2165000   0.90015721 3.1959241e-05   0.46426801  0.054181317            0   0.41008669    1.3277319    1.7919999    3.9737508 
 2170000    1.0891942 3.1932339e-05    0.5019513   0.01190631            0   0.49004499    1.6065614    2.1085127     4.288427 
 2175000   0.89824134 6.137864e-05   0.50172872 0.0034236991            0   0.49830502     1.324906    1.8266347    6.0167499 
 2180000    1.1420843 0.00013665381   0.54812557  0.048247918            0   0.49987765    1.6845744       2.2327      11.5616 
 2185000    1.0201675 5.7128715e-05   0.45441469  0.018708305            0   0.43570638     1.504747    1.9591617    5.8591486 
 2190000    1.3493822 3.1757786e-05   0.57582226  0.038592329            0   0.53722993    1.9903387     2.566161    4.7341592 
 2195000    1.0592539 3.4131921e-05   0.47755953  0.023193788            0   0.45436574    1.5623995    2.0399591    4.3700315 
 2200000   0.85452999 4.1124952e-05   0.42862465  0.010591194            0   0.41803345    1.2604317    1.6890564    4.4965198 
 2205000    1.1049522 -2.4836197e-05   0.62831971  0.011789337            0   0.61653038    1.6298045    2.2581242   0.56263977 
 2210000    1.1383818 -4.5423143e-05    0.3495116  0.021429876            0   0.32808172    1.6791132    2.0286248   -1.0722618 
 2215000    1.0293043 -3.4634294e-05   0.46047483  0.028136036            0    0.4323388    1.5182239    1.9786987  -0.38566909 
 2220000    1.0004745 -7.9135129e-05   0.44413072 0.0015142957            0   0.44261642    1.4756999    1.9198306   -3.4824609 
 2225000   0.88823638 2.0948909e-05   0.52776207  0.036291711            0   0.49147036    1.3101487    1.8379107    3.2680229 
 2230000   0.96391754 -5.7015674e-05   0.52738543  0.028863377            0   0.49852206    1.4217784    1.9491638   -1.9431062 
 2235000     1.039693 7.8070153e-05   0.58081772  0.029965685            0   0.55085204    1.5335472    2.1143649    7.4439541 
 2240000    1.0804715 9.5145937e-05   0.54010627 0.0023879761            0   0.53771829    1.5936954    2.1338017    8.6290977 
 2245000   0.96012621 4.3339908e-05   0.48629452  0.021502389            0   0.46479213    1.4161862    1.9024807    4.8611517 
 2250000   0.94491293 -0.00016185694   0.64956857  0.039828668            0    0.6097399    1.3937466    2.0433151   -9.0061184 
 2255000   0.95222418 2.3735606e-05   0.41403052  0.032301925            0   0.38172859    1.4045307    1.8185612    3.4389119 
 2260000   0.96546735 -1.8907912e-05   0.54338689  0.035612115            0   0.50777477    1.4240643    1.9674512   0.67667106 
 2265000   0.93979264 9.4318438e-05   0.45148475   0.02164395            0    0.4298408    1.3861941    1.8376789    8.2764842 
 2270000    1.0648825 6.9348662e-05   0.71398815 0.0090597427            0    0.7049284    1.5707016    2.2846898    7.0188918 
 2275000     1.051916 -5.8648591e-05   0.38154602 0.0019450092            0   0.37960101    1.5515761    1.9331221   -2.0706217 
 2280000    1.0584758 7.0500215e-05   0.53566226  0.020430272            0   0.51523199    1.5612518     2.096914    6.9097287 
 2285000   0.94430762 1.3614653e-05    0.5752072  0.044692082            0   0.53051512    1.3928537    1.9680609    2.8974879 
 2290000    1.2087604 -0.00015415054   0.52521411  0.011462448            0   0.51375166    1.7829216    2.3081357   -8.2152075 
 2295000   0.87890739 -4.5118781e-05    0.6082916  0.055324129            0   0.55296747    1.2963884      1.90468   -1.1754288 
 2300000    1.1487463 -0.00010596262   0.50635266  0.060180918            0   0.44617174    1.6944007    2.2007534   -5.0329618 
 2305000    1.1315745 3.4949947e-05   0.72792821  0.044283575            0   0.68364463    1.6690724    2.3970006     4.782917 
 2310000   0.99300233 -7.1844354e-05   0.54851791   0.11335915            0   0.43515876    1.4646784    2.0131963   -2.8913782 
 2315000   0.97812587 5.2102169e-05   0.46930042  0.038158601            0   0.43114182    1.4427357    1.9120361    5.4688774 
 2320000   0.88195882 6.5235814e-05   0.60167379  0.010643151            0   0.59103064    1.3008893    1.9025631    6.3559946 
 2325000    1.1259237 -8.5099455e-05   0.46626726  0.012190977            0   0.45407628    1.6607375    2.1270048   -3.6824513 
 2330000   0.98967293 6.0621732e-05    0.4178133   0.03450925            0   0.38330405    1.4597676    1.8775809    6.0160244 
 2335000      1.04042 -3.5843808e-05   0.61948184 0.0096886138            0   0.60979323    1.5346194    2.1541013  -0.29283602 
 2340000    1.1327301 -8.4849408e-06   0.63573793  0.015341357            0   0.62039657     1.670777    2.3065149    1.7272763 
 2345000    1.2470371 3.7084091e-05    0.3690622  0.010216254            0   0.35884594    1.8393797    2.2084419    4.7400492 
 2350000    0.9362646 5.2324327e-05   0.47733338   0.02094331            0   0.45639007    1.3809903    1.8583237     5.430331 
 2355000   0.94053785 -3.0887329e-05   0.41628098 0.0027845852            0    0.4134964    1.3872933    1.8035743  -0.30500064 
 2360000    1.1870718 -5.7682813e-06   0.52906039 0.0015844138            0   0.52747598    1.7509309    2.2799913      1.88621 
 2365000   0.95420428 -4.2640291e-05   0.51281189 0.0013702925            0    0.5114416    1.4074513    1.9202632  -0.99064734 
 2370000   0.84243348 -3.3837524e-05   0.59028549  0.026805336            0   0.56348015    1.2425894    1.8328749  -0.47710007 
 2375000    1.1314765 -7.6461573e-05   0.61827785  0.025033814            0   0.59324404    1.6689279    2.2872057    -2.932571 
 2380000   0.93611559 -0.00012539631   0.68875226 0.00065150444            0   0.68810075    1.3807705    2.0695228   -6.4908657 
 2385000   0.91014392 -2.5721774e-05   0.56711369 5.2992715e-06            0   0.56710839    1.3424623     1.909576   0.15363617 
 2390000    1.0413284 -5.084166e-05   0.62434431 0.00096482113            0   0.62337948    1.5359594    2.1603037    -1.310487 
 2395000    1.0977783 -6.0463905e-05    0.5475076 0.0051588009            0    0.5423488     1.619223    2.1667306   -1.9609386 
 2400000     1.106231 4.4793753e-05   0.53439536  0.018703936            0   0.51569142    1.6316907    2.1660861    5.2240063 
 2405000    1.3439837 -2.380112e-05   0.48917307  0.010413717            0   0.47875935     1.982376     2.471549   0.84672592 
 2410000   0.81981992 2.8885984e-05   0.50572767  0.014321959            0   0.49140571    1.2092344    1.7149621    3.6869119 
 2415000    1.0914172 0.00011061293   0.51603645  0.043785596            0   0.47225086    1.6098404    2.1258769    9.6770527 
 2420000    1.2013301 1.3504399e-06   0.44732802 0.0088552402            0   0.43847278     1.771962      2.21929      2.31148 
 2425000   0.90331746 6.8053801e-05   0.48193958 0.0066763683            0   0.47526321    1.3323933    1.8143328     6.460139 
 2430000   0.89411107 -4.2506457e-07   0.35922999  0.013598607            0   0.34563139    1.3188138    1.6780438    1.6490261 
 2435000   0.96159953 -9.4165707e-05   0.48381261  0.030321546            0   0.45349107    1.4183593    1.9021719    -4.526207 
 2440000   0.89093808 -0.0001137504   0.45006548            0            0   0.45006548    1.3141337    1.7641991   -6.0011614 
 2445000   0.96901952 7.3917635e-05    0.4819954 0.0038719626            0   0.47812344    1.4293038    1.9112992    6.9574098 
 2450000    1.0993631 -2.8968829e-05   0.52658135  0.045924187            0   0.48065717    1.6215606    2.1481419   0.17053657 
 2455000    1.2515984 -0.00013928708   0.46277521   0.00693106            0   0.45584415    1.8461076    2.3088829   -7.1997816 
 2460000   0.97309284 -0.00012487976   0.48039666 0.0012901533            0   0.47910651    1.4353119    1.9157086    -6.609416 
 2465000   0.89914313 8.9199236e-06    0.3254158 0.0027409949            0    0.3226748    1.3262361    1.6516519    2.2605854 
 2470000   0.95228897 8.9668753e-05   0.61034908  0.033069496            0   0.57727958    1.4046262    2.0149753    8.1363621 
 2475000   0.96445288 6.0996914e-05   0.57360674  0.012502724            0   0.56110402     1.422568    1.9961747    6.1602307 
 2480000    1.0070662 -5.4366796e-05   0.52949764 0.0083759531            0   0.52112168    1.4854226    2.0149203   -1.6965197 
 2485000    1.1634352 6.0076758e-05   0.52508679  0.030256752            0   0.49483004    1.7160669    2.2411537    6.3423936 
 2490000    1.0782435 5.5749505e-05   0.53269726 0.0097753186            0   0.52292194    1.5904092    2.1231065    5.9289393 
 2495000   0.78074304  6.75877e-05    0.5299254  0.010606898            0    0.5193185     1.151596    1.6815214    6.2955084 
 2500000   0.95899496 2.8164583e-05   0.37027627 0.0033780087            0   0.36689827    1.4145176    1.7847938    3.7074961 
 2505000    1.0281644 2.6436398e-05   0.72517228 0.0022860832            0    0.7228862    1.5165426    2.2417148    4.0464396 
 2510000   0.99622725 -4.8895973e-05   0.62798257 0.00071649203            0   0.62726608    1.4694352    2.0974178   -1.2405473 
 2515000    1.1488472 -7.7979671e-05   0.63990616  0.010042873            0   0.62986329    1.6945497    2.3344558   -2.9889564 
 2520000    1.2326042 4.5416802e-05   0.49532811 0.0047963671            0   0.49053174    1.8180912    2.3134193     5.413873 
 2525000    1.1088869 -3.1468053e-05    0.6131593  0.023290332            0   0.58986897    1.6356081    2.2487674   0.10054834 
 2530000   0.93771368 -6.0459651e-05   0.62664617 0.0039729719            0    0.6226732    1.3831277    2.0097738    -2.117605 
 2535000   0.96561548 -2.8297465e-05   0.49436465  0.010019544            0   0.48434511    1.4242828    1.9186475 -0.013126123 
 2540000   0.99372843 1.1834682e-05   0.52403263  0.027546193            0   0.49648644    1.4657494    1.9897821    2.7976964 
 2545000   0.91398863 -1.1755661e-05   0.54433323 0.0081528217            0   0.53618041    1.3481332    1.8924665    1.0899467 
 2550000     1.112403 0.00015479263   0.41766301  0.018410896            0   0.39925211    1.6407945    2.0584575    12.625635 
 2555000    1.0737906 -3.3099295e-05   0.50528152  0.011284565            0   0.49399695    1.5838411    2.0891226  -0.17045588 
 2560000    1.1498821 -2.5416951e-05   0.51437544  0.009634164            0   0.50474128    1.6960761    2.2104516   0.47532107 
 2565000    1.0751292 -3.0055629e-05   0.56226381   0.04089385            0   0.52136996    1.5858156    2.1480794  0.096281765 
 2570000     1.112058 -9.4713262e-05   0.46481247  0.047316338            0   0.41749614    1.6402856     2.105098   -4.3606607 
 2575000   0.79948574 2.0480448e-06   0.72288452  0.091727071            0   0.63115745    1.1792415     1.902126    2.0419392 
 2580000   0.98725841 -4.121426e-05   0.40273121  0.013841758            0   0.38888945    1.4562062    1.8589374  -0.95462282 
 2585000    1.0764668 -2.2557881e-05   0.46430154  0.026813545            0     0.437488    1.5877885      2.05209   0.51213869 
 2590000    1.0807163 5.7205689e-05   0.32081499 0.0048510429            0   0.31596395    1.5940565    1.9148715    5.8201132 
 2595000   0.93554111 -5.4417794e-05   0.54725986 0.0013475341            0   0.54591232    1.3799231     1.927183   -1.7877384 
 2600000    1.0714277 0.00010536167   0.49919395 0.00013271332            0   0.49906124    1.5803559    2.0795498    9.2722396 
 2605000   0.96989669 -5.6214512e-05   0.57889979  0.014402805            0   0.56449698    1.4305976    2.0094974   -1.8280799 
 2610000   0.83253706 -3.2267463e-05   0.46006808  0.011027582            0   0.44904049    1.2279922    1.6880602  -0.51473191 
 2615000    1.1519929 1.9995358e-05   0.56509459  0.030654374            0   0.53444021    1.6991895    2.2642841    3.6293005 
 2620000    1.2158948 8.8653257e-05   0.54532176   0.02223398            0   0.52308778    1.7934448    2.3387665    8.3908289 
 2625000    1.0418459 2.5847681e-05   0.51996717 0.0073247895            0   0.51264238    1.5367227    2.0566899    3.8212249 
 2630000    1.1202046 -2.8885451e-05   0.51695948  0.019425626            0   0.49753386    1.6523018    2.1692612   0.19734777 
 2635000    1.1452463 -1.1141302e-05   0.48046479   0.03836797            0   0.44209682    1.6892383    2.1697031    1.4091236 
 2640000   0.91057715 -3.9023807e-05   0.49675367 0.0068646599            0   0.48988901    1.3431013     1.839855  -0.82417025 
 2645000   0.91687806 6.381687e-05   0.53506619 0.0046157328            0   0.53045046    1.3523951    1.8874613    6.2440263 
 2650000    1.0725672 5.8282166e-07   0.64016386  0.038408991            0   0.60175487    1.5820366    2.2222004    2.2619877 
 2655000    1.1124922 6.3507695e-05   0.63324628  0.009525985            0    0.6237203    1.6409261    2.2741723     6.609631 
 2660000    1.2044783 6.0940559e-05   0.49341585  0.047510676            0   0.44590518    1.7766056    2.2700214    6.4302302 
 2665000    1.1642764 7.4355744e-05   0.64626429  0.033261045            0   0.61300325    1.7173076    2.3635719    7.4395907 
 2670000     0.885052 2.5187359e-05    0.5854214  0.052601343            0   0.53282005    1.3054517    1.8908731    3.6103301 
 2675000   0.87824604 -4.7702831e-05   0.45211168   0.01452653            0   0.43758515    1.2954129    1.7475246   -1.5089887 
 2680000   0.99332081 -0.00011679118   0.50059893 0.0093775948            0   0.49122134    1.4651482    1.9657471   -6.0071973 
 2685000    1.3323117 1.1708318e-05   0.44282533            0            0   0.44282533    1.9651597     2.407985    3.2072728 
 2690000   0.97596316 4.1143338e-05   0.47706594 0.0003497628            0   0.47671617    1.4395457    1.9166116    4.7253301 
 2695000    1.0739372 2.751613e-05   0.52396938  0.017473884            0    0.5064955    1.5840573    2.1080267    3.9864612 
 2700000    1.1940907 0.00013691207   0.54884267  0.021805387            0   0.52703729    1.7612837    2.3101264    11.656657 
 2705000    1.2143663 0.00010460494   0.48006592  0.013305656            0   0.46676026    1.7911902    2.2712562    9.4122869 
 2710000    1.2027255 -3.3306907e-05   0.46424457 0.00098632568            0   0.46325825    1.7740202    2.2382647 -0.035486792 
 2715000   0.87393921 1.7510907e-05   0.54463468 0.0010174654            0   0.54361721    1.2890603     1.833695    3.0291062 
 2720000    1.1194566 -7.7541676e-06   0.58310715 0.0082545817            0   0.57485257    1.6511985    2.2343056    1.7049545 
 2725000    1.0644568 9.6503083e-05   0.54092789 0.0018512264            0   0.53907666    1.5700738    2.1110017    8.6989455 
 2730000    1.0718552 -0.00011201431   0.53464194 0.0010032836            0   0.53363866    1.5809864    2.1156284    -5.531215 
 2735000   0.96934222 -5.6660319e-05    0.5634692  0.057149106            0   0.50632009    1.4297798     1.993249   -1.8747621 
 2740000    1.1480026 -5.2742076e-05    0.5063762  0.038347773            0   0.46802842    1.6933038      2.19968   -1.4008457 
 2745000    1.1886152 6.7644126e-05   0.64889247  0.032486687            0   0.61640578    1.7532074    2.4020999    7.0199389 
 2750000     1.155109 0.00010822802   0.64304971 0.0041144749            0   0.63893524    1.7037858    2.3468356    9.7352017 
 2755000   0.98007259 1.3176882e-05   0.60536249 0.0027977956            0   0.60256469    1.4456071    2.0509696    2.9505113 
 2760000    1.0900871 3.3868049e-06   0.55052078  0.020728056            0   0.52979273    1.6078785    2.1583993    2.3896052 
 2765000    0.9638913 -4.1165503e-05   0.69093383  0.012269581            0   0.67866425    1.4217397    2.1126735  -0.69755818 
 2770000    1.1214122 5.9833098e-05   0.36700402  0.013876846            0   0.35312718     1.654083     2.021087    6.1056932 
 2775000    1.1502741 -6.6248231e-06   0.66314575  0.043763449            0    0.6193823    1.6966543       2.3598    1.9075454 
 2780000    1.0583464 -5.6965061e-05   0.60152374  0.018907927            0   0.58261582    1.5610609    2.1625847   -1.7262302 
 2785000   0.99660003 0.00010504536   0.63748823   0.06936733            0    0.5681209     1.469985    2.1074733    9.2785701 
 2790000    1.0848391 5.225738e-05   0.25682524  0.018238187            0   0.23858706    1.6001377    1.8569629       5.4244 
 2795000    1.1430949 -3.4496769e-05   0.55085246   0.02883336            0    0.5220191     1.686065    2.2369174    -0.118062 
 2800000   0.97576323 5.3975396e-05   0.47638142  0.037907874            0   0.43847355    1.4392508    1.9156322    5.6003525 
 2805000   0.92270367 8.4990176e-05   0.53807972  0.033522635            0   0.50455709    1.3609879    1.8990676    7.7010637 
 2810000     1.181128 7.3484405e-05   0.30858833 0.0097176019            0   0.29887073    1.7421639    2.0507522    7.0672876 
 2815000     1.076129 7.6471134e-10   0.44999426  0.021591917            0   0.42840234    1.5872902    2.0372845    2.0373367 
 2820000    1.0693485 7.0531991e-05   0.44050755            0            0   0.44050755    1.5772891    2.0177966    6.8327806 
 2825000     1.028097 -0.00010324177    0.6382467 0.0030428687            0   0.63520383    1.5164431    2.1546898   -4.8932818 
 2830000    1.0367158 -7.5369685e-05   0.45361404 0.0015105201            0   0.45210352    1.5291557    1.9827698   -3.1624674 
 2835000    1.1333125 0.0001288352   0.50605313  0.081542094            0   0.42451104     1.671636    2.1776891    10.972839 
 2840000   0.94540903 -5.6422005e-06   0.42120407 0.0025181957            0   0.41868587    1.3944783    1.8156824    1.4305082 
 2845000   0.87886104 -6.0155433e-05    0.4335241  0.024476056            0   0.40904805      1.29632    1.7298441   -2.3767667 
 2850000   0.96715189 0.00012331728   0.63661514  0.034565272            0   0.60204987     1.426549    2.0631642    10.481624 
 2855000    1.0444932 -9.6208026e-05   0.45204625  0.019100475            0   0.43294578    1.5406274    1.9926737   -4.5751275 
 2860000   0.91726753 -1.4538597e-05   0.42690962  0.030421616            0   0.39648801    1.3529696    1.7798792   0.78737769 
 2865000    1.1206721 7.7253314e-05   0.57389134  0.019042055            0   0.55484928    1.6529913    2.2268826    7.5007089 
 2870000    1.0634842 2.7080232e-05   0.42384724 0.0084686375            0    0.4153786    1.5686392    1.9924865    3.8411636 
 2875000   0.94625195 -3.7448645e-05   0.41522592  0.036118339            0   0.37910758    1.3957216    1.8109475  -0.74554663 
 2880000    1.0672771 -1.1437602e-05   0.57359968  0.053805182            0    0.5197945    1.5742338    2.1478335    1.3670265 
 2885000    1.0425253 -8.4215729e-05    0.5069152  0.023816719            0   0.48309848    1.5377249    2.0446401    -3.704487 
 2890000     1.020142 -4.8125557e-05   0.65368842  0.019640865            0   0.63404756    1.5047094    2.1583978   -1.1269735 
 2895000   0.86060179 5.6035154e-05   0.43530318  0.037995784            0   0.39730739    1.2693876    1.7046908     5.530024 
 2900000    1.2137144 6.1881517e-05   0.40977563 0.0077846552            0   0.40199097    1.7902287    2.2000044    6.4244492 
 2905000    1.0656974 6.1750468e-06    0.4546403  0.030721391            0   0.42391891    1.5719036    2.0265439    2.4480938 
 2910000    1.1363852 -1.8143115e-05   0.45983711 0.0084388806            0   0.45139823    1.6761681    2.1360052   0.89743526 
 2915000    1.1642681 -8.581509e-05   0.58367455  0.010785625            0   0.57288892    1.7172954      2.30097   -3.5573402 
 2920000    1.1194357 3.774755e-06   0.34526801            0            0   0.34526801    1.6511677    1.9964357    2.2541257 
 2925000    1.0480257 0.00016587515   0.45758129  0.023044486            0   0.43453681     1.545838    2.0034193    13.327163 
 2930000   0.90638511 -3.4430885e-06   0.53269241 0.0073763348            0   0.52531607     1.336918    1.8696104    1.6345623 
 2935000    1.0574187 1.7038118e-05   0.38488227  0.038661594            0   0.34622067    1.5596926    1.9445749    3.1077104 
 2940000   0.93584488 8.8574017e-05   0.57303485 0.0083873309            0   0.56464751    1.3803712     1.953406    8.0000589 
 2945000    1.0198773 4.3717304e-05   0.45912565 0.00096573636            0   0.45815992    1.5043191    1.9634447    4.9478794 
 2950000    1.1164248 1.0420998e-05   0.44324127  0.010212554            0   0.43302871    1.6467266    2.0899679    2.8013747 
 2955000   0.87558798 -8.9971163e-05   0.57581231            0            0   0.57581231    1.2914923    1.8673046   -4.2747268 
 2960000   0.81348159 4.0364166e-05   0.55063003  0.012851784            0   0.53777824    1.1998854    1.7505154    4.5060424 
 2965000     1.078096 -3.9268794e-05   0.46533638 0.0089866198            0   0.45634976    1.5901916     2.055528  -0.62522169 
 2970000    0.9968502 -2.9631144e-05   0.52389485  0.018219255            0    0.5056756     1.470354    1.9942489 -0.028570562 
 2975000    1.1504982 7.2315072e-05   0.54945221 0.0057718635            0   0.54368035    1.6969849    2.2464371     7.183146 
 2980000   0.94657519 4.3507178e-05   0.41202141 0.00044282932            0   0.41157858    1.3961984    1.8082198    4.7783098 
 2985000   0.94816835 -8.3939705e-05   0.54817555 0.0018375481            0     0.546338    1.3985483    1.9467239     -3.78356 
 2990000    1.1561152 -1.931326e-06   0.53834737  0.012696907            0   0.52565047      1.70527    2.2436173    2.1117721 
 2995000   0.96335242 -5.6978929e-06   0.62186449  0.015959157            0   0.60590533    1.4209448    2.0428093    1.6538332 
 3000000     1.186501 3.0621648e-05   0.52118774  0.011302652            0   0.50988509    1.7500889    2.2712767    4.3617145 
 3005000   0.84840872 1.5015543e-05   0.59996335 0.0073057768            0   0.59265757    1.2514029    1.8513662    2.8764273 
 3010000    1.0660056 -2.07338e-05   0.51927903  0.010133175            0   0.50914586    1.5723583    2.0916374   0.67620998 
 3015000   0.91844302 -7.419499e-05   0.43430372 0.0073978816            0   0.42690584    1.3547035    1.7890072   -3.2760374 
 3020000   0.85675374 4.2777301e-05   0.53336879    0.0313965            0   0.50197229    1.2637118    1.7970806    4.7173443 
 3025000   0.88074295 2.8496473e-05   0.36302908 0.0072153409            0   0.35581374    1.2990958    1.6621249    3.6074841 
 3030000    1.1902406 -1.2520045e-05   0.54728468  0.035172898            0   0.51211178    1.7556049    2.3028896    1.4481879 
 3035000   0.99327699 1.0814093e-05   0.40786076 0.0076263216            0   0.40023444    1.4650836    1.8729443    2.6111864 
 3040000    1.1036723 3.7726202e-05   0.48274336 0.0092846106            0   0.47345875    1.6279166    2.1106599     4.686102 
 3045000    1.1402295 6.3166067e-05   0.41765623   0.03066058            0   0.38699565    1.6818384    2.0994947    6.4116315 
 3050000    1.0455296 4.6607541e-05   0.47808543  0.015687939            0   0.46239749    1.5421561    2.0202415     5.201983 
 3055000    1.0850666 0.00013478013   0.47594172  0.014631555            0   0.46131016    1.6004732    2.0764149    11.277405 
 3060000    1.0927573 -5.983439e-05   0.36022646 7.8475985e-05            0   0.36014798    1.6118171    1.9720435   -2.1126508 
 3065000   0.95532646 3.5518145e-05   0.45935595  0.018976971            0   0.44037898    1.4091065    1.8684625    4.2931678 
 3070000   0.99655002 -9.0765719e-05   0.44780357 0.0061088243            0   0.44169474    1.4699113    1.9177149   -4.2785582 
 3075000    1.0338797 8.6878334e-06   0.49055734  0.030496586            0   0.46006076    1.5249726    2.0155299    2.6086193 
 3080000   0.97765426 1.2396375e-05   0.45166743  0.022859769            0   0.42880766      1.44204    1.8937075    2.7399667 
 3085000    1.1362176 -1.6233242e-05   0.36767678  0.010333322            0   0.35734345    1.6759209    2.0435977   0.93540839 
 3090000    1.1675509 2.1790898e-05   0.39227131 0.0042962697            0   0.38797504    1.7221376    2.1144089    3.6020009 
 3095000   0.90141109 4.9319731e-06   0.44496479 0.0018672769            0   0.44309752    1.3295814    1.7745462    2.1112355 
 3100000    1.1681399 -5.8977133e-05   0.41980934 0.0096733895            0   0.41013595    1.7230063    2.1428156   -1.8833566 
 3105000    1.0103379 -9.5292809e-06   0.40909166 0.0065315298            0   0.40256013    1.4902485    1.8993401    1.2488079 
 3110000    1.0333812 4.6074452e-05   0.48545462 0.0076755863            0   0.47777904    1.5242372    2.0096918    5.1550411 
 3115000    1.1328905 -6.8684159e-05   0.36593401  0.015122588            0   0.35081143    1.6710135    2.0369475   -2.6518911 
 3120000   0.92821878 3.2570982e-05    0.4596127  0.032418678            0   0.42719402    1.3691227    1.8287354    4.0522478 
 3125000    1.0690808 0.00011763039   0.39748501 0.00056764099            0   0.39691737    1.5768943    1.9743793    10.004614 
 3130000    1.0510663 0.00010847816   0.38919468 0.0017619784            0    0.3874327    1.5503228    1.9395175    9.3449597 
 3135000   0.97821039 -5.7172605e-05   0.46761354  0.015054791            0   0.45255875    1.4428603    1.9104739   -1.9925093 
 3140000    1.1657929 -4.7716913e-05   0.51331045  0.016361181            0   0.49694927    1.7195445    2.2328549   -1.0246196 
 3145000    1.1896472 3.9925745e-05   0.38340767 0.0013068909            0   0.38210077    1.7547296    2.1381373    4.8637347 
 3150000   0.91320399 -8.8080966e-05    0.3273031  0.013209987            0   0.31409311    1.3469759     1.674279    -4.338715 
 3155000     1.039498 -4.3074012e-05   0.43293345  0.045970642            0   0.38696281    1.5332596     1.966193  -0.97432615 
 3160000   0.97114179 1.9257131e-06   0.47550214 0.0070019102            0   0.46850023    1.4324341    1.9079363    2.0393983 
 3165000    1.0607938 1.7461308e-05    0.5805324 0.0084863687            0   0.57204603    1.5646709    2.1452033    3.3372286 
 3170000    1.0881656 -2.6993369e-05   0.52607299   0.02833583            0   0.49773716    1.6050442    2.1311172   0.28836988 
 3175000    0.9154997 2.970662e-05   0.55948138 0.0096561148            0   0.54982527    1.3503621    1.9098434    3.9378154 
 3180000   0.89746104 0.00010924176   0.43325552  0.041004989            0   0.39225053     1.323755    1.7570106    9.2145813 
 3185000   0.96376811 -2.7505374e-05   0.47860025 0.0040370523            0    0.4745632     1.421558    1.9001582  0.022458009 
 3190000    1.1485529 3.8712475e-06   0.41738333  0.046839843            0   0.37054349    1.6941155    2.1114988     2.375776 
 3195000    1.0715281 8.5899551e-05   0.57858887 0.0027922304            0   0.57579664    1.5805039    2.1590928    8.0231688 
 3200000     1.047998 4.1434146e-05   0.50910221  0.068576596            0   0.44052561     1.545797    2.0548992    4.8834703 
 3205000    1.1184147 3.1955525e-05   0.50544218 0.0019986181            0   0.50344356    1.6496617    2.1551039    4.3366011 
 3210000   0.97690123 2.1806937e-06   0.43910939  0.030654941            0   0.40845444    1.4409293    1.8800387    2.0289074 
 3215000   0.96337542 -3.5914913e-05   0.45901513  0.033912345            0   0.42510279    1.4209787    1.8799939  -0.57179754 
 3220000    1.0129281 6.4453475e-05   0.42599696  0.012771423            0   0.41322554     1.494069    1.9200659    6.3200898 
 3225000    1.1168748 5.596082e-05   0.63550059  0.042856514            0   0.59264408    1.6473903    2.2828909    6.1031495 
 3230000    1.0696932 7.4440124e-05   0.52400124  0.025663297            0   0.49833794    1.5777975    2.1017987    7.1835779 
 3235000   0.89514016 7.3691925e-06   0.42160315  0.023388938            0   0.39821421    1.3203317    1.7419349    2.2450051 
 3240000    1.1501521 0.00010366046   0.53744442   0.01403095            0   0.52341347    1.6964743    2.2339187    9.3104724 
 3245000     0.877786 -5.1157333e-06   0.52623195  0.024724935            0   0.50150702    1.2947344    1.8209663    1.4717323 
 3250000    1.0381009 1.4992281e-05   0.32392613 0.00027462697            0    0.3236515    1.5311988    1.8551249     2.878598 
 3255000   0.88317295 -2.1993025e-05   0.49404018 0.0099577322            0   0.48408245    1.3026801    1.7967203   0.29532977 
 3260000    1.0963535 2.5404098e-05   0.33231566  0.037538019            0   0.29477764    1.6171214    1.9494371    3.6836902 
 3265000   0.97534657 -2.3072149e-05   0.59080242   0.03015616            0   0.56064626    1.4386362    2.0294386   0.45437993 
 3270000    0.8027285 -5.0769346e-05   0.49981841 0.0085085729            0   0.49130984    1.1840245    1.6838429   -1.7820111 
 3275000    1.0039707 0.00010358692    0.4214046 0.0079999623            0   0.41340464    1.4808568    1.9022614    8.9737955 
 3280000    1.0692639 1.3374961e-05   0.49766206  0.035246591            0   0.46241547    1.5771642    2.0748263    2.9878903 
 3285000    1.0699629 6.6343567e-05   0.51077446  0.012086627            0   0.49868783    1.5781953    2.0889698     6.618024 
 3290000   0.95286596 -3.1416791e-05   0.40472197  0.052700789            0   0.35202118    1.4054773    1.8101993  -0.33452032 
 3295000    1.0703873 7.3651997e-05   0.41517551  0.014742425            0   0.40043309    1.5788213    1.9939968    7.0219731 
 3300000    1.0728259 2.6583866e-05    0.6313429  0.033428038            0   0.59791487    1.5824182    2.2137611     4.028553 
 3305000    1.0894536 7.4738541e-05   0.41890542 0.0017881836            0   0.41711723     1.606944    2.0258494    7.1280005 
 3310000    1.0481484 7.482264e-06   0.32815634            0            0   0.32815634    1.5460189    1.8741752    2.3849644 
 3315000    1.1028957 2.0916418e-05   0.46116689   0.03290728            0   0.42825961    1.6267712    2.0879381    3.5158322 
 3320000    1.1782078 -2.6528958e-05   0.53977649  0.026691047            0   0.51308544    1.7378566    2.2776331    0.4665895 
 3325000   0.83554544 -7.104855e-05   0.45809964  0.043777085            0   0.41432255    1.2324295    1.6905292   -3.1597185 
 3330000    1.0893399 -3.5648539e-05   0.38550151 0.0081787676            0   0.37732274    1.6067763    1.9922778  -0.44132916 
 3335000     1.013444 -0.00013551717   0.65061094  0.035565844            0    0.6150451    1.4948298    2.1454408   -7.1058645 
 3340000   0.98143715 7.7233011e-05   0.62008791   0.10508599            0   0.51500192    1.4476198    2.0677077    7.3401479 
 3345000   0.86995243 3.0282485e-05   0.62087951  0.047442245            0   0.57343726    1.2831798    1.9040593    3.9713437 
 3350000   0.88375075 -1.7699582e-05   0.52705496  0.025981747            0   0.50107321    1.3035324    1.8305873   0.62229587 
 3355000   0.95803006 -4.8751986e-05   0.64822004  0.001731365            0   0.64648868    1.4130943    2.0613144   -1.2668212 
 3360000    0.9601542 -5.3054066e-06   0.56115668  0.016956901            0   0.54419978    1.4162274    1.9773841    1.6152017 
 3365000    1.2173191 -8.0270237e-05   0.58658666  0.019689447            0   0.56689721    1.7955456    2.3821323   -3.0976493 
 3370000   0.93148104 3.5515113e-05   0.61669176  0.013405992            0   0.60328577    1.3739345    1.9906263    4.4151247 
 3375000   0.91785585 0.0001335671   0.56017223  0.038502038            0   0.52167019    1.3538374    1.9140096     11.03219 
 3380000   0.83789428 -0.00010748966   0.40978432  0.038919253            0   0.37086506    1.2358941    1.6456784   -5.6922825 
 3385000   0.88362576 0.00011420816   0.44803005            0            0   0.44803005     1.303348     1.751378    9.5479883 
 3390000    1.0908179 9.788691e-05   0.47993797  0.028807392            0   0.45113057    1.6089564    2.0888943    8.7713074 
 3395000    1.1499816 2.3807702e-05   0.42680579  0.016875829            0   0.40992996    1.6962229    2.1230287    3.7483012 
 3400000   0.83624298 -5.36438e-05   0.57314203  0.013672864            0   0.55946917    1.2334584    1.8066004    -1.855483 
 3405000   0.89292935 -7.7313833e-05   0.52456388 0.00093116304            0   0.52363272    1.3170708    1.8416347    -3.436323 
 3410000    1.2034317 -7.7450661e-05   0.58205476  0.023975946            0   0.55807882    1.7750618    2.3571166   -2.9301818 
 3415000    1.0450624 -1.3034855e-05   0.64461708  0.016747082            0      0.62787    1.5414671    2.1860841    1.2962381 
 3420000   0.95569748 -0.00010905934   0.56166404  0.036220167            0   0.52544387    1.4096538    1.9713178   -5.4737995 
 3425000    1.0876844 7.2123347e-05   0.46800109  0.026046392            0    0.4419547    1.6043344    2.0723355     6.995956 
 3430000   0.95435421 3.2523923e-06   0.50020749  0.031849024            0   0.46835847    1.4076725      1.90788    2.1299099 
 3435000    1.0050734 7.2265656e-05   0.50679098  0.026645218            0   0.48014576    1.4824833    1.9892743    6.9226098 
 3440000    1.0922999 1.1620513e-05   0.63440378   0.02761068            0    0.6067931    1.6111424    2.2455462    3.0388399 
 3445000   0.90975086 1.3267855e-05   0.51883671  0.023580135            0   0.49525657    1.3418825    1.8607192    2.7664715 
 3450000    1.1394347 -9.7922117e-05   0.49320922  0.047392067            0   0.44581716    1.6806662    2.1738755   -4.5109411 
 3455000   0.84461778 4.1798128e-05   0.45723437 0.0034850411            0   0.45374932    1.2458112    1.7030456    4.5564645 
 3460000    1.0481654 4.2764042e-05   0.48432552 0.0015148191            0    0.4828107     1.546044    2.0303695    4.9497281 
 3465000    1.1693827 -6.6779547e-05   0.41717889  0.012761061            0   0.40441783    1.7248394    2.1420183   -2.4167987 
 3470000   0.95463367 4.4835987e-06   0.43921567  0.025699135            0   0.41351653    1.4080847    1.8473003    2.1533807 
 3475000   0.94710811 -8.5543432e-05   0.53946604   0.02239875            0   0.51706729    1.3969845    1.9364505   -3.9033145 
 3480000   0.96541193 6.5915057e-05   0.60501221  0.039244864            0   0.56576734    1.4239826    2.0289948    6.5287961 
 3485000    1.1204039 -0.0001119769    0.4815678  0.012442259            0   0.46912554    1.6525957    2.1341635   -5.5101261 
 3490000    1.1040621 -9.8381269e-05   0.51109074   0.02027997            0   0.49081077    1.6284916    2.1395823    -4.576579 
 3495000    1.1190327 -2.1722565e-05   0.52790425  0.020895082            0   0.50700916    1.6505733    2.1784775   0.69555042 
 3500000    1.1953042 0.00010266441   0.53187287  0.010540033            0   0.52133283    1.7630737    2.2949466    9.3035034 
 3505000   0.95214708 6.8784702e-05   0.41626192  0.019044095            0   0.39721782    1.4044169    1.8206789    6.5163812 
 3510000    0.8573322 1.6463682e-05   0.61328065  0.032823433            0   0.58045721     1.264565    1.8778456    3.0017663 
 3515000   0.91681518 8.2914754e-05    0.6170818  0.086846235            0   0.53023557    1.3523024    1.9693842     7.629698 
 3520000   0.85804743 7.3632273e-05    0.5176658   0.02867706            0   0.48898874      1.26562    1.7832858    6.8099156 
 3525000    1.1449102 0.00013627139   0.52016256 0.00053418173            0   0.51962838    1.6887425    2.2089051    11.511699 
 3530000   0.80681243 -7.0609867e-06   0.60886124  0.039195431            0   0.56966581    1.1900483    1.7989096    1.3168795 
 3535000   0.95315236 -2.0801328e-05   0.53643982  0.011073983            0   0.52536584    1.4058997    1.9423396   0.52230222 
 3540000    0.9221356 -5.8621871e-05   0.62856476  0.010729376            0   0.61783539      1.36015    1.9887148    -2.013205 
 3545000   0.96477157 -8.1016154e-05    0.4623998  0.002138381            0   0.46026142    1.4230381    1.8854379   -3.6452649 
 3550000   0.96313581 -4.2246402e-05   0.64983627 0.0010626367            0   0.64877364    1.4206253    2.0704616  -0.81355945 
 3555000    1.0031315 3.3914767e-05   0.57619105  0.022920787            0   0.55327026    1.4796189      2.05581     4.371058 
 3560000   0.94084462 8.1807854e-05   0.47117039    0.0512606            0   0.41990979    1.3877458    1.8589162    7.4436657 
 3565000   0.77887752 9.0595565e-05    0.3700532 0.0085704393            0   0.36148276    1.1488443    1.5188975    7.7035548 
 3570000   0.99801096 1.4794624e-05   0.51129357  0.053231249            0   0.45806232    1.4720662    1.9833597    2.9933394 
 3575000    1.1098945 -1.1597485e-05   0.50415096  0.025191877            0   0.47895908    1.6370944    2.1412454    1.3495238 
 3580000    1.0004138 0.00014375374   0.63776585  0.055040679            0   0.58272517    1.4756104    2.1133763    11.926965 
 3585000     1.030455 2.6039407e-05   0.55825251  0.038625592            0   0.51962691    1.5199212    2.0781737    3.8557972 
 3590000    1.1782401 8.0527813e-05   0.42095779            0            0   0.42095779    1.7379042     2.158862    7.6562273 
 3595000    1.1315886 -7.7658821e-05   0.55580708 0.0069411132            0   0.54886597    1.6690931    2.2249002   -3.0766086 
 3600000    1.0587809 4.2475541e-05   0.31688223  0.019320763            0   0.29756147    1.5617019    1.8785841    4.7782477 
 3605000    1.0368216 4.2085439e-05   0.65517443 0.0096294412            0   0.64554499    1.5293118    2.1844862    5.0575189 
 3610000    1.2383772 -6.2978144e-05   0.43656568  0.010250802            0   0.42631488    1.8266064    2.2631721   -2.0361358 
 3615000    0.8760955 8.3777577e-05   0.35759626  0.002205681            0   0.35539058    1.2922409    1.6498371    7.3690531 
 3620000   0.96228779 -5.9965141e-05   0.51221223 0.0016246287            0    0.5105876    1.4193745    1.9315867   -2.1620336 
 3625000   0.98050304 1.0602778e-05   0.48774114  0.023976485            0   0.46376466     1.446242    1.9339831    2.6577994 
 3630000   0.78861923 5.0346721e-05   0.47186866  0.011615584            0   0.46025308    1.1632134     1.635082    5.0720849 
 3635000    1.0339376 -1.6412805e-05   0.34060164   0.01181658            0   0.32878506     1.525058    1.8656596   0.74521211 
 3640000   0.89945984 -6.2547112e-05   0.56101316  0.013486673            0   0.54752648    1.3267033    1.8877164   -2.3821664 
 3645000    1.2077315 -3.5594808e-05   0.42931204  0.024226463            0   0.40508558    1.7814039     2.210716  -0.21922292 
 3650000     1.066531 -1.2778694e-05   0.43160493 0.0099875319            0   0.42161739    1.5731332    2.0047381    1.1323793 
 3655000   0.79262063 8.4455365e-05   0.64647988  0.010743563            0   0.63573632    1.1691154    1.8155953    7.5810816 
 3660000    1.2744396 -4.0377486e-05    0.5871439  0.017666387            0   0.56947751    1.8797984    2.4669423  -0.28949401 
 3665000   0.97525347 3.5387483e-05   0.61893395  0.031465528            0   0.58746843    1.4384989    2.0574328    4.4732183 
 3670000    1.1689216 5.074934e-05   0.56414501  0.092222422            0   0.47192259    1.7241594    2.2883044    5.7527927 
 3675000   0.94719238 -1.1043874e-05   0.27695837 0.0034425203            0   0.27351585    1.3971088    1.6740671   0.92013864 
 3680000   0.87698325 -0.00010464433   0.50632677 0.0048071961            0   0.50151957    1.2935503    1.7998771   -5.3438428 
 3685000    0.9755197 -7.6286036e-05   0.48418971  0.022226213            0   0.46196349    1.4388916    1.9230813   -3.2847121 
 3690000   0.96782141 -2.958385e-05   0.47474744  0.066689057            0   0.40805838    1.4275366     1.902284  -0.11730684 
 3695000    1.0387801 1.0378286e-05   0.48499668            0            0   0.48499668    1.5322007    2.0171973    2.7256883 
 3700000   0.88703517 -4.1095061e-05   0.47439946  0.021485882            0   0.45291358    1.3083769    1.7827763   -1.0226465 
 3705000   0.97112847 -1.941779e-06   0.41680266  0.021015971            0   0.39578669    1.4324145    1.8492172    1.7166584 
 3710000   0.87789353 -8.7892258e-06   0.38225842  0.027841807            0   0.35441662     1.294893    1.6771514    1.0771402 
 3715000   0.97114298 -6.2786571e-05    0.5754766  0.046073157            0   0.52940344    1.4324359    2.0079125   -2.2783174 
 3720000    1.1406669 1.9873622e-05   0.39600604  0.027141036            0   0.36886501    1.6824837    2.0784898    3.4351957 
 3725000     1.113039 2.6993507e-06   0.46495763 0.0098545832            0   0.45510305    1.6417326    2.1066902    2.2909659 
 3730000    1.2021085 1.0267365e-05   0.39920579  0.030374514            0   0.36883128      1.77311    2.1723158    2.8732346 
 3735000   0.97135039 -4.8468572e-05   0.41371958  0.018648312            0   0.39507127    1.4327418    1.8464614   -1.4623265 
 3740000   0.84089632 0.00012018625   0.66663817  0.084773228            0   0.58186494    1.2403221    1.9069602    10.111675 
 3745000    1.0259482 1.290224e-05   0.49582052   0.07104832            0    0.4247722    1.5132736    2.0090941     2.889887 
 3750000    1.0004245 -6.966794e-05    0.3937713  0.012840308            0   0.38093099    1.4756262    1.8693975   -2.8866006 
 3755000    0.8841375 -5.9909597e-05   0.55360237  0.027250828            0   0.52635154    1.3041028    1.8577052   -2.2321233 
 3760000   0.99385959 -3.573784e-05   0.46201223 0.00075164233            0   0.46126059    1.4659429    1.9279551  -0.51174807 
 3765000   0.97088393 1.9029478e-06   0.44103345  0.035592889            0   0.40544056    1.4320538    1.8730872    2.0029951 
 3770000   0.97164911 0.00010244411   0.37693398  0.020184316            0   0.35674967    1.4331824    1.8101164    8.8036345 
 3775000    1.0011636 3.2135752e-05   0.42166193 0.0038856871            0   0.41777625    1.4767163    1.8983783    4.0921789 
 3780000    1.0750624 8.0983619e-05   0.48061108  0.010904948            0   0.46970613    1.5857171    2.0663281    7.5948098 
 3785000   0.92292903 -7.4231449e-05   0.63115343 0.0072675925            0   0.62388584    1.3613203    1.9924738   -3.0750599 
 3790000    1.1683161 -6.3503209e-05   0.42780402            0            0   0.42780402    1.7232662    2.1510702   -2.1840822 
 3795000   0.98815459 -4.6879315e-06   0.43124471  0.026555725            0   0.40468899     1.457528    1.8887727    1.5687433 
 3800000   0.84737095 -2.4176897e-05   0.53341713  0.003007383            0   0.53040975    1.2498722    1.7832893   0.13281309 
 3805000   0.87075728 -5.574429e-05   0.50401664   0.02953867            0   0.47447797     1.284367    1.7883836   -2.0170932 
 3810000   0.87881628 -8.1150788e-06   0.48561345  0.042333002            0   0.44328045     1.296254    1.7818675    1.2278781 
 3815000   0.92789669 2.2725366e-05   0.38285611  0.012735063            0   0.37012105    1.3686476    1.7515037    3.3028887 
 3820000   0.99086229 8.4973242e-05   0.43009201  0.030235906            0   0.39985611    1.4615219    1.8916139    7.6924539 
 3825000    1.0440293 -9.1233414e-05   0.66614542 0.00082767924            0   0.66531774    1.5399432    2.2060886   -4.0221124 
 3830000    1.0918525 -6.0709339e-05   0.61010301  0.027590853            0   0.58251215    1.6104825    2.2205855   -1.9238388 
 3835000   0.83646788 2.0887848e-05   0.51184946  0.016577798            0   0.49527167    1.2337901    1.7456396    3.1715833 
 3840000    1.0201484 8.8361047e-05   0.58316202  0.022528302            0   0.56063372    1.5047189    2.0878809    8.1199951 
 3845000     1.167941 3.1684966e-05    0.4010245  0.010064123            0   0.39096038    1.7227129    2.1237375    4.2867644 
 3850000     1.010851 -6.2498337e-05   0.47457048  0.016312447            0   0.45825803    1.4910052    1.9655756   -2.3009775 
 3855000    1.0809015 0.00011642567   0.50222637  0.019082212            0   0.48314415    1.5943297     2.096556    10.044549 
 3860000   0.89596122 -9.2277417e-07   0.51091502  0.062096386            0   0.44881863    1.3215428    1.8324578    1.7694631 
 3865000    1.2023791 -5.5589251e-05   0.42635158 0.0017009364            0   0.42465065    1.7735091    2.1998607   -1.5950321 
 3870000    1.2244512 6.3894141e-05   0.56484529  0.003269764            0   0.56157552    1.8060655    2.3709108    6.7327508 
 3875000   0.96624612 -9.6941753e-05    0.5355485 0.0047220002            0    0.5308265     1.425213    1.9607615   -4.6571288 
 3880000   0.97354116 0.0001348083   0.62970426  0.033887618            0   0.59581664    1.4359732    2.0656775    11.268591 
 3885000   0.98976243 -4.7628356e-05   0.60310117  0.033588612            0   0.56951256    1.4598996    2.0630008   -1.1884283 
 3890000    1.0905992 4.2743977e-05   0.44699198  0.009387874            0    0.4376041    1.6086339    2.0556258    4.9736147 
 3895000    1.1028814 1.4185943e-05     0.379955 0.00080397958            0   0.37915102      1.62675     2.006705    2.9751321 
 3900000   0.98416192 -6.2341507e-05   0.55316394 0.00063709006            0   0.55252685    1.4516388    2.0048028   -2.2510441 
 3905000    0.9948383 4.8692905e-05   0.49222824   0.01730502            0   0.47492321    1.4673865    1.9596147     5.283717 
 3910000   0.82769057 3.9302815e-05   0.54304004  0.049994612            0   0.49304543    1.2208436    1.7638836    4.4469558 
 3915000   0.87865512 -3.8911819e-05   0.41411707 0.0035595066            0   0.41055756    1.2960163    1.7101334  -0.94624682 
 3920000      0.97937 -4.7131547e-05   0.50508419 0.0020008666            0   0.50308332    1.4445708    1.9496549   -1.2678586 
 3925000   0.95500963 -9.060123e-05   0.42177841 0.0073083236            0   0.41447009    1.4086392    1.8304176   -4.3546264 
 3930000   0.93258348 -8.6120558e-05   0.58666651  0.006024971            0   0.58064154    1.3755606    1.9622271   -3.9169363 
 3935000    1.1467937 -6.8105776e-05   0.46979727  0.024443067            0   0.44535421    1.6915207     2.161318   -2.4880363 
 3940000   0.75811125 5.2881953e-05   0.57350558  0.023769999            0   0.54973558    1.1182141    1.6917197    5.3017943 
 3945000    1.0078924 -6.3468232e-05   0.60983433  0.027847845            0   0.58198648    1.4866413    2.0964756    -2.236289 
 3950000    1.1600738 1.6023335e-05    0.5888417  0.044352973            0   0.54448873    1.7111089    2.2999506    3.3938103 
 3955000    1.0939343 4.8100882e-05   0.42622084  0.029923718            0   0.39629712    1.6135531    2.0397739    5.3234608 
 3960000   0.91193662 6.2653698e-05   0.39123947  0.012343607            0   0.37889586    1.3451065     1.736346    6.0135051 
 3965000     1.217466 -5.4813983e-05   0.56383704 0.0077661936            0   0.55607085    1.7957623    2.3595993   -1.3823685 
 3970000    1.0710387 -7.2420221e-05   0.45399371  0.024299946            0   0.42969376     1.579782    2.0337757   -2.9101114 
 3975000    1.0899061 4.491609e-05   0.59283609 0.0010736939            0   0.59176239    1.6076115    2.2004476    5.2667193 
 3980000    1.0392051 4.7493853e-05   0.55357135  0.011553299            0   0.54201805    1.5328276    2.0863989    5.3286459 
 3985000    1.1392971 6.1949888e-05   0.52522351  0.026145359            0   0.49907815    1.6804633    2.2056868    6.4347991 
 3990000   0.99787077 6.587626e-05   0.60065229  0.071278329            0   0.52937396    1.4718594    2.0725117    6.5696644 
 3995000   0.98982109 -8.153976e-05   0.38389262 0.0016371974            0   0.38225542    1.4599861    1.8438787   -3.7225689 
 4000000    1.0976218 0.00010094258    0.5483764  0.027779371            0   0.52059702    1.6189922    2.1673685    9.0583819 
Loop time of 227.442 on 1 procs for 2000000 steps with 60 atoms

Performance: 759754.813 tau/day, 8793.458 timesteps/s
97.9% CPU use with 1 MPI tasks x no OpenMP threads

MPI task timing breakdown:
Section |  min time  |  avg time  |  max time  |%varavg| %total
---------------------------------------------------------------
Pair    | 0.77269    | 0.77269    | 0.77269    |   0.0 |  0.34
Bond    | 1.9334     | 1.9334     | 1.9334     |   0.0 |  0.85
Neigh   | 192.83     | 192.83     | 192.83     |   0.0 | 84.78
Comm    | 26.717     | 26.717     | 26.717     |   0.0 | 11.75
Output  | 0.044217   | 0.044217   | 0.044217   |   0.0 |  0.02
Modify  | 4.4808     | 4.4808     | 4.4808     |   0.0 |  1.97
Other   |            | 0.6612     |            |       |  0.29

Nlocal:        60.0000 ave          60 max          60 min
Histogram: 1 0 0 0 0 0 0 0 0 0
Nghost:        0.00000 ave           0 max           0 min
Histogram: 1 0 0 0 0 0 0 0 0 0
Neighs:        24.0000 ave          24 max          24 min
Histogram: 1 0 0 0 0 0 0 0 0 0

Total # of neighbors = 24
Ave neighs/atom = 0.4
Ave special neighs/atom = 5.8000000
Neighbor list builds = 38141
Dangerous builds = 0
write_restart restart.rerun.1
System init for write_restart ...
WARNING: Communication cutoff 1.4200000000000002 is shorter than a bond length based estimate of 1.8. This may lead to errors. (../comm.cpp:667)
#--------------End of Input file ------------------
Total wall time: 0:03:47
