LAMMPS (29 Oct 2020)
###################### polyelectrolyte complexation ######################
clear

#Initialization
#------------------------------------
units				lj
dimension			3
atom_style			full
boundary			p p p

#Atom Definition
#-------------------------------------
read_restart			restart.equil
Reading restart file ...
  restart file = 29 Oct 2020, LAMMPS = 29 Oct 2020
  restoring atom style full from restart
  orthogonal box = (-80.000000 -80.000000 -80.000000) to (80.000000 80.000000 80.000000)
  1 by 1 by 1 MPI processor grid
  restoring pair style lj/cut from restart
  restoring bond style harmonic from restart
  60 atoms
  59 bonds
Finding 1-2 1-3 1-4 neighbors ...
  special bond factors lj:    0.0      1.0      1.0     
  special bond factors coul:  0.0      0.0      0.0     
     2 = max # of 1-2 neighbors
     2 = max # of 1-3 neighbors
     4 = max # of 1-4 neighbors
     6 = max # of special neighbors
  special bonds CPU = 0.000 seconds
  read_restart CPU = 0.003 seconds

#Force definition
#----------------------------------------------
#Bond definition
bond_style			harmonic
bond_coeff			1 5000 1
#Pair definition
special_bonds	lj 0 1 1
dielectric		80
pair_style		 lj/cut 1.12
pair_modify 		 shift yes
pair_coeff	1 1 1 1 1.12

#Timestep etc
#--------------------------------------------
timestep		0.001
run_style		verlet
velocity		all	create	1	4

#Fix
#---------------------------------------
group polymers type 1
60 atoms in group polymers
fix 1 all nve
fix 2 all langevin 1	1	10	4

#Dump
#------------------------------------------------
compute  1 all gyration
variable  myRg2 equal c_1
variable  i equal step
fix  mythermofile all print 5000 "$i ${myRg2}" file radius_of_gyration.dat screen no

thermo_style		 custom step temp press pe evdwl ecoul ebond ke etotal enthalpy
thermo 	5000
dump	3 all custom 5000 dump.lammpstrj id mol type xu yu zu
run		2000000
Neighbor list info ...
  update every 1 steps, delay 10 steps, check yes
  max neighbors/atom: 2000, page size: 100000
  master list distance cutoff = 1.42
  ghost atom cutoff = 1.42
  binsize = 0.71, bins = 226 226 226
  1 neighbor lists, perpetual/occasional/extra = 1 0 0
  (1) pair lj/cut, perpetual
      attributes: half, newton on
      pair build: half/bin/newton
      stencil: half/bin/3d/newton
      bin: standard
WARNING: Communication cutoff 1.4200000000000002 is shorter than a bond length based estimate of 1.8. This may lead to errors. (../comm.cpp:667)
Per MPI rank memory allocation (min/avg/max) = 54.71 | 54.71 | 54.71 Mbytes
Step Temp Press PotEng E_vdwl E_coul E_bond KinEng TotEng Enthalpy 
 2000000            1 -0.00012130765   0.43871753 0.0060657727            0   0.43265176        1.475    1.9137175   -6.3675516 
 2005000    1.0366508 1.4343102e-05    0.4687857  0.011561393            0   0.45722431    1.5290599    1.9978456    2.9770014 
 2010000   0.87217034 -3.3321332e-05   0.56806197  0.010502042            0   0.55755992    1.2864512    1.8545132  -0.42022305 
 2015000   0.99730368 7.3413141e-05   0.58341687  0.070205981            0   0.51321089    1.4710229    2.0544398    7.0661103 
 2020000    1.0197492 -3.5100816e-05   0.39003471  0.014427361            0   0.37560735      1.50413    1.8941648  -0.50205097 
 2025000    1.1251123 -7.6627235e-06   0.56854459  0.011761546            0   0.55678304    1.6595406    2.2280852    1.7049766 
 2030000    1.1414147 2.5278615e-05   0.48282479 0.0062705529            0   0.47655424    1.6835867    2.1664115    3.8920983 
 2035000   0.98505205 3.0293824e-05   0.63002111 0.0096991639            0   0.62032195    1.4529518    2.0829729    4.1510313 
 2040000   0.98802835 -4.7652221e-05   0.60888721  0.060816357            0   0.54807085    1.4573418     2.066229   -1.1868293 
 2045000   0.84657764 -9.281816e-05   0.44441616  0.021268575            0   0.42314758     1.248702    1.6931182   -4.6432682 
 2050000   0.83994514 -3.8402658e-05   0.56929841  0.023205207            0   0.54609321    1.2389191    1.8082175  -0.81340397 
 2055000   0.92972999 -8.4211483e-05   0.45873927  0.003775775            0   0.45496349    1.3713517     1.830091   -3.9187463 
 2060000   0.91520981 -8.1670345e-05   0.43451689 0.0041341827            0   0.43038271    1.3499345    1.7844514   -3.7909109 
 2065000   0.89291922 -7.275697e-05   0.40115558  0.012013213            0   0.38914237    1.3170558    1.7182114   -3.2486644 
 2070000    1.0461966 5.7060831e-05   0.39059165 0.0036138773            0   0.38697777    1.5431399    1.9337316    5.8290843 
 2075000   0.94639666 7.7293919e-05   0.35454294 4.7432268e-05            0   0.35449551    1.3959351     1.750478    7.0270762 
 2080000   0.94454212 -1.7850037e-05   0.51874412  0.039939729            0   0.47880439    1.3931996    1.9119437   0.69338124 
 2085000    1.0955892 -2.9658324e-05   0.55926475 0.0091322779            0   0.55013248    1.6159941    2.1752588   0.15058393 
 2090000   0.97935855 -5.1426867e-05    0.4440235  0.011413802            0    0.4326097    1.4445539    1.8885774   -1.6221634 
 2095000   0.91585213 -0.00013089779   0.47807875 0.0027570517            0    0.4753217    1.3508819    1.8289607   -7.1069949 
 2100000   0.91295175 -0.00011520274   0.64535663 0.0064864461            0   0.63887019    1.3466038    1.9919605   -5.8725465 
 2105000   0.93464235 1.2700159e-06   0.69138853  0.027678508            0   0.66371003    1.3785975     2.069986    2.1566857 
 2110000    1.0818776 1.5117664e-05   0.53991726 8.9811722e-05            0   0.53982745    1.5957695    2.1356868    3.1677193 
 2115000    1.1414227 -8.1552728e-05   0.56691479  0.031969473            0   0.53494532    1.6835984    2.2505132   -3.3168197 
 2120000    1.0174796 -0.00010086084   0.53399281  0.025449861            0   0.50854295    1.5007825    2.0347753   -4.8506578 
 2125000   0.86582281 2.0491195e-05   0.62390957  0.026751729            0   0.59715784    1.2770886    1.9009982    3.2998638 
 2130000    1.0231774 7.1989264e-06   0.41792406  0.011431363            0    0.4064927    1.5091866    1.9271107    2.4185574 
 2135000    1.1725067 -6.9178544e-06    0.5146515 0.0079473361            0   0.50670417    1.7294474    2.2440989    1.7718401 
 2140000    1.0889668 -0.00012265864    0.5276989  0.018506059            0   0.50919284     1.606226    2.1339249   -6.2395713 
 2145000    1.0458838 2.4072207e-05   0.56096027  0.072866004            0   0.48809427    1.5426786    2.1036389    3.7469682 
 2150000    1.1087799 -3.8701285e-05   0.65304377  0.022834151            0   0.63020962    1.6354503    2.2884941  -0.35351365 
 2155000     1.048614 -1.4297574e-05   0.49680125 0.0074043454            0   0.48939691    1.5467057    2.0435069    1.0674592 
 2160000    1.2047742 2.1377229e-05   0.54910904  0.046643198            0   0.50246584     1.777042     2.326151    3.7855032 
 2165000    0.9850299 2.1928848e-05   0.47472077 0.0052119263            0   0.46950884    1.4529191    1.9276399    3.4246492 
 2170000     1.105805 -1.4010939e-05   0.49842986 0.0071186613            0    0.4913112    1.6310624    2.1294922    1.1730121 
 2175000    1.2024084 -2.953241e-05   0.43156398 0.0020624887            0    0.4295015    1.7735524    2.2051164   0.18903723 
 2180000    1.1865745 -0.00011596135   0.60771242  0.010944888            0   0.59676753    1.7501974    2.3579098   -5.5583847 
 2185000    1.2073789 2.1608873e-05   0.38975769  0.029624529            0   0.36013316    1.7808839    2.1706416    3.6458073 
 2190000    1.3355675 -4.0105404e-05   0.36594109 8.209491e-05            0   0.36585899    1.9699621    2.3359032  -0.40195907 
 2195000    1.0292285 -8.5795352e-05    0.3831835  0.019794114            0   0.36338938     1.518112    1.9012955   -3.9556672 
 2200000   0.93926438 5.9661499e-05   0.36348193 0.00063925888            0   0.36284267     1.385415    1.7488969    5.8217885 
 2205000    0.9734882 -1.0874524e-05   0.40437984 0.0086582379            0    0.3957216    1.4358951    1.8402749    1.0979074 
 2210000   0.93618356 -8.5464044e-06    0.4390916    0.0160488            0    0.4230428    1.3808707    1.8199623    1.2365278 
 2215000    0.8706948 8.3537694e-05   0.65816684   0.04503972            0   0.61312712    1.2842748    1.9424417    7.6452816 
 2220000   0.89285724 -2.0406975e-05    0.5925768  0.002984982            0   0.58959182    1.3169644    1.9095412   0.51642505 
 2225000    1.0748899 -3.7224466e-05   0.50150649 0.0018436603            0   0.49966283    1.5854626    2.0869691  -0.45422113 
 2230000   0.93607359 7.0073447e-05   0.52999445 3.5799833e-05            0   0.52995865    1.3807085     1.910703    6.6943836 
 2235000   0.85478961 -6.6893949e-05   0.59793925 0.0012788212            0   0.59666043    1.2608147    1.8587539    -2.707873 
 2240000    1.0476764 3.3514024e-05   0.60740161  0.035969049            0   0.57143256    1.5453228    2.1527244    4.4406151 
 2245000    1.0910993 2.188576e-05   0.50581492  0.014807944            0   0.49100698    1.6093714    2.1151863    3.6092542 
 2250000    1.1964781 0.00011478007   0.47195142 0.0058632106            0   0.46608821    1.7648051    2.2367566    10.072409 
 2255000    1.1163543 4.7654188e-05   0.74406978  0.018207933            0   0.72586185    1.6466226    2.3906923    5.6438849 
 2260000   0.92803233 8.6681922e-05   0.72310178  0.034190298            0   0.68891149    1.3688477    2.0919495    8.0094354 
 2265000   0.95926989 7.9330754e-06   0.62296312  0.002175106            0   0.62078801    1.4149231    2.0378862    2.5794508 
 2270000   0.91214277 -4.3064481e-05    0.6883985  0.030163548            0   0.65823495    1.3454106    2.0338091  -0.90605948 
 2275000    1.0515864 1.7690993e-05   0.30731729 0.0056911743            0   0.30162611    1.5510899    1.8584072    3.0661124 
 2280000      1.12852 -6.0513648e-06   0.54539231  0.055582252            0   0.48981006     1.664567    2.2099593    1.7968528 
 2285000    1.0602459 3.5678415e-05   0.55124631   0.02881534            0   0.52243097    1.5638628    2.1151091    4.5507556 
 2290000    1.0147225 -1.9108963e-05   0.58395716 0.0091742781            0   0.57478288    1.4967157    2.0806729   0.77616768 
 2295000    1.0936644 -1.8083234e-05   0.67433372  0.047406885            0   0.62692684    1.6131549    2.2874886    1.0530065 
 2300000    1.0162065 -8.5021295e-05   0.44644631  0.008398527            0   0.43804778    1.4989047     1.945351   -3.8587694 
 2305000    1.0124854 -1.2411089e-05   0.38687244 0.0021065765            0   0.38476587    1.4934159    1.8802883    1.0330247 
 2310000   0.97023765 -7.7689713e-05   0.55431196 0.0056162995            0   0.54869566    1.4311005    1.9854125   -3.3182052 
 2315000   0.88740371 -9.1368123e-05   0.63909958  0.021164893            0   0.61793468    1.3089205      1.94802   -4.2893772 
 2320000     1.118575 5.6442542e-05   0.44017146 0.0012640631            0   0.43890739    1.6498981    2.0900696    5.9432138 
 2325000   0.96633696 -2.0368536e-05   0.42508118 0.0076933345            0   0.41738784     1.425347    1.8504282   0.45993616 
 2330000    1.0916149 0.00010881363   0.58698769  0.027266325            0   0.55972136     1.610132    2.1971197    9.6254636 
 2335000    1.1706761 -6.7243277e-05   0.52316627  0.024310056            0   0.49885622    1.7267472    2.2499135   -2.3405609 
 2340000    1.0260419 0.00017922262   0.68269457  0.022657623            0   0.66003695    1.5134118    2.1961064    14.431037 
 2345000     1.130953 5.9335141e-05   0.50480014            0            0   0.50480014    1.6681557    2.1729558    6.2235681 
 2350000     1.009307 -2.9962933e-05    0.4803992 0.00032892894            0   0.48007027    1.4887279    1.9691271 -0.076342435 
 2355000   0.81973537 -1.1517158e-05   0.37793749  0.023550851            0   0.35438664    1.2091097    1.5870472   0.80080921 
 2360000     1.024423 1.277025e-05   0.37394421 0.0068399373            0   0.36710427    1.5110239    1.8849682    2.7567505 
 2365000   0.99410682 -3.8473952e-05   0.45658029  0.049573117            0   0.40700717    1.4663076    1.9228879  -0.70360058 
 2370000    1.0188728 4.3648368e-05   0.42952472  0.040716347            0   0.38880837    1.5028374    1.9323621    4.9120907 
 2375000    1.0987123 3.2156681e-05   0.40431457  0.024354334            0   0.37996024    1.6206006    2.0249152    4.2201446 
 2380000    1.1449294 -4.9128971e-05   0.36163806  0.016736398            0   0.34490166    1.6887708    2.0504089   -1.3034622 
 2385000    1.0439754 -1.2203931e-05    0.3603262  0.019666945            0   0.34065925    1.5398637    1.9001899    1.0670683 
 2390000   0.91369268 -4.7717911e-06   0.48993288 0.0096138133            0   0.48031907    1.3476967    1.8376296    1.5118753 
 2395000   0.86565607 -4.9648967e-05   0.59011742 0.0073935134            0    0.5827239    1.2768427    1.8669601   -1.5224094 
 2400000   0.88095154 -2.7903167e-05   0.46522603  0.014848952            0   0.45037708    1.2994035    1.7646296  -0.14022664 
 2405000    1.0094506 -6.905842e-06   0.41997872  0.020279514            0   0.39969921    1.4889397    1.9089184    1.4374796 
 2410000   0.99373434 -8.2838455e-05   0.59976828 3.170151e-05            0   0.59973658    1.4657582    2.0655264   -3.5895787 
 2415000    1.0490428 -2.3137037e-05   0.39181074  0.010244386            0   0.38156636    1.5473381    1.9391488   0.35966042 
 2420000   0.85944753 -7.1027313e-05   0.68059559 0.0081543718            0   0.67244121    1.2676851    1.9482807   -2.9005172 
 2425000   0.89992645 5.7643499e-05   0.61283015  0.020741988            0   0.59208817    1.3273915    1.9402217    5.8753512 
 2430000   0.93856064 1.0047052e-06   0.60000009  0.018995674            0   0.58100442     1.384377     1.984377    2.0529649 
 2435000   0.92219867 -1.2127201e-05   0.38731351  0.023240519            0   0.36407299     1.360243    1.7475565   0.91967294 
 2440000   0.89901085 -3.3594927e-05   0.40884336  0.013033933            0   0.39580942     1.326041    1.7348844  -0.55852936 
 2445000   0.87105626 6.5787578e-05   0.51263767  0.053434722            0   0.45920294     1.284808    1.7974456    6.2885443 
 2450000   0.84857973 0.00011927069   0.41677055  0.019886492            0   0.39688406    1.2516551    1.6684256    9.8106378 
 2455000   0.93078532 -7.045744e-05   0.37930794 0.00090067085            0   0.37840727    1.3729083    1.7522163   -3.0576783 
 2460000   0.93506038 5.5145187e-05   0.40543446  0.069695035            0   0.33573943    1.3792141    1.7846485    5.5492266 
 2465000   0.97865081 -6.0848462e-06   0.40305216  0.010703786            0   0.39234837    1.4435099    1.8465621    1.4311699 
 2470000    0.9341709 9.4336507e-05   0.44240236  0.010516088            0   0.43188627    1.3779021    1.8203044    8.2603433 
 2475000   0.96081688 4.1391904e-05   0.43617357  0.010892273            0    0.4252813    1.4172049    1.8533785    4.6790658 
 2480000    1.0367047 1.6122995e-05   0.40039685   0.01640472            0   0.38399213    1.5291395    1.9295364    3.0301995 
 2485000    1.1008022 2.8027252e-05      0.42285  0.019925428            0   0.40292457    1.6236832    2.0465332    3.9598603 
 2490000   0.96486468 2.2736735e-05   0.50733721  0.018817343            0   0.48851987    1.4231754    1.9305126    3.4826737 
 2495000   0.97667418 9.2428249e-06   0.59421107 0.0069523359            0   0.58725873    1.4405944    2.0348055    2.6657823 
 2500000    1.0503722 -7.7312916e-06   0.42262117  0.005700076            0    0.4169211    1.5492989    1.9719201    1.4441306 
 2505000    1.0995799 9.0270887e-06   0.54115583  0.032416533            0    0.5087393    1.6218804    2.1630362    2.7792855 
 2510000     1.016647 7.3491833e-06   0.51488117 0.0042091169            0   0.51067205    1.4995544    2.0144356    2.5161398 
 2515000    1.1396784 -2.4938605e-05   0.49816656  0.032589721            0   0.46557684    1.6810257    2.1791922   0.47671684 
 2520000    1.0966381 4.0295675e-05   0.47518136  0.030144416            0   0.44503695    1.6175412    2.0927225    4.8435739 
 2525000    1.0736067 -9.7607085e-06   0.58126018  0.046273274            0   0.53498691    1.5835699    2.1648301     1.498499 
 2530000   0.94918772 -5.107868e-05   0.59801172  0.036073885            0   0.56193784    1.4000519    1.9980636   -1.4889076 
 2535000   0.94654999 3.6570652e-05    0.5373474  0.016860338            0   0.52048706    1.3961612    1.9335086    4.4300651 
 2540000    1.0694589 1.5446877e-05   0.53942574  0.037155598            0   0.50227014    1.5774519    2.1168777    3.1713845 
 2545000    1.0996839 6.8173581e-05   0.52157242 0.00025897886            0   0.52131344    1.6220338    2.1436062    6.7975893 
 2550000   0.93225911 0.00010289454   0.56294933 0.0091855285            0    0.5537638    1.3750822    1.9380315    8.9622989 
 2555000   0.95279117 3.4338182e-05   0.51030643  0.028315481            0   0.48199095     1.405367    1.9156734    4.2598266 
 2560000    1.0022228 -1.3901572e-05   0.56513069 0.0032598788            0   0.56187081    1.4782787    2.0434094    1.0943954 
 2565000    1.1350444 -5.165723e-05   0.64251923  0.019024736            0    0.6234945    1.6741905    2.3167098   -1.2097571 
 2570000     1.073668 -6.0315875e-05   0.54288881  0.040996559            0   0.50189225    1.5836603    2.1265491   -1.9910146 
 2575000    1.0603722 -2.5399471e-05   0.71170913  0.035142597            0   0.67656653    1.5640491    2.2757582   0.54182096 
 2580000    1.1653324 -2.2828353e-05   0.56478255 0.0030337788            0   0.56174877    1.7188654    2.2836479   0.72523231 
 2585000    1.1219633 -2.9286335e-05   0.43086029 0.0026357537            0   0.42822453    1.6548958    2.0857561  0.086475676 
 2590000   0.96859837 6.788881e-05   0.45991656  0.009153443            0   0.45076311    1.4286826    1.8885992    6.5231419 
 2595000   0.94887199 -2.9041015e-05   0.48089572 0.00050524406            0   0.48039047    1.3995862    1.8804819  -0.10205137 
 2600000   0.94071653 1.4238403e-05   0.62545952 0.0075131887            0   0.61794633    1.3875569    2.0130164    2.9850247 
 2605000    1.1074932 4.2605906e-05   0.50055672  0.031875447            0   0.46868127    1.6335525    2.1341092    5.0426724 
 2610000   0.96496664 -9.3478827e-05   0.36475713  0.001471044            0   0.36328608    1.4233258    1.7880829    -4.593405 
 2615000    0.8805525 -8.6972586e-05   0.58036069  0.017890134            0   0.56247056    1.2988149    1.8791756   -4.0581529 
 2620000    1.0433706 -2.8977879e-05   0.41209949  0.018136255            0   0.39396324    1.5389716    1.9510711 -0.027152174 
 2625000    1.0360711 0.00012921932    0.4602298   0.01661865            0   0.44361115    1.5282049    1.9884347    10.809807 
 2630000    1.1323892 2.6485394e-05   0.40660962  0.014488368            0   0.39212125     1.670274    2.0768836    3.8849532 
 2635000    1.0854596 6.4403131e-05   0.50821399 0.0051755205            0   0.50303847    1.6010529    2.1092669     6.505854 
 2640000    1.0758613 -6.4979724e-05   0.45918504  0.021596694            0   0.43758835    1.5868955    2.0460805   -2.3898686 
 2645000    1.1007084 -1.8953192e-06   0.51702877  0.001377761            0   0.51565101    1.6235449    2.1405736    2.0111865 
 2650000   0.99734205 8.9919523e-05   0.45493617 0.0079314151            0   0.44700476    1.4710795    1.9260157    8.0645218 
 2655000   0.88988667 -7.9791111e-05   0.45436223   0.07660527            0   0.37775696    1.3125828    1.7669451   -3.6801281 
 2660000    1.0820531 4.2613644e-05   0.48895784  0.033922646            0   0.45503519    1.5960284    2.0849862    4.9940777 
 2665000    1.1599837 7.0243208e-05   0.58394033 5.9701101e-05            0   0.58388062     1.710976    2.2949163     7.090186 
 2670000    1.0654708 9.2516483e-05   0.50293093  0.035326596            0   0.46760433    1.5715695    2.0745004    8.3902923 
 2675000    1.1049785 -3.8749034e-05   0.54993604 0.0037710243            0   0.54616502    1.6298433    2.1797794  -0.46548799 
 2680000     1.031732 -4.6893876e-05   0.48097786 0.0061944891            0   0.47478337    1.5218047    2.0027826    -1.198506 
 2685000   0.96808772 -4.7373365e-05   0.57085101  0.021236792            0   0.54961422    1.4279294    1.9987804   -1.2352413 
 2690000   0.86004068 -4.1895015e-05   0.54112341 0.0017790028            0   0.53934441      1.26856    1.8096834   -1.0503496 
 2695000     0.944679 7.9466731e-05   0.63486717  0.069120596            0   0.56574658    1.3934015    2.0282687    7.4531976 
 2700000   0.97845801 -1.2912009e-05   0.57647334  0.029935397            0   0.54653794    1.4432256    2.0196989    1.1382391 
 2705000   0.87855534 -4.1355555e-05   0.59537341  0.009574558            0   0.58579886    1.2958691    1.8912425  -0.93196337 
 2710000      0.98621 7.2829495e-06   0.59931394  0.017165962            0   0.58214798    1.4546598    2.0539737    2.5511564 
 2715000    1.0549976 -2.8551974e-05   0.40963705  0.043808396            0   0.36582865    1.5561214    1.9657585  0.016610352 
 2720000   0.80335177 -6.0738321e-05   0.39132469 0.0027653191            0   0.38855937    1.1849439    1.5762686   -2.5701341 
 2725000   0.86836789 8.0336308e-06   0.43660266  0.035999228            0   0.40060343    1.2808426    1.7174453    2.2658745 
 2730000   0.79686443 -0.0001301612   0.47093166 0.0037623958            0   0.46716926     1.175375    1.6463067   -7.2393643 
 2735000   0.82694442 9.668082e-06   0.41518337  0.027973684            0   0.38720968     1.219743    1.6349264    2.2949341 
 2740000   0.95659587 2.4919376e-05   0.49409216  0.055109308            0   0.43898285    1.4109789    1.9050711    3.6062338 
 2745000    1.1210825 -6.9672165e-05   0.57373461  0.028597249            0   0.54513736    1.6535967    2.2273313   -2.5289551 
 2750000    1.0215198 -1.2450632e-05   0.49587066  0.046253773            0   0.44961689    1.5067416    2.0026123    1.1526491 
 2755000    1.2094965 6.2037616e-05   0.49894652  0.082279257            0   0.41666727    1.7840074    2.2829539    6.5180551 
 2760000    1.0598168 3.9519704e-05   0.55938006  0.017143951            0   0.54223611    1.5632298    2.1226099    4.8204883 
 2765000    1.0755348 -1.3578526e-06     0.507791  0.038582675            0   0.46920833    1.5864138    2.0942048    2.0015087 
 2770000   0.99145685 4.0736569e-05   0.46070818  0.032332873            0    0.4283753    1.4623989     1.923107    4.7040568 
 2775000   0.99743155 6.2037257e-05   0.43720878  0.039578946            0   0.39762983    1.4712115    1.9084203     6.143497 
 2780000    1.1305211 0.00012773873   0.32377998 0.0040388344            0   0.31974114    1.6675187    1.9912987    10.711596 
 2785000   0.75416427 3.6490157e-05   0.60895172 0.0063051063            0   0.60264661    1.1123923     1.721344    4.2124054 
 2790000    1.0626236 2.0953702e-06   0.60185143  0.017177451            0   0.58467398    1.5673698    2.1692212    2.3122651 
 2795000   0.96410633 -1.1674829e-05   0.60594733   0.04061881            0   0.56532852    1.4220568    2.0280042    1.2310025 
 2800000   0.89111685 -0.0001372616   0.51194007 0.0031288506            0   0.50881122    1.3143974    1.8263374   -7.5440545 
 2805000   0.98342605 1.1817547e-05   0.51373509  0.027839469            0   0.48589562    1.4505534    1.9642885     2.771033 
 2810000   0.80386856 5.5136258e-05   0.58204219  0.027770486            0   0.55427171    1.1857061    1.7677483    5.5317168 
 2815000   0.89555273 5.3793967e-05   0.54424539  0.021504772            0   0.52274062    1.3209403    1.8651857    5.5375205 
 2820000   0.96915519 -8.0910015e-05   0.48639771  0.005245814            0   0.48115189    1.4295039    1.9159016   -3.6075554 
 2825000   0.83207296 -0.00012873053   0.37899107            0            0   0.37899107    1.2273076    1.6062987   -7.1817057 
 2830000   0.77219658 -0.00014046129   0.49589108 0.00025124907            0   0.49563983      1.13899     1.634881   -7.9539429 
 2835000   0.91587167 1.7624427e-05   0.62942446   0.04589099            0   0.58353347    1.3509107    1.9803352     3.183496 
 2840000    1.1177029 -1.2925949e-05   0.47340683  0.052287509            0   0.42111932    1.6486117    2.1220186    1.2396071 
 2845000    1.1751263 -5.7346265e-05   0.44892896  0.004012417            0   0.44491654    1.7333113    2.1822402   -1.7325981 
 2850000    1.1610393 -3.1060681e-05   0.55367729  0.014645627            0   0.53903167     1.712533    2.2662103   0.14580113 
 2855000    1.0278855 4.6212051e-06   0.62151723  0.093126687            0   0.52839054    1.5161311    2.1376483    2.4531226 
 2860000   0.98979473 7.5131795e-05   0.56381869 0.00062554065            0   0.56319315    1.4599472    2.0237659    7.1527631 
 2865000    1.0706169 -5.3521493e-05   0.49696008 0.0078823413            0   0.48907774      1.57916    2.0761201   -1.5776138 
 2870000   0.92622984 9.2277373e-06     0.468371 0.0023541887            0   0.46601681     1.366189      1.83456    2.4645069 
 2875000    1.0126696 0.0001066233   0.48943587  0.010666086            0   0.47876979    1.4936876    1.9831235    9.2619411 
 2880000   0.94185628 -6.2495323e-05   0.50994039  0.046517977            0   0.46342241     1.389238    1.8991784    -2.367169 
 2885000   0.96133442 9.2674316e-05   0.41406058  0.016270376            0    0.3977902    1.4179683    1.8320288    8.1585955 
 2890000    1.0006654 5.193058e-05   0.52169246  0.051307784            0   0.47038468    1.4759815    1.9976739    5.5428015 
 2895000    1.0783831 -5.0357619e-05   0.48780654  0.025405145            0   0.46240139     1.590615    2.0784216   -1.3593252 
 2900000    1.0271144 1.1299213e-05   0.49041791 0.0061390053            0    0.4842789    1.5149938    2.0054117    2.7767713 
 2905000   0.95929478 -1.4691726e-05   0.52255548  0.050862638            0   0.47169284    1.4149598    1.9375153    0.9345601 
 2910000     1.213366 2.1858999e-05   0.48277387  0.019121357            0   0.46365252    1.7897148    2.2724887    3.7647297 
 2915000    1.1772405 4.7909853e-05   0.39507587  0.016561112            0   0.37851476    1.7364297    2.1315056    5.4021515 
 2920000    1.1827896 -6.485444e-06   0.38014323  0.026426347            0   0.35371689    1.7446146    2.1247578    1.6820182 
 2925000   0.85840301 -3.3479419e-07   0.44357724  0.015370314            0   0.42820692    1.2661444    1.7097217    1.6868664 
 2930000    1.0571501 3.1454957e-05   0.53072801  0.071324551            0   0.45940346    1.5592964    2.0900244    4.2373495 
 2935000    1.0978541 -1.64042e-05   0.58374917  0.018808059            0   0.56494111    1.6193348    2.2030839    1.0832239 
 2940000    1.1621442 1.4457594e-05   0.49781483   0.05375239            0   0.44406244    1.7141627    2.2119775    3.1989492 
 2945000     1.230998 3.5761162e-05    0.4410806  0.011494552            0   0.42958604    1.8157221    2.2568027     4.698098 
 2950000    1.0096667 0.00014514524   0.61304374  0.015747639            0    0.5972961    1.4892584    2.1023022    12.010884 
 2955000    1.2103898 -4.6607328e-06    0.5031717  0.015350487            0   0.48782122    1.7853249    2.2884966    1.9703239 
 2960000    1.1164736 2.788745e-05   0.59422756   0.04090788            0   0.55331968    1.6467986    2.2410261    4.1448094 
 2965000     1.126783 -8.3801298e-05   0.51105543  0.011445405            0   0.49961003    1.6620049    2.1730604   -3.5477749 
 2970000    1.2170036 3.2004537e-05   0.41749196  0.019222124            0   0.39826983    1.7950803    2.2125722    4.3974153 
 2975000    1.0966624 -1.3557221e-05   0.47236198 0.00018061579            0   0.47218137     1.617577     2.089939    1.1644327 
 2980000   0.95658228 2.2931396e-06   0.55199319  0.018731908            0   0.53326128    1.4109589     1.962952     2.119497 
 2985000    1.0619847 -2.7658317e-05   0.51717825 0.00034752805            0   0.51683073    1.5664274    2.0836056   0.19546451 
 2990000    1.0325197 6.4487409e-05   0.59043161  0.021192492            0   0.56923911    1.5229665    2.1133981    6.5157386 
 2995000    1.0547135 2.9092919e-05   0.53018314 2.1781175e-05            0   0.53016136    1.5557025    2.0858856    4.0719623 
 3000000   0.94828044 3.2483317e-05   0.49558026  0.036061975            0   0.45951828    1.3987137    1.8942939    4.1118217 
 3005000    1.0663982 -7.9186477e-05   0.47000287  0.017544979            0   0.45245789    1.5729374    2.0429403   -3.3628566 
 3010000   0.92909284 -6.3688388e-05   0.39355276  0.038306636            0   0.35524612    1.3704119    1.7639647   -2.5838293 
 3015000   0.93949125 6.4543223e-06   0.49601006  0.021788385            0   0.47422167    1.3857496    1.8817596    2.3223747 
 3020000   0.92819213 0.00018972358   0.46912214 0.0051181729            0   0.46400397    1.3690834    1.8382055    14.790002 
 3025000   0.96868234 -1.0924377e-05   0.52252557  0.027994929            0   0.49453064    1.4288065     1.951332    1.2055612 
 3030000    1.1440789 1.2819355e-05   0.47653295  0.011052009            0   0.46548094    1.6875164    2.1640494     3.039184 
 3035000   0.97481168 -0.0001213834   0.80807256   0.13327539            0   0.67479717    1.4378472    2.2459198   -6.0405203 
 3040000     1.057109 -1.8502461e-05   0.49909777  0.014379044            0   0.48471872    1.5592358    2.0583336   0.79523225 
 3045000    1.0087886 -1.8631835e-05   0.46432426  0.036427494            0   0.42789676    1.4879632    1.9522875   0.68035422 
 3050000    1.0906826 -2.7635483e-05   0.49096939  0.031028619            0   0.45994078    1.6087568    2.0997262   0.21314387 
 3055000    1.0525089 3.035514e-05   0.48189412  0.099008677            0   0.38288545    1.5524506    2.0343447     4.106589 
 3060000   0.95265243 -0.00014171824   0.59701511  0.017147843            0   0.57986726    1.4051623    2.0021774   -7.6724544 
 3065000    1.1992457 -2.8055835e-05   0.48216269  0.011292803            0   0.47086989    1.7688874    2.2510501   0.33577175 
 3070000   0.87836583 -9.7174201e-05   0.40395403 0.0094494456            0   0.39450458    1.2955896    1.6995436   -4.9342152 
 3075000   0.88587859 5.2869764e-05   0.41509596 0.0055329621            0   0.40956299    1.3066709    1.7217669    5.3310094 
 3080000    1.0128842 -2.6999151e-06    0.4653082 0.00054564357            0   0.46476255    1.4940041    1.9593123    1.7749981 
 3085000   0.97425321 -2.9788027e-05   0.44009725  0.010651169            0   0.42944608    1.4370235    1.8771207  -0.15640859 
 3090000   0.86576894 6.203634e-06   0.46876452  0.032362684            0   0.43640184    1.2770092    1.7457737    2.1692751 
 3095000   0.74646307 7.6834143e-05   0.45475992  0.017015512            0   0.43774441     1.101033    1.5557929    6.8010038 
 3100000   0.93328523 9.6691336e-05    0.3907452 0.0073737028            0   0.38337149    1.3765957    1.7673409    8.3681361 
 3105000    1.0409557 0.00011840016   0.57681012  0.043633354            0   0.53317677    1.5354096    2.1122197    10.195004 
 3110000    1.0069339 9.5346208e-06   0.52184457 0.0017013935            0   0.52014318    1.4852275    2.0070721    2.6579689 
 3115000    1.0585484 4.799572e-05   0.48717285  0.043710532            0   0.44346232    1.5613589    2.0485318    5.3250396 
 3120000    1.1603924 -7.9962246e-05    0.4059074  0.022033254            0   0.38387414    1.7115789    2.1174863   -3.3412698 
 3125000   0.99365978 2.0317339e-05     0.479548  0.023560221            0   0.45598778    1.4656482    1.9451962    3.3321932 
 3130000   0.99461489 7.2723195e-06   0.48202237  0.028124884            0   0.45389749     1.467057    1.9490793    2.4455363 
 3135000   0.97242067 -1.6566097e-05   0.41881498  0.051664536            0   0.36715044    1.4343205    1.8531355   0.72222323 
 3140000    1.0730773 1.9016599e-06   0.49428329  0.031143583            0   0.46313971     1.582789    2.0770723    2.2068923 
 3145000   0.88625937 -5.1101077e-06    0.4459613  0.046817263            0   0.39914404    1.3072326    1.7531939    1.4043438 
 3150000   0.98144973 2.647836e-05   0.48882399 0.0062393999            0   0.48258459    1.4476384    1.9364623    3.7440517 
 3155000    1.0772778 -5.2486001e-05    0.6843993 0.0062602181            0   0.67813909    1.5889847     2.273384   -1.3096604 
 3160000    1.0034287 -0.0001781381   0.57357087   0.06593161            0   0.50763926    1.4800574    2.0536283   -10.107266 
 3165000   0.97872649 -3.6691637e-05   0.38424742            0            0   0.38424742    1.4436216     1.827869  -0.67694675 
 3170000     1.051572 -6.8520284e-07   0.56160293  0.013035426            0    0.5485675    1.5510686    2.1126716    2.0658951 
 3175000    1.0600448 -9.0291438e-05   0.66590176   0.03380665            0   0.63209511    1.5635661    2.2294678   -3.9344277 
 3180000    1.0499019 1.922287e-05   0.45051202  0.021116128            0   0.42939589    1.5486053    1.9991174    3.3113986 
 3185000    1.0346622 7.2533499e-05   0.49987526 0.0065966253            0   0.49327863    1.5261267     2.026002    6.9776222 
 3190000   0.93274036 5.9191936e-05   0.30849517 0.00035775881            0   0.30813742     1.375792    1.6842872    5.7251233 
 3195000   0.89158003 -1.8809269e-05   0.36844936  0.029063552            0    0.3393858    1.3150805    1.6835299   0.39948379 
 3200000   0.97808317 -4.4899008e-05   0.61794941  0.009349717            0    0.6085997    1.4426727    2.0606221   -1.0044835 
 3205000     1.003022 -3.378703e-05   0.71499552  0.036258871            0   0.67873665    1.4794575     2.194453  -0.11207496 
 3210000    1.0111138 7.0246431e-05    0.5017068  0.008801693            0   0.49290511    1.4913929    1.9930997    6.7885894 
 3215000    1.1834688 5.9322758e-05    0.7362174  0.092847276            0   0.64337012    1.7456165    2.4818339    6.5316008 
 3220000    1.1268289 -1.0341223e-05   0.53227724  0.032112079            0   0.50016517    1.6620727    2.1943499    1.4883891 
 3225000    1.0829725 -5.3885038e-05   0.68569303  0.028341819            0   0.65735121    1.5973845    2.2830775   -1.3954744 
 3230000    1.0385798 -9.7901068e-05   0.51485658  0.036107949            0   0.47874863    1.5319052    2.0467617   -4.6366178 
 3235000    1.1324591 3.6062563e-05   0.38659694  0.025795827            0   0.36080111    1.6703772    2.0569741    4.5188451 
 3240000    1.0739206 2.9902131e-05   0.47170149  0.011807749            0   0.45989374    1.5840328    2.0557343    4.0970531 
 3245000   0.99999605 4.1325949e-05   0.37041304  0.013366346            0    0.3570467    1.4749942    1.8454072     4.666592 
 3250000    1.1366787 -2.2552794e-05   0.51254742 0.0056127989            0   0.50693462    1.6766011    2.1891485   0.64954442 
 3255000   0.84642493 2.0071066e-05   0.57410219  0.014101033            0   0.56000116    1.2484768     1.822579    3.1927637 
 3260000    1.0220892 6.7904012e-05   0.54962015  0.031042716            0   0.51857744    1.5075815    2.0572017    6.6927822 
 3265000   0.94674547 0.0001162536   0.46250093  0.043286812            0   0.41921412    1.3964496    1.8589505    9.7951962 
 3270000   0.92486353 5.717185e-05   0.40023573  0.033877664            0   0.36635807    1.3641737    1.7644094    5.6673411 
 3275000    1.0512518 -3.6084479e-05   0.37820398  0.021994485            0   0.35620949    1.5505964    1.9288004  -0.53456678 
 3280000    1.0364733 -4.8211848e-05   0.43897326  0.017125632            0   0.42184763    1.5287981    1.9677713   -1.3234908 
 3285000   0.95567518 -3.6990882e-05   0.57845836 0.0023805334            0   0.57607783    1.4096209    1.9880793  -0.53716498 
 3290000   0.93159377 9.1840864e-05   0.62861293   0.03195116            0   0.59666177    1.3741008    2.0027137    8.2723834 
 3295000    0.8394671 -3.1373247e-05    0.4810495 0.0020322023            0    0.4790173     1.238214    1.7192635  -0.42248351 
 3300000   0.88610447 0.00013227235   0.50873877  0.062267284            0   0.44647149    1.3070041    1.8157429    10.845536 
 3305000    1.1110656 1.0424322e-05   0.48301612  0.027445289            0   0.45557083    1.6388217    2.1218378    2.8334715 
 3310000    1.0669182 8.7540564e-05    0.5271544  0.048911056            0   0.47824335    1.5737043    2.1008587    8.0769612 
 3315000   0.95607078 -9.8968627e-05   0.47541455  0.012013025            0   0.46340152    1.4102044    1.8856189   -4.8706393 
 3320000   0.97872067 3.2259312e-05   0.44051474  0.020609377            0   0.41990536     1.443613    1.8841277    4.0863634 
 3325000    1.0717712 0.00010952004   0.43808027 0.0040116976            0   0.43406857    1.5808625    2.0189428    9.4955109 
 3330000    1.1876244 -2.1100838e-05   0.52213503 6.6786306e-05            0   0.52206824    1.7517459     2.273881   0.83339711 
 3335000    1.0878959 -0.00010777036   0.49830827  0.049399834            0   0.44890844    1.6046464    2.1029547   -5.2541688 
 3340000    0.9874097 -8.2453546e-05   0.54142832  0.010829259            0   0.53059906    1.4564293    1.9978576   -3.6309711 
 3345000    1.1688705 5.723309e-05   0.38984118 0.0068202618            0   0.38302092    1.7240839    2.1139251    6.0210374 
 3350000    1.0016269 -3.1283783e-05   0.49188705  0.021833252            0   0.47005379    1.4773996    1.9692867  -0.16635292 
 3355000    1.0422545 4.9063948e-05   0.65775995  0.020391297            0   0.63736866    1.5373253    2.1950853    5.5445175 
 3360000    1.0106021 -5.918993e-05   0.61821392   0.01187737            0   0.60633655    1.4906381     2.108852   -1.9318473 
 3365000    1.0231965 4.8916922e-05   0.50294842 0.0092354745            0   0.49371294    1.5092148    2.0121633    5.3515585 
 3370000    1.0614981 -1.2287445e-05   0.64155814   0.04553832            0   0.59601982    1.5657098    2.2072679     1.368445 
 3375000    1.0395478 -6.6315817e-05   0.48427759  0.083293625            0   0.40098397     1.533333    2.0176106   -2.5095491 
 3380000   0.94390732 -1.41557e-05    0.4187472 0.0012554046            0   0.41749179    1.3922633    1.8110105   0.84464806 
 3385000    1.1178133 5.8985155e-05   0.48553147  0.058787153            0   0.42674432    1.6487747    2.1343061    6.1610261 
 3390000    1.0162773 4.9763223e-05   0.58407202   0.04885187            0   0.53522015     1.499009     2.083081    5.4802504 
 3395000   0.94445854 7.5881859e-05    0.5829913   0.01981127            0   0.56318003    1.3930763    1.9760676    7.1562692 
 3400000   0.96320886 3.2214748e-07   0.57336612  0.041907544            0   0.53145858    1.4207331    1.9940992    2.0160911 
 3405000    1.0196686 3.6120376e-05   0.52979782  0.011662847            0   0.51813498    1.5040112    2.0338091    4.4996267 
 3410000   0.89650609 -4.8965638e-05   0.43665916 0.0050768984            0   0.43158226    1.3223465    1.7590056   -1.5837153 
 3415000   0.89657121 7.5233205e-05   0.49241361 0.0040734315            0   0.48834018    1.3224425    1.8148561    6.9507763 
 3420000    1.1986505 -7.7734977e-05    0.6424472  0.020948821            0   0.62149838    1.7680095    2.4104567    -2.896251 
 3425000     1.238621 -6.1805239e-05   0.64350076  0.049291901            0   0.59420886     1.826966    2.4704667   -1.7487709 
 3430000    1.0115356 7.3064506e-05   0.33722755   0.00014135            0    0.3370862     1.492015    1.8292426    6.8171128 
 3435000    1.1879018 5.965967e-05    0.4361788  0.044730536            0   0.39144827    1.7521551     2.188334    6.2611007 
 3440000    1.1690238 0.00013624598   0.47732455   0.10043108            0   0.37689348    1.7243102    2.2016347    11.502693 
 3445000     1.026703 -0.00012711289   0.54386678  0.017389274            0   0.52647751    1.5143869    2.0582537   -6.6193196 
 3450000    1.0263395 5.1667459e-06   0.56384687  0.011506901            0   0.55233997    1.5138507    2.0776976    2.4304141 
 3455000   0.92076968 3.589696e-05   0.53453603  0.014923665            0   0.51961236    1.3581353    1.8926713    4.3432371 
 3460000   0.95665902 5.205559e-05   0.53150908  0.008013589            0   0.52349549    1.4110721    1.9425811    5.4962428 
 3465000    1.0085707 4.2192771e-05   0.57961113  0.034371793            0   0.54523934    1.4876419     2.067253    4.9476128 
 3470000    1.1070818 2.0184409e-05   0.50444905  0.014339266            0   0.49010978    1.6329456    2.1373947     3.515317 
 3475000    1.0308351 -0.00011333914   0.50919973            0            0   0.50919973    1.5204818    2.0296815    -5.707604 
 3480000    1.0299906 2.415511e-05   0.41067554  0.034875906            0   0.37579963    1.5192361    1.9299116    3.5789005 
 3485000    1.1479149 5.3804671e-05   0.45797013 0.0051379242            0   0.45283221    1.6931744    2.1511445    5.8242101 
 3490000    1.0693517 3.7023924e-06   0.56585459  0.016921632            0   0.54893296    1.5772938    2.1431484    2.3958984 
 3495000    1.0755916 3.0817701e-05   0.55250293  0.016897567            0   0.53560536    1.5864976    2.1390005    4.2428222 
 3500000    1.0361326 -5.4614702e-05   0.67113428 0.0053791718            0   0.66575511    1.5282956    2.1994298   -1.5289338 
 3505000   0.85673568 -4.4312914e-05   0.61841268  0.029542132            0   0.58887055    1.2636851    1.8820978   -1.1429971 
 3510000    1.1732084 -9.4360296e-05   0.34306094 0.0077562069            0   0.33530473    1.7304824    2.0735434   -4.3681195 
 3515000   0.80026033 -0.00010702477   0.62540234 0.00087221377            0   0.62453013     1.180384    1.8057863   -5.5004381 
 3520000   0.88790665 -2.1163409e-05   0.55112673 0.0095755199            0   0.54155121    1.3096623     1.860789   0.41603369 
 3525000   0.84789049 6.8182157e-05   0.52504936  0.044586178            0   0.48046318    1.2506385    1.7756878    6.4302564 
 3530000    1.0660192 -4.4454362e-05   0.58967281  0.033243739            0   0.55642907    1.5723783    2.1620511      -0.8727 
 3535000    1.1674571 -5.6161445e-05   0.46745644   0.00164827            0   0.46580817    1.7219993    2.1894557   -1.6444989 
 3540000     1.037046 2.8232118e-05   0.47080012   0.05705238            0   0.41374774    1.5296429     2.000443    3.9277556 
 3545000    1.1113721 0.00012559606   0.44034814 0.0042292685            0   0.43611887    1.6392738     2.079622    10.653646 
 3550000   0.95498526 -3.0791418e-05   0.51675744  0.011597877            0   0.50515957    1.4086033    1.9253607  -0.17666679 
 3555000    0.9541889 6.9441578e-05   0.48348341   0.02161619            0   0.46186722    1.4074286     1.890912    6.6314571 
 3560000   0.92963233 -1.9384385e-05   0.60075246  0.016748036            0   0.58400443    1.3712077    1.9719602   0.64865282 
 3565000   0.83532005 1.1889086e-05   0.57143593 0.0097924091            0   0.56164352    1.2320971     1.803533    2.6151613 
 3570000   0.94408461 -0.00018884441   0.70525818  0.044119248            0   0.66113893    1.3925248     2.097783   -10.793996 
 3575000    1.0449638 5.2925548e-05   0.59352357  0.031315564            0     0.562208    1.5413216    2.1348451    5.7478959 
 3580000    1.0557187 2.0786001e-05   0.36849619 0.0071317964            0   0.36136439    1.5571851    1.9256813    3.3446723 
 3585000    1.0161018 0.00012048101   0.66512309  0.003051272            0   0.66207182    1.4987502    2.1638733     10.38871 
 3590000   0.92851894 -7.2884856e-05   0.60110812  0.010105302            0   0.59100282    1.3695654    1.9706736   -3.0049326 
 3595000    1.1146041 2.6139413e-05   0.47308194 0.0063992692            0   0.46668267    1.6440411     2.117123    3.9015736 
 3600000   0.99609345 -4.2402695e-05   0.52841642  0.022636029            0    0.5057804    1.4692378    1.9976543  -0.89703642 
 3605000    1.0384443 1.8161957e-05    0.4415382 0.0067505284            0   0.43478767    1.5317054    1.9732435    3.2130998 
 3610000    1.0309079 -4.4343298e-06   0.68923138   0.05267031            0   0.63656107    1.5205891    2.2098205    1.9071036 
 3615000    1.0538737 -0.00013088679   0.46040098  0.015500533            0   0.44490045    1.5544637    2.0148647   -6.9203404 
 3620000   0.94972397 -1.795939e-05    0.8110807   0.02793004            0   0.78315066    1.4008429    2.2119236   0.98589584 
 3625000   0.96523716 3.6885784e-05   0.52058664  0.015908658            0   0.50467798    1.4237248    1.9443114    4.4623809 
 3630000    1.0269955 -6.1004608e-05   0.49335681   0.01281591            0    0.4805409    1.5148184    2.0081752   -2.1564061 
 3635000    0.9234519 -5.4272068e-05   0.48926766  0.082289155            0    0.4069785    1.3620915    1.8513592    -1.853614 
 3640000   0.93751327 1.9184641e-05   0.50255983  0.023094078            0   0.47946576    1.3828321    1.8853919    3.1950634 
 3645000   0.99084945 6.940991e-05   0.56967796   0.15414259            0   0.41553537    1.4615029    2.0311809    6.7695641 
 3650000    1.0158498 -5.6528177e-05   0.45853519  0.037670279            0   0.42086491    1.4983785    1.9569136   -1.9020766 
 3655000   0.77949076 1.4090443e-05    0.5888216  0.010968079            0   0.57785352    1.1497489    1.7385705     2.700478 
 3660000    1.0478829 -0.00012015491   0.56294661  0.014131228            0   0.54881538    1.5456273    2.1085739   -6.0940011 
 3665000   0.89081271 -4.4609402e-05   0.45223974 0.0053758102            0   0.44686393    1.3139488    1.7661885   -1.2791467 
 3670000    0.8232932 -1.536282e-05   0.51874881 0.0029829812            0   0.51576582    1.2143575    1.7331063   0.68433774 
 3675000    1.0329805 9.0546584e-05    0.3180355  0.011511255            0   0.30652424    1.5236462    1.8416817    8.0229951 
 3680000    1.1129276 -9.9391181e-06   0.42531159            0            0   0.42531159    1.6415682    2.0668798    1.3883693 
 3685000    1.1129072 5.2333719e-05   0.56218084  0.027986512            0   0.53419433    1.6415381     2.203719    5.7763675 
 3690000    0.8998373 1.0114468e-05     0.542337  0.072935364            0   0.46940164      1.32726     1.869597    2.5600781 
 3695000   0.92175813  1.25649e-05   0.51469374  0.060823918            0   0.45386982    1.3595932     1.874287    2.7320508 
 3700000   0.96524005 -1.1249286e-05   0.51766927  0.031567674            0    0.4861016    1.4237291    1.9413983    1.1734471 
 3705000     1.141908 1.9363703e-05   0.32170564 0.0016243576            0   0.32008128    1.6843143      2.00602    3.3279154 
 3710000   0.92931031 -3.5304082e-05   0.48168092 0.0032693456            0   0.47841157    1.3707327    1.8524136  -0.55767837 
 3715000   0.91101658 -0.00011549127   0.48877074   0.01513144            0    0.4736393    1.3437495    1.8325202   -6.0516839 
 3720000   0.77413463 -3.0901202e-05   0.38444067 0.00066148691            0   0.38377918    1.1418486    1.5262893  -0.58323277 
 3725000    0.9744231 -4.4581205e-05   0.34141789 0.0055290226            0   0.33588887    1.4372741     1.778692   -1.2647183 
 3730000   0.84718139 -2.0237561e-05   0.49330624 0.0059572263            0   0.48734901    1.2495926    1.7428988   0.36134798 
 3735000    1.0168977 -6.4902205e-05    0.3666997  0.017362585            0   0.34933711    1.4999242    1.8666239   -2.5640334 
 3740000   0.93800481 2.3644583e-05   0.38878788  0.025227397            0   0.36356049    1.3835571     1.772345    3.3864818 
 3745000   0.89302974 2.1142167e-05    0.3595395  0.028624483            0   0.33091502    1.3172189    1.6767584    3.1200636 
 3750000   0.94688092 -1.5044767e-05   0.41561874  0.020566639            0    0.3950521    1.3966494    1.8122681   0.78521202 
 3755000    1.1201121 0.00011963377   0.39056762  0.025088663            0   0.36547896    1.6521653     2.042733    10.209732 
 3760000    1.0235002 2.6356075e-05    0.4686007 0.0092956323            0   0.45930507    1.5096628    1.9782635    3.7775049 
 3765000   0.83186055 -1.7486684e-05   0.46156788  0.020823442            0   0.44074444    1.2269943    1.6885622   0.49480454 
 3770000   0.91627162 2.9798431e-06   0.35438237 0.0041908633            0    0.3501915    1.3515006     1.705883     1.909307 
 3775000    1.0807919 -2.1003828e-05   0.35324165 0.0028743298            0   0.35036732    1.5941681    1.9474098   0.51354843 
 3780000    1.0732253   5.3593e-05   0.34474701  0.029012807            0    0.3157342    1.5830073    1.9277543    5.5863697 
 3785000    1.0180335 -6.7490104e-05   0.47175768 0.0041376938            0   0.46761998    1.5015994     1.973357   -2.6339674 
 3790000    1.0456423 3.7610324e-05   0.62743666  0.030579964            0    0.5968567    1.5423223     2.169759    4.7372905 
 3795000    1.2450395 -7.9801499e-05   0.39480369 0.0035652019            0   0.39123849    1.8364332    2.2312369   -3.2165454 
 3800000    1.1779187 -1.6223545e-05   0.43419716 0.0067378821            0   0.42745927    1.7374301    2.1716273       1.0641 
 3805000   0.97514783 5.831176e-05   0.44099037 0.0055499648            0   0.43544041     1.438343    1.8793334    5.8600829 
 3810000    1.0070204 5.815598e-06   0.46906245  0.015079409            0   0.45398304    1.4853552    1.9544176    2.3514291 
 3815000   0.83201089 -7.8862775e-05    0.5275478  0.028682847            0   0.49886495    1.2272161    1.7547639   -3.6289349 
 3820000   0.80726736 6.6978434e-05   0.62016954  0.012985394            0   0.60718415    1.1907194    1.8108889    6.3832833 
 3825000   0.97773253 6.269063e-05   0.44281815 0.0089715233            0   0.43384662    1.4421555    1.8849736    6.1646539 
 3830000   0.97812822 2.5326307e-06   0.41815212  0.011876923            0   0.40627519    1.4427391    1.8608912    2.0337855 
 3835000   0.73882389 1.9366463e-05   0.37563085 0.0057668482            0     0.369864    1.0897652    1.4653961      2.78748 
 3840000   0.93490605 4.9056034e-05   0.34323059 0.00011072627            0   0.34311986    1.3789864     1.722217     5.071109 
 3845000    1.0173361 -1.5423283e-05    0.3817574    0.0173898            0    0.3643676    1.5005708    1.8823282   0.82943203 
 3850000   0.97024231 5.0707734e-06   0.44301757  0.061255602            0   0.38176197    1.4311074     1.874125    2.2202898 
 3855000   0.89622659 2.320307e-05   0.44980016  0.019415843            0   0.43038432    1.3219342    1.7717344    3.3557306 
 3860000    1.1762864 -4.6168656e-05   0.42548228 0.0039035462            0   0.42157873    1.7350225    2.1605048  -0.99127545 
 3865000    1.1075208 4.8119963e-05   0.56405116  0.022010323            0   0.54204084    1.6335932    2.1976444    5.4826338 
 3870000    1.1357034 6.8841254e-05   0.45637417  0.029505094            0   0.42686908    1.6751625    2.1315367    6.8310996 
 3875000    1.0999871 0.00010749396   0.52452572 0.0020323587            0   0.52249336     1.622481    2.1470067    9.4852607 
 3880000   0.92766452 -7.0832287e-05   0.53517242  0.013989952            0   0.52118246    1.3683052    1.9034776   -2.9320066 
 3885000   0.97364652 4.4171844e-05   0.58568854            0            0   0.58568854    1.4361286    2.0218172    5.0372817 
 3890000    1.0097543 -2.6235594e-05   0.48082559   0.03406711            0   0.44675848    1.4893877    1.9702133   0.17919673 
 3895000   0.98787853 -2.431019e-06   0.54670411  0.052491995            0   0.49421212    1.4571208    2.0038249    1.8378674 
 3900000    1.1484998 -7.7582892e-05   0.52734645 0.0029697484            0    0.5243767    1.6940372    2.2213837   -3.0749418 
 3905000    1.0815168 -1.4286185e-05   0.47633472  0.016235001            0   0.46009972    1.5952373    2.0715721    1.0963018 
 3910000    1.1875826 -0.0001764095   0.57374954 0.0072079003            0   0.56654164    1.7516843    2.3254339   -9.7174548 
 3915000    1.0174434 -6.6579727e-05   0.63457095  0.075786742            0   0.55878421     1.500729       2.1353    -2.409876 
 3920000   0.99210058 7.8280369e-06   0.58325753  0.024510522            0   0.55874701    1.4633484    2.0466059    2.5809999 
 3925000   0.97031539 -4.8277487e-06   0.61843968  0.031531502            0   0.58690818    1.4312152    2.0496549    1.7200806 
 3930000    1.0868589 -6.4374163e-05   0.46034214  0.021956143            0     0.438386    1.6031168     2.063459   -2.3311506 
 3935000    1.2234575 1.5037486e-05   0.52667731  0.047153209            0   0.47952411    1.8045998    2.3312772    3.3578362 
 3940000    1.2035295 2.0248525e-05   0.49125807   0.04391987            0    0.4473382    1.7752061    2.2664642    3.6487635 
 3945000    1.0855375 -8.9706599e-05   0.50544942 0.0013871847            0   0.50406223    1.6011678    2.1066172   -4.0173533 
 3950000     1.166839 -7.39785e-06   0.41384117 0.0029272489            0   0.41091392    1.7210876    2.1349288    1.6299022 
 3955000    1.0155776 -1.5716431e-05   0.47699215 0.00079237095            0   0.47619978     1.497977    1.9749691   0.90206076 
 3960000     1.021309 -1.0590465e-05   0.44217023 0.0053743007            0   0.43679593    1.5064307    1.9486009    1.2256252 
 3965000   0.95277608 -6.4829471e-05   0.46719715  0.022938811            0   0.44425834    1.4053447    1.8725419     -2.55315 
 3970000   0.91691275 7.5838707e-05   0.33359818  0.049779589            0   0.28381859    1.3524463    1.6860445    6.8633002 
 3975000   0.85170416 -1.0169739e-05   0.51609593   0.03553763            0    0.4805583    1.2562636    1.7723596    1.0781054 
 3980000   0.91673435 5.0619769e-05   0.54995721 1.3796066e-05            0   0.54994341    1.3521832    1.9021404    5.3577833 
 3985000    1.0560243 -2.2492189e-05   0.50872513 0.0014277829            0   0.50729735    1.5576359     2.066361   0.53089425 
 3990000    1.0015264 6.3038118e-05   0.54181483  0.012995359            0   0.52881947    1.4772514    2.0190663    6.3224685 
 3995000    1.0134416 6.2115899e-05   0.51354938 0.0092441875            0   0.50430519    1.4948263    2.0083757    6.2488211 
 4000000    1.1429795 5.7306357e-05   0.45990358   0.03082236            0   0.42908122    1.6858948    2.1457984    6.0579123 
Loop time of 222.229 on 1 procs for 2000000 steps with 60 atoms

Performance: 777577.599 tau/day, 8999.741 timesteps/s
98.4% CPU use with 1 MPI tasks x no OpenMP threads

MPI task timing breakdown:
Section |  min time  |  avg time  |  max time  |%varavg| %total
---------------------------------------------------------------
Pair    | 0.77334    | 0.77334    | 0.77334    |   0.0 |  0.35
Bond    | 1.9212     | 1.9212     | 1.9212     |   0.0 |  0.86
Neigh   | 188.14     | 188.14     | 188.14     |   0.0 | 84.66
Comm    | 26.297     | 26.297     | 26.297     |   0.0 | 11.83
Output  | 0.041567   | 0.041567   | 0.041567   |   0.0 |  0.02
Modify  | 4.4118     | 4.4118     | 4.4118     |   0.0 |  1.99
Other   |            | 0.6449     |            |       |  0.29

Nlocal:        60.0000 ave          60 max          60 min
Histogram: 1 0 0 0 0 0 0 0 0 0
Nghost:        0.00000 ave           0 max           0 min
Histogram: 1 0 0 0 0 0 0 0 0 0
Neighs:        17.0000 ave          17 max          17 min
Histogram: 1 0 0 0 0 0 0 0 0 0

Total # of neighbors = 17
Ave neighs/atom = 0.28333333
Ave special neighs/atom = 5.8000000
Neighbor list builds = 38298
Dangerous builds = 0
write_restart restart.rerun.1
System init for write_restart ...
WARNING: Communication cutoff 1.4200000000000002 is shorter than a bond length based estimate of 1.8. This may lead to errors. (../comm.cpp:667)
#--------------End of Input file ------------------
Total wall time: 0:03:42
