LAMMPS (29 Oct 2020)
###################### polyelectrolyte complexation ######################
clear

#Initialization
#------------------------------------
units				lj
dimension			3
atom_style			full
boundary			p p p

#Atom Definition
#-------------------------------------
read_data			data.complexation
Reading data file ...
  orthogonal box = (-120.00000 -120.00000 -120.00000) to (120.00000 120.00000 120.00000)
  1 by 1 by 1 MPI processor grid
  reading atoms ...
  200 atoms
  scanning bonds ...
  1 = max bonds/atom
  reading bonds ...
  199 bonds
Finding 1-2 1-3 1-4 neighbors ...
  special bond factors lj:    0.0      0.0      0.0     
  special bond factors coul:  0.0      0.0      0.0     
     2 = max # of 1-2 neighbors
     2 = max # of 1-3 neighbors
     4 = max # of 1-4 neighbors
     6 = max # of special neighbors
  special bonds CPU = 0.000 seconds
  read_data CPU = 0.003 seconds

#Force definition
#----------------------------------------------
#Bond definition
bond_style			harmonic
bond_coeff			1 5000 1
#Pair definition
special_bonds	lj 0 1 1
Finding 1-2 1-3 1-4 neighbors ...
  special bond factors lj:    0.0      1.0      1.0     
  special bond factors coul:  0.0      0.0      0.0     
     2 = max # of 1-2 neighbors
     2 = max # of 1-3 neighbors
     4 = max # of 1-4 neighbors
     6 = max # of special neighbors
  special bonds CPU = 0.000 seconds
pair_style		 lj/cut 1.12
pair_modify 		 shift yes
pair_coeff	1 1 1 1 1.12

#Timestep etc
#--------------------------------------------
timestep		1e-05
run_style		verlet
velocity		all	create	1	12

#Fix
#---------------------------------------
group polymers type 1
200 atoms in group polymers
fix 1 all nve
fix 2 all langevin 1	1	10	12
fix 3 polymers recenter INIT INIT INIT units box

#Dump
#------------------------------------------------
compute  1 all gyration
variable  myRg2 equal c_1
variable  i equal step
fix  mythermofile all print 5000 "$i ${myRg2}" file radius_of_gyration.dat screen no

thermo_style		 custom step temp press pe evdwl ecoul ebond ke etotal enthalpy
thermo 	5000
dump	3 all custom 5000 dump.lammpstrj id mol type xu yu zu
run		20000000
Neighbor list info ...
  update every 1 steps, delay 10 steps, check yes
  max neighbors/atom: 2000, page size: 100000
  master list distance cutoff = 1.42
  ghost atom cutoff = 1.42
  binsize = 0.71, bins = 339 339 339
  1 neighbor lists, perpetual/occasional/extra = 1 0 0
  (1) pair lj/cut, perpetual
      attributes: half, newton on
      pair build: half/bin/newton
      stencil: half/bin/3d/newton
      bin: standard
WARNING: Communication cutoff 1.4200000000000002 is shorter than a bond length based estimate of 1.8. This may lead to errors. (../comm.cpp:667)
Per MPI rank memory allocation (min/avg/max) = 165.7 | 165.7 | 165.7 Mbytes
Step Temp Press PotEng E_vdwl E_coul E_bond KinEng TotEng Enthalpy 
       0            1 1.4395255e-05            0            0            0            0       1.4925       1.4925       2.4875 
    5000   0.79400187 -0.00022710043   0.31876387            0            0   0.31876387    1.1850478    1.5038117    -14.19337 
   10000   0.41831729 -0.00053302046    0.8898249            0            0    0.8898249   0.62433855    1.5141635   -35.328211 
   15000   0.69703632 -0.00027320931   0.48545534            0            0   0.48545534    1.0403267     1.525782   -17.358445 
   20000   0.76988673 -0.00017324842   0.37833815            0            0   0.37833815     1.149056    1.5273941   -10.447537 
   25000   0.56553487 -0.00043758354   0.69285893            0            0   0.69285893   0.84406079    1.5369197   -28.708855 
   30000   0.69714215 -0.00032890446   0.51835228            0            0   0.51835228    1.0404847    1.5588369   -21.175039 
   35000   0.79988877 -0.00012703007   0.36633764            0            0   0.36633764     1.193834    1.5601716   -7.2201468 
   40000   0.68131182 -0.00027933602   0.54555573            0            0   0.54555573    1.0168579    1.5624136   -17.745292 
   45000   0.57916805 -0.00042570516   0.68939373            0            0   0.68939373   0.86440831     1.553802   -27.870938 
   50000   0.76706342 -0.00019056928    0.4323555            0            0    0.4323555    1.1448422    1.5771977   -11.594951 
   55000   0.75206695 -0.00015649048   0.45509548            0            0   0.45509548    1.1224599    1.5775554   -9.2390667 
   60000   0.66000373 -0.00031267547   0.58995505            0            0   0.58995505   0.98505557    1.5750106   -20.037118 
   65000   0.75241076 -0.00027576732   0.46960992            0            0   0.46960992    1.1229731     1.592583   -17.468454 
   70000   0.78944752 -0.0001579763   0.41239347            0            0   0.41239347    1.1782504    1.5906439   -9.3286779 
   75000   0.72155849 -0.00020015041   0.52526013            0            0   0.52526013     1.076926    1.6021862    -12.23221 
   80000   0.79196461 -0.00021262367   0.41437906            0            0   0.41437906    1.1820072    1.5963862   -13.100162 
   85000   0.76955372 -0.00023084085   0.44410423            0            0   0.44410423    1.1485589    1.5926632   -14.363057 
   90000   0.77887749 -0.00014850642   0.42820568            0            0   0.42820568    1.1624747    1.5906803   -8.6740831 
   95000   0.81061478 -0.00014048506    0.3821344            0            0    0.3821344    1.2098426     1.591977   -8.1183502 
  100000   0.82256117 -0.00014548305   0.36490041            0            0   0.36490041    1.2276725     1.592573   -8.4632153 
  105000   0.79786095 -0.00016645608   0.40939899            0            0   0.40939899    1.1908075    1.6002065    -9.905238 
  110000   0.81708158 -0.00011499699   0.38539977            0            0   0.38539977    1.2194943     1.604894   -6.3436982 
  115000    0.8394238 -0.00010641983   0.36038298            0            0   0.36038298      1.25284     1.613223   -5.7425154 
  120000   0.82999908 -0.00012843379   0.37385851            0            0   0.37385851    1.2387736    1.6126321   -7.2647116 
  125000   0.84004467 -0.00013230761   0.37453583            0            0   0.37453583    1.2537667    1.6283025   -7.5167998 
  130000    0.8093164 -0.0001078275   0.40508362            0            0   0.40508362    1.2079047    1.6129883   -5.8400484 
  135000   0.84735029 -5.5813745e-05   0.33837594            0            0   0.33837594    1.2646703    1.6030463   -2.2547998 
  140000   0.83643713 -9.4602566e-05   0.36272528            0            0   0.36272528    1.2483824    1.6111077   -4.9278216 
  145000   0.84341951 -9.5161483e-05   0.36326606            0            0   0.36326606    1.2588036    1.6220697    -4.955492 
  150000   0.84331043 -7.0098253e-05   0.38438353            0            0   0.38438353    1.2586408    1.6430243   -3.2021669 
  155000    0.8938685 -2.4287807e-05   0.29369591            0            0   0.29369591    1.3340987    1.6277946 -0.050978574 
  160000   0.86617499 -2.536213e-05   0.32675357            0            0   0.32675357    1.2927662    1.6195197  -0.13351068 
  165000   0.82553576 -0.00011316133   0.39520641            0            0   0.39520641    1.2321121    1.6273185   -6.1943928 
  170000    0.8495389 -7.0391507e-05   0.35802508            0            0   0.35802508    1.2679368    1.6259619   -3.2394991 
  175000   0.85963685 -1.6933922e-05   0.33001403            0            0   0.33001403     1.283008     1.613022   0.44254937 
  180000   0.86509879 -4.5458947e-05   0.33281166            0            0   0.33281166    1.2911599    1.6239716   -1.5181508 
  185000   0.85029991 -7.953024e-05   0.36270653            0            0   0.36270653    1.2690726    1.6317791   -3.8653511 
  190000   0.84998478 -1.8914757e-05   0.38019231            0            0   0.38019231    1.2686023    1.6487946   0.34140657 
  195000   0.86798117 7.4734544e-06   0.36577995            0            0   0.36577995    1.2954619    1.6612418     2.177807 
  200000   0.86422631 -5.5890376e-05   0.38114041            0            0   0.38114041    1.2898578    1.6709982   -2.1921446 
  205000   0.83345535 -4.146082e-05   0.42752814            0            0   0.42752814    1.2439321    1.6714602   -1.1943116 
  210000   0.86640001 -1.4832243e-05   0.38936205            0            0   0.38936205     1.293102    1.6824641   0.65725944 
  215000    0.8884169 -1.5361645e-05   0.36537754            0            0   0.36537754    1.3259622    1.6913398   0.62954289 
  220000   0.86801211 -8.4779505e-05   0.40198737            0            0   0.40198737    1.2955081    1.6974954   -4.1624639 
  225000    0.8983599 -3.7412409e-05   0.36054515            0            0   0.36054515    1.3408022    1.7013473  -0.88459844 
  230000   0.86093807 6.8915855e-06   0.41403401            0            0   0.41403401    1.2849501    1.6989841    2.1753305 
  235000    0.9106202  6.63489e-07    0.3338423            0            0    0.3338423    1.3591007     1.692943    1.7388033 
  240000   0.85609724 -7.5237364e-05   0.40461865            0            0   0.40461865    1.2777251    1.6823438   -3.5180628 
  245000   0.87029608 3.1588517e-07   0.38543906            0            0   0.38543906    1.2989169     1.684356    1.7061899 
  250000   0.89925858 3.8168666e-05   0.34753935            0            0   0.34753935    1.3421434    1.6896828     4.327901 
  255000   0.85131029 -6.5109494e-05   0.42694482 7.9880035e-06            0   0.42693683    1.2705806    1.6975254   -2.8028428 
  260000   0.89527335 -3.7880826e-05   0.35693624 0.00014899492            0   0.35678724    1.3361955    1.6931317    -0.925191 
  265000   0.87959562 2.3146947e-05    0.3919429 0.00046616118            0   0.39147674    1.3127965    1.7047394    3.3046563 
  270000   0.87600484 -5.0994438e-05   0.38300769 0.00072576504            0   0.38228192    1.3074372    1.6904449   -1.8342907 
  275000   0.87778581 2.3019492e-05   0.37852492 0.00022078641            0   0.37830414    1.3100953    1.6886202    3.2797275 
  280000   0.88921515 -4.7529693e-05   0.37529101 4.539133e-05            0   0.37524562    1.3271536    1.7024446   -1.5828078 
  285000   0.89446706 -4.2988451e-05   0.36720173            0            0   0.36720173    1.3349921    1.7021938   -1.2691679 
  290000   0.88360915 2.832761e-05     0.371161            0            0     0.371161    1.3187867    1.6899477    3.6479521 
  295000   0.85479533 -1.3705891e-05   0.43086448            0            0   0.43086448     1.275782    1.7066465   0.75929531 
  300000   0.89428312 -0.0001084061   0.38214406            0            0   0.38214406    1.3347176    1.7168616   -5.7761681 
  305000   0.92440862 2.0681326e-05   0.34811567            0            0   0.34811567    1.3796799    1.7277955    3.1572888 
  310000   0.91138393 1.7712233e-05    0.3651882            0            0    0.3651882    1.3602405    1.7254287    2.9496982 
  315000   0.91638473 -3.6331346e-05   0.34044758            0            0   0.34044758    1.3677042    1.7081518  -0.80307083 
  320000   0.88393433 -8.3073481e-05    0.4027721            0            0    0.4027721     1.319272    1.7220441    -4.019995 
  325000   0.88661685 2.9203239e-05   0.39945873            0            0   0.39945873    1.3232757    1.7227344    3.7412623 
  330000   0.89608908 -2.0678091e-05   0.37782124            0            0   0.37782124     1.337413    1.7152342   0.28596451 
  335000   0.86416406 -3.4371527e-05   0.43039457            0            0   0.43039457    1.2897649    1.7201594  -0.65560054 
  340000   0.91849841 -1.4969782e-05   0.36241673            0            0   0.36241673    1.3708589    1.7332756   0.69856427 
  345000   0.92787625 3.8975897e-05   0.35425607            0            0   0.35425607    1.3848553    1.7391114    4.4331254 
  350000   0.91192713 -4.4502345e-05   0.39213556            0            0   0.39213556    1.3610512    1.7531868   -1.3228153 
  355000   0.89202971 -1.9304808e-05   0.43883372            0            0   0.43883372    1.3313543    1.7701881   0.43583975 
  360000   0.91770739 2.8032517e-05   0.41068826            0            0   0.41068826    1.3696783    1.7803665    3.7179741 
  365000   0.92728307 -7.8935549e-05   0.40678084            0            0   0.40678084      1.38397    1.7907508   -3.6652743 
  370000   0.95621576 3.0292836e-05   0.38105133            0            0   0.38105133     1.427152    1.8082034    3.9020442 
  375000   0.96346116 -1.2453562e-05   0.38160766            0            0   0.38160766    1.4379658    1.8195734   0.95878324 
  380000   0.93331969 -4.3060241e-05   0.41685023            0            0   0.41685023    1.3929796    1.8098299    -1.166494 
  385000   0.94153753 1.7303268e-05   0.39770857            0            0   0.39770857    1.4052448    1.8029533    2.9989552 
  390000   0.93846161 -1.9564706e-05   0.40066164            0            0   0.40066164    1.4006539    1.8013156   0.44900309 
  395000   0.95027221 -3.7626408e-05   0.38381662            0            0   0.38381662    1.4182813    1.8020979  -0.79863941 
  400000   0.94401097 -6.5722329e-06   0.41199467            0            0   0.41199467    1.4089364     1.820931    1.3666583 
  405000   0.95159008 1.3255313e-05   0.40387496            0            0   0.40387496    1.4202482    1.8241232    2.7403304 
  410000   0.97812947 -3.5125963e-05   0.36709887            0            0   0.36709887    1.4598582    1.8269571  -0.60094947 
  415000   0.91116847 -1.4782486e-05   0.44817165            0            0   0.44817165    1.3599189    1.8080906   0.78632516 
  420000   0.92118595 -1.9687046e-05   0.42811821            0            0   0.42811821      1.37487    1.8029882   0.44221965 
  425000   0.90453202 3.2947527e-06   0.45208725            0            0   0.45208725     1.350014    1.8021013    2.0298346 
  430000   0.96745063 -4.6906077e-05   0.36523705            0            0   0.36523705    1.4439201    1.8091571   -1.4329909 
  435000   0.94950609 1.9868712e-05   0.38633083            0            0   0.38633083    1.4171378    1.8034687     3.176794 
  440000   0.91615105 -2.6590615e-05   0.43009392            0            0   0.43009392    1.3673554    1.7974494 -0.040493967 
  445000   0.93845138 6.9512566e-05   0.39178195            0            0   0.39178195    1.4006387    1.7924206    6.5971292 
  450000   0.92560323 -8.5214979e-05   0.43152824            0            0   0.43152824    1.3814628    1.8129911   -4.0770683 
  455000   0.91232457 1.5302435e-05   0.47799376            0            0   0.47799376    1.3616444    1.8396382    2.8973425 
  460000   0.94513898 4.4041019e-06   0.44059164            0            0   0.44059164    1.4106199    1.8512116    2.1556231 
  465000    0.9292394 -1.8322677e-05   0.45802848            0            0   0.45802848    1.3868898    1.8449183   0.57845484 
  470000   0.93186257 -7.9809871e-05   0.46834716            0            0   0.46834716    1.3908049    1.8591521   -3.6573062 
  475000   0.93994878 9.0029575e-05   0.47045612            0            0   0.47045612    1.4028736    1.8733297    8.0961739 
  480000   0.95178354 -0.00010741636   0.44082107            0            0   0.44082107    1.4205369     1.861358    -5.563261 
  485000   0.97089028 5.3412716e-05    0.4201121            0            0    0.4201121    1.4490537    1.8691658    5.5610527 
  490000   0.96971562 -1.4262154e-05   0.41934973            0            0   0.41934973    1.4473006    1.8666503   0.88085018 
  495000   0.96271472 -1.4016236e-05    0.4283654            0            0    0.4283654    1.4368517    1.8652171   0.89641492 
  500000   0.95878272 2.6824247e-05   0.42678993            0            0   0.42678993    1.4309832    1.8577731    3.7118651 
  505000   0.97013213 -5.6979788e-05   0.41287576            0            0   0.41287576    1.4479222     1.860798    -2.077645 
  510000   0.96491824 3.9491284e-06   0.43574564            0            0   0.43574564    1.4401405    1.8758861    2.1488499 
  515000   0.96812659 -6.5967416e-05   0.44400557            0            0   0.44400557    1.4449289    1.8889345   -2.6707333 
  520000   0.97052826 2.9685822e-05    0.4440185            0            0    0.4440185    1.4485134    1.8925319     3.944416 
  525000   0.97394486 -7.3828578e-05   0.45408058            0            0   0.45408058    1.4536127    1.9076933    -3.195338 
  530000    1.0126328 5.6319901e-05   0.38273927            0            0   0.38273927    1.5113545    1.8940938    5.7869253 
  535000   0.95045186 -1.8648663e-05   0.46900995            0            0   0.46900995    1.4185494    1.8875593   0.59856377 
  540000   0.95915077 -3.9780802e-05    0.4403815            0            0    0.4403815    1.4315325     1.871914    -0.877735 
  545000   0.95238584 6.8983423e-06   0.47754383            0            0   0.47754383    1.4214359    1.8989797    2.3757931 
  550000   0.94961923 -2.7574567e-05   0.48734005            0            0   0.48734005    1.4173067    1.9046467 -0.001307335 
  555000    0.9525218 -1.7554671e-05   0.47450974            0            0   0.47450974    1.4216388    1.8961485    0.6827697 
  560000   0.95533943 -1.5882591e-05   0.47674336            0            0   0.47674336    1.4258441    1.9025875   0.80478273 
  565000   0.95540412 -7.5505926e-05   0.48194202            0            0   0.48194202    1.4259407    1.9078827   -3.3110869 
  570000   0.96507496 5.1922474e-05   0.47496663            0            0   0.47496663    1.4403744     1.915341    5.5042224 
  575000   0.96668788 -5.3412661e-05   0.46398306            0            0   0.46398306    1.4427817    1.9067647   -1.7851184 
  580000   0.99681734 3.4633144e-05   0.42461377 6.0150122e-05            0   0.42455362    1.4877499    1.9123637    4.3062066 
  585000   0.96074793 -6.4249088e-05   0.47131857 0.00084590409            0   0.47047267    1.4339163    1.9052349   -2.5356621 
  590000   0.91005036 3.407057e-05   0.52467557 0.0012441175            0   0.52343145    1.3582502    1.8829257    4.2378835 
  595000   0.95751421 -4.4135842e-05   0.44845177 0.00039966696            0    0.4480521      1.42909    1.8775417   -1.1731277 
  600000   0.96450776 2.7463939e-05   0.41084545 5.8335525e-06            0   0.41083962    1.4395278    1.8503733    3.7486807 
  605000   0.95908154 -1.5668162e-05   0.43661253            0            0   0.43661253    1.4314292    1.8680417   0.78505834 
  610000   0.90960558 -4.288223e-05   0.51071527            0            0   0.51071527    1.3575863    1.8683016   -1.0957182 
  615000   0.95332616 2.9058398e-05   0.46420082            0            0   0.46420082    1.4228393    1.8870401    3.8955566 
  620000   0.92557738 -8.4428839e-05   0.50513402            0            0   0.50513402    1.3814242    1.8865583   -3.9491631 
  625000   0.93091946 4.9362154e-05    0.4883779            0            0    0.4883779    1.3893973    1.8777752    5.2896873 
  630000   0.94793258 -2.2100195e-05   0.47162487            0            0   0.47162487    1.4147894    1.8864142   0.35884878 
  635000   0.94812845 1.9567203e-06   0.46384275            0            0   0.46384275    1.4150817    1.8789245     2.014173 
  640000   0.94638701 3.0122589e-05   0.45758523 1.7329672e-05            0    0.4575679    1.4124826    1.8700678    3.9521412 
  645000   0.95140505 6.9668286e-06   0.46158277 0.00059655407            0   0.46098622     1.419972    1.8815548     2.363102 
  650000   0.94168658 -4.5140501e-05   0.47580554 0.00097772447            0   0.47482781    1.4054672    1.8812728   -1.2388387 
  655000   0.95071658 2.7961717e-07   0.46957829 0.00057083644            0   0.46900745    1.4189445    1.8885228    1.9078499 
  660000    0.9747054 -3.480142e-05   0.44539748 1.6128483e-05            0   0.44538136    1.4547478    1.9001453  -0.50532888 
  665000   0.94018506 7.9869745e-06   0.47719951 0.00064721367            0    0.4765523    1.4032262    1.8804257    2.4324854 
  670000    0.9117264 1.502818e-05   0.53388767 0.0042235051            0   0.52966416    1.3607517    1.8946393    2.9333871 
  675000   0.93196896 -4.3261829e-05    0.4944611 0.0044462029            0    0.4900149    1.3909637    1.8854248   -1.1048329 
  680000   0.95706415 -3.4345433e-05   0.44137963  0.002759492            0   0.43862014    1.4284182    1.8697979  -0.50415847 
  685000   0.92045258 7.7453002e-05   0.49969067 0.0046882982            0   0.49500237    1.3737755    1.8734661    7.2270177 
  690000   0.91438786 -5.4648097e-05   0.51461999  0.002409057            0   0.51221094    1.3647239    1.8793439   -1.8979326 
  695000   0.91888795 4.0592335e-05   0.49907035 0.00015403874            0   0.49891631    1.3714403    1.8705106    4.6762528 
  700000   0.93602343 -3.7112361e-05   0.47349776            0            0   0.47349776     1.397015    1.8705127  -0.69469363 
  705000   0.89711388 2.9559197e-05   0.54309258            0            0   0.54309258    1.3389425     1.882035    3.9251668 
  710000   0.89387142 -5.7390526e-05   0.56372323            0            0   0.56372323    1.3341031    1.8978263   -2.0690069 
  715000   0.92475105 7.6036193e-05   0.52482383 0.00058193516            0    0.5242419    1.3801909    1.9050148    7.1606364 
  720000   0.91460615 -6.2963589e-05    0.5408581 0.0038167697            0   0.53704134    1.3650497    1.9059078   -2.4461355 
  725000   0.95227554 2.3950133e-05   0.48542721 0.0023627078            0    0.4830645    1.4212712    1.9066984    3.5621317 
  730000   0.93537857 3.8345225e-05   0.52551584 2.5313907e-06            0   0.52551331    1.3960525    1.9215684    4.5719903 
  735000   0.92824599 -3.6617131e-05   0.52460307            0            0   0.52460307    1.3854071    1.9100102  -0.62096587 
  740000   0.90110454 8.7849097e-07   0.54190044            0            0   0.54190044    1.3448985     1.886799    1.9475203 
  745000   0.95017679 -4.3674951e-05   0.46167241            0            0   0.46167241    1.4181389    1.8798113   -1.1390013 
  750000   0.92866579 5.4978038e-05   0.48906222            0            0   0.48906222    1.3860337    1.8750959    5.6751779 
  755000   0.93191316 -6.8580279e-05   0.48980087            0            0   0.48980087    1.3908804    1.8806813   -2.8595876 
  760000   0.90432398 3.5555795e-05   0.52561356            0            0   0.52561356    1.3497035    1.8753171    4.3329337 
  765000   0.93832028 -4.1819851e-05   0.48787934            0            0   0.48787934     1.400443    1.8883224   -1.0022658 
  770000    0.9631972 -3.6010386e-07   0.47337143            0            0   0.47337143    1.4375718    1.9109432    1.8860529 
  775000    0.8846611 -6.7220555e-05   0.58858653            0            0   0.58858653    1.3203567    1.9089432   -2.7373416 
  780000   0.92837268 1.8887949e-05   0.51011286            0            0   0.51011286    1.3855962    1.8957091    3.2012441 
  785000   0.91123372 -7.4720326e-05   0.52333877            0            0   0.52333877    1.3600163    1.8833551   -3.2813138 
  790000   0.93201858 9.4531963e-05   0.50392884            0            0   0.50392884    1.3910377    1.8949666    8.4290159 
  795000   0.92019717 -6.7676808e-05    0.5309662            0            0    0.5309662    1.3733943    1.9043605   -2.7734605 
  800000    0.9343916 2.6411951e-05   0.50542545            0            0   0.50542545    1.3945795    1.9000049    3.7255989 
  805000   0.96223863  -5.0802e-05   0.46505665            0            0   0.46505665    1.4361412    1.9011978   -1.6102364 
  810000   0.91345048 -3.388393e-05   0.53529392            0            0   0.53529392    1.3633248    1.8986188  -0.44343845 
  815000   0.93114976 -3.5746635e-05   0.51602605            0            0   0.51602605     1.389741    1.9057671  -0.56504032 
  820000   0.93582664 2.1247174e-05   0.50863762            0            0   0.50863762    1.3967213    1.9053589    3.3739635 
  825000   0.93745372 -3.0309124e-05   0.50001338 4.1193511e-05            0   0.49997219    1.3991497     1.899163   -0.1958036 
  830000   0.96529773 3.6663209e-05   0.46380242 0.00052882532            0   0.46327359    1.4407069    1.9045093    4.4386703 
  835000   0.95666516 -9.9717758e-05   0.48682604 0.0011041946            0   0.48572184    1.4278228    1.9146488   -4.9778427 
  840000   0.97813105 2.8988522e-05   0.44353836 0.00092891917            0   0.44260944    1.4598606    1.9033989    3.9070856 
  845000   0.95655121 -1.1603707e-05   0.47237424 0.00023908842            0   0.47213515    1.4276527    1.9000269    1.0979787 
  850000   0.94281242 -4.4542621e-05   0.49270947 0.00010155191            0   0.49260792    1.4071475     1.899857   -1.1789289 
  855000   0.95454587 -4.9997386e-05   0.47487689 0.00094404633            0   0.47393284    1.4246597    1.8995366   -1.5562827 
  860000    0.9566416 -4.2290166e-06   0.47056466 0.0011658841            0   0.46939877    1.4277876    1.8983523    1.6060426 
  865000   0.93973476 -2.5701559e-05   0.50659232 0.00057026968            0   0.50602205    1.4025541    1.9091464   0.13265467 
  870000   0.93901769 -1.8224666e-05   0.51733058 0.00014943181            0   0.51718115    1.4014839    1.9188145   0.65912558 
  875000   0.97009762 1.6062442e-05   0.47826353            0            0   0.47826353    1.4478707    1.9261342    3.0363702 
  880000   0.97961327 -5.2879463e-05   0.45837463            0            0   0.45837463    1.4620728    1.9204474   -1.7345811 
  885000   0.96146646 2.0785981e-05   0.47936828            0            0   0.47936828    1.4349887     1.914357     3.351084 
  890000   0.92757959 -3.4418287e-05   0.52479968 0.00069789509            0   0.52410179    1.3844125    1.9092122   -0.4697798 
  895000   0.93353755 1.2655792e-06   0.49349753 0.0027825253            0     0.490715    1.3933048    1.8868023    1.9742792 
  900000   0.93195638 -2.7662686e-05   0.50433183 0.0011804899            0   0.50315134    1.3909449    1.8952767 -0.016768124 
  905000    0.9040594 -4.2851612e-05   0.53484067 0.00049629167            0   0.53434438    1.3493087    1.8841493   -1.0777541 
  910000   0.95149238 4.9160367e-05   0.48178177 2.156757e-05            0    0.4817602    1.4201024    1.9018841    5.2998487 
  915000   0.90445984 -9.2972718e-06   0.54226491            0            0   0.54226491    1.3499063    1.8921712    1.2495438 
  920000   0.93097838 -1.1946315e-05   0.50525183            0            0   0.50525183    1.3894852    1.8947371    1.0690078 
  925000    1.0132663 -3.1428848e-05   0.37829816 2.0062084e-05            0    0.3782781    1.5122999     1.890598  -0.28176393 
  930000   0.95296973  3.34458e-05   0.48085522 0.00030046336            0   0.48055476    1.4223073    1.9031625    4.2149362 
  935000   0.93489129 -5.2348381e-05   0.52474736 0.00048758677            0   0.52425977    1.3953252    1.9200726   -1.6982475 
  940000   0.97229561 3.8214673e-05   0.46509015 5.2587146e-05            0   0.46503756    1.4511512    1.9162413    4.5576396 
  945000    1.0068108 -7.8063063e-06   0.41340975 9.2651958e-06            0   0.41340048    1.5026651    1.9160748    1.3765029 
  950000   0.99335583 -4.5985243e-05   0.43247931            0            0   0.43247931    1.4825836    1.9150629   -1.2634371 
  955000   0.94832038 2.5098384e-05   0.49121505            0            0   0.49121505    1.4153682    1.9065832    3.6413835 
  960000   0.94230576 -2.2298153e-05   0.50903536            0            0   0.50903536    1.4063913    1.9154267   0.37417835 
  965000   0.94435113 8.4606564e-06   0.51000352            0            0   0.51000352    1.4094441    1.9194476    2.5042482 
  970000   0.95918146 -1.7696306e-05   0.48337278            0            0   0.48337278    1.4315783    1.9149511   0.69178244 
  975000   0.90008094 -2.1694505e-05   0.58897885            0            0   0.58897885    1.3433708    1.9323497    0.4328255 
  980000   0.93880355 2.8838447e-05   0.51562476            0            0   0.51562476    1.4011643    1.9167891    3.9101025 
  985000    0.9809404 6.5062863e-05   0.46178333            0            0   0.46178333    1.4640535    1.9258369     6.422982 
  990000   0.93721333 -6.0955925e-05   0.52428672 0.00047350613            0   0.52381321    1.3987909    1.9230776   -2.2901959 
  995000   0.96695564 9.1085657e-05   0.49476206 0.0060572533            0   0.48870481    1.4431813    1.9379434     8.233784 
 1000000   0.92023264 -9.0307033e-05   0.55107487 0.0052897983            0   0.54578507    1.3734472    1.9245221   -4.3175001 
 1005000    0.9455512 3.0323073e-05   0.51874209 0.00015943806            0   0.51858266    1.4112352    1.9299773    4.0259081 
 1010000    0.9261554 -7.3473121e-05   0.55494298            0            0   0.55494298    1.3822869    1.9372299   -3.1412322 
 1015000   0.93286149 5.4594682e-05   0.54291152 0.00034260186            0   0.54256891    1.3922958    1.9352073    5.7087917 
 1020000   0.93202491 -2.2658536e-05   0.54213491 0.0018938569            0   0.54024106    1.3910472    1.9331821   0.36702409 
 1025000   0.93861268 1.4642698e-05   0.53193214 0.0042817641            0   0.52765038    1.4008794    1.9328116    2.9449149 
 1030000   0.93369065 -4.8145188e-06   0.54465932 0.0028678926            0   0.54179143    1.3935333    1.9381926    1.6054131 
 1035000   0.96744862 -4.4458455e-05   0.48851578  0.001672097            0   0.48684368    1.4439171    1.9324328   -1.1405356 
 1040000    0.9291701 -7.7364671e-06   0.51990401 0.0014594038            0   0.51844461    1.3867864    1.9066904    1.3719458 
 1045000   0.87438134 2.0640827e-05   0.59493233 0.0025974085            0   0.59233492    1.3050141    1.8999465    3.3266405 
 1050000   0.88162045 -2.520146e-05   0.58094253 0.0037286615            0   0.57721387    1.3158185    1.8967611   0.15483614 
 1055000   0.91911149 -1.4942252e-06   0.51662699 0.0012778653            0   0.51534913    1.3717739    1.8884009      1.78512 
 1060000    0.8786444 -6.9633643e-05   0.57963966 4.0367672e-05            0    0.5795993    1.3113768    1.8910164    -2.922061 
 1065000   0.90985246 2.8925999e-05   0.51687946            0            0   0.51687946    1.3579548    1.8748343    3.8741993 
 1070000   0.90655394 -6.0505484e-05   0.54477357            0            0   0.54477357    1.3530318    1.8978053   -2.2843337 
 1075000   0.90096687 5.4774519e-05   0.55942621 0.00038592161            0   0.55904029    1.3446931    1.9041193     5.690134 
 1080000   0.93342125 -0.00010255198   0.53261289  0.001734876            0   0.53087802    1.3931312    1.9257441   -5.1626487 
 1085000   0.87999644 4.968324e-05   0.57557109 0.0019610748            0   0.57361002    1.3133947    1.8889658    5.3230713 
 1090000   0.85968579 -2.89168e-05   0.60547171 0.0022150375            0   0.60325667     1.283081    1.8885528  -0.11017644 
 1095000   0.94568835 -8.1318478e-06   0.49288281 0.0033034198            0   0.48957939    1.4114399    1.9043227    1.3422494 
 1100000   0.90344571 -4.1245377e-05   0.56352953 0.0044368623            0   0.55909266    1.3483927    1.9119222  -0.93895821 
 1105000   0.97975784 4.0597016e-05   0.48026784 0.0011975824            0   0.47907026    1.4622886    1.9425564    4.7486221 
 1110000   0.98064893 7.3112394e-06   0.48686876 3.0662066e-05            0    0.4868381    1.4636185    1.9504873    2.4558401 
 1115000   0.92408851 -9.8396581e-06    0.5584693            0            0    0.5584693    1.3792021    1.9376714    1.2575542 
 1120000    0.9386693 -1.9958861e-06    0.5212599 0.00070358117            0   0.52055632    1.4009639    1.9222238    1.7842682 
 1125000    0.9365311 -4.5156873e-05   0.53169127 0.00095262844            0   0.53073864    1.3977727    1.9294639   -1.1917791 
 1130000   0.95721866 -4.6812639e-06    0.5117036  0.002080092            0   0.50962351    1.4286488    1.9403524    1.6167835 
 1135000   0.96564403 -3.1624827e-05   0.49740968 0.0025051808            0    0.4949045    1.4412237    1.9386334  -0.24727461 
 1140000   0.94710456 -3.5103811e-05   0.52110192 0.0028120639            0   0.51828986    1.4135536    1.9346555  -0.49171993 
 1145000   0.95944596 -4.4596259e-05   0.50824912 0.00099626594            0   0.50725285    1.4319731    1.9402222   -1.1422712 
 1150000   0.97783015 4.0753632e-05   0.48977531 0.0018979349            0   0.48787738    1.4594115    1.9491868    4.7660779 
 1155000   0.97280707 2.9660945e-05   0.50114403 0.0033410921            0   0.49780294    1.4519146    1.9530586    4.0032231 
 1160000   0.98003106 1.7863273e-05   0.49585776 0.0018727408            0   0.49398502    1.4626964    1.9585541    3.1932636 
 1165000    1.0175463 1.2246606e-06   0.44946549 2.2161904e-05            0   0.44944333    1.5186879    1.9681534    2.0528019 
 1170000   0.96741319 -1.3429778e-05   0.50622096 0.0003875281            0   0.50583343    1.4438642    1.9500851    1.0218189 
 1175000   0.96723657 -3.4552772e-05   0.51039666 0.00086140978            0   0.50953525    1.4436006    1.9539972  -0.43429036 
 1180000   0.92236463 -2.5324091e-05   0.55946372 0.00037994378            0   0.55908377    1.3766292    1.9360929   0.18569176 
 1185000   0.96847762 -1.8963498e-05   0.48694295            0            0   0.48694295    1.4454528    1.9323958   0.62163884 
 1190000   0.97287194 -3.4062919e-05   0.49602545 1.4501508e-06            0     0.496024    1.4520114    1.9480368  -0.40639216 
 1195000   0.96828275 6.5707307e-06   0.50572225 1.5482868e-05            0   0.50570677     1.445162    1.9508843    2.4050532 
 1200000   0.95772296 -5.0331597e-05   0.50411081 0.0011518689            0   0.50295894    1.4294015    1.9335123   -1.5454077 
 1205000   0.94411665 -8.4566858e-06   0.51614821  0.003237473            0   0.51291073    1.4090941    1.9252423    1.3407162 
 1210000   0.92966852 -5.9531056e-06   0.53265398 0.0031775568            0   0.52947642    1.3875303    1.9201843    1.5087056 
 1215000   0.90501402 -2.2186148e-06   0.55578694 0.0018230226            0   0.55396392    1.3507334    1.9065204    1.7531697 
 1220000   0.92356901 1.6776712e-05   0.53914248 0.0012109973            0   0.53793148    1.3784267    1.9175692    3.0771756 
 1225000   0.92022546 7.8050273e-06   0.55531615 4.8254376e-05            0    0.5552679    1.3734365    1.9287526    2.4682361 
 1230000   0.91576851 -4.0594505e-05   0.57254907 0.00013112104            0   0.57241795    1.3667845    1.9393336   -0.8665586 
 1235000   0.96802926 3.603883e-05   0.49960583 0.00061651263            0   0.49898932    1.4447837    1.9443895    4.4353934 
 1240000   0.94336876 -5.3700711e-05   0.54319386 0.00027657346            0   0.54291728    1.4079779    1.9511717   -1.7606214 
 1245000   0.94137843 -1.2830617e-06   0.55305211 4.1829857e-05            0   0.55301028    1.4050073    1.9580594    1.8693742 
 1250000   0.95301916 2.083364e-05   0.53526225 6.5443368e-05            0   0.53519681    1.4223811    1.9576433    3.3976645 
 1255000    0.9437319 4.6512861e-06   0.57851084 0.00097544422            0   0.57753539    1.4085199    1.9870307    2.3085276 
 1260000   0.98346291 1.6271148e-06   0.52850801 0.0036501455            0   0.52485787    1.4678184    1.9963264    2.1087926 
 1265000   0.96621423 8.0439804e-06   0.54615299 0.0063115428            0   0.53984145    1.4420747    1.9882277    2.5442276 
 1270000   0.99360437 -3.3476532e-05   0.48464418 0.0036365421            0   0.48100764    1.4829545    1.9675987   -0.3462992 
 1275000   0.97408015 -4.0670869e-05   0.50520027 0.0051370395            0   0.50006323    1.4538146    1.9590149   -0.8521556 
 1280000   0.94313175 -2.7379083e-05   0.55020992 0.0024012925            0   0.54780863    1.4076241    1.9578341  0.065391805 
 1285000   0.95982854 -1.6116311e-05   0.51587605 0.00023984524            0   0.51563621    1.4325441    1.9484201   0.83446076 
 1290000   0.97035527 6.6918991e-07   0.51047181 0.00038652045            0   0.51008529    1.4482552     1.958727    2.0049815 
 1295000   0.95226076 3.1005182e-06   0.50945501 0.00078471914            0   0.50867029    1.4212492    1.9307042     2.145012 
 1300000    0.9550281 2.5559008e-06   0.51420422 0.00060886934            0   0.51359535    1.4253794    1.9395837    2.1162475 
 1305000   0.93111642 -8.4088423e-06   0.53459407 0.00014126218            0   0.53445281    1.3896913    1.9242853    1.3430662 
 1310000   0.93339923 4.6455103e-05   0.52175803            0            0   0.52175803    1.3930983    1.9148564    5.1258331 
 1315000   0.86774031 -4.2689235e-05   0.62065857            0            0   0.62065857    1.2951024     1.915761   -1.0349189 
 1320000   0.91954753 -1.7512499e-05    0.5462697            0            0    0.5462697    1.3724247    1.9186944   0.70823046 
 1325000   0.89661798 -2.4180378e-05   0.56497884 3.6357397e-05            0   0.56494249    1.3382023    1.9031812   0.23183345 
 1330000   0.88156482 -3.5048772e-05   0.58270099 6.2648513e-05            0   0.58263834    1.3157355    1.8984365  -0.52413462 
 1335000   0.95707842 1.9126334e-05   0.47891637 9.2594688e-05            0   0.47882377    1.4284395    1.9073559    3.2293681 
 1340000   0.89010432 -5.3047913e-05   0.55921471 0.0013487938            0   0.55786591    1.3284807    1.8876954   -1.7789764 
 1345000   0.89896528 -5.8433303e-06   0.52553916 0.0019986528            0    0.5235405    1.3417057    1.8672448    1.4633539 
 1350000   0.95022138 -2.5830691e-05   0.45122228 0.0014597174            0   0.44976256    1.4182054    1.8694277  0.084010294 
 1355000   0.93045326 1.0607149e-05   0.48125917 0.0038263998            0   0.47743277    1.3887015    1.8699607    2.6031268 
 1360000   0.91452959 2.6174755e-05   0.47991809  0.010327586            0    0.4695905    1.3649354    1.8448535    3.6540525 
 1365000   0.94038383 2.8190688e-05   0.45772203 0.0013089442            0   0.45641308    1.4035229    1.8612449    3.8097853 
 1370000   0.90101157 -8.4532724e-05   0.51014702 0.0015028199            0    0.5086442    1.3447598    1.8549068   -3.9879951 
 1375000   0.91703219 5.8282173e-06   0.51028521 0.0022294523            0   0.50805576    1.3686705    1.8789558    2.2818021 
 1380000   0.89862094 -6.8470411e-05   0.54933157 0.0034948364            0   0.54583674    1.3411918    1.8905233   -2.8421515 
 1385000   0.90537487 -1.3655935e-05   0.54811423 0.0040855969            0   0.54402864     1.351272    1.8993862   0.95548803 
 1390000   0.90946929 4.1555368e-06    0.5230954 0.0020484876            0   0.52104691    1.3573829    1.8804783     2.167709 
 1395000   0.93428746 1.1558565e-05   0.48886607 0.0014096752            0   0.48745639     1.394424    1.8832901    2.6822181 
 1400000   0.88891062 -3.4828047e-05    0.5511138 0.0018738281            0   0.54923997    1.3266991    1.8778129  -0.52950173 
 1405000   0.91253297 4.2940503e-06   0.51267348 0.0029813344            0   0.50969215    1.3619555    1.8746289    2.1714337 
 1410000   0.91161296 -6.9960908e-06   0.52356123 0.0064732625            0   0.51708797    1.3605823    1.8841436    1.4005738 
 1415000   0.92622596 -1.6539188e-05   0.51148798 0.00084932409            0   0.51063865    1.3823922    1.8938802   0.75069155 
 1420000   0.92170818 1.2305415e-05   0.50659685 7.1095359e-05            0   0.50652575    1.3756495    1.8822463    2.7327966 
 1425000   0.94338634 1.9555441e-06   0.47453899 1.7308797e-05            0   0.47452168    1.4080041    1.8825431    2.0177103 
 1430000   0.89874663 -4.8940266e-05   0.55372066 0.00015285669            0    0.5535678    1.3413793       1.8951   -1.4876512 
 1435000   0.94068882 2.4471502e-05   0.48519292 0.00034456038            0   0.48484836    1.4039781     1.889171    3.5806412 
 1440000    0.9403181 -3.7954902e-05   0.48142487 0.0020384743            0    0.4793864    1.4034248    1.8848496   -0.7385932 
 1445000   0.94285276 5.8070685e-06   0.49362057 0.00070955035            0   0.49291102    1.4072077    1.9008283    2.3022129 
 1450000   0.98270447 3.2266701e-05    0.4311294 0.00012058233            0   0.43100882    1.4666864    1.8978158    4.1280902 
 1455000   0.93568126 8.1577092e-06   0.49356709 0.00022115532            0   0.49334593    1.3965043    1.8900714    2.4539322 
 1460000   0.95415949 1.9942132e-05   0.46158385 0.00094750602            0   0.46063634     1.424083    1.8856669    3.2640671 
 1465000   0.93101532 -1.0915168e-06   0.49287883 0.0010316287            0    0.4918472    1.3895404    1.8824192    1.8069736 
 1470000   0.94248034 -1.4310378e-05   0.49028339 0.0029240922            0    0.4873593    1.4066519    1.8969353     0.907802 
 1475000   0.93121382 -6.9383272e-06   0.50759646 0.0052916526            0   0.50230481    1.3898366    1.8974331    1.4178559 
 1480000   0.93760868 -6.8475341e-05    0.4993352 0.0018587434            0   0.49747646     1.399381    1.8987162   -2.8342994 
 1485000   0.92136099 -2.5526028e-05   0.52851107 0.00040266881            0    0.5281084    1.3751313    1.9036423   0.13928332 
 1490000   0.95545083 1.9757039e-05   0.49236207 0.00056990482            0   0.49179216    1.4260104    1.9183724     3.283979 
 1495000    0.9276076 -7.9806794e-05   0.53587667 0.00033368063            0   0.53554299    1.3844543     1.920331   -3.5959146 
 1500000   0.94142645 -0.0001048992   0.51155752 1.2583798e-05            0   0.51154493     1.405079    1.9166365   -5.3339962 
 1505000   0.93517024 8.2802353e-05   0.54799161            0            0   0.54799161    1.3957416    1.9437332    7.6670318 
 1510000   0.96490898 -2.0737068e-05    0.4999651 9.2847822e-06            0   0.49995582    1.4401267    1.9400918    0.5067456 
 1515000   0.97023033 -5.666963e-06   0.49587221 0.00046250268            0   0.49540971    1.4480688     1.943941    1.5522405 
 1520000   0.97524236 4.6413888e-05   0.47306883 0.0016061749            0   0.47146266    1.4555492    1.9286181     5.136746 
 1525000   0.92606542 -8.8529559e-05   0.53203229 0.0040724795            0   0.52795981    1.3821526    1.9141849   -4.2049782 
 1530000   0.92584077 4.0148976e-05   0.55176223 0.0057666519            0   0.54599558    1.3818173    1.9335796    4.7086768 
 1535000   0.94535091 -9.0801346e-05   0.51576278 0.0059121373            0   0.50985064    1.4109362     1.926699     -4.34949 
 1540000   0.94685177 4.9535474e-05   0.52504142 0.0039450969            0   0.52109632    1.4131763    1.9382177    5.3621096 
 1545000   0.96233918 -3.2926976e-06   0.50565513 0.0020838571            0   0.50357128    1.4362912    1.9419464    1.7143551 
 1550000     0.991391 3.675554e-05    0.4666046 0.00067025881            0   0.46593434    1.4796511    1.9462557    4.4867986 
 1555000   0.90952056 -2.2745515e-05   0.57822371 5.5153812e-05            0   0.57816856    1.3574594    1.9356832   0.36351317 
 1560000   0.98483854 -2.1884269e-05   0.47631853 0.0015984639            0   0.47472006    1.4698715      1.94619   0.43354934 
 1565000   0.96837597 -5.2487743e-05   0.48478278 0.0035299247            0   0.48125285    1.4453011    1.9300839   -1.6978689 
 1570000   0.96938549 1.3626753e-05   0.47743181 0.0013490738            0   0.47608274    1.4468078    1.9242397    2.8661208 
 1575000   0.92129704 -4.6697726e-06   0.54085079 3.3674567e-06            0   0.54084743    1.3750358    1.9158866    1.5931119 
 1580000   0.91674874 2.6839939e-06   0.52806534            0            0   0.52806534    1.3682475    1.8963128    2.0818305 
 1585000   0.92835863 -3.5978917e-05   0.51859368 0.0004025408            0   0.51819114    1.3855753    1.9041689   -0.5826938 
 1590000   0.92087109 3.1927109e-05   0.52137283 0.0026571778            0   0.51871565    1.3744001    1.8957729    4.1025747 
 1595000   0.89811202 7.0371984e-06   0.54917285 0.0034762536            0   0.54569659    1.3404322     1.889605    2.3760162 
 1600000   0.93132384 2.5822513e-05   0.49755968  0.001640101            0   0.49591958    1.3900008    1.8875605    3.6724126 
 1605000   0.95601888 3.0908354e-05   0.46320455 0.0012151394            0   0.46198941    1.4268582    1.8900627    4.0264482 
 1610000   0.91967142 -8.8038656e-06   0.53204083 0.0025056447            0   0.52953518    1.3726096    1.9046504    1.2961272 
 1615000   0.96565823 -3.643945e-05   0.47567744 0.0021356408            0    0.4735418    1.4412449    1.9169223  -0.60177244 
 1620000    0.9791784 -2.873066e-05   0.45221992 0.0003782873            0   0.45184164    1.4614238    1.9136437 -0.072219533 
 1625000   0.93317957 -1.1041902e-05    0.5184723 0.00072174421            0   0.51775055    1.3927705    1.9112428    1.1480265 
 1630000    1.0004464 -1.7462619e-06   0.40351777 0.0012329624            0   0.40228481    1.4931662     1.896684    1.7759824 
 1635000   0.94807791 2.6911896e-05   0.48401309 0.0032718833            0    0.4807412    1.4150063    1.8990194    3.7591696 
 1640000   0.94590548 -9.2687596e-05   0.47042296 0.0017250778            0   0.46869788    1.4117639    1.8821869   -4.5243797 
 1645000   0.94341755  7.79878e-07   0.48639133 0.0006769966            0   0.48571433    1.4080507     1.894442    1.9483472 
 1650000   0.96549789 -8.7247076e-06   0.46341343 0.0033798872            0   0.46003354    1.4410056     1.904419    1.3013672 
 1655000   0.97257804 1.9667542e-05   0.47191028 0.0034344479            0   0.46847583    1.4515727     1.923483    3.2829035 
 1660000   0.93189423 -0.00010847378   0.52468461 0.0011140047            0    0.5235706    1.3908521    1.9155367   -5.5821711 
 1665000   0.93962056 -1.9636851e-05   0.50183747 0.0045943434            0   0.49724313    1.4023837    1.9042212   0.54692198 
 1670000   0.96091499 5.1914963e-05   0.45186188 0.0069589085            0   0.44490297    1.4341656    1.8860275    5.4743898 
 1675000   0.92348936 3.3187287e-05   0.49703721 0.0064667142            0   0.49057049    1.3783079    1.8753451    4.1692503 
 1680000   0.89985099 1.7365971e-05   0.53482893 0.0050997126            0   0.52972922    1.3430276    1.8778565    3.0781925 
 1685000   0.93800213 -2.2245352e-05    0.4693225 0.0065051562            0   0.46281735    1.3999682    1.8692907   0.33169197 
 1690000   0.91512439 1.7586229e-05   0.49805651 0.0068135822            0   0.49124293    1.3658232    1.8638797    3.0794398 
 1695000   0.91314657 -5.7205806e-06   0.50029154 0.0057610536            0   0.49453049    1.3628713    1.8631628    1.4677563 
 1700000     0.916614 -4.4477932e-05   0.50766994 0.0013784604            0   0.50629148    1.3680464    1.8757163   -1.1985983 
 1705000   0.92477221 -6.7858714e-05   0.49957111 0.0010759426            0   0.49849517    1.3802225    1.8797936   -2.8106006 
 1710000   0.92223701 2.5943393e-05    0.4968793 0.0041252541            0   0.49275405    1.3764387     1.873318    3.6665254 
 1715000    0.9506961 3.087823e-05   0.44717682 0.0081099079            0   0.43906691    1.4189139    1.8660907     4.000394 
 1720000   0.91833905 -1.2553511e-05    0.5174217 0.0075012317            0   0.50992047     1.370621    1.8880427    1.0203441 
 1725000   0.87918123 -5.2246838e-05   0.57777765  0.008327455            0   0.56945019     1.312178    1.8899556   -1.7213458 
 1730000    0.9122963 6.8919938e-05   0.51508737 0.0040568641            0   0.51103051    1.3616022    1.8766896    6.6404357 
 1735000   0.90912492 2.1062378e-06   0.52457744 0.0031194476            0   0.52145799    1.3568689    1.8814464    2.0270295 
 1740000   0.93336596 3.5674343e-05   0.47805216 0.0077372674            0   0.47031489    1.3930487    1.8711009    4.3369115 
 1745000    0.9307078 -2.6978587e-06   0.47170998 0.0093857939            0   0.46232419    1.3890814    1.8607914    1.6743154 
 1750000   0.94924496 2.9928517e-05   0.45975464 0.0043079582            0   0.45544668    1.4167481    1.8765027    3.9451618 
 1755000   0.92883151 -2.4007559e-05   0.48303667 0.00046208779            0   0.48257458     1.386281    1.8693177   0.20991521 
 1760000   0.90594523 -2.6892397e-05   0.49536513 0.00079347253            0   0.49457165    1.3521233    1.8474884 -0.011314084 
 1765000   0.92621508 1.422074e-05   0.47768388  0.001394401            0   0.47628948     1.382376    1.8600599    2.8429974 
 1770000   0.96580759 -1.8734548e-05   0.42839129 0.0016051834            0    0.4267861    1.4414678    1.8698591   0.57492716 
 1775000   0.91082277 -1.3286625e-05   0.52177955 0.0085623472            0    0.5132172     1.359403    1.8811825   0.96281104 
 1780000   0.96865421 3.0833126e-05   0.43639998  0.015520376            0    0.4208796    1.4457164    1.8821164    4.0133021 
 1785000   0.90340391 -2.3939337e-05   0.53734449  0.007150654            0   0.53019384    1.3483303    1.8856748   0.23098783 
 1790000    0.9431366 -1.8644414e-05   0.45795122 0.0016210921            0   0.45633013    1.4076314    1.8655826   0.57688074 
 1795000   0.92500274 -5.0283275e-06   0.48070375 0.0014932244            0   0.47921053    1.3805666    1.8612703    1.5137123 
 1800000   0.91861874 -4.8828652e-05   0.48534353 0.0013902231            0    0.4839533    1.3710385     1.856382   -1.5186544 
 1805000   0.91784293 -1.9405268e-05   0.47950134 0.0046030618            0   0.47489827    1.3698806    1.8493819   0.50808977 
 1810000   0.92113915 3.2725501e-05    0.4481718 0.0037521468            0   0.44441966    1.3748002     1.822972    4.0849586 
 1815000   0.91151106 -2.7667577e-05   0.46260036 0.0016715869            0   0.46092878    1.3604303    1.8230306 -0.089352279 
 1820000   0.89576472 -1.867055e-05   0.49096047  0.002754475            0   0.48820599    1.3369288    1.8278893   0.53738089 
 1825000   0.96795687 -2.0414366e-06   0.38493162  0.010782497            0   0.37414912    1.4446756    1.8296072    1.6885031 
 1830000   0.92876901 2.5365905e-06   0.44636615 0.0093337027            0   0.43703244    1.3861877    1.8325539     2.007883 
 1835000   0.91748778 4.1434034e-05   0.48316982 0.0019621784            0   0.48120765    1.3693505    1.8525203    4.7164408 
 1840000   0.93233029 -2.3715281e-05   0.46160464 0.0017964364            0    0.4598082     1.391503    1.8531076    0.2139074 
 1845000   0.93774271 3.4117144e-05   0.45127431 0.0027946221            0   0.44847968     1.399581    1.8508553    4.2090323 
 1850000   0.91347744 -6.8279541e-05   0.48182387 0.0021092758            0    0.4797146    1.3633651    1.8451889   -2.8742929 
 1855000    0.9032123 5.1146804e-07   0.48230041 0.0063207098            0    0.4759797    1.3480444    1.8303448    1.8656974 
 1860000   0.90145765 -1.3344406e-06   0.49042682  0.012378898            0   0.47804792    1.3454255    1.8358524    1.7436158 
 1865000   0.92934146 -2.7917587e-07   0.45522278  0.013518455            0   0.44170433    1.3870421    1.8422649    1.8229683 
 1870000   0.94199473 -3.727298e-06   0.43777272 0.0098113794            0   0.42796134    1.4059271    1.8436999     1.586069 
 1875000   0.94149863 1.3648711e-05   0.44628216 0.0036717092            0   0.44261045    1.4051867    1.8514689    2.7948678 
 1880000   0.96315619 -3.7867578e-05   0.42287906 0.0039720292            0   0.41890703    1.4375106    1.8603897  -0.75701729 
 1885000   0.88346692 -1.5495475e-06   0.55469735 0.0011530516            0    0.5535443    1.3185744    1.8732717     1.766167 
 1890000    0.9806768 1.4830385e-05   0.39232603 0.0029834478            0   0.38934258    1.4636601    1.8559862    2.8810624 
 1895000   0.92834346 -3.011783e-05   0.46444316 0.0062208778            0   0.45822228    1.3855526    1.8499958  -0.23174863 
 1900000   0.93174038 1.8404536e-05   0.47225792  0.002725403            0   0.46953252    1.3906225    1.8628804     3.135002 
 1905000    1.0074423 4.3547335e-06   0.37553282 0.0017420641            0   0.37379076    1.5036076    1.8791404    2.1801396 
 1910000   0.91917855 1.848457e-05   0.51791147 0.0013192505            0   0.51659222     1.371874    1.8897855    3.1674389 
 1915000   0.93700247 -5.6892177e-05   0.46869246 0.0023559186            0   0.46633655    1.3984762    1.8671686   -2.0652186 
 1920000   0.93797259 -1.3861195e-05   0.45245602  0.004084537            0   0.44837149    1.3999241    1.8523801   0.89429434 
 1925000   0.89930268 3.9997205e-06   0.50734229 0.0062416082            0   0.50110069    1.3422093    1.8495515    2.1260122 
 1930000   0.91656991 -5.0058143e-05   0.46944242 0.0098687424            0   0.45957368    1.3679806     1.837423   -1.6225958 
 1935000   0.86289864 -1.6735612e-05   0.53386314  0.006530345            0   0.52733279    1.2878762    1.8217394   0.66497386 
 1940000   0.93824184 -3.5139111e-05   0.39926284 0.0010502319            0   0.39821261    1.4003259    1.7995888  -0.62922654 
 1945000    0.8885742 -3.5594867e-05   0.45882275 0.0034469473            0   0.45537581     1.326197    1.7850197  -0.67529743 
 1950000    0.8933681 -1.1982541e-05   0.46917373  0.016613946            0   0.45255979    1.3333519    1.8025256   0.97429242 
 1955000   0.92480754 -8.0515163e-07   0.43141447 0.0077674277            0   0.42364704    1.3802753    1.8116897    1.7560376 
 1960000   0.93436574 4.8824931e-05   0.42277135 5.8968433e-05            0   0.42271238    1.3945409    1.8173122    5.1920914 
 1965000   0.97619004 5.7761117e-06   0.34569664 0.0015128408            0    0.3441838    1.4569636    1.8026603    2.2019051 
 1970000   0.89290258 -2.2830086e-05   0.48240398  0.007954092            0   0.47444989    1.3326571    1.8150611   0.23704556 
 1975000   0.91957945 -4.6922818e-05   0.45172571 0.0067646289            0   0.44496108    1.3724723     1.824198   -1.4191072 
 1980000   0.90400973 1.5967919e-05   0.46178806  0.010146066            0     0.451642    1.3492345    1.8110226    2.9147251 
 1985000   0.94899557 -7.3946541e-06   0.40053145 0.0094706042            0   0.39106085    1.4163759    1.8169073    1.3057889 
 1990000   0.92974435 4.511489e-05   0.41598621 0.0038390363            0   0.41214717    1.3876434    1.8036296    4.9219708 
 1995000   0.89686199 -5.1473866e-05   0.46612869 0.0040486924            0      0.46208    1.3385665    1.8046952   -1.7531784 
 2000000   0.91159233 -7.1618724e-06    0.4287833  0.004067645            0   0.42471565    1.3605516    1.7893349    1.2943062 
 2005000   0.91854388 -2.4206778e-05   0.42489293 0.0028269047            0   0.42206602    1.3709267    1.7958197   0.12264714 
 2010000   0.93919439 5.6188878e-05   0.40727149 0.0013513025            0   0.40592019    1.4017476    1.8090191    5.6927943 
 2015000   0.89135081 -7.2392759e-05   0.44685162 0.0007793687            0   0.44607225    1.3303411    1.7771927   -3.2265948 
 2020000   0.95258588 -2.6804955e-06   0.36927867 8.4505505e-05            0   0.36919416    1.4217344    1.7910131    1.6057373 
 2025000   0.93303093 5.9721142e-05   0.39156481 0.00030060176            0   0.39126421    1.3925487    1.7841135    5.9120388 
 2030000    0.9259841 4.5115122e-05   0.40078417 0.00034505377            0   0.40043911    1.3820313    1.7828154    4.9011727 
 2035000   0.89407654 -2.1016353e-05   0.45057756 0.00087569906            0   0.44970186    1.3344092    1.7849868    0.3323365 
 2040000    0.8927222 -7.3519999e-05    0.4354809 0.0068358384            0   0.42864506    1.3323879    1.7678688   -3.3138336 
 2045000   0.88309789 4.9013495e-05   0.43464752  0.024030429            0   0.41061709    1.3180236    1.7526711    5.1404839 
 2050000   0.89082026 -2.923863e-05   0.42396438  0.015459022            0   0.40850536    1.3295492    1.7535136  -0.26746048 
 2055000   0.83843865 -2.1108056e-05   0.51743264 0.0088682087            0   0.50856443    1.2513697    1.7688023   0.30981348 
 2060000   0.88263868 -4.5198347e-05   0.44944091  0.018594724            0   0.43084618    1.3173382    1.7667791   -1.3573306 
 2065000   0.88133926 -3.2168285e-05   0.45284401  0.017962401            0   0.43488161    1.3153988    1.7682429  -0.45522898 
 2070000   0.86655443 8.6150714e-06   0.47096304 0.0062895051            0   0.46467353    1.2933325    1.7642955    2.3597693 
 2075000   0.88341431 -3.0797412e-05   0.44742438 0.00082849723            0   0.44659588    1.3184959    1.7659202  -0.36279691 
 2080000   0.88918587 -6.7521469e-06   0.46312705 0.0012537286            0   0.46187332    1.3271099     1.790237    1.3235286 
 2085000   0.87070368 2.6753249e-05   0.47629665 0.0070358719            0   0.46926078    1.2995252    1.7758219    3.6250065 
 2090000   0.84244019 -4.8639024e-05   0.52172671  0.012191168            0   0.50953554     1.257342    1.7790687   -1.5828606 
 2095000   0.90761736 6.4636888e-05   0.44053756 0.0097831989            0   0.43075437    1.3546189    1.7951565    6.2628582 
 2100000   0.89645762 -4.3961136e-05   0.45435334 0.0098648327            0   0.44448851     1.337963    1.7923163   -1.2462774 
 2105000   0.89382622 -7.3318575e-05   0.47072883 0.0046950546            0   0.46603377    1.3340356    1.8047645   -3.2630155 
 2110000    0.9477499 -3.3090333e-05   0.40927608 0.0022677373            0   0.40700835    1.4145167    1.8237928  -0.46341104 
 2115000   0.93010905 -1.2767558e-05    0.4340365  0.015834721            0   0.41820178    1.3881878    1.8222243   0.93973067 
 2120000   0.90448983 5.4073934e-05   0.48687586 0.0089563729            0   0.47791948    1.3499511    1.8368269    5.5744172 
 2125000   0.94815426 6.5490946e-05   0.41751299 0.0026773234            0   0.41483567    1.4151202    1.8326332    6.3593674 
 2130000   0.91364837 6.8184172e-06   0.46138947 0.0013174733            0   0.46007199    1.3636202    1.8250097    2.2962987 
 2135000   0.94321121 1.643938e-05   0.43627975 0.00048145964            0   0.43579829    1.4077427    1.8440225    2.9803124 
 2140000   0.94613057 4.8499748e-05    0.4622632 0.0032468057            0   0.45901639    1.4120999    1.8743631    5.2266657 
 2145000   0.94127072 9.8691617e-06   0.47361127 0.0071256007            0   0.46648567    1.4048466    1.8784578    2.5606143 
 2150000    0.9878514 2.5216069e-06   0.41480489 0.0049277814            0   0.40987711    1.4743682    1.8891731    2.0634666 
 2155000   0.95494646 2.3146402e-06   0.47344205 0.0035680965            0   0.46987396    1.4252576    1.8986997    2.0586876 
 2160000   0.97781274 -2.0288498e-05   0.44423211 0.0017548203            0   0.44247729    1.4593855    1.9036176   0.50127663 
 2165000   0.98156151 -1.4773956e-05    0.4477399 0.0022674247            0   0.44547248    1.4649806    1.9127205   0.89154464 
 2170000   0.97845592 -7.9049715e-06   0.46328594 0.0036311596            0   0.45965478    1.4603455    1.9236314    1.3772398 
 2175000   0.98157557 1.7666446e-06   0.43838214 0.0042989475            0   0.43408319    1.4650015    1.9033837    2.0254942 
 2180000   0.99362429 5.7645927e-05   0.43134046 0.0019642374            0   0.42937622    1.4829842    1.9143247    5.8988112 
 2185000   0.97504942 -2.2275384e-05   0.46662955 0.0030981728            0   0.46353138    1.4552613    1.9218908   0.38221624 
 2190000    1.0070565 -4.6173441e-05   0.42435486 0.0073808591            0   0.41697401    1.5030318    1.9273866   -1.2641216 
 2195000   0.92473632 -9.1171809e-06   0.54451539  0.026900497            0   0.51761489     1.380169    1.9246844    1.2945048 
 2200000   0.95166699 5.3415523e-06   0.49595257  0.013120861            0   0.48283171     1.420363    1.9163156    2.2855236 
 2205000   0.98047444 7.2993857e-06   0.45969771  0.012707022            0   0.44699069    1.4633581    1.9230558    2.4275894 
 2210000   0.98995526 -1.0724173e-05   0.45927999  0.019631948            0   0.43964804    1.4775082    1.9367882    1.1955334 
 2215000   0.97633511 -2.498131e-05   0.49590096 0.0075762895            0   0.48832467    1.4571801    1.9530811   0.22637297 
 2220000    1.0138846 2.2401347e-05   0.42618219 0.0035118939            0   0.42267029    1.5132228     1.939405    3.4877861 
 2225000   0.96335044 -1.2714959e-05   0.48722424 0.0084535138            0   0.47877073    1.4378005    1.9250248    1.0461668 
 2230000   0.95195305 2.4794889e-05   0.48946315   0.02547194            0   0.46399121    1.4207899    1.9102531    3.6240758 
 2235000   0.98165189 -4.4466549e-05   0.44187132  0.017757373            0   0.42411395    1.4651154    1.9069868   -1.1665411 
 2240000   0.95688699 3.4106013e-05    0.4844429  0.016146216            0   0.46829668    1.4281538    1.9125967    4.2700043 
 2245000   0.93571591 2.3233646e-05   0.52558693  0.020150046            0   0.50543689     1.396556    1.9221429    3.5280525 
 2250000   0.97806765 2.6326067e-05   0.47535342  0.011676032            0   0.46367739     1.459766    1.9351194    3.7547771 
 2255000    0.9640924 -5.9459818e-05   0.48539745 0.0085341553            0   0.47686329    1.4389079    1.9243054   -2.1855573 
 2260000   0.98196043 1.4179713e-05   0.48200307 0.0018870836            0   0.48011599    1.4655759     1.947579    2.9276808 
 2265000    1.0072924 1.1906126e-05   0.44451891 0.00011994087            0   0.44439897    1.5033839    1.9479028    2.7708543 
 2270000    1.0122612 -1.6939505e-05   0.43545615 0.00036944453            0    0.4350867    1.5107998     1.946256   0.77539737 
 2275000   0.97158965 -3.3057501e-05    0.5052018 0.0094617297            0   0.49574007    1.4500976    1.9552993   -0.3296351 
 2280000    1.0232739 -3.3921014e-05   0.44143201 0.0058945528            0   0.43553745    1.5272363    1.9686683  -0.37595214 
 2285000    1.0295878 -3.3988726e-05   0.42746107 0.0026404364            0   0.42482063    1.5366598    1.9641209  -0.38517985 
 2290000    1.0405884 3.506011e-06   0.45310387 0.0047747587            0   0.44832911    1.5530782    2.0061821    2.2485176 
 2295000   0.99214966 1.5885387e-05   0.51149738 0.0094771256            0   0.50202026    1.4807834    1.9922807    3.0902787 
 2300000    1.0047381 1.222121e-05   0.49294715  0.012732163            0   0.48021499    1.4995717    1.9925188    2.8372488 
 2305000   0.98057224 -5.0775271e-05    0.5185272  0.010832909            0   0.50769429    1.4635041    1.9820313   -1.5275554 
 2310000    1.0316861 -1.2158833e-05   0.44786422 0.0025965018            0   0.44526772    1.5397915    1.9876557    1.1472372 
 2315000   0.96980663 -2.5557289e-05   0.50693384 0.0016054581            0   0.50532839    1.4474364    1.9543702    0.1878504 
 2320000   0.97842398 -6.6416282e-06   0.50681509  0.003744925            0   0.50307016    1.4602978    1.9671129    1.5080435 
 2325000    1.0196673 -4.5817827e-06   0.44179792 0.0016108378            0   0.44018708    1.5218534    1.9636513    1.6469585 
 2330000   0.99141983 2.7222862e-05   0.47105674 0.0012702206            0   0.46978652    1.4796941    1.9507508    3.8323951 
 2335000    1.0063248 3.9731504e-06    0.4504765 0.0028042528            0   0.44767224    1.5019398    1.9524163    2.2270404 
 2340000    1.0269292 -2.4222923e-05   0.43855259  0.006747018            0   0.43180557    1.5326918    1.9712444   0.29695595 
 2345000   0.99775985 5.9940888e-05   0.48397111  0.011041422            0   0.47292968    1.4891566    1.9731277    6.1162419 
 2350000   0.99998336 2.5357172e-05    0.4783855 0.0020017476            0   0.47638375    1.4924752    1.9708607    3.7235484 
 2355000   0.98932194 -2.93044e-05   0.49264064 0.0076519345            0   0.48498871     1.476563    1.9692036 -0.056316454 
 2360000    1.0065261 -9.3670601e-06   0.45416892  0.011008291            0   0.44316063    1.5022403    1.9564092     1.308958 
 2365000   0.95612059 -6.84179e-05    0.5182096  0.019646252            0   0.49856335      1.42701    1.9452196   -2.7838257 
 2370000    0.9640137 -3.6088485e-06    0.5303908  0.013773794            0   0.51661701    1.4387904    1.9691813    1.7197376 
 2375000   0.94579044 2.6732052e-05   0.54429649 0.0051687687            0   0.53912772    1.4115922    1.9558887    3.8036081 
 2380000     0.996021 -2.5733022e-05   0.47237838 0.0051233406            0   0.46725504    1.4865613    1.9589397   0.18027326 
 2385000    1.0298366 4.6431415e-05   0.41258816  0.011421316            0   0.40116684    1.5370311    1.9496193    5.1589587 
 2390000   0.98287367 -2.6817935e-05   0.47808744 0.0036232138            0   0.47446423     1.466939    1.9450264  0.091370742 
 2395000   0.99944443 1.0621776e-05   0.44301037 0.0082415002            0   0.43476887    1.4916708    1.9346812    2.6688583 
 2400000      1.01466 3.9361002e-06    0.4277603  0.013549727            0   0.41421057      1.51438    1.9421403    2.2142036 
 2405000   0.97076841 -1.5100031e-05   0.51336132 0.0096126918            0   0.50374863    1.4488718    1.9622332   0.91851901 
 2410000     1.023643 2.3473571e-05   0.43363545  0.010260869            0   0.42337459    1.5277871    1.9614226    3.5839158 
 2415000    1.0053961 -4.2075693e-05   0.44704358 0.00085433307            0   0.44618924    1.5005537    1.9475973  -0.96067463 
 2420000    1.0077549 1.8527585e-05   0.42037165 2.0746892e-05            0   0.42035091    1.5040742    1.9244459    3.2050726 
 2425000    1.0163665 -2.5059179e-05    0.4185821            0            0    0.4185821    1.5169269     1.935509   0.20341858 
 2430000   0.97437105 5.0014738e-06   0.46957461 8.7712314e-07            0   0.46957374    1.4542488    1.9238234    2.2695253 
 2435000   0.99411274 1.1749978e-05     0.453041 0.00068951138            0   0.45235149    1.4837133    1.9367543    2.7489127 
 2440000   0.96389985 -3.4703889e-05   0.49962694   0.00418671            0   0.49544023    1.4386205    1.9382475  -0.46048537 
 2445000    1.0037082 5.0981251e-06   0.45516519 0.0065080598            0   0.44865713    1.4980345    1.9531997    2.3055821 
 2450000    1.0230305 -5.3409068e-06   0.41505004 0.0096772153            0   0.40537282     1.526873    1.9419231    1.5727596 
 2455000    1.0221479 -1.7639473e-05   0.40644298  0.011884772            0   0.39455821    1.5255558    1.9319988   0.71275844 
 2460000    1.0119897 7.0221624e-05   0.44190949  0.014891104            0   0.42701839    1.5103946    1.9523041    6.8060228 
 2465000   0.99581493 -3.3434928e-05   0.48096101  0.034792036            0   0.44616898    1.4862538    1.9672148  -0.34380745 
 2470000    1.0270525 -4.1718166e-05   0.42940721 0.0044715317            0   0.42493568    1.5328759    1.9622831  -0.92127657 
 2475000    1.0253645 -2.0288798e-05   0.46383397 0.0037975427            0   0.46003642    1.5303565    1.9941904    0.5918287 
 2480000    1.0354147 1.368297e-05    0.4341997 0.0038893063            0   0.43031039    1.5453564    1.9795561     2.925323 
 2485000   0.99257589 2.4518284e-05   0.48893701 0.0044206786            0   0.48451633    1.4814195    1.9703565    3.6650603 
 2490000    1.0250611 3.305478e-05   0.43488122 0.0023878358            0   0.43249339    1.5299037    1.9647849    4.2495313 
 2495000    1.0168306 -3.4170122e-05   0.44612494  0.001123564            0   0.44500137    1.5176197    1.9637446  -0.39809421 
 2500000    1.0612456 -1.0504773e-05    0.3857652 0.0038258518            0   0.38193935    1.5839091    1.9696743    1.2435844 
 2505000   0.98566992 -1.9881184e-05   0.49231328 0.0076676939            0   0.48464558    1.4711124    1.9634256   0.58923821 
 2510000   0.99284903 -2.6763627e-05   0.49293863  0.005982484            0   0.48695615    1.4818272    1.9747658   0.12486393 
 2515000    1.0124059 -1.9457348e-05   0.46378621  0.025044924            0   0.43874129    1.5110158     1.974802   0.62991011 
 2520000    1.0253498 3.8991124e-05   0.43039844 0.0096059197            0   0.42079252    1.5303346     1.960733    4.6557995 
 2525000    1.0115035 5.0301438e-06   0.41644345 0.0015987292            0   0.41484472     1.509669    1.9261124    2.2737959 
 2530000   0.97300341 3.7792602e-05   0.48621762 0.0011649916            0   0.48505262    1.4522076    1.9384252    4.5506498 
 2535000   0.98941558 8.2335157e-06   0.45791275 0.0025449526            0    0.4553678    1.4767027    1.9346155    2.5037161 
 2540000    1.0120171 -8.3143447e-05   0.42050379 0.0058680414            0   0.41463575    1.5104356    1.9309393   -3.8159357 
 2545000     0.967185 -2.9579753e-05   0.48857054  0.016939685            0   0.47163085    1.4435236    1.9320941   -0.1124584 
 2550000   0.94533666 -2.3785645e-05   0.52593849  0.040529876            0   0.48540862     1.410915    1.9368535   0.29278964 
 2555000    1.0055615 2.2672585e-05    0.4418433  0.012116977            0   0.42972633    1.5008006    1.9426439     3.509773 
 2560000    1.0203484 3.4372482e-05    0.4343659 0.0017517928            0   0.43261411    1.5228699    1.9572358    4.3330618 
 2565000   0.99881621 1.5595502e-05   0.45772851  0.013391469            0   0.44433704    1.4907332    1.9484617    3.0264228 
 2570000     1.003896 -3.380137e-05    0.4580698  0.004678171            0   0.45339163    1.4983148    1.9563846  -0.37996613 
 2575000   0.98388447 -4.3985515e-05   0.48284241 0.00015498325            0   0.48268743    1.4684476      1.95129   -1.0889888 
 2580000    1.0105067 3.7561568e-05   0.41893228 0.0010240802            0    0.4179082    1.5081813    1.9271136    4.5233691 
 2585000   0.94840298 -3.7603493e-05   0.50709748 0.0063374076            0   0.50076007    1.4154914    1.9225889  -0.67656451 
 2590000    1.0020674 2.4606137e-05   0.43504872 0.0091299724            0   0.42591874    1.4955857    1.9306344    3.6314106 
 2595000   0.98360223 -3.0547078e-06   0.46072547  0.041690974            0    0.4190345    1.4680263    1.9287518    1.7176104 
 2600000    1.0022484 4.3779318e-05   0.45284191  0.024015917            0     0.428826    1.4958557    1.9486976    4.9747241 
 2605000   0.97951486 -4.12666e-05   0.47924429  0.011572954            0   0.46767134    1.4619259    1.9411702  -0.91117717 
 2610000   0.97912607 -1.1545468e-05   0.48670068  0.008161403            0   0.47853928    1.4613457    1.9480463    1.1500236 
 2615000   0.98687227 -1.6812631e-05    0.4907755 0.0056091641            0   0.48516634    1.4729069    1.9636824    0.8015933 
 2620000   0.97983444 -4.0264132e-06   0.50108641  0.018061598            0   0.48302481    1.4624029    1.9634893    1.6851836 
 2625000    1.0235361 1.8320365e-05   0.44767862  0.014199257            0   0.43347936    1.5276276    1.9753063    3.2416099 
 2630000   0.99371756 1.676196e-05   0.48797161 0.0055459295            0   0.48242568    1.4831235    1.9710951    3.1296817 
 2635000    1.0168607 1.4913222e-06   0.45344516 0.0050795243            0   0.44836564    1.5176646    1.9711098      2.07419 
 2640000    1.0178785 -2.0785171e-05   0.45788202 0.0038628689            0   0.45401915    1.5191836    1.9770656   0.54039463 
 2645000   0.97580444 6.2577892e-05   0.53322498 0.0053717229            0   0.52785326    1.4563881    1.9896131     6.314997 
 2650000    1.0227595 -2.163344e-05   0.46001178  0.002560887            0   0.45745089    1.5264685    1.9864803   0.49117694 
 2655000    0.9656258 -7.7364313e-05    0.5391561 0.0029833202            0   0.53617278    1.4411965    1.9803526   -3.3670687 
 2660000   0.96478243 -2.2941689e-05   0.53058085 0.0076531725            0   0.52292768    1.4399378    1.9705186   0.38478911 
 2665000   0.94132252 -2.5777495e-05    0.5674234   0.01210434            0   0.55531906    1.4049239    1.9723473   0.19060684 
 2670000   0.99255707 2.3120949e-05   0.49486857 0.0079111115            0   0.48695746    1.4813914      1.97626      3.57438 
 2675000    1.0377245 2.5045452e-06   0.42175863 0.0054053112            0   0.41635332    1.5488038    1.9705624    2.1436766 
 2680000    1.0370521 -2.0057326e-05   0.43273777 0.0051194081            0   0.42761836    1.5478003     1.980538   0.59417567 
 2685000   0.99722633 -2.105454e-05   0.49014294 0.0062051552            0   0.48393778    1.4883603    1.9785032    0.5232134 
 2690000    1.0314841 -5.9237443e-06   0.44268829 0.0087778457            0   0.43391045      1.53949    1.9821783    1.5727291 
 2695000   0.97872701 2.009198e-05   0.52343406  0.017553484            0   0.50588058    1.4607501    1.9841841    3.3729418 
 2700000    1.0195248 2.7290372e-06   0.46296285  0.022677055            0    0.4402858    1.5216408    1.9846037    2.1732347 
 2705000   0.96955908 -3.4019788e-06   0.52581039 0.0088971774            0   0.51691321    1.4470669    1.9728773    1.7377326 
 2710000    1.0108841 -8.6299252e-05   0.47039979 0.0052127525            0   0.46518704    1.5087445    1.9791443     -3.98586 
 2715000    1.0091522 2.5280959e-05   0.46030181 0.0011647161            0    0.4591371    1.5061597    1.9664615    3.7138814 
 2720000   0.99511661 -2.5292745e-05   0.48663787  0.005200373            0    0.4814375    1.4852115    1.9718494    0.2236149 
 2725000   0.99655155 1.6454871e-05   0.47927001  0.023426141            0   0.45584387    1.4873532    1.9666232    3.1039838 
 2730000    1.0090503 1.2350552e-05   0.46323155  0.013508775            0   0.44972278    1.5060075    1.9692391    2.8229092 
 2735000    1.0138482 1.6306289e-05   0.46480448 0.00044580636            0   0.46435867    1.5131685     1.977973    3.1050637 
 2740000    1.0603357 3.8831291e-05   0.39101977 1.1840804e-05            0   0.39100793     1.582551    1.9735708    4.6575896 
 2745000    1.0349392 -9.9946068e-06   0.45084123 0.00023459493            0   0.45060663    1.5446467     1.995488    1.3046607 
 2750000    1.0247063 -2.8030435e-05   0.49255967 0.0019026271            0   0.49065704    1.5293742    2.0219339  0.084470202 
 2755000    1.0178601 -5.6146214e-07   0.49954233 0.0043474682            0   0.49519486    1.5191561    2.0186985    1.9798902 
 2760000    1.0181436 -1.1147554e-05   0.46187121 0.0058240972            0   0.45604712    1.5195794    1.9814506    1.2109317 
 2765000    1.0126795 8.3805888e-07   0.47375011 0.0085830537            0   0.46516706    1.5114241    1.9851743    2.0431009 
 2770000    1.0391897 -1.438931e-05    0.4274507 0.0044417626            0   0.42300894    1.5509906    1.9784413   0.98385221 
 2775000    1.0454571 5.5447573e-05   0.41822538 0.0020702277            0   0.41615515    1.5603447    1.9785701    5.8111063 
 2780000   0.99107578 -9.8178132e-06   0.50022957 0.0083218659            0   0.49190771    1.4791806    1.9794102    1.3008029 
 2785000   0.97358182 -3.3393787e-05   0.52168092  0.019495793            0   0.50218513    1.4530709    1.9747518   -0.3334268 
 2790000   0.99527611 -2.7353411e-05   0.47367294 0.0095714294            0   0.46410151    1.4854496    1.9591225  0.068454763 
 2795000   0.97635903 -3.8049774e-05   0.50284282 0.0057733964            0   0.49706942    1.4572158    1.9600587  -0.66994174 
 2800000   0.99630377 -1.9821629e-05   0.47538338 0.0026984209            0   0.47268495    1.4869834    1.9623668   0.59229578 
 2805000    1.0108062 -5.2045882e-06   0.44763445  0.012876109            0   0.43475834    1.5086282    1.9562627    1.5965215 
 2810000   0.98463187   3.3044e-05   0.46254283  0.011087182            0   0.45145564    1.4695631    1.9321059    4.2161072 
 2815000   0.94858412 -2.1869669e-05   0.53266188   0.01860401            0   0.51405787    1.4157618    1.9484237   0.43679214 
 2820000   0.98650129 4.1989053e-05   0.48308018  0.020447353            0   0.46263283    1.4723532    1.9554334    4.8577167 
 2825000    1.0141586 -9.1505523e-05   0.44333317 0.0083504544            0   0.43498272    1.5136317    1.9569649   -4.3678969 
 2830000    1.0237487 7.4743694e-06   0.44567313  0.005002125            0     0.440671    1.5279449     1.973618    2.4902464 
 2835000    0.9752873 6.8897046e-06   0.52430161 0.0021840562            0   0.52211755    1.4556163    1.9799179    2.4561343 
 2840000    1.0256849 3.1078824e-05   0.45484852 0.0020332226            0    0.4528153    1.5308348    1.9856833    4.1338516 
 2845000    1.0132718 4.2802477e-05   0.48857519  0.003308716            0   0.48526648    1.5123082    2.0008834    4.9593906 
 2850000   0.97349625 1.6026515e-05    0.5301868 0.0056310844            0   0.52455571    1.4529432    1.9831299    3.0908827 
 2855000    1.0119145 -5.8216134e-06    0.4712098 0.0080349936            0   0.46317481    1.5102824    1.9814922    1.5791023 
 2860000   0.98851823 -8.5304023e-05   0.52908499  0.012699645            0   0.51638534    1.4753635    2.0044484   -3.8917656 
 2865000    1.0484522 3.4292791e-05   0.42984111  0.010815762            0   0.41902535     1.564815    1.9946561    4.3649738 
 2870000   0.97649738 -1.7386692e-05   0.55136051 0.0061520423            0   0.54520847    1.4574223    2.0087829   0.80701467 
 2875000   0.99262081 1.8927384e-06   0.55770013 0.0057889455            0   0.55191118    1.4814866    2.0391867    2.1700128 
 2880000    1.0358376 -9.3871234e-06   0.51324456 0.0041853737            0   0.50905918    1.5459877    2.0592322    1.4103942 
 2885000    1.0397827 -3.0143388e-05   0.51144374   0.00332231            0   0.50812143    1.5518757    2.0633195 -0.020191513 
 2890000    1.0484855 9.5705744e-05   0.50299706 0.00071786062            0    0.5022792    1.5648646    2.0678617    8.6830427 
 2895000    1.0473988 -6.6773727e-06   0.49297926   0.02012657            0   0.47285269    1.5632427     2.056222     1.594682 
 2900000    1.0339588 -5.7301374e-05   0.51688115 0.0023316032            0   0.51454955    1.5431835    2.0600647   -1.9006063 
 2905000    1.0197444 -1.6661656e-05    0.5358189  0.007771623            0   0.52804727    1.5219686    2.0577875   0.90613378 
 2910000     1.043202 -3.6118966e-06   0.49747407  0.015830773            0   0.48164329    1.5569789     2.054453    1.8047987 
 2915000   0.97202392 -6.1693838e-05   0.58887649 0.0066713492            0   0.58220514    1.4507457    2.0396222   -2.2246559 
 2920000   0.98148926 -6.9701544e-07   0.57672133 0.0074289278            0    0.5692924    1.4648727     2.041594    1.9934163 
 2925000    1.0023543 -1.1169681e-06   0.53329595  0.016871427            0   0.51642453    1.4960138    2.0293097    1.9521049 
 2930000   0.98430401 -3.7001054e-06   0.56924168 0.0060480602            0   0.56319362    1.4690737    2.0383154    1.7825641 
 2935000    1.0147371 -3.5180465e-05   0.52728597  0.006444569            0   0.52084141    1.5144951    2.0417811  -0.38989266 
 2940000    0.9967795 3.1679387e-06   0.54599058  0.016392782            0    0.5295978    1.4876934     2.033684    2.2526519 
 2945000     1.017676 -1.2922367e-05   0.52637465  0.005619178            0   0.52075548    1.5188814    2.0452561    1.1520621 
 2950000    1.0091376 -2.8982517e-05   0.53610544 0.0073509351            0    0.5287545    1.5061379    2.0422434  0.038971822 
 2955000    1.0304638 -8.3462327e-06   0.51007548 0.0053557987            0   0.50471968    1.5379673    2.0480428    1.4711512 
 2960000    1.0182985 -3.6923835e-06    0.5346876 0.0021393102            0   0.53254829    1.5198106    2.0544982    1.7992806 
 2965000    1.0257579 9.2893172e-06   0.52469748 0.0059749587            0   0.51872252    1.5309437    2.0556411    2.6977187 
 2970000    1.0264357 3.4136959e-05   0.52334359  0.016377558            0   0.50696603    1.5319553    2.0552989    4.4148455 
 2975000    1.0216734 -1.1147394e-05   0.49792467 0.0097137929            0   0.48821088    1.5248475    2.0227721    1.2522643 
 2980000   0.99774853 -3.1664504e-05   0.52759098 0.0034235901            0   0.52416739    1.4891397    2.0167307  -0.17191986 
 2985000   0.98888807 -2.1870796e-05   0.53857179 0.0081833789            0   0.53038841    1.4759154    2.0144872   0.50277779 
 2990000    1.0348331 6.0270674e-05   0.47114748 0.0064756721            0    0.4646718    1.5444884    2.0156359    6.1815449 
 2995000    1.0055262 -2.3816999e-05   0.51686623 0.0014986367            0   0.51536759    1.5007478    2.0176141    0.3713831 
 3000000    1.0276892  1.20367e-05     0.483796 0.0010447792            0   0.48275122    1.5338261    2.0176221    2.8495988 
 3005000    1.0253807 -3.2818549e-06   0.49792597  0.008555009            0   0.48937096    1.5303806    2.0283066    1.8014648 
 3010000   0.97918918 -1.1189254e-05   0.55376485  0.020431597            0   0.53333325    1.4614398    2.0152047    1.2418035 
 3015000    0.9769746 -1.2628459e-05    0.5643108 0.0091271739            0   0.55518362    1.4581346    2.0224454    1.1495663 
 3020000    1.0226615 -1.336599e-05   0.49890487 0.0023034438            0   0.49660143    1.5263223    2.0252272    1.1013699 
 3025000    1.0060599 -1.561502e-05   0.52170141 5.6206554e-05            0    0.5216452    1.5015444    2.0232458   0.94393563 
 3030000   0.97598588 -3.9947527e-05   0.57652646 0.00050207614            0   0.57602438    1.4566589    2.0331854  -0.72798768 
 3035000   0.97842839 -8.7126873e-06     0.551549 0.0026488442            0   0.54890016    1.4603044    2.0118534    1.4096324 
 3040000   0.95138893 2.467969e-05   0.61347141 0.0087133726            0   0.60475804     1.419948    2.0334194    3.7392796 
 3045000   0.97693996 1.984172e-05   0.55416645  0.010681607            0   0.54348484    1.4580829    2.0122493     3.383709 
 3050000    1.0100138 4.4778611e-06   0.49391675  0.010489771            0   0.48342698    1.5074456    2.0013623    2.3108721 
 3055000    1.0028688 1.1168873e-05   0.50202954 0.0054979866            0   0.49653156    1.4967817    1.9988112    2.7708037 
 3060000   0.98530317 -3.3203395e-05   0.50072472 0.0048067718            0   0.49591795     1.470565    1.9712897  -0.32372896 
 3065000    0.9284919 7.8023068e-05   0.58904473  0.026557411            0   0.56248732    1.3857742    1.9748189    7.3677734 
 3070000    1.0045347 -5.5804001e-08   0.47784736  0.005113432            0   0.47273393    1.4992681    1.9771154    1.9732583 
 3075000    1.0050643 -1.7178499e-05   0.47462216 0.0080004762            0   0.46662168    1.5000585    1.9746807   0.78730281 
 3080000   0.97496923 1.0791443e-05   0.51280664 0.0076265442            0   0.50518009    1.4551416    1.9679482    2.7138527 
 3085000   0.98694736 4.6048527e-05   0.49142672 0.0060774075            0   0.48534931    1.4730189    1.9644457    5.1473198 
 3090000    1.0113246 -2.8045685e-05   0.45528969 0.0016206869            0     0.453669     1.509402    1.9646917  0.026173934 
 3095000    1.0269132 3.6847608e-06   0.43999744 0.0046575209            0   0.43533992     1.532668    1.9726654    2.2273561 
 3100000   0.96431493 -7.7881852e-05   0.51742098  0.016066713            0   0.50135427      1.43924     1.956661   -3.4265326 
 3105000   0.99665596 2.3395101e-05   0.47660487  0.017726429            0   0.45887845     1.487509    1.9641139    3.5811833 
 3110000    1.0101321 8.5385671e-07   0.44601168  0.002966237            0   0.44304545    1.5076222    1.9536339    2.0126525 
 3115000    1.0411704 1.676562e-06   0.41456124  0.003392086            0   0.41116915    1.5539468    1.9685081     2.084392 
 3120000    0.9854221 2.781224e-05   0.52602937 0.0046242682            0    0.5214051    1.4707425    1.9967718    3.9191539 
 3125000    0.9692086 3.1732721e-05   0.56645701 0.0095936165            0    0.5568634    1.4465438    2.0130009    4.2063665 
 3130000    1.0411449 -3.7733662e-05   0.46873111 0.0071281087            0     0.461603    1.5539088    2.0226399  -0.58551083 
 3135000    1.0037843 1.8226023e-05    0.5030567  0.019294061            0   0.48376264    1.4981481    2.0012048    3.2609875 
 3140000    1.0190331 -6.5208709e-05   0.48387642  0.016466715            0   0.46740971    1.5209068    2.0047833   -2.5024427 
 3145000   0.98329599 3.8237679e-05   0.55012093 0.0060204208            0   0.54410051    1.4675693    2.0176902    4.6606786 
 3150000    1.0473996 -5.1597102e-05   0.47686082 0.0024918509            0   0.47436897     1.563244    2.0401048   -1.5262869 
 3155000    1.0124039 -1.9539565e-05   0.51592755 0.0056242923            0   0.51030326    1.5110129    2.0269404   0.67636568 
 3160000    1.0305732 4.5553757e-05   0.48598307  0.012394569            0    0.4735885    1.5381305    2.0241136    5.1727892 
 3165000    1.0217915 4.8157839e-05   0.51081807  0.010554689            0   0.50026338    1.5250239    2.0358419    5.3645118 
 3170000   0.98933342 -4.7719767e-05   0.54774152 0.0043881834            0   0.54335334    1.4765801    2.0243216   -1.2740687 
 3175000   0.99874462 8.6859683e-06   0.52477396 0.0044862038            0   0.52028775    1.4906263    2.0154003    2.6157744 
 3180000    1.0418226 -2.6006576e-05   0.45159976 0.0044523443            0   0.44714742    1.5549202    2.0065199   0.20894544 
 3185000    1.0412784 -2.7260595e-06    0.4793738 0.0045187542            0   0.47485505    1.5541081    2.0334819    1.8450566 
 3190000    1.0330517 -6.1563572e-05   0.51715189  0.012840522            0   0.50431137    1.5418297    2.0589816   -2.1962925 
 3195000    1.0185178 -1.3491325e-05   0.54401079  0.024091421            0   0.51991937    1.5201379    2.0641487    1.1316283 
 3200000    1.0511845 -1.5468199e-05   0.51531933 0.0093401922            0   0.50597914    1.5688928    2.0842121    1.0150502 
 3205000    1.0541722 -2.3064228e-05   0.49384264 0.0022727981            0   0.49156984     1.573352    2.0671946    0.4729952 
 3210000    1.0656125 2.4182093e-05   0.48338944 0.0010859775            0   0.48230346    1.5904267    2.0738161    3.7452824 
 3215000    1.0508753 3.3263885e-05   0.51267723 0.00011818207            0   0.51255905    1.5684314    2.0811086    4.3803083 
 3220000    1.0111108 -2.1994198e-06   0.56363053 0.0032209469            0   0.56040958    1.5090829    2.0727135    1.9206896 
 3225000    1.0489952 -8.1578861e-06   0.50827781 0.0078321384            0   0.50044567    1.5656253    2.0739031      1.51003 
 3230000    1.0458533 -5.895486e-06   0.50186384  0.010149658            0   0.49171418     1.560936    2.0627999    1.6553039 
 3235000    1.0078348 1.4874602e-05   0.56479639  0.011318412            0   0.55347797    1.5041935    2.0689899    3.0971224 
 3240000    1.0193478 -5.7070141e-05   0.53504758  0.011457385            0    0.5235902    1.5213765    2.0564241    -1.888264 
 3245000    1.0655461 3.4518511e-05   0.45191722  0.010123721            0   0.44179349    1.5903275    2.0422448    4.4281642 
 3250000    1.0789248 3.868782e-05   0.43647935 0.0099200878            0   0.42655926    1.6102953    2.0467746    4.7208767 
 3255000    1.0079772 -2.8436483e-05     0.537165  0.009022421            0   0.52814258     1.504406     2.041571  0.076041279 
 3260000    1.0249701 3.6604756e-05   0.50940508  0.013990506            0   0.49541458    1.5297679     2.039173    4.5692937 
 3265000    1.0044056 1.0510022e-05   0.55021254 0.0090624192            0   0.54115012    1.4990754    2.0492879    2.7757406 
 3270000    0.9920113 1.0981737e-05   0.57007994  0.004707514            0   0.56537242    1.4805769    2.0506568    2.8097145 
 3275000    1.0241748 3.8676208e-06   0.50209031 0.0027248408            0   0.49936547    1.5285808    2.0306712    2.2980011 
 3280000    1.0675389 -4.666769e-05   0.45039925 0.0076922705            0   0.44270698    1.5933018     2.043701   -1.1819697 
 3285000    1.0264638 1.6380497e-05   0.52083262  0.017413544            0   0.50341908    1.5319973    2.0528299    3.1850499 
 3290000   0.98304569 9.3784626e-06   0.56443384  0.022648672            0   0.54178517    1.4671957    2.0316295    2.6798689 
 3295000    1.0048656 -3.7308082e-05   0.54117842  0.024237432            0   0.51694099     1.499762    2.0409404  -0.53779422 
 3300000    1.0030221 -6.027891e-05   0.53514284 0.0082477633            0   0.52689508    1.4970104    2.0321533    -2.134325 
 3305000    1.0264135 2.7477914e-05    0.5061448 0.0040014533            0   0.50214335    1.5319222     2.038067    3.9373404 
 3310000    1.0084214 -1.6138682e-05   0.55007375  0.013761253            0    0.5363125    1.5050689    2.0551426   0.93963696 
 3315000    1.0019014 -2.3535373e-05   0.55208899  0.012335071            0   0.53975392    1.4953379    2.0474269   0.42066193 
 3320000   0.99174176 5.3176871e-05   0.57408354  0.010959179            0   0.56312437    1.4801746    2.0542581    5.7298434 
 3325000    1.0370258 -3.0445595e-05   0.52122555  0.021022788            0   0.50020276    1.5477611    2.0689866 -0.035412893 
 3330000    1.0191436 -3.9471757e-05   0.54294571  0.036449438            0   0.50649628    1.5210719    2.0640176   -0.6642703 
 3335000   0.99176917 4.8489243e-05   0.58347703  0.020186181            0   0.56329085    1.4802155    2.0636925     5.415269 
 3340000    1.0622779 1.5857098e-05   0.46765357 0.0087757292            0   0.45887785    1.5854498    2.0531034     3.149146 
 3345000    1.0801118 3.0008255e-05   0.43869891 0.0033764583            0   0.43532246    1.6120669    2.0507658    4.1249364 
 3350000     1.029106 -4.1999892e-05   0.52130671 0.0012204418            0   0.52008627    1.5359406    2.0572474   -0.8457852 
 3355000    1.0083846 -4.7067678e-07     0.593005  0.018667493            0    0.5743375    1.5050141     2.098019    2.0654859 
 3360000    1.0765952 4.7618624e-06   0.48267852  0.017848802            0   0.46482972    1.6068184    2.0894969    2.4186368 
 3365000    1.0802866 -4.0393692e-05   0.47735688 0.0025588779            0   0.47479801    1.6123277    2.0896846  -0.70232734 
 3370000    1.0265073 -8.4474836e-06   0.56913787 0.0055725503            0   0.56356532    1.5320622    2.1012001      1.51731 
 3375000     1.084336 -5.8574296e-05   0.48016693  0.010630377            0   0.46953655    1.6183714    2.0985383    -1.950117 
 3380000    1.0572516 -5.0145961e-05   0.51457792 0.0074202067            0   0.50715771     1.577948     2.092526   -1.3735629 
 3385000    1.0717948 -6.5385782e-06   0.47381968 0.0078471826            0    0.4659725    1.5996537    2.0734734    1.6215269 
 3390000     1.016551 -8.9907234e-06   0.55407225 0.0065789257            0   0.54749332    1.5172024    2.0712746    1.4498358 
 3395000    1.0262799 -3.33486e-05   0.52139264 0.0070451553            0   0.51434749    1.5317228    2.0531154  -0.25193981 
 3400000    1.0571471 -3.2311941e-05   0.48582932 0.0053332576            0   0.48049607     1.577792    2.0636214  -0.16978002 
 3405000    1.0342748 3.3854541e-05   0.50667206  0.003020238            0   0.50365183    1.5436551    2.0503271     4.390353 
 3410000   0.97762783 -6.6012738e-06   0.58465493  0.000705382            0   0.58394955    1.4591095    2.0437645    1.5874844 
 3415000     1.015007 -4.8035422e-06    0.5459156 0.00090908536            0   0.54500652    1.5148979    2.0608135    1.7287927 
 3420000   0.99850704 2.8537178e-05   0.53711699 0.0066626675            0   0.53045432    1.4902718    2.0273887    3.9998785 
 3425000   0.97272752 -2.8109036e-05    0.5749069  0.005556013            0   0.56935089    1.4517958    2.0267027  0.083806132 
 3430000   0.97307096 3.3553586e-05   0.58264453 0.0015614039            0   0.58108312    1.4523084    2.0349529    4.3541768 
 3435000    1.0088342 2.5061867e-05   0.51604362 0.00056996666            0   0.51547365     1.505685    2.0217286    3.7540049 
 3440000   0.99366512 -3.8232908e-05   0.53587465 0.0049881134            0   0.53088654    1.4830452    2.0189199  -0.62373874 
 3445000    1.0032423 2.2907187e-05   0.51674316  0.013376262            0    0.5033669    1.4973391    2.0140822     3.597427 
 3450000    1.0227716 -5.6897616e-05   0.48752223   0.01094568            0   0.47657655    1.5264866    2.0140088   -1.9187544 
 3455000    1.0007394 -8.9209186e-05   0.51501384 0.0028197052            0   0.51219414    1.4936035    2.0086174   -4.1575216 
 3460000    1.0186554 6.637953e-06   0.48987632 0.0034238454            0   0.48645247    1.5203433    2.0102196    2.4690349 
 3465000   0.99039774 -4.6667141e-06   0.53387496 0.0041991083            0   0.52967586    1.4781686    2.0120436    1.6894803 
 3470000   0.98022739 -3.2266806e-06   0.54291095 0.0025798336            0   0.54033112    1.4629894    2.0059003    1.7828722 
 3475000    1.0232319 2.7288757e-05   0.48802358 0.0041545355            0   0.48386905    1.5271736    2.0151972    3.9013961 
 3480000    1.0276953 -2.3465249e-07   0.48495679 0.0071498066            0   0.47780698    1.5338353     2.018792    2.0025729 
 3485000   0.99860284 -3.3623107e-05   0.55434234  0.025729395            0   0.52861294    1.4904147    2.0447571  -0.27927209 
 3490000     1.008686 3.0269198e-05   0.54470825  0.014981762            0   0.52972648    1.5054639    2.0501722    4.1423791 
 3495000    1.0433286 1.7837396e-05   0.49282129  0.015139207            0   0.47768208     1.557168    2.0499893    3.2829101 
 3500000    1.0415656 3.0213155e-05   0.50817985 0.0027591272            0   0.50542072    1.5545366    2.0627165    4.1510498 
 3505000    1.0476466 2.3001942e-05    0.4976767 0.0021799868            0   0.49549672    1.5636126    2.0612893    3.6511836 
 3510000   0.98927852 5.6465316e-05   0.57458615 0.0038958536            0    0.5706903    1.4764982    2.0510843     5.953967 
 3515000    1.0046848 -1.7572715e-07   0.55270755 0.0062813836            0   0.54642617     1.499492    2.0521996    2.0400533 
 3520000    1.0213174 7.2135042e-05   0.51015239 0.0075215878            0    0.5026308    1.5243162    2.0344686    7.0204427 
 3525000    1.0411254 -7.0921788e-06   0.48341835  0.007392055            0    0.4760263    1.5538796     2.037298    1.5470866 
 3530000   0.99292382 8.4859233e-07   0.56418344  0.010444476            0   0.55373896    1.4819388    2.0461222    2.1047769 
 3535000    1.0374761 4.1640239e-05   0.51728412  0.015951716            0    0.5013324    1.5484331    2.0657172    4.9438905 
 3540000    1.0048742 1.9839975e-05   0.56123368  0.020800642            0   0.54043304    1.4997748    2.0610084    3.4323475 
 3545000    1.0080521 -4.7771895e-05   0.56544562  0.013083099            0   0.55236253    1.5045178    2.0699634   -1.2320299 
 3550000    1.0295003 -4.4040688e-05   0.54460058 0.0091816614            0   0.53541892    1.5365293    2.0811298  -0.96296251 
 3555000     1.016674 4.0670089e-05   0.57053823 0.0092620856            0   0.56127615    1.5173859    2.0879242    4.8990407 
 3560000    1.0306294 9.8615246e-06   0.55773285 0.0067874193            0   0.55094543    1.5382144    2.0959473    2.7775758 
 3565000   0.98746533 -3.2435064e-05   0.61604742 0.0051295551            0   0.61091786     1.473792    2.0898394  -0.15207218 
 3570000    1.0750629 -4.2557689e-05   0.47648473 0.0042583691            0   0.47222636    1.6045314    2.0810161  -0.86057132 
 3575000      1.03605 -1.9176853e-05   0.52988631  0.014060766            0   0.51582555    1.5463046    2.0761909   0.75068686 
 3580000   0.97414656 6.186428e-05   0.60316709  0.011025567            0   0.59214152    1.4539137    2.0570808    6.3331399 
 3585000    1.0180048 -3.0172045e-06   0.54897417 0.0073562954            0   0.54161788    1.5193722    2.0683464    1.8597972 
 3590000   0.97424784 -2.1498407e-05   0.61408666 0.0078987769            0   0.60618788    1.4540649    2.0681516   0.58218163 
 3595000    1.0233739 1.8387931e-05   0.55420994 0.0052933261            0   0.54891662    1.5273856    2.0815955    3.3525693 
 3600000    1.0498447 9.7947931e-06   0.50595317 0.0052127142            0   0.50074045    1.5668932    2.0728464    2.7498625 
 3605000    1.0404748 -1.2829271e-05   0.53741669  0.013563709            0   0.52385298    1.5529086    2.0903253    1.2035661 
 3610000    1.0378143 8.5331115e-06   0.53711421 0.0049852487            0   0.53212896    1.5489378     2.086052    2.6758607 
 3615000    1.0031421 -3.2824969e-05   0.60675388  0.009914628            0   0.59683925    1.4971895    2.1039434  -0.16491845 
 3620000    1.0476403 -2.116522e-07   0.54048688 0.0059290452            0   0.53455784    1.5636032    2.1040901    2.0894607 
 3625000   0.98954969 9.6265782e-07   0.60394307 0.0019732911            0   0.60196978    1.4769029     2.080846    2.1473849 
 3630000    1.0190306 7.4859441e-06   0.54386432 0.00051002617            0   0.54335429    1.5209032    2.0647676     2.582196 
 3635000    1.0276636 4.7050686e-05   0.53505918 0.0022609805            0    0.5327982    1.5337879    2.0688471    5.3209905 
 3640000    1.0318984 -4.6373231e-05   0.56951913  0.013721927            0   0.55579721    1.5401084    2.1096275   -1.0956902 
 3645000    1.0357741 -3.5892954e-05    0.5445074  0.014930663            0   0.52957674    1.5458928    2.0904002  -0.39052081 
 3650000    1.0506147 4.0008792e-05   0.52261984 0.0056171511            0   0.51700269    1.5680425    2.0906623      4.85607 
 3655000    0.9914867 -3.6822835e-06   0.62362151  0.014137154            0   0.60948436    1.4797939    2.1034154     1.848896 
 3660000    1.0231683 1.0769677e-05   0.59543111  0.012962374            0   0.58246873    1.5270787    2.1225098    2.8669099 
 3665000    1.0375669 -5.8833367e-08   0.57795928  0.013077112            0   0.56488217    1.5485686    2.1265279    2.1224613 
 3670000    1.0162289 -1.8496664e-05   0.60780554  0.018555146            0   0.58925039    1.5167217    2.1245272   0.84603783 
 3675000    1.0704261 -2.297982e-05   0.53719112  0.019752956            0   0.51743817     1.597611    2.1348021   0.54643695 
 3680000     1.069719 -2.5965433e-05   0.56930441 0.0099251692            0   0.55937924    1.5965556      2.16586   0.37112928 
 3685000    1.0778192 1.328076e-05   0.53736112  0.012283062            0   0.52507806    1.6086451    2.1460063    3.0639724 
 3690000    1.0226687 -9.8106187e-07   0.60500508  0.020819107            0   0.58418597     1.526333    2.1313381    2.0635271 
 3695000     1.100154 2.2402734e-05   0.49559477  0.018085964            0    0.4775088    1.6419799    2.1375747    3.6860516 
 3700000   0.99831107 -4.6243996e-05   0.66030562   0.02322768            0   0.63707794    1.4899793    2.1502849   -1.0461001 
 3705000    1.0803467 -3.2097364e-05   0.54341213  0.025115661            0   0.51829646    1.6124174    2.1558296  -0.06274022 
 3710000     1.088282 1.7696026e-05   0.55043961  0.024875908            0    0.5255637    1.6242608    2.1747004    3.3978498 
 3715000    1.0468855 1.6408156e-05   0.60919854  0.010110347            0   0.59908819    1.5624766    2.1716751    3.3058069 
 3720000    1.0551157 4.0837569e-05   0.59243576  0.013447081            0   0.57898868    1.5747602     2.167196    4.9898888 
 3725000    1.0478292 2.741904e-05   0.63001195   0.01840801            0   0.61160394    1.5638851    2.1938971    4.0891011 
 3730000    1.0625157 1.4365139e-05      0.59794  0.011387746            0   0.58655225    1.5858047    2.1837447    3.1766631 
 3735000    1.0435609 3.6004864e-05   0.61590862 0.0079091406            0   0.60799948    1.5575146    2.1734232    4.6620794 
 3740000    1.0907002 -1.4950718e-05   0.53947768 0.0042409724            0   0.53523671    1.6278701    2.1673478    1.1339542 
 3745000    1.0798184 -1.1865309e-05   0.53797027  0.023791113            0   0.51417915     1.611629    2.1495993    1.3294691 
 3750000    1.0144432 2.5646103e-05   0.65586871  0.011843195            0   0.64402551    1.5140564    2.1699251    3.9425838 
 3755000    1.0487828 5.8916012e-05   0.59590922  0.011054618            0   0.58485461    1.5653083    2.1612175    6.2334922 
 3760000   0.99258681 8.0131811e-07   0.65512896 0.0073521646            0    0.6477768    1.4814358    2.1365648    2.1919519 
 3765000    1.0156005 3.1083661e-06   0.61080182  0.004444287            0   0.60635753    1.5157838    2.1265856    2.3414359 
 3770000       1.0486 4.4327191e-06   0.55382653 0.0072467161            0   0.54657981    1.5650355     2.118862    2.4252516 
 3775000   0.96212669 2.6942184e-06   0.67697252  0.016853392            0   0.66011913    1.4359741    2.1129466     2.299171 
 3780000    1.0364972 -4.9936593e-05   0.56555645  0.026720314            0   0.53883614    1.5469721    2.1125286   -1.3390888 
 3785000    1.0383898 -8.9189007e-05   0.57074884   0.01432964            0    0.5564192    1.5497968    2.1205457   -4.0441985 
 3790000   0.99934943 7.5410062e-05   0.63679039  0.005586477            0   0.63120391     1.491529    2.1283194    7.3406629 
 3795000     1.037122 1.3037061e-05   0.56779311 0.0042589252            0   0.56353419    1.5479045    2.1156977    3.0168193 
 3800000    1.0284891 -3.2831047e-05   0.57491812 0.0014038856            0   0.57351423      1.53502    2.1099381  -0.15934382 
 3805000   0.99353633 -3.2751138e-05    0.6235796 0.0024286616            0   0.62115094     1.482853    2.1064326  -0.15732606 
 3810000   0.97738721 -1.0896643e-05   0.64480619 0.0028903021            0   0.64191588    1.4587504    2.1035566    1.3503806 
 3815000    1.0158077 3.8321911e-05   0.57674885 0.0050227659            0   0.57172608     1.516093    2.0928418    4.7416523 
 3820000    1.0188844 4.8582555e-05   0.55526606  0.011309257            0   0.54395681     1.520685    2.0759511    5.4339773 
 3825000   0.93516206 2.0774705e-05   0.67020471 0.0068727751            0   0.66333194    1.3957294    2.0659341    3.5018817 
 3830000     1.017877 3.2492738e-05   0.55793584 0.0043341322            0   0.55360171    1.5191815    2.0771173    4.3230154 
 3835000      1.06711 2.0307818e-06   0.49434837 0.0039187711            0    0.4904296    1.5926617    2.0870101    2.2273777 
 3840000    1.0023815 6.7278914e-06   0.59431292  0.029291923            0   0.56502099    1.4960544    2.0903674    2.5553992 
 3845000   0.98259366 -4.508814e-05    0.6307741  0.010092623            0   0.62068148     1.466521    2.0972951   -1.0191971 
 3850000   0.99562726 -3.1311033e-05   0.59934306 0.0034171824            0   0.59592588    1.4859737    2.0853167  -0.07890185 
 3855000     1.018701 -1.8209301e-05   0.58358205  0.003584258            0   0.57999779    1.5204113    2.1039933   0.84536645 
 3860000   0.98948619 7.4872804e-05   0.62425265  0.035395048            0    0.5888576    1.4768081    2.1010608     7.276269 
 3865000    1.0590494 -2.1858577e-05   0.51809624  0.026119983            0   0.49197626    1.5806312    2.0987274   0.58786259 
 3870000    1.0093923 1.825066e-05   0.57973892 0.0094127582            0   0.57032616     1.506518    2.0862569    3.3477425 
 3875000    1.0081939 -3.4460642e-05   0.57145396 0.0055155337            0   0.56593843    1.5047294    2.0761834  -0.30573622 
 3880000    1.0060348 -2.1753579e-05   0.55957502  0.009463037            0   0.55011199    1.5015069     2.061082   0.55747461 
 3885000    1.0147405 2.3138984e-05   0.56176763 0.0089077219            0   0.55285991    1.5145001    2.0762678    3.6756343 
 3890000    1.0144941 -2.222734e-05   0.56744495  0.016910042            0   0.55053491    1.5141324    2.0815774    0.5452236 
 3895000    1.0302972 4.4548296e-05   0.51853036  0.020638778            0   0.49789159    1.5377185    2.0562489    5.1354271 
 3900000   0.97589509 -3.3970952e-05   0.61710797  0.017658796            0   0.59944918    1.4565234    2.0736314  -0.27444081 
 3905000    1.0484444 5.7261047e-06   0.52789807  0.010157343            0   0.51774073    1.5648033    2.0927013    2.4884897 
 3910000    1.0004681 -4.2334874e-05    0.5934794  0.010680814            0   0.58279859    1.4931986     2.086678  -0.83950849 
 3915000    1.0148441 -5.5423805e-05   0.56323328  0.015367689            0   0.54786559    1.5146548    2.0778881   -1.7530053 
 3920000     1.041742 -1.0754993e-05   0.52939143  0.015398073            0   0.51399336       1.5548    2.0841914    1.3408062 
 3925000    1.0248835 4.1341384e-05   0.56194696 0.0040763867            0   0.55787057    1.5296387    2.0915856    4.9491021 
 3930000     1.012666 7.313046e-05   0.58595031 0.0043385948            0   0.58161172     1.511404    2.0973543    7.1521317 
 3935000   0.99445428 1.9803211e-05    0.6034599  0.012239969            0   0.59121993     1.484223    2.0876829    3.4564809 
 3940000    1.0483259 -4.5587484e-05   0.51475514 0.0054258893            0   0.50932926    1.5646264    2.0793816   -1.0716253 
 3945000    1.0467944 -5.2959127e-05   0.51052545 0.0090290401            0   0.50149641    1.5623407    2.0728662   -1.5876687 
 3950000    1.0140097 -3.950955e-05   0.56413342  0.018151524            0    0.5459819    1.5134095    2.0775429  -0.65335721 
 3955000   0.99837754 4.5080486e-05   0.58800388  0.017912455            0   0.57009142    1.4900785    2.0780823    5.1940456 
 3960000   0.97040671 2.8681641e-05   0.61786452  0.014639569            0   0.60322495     1.448332    2.0661965    4.0486715 
 3965000   0.96130876 -5.6087846e-05   0.62968941  0.032597579            0   0.59709183    1.4347533    2.0644427   -1.8123491 
 3970000   0.99566503 -7.1928054e-05   0.58893622  0.017674214            0   0.57126201    1.4860301    2.0749663   -2.8967008 
 3975000    1.0365341 5.1293813e-05   0.53974188  0.013405123            0   0.52633675    1.5470272    2.0867691    5.6321974 
 3980000    1.0077476 9.5578681e-06   0.59923351  0.033884843            0   0.56534867    1.5040632    2.1032967    2.7639366 
 3985000    1.0086764 -1.6884389e-05   0.58413904  0.013862187            0   0.57027685    1.5054495    2.0895886   0.92253961 
 3990000   0.95139257 -3.6664738e-05   0.66438266  0.023740168            0   0.64064249    1.4199534    2.0843361  -0.44993063 
 3995000    1.0071018 -3.2302909e-05   0.55403942  0.026167742            0   0.52787168    1.5030994    2.0571388  -0.17563826 
 4000000   0.96078302 -5.8088543e-05   0.62725007 0.0075419157            0   0.61970816    1.4339687    2.0612187   -1.9538614 
 4005000   0.96886974 -2.2200651e-05    0.6184767 0.0052095918            0   0.61326711    1.4460381    2.0645148   0.53000581 
 4010000    1.0001886 -2.8971954e-05   0.58589164  0.014451372            0   0.57144027    1.4927815    2.0786731  0.076131667 
 4015000    1.0142129 -5.6908775e-05    0.5636961  0.017080435            0   0.54661567    1.5137127    2.0774088   -1.8561258 
 4020000    1.0109874 -1.9338941e-06     0.570306  0.010023303            0   0.56028269    1.5088986    2.0792046    1.9455339 
 4025000   0.98882606 6.437688e-05   0.61170512  0.006218278            0   0.60548685    1.4758229     2.087528     6.537258 
 4030000   0.95934175 -5.5533088e-05   0.65170694   0.01783448            0   0.63387246    1.4318176    2.0835245   -1.7549226 
 4035000    1.0024451 -4.5640018e-05   0.56407491  0.013129872            0   0.55094503    1.4961493    2.0602242   -1.0944138 
 4040000    0.9835581 2.6942798e-05   0.59471914 0.0022145621            0   0.59250457    1.4679605    2.0626796    3.9249658 
 4045000   0.97375472 1.1278585e-05   0.61518732 0.0012856122            0   0.61390171    1.4533289    2.0685162     2.848092 
 4050000    1.0006562 3.0294848e-05   0.59041533 0.0097620034            0   0.58065333    1.4934793    2.0838947    4.1778745 
 4055000   0.97775697 2.1424691e-05   0.63279773  0.019935826            0    0.6128619    1.4593023       2.0921    3.5729747 
 4060000   0.99626052 -3.0934072e-06   0.60220317 0.0071054411            0   0.59509773    1.4869188     2.089122    1.8753057 
 4065000    0.9942268 1.0035346e-05   0.60568093 0.0012898842            0   0.60439105    1.4838835    2.0895644    2.7832075 
 4070000    1.0580228 -1.2479409e-05   0.52724585  0.010705268            0   0.51654058    1.5790991    2.1063449    1.2437682 
 4075000   0.99641586 1.6984185e-05   0.62860406 0.0070362516            0   0.62156781    1.4871507    2.1157547    3.2897016 
 4080000     1.028568 -1.3134236e-05   0.57248481 0.0070695813            0   0.56541523    1.5351378    2.1076226    1.1997842 
 4085000    1.0044091 -7.0195515e-06   0.59352816  0.019075011            0   0.57445315    1.4990805    2.0926087    1.6074173 
 4090000   0.96452252 2.4621794e-05   0.62710076  0.028601224            0   0.59849954    1.4395499    2.0666506     3.768509 
 4095000   0.97532762 4.2397532e-05   0.61257187  0.034799645            0   0.57777222    1.4556765    2.0682483    4.9987658 
 4100000   0.94350548 -1.5029182e-05   0.66420263  0.010664219            0   0.65353841    1.4081819    2.0723846    1.0335675 
 4105000    1.0208557 -3.0017222e-05   0.55140568 0.0062396677            0   0.54516601    1.5236271    2.0750328 0.00024240217 
 4110000   0.95617646 2.8662051e-05   0.63708313  0.023629205            0   0.61345392    1.4270934    2.0641765    4.0452975 
 4115000    1.0169134 4.7511694e-05   0.53065527  0.011240339            0   0.51941493    1.5177433    2.0483985    5.3324068 
 4120000    1.0102094 -1.1907076e-05    0.5583144 0.0036425686            0   0.55467183    1.5077376     2.066052    1.2430349 
 4125000    1.0212644 -3.1617892e-05   0.52318309  0.005047157            0   0.51813594     1.524237    2.0474201  -0.13800857 
 4130000   0.96998871 -1.2814433e-05   0.57077171 0.0036098832            0   0.56716182    1.4477081    2.0184799    1.1327462 
 4135000    1.0322162 6.7582973e-06   0.46980713 0.0026672862            0   0.46713985    1.5405827    2.0103899    2.4775234 
 4140000   0.96771363 -3.5779465e-05   0.57307765 0.0056359991            0   0.56744165    1.4443126    2.0173903  -0.45568636 
 4145000    1.0244656 1.6674319e-05   0.49675114  0.014660272            0   0.48209087    1.5290149     2.025766    3.1782949 
 4150000   0.99487513 -1.4788572e-05   0.56195703    0.0187811            0   0.54317593    1.4848511    2.0468082    1.0246221 
 4155000    0.9777455 6.1133338e-05    0.6018651  0.018141376            0   0.58372373    1.4592852    2.0611503    6.2866866 
 4160000   0.98056297 4.1038225e-05   0.58918602   0.01267235            0   0.57651367    1.4634902    2.0526763    4.8892384 
 4165000   0.98189849 3.6786478e-05   0.59117681  0.021468955            0   0.56970786    1.4654835    2.0566603    4.5993417 
 4170000   0.95727181 -5.2417644e-06   0.62270968  0.014719616            0   0.60799006    1.4287282    2.0514379    1.6891271 
 4175000   0.97839789 -7.2599943e-05   0.57227077 0.0024727176            0   0.56979806    1.4602589    2.0325296   -2.9855784 
 4180000    1.0580656 2.8724074e-06    0.4683797 0.0016109841            0   0.46676871    1.5791629    2.0475426    2.2460834 
 4185000   0.99018261 6.1659849e-05     0.572593 0.0027237346            0   0.56986927    1.4778475    2.0504405    6.3123693 
 4190000    1.0168433 2.1130705e-05   0.52125677 0.0040111463            0   0.51724563    1.5176386    2.0388953    3.4994497 
 4195000   0.99127539 2.259197e-05   0.55041626 0.0050981283            0   0.54531813    1.4794785    2.0298948    3.5914518 
 4200000    1.0071282 -2.9974857e-06   0.54524271  0.027587392            0   0.51765531    1.5031388    2.0483815    1.8411953 
 4205000    0.9851014 -2.5379192e-05   0.58583617  0.013984159            0   0.57185202    1.4702638       2.0561   0.30189023 
 4210000   0.99071704 4.6964318e-05   0.58571606  0.014000303            0   0.57171576    1.4786452    2.0643612    5.3105349 
 4215000   0.98007894 9.8701001e-06   0.60875427  0.016185716            0   0.59256856    1.4627678    2.0715221    2.7537434 
 4220000    1.0086755 -3.8279892e-05   0.56976463 0.0080229873            0   0.56174165    1.5054482    2.0752128  -0.57069332 
 4225000    1.0446128 5.2203632e-05   0.51539468 0.0039454498            0   0.51144923    1.5590847    2.0744793    5.6827944 
 4230000   0.96108545 1.8262952e-05   0.62688783 0.0019702806            0   0.62491755      1.43442    2.0613079    3.3236431 
 4235000   0.97848748 -2.0412315e-05   0.61166668 0.0011810064            0   0.61048567    1.4603926    2.0720592   0.66116001 
 4240000   0.98040552 6.6105874e-05   0.60102692 0.0085412347            0   0.59248569    1.4632552    2.0642822    6.6335202 
 4245000   0.99989561 2.0530223e-05   0.58441161 0.0093623826            0   0.57504922    1.4923442    2.0767558    3.4958048 
 4250000   0.96018447 -3.4478035e-05   0.63972626   0.01891269            0   0.62081357    1.4330753    2.0728016  -0.31032018 
 4255000   0.99526882 -1.9844272e-05   0.58616873  0.013934708            0   0.57223402    1.4854387    2.0716074   0.69997134 
 4260000    1.0178486 -1.9031585e-05   0.56240357 0.0098044296            0   0.55259914     1.519139    2.0815426   0.76607942 
 4265000   0.97875485 -3.4138849e-05   0.62915412 0.0065723608            0   0.62258176    1.4607916    2.0899457   -0.2697315 
 4270000    1.0101987 -4.6785379e-05   0.56045317 0.0070045813            0   0.55344859    1.5077215    2.0681747   -1.1656307 
 4275000    1.0104829 -7.7751857e-06   0.56732301 0.0064280884            0   0.56089492    1.5081457    2.0754687    1.5380478 
 4280000   0.96399332 -1.7903951e-05   0.61513461 0.0092297416            0   0.60590487      1.43876    2.0538946   0.81637355 
 4285000   0.97460439 1.4720771e-05   0.59843191  0.018246549            0   0.58018536    1.4545971     2.053029    3.0705286 
 4290000    1.0396146 3.2734885e-05   0.49520661  0.016014772            0   0.47919184    1.5516249    2.0468315    4.3094667 
 4295000   0.97276293 -2.7096604e-05   0.57799603  0.026380531            0    0.5516155    1.4518487    2.0298447    0.1569274 
 4300000   0.98999589 -8.5747715e-06   0.54053691  0.011497318            0   0.52903959    1.4775689    2.0181058    1.4254176 
 4305000   0.92456658 6.4516769e-06   0.64031095  0.011753868            0   0.62855708    1.3799156    2.0202266    2.4661665 
 4310000    1.0059851 -3.914714e-05   0.52445697  0.014695261            0   0.50976171    1.5014327    2.0258897  -0.67996065 
 4315000   0.92819489 -1.9869939e-05   0.63194058  0.019157628            0   0.61278295    1.3853309    2.0172715   0.64386124 
 4320000   0.90674997 4.2181921e-06   0.67679979  0.010436133            0   0.66636366    1.3533243    2.0301241    2.3216856 
 4325000   0.98691217 -4.7801908e-05   0.55605771 0.0062236978            0   0.54983401    1.4729664    2.0290241   -1.2750437 
 4330000   0.94013774 -6.1542379e-06   0.59834873  0.012888175            0   0.58546056    1.4031556    2.0015043    1.5761234 
 4335000   0.89562289 -4.8292097e-05   0.64369412  0.019423561            0   0.62427056    1.3367172    1.9804113   -1.3575384 
 4340000   0.87408207 7.6535495e-06   0.66368938  0.007133944            0   0.65655544    1.3045675    1.9682569    2.4972702 
 4345000   0.93343787 4.5571834e-05   0.56332547  0.010770118            0   0.55255535     1.393156    1.9564815    5.1064067 
 4350000   0.96000784 3.3017477e-05   0.53562883  0.010721673            0   0.52490715    1.4328117    1.9684405    4.2506085 
 4355000   0.93604512 -1.8329024e-05   0.55613518 0.0015700773            0    0.5545651    1.3970473    1.9531825   0.68628038 
 4360000   0.90607854 6.6238142e-07    0.5805415 0.0095432666            0   0.57099823    1.3523222    1.9328637    1.9786475 
 4365000   0.88132455 7.6023947e-06   0.62484869  0.019906939            0   0.60494175    1.3153769    1.9402256    2.4657031 
 4370000   0.91138829 3.686909e-05   0.59582129  0.026226563            0   0.56959473     1.360247    1.9560683    4.5044598 
 4375000   0.93264416 -5.2206008e-05    0.5720841  0.030712361            0   0.54137174    1.3919714    1.9640555   -1.6444238 
 4380000   0.91198896 -2.6014471e-05   0.57934554 0.0070804064            0   0.57226514    1.3611435    1.9404891   0.14236886 
 4385000   0.94874666 5.3028072e-05   0.49821313  0.006425906            0   0.49178723    1.4160044    1.9142175    5.5795179 
 4390000   0.92216523 -2.7341556e-06   0.52560885  0.016283352            0    0.5093255    1.3763316    1.9019405    1.7129556 
 4395000   0.89793658 4.4378129e-05   0.57910826   0.01977387            0   0.55933439    1.3401703    1.9192786    4.9866949 
 4400000   0.89349666 3.2225517e-05   0.58006464  0.030133952            0   0.54993068    1.3335438    1.9136084    4.1410362 
 4405000   0.87630006 2.0409936e-05   0.59604151   0.01364502            0   0.58239649    1.3078778    1.9039193    3.3146541 
 4410000   0.85468358 5.9248025e-05   0.63647006 0.0073589541            0    0.6291111    1.2756152    1.9120853    6.0073088 
 4415000   0.86899364 7.2537006e-06   0.60823718 0.0024751234            0   0.60576206     1.296973    1.9052102     2.406586 
 4420000   0.89997755 -5.3919421e-06    0.5357905 0.0044905972            0    0.5312999    1.3432165     1.879007     1.506316 
 4425000   0.88121998 4.0928863e-06   0.57542061  0.012364196            0   0.56305642    1.3152208    1.8906414    2.1735417 
 4430000   0.84563749 -4.9994155e-05   0.60903846  0.023218959            0    0.5858195    1.2621139    1.8711524   -1.5844436 
 4435000   0.90113251 -1.9065331e-06   0.54562674  0.028254331            0   0.51737241    1.3449403     1.890567    1.7587874 
 4440000   0.88987021 2.234641e-05   0.55514031  0.016029427            0   0.53911088    1.3281313    1.8832716    3.4278555 
 4445000   0.85093211 -9.5288951e-06   0.60620577  0.011132719            0   0.59507305    1.2700162    1.8762219    1.2175847 
 4450000   0.93435843 4.0415337e-05   0.51461508 0.0057375899            0   0.50887749      1.39453     1.909145    4.7026532 
 4455000    0.8904871 3.2255845e-05   0.56232849 0.00084046805            0   0.56148802     1.329052    1.8913805    4.1209045 
 4460000   0.94921748 -4.96176e-05   0.46796454 0.0026630697            0   0.46530147    1.4167071    1.8846716   -1.5448969 
 4465000   0.90848818 -4.5562458e-05   0.54735958 0.0033449264            0   0.54401465    1.3559186    1.9032782   -1.2459989 
 4470000   0.93671698 3.7264451e-05   0.51274934 0.0034214006            0   0.50932794    1.3980501    1.9107994    4.4865183 
 4475000    0.8876262 2.859732e-05    0.5796559  0.012039712            0   0.56761618    1.3247821     1.904438    3.8810847 
 4480000   0.89782163 -2.3403927e-07   0.58084943  0.011230149            0   0.56961928    1.3399988    1.9208482    1.9046714 
 4485000   0.88409253 3.0300881e-05   0.61482829  0.011175414            0   0.60365288    1.3195081    1.9343364    4.0287333 
 4490000   0.93911276 -2.3855165e-05   0.53033798  0.017139287            0   0.51319869    1.4016258    1.9319638   0.28309475 
 4495000    0.9218133 -5.507388e-05   0.55853608  0.011010272            0   0.54752581    1.3758063    1.9343424   -1.8723641 
 4500000   0.93923511 2.3119254e-05   0.53854287  0.010105787            0   0.52843708    1.4018084    1.9403513    3.5383541 
 4505000   0.91008077 -2.4761747e-05   0.59015508 0.0080370985            0   0.58211798    1.3582955    1.9484506   0.23691871 
 4510000    0.9089224 -3.776755e-05   0.60553174    0.0045344            0   0.60099734    1.3565667    1.9620984  -0.64839462 
 4515000   0.92571578 -4.7713616e-06    0.5883881 0.0032702204            0   0.58511788    1.3816308    1.9700189    1.6402224 
 4520000   0.95733394 -9.2736059e-06   0.52485867 0.0063506892            0   0.51850798    1.4288209    1.9536796    1.3126879 
 4525000   0.98666024 2.6111959e-05   0.49814433 0.0066429526            0   0.49150138    1.4725904    1.9707347    3.7755934 
 4530000    0.8958082 6.3815765e-05   0.62628446  0.016916574            0   0.60936788    1.3369937    1.9632782    6.3742239 
 4535000   0.94760437 -5.5310004e-06   0.58376502  0.014589746            0   0.56917527    1.4142995    1.9980645    1.6157618 
 4540000   0.96130855 -5.0452136e-05   0.57161859 0.0091988042            0   0.56241979     1.434753    2.0063716     -1.48088 
 4545000    0.9774444 -1.2555138e-05   0.56045215  0.010135447            0   0.55031671    1.4588358    2.0192879    1.1514768 
 4550000   0.96211522 1.6633993e-05   0.57631506  0.011021933            0   0.56529313     1.435957     2.012272    3.1620136 
 4555000   0.99135239 4.0427918e-05   0.54068827   0.01670617            0    0.5239821    1.4795934    2.0202817    4.8146594 
 4560000   0.94464299 -9.0350581e-08   0.61013392  0.023956543            0   0.58617738    1.4098797    2.0200136    2.0137685 
 4565000    1.0093947 1.1911756e-06   0.51261136  0.017692054            0    0.4949193    1.5065216     2.019133     2.101467 
 4570000     0.945101 -2.1332612e-05   0.61683588   0.01810083            0   0.59873505    1.4105632    2.0273991     0.552889 
 4575000    1.0112669 -1.9969804e-05    0.5261575  0.013909612            0   0.51224788    1.5093159    2.0354734   0.65516055 
 4580000   0.96227748 4.8895948e-05   0.57868889  0.010264864            0   0.56842402    1.4361991     2.014888    5.3945759 
 4585000   0.98967353 4.7315551e-05   0.52886855  0.014856393            0   0.51401216    1.4770877    2.0059563    5.2764072 
 4590000    1.0071058 -4.1496185e-05   0.51695077  0.017955883            0   0.49899489    1.5031054    2.0200561  -0.84816015 
 4595000   0.96258009 -8.1514973e-06   0.59930382  0.014403203            0   0.58490062    1.4366508    2.0359546    1.4725231 
 4600000    1.0252053 6.675723e-06   0.50347488  0.014241282            0   0.48923359    1.5301189    2.0335938    2.4950198 
 4605000    1.0159118 6.6231226e-06   0.52775002  0.017519259            0   0.51023076    1.5162484    2.0439984    2.5017886 
 4610000    1.0455273 2.9011573e-05   0.49399124  0.013625003            0   0.48036623    1.5604495    2.0544408    4.0597207 
 4615000    1.0341816 2.8599707e-05   0.53509092  0.006861279            0   0.52822964    1.5435161     2.078607    4.0554188 
 4620000    1.0244323 -1.5791874e-05   0.53774775 0.0072668765            0   0.53048087    1.5289652    2.0667129   0.97517861 
 4625000    1.0033681 -7.4582736e-07   0.57942032  0.024661712            0   0.55475861     1.497527    2.0769473    2.0253957 
 4630000     1.028996 2.5004046e-06   0.54110146  0.019842125            0   0.52125934    1.5357766    2.0768781     2.249706 
 4635000    1.0023277 3.8862448e-06   0.57176933 0.0071212095            0   0.56464813    1.4959741    2.0677435    2.3363607 
 4640000    1.0795342 2.2638883e-05   0.45303967 0.0098032709            0    0.4432364    1.6112048    2.0642445    3.6290441 
 4645000    1.0207442 9.2857624e-06   0.54132563  0.020021129            0    0.5213045    1.5234607    2.0647864    2.7066183 
 4650000   0.98233042 -2.9964333e-06   0.63148785  0.017015122            0   0.61447273    1.4661281     2.097616    1.8905025 
 4655000     1.078286 -7.9337195e-06   0.49718403  0.010527348            0   0.48665669    1.6093419    2.1065259    1.5581472 
 4660000    1.0448829 1.9431185e-05   0.54721771 0.0058321578            0   0.54138555    1.5594877    2.1067054    3.4497889 
 4665000     1.023478 3.8856387e-05   0.54809686  0.016051321            0   0.53204553    1.5275409    2.0756377    4.7613912 
 4670000    1.0096509 7.9053674e-06   0.56201288  0.019368124            0   0.54264476     1.506904    2.0689169    2.6153359 
 4675000    1.0450935 -1.9451937e-05   0.50553192  0.017842886            0   0.48768904     1.559802     2.065334   0.72081608 
 4680000    1.0021847 -1.17518e-05   0.58799697  0.022390764            0   0.56560621    1.4957607    2.0837577    1.2714733 
 4685000    1.0079151 2.8646947e-05   0.58040978  0.027212404            0   0.55319738    1.5043133    2.0847231    4.0648001 
 4690000    1.0551956 1.7693193e-05   0.51030287  0.007538747            0   0.50276413    1.5748794    2.0851823    3.3081357 
 4695000    1.0204875 6.2363373e-05   0.57366835  0.011133905            0   0.56253445    1.5230775    2.0967459    6.4073022 
 4700000    1.0599077 1.3632746e-05   0.52309202 0.0085559748            0   0.51453605    1.5819122    2.1050043    3.0472997 
 4705000    1.0375825 -4.8126708e-05   0.56080275 0.0062676989            0   0.55453505    1.5485919    2.1093947   -1.2171234 
 4710000   0.98113051 3.2302286e-05    0.6484575  0.024033903            0    0.6244236    1.4643373    2.1127948    4.3455288 
 4715000     1.045655 5.5354903e-05   0.57385506  0.021842717            0   0.55201234      1.56064    2.1344951     5.960626 
 4720000    1.0117957 7.4566913e-06   0.61226343  0.023749406            0   0.58851402    1.5101051    2.1223686    2.6377751 
 4725000    1.0444278 2.3324675e-05   0.56497531  0.033570265            0   0.53140505    1.5588085    2.1237839    3.7359854 
 4730000    1.0894238 1.480748e-07   0.49245969 0.0065184925            0    0.4859412     1.625965    2.1184247    2.1286596 
 4735000   0.99195512 -1.9535969e-05    0.6297619  0.015948313            0   0.61381359     1.480493    2.1102549   0.75992877 
 4740000    1.0203587 5.5166411e-05   0.56734542  0.011036943            0   0.55630848    1.5228854    2.0902308    5.9033331 
 4745000   0.97223528 -1.8669934e-05   0.64967371  0.041651825            0   0.60802188    1.4510612    2.1007349   0.81026905 
 4750000    1.0535994 -4.4043134e-05   0.52832627  0.037442828            0   0.49088344    1.5724971    2.1008234  -0.94343805 
 4755000     1.053551 -1.6914858e-05    0.5163855 0.0073830984            0   0.50900241    1.5724249    2.0888104   0.91965543 
 4760000    1.0352464 1.0691066e-05   0.57326479 0.0057202454            0   0.56754454    1.5451052      2.11837    2.8573365 
 4765000    1.0101751 5.1325334e-05   0.58751826  0.013883718            0   0.57363454    1.5076863    2.0952045    5.6428116 
 4770000    1.0319719 -1.6142496e-05   0.55833706  0.011626493            0   0.54671057    1.5402181    2.0985551   0.98278578 
 4775000    1.0216406 -1.4130117e-05   0.56679413  0.015114133            0   0.55167999    1.5247987    2.0915928    1.1149191 
 4780000   0.99386666 1.8676943e-05    0.5944723  0.012280062            0   0.58219224     1.483346    2.0778183    3.3687686 
 4785000    0.9898507 -8.0849181e-06   0.60392918  0.032275305            0   0.57165387    1.4773522    2.0812813    1.5224518 
 4790000    1.0118262 -3.7781504e-05   0.55930639  0.023595505            0   0.53571089    1.5101506     2.069457   -0.5420006 
 4795000   0.93930701 -4.7105538e-05   0.66642507  0.018187582            0   0.64823749    1.4019157    2.0683408    -1.187594 
 4800000   0.98405176 4.3295949e-06    0.5666038  0.014601657            0   0.55200215    1.4686972    2.0353011    2.3345627 
 4805000    1.0210822 1.3809538e-05   0.54248588  0.019036545            0   0.52344933    1.5239652    2.0664511    3.0209664 
 4810000     1.039826 1.3699921e-05   0.51978572 0.0083742464            0   0.51141147    1.5519403     2.071726    3.0186645 
 4815000   0.99802998 1.0381841e-05   0.57421482 0.0034392073            0   0.57077562    1.4895598    2.0637746    2.7813674 
 4820000     1.001986 -1.0347514e-05   0.55879905  0.011504815            0   0.54729424     1.495464    2.0542631    1.3390429 
 4825000   0.99044558 -2.8018759e-06   0.57716696  0.011700418            0   0.56546655      1.47824     2.055407    1.8617413 
 4830000    1.0118737 -1.5448603e-05   0.54041755 0.0020302672            0   0.53838728    1.5102215    2.0506391   0.98283163 
 4835000    1.0183438 1.5012048e-05   0.52738589  0.001671668            0   0.52571423    1.5198782    2.0472641    3.0848968 
 4840000   0.93894968 1.7795148e-05   0.64601821 0.0088154894            0   0.63720273    1.4013824    2.0474006    3.2774013 
 4845000    0.9994167 1.3530139e-05   0.55685121  0.017290959            0   0.53956025    1.4916294    2.0484806    2.9836838 
 4850000      1.03284 5.9934616e-05    0.5247551  0.014569375            0   0.51018572    1.5415137    2.0662688    6.2089495 
 4855000    1.0591109 3.1456589e-05   0.49628978  0.032061925            0   0.46422786    1.5807231    2.0770128    4.2512922 
 4860000    1.0502872 1.9841761e-06   0.50003134  0.012154678            0   0.48787666    1.5675537     2.067585    2.2047312 
 4865000    1.0375952 6.5112706e-05   0.51360544 0.0083651592            0   0.50524028    1.5486109    2.0622163    6.5628066 
 4870000    1.0062243 4.9401425e-05   0.55304469 0.0058978773            0   0.54714681    1.5017898    2.0548345    5.4694609 
 4875000     1.037353 -2.5427464e-05   0.49101912 0.0029518185            0    0.4880673    1.5482494    2.0392685   0.28172215 
 4880000    1.0353144 -4.3846434e-05   0.50127075 0.0030516243            0   0.49821913    1.5452067    2.0464775  -0.98418807 
 4885000   0.97619741 -2.9024286e-06   0.59974384 0.0067133752            0   0.59303046    1.4569746    2.0567185    1.8561026 
 4890000     1.021827 -5.4534984e-05   0.54145582  0.016030003            0   0.52542582    1.5250768    2.0665326   -1.7029255 
 4895000     1.053536 -3.9585716e-05   0.49050976  0.011560982            0   0.47894878    1.5724025    2.0629122  -0.67325242 
 4900000    1.0078345 7.4803965e-05   0.54761224   0.01785005            0   0.52976219    1.5041929    2.0518052    7.2222552 
 4905000    1.0149108 5.2482011e-05   0.52249289  0.025244005            0   0.49724888    1.5147544    2.0372473    5.6648039 
 4910000    1.0269168 2.2869054e-05    0.5176237  0.018141513            0   0.49948219    1.5326733     2.050297     3.631006 
 4915000   0.99105788 -2.9597103e-05   0.57582487  0.039652886            0   0.53617198    1.4791539    2.0549788 0.0092269898 
 4920000   0.99881973 -6.078561e-06   0.58192611   0.01088053            0   0.57104558    1.4907384    2.0726646    1.6525144 
 4925000    1.0813473 3.2339898e-05   0.47120729   0.01242595            0   0.45878134    1.6139108    2.0851181    4.3204518 
 4930000     1.029322 7.398961e-05   0.55319944  0.024875857            0   0.52832358    1.5362631    2.0894625    7.2036244 
 4935000    1.0061675 6.1507022e-05   0.56802818  0.023697356            0   0.54433082     1.501705    2.0697331    6.3210985 
 4940000    1.0870119 7.855644e-06   0.45002701  0.018052551            0   0.43197446    1.6223653    2.0723923    2.6153744 
 4945000    1.0440369 6.4178397e-05   0.51120321  0.013826576            0   0.49737663     1.558225    2.0694282     6.505439 
 4950000    1.0501976 3.3959435e-05   0.50547186 0.0099379667            0   0.49553389    1.5674199    2.0728917    4.4201679 
 4955000    1.0533124 -1.1218903e-05   0.51133275  0.010051463            0   0.50128129    1.5720688    2.0834015     1.307951 
 4960000    1.0212616 3.1390596e-06   0.56344405  0.017474903            0   0.54596915    1.5242329     2.087677    2.3046488 
 4965000    1.0295212 4.5617667e-05   0.54120328  0.013588559            0   0.52761472    1.5365605    2.0777637    5.2308569 
 4970000    1.0538123 -1.0678496e-05   0.52890502  0.022010259            0   0.50689476    1.5728149    2.1017199    1.3636223 
 4975000    1.0243909 -3.2715531e-05   0.58304209  0.023915767            0   0.55912633    1.5289035    2.1119456  -0.14935196 
 4980000    1.0679498 4.2929382e-05   0.52081112  0.018448679            0   0.50236244    1.5939151    2.1147262    5.0820051 
 4985000    1.0367854 8.8893347e-06   0.56636535  0.022704357            0   0.54366099    1.5474022    2.1137676    2.7281984 
 4990000    1.0059756 -8.0301403e-06   0.61583953  0.037856464            0   0.57798306    1.5014185    2.1172581    1.5622148 
 4995000    1.0675164 4.9663335e-05   0.53791731  0.020211389            0   0.51770592    1.5932682    2.1311855    5.5639152 
 5000000    1.0193104 2.186637e-05   0.60199734  0.015637384            0   0.58635995    1.5213208    2.1233181    3.6347216 
 5005000    1.0769718 -2.8554435e-05    0.5320929   0.02683398            0   0.50525892    1.6073805    2.1394734   0.16579081 
 5010000     1.066846 3.3555635e-05   0.55409873  0.017079161            0   0.53701957    1.5922677    2.1463664    4.4657319 
 5015000    1.0655861 2.5090075e-05   0.56246528  0.015279458            0   0.54718582    1.5903873    2.1528525    3.8870785 
 5020000    1.0658677 -5.9383913e-05   0.55554067 0.0037963868            0   0.55174429    1.5908075    2.1463482   -1.9582679 
 5025000    1.0954375 -4.0308851e-05   0.51533465 0.0034799251            0   0.51185473    1.6349404    2.1502751  -0.63587272 
 5030000    1.0528486 -7.6054384e-06   0.56755129 0.0064570593            0   0.56109423    1.5713765    2.1389278    1.6132399 
 5035000    1.0779634 1.5083903e-05   0.53307118 0.0084835765            0    0.5245876    1.6088604    2.1419316    3.1845309 
 5040000    1.0224554 8.1179469e-06    0.6165176 0.0065265517            0   0.60999104    1.5260147    2.1425323    2.7036448 
 5045000    1.0662141 2.8287118e-06   0.55505675 0.0085110149            0   0.54654574    1.5913246    2.1463813    2.3419019 
 5050000    1.0264108 -2.9363641e-05   0.59950153  0.011362017            0   0.58813951    1.5319182    2.1314197   0.10180481 
 5055000    1.0454531 4.0284894e-05   0.57294095  0.014411484            0   0.55852947    1.5603387    2.1332797    4.9177715 
 5060000      1.04709 1.6101212e-05   0.55346887  0.013935958            0   0.53953291    1.5627818    2.1162507    3.2291665 
 5065000    1.0166855 -3.0058473e-05   0.58802864  0.010545318            0   0.57748332     1.517403    2.1054317  0.027790025 
 5070000    1.0105778 1.5245871e-05   0.59655806  0.008823172            0   0.58773489    1.5082873    2.1048454    3.1586399 
 5075000    1.0364998 -4.736397e-05   0.54177398  0.019784021            0   0.52198996     1.546976      2.08875   -1.1850476 
 5080000    1.0571563 1.2330413e-05   0.51804001  0.026911819            0   0.49112819    1.5778058    2.0958458     2.948124 
 5085000   0.97151716 5.8583532e-05   0.65422352  0.012465134            0   0.64175838    1.4499894    2.1042129    6.1535066 
 5090000    1.0787398 -2.5977526e-05   0.49611016 0.0096204043            0   0.48648976    1.6100191    2.1061293   0.31056266 
 5095000    1.0337557 -8.5191424e-06   0.58146097  0.010347279            0   0.57111369    1.5428804    2.1243413    1.5354982 
 5100000    1.0247119 3.4134562e-05   0.60861565  0.038686128            0   0.56992952    1.5293825    2.1379981    4.4973791 
 5105000    1.0226451 -1.1823683e-05   0.61909935  0.034023154            0   0.58507619    1.5262978    2.1453972    1.3281442 
 5110000    1.0581282 -4.5343845e-05   0.57679578   0.01293767            0   0.56385811    1.5792564    2.1560522  -0.97811442 
 5115000    1.0384002 -2.4173499e-05   0.60403039  0.032378685            0    0.5716517    1.5498123    2.1538427   0.48297046 
 5120000    1.0072628 -7.6436064e-05   0.60483126 0.0083635746            0   0.59646768    1.5033397    2.1081709   -3.1750898 
 5125000    1.0311016 -6.1613477e-05   0.54149039  0.009693334            0   0.53179706    1.5389192    2.0804096   -2.1783139 
 5130000    0.9830947 5.1964603e-06   0.62742332 0.0078220457            0   0.61960128    1.4672688    2.0946922    2.4538715 
 5135000    1.0506267 -1.8886861e-05   0.52557391  0.003495815            0   0.52207809    1.5680603    2.0936342   0.78817433 
 5140000    1.0295611 -3.9991122e-05   0.56721231 0.0021923858            0   0.56501993    1.5366199    2.1038322  -0.66035409 
 5145000     1.093932 1.1151644e-05   0.46701552   0.01603123            0   0.45098429    1.6326935     2.099709    2.8705106 
 5150000    1.0319495 2.0791353e-05   0.56801807  0.028978517            0   0.53903955    1.5401846    2.1082026     3.545301 
 5155000     1.000422 -1.7579937e-05   0.59986954  0.015841633            0   0.58402791    1.4931299    2.0929994   0.87787417 
 5160000    1.0356066 -5.893322e-05   0.55331745 0.0024451049            0   0.55087234    1.5456428    2.0989602    -1.974504 
 5165000    1.0443572 -7.5069512e-05   0.55774546 0.0039625872            0   0.55378287    1.5587032    2.1164487    -3.072356 
 5170000     1.076813 1.7548494e-05   0.49802886 0.0068211626            0    0.4912077    1.6071433    2.1051722    3.3181241 
 5175000    1.0292016 3.080668e-05   0.57275354 0.0079395436            0     0.564814    1.5360834    2.1088369    4.2381947 
 5180000   0.98130546 -4.0075756e-05   0.63751375  0.012247313            0   0.62526644    1.4645984    2.1021122  -0.66792411 
 5185000    1.0613497 -1.2867422e-05   0.52744044  0.013463341            0    0.5139771    1.5840644    2.1115048    1.2221086 
 5190000    1.0544122 1.077798e-06   0.53368814 0.0027194416            0    0.5309687    1.5737102    2.1073983    2.1818957 
 5195000    1.0077309 -1.0737837e-05   0.59005967 0.0038364235            0   0.58622325    1.5040384    2.0940981    1.3518988 
 5200000    1.0088032 2.1516006e-05   0.59454671 0.0080672588            0   0.58647945    1.5056388    2.1001855    3.5873718 
 5205000    1.0179947 2.6495808e-06   0.56884963  0.015522748            0   0.55332688    1.5193571    2.0882067    2.2713457 
 5210000    1.0577491 2.0188436e-05   0.51204473  0.037618876            0   0.47442585    1.5786906    2.0907353      3.48616 
 5215000    1.0118646 2.8614932e-05   0.58088213  0.011818991            0   0.56906314    1.5102079      2.09109    4.0689541 
 5220000   0.97350665 -1.3146587e-05   0.60720891 0.0067773366            0   0.60043158    1.4529587    2.0601676    1.1514755 
 5225000    1.0588059 5.3761076e-05   0.48564222 0.0093855361            0   0.47625669    1.5802678      2.06591    5.7818756 
 5230000    1.0565992 -6.3693395e-05   0.49289615 0.0095883349            0   0.48330781    1.5769743    2.0698704    -2.332617 
 5235000    1.0071105 -5.9132238e-05   0.56290581 0.0044145908            0   0.55849122    1.5031124    2.0660182   -2.0212021 
 5240000   0.98951992 -2.5740967e-05   0.57119517  0.012851267            0    0.5583439    1.4768585    2.0480536   0.26883801 
 5245000    1.0294432 1.2461551e-05    0.5020446  0.019426445            0   0.48261815    1.5364439    2.0384885    2.8998309 
 5250000    1.0431081 2.2547978e-05   0.49282115 0.0014019025            0   0.49141925    1.5568389      2.04966    3.6081762 
 5255000   0.99980002 -7.9745035e-05   0.55674308 0.0013542986            0   0.55538878    1.4922015    2.0489446   -3.4630322 
 5260000    1.0412992 -3.4512417e-05   0.49114123 0.0068435546            0   0.48429768    1.5541391    2.0452803  -0.34021792 
 5265000    0.9906057 -2.9756907e-06   0.57648321 0.0087302027            0   0.56775301     1.478479    2.0549622    1.8492825 
 5270000   0.99893493 1.4581715e-06    0.5575172  0.010354734            0   0.54716247    1.4909104    2.0484276    2.1492164 
 5275000    1.0578405 1.3612333e-05   0.47933141 0.0067051007            0   0.47262631    1.5788269    2.0581583    2.9990428 
 5280000    1.0251739 -4.1123209e-05   0.52673164 0.0089552763            0   0.51777637    1.5300721    2.0568037   -0.7856325 
 5285000    1.0424295 -1.2051387e-05   0.50599412 0.0095978971            0   0.49639622     1.555826    2.0618202    1.2288283 
 5290000    1.0341025 4.9449117e-05   0.53120854    0.0115794            0   0.51962914    1.5433979    2.0746065    5.4925294 
 5295000   0.98956718 -9.651186e-06   0.59093724  0.014014659            0   0.57692258     1.476929    2.0678663    1.4007763 
 5300000    1.0191769 -3.718811e-05    0.5557946  0.014362103            0    0.5414325    1.5211215    2.0769161  -0.49352602 
 5305000   0.99635676 -5.1280388e-05   0.57436383  0.016427592            0   0.55793624    1.4870625    2.0614263   -1.4830741 
 5310000    1.0038879 3.333078e-05      0.56645  0.024099791            0   0.54235021    1.4983027    2.0647527    4.3685763 
 5315000    1.0496186 8.8997353e-06   0.52166866 0.0090566134            0   0.51261205    1.5665557    2.0882244    2.7033741 
 5320000    1.0243223 2.4803522e-05   0.54730255  0.001995025            0   0.54530753    1.5288011    2.0761036    3.7905231 
 5325000    1.0446823 -3.1388283e-05    0.5206728  0.018123498            0   0.50254931    1.5591883    2.0798611 -0.089697041 
 5330000    1.0160211 -2.934819e-05   0.55192854  0.032890296            0   0.51903825    1.5164115      2.06834  0.039793107 
 5335000    1.0170943 4.4670421e-05   0.55026589  0.010531713            0   0.53973418    1.5180133    2.0682792    5.1558987 
 5340000    1.0422432 1.4023192e-05   0.52451119  0.011269481            0   0.51324171     1.555548    2.0800592    3.0493422 
 5345000    1.0332114 2.9778766e-06   0.53321211 0.0076322601            0   0.52557985    1.5420679    2.0752801    2.2811109 
 5350000    1.0010188 -4.4265156e-05   0.56655601  0.011582775            0   0.55497323    1.4940206    2.0605766  -0.99903101 
 5355000    1.0091325 -9.3957002e-06   0.55697713 0.0048122058            0   0.55216493    1.5061302    2.0631073    1.4136765 
 5360000    1.0003305 5.241033e-05   0.55415268  0.021322856            0   0.53282983    1.4929933    2.0471459     5.669748 
 5365000   0.96969262 -5.0372956e-05    0.6047465  0.017542954            0   0.58720355    1.4472662    2.0520127    -1.429766 
 5370000     0.976808 2.6308153e-05   0.59530774  0.027285794            0   0.56802195    1.4578859    2.0531937    3.8716132 
 5375000   0.99403969 2.4661445e-05   0.56427705  0.027882924            0   0.53639412    1.4836042    2.0478813    3.7524804 
 5380000   0.97384216 -2.3314684e-05   0.57133536  0.013081225            0   0.55825414    1.4534594    2.0247948   0.41328384 
 5385000     1.036815 7.7580581e-06   0.48827389 0.0039478911            0     0.484326    1.5474464    2.0357202    2.5719572 
 5390000    1.0423966 4.8077562e-05   0.47874564 0.0030224955            0   0.47572314    1.5557769    2.0345225    5.3576436 
 5395000    1.0142525 -4.9735545e-05   0.52733717  0.012261019            0   0.51507615    1.5137719     2.041109   -1.3966119 
 5400000   0.97905416 -2.9629258e-05   0.59103361  0.042468593            0   0.54856502    1.4612383    2.0522719 0.0042976382 
 5405000    1.0160334 -3.189011e-05    0.5174745   0.02488139            0   0.49259311    1.5164298    2.0339043  -0.17034005 
 5410000   0.97553941 -7.287244e-06   0.57816625  0.052161827            0   0.52600443    1.4559926    2.0341588    1.5304645 
 5415000    1.0474524 1.3250313e-05   0.47649454  0.014217736            0    0.4622768    1.5633227    2.0398172    2.9556789 
 5420000   0.98585053 -3.5195352e-05   0.56150824  0.013688657            0   0.54781958    1.4713819    2.0328902  -0.39981259 
 5425000    1.0126418 -4.4076511e-05   0.52658475 0.0044505824            0   0.52213417    1.5113679    2.0379526   -1.0086158 
 5430000   0.99250994 1.4656103e-05   0.56886675  0.010365312            0   0.55850144    1.4813211    2.0501878    3.0632177 
 5435000   0.97887716 3.0850773e-05   0.60303353  0.019142652            0   0.58389088    1.4609742    2.0640077    4.1964131 
 5440000     1.038104 2.5839445e-06   0.51009146 0.0097122764            0   0.50037919    1.5493702    2.0594616    2.2380639 
 5445000    1.0160793 2.4481673e-05    0.5417717  0.025179793            0   0.51659191    1.5164983      2.05827    3.7504433 
 5450000    1.0052652 2.3305128e-05    0.5738902  0.011623376            0   0.56226683    1.5003583    2.0742485     3.685099 
 5455000    1.0080935   3.7413e-05   0.57994617  0.010799806            0   0.56914636    1.5045796    2.0845257    4.6705123 
 5460000   0.94718089 -5.45075e-05    0.6669274  0.015628623            0   0.65129878    1.4136675    2.0805949   -1.6869635 
 5465000    1.0629579 -1.3005446e-05   0.50291287  0.012476585            0   0.49043629    1.5864647    2.0893775    1.1904411 
 5470000    1.0033909 9.3459275e-06   0.57941338  0.011351978            0   0.56806141     1.497561    2.0769744    2.7229649 
 5475000    1.0646488 -3.7247255e-05    0.4917559  0.023695985            0   0.46805991    1.5889883    2.0807442  -0.49378611 
 5480000    0.9788616 2.5254197e-05   0.60904491  0.019853998            0   0.58919091    1.4609509    2.0699958     3.815566 
 5485000    1.0255285 4.0814224e-06    0.5369718 0.0082888186            0   0.52868298    1.5306013    2.0675731     2.349681 
 5490000    1.0235759 -4.5626291e-05   0.55314101 0.0097132338            0   0.54342778    1.5276871    2.0808281   -1.0728612 
 5495000   0.97861195 -1.4008428e-05   0.61062978  0.017502561            0   0.59312722    1.4605783    2.0712081    1.1029456 
 5500000    1.0265411  -1.6587e-05   0.53290008  0.027019356            0   0.50588072    1.5321126    2.0650127   0.91851928 
 5505000    1.0070662 -1.4188915e-05   0.55316066  0.022105589            0   0.53105507    1.5030463     2.056207    1.0754692 
 5510000    1.0088401 2.025634e-05   0.54016608 0.0042006948            0   0.53596539    1.5056938    2.0458599    3.4459781 
 5515000   0.99177126 -3.0081322e-05   0.57301204 0.00089603276            0   0.57211601    1.4802186    2.0532307  -0.02599035 
 5520000    1.0151462 -4.358954e-05   0.52794747 0.0071040973            0   0.52084338    1.5151057    2.0430532  -0.96985583 
 5525000    1.0321546 1.0478698e-05   0.50465578 0.0098691045            0   0.49478667    1.5404908    2.0451466    2.7694342 
 5530000    1.0356466 3.8803482e-05    0.4930722  0.013456945            0   0.47961526    1.5457026    2.0387748    4.7208714 
 5535000   0.98498806 -2.8467879e-05   0.57841815  0.017893345            0    0.5605248    1.4700947    2.0485128  0.080813022 
 5540000    1.0246109 -2.0683452e-05   0.52064399  0.022181786            0    0.4984622    1.5292317    2.0498757    0.6202355 
 5545000    1.0160956 -3.8254527e-05    0.5302638  0.010091213            0   0.52017259    1.5165227    2.0467865  -0.59736643 
 5550000   0.92811187 -9.8320552e-05    0.6609835  0.031067713            0   0.62991578     1.385207    2.0461905   -4.7497261 
 5555000   0.96719577 -3.8588474e-05   0.61452313  0.024195709            0   0.59032742    1.4435397    2.0580628  -0.60917247 
 5560000   0.98670123 -1.7192253e-05   0.57948811  0.020394549            0   0.55909356    1.4726516    2.0521397   0.86381119 
 5565000   0.95089052 -6.5339258e-06   0.62706482   0.01120454            0   0.61586028    1.4192041    2.0462689     1.594644 
 5570000   0.98602389 -3.8004131e-07   0.58032861 0.0082627881            0   0.57206582    1.4716407    2.0519693    2.0257008 
 5575000   0.97654044 4.3418217e-05   0.58733199  0.022499275            0   0.56483272    1.4574866    2.0448186    5.0458858 
 5580000   0.99287621 -4.1114993e-05   0.56948481  0.015016971            0   0.55446784    1.4818677    2.0513526  -0.79051572 
 5585000   0.94775953 -0.00011665268   0.60508224 0.0076687267            0   0.59741351    1.4145311    2.0196133   -6.0434197 
 5590000     0.966554 -5.0646298e-05   0.57462424 0.0063525131            0   0.56827173    1.4425818    2.0172061    -1.483466 
 5595000   0.95038298 1.8877967e-05   0.59648283 0.0064665927            0   0.59001624    1.4184466    2.0149294    3.3197745 
 5600000    1.0038488 4.8668874e-05   0.50626896  0.010207454            0   0.49606151    1.4982444    2.0045134    5.3685059 
 5605000   0.90733817 -2.1736346e-05   0.64576338  0.025109969            0   0.62065341    1.3542022    1.9999656   0.49754937 
 5610000   0.96800487 -5.0442574e-05   0.53830705  0.013274668            0   0.52503238    1.4447473    1.9830543   -1.5035364 
 5615000   0.99370384 1.7544328e-05   0.49280012 0.0046358887            0   0.48816423     1.483103    1.9759031    3.1885671 
 5620000   0.97971925 1.242658e-05   0.51284003 0.00070188956            0   0.51213814     1.462231     1.975071    2.8339962 
 5625000   0.93639914 -1.0729472e-05   0.56711715 0.0011616564            0   0.56595549    1.3975757    1.9646929    1.2230718 
 5630000   0.97198536 1.3950353e-05   0.51979411 0.0084399162            0   0.51135419    1.4506882    1.9704823    2.9347307 
 5635000   0.95469931 5.9005696e-05   0.54309711  0.017965217            0    0.5251319    1.4248887    1.9679858    6.0464596 
 5640000   0.98613606 -2.383958e-05   0.49368618 0.0081799646            0   0.48550621    1.4718081    1.9654943   0.31770251 
 5645000   0.97726408 -4.5491077e-05   0.50125426 0.0056158654            0   0.49563839    1.4585666    1.9598209   -1.1845223 
 5650000   0.96877822 -2.7031968e-05   0.50879509   0.01337028            0   0.49542481    1.4459015    1.9546966   0.08624698 
 5655000   0.96910904 5.3731822e-06   0.53470151  0.014517438            0   0.52018407    1.4463952    1.9810968    2.3524911 
 5660000   0.92703073 7.5994266e-05   0.60819362 0.0086652224            0    0.5995284    1.3835934     1.991787    7.2445107 
 5665000   0.99871913 -3.4682321e-05    0.5098042 0.0089268752            0   0.50087733    1.4905883    2.0003925  -0.39684949 
 5670000   0.95211036 -4.5465234e-05   0.56842005  0.015432793            0   0.55298725    1.4210247    1.9894448   -1.1531122 
 5675000     0.966283 3.6400725e-05   0.53746199  0.010355659            0   0.52710633    1.4421774    1.9796394    4.4956575 
 5680000   0.95605877 8.0158881e-05   0.54747213  0.011948993            0   0.53552314    1.4269177    1.9743898    7.5149717 
 5685000   0.96852144 4.3697985e-05   0.52712608   0.01220338            0    0.5149227    1.4455182    1.9726443     4.993049 
 5690000   0.92193752 -9.0164775e-06   0.59153709  0.014159413            0   0.57737768    1.3759918    1.9675288    1.3443099 
 5695000   0.96910259 -2.3882793e-05   0.52659644  0.014163458            0   0.51243298    1.4463856    1.9729821    0.3222034 
 5700000   0.93323214 4.7336372e-06   0.57219373 0.0074047394            0   0.56478899     1.392849    1.9650427    2.2922317 
 5705000   0.97068002 2.7916977e-05   0.51569895  0.024363726            0   0.49133523    1.4487399    1.9644389    3.8940604 
 5710000   0.88746644 6.0218032e-07   0.64431596  0.019509434            0   0.62480652    1.3245437    1.9688596    2.0104823 
 5715000   0.97392201 3.4800432e-05   0.52815783  0.012421322            0   0.51573651    1.4535786    1.9817364    4.3871423 
 5720000    1.0173455 1.9830403e-05   0.46205154  0.011769166            0   0.45028238    1.5183882    1.9804397    3.3511172 
 5725000   0.99611155 -3.4935132e-05   0.50230962 0.0070342217            0   0.49527539    1.4866965    1.9890061  -0.42571023 
 5730000   0.99665225 -1.8302204e-06   0.51286816  0.014324475            0   0.49854369    1.4875035    2.0003716    1.8738668 
 5735000   0.94768096 1.5957904e-06   0.61823749  0.013533637            0   0.60470385    1.4144138    2.0326513    2.1429523 
 5740000   0.93711654 2.7861462e-05   0.64080765  0.012792324            0   0.62801532    1.3986464    2.0394541    3.9652383 
 5745000    1.0156488 5.4486595e-05     0.526101 0.0097323858            0   0.51636862    1.5158558    2.0419568    5.8080702 
 5750000   0.92817364 -2.3929263e-05   0.65398261  0.011353999            0   0.64262862    1.3852992    2.0392818    0.3852911 
 5755000    1.0157587 -3.3003932e-05   0.51458348  0.010304824            0   0.50427865    1.5160198    2.0306033  -0.25062852 
 5760000   0.96676721 4.6487058e-05    0.5724622  0.012359723            0   0.56010248    1.4429001    2.0153623    5.2285477 
 5765000   0.95976204 3.9185186e-05   0.58172149  0.021702981            0    0.5600185    1.4324448    2.0141663    4.7226464 
 5770000   0.97864821 1.2102533e-05   0.55737206  0.033825251            0   0.52354681    1.4606325    2.0180045    2.8545316 
 5775000   0.97778579 -2.1372049e-05   0.55062699  0.010748663            0   0.53987833    1.4593453    2.0099723   0.53273624 
 5780000   0.94832332 -4.2072503e-05   0.58436773 0.0049104489            0   0.57945728    1.4153726    1.9997403  -0.90831113 
 5785000   0.97660058 -3.0953146e-05   0.53811901  0.014188703            0   0.52393031    1.4575764    1.9956954  -0.14378605 
 5790000   0.92525228 3.422578e-06   0.60921566  0.031321021            0   0.57789464     1.380939    1.9901547    2.2267233 
 5795000    0.9514104 2.5353336e-06   0.55764948  0.016486862            0   0.54116262      1.41998    1.9776295    2.1528718 
 5800000   0.97248573 -5.8577593e-05   0.50997965 0.0055891084            0   0.50439054     1.451435    1.9614146   -2.0874686 
 5805000   0.92661747 -4.5070942e-05   0.57063518 0.0050367024            0   0.56559848    1.3829766    1.9536118   -1.1616917 
 5810000   0.95473964 -2.3658834e-05   0.52603124  0.013413682            0   0.51261756    1.4249489    1.9509802   0.31568155 
 5815000   0.95475927 1.0151701e-05   0.50691974 0.0090573091            0   0.49786244    1.4249782     1.931898    2.6335835 
 5820000   0.95775852 2.213824e-05   0.50863192 0.0029006663            0   0.50573126    1.4294546    1.9380865    3.4682817 
 5825000   0.92850277 2.363695e-05   0.53225551  0.017948173            0   0.51430734    1.3857904    1.9180459    3.5518319 
 5830000   0.91654012 3.0043731e-05   0.53019873  0.025632241            0   0.50456649    1.3679361    1.8981349    3.9747576 
 5835000   0.92086842 4.4783594e-05   0.51466816 0.0048331075            0   0.50983506    1.3743961    1.8890643    4.9845063 
 5840000   0.89053296 4.2719347e-05   0.56699811  0.014780184            0   0.55221793    1.3291204    1.8961186    4.8488798 
 5845000   0.90454256 -5.0692353e-05   0.54947604  0.030337983            0   0.51913806    1.3500298    1.8995058   -1.6043496 
 5850000   0.93689046 -4.1318425e-05   0.52016775  0.018373772            0   0.50179398     1.398309    1.9184768  -0.93745276 
 5855000   0.89137405 6.2797633e-05    0.5889834   0.01541757            0   0.57356583    1.3303758    1.9193592    6.2599316 
 5860000   0.95360575 8.7667522e-05   0.50871433  0.042959913            0   0.46575442    1.4232566    1.9319709      7.99155 
 5865000   0.95162394 6.0161695e-05   0.50746679  0.019829568            0   0.48763722    1.4202987    1.9277655    6.0861419 
 5870000   0.98819058 -3.9193238e-05   0.46236921  0.007378959            0   0.45499025    1.4748744    1.9372436  -0.77179296 
 5875000   0.96796516 -6.7926251e-05    0.5028358 0.0049203288            0   0.49791547     1.444688    1.9475238   -2.7475387 
 5880000   0.97598141 2.5855399e-05   0.48690831  0.013853565            0   0.47305475    1.4566523    1.9435606    3.7306857 
 5885000   0.88012923 3.4971865e-05   0.62212207  0.032840786            0   0.58928128    1.3135929    1.9357149    4.3529702 
 5890000   0.88469562 -2.1998077e-05   0.59970773  0.037662846            0   0.56204489    1.3204082    1.9201159   0.39960886 
 5895000   0.96960758 7.4515213e-06   0.48103072  0.013107768            0   0.46792295    1.4471393      1.92817    2.4432192 
 5900000   0.96405945 3.258193e-05   0.49799858 0.0077936477            0   0.49020493    1.4388587    1.9368573    4.1889203 
 5905000   0.94739924 -3.5806284e-05   0.53199828  0.011337048            0   0.52066123    1.4139934    1.9459916  -0.52893871 
 5910000   0.94942926 -2.1268096e-05   0.52287224   0.01628208            0   0.50659016    1.4170232    1.9398954   0.46984459 
 5915000    0.9238028 -2.8314943e-05   0.56246992  0.018511951            0   0.54395797    1.3787757    1.9412456 -0.015883255 
 5920000   0.93235244 -1.5209853e-05   0.55031019  0.018427753            0   0.53188244     1.391536    1.9418462    0.8905412 
 5925000    1.0236447 4.8076672e-05   0.42245863  0.015831711            0   0.40662692    1.5277897    1.9502483    5.2733079 
 5930000    0.9898655 7.217037e-06   0.47912318  0.011445439            0   0.46767774    1.4773743    1.9564974     2.455339 
 5935000   0.92524235 -5.5839496e-05   0.58821948  0.024838565            0   0.56338092    1.3809242    1.9691437   -1.8904822 
 5940000    0.9301446 -4.1107566e-05   0.57917844   0.02743868            0   0.55173976    1.3882408    1.9674193  -0.87393575 
 5945000   0.97294944 1.7446916e-05   0.54495653 0.0059494919            0   0.53900704     1.452127    1.9970836    3.2030144 
 5950000   0.96307693 1.5543532e-05   0.57348589 0.0093272079            0   0.56415869    1.4373923    2.0108782    3.0852472 
 5955000   0.96597434 2.1611763e-05   0.57772405  0.010025516            0   0.56769854    1.4417167    2.0194408    3.5132458 
 5960000   0.93047028 -2.0717357e-05   0.63896724  0.027403843            0   0.61156339    1.3887269    2.0276941   0.59571039 
 5965000    1.0017897 6.1724621e-06   0.54085642  0.020787256            0   0.52006916    1.4951711    2.0360275    2.4626681 
 5970000   0.98618575 -4.5080368e-05   0.57472182 0.0020395984            0   0.57268222    1.4718822    2.0466041    -1.069351 
 5975000    1.0003392 1.1190777e-06   0.56250372 0.0034848613            0   0.55901886    1.4930063      2.05551    2.1328607 
 5980000   0.98209896 -4.1245315e-07   0.57892604  0.014479605            0   0.56444644    1.4657827    2.0447087       2.0162 
 5985000   0.96900592 -2.3528695e-05   0.59038391  0.025318101            0   0.56506581    1.4462413    2.0366252   0.41032181 
 5990000   0.97829453 -1.5359625e-05   0.57285775  0.019934691            0   0.55292306    1.4601046    2.0329623   0.97130504 
 5995000    1.0123747 -3.2373783e-06   0.52242286  0.012317188            0   0.51010567    1.5109692    2.0333921    1.8096245 
 6000000     1.014238 4.9302568e-06   0.51366955   0.01373758            0   0.49993197    1.5137502    2.0274198    2.3681991 
 6005000   0.97458893 1.6285773e-05   0.58106022  0.014800631            0   0.56625959     1.454574    2.0356342    3.1613068 
 6010000    1.0330907 -2.0236972e-05   0.51203516  0.018229854            0    0.4938053    1.5418879     2.053923   0.65514352 
 6015000    1.0118858 -2.5630024e-05   0.53818227 0.0085673185            0   0.52961495    1.5102396    2.0484219   0.27687466 
 6020000   0.99421107 1.178189e-05   0.57287869 0.0062716033            0   0.56660709      1.48386    2.0567387    2.8711029 
 6025000    1.0053032 -3.3832407e-05   0.55986463 0.0059361864            0   0.55392844     1.500415    2.0602796  -0.27821634 
 6030000    1.0421413 4.4608082e-05   0.51975007 0.0066300032            0   0.51312007    1.5553959     2.075146    5.1584566 
 6035000    1.0301053 -5.5779875e-05   0.54527639  0.017007548            0   0.52826884    1.5374321    2.0827085   -1.7727965 
 6040000   0.99403543 -4.996519e-05   0.58370935  0.028852107            0   0.55485724    1.4835979    2.0673072   -1.3862867 
 6045000    1.0477509 -6.672434e-06   0.51783052   0.02555517            0   0.49227535    1.5637683    2.0815988    1.6204002 
 6050000    0.9676125 4.5163605e-06   0.62306169  0.027490595            0   0.59557109    1.4441617    2.0672233    2.3793942 
 6055000     1.010208 -2.4375259e-05   0.55907724  0.014115438            0    0.5449618    1.5077354    2.0668127   0.38199479 
 6060000   0.99615588 -5.8555384e-05   0.58003892  0.011211636            0   0.56882729    1.4867627    2.0668016   -1.9805465 
 6065000    1.0101998 9.7802945e-06   0.55712644  0.014777143            0    0.5423493    1.5077231    2.0648496    2.7408635 
 6070000     1.021489 3.2333766e-06   0.54582114  0.013386192            0   0.53243495    1.5245723    2.0703935    2.2938844 
 6075000    1.0370143 2.4831058e-05   0.51191821  0.014291111            0    0.4976271    1.5477439    2.0596621    3.7759848 
 6080000    1.0379743 6.8997792e-05   0.50525657  0.016278849            0   0.48897772    1.5491766    2.0544331    6.8235605 
 6085000    1.0191499 1.9494807e-05   0.53913731  0.010786171            0   0.52835114    1.5210812    2.0602185    3.4076996 
 6090000    1.0212939 2.676657e-05   0.51942809 0.0010750214            0   0.51835307    1.5242812    2.0437093    3.8938146 
 6095000    1.0215373 -5.5742632e-05   0.53338149 0.0062429382            0   0.52713855    1.5246444    2.0580258   -1.7949049 
 6100000    1.0292741 -3.2570198e-05   0.51407478  0.018699647            0   0.49537513    1.5361916    2.0502664  -0.20098572 
 6105000    1.0527078 6.0341237e-05   0.47478687 0.0096098705            0     0.465177    1.5711663    2.0459532    6.2167395 
 6110000      1.00073 -1.0429731e-05   0.53030531 0.0033944216            0   0.52691088    1.4935896    2.0238949    1.3029919 
 6115000    1.0074613 7.1270148e-07   0.53058654 0.0042552605            0   0.52633128     1.503636    2.0342226    2.0834845 
 6120000    1.0225569 9.2289085e-05    0.5048848 0.0053742076            0   0.49951059    1.5261662     2.031051    8.4100726 
 6125000    1.0570502 2.5856974e-05   0.47517726 0.0064420372            0   0.46873523    1.5776474    2.0528247    3.8400587 
 6130000    1.0095305 5.6732214e-05   0.53182555 0.0093425645            0   0.52248299    1.5067242    2.0385498    5.9598804 
 6135000    1.0008264 -1.9762996e-05   0.57238466  0.013134098            0   0.55925056    1.4937334     2.066118   0.70009973 
 6140000    1.0078452 -2.5639377e-05   0.58009682  0.020727259            0   0.55936956    1.5042089    2.0843057   0.31211201 
 6145000    1.0277372 -9.3429014e-07   0.53873885  0.018729934            0   0.52000891    1.5338978    2.0726366    2.0080585 
 6150000    1.0051622 -1.665126e-05   0.57844903   0.03317664            0   0.54527239    1.5002046    2.0786536   0.92771852 
 6155000    1.0087792 3.6532928e-05   0.56497256  0.015664257            0    0.5493083    1.5056029    2.0705755    4.5957315 
 6160000    1.0062433  4.82784e-05   0.56473778  0.026156311            0   0.53858147    1.5018181    2.0665559    5.4035589 
 6165000     1.031238 -6.1069191e-05   0.52841036  0.025698595            0   0.50271177    1.5391228    2.0675331   -2.1535693 
 6170000    1.0580414 -1.8299136e-05   0.48843125    0.0340766            0   0.45435465    1.5791268    2.0675581   0.80272182 
 6175000    1.0022335 2.0614856e-05   0.54987134  0.019438393            0   0.53043295    1.4958334    2.0457048    3.4706037 
 6180000    1.0127008 -5.3327169e-06   0.52466427   0.01917243            0   0.50549184    1.5114559    2.0361202    1.6675228 
 6185000   0.97971605 2.252619e-05   0.56113221 0.0092043343            0   0.55192787    1.4622262    2.0233584    3.5803687 
 6190000     1.025747 -2.81695e-05   0.50015176 0.0071004484            0   0.49305131    1.5309274    2.0310792  0.084003379 
 6195000    1.0312089 1.8916797e-05   0.49218867  0.018758794            0   0.47342988    1.5390793    2.0312679     3.338797 
 6200000    1.0025765 -2.1463181e-05   0.55769851  0.018501392            0   0.53919711    1.4963454    2.0540439   0.57050883 
 6205000   0.94266384 4.7639261e-05   0.64050004  0.025617657            0   0.61488238    1.4069258    2.0474258    5.3402515 
 6210000    1.0278432 1.5181308e-05   0.51248666  0.019550912            0   0.49293574     1.534056    2.0465426    3.0958746 
 6215000   0.99138785 -1.0411051e-05   0.56752754  0.021282007            0   0.54624553    1.4796464    2.0471739    1.3275621 
 6220000   0.99295736 3.3767349e-05   0.55612837  0.015346197            0   0.54078218    1.4819889    2.0381172    4.3721164 
 6225000    1.0386333 3.7408261e-05   0.49213495  0.024467825            0   0.46766712    1.5501602    2.0422952    4.6279542 
 6230000    1.0419993 -4.1620192e-05   0.48427926  0.014513319            0   0.46976594    1.5551839    2.0394632  -0.83732445 
 6235000   0.99279207 3.5326133e-06   0.57414783 0.0025981963            0   0.57154964    1.4817422      2.05589    2.3000642 
 6240000    1.0092037 5.8503896e-06   0.56630199  0.006119444            0   0.56018255    1.5062365    2.0725385    2.4769175 
 6245000     1.003582 -4.2417985e-06   0.58401867  0.023161108            0   0.56085756    1.4978461    2.0818647    1.7886716 
 6250000     1.029149 5.5168896e-05   0.53315709  0.019027136            0   0.51412995    1.5360049     2.069162    5.8824361 
 6255000    1.0461658 -4.0248451e-06   0.49682527  0.028465499            0   0.46835977    1.5614025    2.0582277    1.7800304 
 6260000    1.0414939 -3.9175872e-05   0.51296471 0.0074373895            0   0.50552732    1.5544297    2.0673944  -0.64044186 
 6265000    1.0159288 -1.8022475e-05   0.55633179 0.0057957255            0   0.55053606    1.5162738    2.0726056   0.82689207 
 6270000    1.0557279 -1.9353488e-05   0.48186465  0.015053956            0   0.46681069     1.575674    2.0575386   0.71982551 
 6275000   0.98197149 1.3880436e-06   0.58135004 0.0098567643            0   0.57149328    1.4655925    2.0469425    2.1428841 
 6280000    1.0471584 4.2792861e-05   0.47904909  0.012491937            0   0.46655716    1.5628839     2.041933    4.9997755 
 6285000   0.96755086 1.142597e-06   0.60386972  0.037183395            0   0.56668633    1.4440697    2.0479394    2.1269157 
 6290000    1.0331211 5.2327509e-06   0.50541166  0.035210342            0   0.47020132    1.5419332    2.0473449    2.4090326 
 6295000    1.0154381 5.2801981e-05   0.53970606  0.037241835            0   0.50246423    1.5155414    2.0552475    5.7049204 
 6300000   0.98701375 3.2272743e-05   0.56767134  0.020016256            0   0.54765509     1.473118    2.0407894    4.2714813 
 6305000    1.0366937 -4.385397e-05   0.53412968  0.016959185            0    0.5171705    1.5472653     2.081395  -0.94979141 
 6310000   0.98538313 -3.2865921e-05   0.59541169  0.029311312            0   0.56610038    1.4706843     2.066096  -0.20559644 
 6315000   0.99157083 6.3018311e-05   0.58719364  0.027718122            0   0.55947552    1.4799195    2.0671131    6.4229388 
 6320000    1.0197627 4.834616e-05   0.53708559  0.025438428            0   0.51164716    1.5219958    2.0590814    5.4007679 
 6325000    1.0060069 -3.0043773e-05   0.55975921  0.017733606            0   0.54202561    1.5014653    2.0612245 -0.015401128 
 6330000    1.0543592 -3.4751757e-05   0.50429777  0.012409005            0   0.49188876    1.5736312    2.0779289  -0.32411249 
 6335000    1.0519749 4.6423658e-05   0.53061489  0.014578718            0   0.51603617    1.5700725    2.1006874    5.3094907 
 6340000    1.0576431 3.199135e-05    0.5298816  0.011315087            0   0.51856651    1.5785323    2.1084139     4.319656 
 6345000   0.97444963 -4.8177794e-05   0.61457546  0.011960187            0   0.60261527    1.4543661    2.0689415   -1.2611076 
 6350000    1.0350102 3.1441984e-05   0.53787057 0.0034111189            0   0.53445945    1.5447528    2.0826233    4.2558933 
 6355000   0.98045358 1.0635864e-05   0.61812625  0.024316887            0   0.59380936     1.463327    2.0814532    2.8166042 
 6360000    1.0675944 2.7547422e-06   0.49820293   0.03251179            0   0.46569113    1.5933847    2.0915876    2.2819954 
 6365000   0.98259348 6.9779133e-06   0.60991684  0.035204247            0   0.57471259    1.4665208    2.0764376     2.558751 
 6370000   0.98159827 -1.3526843e-05   0.61108207  0.030932812            0   0.58014926    1.4650354    2.0761175    1.1411421 
 6375000     0.996432 2.3091928e-05   0.59428088  0.013599936            0   0.58068094    1.4871748    2.0814556    3.6775697 
 6380000    1.0349772 8.5082295e-06   0.54158303 0.0088338457            0   0.53274918    1.5447034    2.0862865    2.6743753 
 6385000    1.0311891 2.7429936e-06    0.5583729  0.013190239            0   0.54518267    1.5390498    2.0974227    2.2870184 
 6390000    1.0078236 2.3103013e-05    0.6161337  0.024108666            0   0.59202504    1.5041767    2.1203104    3.7171907 
 6395000    1.0418969 4.3294533e-05   0.60169613  0.027484554            0   0.57421158    1.5550311    2.1567272    5.1492453 
 6400000    1.0839585 1.6034247e-05    0.5342529 0.0051227176            0   0.52913018    1.6178081     2.152061    3.2603482 
 6405000    1.0224969 -4.9447728e-06   0.64257766 0.0082941482            0   0.63428351    1.5260766    2.1686543    1.8268716 
 6410000    1.0687875 8.9810241e-06   0.60614309 0.0097745509            0   0.59636854    1.5951653    2.2013084    2.8220768 
 6415000    1.0611345 9.1249486e-06   0.61619044  0.027859119            0   0.58833132    1.5837433    2.1999337    2.8306501 
 6420000    1.1075762 -6.1541276e-05   0.55957512  0.014941231            0   0.54463389    1.6530574    2.2126326   -2.0411004 
 6425000     1.105104 -1.8974895e-05   0.58201429 0.0093781034            0   0.57263619    1.6493677     2.231382    0.9198373 
 6430000    1.0983268 2.1409225e-05   0.61659848 0.0085882295            0   0.60801025    1.6392527    2.2558512    3.7356568 
 6435000    1.0928558 -6.7569667e-05   0.63804999 0.0041386415            0   0.63391135    1.6310872    2.2691372   -2.4012782 
 6440000    1.1265629 -4.1044532e-05   0.57847215  0.019026767            0   0.55944539    1.6813952    2.2598673  -0.57713077 
 6445000    1.1157778 -1.4378475e-06   0.60267495    0.0282813            0   0.57439365    1.6652983    2.2679733    2.1685893 
 6450000    1.1357774 -2.6618371e-05   0.59814409  0.017313405            0   0.58083068    1.6951478    2.2932919    0.4534301 
 6455000    1.1349433 3.9035967e-05    0.5964631     0.014525            0   0.58193811    1.6939029     2.290366    4.9885321 
 6460000    1.1126138 7.8661826e-05   0.62942832  0.046744653            0   0.58268367    1.6605761    2.2900044    7.7271098 
 6465000    1.0863667 -1.5173431e-06   0.64917512  0.039478222            0    0.6096969    1.6214022    2.2705774    2.1656986 
 6470000    1.0832392 -6.1109521e-05   0.64944144  0.043662607            0   0.60577883    1.6167345    2.2661759   -1.9577141 
 6475000    1.0767403 2.0652133e-05   0.67163927    0.0332994            0   0.63833987     1.607035    2.2786742    3.7061497 
 6480000    1.1550486 6.9173035e-05   0.56287266 0.0069850539            0   0.55588761    1.7239101    2.2867827    7.0680229 
 6485000    1.1490995 1.6223229e-05   0.57639479  0.016423339            0   0.55997145    1.7150311    2.2914258    3.4127754 
 6490000    1.1227504 -1.8298249e-05   0.61796496  0.012663512            0   0.60530145    1.6757049    2.2936699    1.0288949 
 6495000     1.138278 7.2763993e-06   0.61365726 0.0078287493            0   0.60582851      1.69888    2.3125372     2.815482 
 6500000    1.1810178 7.5889904e-05   0.56404531  0.037998497            0   0.52604681    1.7626691    2.3267144    7.5722246 
 6505000    1.1448469 5.1288431e-06   0.62119099  0.051833041            0   0.56935795     1.708684     2.329875    2.6843807 
 6510000    1.1056315 -4.2864063e-05   0.65734495  0.020519667            0   0.63682529     1.650155       2.3075  -0.65526401 
 6515000    1.1507636 -3.8898593e-05   0.58356123 0.0094669413            0   0.57409429    1.7175147    2.3010759  -0.38759481 
 6520000    1.1653038 -1.2198861e-05    0.5606372 0.0077011824            0   0.55293601     1.739216    2.2998532    1.4566679 
 6525000    1.1414453 1.6019598e-05    0.5736501  0.016506165            0   0.55714394    1.7036071    2.2772572    3.3845318 
 6530000    1.1318293 -3.4620409e-05    0.5847548  0.022543116            0   0.56221169    1.6892552      2.27401  -0.11895266 
 6535000     1.125331 -3.1826836e-05    0.5822963  0.025813409            0   0.55648289    1.6795565    2.2618528  0.061981865 
 6540000    1.1780329 1.2105623e-05    0.4965154 0.0068202387            0   0.48969517    1.7582142    2.2547296    3.0914702 
 6545000    1.1391006 1.9003754e-05   0.54850056  0.014787562            0     0.533713    1.7001077    2.2486082    3.5621477 
 6550000    1.1042462 2.5150036e-05   0.61536467  0.031662312            0   0.58370236    1.6480874    2.2634521    4.0018225 
 6555000     1.099466 5.2134857e-05    0.6375319 0.0088726229            0   0.62865928     1.640953    2.2784849    5.8820462 
 6560000    1.1184284 5.1414682e-06   0.59204693 0.0035000794            0   0.58854685    1.6692544    2.2613013    2.6166796 
 6565000    1.1473935 3.7491429e-05   0.54374801 0.0099600455            0   0.53378796    1.7124848    2.2562328    4.8476403 
 6570000    1.1572834 9.4482689e-05   0.52770962  0.010961413            0   0.51674821    1.7272454     2.254955    8.7855985 
 6575000    1.1346967 -1.2239501e-05   0.55089525  0.014417713            0   0.53647753    1.6935348      2.24443    1.3984357 
 6580000    1.1131686 -5.0046114e-05   0.60105832  0.012566308            0   0.58849201    1.6614042    2.2624625   -1.1967249 
 6585000    1.1716907 -6.5953216e-06   0.50924647  0.012982324            0   0.49626415    1.7487484    2.2579948    1.8021262 
 6590000    1.1313858 -1.0901888e-05   0.56684662 0.0082114771            0   0.55863514    1.6885933    2.2554399    1.5019014 
 6595000    1.1393166 1.4098276e-05   0.54488957  0.008408192            0   0.53648138      1.70043    2.2453195    3.2197924 
 6600000    1.1341928 -4.142241e-06   0.55253736  0.021778399            0   0.53075896    1.6927827    2.2453201    1.9590084 
 6605000    1.1320681 1.1117944e-05   0.57189858  0.026717451            0   0.54518113    1.6896116    2.2615102    3.0299824 
 6610000    1.0726659 -2.8374899e-05   0.67274097  0.027671514            0   0.64506946    1.6009538    2.2736948   0.31242181 
 6615000    1.0930069 5.6691724e-05   0.62982452  0.036108982            0   0.59371554    1.6313128    2.2611373    6.1796693 
 6620000    1.0865472 2.7344328e-05   0.62619768  0.029723311            0   0.59647437    1.6216718    2.2478694    4.1379094 
 6625000    1.1224595 -2.8811278e-05   0.58323706  0.015732954            0   0.56750411    1.6752709    2.2585079   0.26707238 
 6630000     1.104802 -2.1389908e-05   0.60485816   0.03801543            0   0.56684273     1.648917    2.2537752   0.77530471 
 6635000    1.0720804 -4.0844766e-06   0.64746342  0.037385029            0   0.61007839      1.60008    2.2475434    1.9652244 
 6640000    1.1389503 2.272362e-05   0.55606585  0.047924308            0   0.50814154    1.6998834    2.2559492    3.8266058 
 6645000    1.0932066 -4.4544826e-05   0.61875284  0.026707479            0   0.59204536    1.6316108    2.2503636  -0.82857476 
 6650000    1.0480649 -2.2330219e-06   0.68266901  0.055936564            0   0.62673244    1.5642369    2.2469059    2.0925594 
 6655000    1.1185503 -6.1793906e-06   0.56722201  0.013998326            0   0.55322368    1.6694363    2.2366583    1.8095389 
 6660000    1.0801236 -2.2477877e-05   0.62335308 0.0081266544            0   0.61522642    1.6120845    2.2354376   0.68176671 
 6665000    1.1442651 6.2022333e-05   0.52063523  0.009584965            0   0.51105026    1.7078157    2.2284509    6.5154346 
 6670000    1.0792719 4.7249804e-05   0.63297439  0.012913412            0   0.62006098    1.6108132    2.2437876    5.5096941 
 6675000    1.1148322 1.9271478e-05   0.57892817  0.019403862            0   0.55952431    1.6638871    2.2428152    3.5748598 
 6680000    1.1098111 -1.0903216e-05   0.59245777  0.030288992            0   0.56216878    1.6563931    2.2488508    1.4952205 
 6685000    1.1053296 -1.160412e-05   0.60499708  0.016141202            0   0.58885587    1.6497045    2.2547016    1.4526248 
 6690000    1.1031024 -1.8070963e-05   0.60684981  0.026159752            0   0.58069005    1.6463803    2.2532302    1.0041652 
 6695000    1.0830359 1.1673576e-05   0.62069245  0.022921524            0   0.59777093    1.6164311    2.2371235    3.0440011 
 6700000    1.0941196 3.275379e-05   0.59120171 0.0093387514            0   0.58186296    1.6329735    2.2241752    4.4881172 
 6705000    1.1375521 1.7183232e-06   0.54767943 0.0052977303            0    0.5423817    1.6977966     2.245476    2.3642465 
 6710000    1.1173963 7.6264496e-06   0.57370299 0.0083436041            0   0.56535938    1.6677139    2.2414169    2.7685571 
 6715000     1.096953 2.1178168e-05   0.60870276  0.023690237            0   0.58501253    1.6372023    2.2459051    3.7097401 
 6720000    1.0944958 -9.6645245e-06   0.60051744  0.019668101            0   0.58084934     1.633535    2.2340524    1.5660405 
 6725000    1.0904435 4.8207942e-06   0.60006056  0.020586189            0   0.57947437     1.627487    2.2275476    2.5607608 
 6730000    1.1386804 4.4636392e-05   0.52483629  0.030261058            0   0.49457523    1.6994804    2.2243167    5.3095841 
 6735000    1.0497652 1.0458101e-05    0.6574553  0.033591552            0   0.62386375    1.5667745    2.2242298    2.9470938 
 6740000    1.0580149 -2.5572175e-05   0.64200754  0.016288888            0   0.62571865    1.5790873    2.2210948   0.45354606 
 6745000    1.0827157 -7.0731519e-06   0.59805298  0.030239726            0   0.56781325    1.6159532    2.2140062    1.7251099 
 6750000    1.1004551 -1.6154988e-05   0.57684569  0.015821091            0    0.5610246    1.6424292    2.2192749    1.1026421 
 6755000     1.086682 4.2535508e-06   0.59026707 0.0094018789            0   0.58086519    1.6218729      2.21214    2.5061454 
 6760000    1.0304341 -8.2885178e-05   0.68064689  0.022541518            0   0.65810538    1.5379228    2.2185697   -3.5104538 
 6765000    1.0772938 -3.4736264e-05   0.61319157 0.0094872513            0   0.60370431     1.607861    2.2210526  -0.17991799 
 6770000    1.1709314 1.3211657e-05   0.49004918  0.011054081            0    0.4789951    1.7476151    2.2376643     3.150854 
 6775000    1.1216391 7.6918546e-06   0.57934997  0.012605859            0   0.56674411    1.6740464    2.2533964    2.7850574 
 6780000    1.0663278 -1.880961e-05   0.62210879   0.01013126            0   0.61197753    1.5914943    2.2136031   0.91348279 
 6785000    1.1486828 3.7901133e-05   0.49771496   0.02138257            0   0.47633239    1.7144091     2.212124    4.8318504 
 6790000    1.0824287 6.560318e-06   0.60592866  0.022397768            0   0.58353089    1.6155249    2.2214535    2.6749027 
 6795000    1.0701449 3.1167356e-05   0.62266502  0.025812126            0   0.59685289    1.5971913    2.2198563    4.3741439 
 6800000    1.1247625 -1.0317786e-06   0.53620929   0.01565685            0   0.52055244     1.678708    2.2149173    2.1436007 
 6805000    1.1590304 -3.7738176e-06   0.48601874 0.0057978842            0   0.48022086    1.7298528    2.2158715    1.9550253 
 6810000    1.1185694 5.5274196e-07   0.55576421  0.024283782            0   0.53148043    1.6694649    2.2252291    2.2634346 
 6815000     1.067606 -2.1502642e-05   0.62974704  0.020664043            0     0.609083    1.5934019     2.223149   0.73688633 
 6820000    1.0649784 -3.2769679e-05   0.60075355  0.025737701            0   0.57501585    1.5894803    2.1902338 -0.074806387 
 6825000    1.1471666 1.8318823e-05   0.46003506    0.0125355            0   0.44749956    1.7121462    2.1721813    3.4383783 
 6830000    1.0892453 4.0504035e-05   0.57661297  0.023634751            0   0.55297822    1.6256985    2.2023115    5.0019504 
 6835000    1.0960464 -7.3840469e-06    0.5452361 0.0089994365            0   0.53623666    1.6358493    2.1810854    1.6707001 
 6840000    1.0807624 -2.9439173e-05   0.57892394 0.0031520085            0   0.57577193    1.6130379    2.1919619   0.15712623 
 6845000    1.1057561 -2.8936652e-06   0.55001294 0.0048397741            0   0.54517316     1.650341    2.2003539    2.0003438 
 6850000    1.1835555 -2.9199908e-05   0.43002151 0.0091702342            0   0.42085127    1.7664566    2.1964781   0.17818049 
 6855000    1.0558053 -5.5758705e-05   0.60030444  0.028492328            0   0.57181212    1.5757893    2.1760938   -1.6779479 
 6860000     1.084117 3.2887983e-06   0.54528167   0.00838434            0   0.53689733    1.6180447    2.1633264    2.3906481 
 6865000    1.0456668 2.2772101e-05   0.60096838 0.0018816985            0   0.59908668    1.5606577    2.1616261    3.7356337 
 6870000    1.0755371 -1.181803e-05   0.54901868  0.021138862            0   0.52787982    1.6052391    2.1542578    1.3373956 
 6875000    1.0674078 2.2456753e-05   0.54771293  0.024240925            0     0.523472    1.5931062    2.1408191    3.6930299 
 6880000    1.1163846 -2.5558755e-05   0.49839441  0.011254577            0   0.48713983    1.6662041    2.1645985   0.39797734 
 6885000    1.0410198 -9.0862102e-05    0.6118989  0.016313133            0   0.59558576     1.553722    2.1656209   -4.1147675 
 6890000    1.1136692 -9.6953964e-06   0.50905071  0.010537888            0   0.49851283    1.6621513    2.1712021    1.5010563 
 6895000    1.0452296 4.7010565e-05    0.6031017  0.031404192            0   0.57169751    1.5600052    2.1631069    5.4124771 
 6900000    1.1055436 3.4610501e-05   0.49072737  0.026783128            0   0.46394424    1.6500238    2.1407512     4.533029 
 6905000    1.0370125 -3.2114019e-05   0.60976021  0.027887933            0   0.58187228    1.5477412    2.1575014 -0.062219576 
 6910000     1.093518 -1.248932e-05   0.53609474  0.026505418            0   0.50958932    1.6320756    2.1681704    1.3049086 
 6915000    1.0479652 4.5838463e-06   0.58853817 0.0078940917            0   0.58064408     1.564088    2.1526262    2.4694616 
 6920000    1.0795142 -4.1572982e-05   0.54725418 0.0020988852            0    0.5451553     1.611175    2.1584292  -0.71509537 
 6925000    1.0261474 -4.9321879e-05   0.62434572 0.0096956259            0    0.6146501     1.531525    2.1558707   -1.2532575 
 6930000    1.0673762 8.6878389e-06   0.55867318  0.020878875            0    0.5377943     1.593059    2.1517322    2.7522356 
 6935000    1.0263442 1.7172802e-05   0.60775651  0.055285249            0   0.55247126    1.5318188    2.1395753    3.3265593 
 6940000     1.071475 -3.0847727e-05   0.53836182  0.021935792            0   0.51642603    1.5991765    2.1375383 0.0053434105 
 6945000    1.0022437 -3.4429763e-05   0.62984456  0.027499021            0   0.60234554    1.4958488    2.1256934  -0.25409189 
 6950000     1.099161 -3.63769e-05   0.47796732   0.02237457            0   0.45559275    1.6404977     2.118465  -0.39590628 
 6955000    1.0308031 -1.4516906e-05    0.5907523  0.030793726            0   0.55995857    1.5384736    2.1292259    1.1258173 
 6960000    1.0592232 1.6514413e-05   0.55427492  0.018879323            0    0.5353956    1.5808907    2.1351656    3.2766418 
 6965000     1.018215 -1.8103342e-05   0.60010321 0.0034027637            0   0.59670045    1.5196859    2.1197891   0.86848614 
 6970000    1.0087562 -2.1602548e-05    0.5953273   0.01019802            0   0.58512928    1.5055687     2.100896   0.60772782 
 6975000    1.0468984 7.0717255e-06   0.52755749  0.014286279            0   0.51327121    1.5624958    2.0900533     2.578851 
 6980000    1.0326113 -1.8286922e-05   0.55038178  0.010010864            0   0.54037092    1.5411723    2.0915541   0.82756203 
 6985000    1.0212289 -7.46869e-05   0.55194871 0.0028847179            0   0.54906399    1.5241841    2.0761328   -3.0862257 
 6990000    1.0280402 -4.4433853e-05   0.57549947 0.0043847207            0   0.57111475      1.53435    2.1098495  -0.96141844 
 6995000    1.0318345 -6.4939523e-07   0.58783051  0.013456188            0   0.57437433     1.540013    2.1278435    2.0829573 
 7000000    1.0783737 -1.80357e-05   0.50951276 0.0042137721            0   0.50529898    1.6094728    2.1189855   0.87235797 
 7005000    1.0767459 -3.9225404e-05   0.52125284  0.018820174            0   0.50243267    1.6070433    2.1282962  -0.58296376 
 7010000    0.9948189 4.5085625e-05    0.6418071  0.035930315            0   0.60587678    1.4847672    2.1265743    5.2428927 
 7015000    1.0173523 4.5124587e-05    0.5996539  0.050098461            0   0.54955544    1.5183983    2.1180522    5.2370636 
 7020000    1.0648105 -1.002458e-05   0.53538095  0.032240314            0   0.50314064    1.5892297    2.1246106    1.4317117 
 7025000    1.0541434 2.8333434e-05   0.56376184   0.02388385            0   0.53987799     1.573309    2.1370709    4.0954778 
 7030000    1.0592061 1.8856659e-05   0.53694339  0.024036078            0   0.51290731    1.5808651    2.1178085    3.4211808 
 7035000    1.0365421 -1.2825128e-05   0.58626809  0.023209273            0   0.56305882    1.5470391    2.1333072    1.2468344 
 7040000    1.0400065 -1.2636479e-05   0.56198307  0.010140124            0   0.55184295    1.5522097    2.1141927    1.2407593 
 7045000    1.0596387 6.6794141e-07   0.52765689  0.015512335            0   0.51214455    1.5815108    2.1091676    2.1553358 
 7050000    1.0351862 2.668381e-05   0.58116099 0.0078046452            0   0.57335635    1.5450155    2.1261765    3.9705614 
 7055000    1.0329433 -5.3835284e-05   0.58849822 0.0070893511            0   0.58140887    1.5416679    2.1301661   -1.5909287 
 7060000    1.0458376 -5.7019949e-05   0.58377141  0.017987808            0   0.56578361    1.5609127    2.1446841   -1.7965348 
 7065000     1.036073 -2.3337808e-05   0.58796683  0.015168753            0   0.57279808    1.5463389    2.1343057   0.52119643 
 7070000     1.038443 2.1903408e-05    0.5983799  0.038100143            0   0.56027976    1.5498761     2.148256    3.6622196 
 7075000    1.0959568 7.3036247e-05    0.4984333  0.011396086            0   0.48703721    1.6357155    2.1341488    7.1824142 
 7080000    1.0624363 -1.4435191e-05   0.53680742  0.019709439            0   0.51709798    1.5856862    2.1224936    1.1247332 
 7085000    1.0177664 -1.8228138e-05   0.59940873  0.019858568            0   0.57955017    1.5190163     2.118425   0.85849612 
 7090000    1.0259364  -3.3638e-05   0.59383407  0.021648227            0   0.57218585      1.53121    2.1250441  -0.20001444 
 7095000    1.0381729 2.0050422e-05   0.59581469 0.0078190983            0   0.58799559    1.5494731    2.1452878     3.531173 
 7100000    1.0389807 3.9106124e-05    0.5834509 0.0034575044            0   0.57999339    1.5506788    2.1341297     4.837145 
 7105000    1.0377101 4.1814196e-05   0.54996276  0.012041677            0   0.53792109    1.5487823    2.0987451    4.9889423 
 7110000   0.96338214 3.6678044e-05   0.63865845  0.021240244            0    0.6174182    1.4378478    2.0765063    4.6116927 
 7115000    1.0109253 -5.2772686e-05   0.58353838  0.021438319            0   0.56210007     1.508806    2.0923444   -1.5553037 
 7120000    1.0367247 -2.0393974e-05   0.54617207  0.013521776            0    0.5326503    1.5473117    2.0934837   0.68385225 
 7125000   0.97163204 -2.2440202e-05   0.63545376  0.030093592            0   0.60536017    1.4501608    2.0856146   0.53454779 
 7130000    1.0175208 -2.2057617e-05   0.56475137  0.026030786            0   0.53872058    1.5186498    2.0834012    0.5587787 
 7135000    1.0501761 3.6246141e-05   0.52194267  0.021220667            0     0.500722    1.5673879    2.0893305    4.5946638 
 7140000    1.0321701 -4.5672893e-05    0.5350391 0.0066344026            0    0.5284047    1.5405139     2.075553   -1.0813573 
 7145000   0.99643834 -1.1833084e-05   0.59643707 0.0062010283            0   0.59023604    1.4871842    2.0836213    1.2657186 
 7150000    1.0504969 1.276907e-05   0.51185925  0.011549383            0   0.50030986    1.5678667    2.0797259    2.9623241 
 7155000   0.99622971 7.9417337e-06   0.59668313  0.015139929            0    0.5815432    1.4868728     2.083556    2.6324886 
 7160000     1.006437 8.749909e-06   0.57217773   0.01308651            0   0.55909122    1.5021072     2.074285    2.6790787 
 7165000    1.0073148 2.8819162e-05   0.55837735  0.024440775            0   0.53393657    1.5034173    2.0617946    4.0537751 
 7170000    1.0216577 -1.2659241e-05   0.54685422  0.022191521            0    0.5246627    1.5248241    2.0716783    1.1966715 
 7175000   0.97802316 -6.5498558e-06   0.60178602  0.014172603            0   0.58761341    1.4596996    2.0614856    1.6087595 
 7180000    1.0159374 2.3122894e-05   0.55158586  0.014914984            0   0.53667088    1.5162865    2.0678724    3.6661268 
 7185000    1.0196076 6.2110479e-06   0.53922559  0.020556171            0   0.51866942    1.5217644      2.06099    2.4902976 
 7190000   0.96050047 8.0997417e-05   0.61874876  0.018319642            0   0.60042912     1.433547    2.0522957    7.6508372 
 7195000    1.0118447 -5.5149778e-06   0.54630484  0.019133808            0   0.52717103    1.5101782     2.056483    1.6752878 
 7200000    1.0109373 -6.225655e-05   0.55563925  0.027044675            0   0.52859457    1.5088239    2.0644631   -2.2387096 
 7205000    0.9637027 5.0734502e-05   0.62392561  0.028692497            0   0.59523311    1.4383263    2.0622519    5.5690207 
 7210000   0.99576626 -3.7579395e-05    0.5803731  0.015542278            0   0.56483083    1.4861811    2.0665542  -0.53093357 
 7215000    1.0631765 -1.386342e-05   0.48040424 0.0088304446            0    0.4715738     1.586791    2.0671952    1.1089556 
 7220000    1.0178028 5.4050517e-05   0.57020863   0.01460743            0    0.5556012    1.5190706    2.0892793     5.825251 
 7225000    1.0242035 -7.0510626e-06   0.57248372  0.018903839            0   0.55357988    1.5286237    2.1011074     1.613738 
 7230000    1.0074766 -6.1238826e-05   0.61748542  0.023378036            0   0.59410738    1.5036588    2.1211442   -2.1116834 
 7235000    1.0446557 -7.3704544e-05   0.58169634  0.019269637            0    0.5624267    1.5591487     2.140845   -2.9536131 
 7240000    1.0444885 2.0429803e-05   0.57272597  0.015244225            0   0.55748175    1.5588991    2.1316251    3.5437331 
 7245000    1.0042193 8.2159211e-05   0.64238085  0.024913235            0   0.61746761    1.4987974    2.1411782    7.8200229 
 7250000    1.0352762 7.1687413e-05   0.58964259 0.0093656724            0   0.58027692    1.5451498    2.1347924    7.0898263 
 7255000    1.0314252 3.4245181e-06   0.59221755  0.025669218            0   0.56654833    1.5394022    2.1316197    2.3683224 
 7260000    1.0087788 -2.1778411e-05   0.62645015  0.013649815            0   0.61280033    1.5056023    2.1320525   0.62672869 
 7265000    1.0359604 1.2119535e-05   0.59192192 0.0082093954            0   0.58371252    1.5461709    2.1380928     2.975795 
 7270000    1.0421393 3.8508747e-05   0.58841647  0.010026397            0   0.57839007    1.5553928    2.1438093    4.8055339 
 7275000     1.022529 3.1602972e-06   0.60445719 0.0096381871            0     0.594819    1.5261246    2.1305818    2.3490215 
 7280000    1.0157465 1.105666e-05    0.6036077    0.0197766            0   0.58383109    1.5160016    2.1196093    2.8838456 
 7285000   0.98785912 -2.1354288e-05   0.65091722  0.012749184            0   0.63816803    1.4743797     2.125297   0.64928858 
 7290000    1.0492968 -1.2046661e-05   0.57083645  0.008100636            0   0.56273582    1.5660755     2.136912    1.3042468 
 7295000    1.0216289 -1.2670989e-05   0.63193827  0.010771671            0    0.6211666    1.5247811    2.1567194    1.2809006 
 7300000    1.0901404 1.907696e-05   0.55336092 0.0057967186            0   0.54756421    1.6270345    2.1803955     3.498995 
 7305000     1.073147 9.6777407e-05   0.60334182 0.0088497416            0   0.59449208    1.6016718    2.2050137     8.894268 
 7310000    1.0176786 2.5044015e-05   0.66870965   0.03181774            0   0.63689191    1.5188852    2.1875949    3.9186372 
 7315000    1.0782561 5.4805075e-06   0.58506605   0.01178472            0   0.57328133    1.6092972    2.1943633    2.5731759 
 7320000    1.0924426 2.5270601e-05   0.59212549  0.015361846            0   0.57676364    1.6304706    2.2225961       3.9693 
 7325000    1.0331681 -4.6795343e-05   0.63783335 0.0089089323            0   0.62892442    1.5420033    2.1798367   -1.0546574 
 7330000    1.0995747 -4.0557983e-05   0.55519204  0.008925109            0   0.54626693    1.6411152    2.1963072  -0.60706058 
 7335000    1.0930546 9.9274457e-07   0.57161407  0.012815466            0    0.5587986     1.631384     2.202998    2.2716166 
 7340000    1.1052827 -1.4176559e-05   0.58247253  0.017905351            0   0.56456718    1.6496345     2.232107    1.2522232 
 7345000    1.0753141 3.477441e-05   0.61268541  0.021719178            0   0.59096624    1.6049063    2.2175917    4.6211989 
 7350000    1.0766569 2.2893422e-05   0.60629345  0.014216845            0   0.59207661    1.6069105    2.2132039    3.7955973 
 7355000    1.0634556 -1.5161736e-05   0.62348863  0.017989742            0   0.60549889    1.5872075    2.2106961    1.1627169 
 7360000    1.0790055 1.5670837e-05   0.59191723  0.013463502            0   0.57845372    1.6104157     2.202333    3.2855012 
 7365000     1.023036 -4.4550924e-05   0.66238679  0.023930012            0   0.63845678    1.5268812     2.189268  -0.89009188 
 7370000    1.0590987 3.2729467e-05   0.60991661  0.031436772            0   0.57847984    1.5807048    2.1906214    4.4528822 
 7375000    1.0591187 -3.1633657e-05   0.59359562  0.035796864            0   0.55779875    1.5807347    2.1743303 -0.012188045 
 7380000    1.0165376 -1.588719e-05   0.64624558  0.035106787            0    0.6111388    1.5171824     2.163428    1.0653055 
 7385000    1.0184589 4.3609932e-05   0.63199705  0.052183359            0   0.57981369      1.52005     2.152047    5.1663655 
 7390000    1.0972579 2.2528429e-05   0.51658593  0.029509272            0   0.48707666    1.6376575    2.1542434    3.7114084 
 7395000    1.0457348 2.718095e-05   0.59940613 0.0082052688            0   0.59120086    1.5607592    2.1601653    4.0389126 
 7400000    1.0181457  1.72493e-05    0.6649626  0.022525703            0    0.6424369    1.5195825    2.1845451    3.3768167 
 7405000    1.1183998 8.1144389e-05   0.53640681 0.0075667023            0   0.52884011    1.6692118    2.2056186    7.8143187 
 7410000    1.0315205 6.3142277e-05   0.64800657  0.014784943            0   0.63322163    1.5395444     2.187551    6.5519451 
 7415000    1.0732985 2.0486257e-06   0.58480454   0.01851708            0   0.56628746    1.6018981    2.1867026    2.3283036 
 7420000    1.0370302 8.4874212e-05   0.62439686  0.028469908            0   0.59592695    1.5477675    2.1721644    8.0386699 
 7425000    1.0660084 4.9349426e-06   0.58088348  0.035550033            0   0.54533345    1.5910175     2.171901    2.5130042 
 7430000    1.0578292 5.4955515e-05   0.59145655  0.025859893            0   0.56559665    1.5788101    2.1702666    5.9687918 
 7435000    1.0426634 -7.5200601e-06   0.60813514  0.024700116            0   0.58343502    1.5561751    2.1643102    1.6445237 
 7440000    1.0241059 -8.5072761e-05   0.63222863  0.024797501            0   0.60743113    1.5284781    2.1607067   -3.7195225 
 7445000    1.0475258 -5.2032775e-06   0.59076064  0.015363797            0   0.57539684    1.5634323    2.1541929    1.7945424 
 7450000    1.0670795 -3.8003562e-05   0.58098734  0.030058454            0   0.55092889    1.5926162    2.1736035  -0.45320267 
 7455000    1.0087913 -4.7268244e-05   0.67697655  0.030117353            0   0.64685919     1.505621    2.1825976   -1.0845834 
 7460000    1.0187257 -2.1326224e-05   0.67647666  0.024060724            0   0.65241593    1.5204482    2.1969248   0.72285623 
 7465000    1.1021656 5.8311637e-06   0.56599732  0.038129268            0   0.52786806    1.6449821    2.2109794    2.6140295 
 7470000    1.0920757 -7.1859668e-05   0.57950419  0.029587919            0   0.54991627     1.629923    2.2094272   -2.7575131 
 7475000    1.0484098 6.6833487e-06   0.62903398  0.022840333            0   0.60619365    1.5647517    2.1937857    2.6557387 
 7480000    1.0416785 5.1099438e-05   0.63327091  0.021665511            0   0.61160539    1.5547052    2.1879761    5.7199693 
 7485000    1.0624781 1.0540616e-05    0.5880843  0.018183412            0   0.56990089    1.5857485    2.1738328    2.9024002 
 7490000    1.0378309 -3.3797806e-05   0.62004702  0.018641398            0   0.60140562    1.5489626    2.1690096  -0.16709477 
 7495000    1.0439699 -2.2941467e-05    0.5922445  0.015928698            0    0.5763158    1.5581251    2.1503696   0.56465544 
 7500000    1.0288988 -3.5040915e-05     0.622223  0.032253219            0   0.58996978    1.5356315    2.1578544  -0.26417363 
 7505000    1.0580148 5.497724e-05   0.58616482  0.022379064            0   0.56378575    1.5790871    2.1652519    5.9652787 
 7510000    1.0382581 4.2620039e-05   0.61464986  0.011740157            0    0.6029097    1.5496001      2.16425    5.1101471 
 7515000    1.0366737 2.2373201e-05   0.62094318 0.0086384165            0   0.61230477    1.5472355    2.1681787    3.7146143 
 7520000    1.0897946 -2.3953651e-05    0.5561871  0.013646969            0   0.54254013    1.6265185    2.1827056    0.5270292 
 7525000    1.0266951 -3.0928364e-05   0.64136268  0.035461992            0   0.60590069    1.5323425    2.1737052  0.035936608 
 7530000    1.0680223 4.0324002e-05   0.59475455   0.04251143            0   0.55224312    1.5940233    2.1887778    4.9759729 
 7535000    1.0758972 -1.7376773e-05   0.57824239  0.038938594            0   0.53930379    1.6057766    2.1840189   0.98293642 
 7540000   0.98553982 -2.0473475e-05   0.73023579  0.033356937            0   0.69687885    1.4709182     2.201154   0.78602739 
 7545000    1.0952513 1.7021604e-05   0.55523738  0.029845709            0   0.52539168    1.6346626       2.1899    3.3664332 
 7550000     1.057877 2.2701395e-06   0.59883954  0.020588113            0   0.57825143    1.5788814     2.177721     2.334633 
 7555000    1.0273235 -7.0453704e-06   0.64827883  0.018174059            0   0.63010478    1.5332804    2.1815592    1.6945832 
 7560000    1.0937363 -9.2323653e-06   0.57809441   0.01525361            0    0.5628408    1.6324014    2.2104958    1.5723547 
 7565000     1.050845 -3.810045e-05   0.62236735  0.022957055            0   0.59941029    1.5683861    2.1907535  -0.44274964 
 7570000    1.1201514 2.6864718e-05   0.52574675  0.019985986            0   0.50576076     1.671826    2.1975728    4.0544621 
 7575000    1.0521609 2.0134903e-05   0.59936697  0.026391899            0   0.57297507    1.5703501    2.1697171    3.5614416 
 7580000    1.0729991 2.1715531e-05   0.57751572  0.027659039            0   0.54985668    1.6014512    2.1789669    3.6799444 
 7585000    1.0734343 8.0580013e-07   0.57562336  0.027116559            0    0.5485068    1.6021007    2.1777241     2.233421 
 7590000    1.0455893 -5.9119364e-05   0.62691497  0.037207261            0   0.58970771     1.560542     2.187457   -1.8988735 
 7595000    1.0976736 -4.2394518e-05   0.54487294  0.020245036            0    0.5246279    1.6382779    2.1831508  -0.74715832 
 7600000    1.0728886 6.0601146e-05   0.56690407  0.027792187            0   0.53911188    1.6012863    2.1681904    6.3569416 
 7605000    1.0708139 5.1848748e-05   0.58733972  0.024757733            0   0.56258199    1.5981897    2.1855294    5.7693148 
 7610000     1.092108 -2.936851e-05   0.55508142  0.020257879            0   0.53482354    1.6299713    2.1850527   0.15510126 
 7615000    1.0715534 -8.1107313e-05   0.59837124  0.013360214            0   0.58501103    1.5992935    2.1976648   -3.4084727 
 7620000    1.0859793 2.7530237e-05   0.57049136  0.015629367            0     0.554862    1.6208241    2.1913155    4.0942055 
 7625000    1.1043935 5.7222818e-05   0.56527064  0.012143419            0   0.55312722    1.6483073    2.2135779    6.1688191 
 7630000    1.0685545 3.4661021e-05   0.60464847  0.031620545            0   0.57302793    1.5948176     2.199466    4.5952358 
 7635000    1.0932002 5.9414097e-05    0.5521092  0.029233413            0   0.52287579    1.6316012    2.1837104    6.2904128 
 7640000    1.0394781 2.1601837e-05   0.62872949  0.024983079            0   0.60374641    1.5514211    2.1801506    3.6732696 
 7645000    1.0803831 2.1341078e-05   0.56749489  0.028239495            0    0.5392554    1.6124718    2.1799667     3.655062 
 7650000    1.1007417 -1.510787e-05   0.55146397  0.023350416            0   0.52811356    1.6428569    2.1943209    1.1500649 
 7655000    1.1097246 -3.8819112e-05   0.57523948  0.036743989            0   0.53849549     1.656264    2.2315034  -0.45167358 
 7660000    1.0576417 -3.5452137e-05   0.66926954  0.022008897            0   0.64726064    1.5785303    2.2477998  -0.20265188 
 7665000    1.0974581 1.3953294e-05   0.60887095  0.020553489            0   0.58831746    1.6379562    2.2468272    3.2112788 
 7670000    1.1509765 -1.6656076e-06   0.53161491 0.0066064154            0   0.52500849    1.7178325    2.2494474    2.1343206 
 7675000    1.1267944 -2.4579875e-05   0.57141237  0.016859549            0   0.55455282    1.6817407     2.253153   0.55419205 
 7680000    1.0596335 -2.9047844e-05   0.68582634   0.01196181            0   0.67386453     1.581503    2.2673293   0.25954231 
 7685000    1.1528958 -8.7171917e-07    0.5556019  0.021033972            0   0.53456793    1.7206969    2.2762988    2.2160456 
 7690000    1.1076208 3.1464889e-05   0.60323446  0.039513246            0   0.56372121     1.653124    2.2563585    4.4312116 
 7695000    1.0936801 -3.6346321e-05    0.6068631  0.036984704            0    0.5698784    1.6323176    2.2391807  -0.27307706 
 7700000    1.0923596 -7.1643221e-05   0.61559744    0.0330442            0   0.58255324    1.6303467    2.2459441   -2.7060353 
 7705000    1.1090499 -1.9620484e-05   0.57701501  0.027326342            0   0.54968867    1.6552569    2.2322719   0.87610407 
 7710000     1.104673 -2.4502517e-06   0.60281461  0.031667859            0   0.57114675    1.6487244     2.251539    2.0821776 
 7715000    1.0921611 1.1191123e-05   0.62034124  0.033990954            0   0.58635029    1.6300505    2.2503917    3.0239222 
 7720000    1.0557945 1.3359028e-05   0.65967994  0.040711208            0   0.61896873    1.5757733    2.2354532    3.1588292 
 7725000    1.0703641 5.3194361e-05   0.63827168  0.030466972            0   0.60780471    1.5975184    2.2357901    5.9125843 
 7730000    1.1149752 -4.6577641e-05   0.56445282  0.034370494            0   0.53008232    1.6641005    2.2285533  -0.99089319 
 7735000    1.0503489 -8.8213399e-06   0.66806588  0.015304826            0   0.65276105    1.5676457    2.2357116    1.6259806 
 7740000    1.1322015 3.7950087e-05   0.55703771  0.013823214            0   0.54321449    1.6898107    2.2468484    4.8699584 
 7745000    1.0737796 2.7665829e-05   0.64965032 0.0060830277            0   0.64356729    1.6026161    2.2522664    4.1645285 
 7750000     1.122601 -4.2797148e-05   0.57617143  0.022693211            0   0.55347822    1.6754821    2.2516535  -0.70648536 
 7755000    1.1161637 2.2435135e-05   0.58376661   0.01238836            0   0.57137825    1.6658743    2.2496409    3.8003574 
 7760000    1.0901103 1.2452468e-05   0.63017559  0.010349698            0   0.61982589    1.6269896    2.2571652    3.1178798 
 7765000    1.0616008 -8.1869061e-05   0.63111072 0.0052235857            0   0.62588713    1.5844392    2.2155499   -3.4432396 
 7770000    1.0636326 -2.325942e-05    0.5960963 0.0091430163            0   0.58695328    1.5874717     2.183568   0.57587688 
 7775000    1.0581638 -2.847431e-05   0.58996213  0.014079987            0   0.57588215    1.5793094    2.1692716   0.20112726 
 7780000    1.1031356 -3.9078098e-05   0.54673987  0.016104232            0   0.53063563    1.6464299    2.1931698  -0.50790839 
 7785000    1.0690149 -5.5240046e-05   0.61304658  0.024092101            0   0.58895448    1.5955047    2.2085513   -1.6096407 
 7790000    1.1033118 5.1460469e-05   0.57971801  0.021961434            0   0.55775658    1.6466928    2.2264109    5.7833585 
 7795000    1.1111718 4.1422752e-05   0.56809067  0.016177756            0   0.55191291     1.658424    2.2265147    5.0896553 
 7800000    1.1341375 9.8763467e-07   0.55672011  0.023526591            0   0.53319352    1.6927002    2.2494203    2.3176856 
 7805000    1.0008761 -3.6615734e-05   0.72654075  0.068208569            0   0.65833218    1.4938076    2.2203484  -0.31053116 
 7810000    1.1159086 4.408127e-05   0.56042182  0.034479466            0   0.52594235    1.6654936    2.2259154    5.2728128 
 7815000    1.1051721 1.0734601e-05   0.58226088    0.0336126            0   0.54864828    1.6494693    2.2317302    2.9737058 
 7820000     1.030752 -3.0319889e-05   0.68968585  0.033652268            0   0.65603358    1.5383974    2.2280833    0.1323725 
 7825000    1.0993749 -7.4508282e-05   0.57188448 0.0077080857            0    0.5641764     1.640817    2.2127015    -2.937311 
 7830000    1.0905551 -2.4537302e-05    0.5663765  0.015721867            0   0.55065463    1.6276535      2.19403   0.49801174 
 7835000     1.032472 4.2134606e-05   0.67054284  0.013844849            0   0.65669799    1.5409645    2.2115073    5.1238513 
 7840000    1.0765097 2.5409031e-06   0.61612809 0.0094213435            0   0.60670674    1.6066907    2.2228188     2.398446 
 7845000    1.1175388 -3.0681845e-06   0.55618398  0.010440691            0   0.54574329    1.6679267    2.2241106    2.0120377 
 7850000    1.0994836 -7.0573985e-06   0.60034037 0.0091853846            0   0.59115498    1.6409793    2.2413197    1.7535123 
 7855000    1.0998299 1.0126155e-05   0.61069043  0.008219079            0   0.60247135    1.6414961    2.2521865    2.9521064 
 7860000    1.1107144 8.5407849e-06   0.59556286 0.0086585264            0   0.58690434    1.6577413    2.2533041    2.8436432 
 7865000    1.1119038 2.5389202e-05   0.59042369 0.0096530856            0    0.5807706    1.6595164    2.2499401    4.0048417 
 7870000    1.1314168 4.3442834e-05   0.56172581 0.0040975138            0   0.55762829    1.6886395    2.2503653     5.253134 
 7875000    1.1410964 -2.5599235e-05   0.55532407 0.0098377545            0   0.54548632    1.7030863    2.2584104   0.48899125 
 7880000    1.0658861 1.4944449e-05   0.68624962 0.0069567255            0   0.67929289    1.5908349    2.2770846    3.3100449 
 7885000    1.1821695 2.2682679e-05   0.53133172 0.0031244452            0   0.52820728    1.7643879    2.2957196    3.8635464 
 7890000    1.1242287 4.3165813e-05   0.62555847 0.0030721594            0   0.62248631    1.6779114    2.3034698    5.2870908 
 7895000    1.1188048 1.7128261e-05   0.62301106 0.0099075997            0   0.61310346    1.6698161    2.2928272    3.4767326 
 7900000    1.1162116 -4.0674762e-05   0.62249202  0.013203415            0    0.6092886    1.6659459    2.2884379  -0.52300166 
 7905000    1.1095089 4.4366554e-05   0.64062147  0.021001811            0   0.61961966     1.655942    2.2965635    5.3631797 
 7910000    1.1968856 1.9215065e-05   0.50731512  0.022476319            0    0.4848388    1.7863518    2.2936669    3.6218122 
 7915000    1.1296728 -1.4793111e-05   0.61330054  0.024924902            0   0.58837564    1.6860366    2.2993372    1.2768374 
 7920000    1.1133241 7.5839605e-05   0.62463285  0.021762712            0   0.60287014    1.6616361     2.286269    7.5283025 
 7925000    1.1173028 2.4352019e-05   0.58124809  0.041582841            0   0.53966525    1.6675744    2.2488225     3.932034 
 7930000    1.1166165 -3.4493752e-05   0.57553876  0.024865068            0   0.55067369    1.6665502    2.2420889  -0.14211921 
 7935000    1.0600216 -5.1503279e-05   0.67434237  0.013991952            0   0.66035041    1.5820823    2.2564247    -1.303482 
 7940000     1.097014 -3.2945822e-05    0.6046827 0.0047941362            0   0.59988856    1.6372933     2.241976 -0.035239182 
 7945000    1.1570156 -1.3598597e-06    0.5321102  0.013457288            0   0.51865292    1.7268458     2.258956    2.1649625 
 7950000    1.0989016 -1.9397949e-05   0.61435005  0.016818368            0   0.59753168    1.6401106    2.2544607   0.91367445 
 7955000    1.1249321 2.3141332e-05   0.55596398 0.0080352316            0   0.54792875    1.6789612    2.2349252    3.8344541 
 7960000    1.0817252 -9.06269e-06   0.61698325  0.015669545            0    0.6013137    1.6144749    2.2314581     1.605045 
 7965000    1.1047509 -3.6083256e-05   0.58814089  0.029691018            0   0.55844987    1.6488407    2.2369816   -0.2570931 
 7970000    1.0867557 -3.1319475e-05   0.60192997  0.020852038            0   0.58107793    1.6219829    2.2239129   0.05911077 
 7975000    1.1209246 -5.9628841e-05   0.56958755 0.0054745074            0   0.56411304    1.6729799    2.2425675    -1.878978 
 7980000    1.1133476 -2.8499214e-05   0.57529467 0.0044685341            0   0.57082613    1.6616712    2.2369659   0.26710021 
 7985000    1.1403608 1.6457738e-05   0.53746301 0.0094598565            0   0.52800316    1.7019884    2.2394514    3.3770103 
 7990000    1.1491045 2.341597e-06   0.53537703  0.010609639            0   0.52476739    1.7150384    2.2504154    2.4122666 
 7995000    1.1037875 3.1065092e-05   0.60964283  0.018446712            0   0.59119612    1.6474028    2.2570457    4.4042648 
 8000000    1.1104839 2.8133374e-05   0.59967309  0.025992751            0   0.57368034    1.6573972    2.2570702     4.201649 
 8005000     1.113682 -2.2472039e-05   0.59193832  0.020712221            0    0.5712261    1.6621704    2.2541087   0.70084133 
 8010000    1.1088166 8.1449895e-06   0.59990636 0.0026610436            0   0.59724531    1.6549087    2.2548151    2.8177967 
 8015000    1.0962402 -5.4409977e-05   0.63122888  0.021644464            0   0.60958441    1.6361385    2.2673674   -1.4934503 
 8020000    1.1275864 3.1861549e-05   0.57989927  0.020064262            0     0.559835    1.6829227     2.262822    4.4650923 
 8025000    1.1729926 9.6272596e-05   0.53404147  0.014012373            0    0.5200291    1.7506914    2.2847329    8.9390947 
 8030000      1.08852 8.6812218e-06   0.66655761  0.028527244            0   0.63803037    1.6246161    2.2911737    2.8912198 
 8035000    1.1406707 2.4768318e-05   0.56369526     0.018127            0   0.54556826     1.702451    2.2661463    3.9781324 
 8040000    1.1471785 2.7771471e-05   0.54453803   0.01334766            0   0.53119037    1.7121639    2.2567019     4.176266 
 8045000    1.1586303 -4.7186372e-05   0.52886582  0.014742005            0   0.51412382    1.7292557    2.2581215   -1.0034005 
 8050000    1.0923076 -2.8927549e-05   0.61928322  0.042434542            0   0.57684868    1.6302691    2.2495524   0.25008015 
 8055000    1.0237099 -1.4401052e-05   0.72886969  0.034753262            0   0.69411643     1.527887    2.2567567     1.261356 
 8060000    1.1120911 -2.7789294e-05   0.61397769  0.022994299            0   0.59098339     1.659796    2.2737737   0.35297765 
 8065000     1.101169 -6.388894e-05   0.61771899  0.064420156            0   0.55329883    1.6434947    2.2612137   -2.1547899 
 8070000    1.1596133 2.4493501e-05   0.54255902  0.038042966            0   0.50451605    1.7307228    2.2732818    3.9662726 
 8075000    1.1290243 3.5361349e-05   0.62376648  0.014923816            0   0.60884266    1.6850688    2.3088352    4.7530117 
 8080000     1.100177 -8.2517819e-05   0.65040279  0.037456309            0   0.61294648    1.6420142     2.292417   -3.4112147 
 8085000     1.121414 -2.2465918e-05   0.61036253  0.027239059            0   0.58312347    1.6737104    2.2840729   0.73122869 
 8090000    1.0807726 -9.3097181e-06   0.66810038  0.030254347            0   0.63784603    1.6130531    2.2811534    1.6376657 
 8095000    1.1397208 3.523468e-05   0.56580429   0.02866296            0   0.53714133    1.7010333    2.2668376    4.7022587 
 8100000    1.1010493 7.5394447e-06   0.62094334  0.020289202            0   0.60065414     1.643316    2.2642594    2.7853858 
 8105000    1.1481886 -1.5747342e-05    0.5571606  0.017564409            0   0.53959619    1.7136715    2.2708321    1.1823759 
 8110000    1.1246716 1.1045879e-05   0.59706985  0.015360544            0   0.58170931    1.6785724    2.2756423    3.0391334 
 8115000    1.0598152 -6.513668e-06   0.68080794  0.031974036            0    0.6488339    1.5817742    2.2625821    1.8123574 
 8120000    1.1303262 9.3329617e-06   0.55430039  0.022521197            0    0.5317792    1.6870119    2.2413123    2.8864066 
 8125000    1.1692842 -7.2994119e-06   0.51605848  0.012141291            0   0.50391719    1.7451567    2.2612152    1.7566798 
 8130000     1.131534 -2.4207406e-05   0.58521231 0.0068171686            0   0.57839514    1.6888146    2.2740269   0.60081098 
 8135000    1.1429713 -3.5121149e-05   0.54573924 0.0029412212            0   0.54279802    1.7058846    2.2516239  -0.17594996 
 8140000    1.1311213 5.7145954e-06   0.58054684  0.014260047            0    0.5662868    1.6881986    2.2687454    2.6637383 
 8145000    1.0824158 6.0788389e-05    0.6421563  0.023567351            0   0.61858895    1.6155055    2.2576618    6.4593553 
 8150000    1.0870416 -1.6711768e-06   0.61996871  0.016531214            0    0.6034375    1.6224096    2.2423783    2.1268666 
 8155000     1.082346 -7.8602457e-05   0.61764036  0.016890709            0   0.60074965    1.6154014    2.2330417   -3.1999601 
 8160000     1.093532 -4.9716395e-05   0.61143287  0.034325761            0   0.57710711    1.6320965    2.2435294   -1.1928678 
 8165000    1.1312781 -3.6161657e-06   0.57379708  0.040218824            0   0.53357825    1.6884326    2.2622297    2.0122803 
 8170000    1.1086503 2.5323509e-05   0.60216559  0.026470306            0   0.57569528    1.6546606    2.2568262    4.0071871 
 8175000    1.0854161 7.5790384e-07   0.61941247  0.041474158            0   0.57793831    1.6199835     2.239396    2.2917823 
 8180000    1.0846739 6.8204464e-06   0.61688988  0.028697193            0   0.58819269    1.6188758    2.2357656    2.7071949 
 8185000    1.0471118 -1.3856298e-05   0.66783832  0.025504898            0   0.64233343    1.5628144    2.2306527    1.2729054 
 8190000    1.0867424 -3.2363107e-05   0.59455913  0.031233101            0   0.56332603    1.6219631    2.2165222 -0.020415748 
 8195000    1.1042304 -1.3443713e-05   0.57942449  0.040712955            0   0.53871153    1.6480639    2.2274884    1.2982589 
 8200000     1.079122 -1.0470344e-05   0.62082284  0.021505633            0   0.59931721    1.6105896    2.2314124    1.5077022 
 8205000     1.078893 -0.00010001537   0.61182898  0.015429481            0    0.5963995    1.6102479    2.2220769   -4.6909852 
 8210000    1.1129689 -4.730519e-06   0.55277001   0.03870828            0   0.51406173    1.6611061    2.2138762    1.8869027 
 8215000    1.1119552 7.0128565e-05   0.57387924  0.015617281            0   0.55826196    1.6595931    2.2334724    7.0807588 
 8220000     1.099879 -2.834189e-05   0.57868391  0.010719865            0   0.56796404    1.6415694    2.2202533   0.26126182 
 8225000    1.0418425 -1.8076516e-05   0.66573928  0.024237895            0   0.64150138    1.5549499    2.2206891   0.97124035 
 8230000    1.1051376 3.0313826e-05   0.56164386  0.014822255            0    0.5468216    1.6494179    2.2110617    4.3063534 
 8235000    1.1239066 1.3240772e-05   0.52819956  0.012498184            0   0.51570137    1.6774307    2.2056302    3.1208324 
 8240000    1.0738713 1.1713897e-06   0.62160946  0.025371904            0   0.59623756    1.6027529    2.2243623    2.3053288 
 8245000    1.0621376 -2.9843075e-06    0.6264459  0.037503263            0   0.58894264    1.5852403    2.2116862    2.0054109 
 8250000    1.0996721 -3.3106183e-05   0.56454223  0.013409582            0   0.55113265    1.6412605    2.2058028 -0.082496579 
 8255000    1.0764192 -4.8033474e-05   0.59065712  0.021288213            0   0.56936891    1.6065557    2.1972129   -1.1228609 
 8260000    1.0488072 1.3997799e-05   0.61425002  0.012874329            0   0.60137569    1.5653447    2.1795947    3.1471226 
 8265000    1.1048008 1.5439447e-06    0.5304035  0.013878214            0   0.51652528    1.6489152    2.1793187    2.2860362 
 8270000    1.0489335 -5.9838252e-05   0.62289581  0.057214289            0   0.56568152    1.5655332     2.188429    -1.947591 
 8275000     1.072288 5.6186495e-07   0.59123123  0.032350069            0   0.55888116    1.6003898     2.191621    2.2304572 
 8280000    1.1584937 1.0877145e-05   0.48803492   0.01045383            0   0.47758109    1.7290519    2.2170868    2.9689151 
 8285000    1.1386803 -7.2724299e-06   0.50574457  0.010365422            0   0.49537914    1.6994804     2.205225    1.7025546 
 8290000    1.1140698 1.7362958e-06   0.53561056  0.017528841            0   0.51808172    1.6627491    2.1983597    2.3183725 
 8295000    1.0806261 7.1577661e-05    0.5680326   0.04379901            0   0.52423359    1.6128344     2.180867    7.1283149 
 8300000    1.0749342 6.2131373e-05   0.58308231  0.031421435            0   0.55166087    1.6043393    2.1874216    6.4819421 
 8305000    1.0842135 1.1586161e-05   0.56048916  0.011387296            0   0.54910187    1.6181887    2.1786779    2.9795133 
 8310000    1.0987142 -3.2385591e-05   0.55531621  0.015859827            0   0.53945639    1.6398309    2.1951471  -0.04334491 
 8315000    1.0877151 3.4128489e-05   0.55388365  0.027346306            0   0.52653734    1.6234148    2.1772985    4.5362596 
 8320000    1.1006608 5.9987961e-06   0.51962031  0.028513776            0   0.49110654    1.6427363    2.1623566    2.5769934 
 8325000    1.0896064 -2.5018051e-05   0.52333408  0.041933572            0   0.48140051    1.6262376    2.1495717   0.42032403 
 8330000     1.058272 -3.8367289e-05    0.5664835  0.016445074            0   0.55003843    1.5794709    2.1459544  -0.50599255 
 8335000     1.063706 1.3318613e-06   0.54344269  0.032963472            0   0.51047921    1.5875811    2.1310238    2.2230821 
 8340000    1.0473764 3.6635982e-06    0.5590499  0.038342952            0   0.52070695    1.5632093    2.1222592    2.3754871 
 8345000    1.0503171 7.6004602e-06   0.55153923  0.022184541            0   0.52935469    1.5675982    2.1191374    2.6444812 
 8350000    1.0531559 1.192599e-05   0.52818842  0.007730808            0   0.52045762    1.5718351    2.1000235    2.9243479 
 8355000     1.018768 -7.9839885e-06   0.58336892 0.0079247925            0   0.57544412    1.5205113    2.1038802    1.5520269 
 8360000    1.0315599 -2.8876959e-05   0.57226951  0.019037037            0   0.55323248    1.5396032    2.1118727   0.11589723 
 8365000    1.0804468 -4.9742925e-05   0.50779048  0.015539575            0    0.4922509    1.6125668    2.1203573   -1.3178737 
 8370000    1.0489566 -3.3925856e-05   0.55982095  0.021595897            0   0.53822505    1.5655677    2.1253886  -0.21956654 
 8375000    1.0456103 2.4138333e-05   0.53837707  0.040881362            0    0.4974957    1.5605734    2.0989504     3.767392 
 8380000    1.0187846 4.1455522e-05   0.59842019  0.039619566            0   0.55880063     1.520536    2.1189562    4.9843618 
 8385000    1.0241479 -2.9163599e-05    0.5813942  0.018178536            0   0.56321566    1.5285407    2.1099349  0.094146942 
 8390000    1.0452565 -5.286267e-05   0.55356591   0.01800713            0   0.53555879    1.5600454    2.1136113   -1.5402564 
 8395000    1.0566216 2.0392977e-05   0.52348178 0.0046176902            0   0.51886409    1.5770078    2.1004896    3.5100521 
 8400000    1.1193981 6.535773e-05   0.44317529 0.0089117699            0   0.43426352    1.6707016    2.1138769    6.6314032 
 8405000    1.0793665 2.8262454e-05   0.50192924  0.028409075            0   0.47352016    1.6109546    2.1128838    4.0663846 
 8410000    1.0029729 -2.7939343e-05   0.61317692  0.016677614            0   0.59649931     1.496937    2.1101139   0.17894654 
 8415000    1.0507279 -2.7049091e-05   0.55244777 0.0072408178            0   0.54520695    1.5682114    2.1206592     0.251026 
 8420000    1.0668253 -2.7174796e-05    0.5209316  0.010314015            0   0.51061758    1.5922367    2.1131683   0.23484643 
 8425000    1.0522328 2.5624706e-05    0.5394484  0.025029774            0   0.51441862    1.5704574    2.1099058    3.8810855 
 8430000    1.0511957 1.5684038e-05   0.55281796  0.055454447            0   0.49736351    1.5689096    2.1217276    3.2058083 
 8435000    1.0392351 9.5711945e-06   0.55833832  0.019284094            0   0.53905423    1.5510584    2.1093967    2.7709577 
 8440000    1.0873729 -4.4438274e-05   0.48964984  0.016201998            0   0.47344784     1.622904    2.1125539  -0.95901966 
 8445000    1.0517498 -5.3727109e-05   0.53599038  0.033388039            0   0.50260234    1.5697366     2.105727   -1.6078908 
 8450000    1.0495535 -3.512403e-05   0.51706157  0.018913162            0    0.4981484    1.5664586    2.0835201  -0.34425284 
 8455000    1.0700879 -5.2350426e-05   0.51120543   0.02421264            0   0.48699279    1.5971062    2.1083117   -1.5101498 
 8460000    1.0278405 -1.8503064e-05   0.57548904  0.018081892            0   0.55740714    1.5340519     2.109541   0.83060921 
 8465000    1.0423587 1.778805e-05   0.57346306  0.012895506            0   0.56056755    1.5557204    2.1291835    3.3586935 
 8470000    1.0764749 -2.1216495e-05    0.5186687  0.012195169            0   0.50647353    1.6066387    2.1253074   0.65882328 
 8475000    1.0680774 -3.3930169e-05   0.54185424  0.014548827            0   0.52730541    1.5941055    2.1359597   -0.2092936 
 8480000    1.0134508 1.2480239e-05   0.61270022  0.013646923            0   0.59905329    1.5125753    2.1252756    2.9879097 
 8485000   0.99227465 2.6539057e-06   0.63927369  0.023846398            0    0.6154273    1.4809699    2.1202436    2.3036816 
 8490000     1.010142 8.5923111e-06   0.58958001  0.026122043            0   0.56345797     1.507637     2.097217    2.6911176 
 8495000    1.0754972 -1.5369168e-05   0.51205388  0.028046498            0   0.48400738    1.6051796    2.1172335    1.0549166 
 8500000    1.0382924 -6.9757307e-05   0.56042121  0.050768451            0   0.50965276    1.5496514    2.1100726   -2.7115524 
 8505000    1.0085593 -1.450815e-05   0.61133443  0.058754704            0   0.55257973    1.5052747    2.1166091    1.1138058 
 8510000    1.0837539 2.6101503e-05   0.51500468   0.03156073            0   0.48344395    1.6175026    2.1325073    3.9366432 
 8515000    1.0452357 2.2504888e-05    0.5888678  0.020992277            0   0.56787552    1.5600143    2.1488821    3.7044199 
 8520000    1.0198485 -5.6109204e-05   0.63146562  0.020924155            0   0.61054147    1.5221239    2.1535896   -1.7246786 
 8525000    1.0677072 -5.2838349e-05   0.54895316  0.024485847            0   0.52446732     1.593553    2.1425062   -1.5096805 
 8530000    1.0660304 2.6147191e-05   0.54268799   0.02775529            0    0.5149327    1.5910503    2.1337383    3.9410322 
 8535000     1.053558 1.7754672e-06   0.55787255   0.02308497            0   0.53478758    1.5724354    2.1303079    2.2530282 
 8540000    1.0348782 4.8813698e-06   0.58948663  0.050932352            0   0.53855428    1.5445557    2.1340423    2.4714426 
 8545000    1.0489082 5.1641754e-05   0.58081528  0.021689923            0   0.55912535    1.5654955    2.1463107    5.7157888 
 8550000    1.0679244 4.2937609e-05   0.54016833  0.023006205            0   0.51716213    1.5938772    2.1340455    5.1018931 
 8555000     1.020762 -6.9369568e-05   0.60228461  0.032786093            0   0.56949852    1.5234872    2.1257718   -2.6690527 
 8560000    1.0343398 -6.4872806e-05   0.58368288   0.04016955            0   0.54351333    1.5437522     2.127435   -2.3565733 
 8565000    1.0776836 2.0013277e-05   0.53221921  0.026969424            0   0.50524979    1.6084428     2.140662    3.5239798 
 8570000    1.0563851 5.2819245e-05   0.54779486   0.02257144            0   0.52522342    1.5766548    2.1244496    5.7753158 
 8575000    1.0473134 3.4087959e-05   0.57555688 0.0056497739            0   0.56990711    1.5631152    2.1386721    4.4948318 
 8580000    1.0778906 2.2283828e-05   0.50178595 0.0069777756            0   0.49480818    1.6087517    2.1105376    3.6507958 
 8585000    1.0260406 6.4233956e-06   0.56007285 0.0096060444            0    0.5504668    1.5313655    2.0914384    2.5354235 
 8590000   0.97819157 1.7107639e-05   0.62939854  0.010351472            0   0.61904707    1.4599509    2.0893495    3.2718295 
 8595000    1.0917946 -8.5257925e-06   0.46178097   0.01157777            0   0.45020321    1.6295034    2.0912844    1.5019816 
 8600000    1.0419768 -1.5884475e-05   0.52596596  0.011616415            0   0.51434955    1.5551504    2.0811163   0.98318138 
 8605000    1.0263814 1.137794e-05   0.53920488  0.022474667            0   0.51673021    1.5318743    2.0710792    2.8575224 
 8610000   0.98363293 -3.0439898e-05   0.60795609  0.035423529            0   0.57253256    1.4680721    2.0760282 -0.027977526 
 8615000   0.99827992 -3.4852559e-05    0.5754232  0.041270236            0   0.53415296    1.4899328     2.065356   -0.3436529 
 8620000     1.047901 6.4496826e-05   0.49963317  0.022808355            0   0.47682482    1.5639922    2.0636254     6.521646 
 8625000     1.003093 4.211608e-06   0.56125358 0.0063202316            0   0.55493335    1.4971162    2.0583698    2.3494762 
 8630000   0.98394192 -2.2578774e-05   0.57599364  0.059390598            0   0.51660304    1.4685333     2.044527   0.48388212 
 8635000   0.99144737 -2.5850114e-05   0.57929367  0.018470361            0   0.56082331    1.4797352    2.0590289   0.27226901 
 8640000    1.0221174 1.1916882e-05   0.52135994  0.012067049            0   0.50929289    1.5255102    2.0468701     2.870565 
 8645000    1.0056626 -4.6358417e-05   0.54948015  0.033718971            0   0.51576118    1.5009514    2.0504315   -1.1538622 
 8650000    1.0191587 6.4963349e-06   0.53478261  0.025336469            0   0.50944614    1.5210943    2.0558769    2.5049036 
 8655000    1.0495666 9.6170595e-06   0.50762136  0.020352195            0   0.48726916    1.5664781    2.0740995    2.7388306 
 8660000    1.0499972 -4.6191847e-05     0.518336  0.015731165            0   0.50260484    1.5671209    2.0854569   -1.1073236 
 8665000   0.99978762 -1.2080824e-05    0.5930564  0.030420863            0   0.56263554     1.492183    2.0852394    1.2502129 
 8670000    1.0413267 -3.1083102e-05   0.52526042  0.018005725            0    0.5072547    1.5541801    2.0794405 -0.069023476 
 8675000    1.0279675 2.7206204e-05   0.55994355  0.023472905            0   0.53647065    1.5342416    2.0941851    3.9746779 
 8680000   0.98294813 1.201177e-06   0.61678443  0.023578826            0    0.5932056    1.4670501    2.0838345    2.1668599 
 8685000    1.0505229 3.0650439e-06   0.52182966  0.017407269            0   0.50442239    1.5679055    2.0897351    2.3015909 
 8690000    1.0180601 -2.0404133e-05   0.56336021  0.023779767            0   0.53958044    1.5194547    2.0828149   0.67248126 
 8695000    1.0274572 -3.0629494e-05   0.53203715  0.030321801            0   0.50171535    1.5334798     2.065517 -0.051593654 
 8700000    1.0208377 1.8461886e-06   0.55190604  0.030883049            0   0.52102299    1.5236002    2.0755062    2.2031148 
 8705000    1.0085549 -2.7175895e-05   0.54986742  0.038894978            0   0.51097244    1.5052682    2.0551357   0.17673776 
 8710000    1.0355851 1.8770665e-05   0.53066151  0.035238211            0    0.4954233    1.5456107    2.0762722    3.3737006 
 8715000    1.0521597 1.0503053e-05   0.50085954  0.027054996            0   0.47380454    1.5703483    2.0712079    2.7971789 
 8720000    1.0654184 7.7997421e-06   0.48060327   0.02977755            0   0.45082572    1.5901369    2.0707402    2.6098584 
 8725000    1.0011322 2.8635481e-05   0.57330183  0.027946323            0   0.54535551    1.4941898    2.0674916     4.046776 
 8730000    1.0267117 -2.0207486e-05    0.5290331  0.023441038            0   0.50559206    1.5323672    2.0614003   0.66465889 
 8735000    1.0176449 -3.0569725e-05   0.54174609  0.016521827            0   0.52522427     1.518835    2.0605811 -0.052398291 
 8740000    1.0158392 2.5018089e-05   0.54418518   0.01996979            0   0.52421539      1.51614    2.0603252    3.7895756 
 8745000    1.0382135 5.1631997e-05   0.50127049  0.026239665            0   0.47503082    1.5495337    2.0508042    5.6196078 
 8750000    1.0271452 4.1401166e-05   0.50790897  0.010329253            0   0.49757972    1.5330142    2.0409232    4.9025717 
 8755000   0.97963661 3.4581427e-05   0.57274034 0.0055630436            0    0.5671773    1.4621076     2.034848    4.4251162 
 8760000    1.0237058 -1.940741e-05   0.51144623 0.0040107334            0    0.5074355     1.527881    2.0393272     0.697887 
 8765000   0.97408509 -5.8169361e-05   0.57663578  0.010225918            0   0.56640986     1.453822    2.0304578   -1.9902085 
 8770000   0.98003344 -3.9460462e-06   0.58771138  0.021869225            0   0.56584215    1.4626999    2.0504113    1.7776606 
 8775000    1.0241594 1.9775892e-05    0.5468705  0.034637146            0   0.51223336    1.5285579    2.0754284     3.442338 
 8780000    1.0048617 -1.3244016e-08   0.57205485  0.021194655            0   0.55086019     1.499756    2.0718109    2.0708955 
 8785000     1.028502 -6.7292707e-06   0.55049203  0.024992933            0    0.5254991    1.5350393    2.0855313    1.6204041 
 8790000    1.0590209 3.0932641e-05   0.50876613  0.034205413            0   0.47456071    1.5805887    2.0893548    4.2274189 
 8795000    1.0222174 2.6249205e-05   0.56008391  0.049333402            0   0.51075051    1.5256595    2.0857434    3.9000885 
 8800000     1.052045 -1.2178234e-05   0.52318011  0.018093804            0   0.50508631    1.5701772    2.0933573    1.2515978 
 8805000    1.0326346 -2.4974473e-05   0.54699836  0.024350411            0   0.52264795    1.5412071    2.0882055   0.36196992 
 8810000    1.0563134 -4.9941449e-05   0.52423317  0.013452102            0   0.51078107    1.5765478     2.100781    -1.351172 
 8815000    1.0932221 -1.3613207e-05   0.48413526  0.015923963            0    0.4682113     1.631634    2.1157693    1.1748244 
 8820000     1.072787 -1.1233075e-05   0.51871578  0.017593834            0   0.50112195    1.6011346    2.1198504    1.3434203 
 8825000    1.0410129 -5.3874335e-05   0.57148874  0.030816165            0   0.54067257    1.5537118    2.1252006   -1.5985935 
 8830000    1.0906378 2.3555828e-05   0.51182495   0.01450417            0   0.49732078    1.6277769    2.1396018    3.7677807 
 8835000    1.0166239 6.1136041e-05   0.60889486  0.035527646            0   0.57336722    1.5173111     2.126206    6.3519291 
 8840000    1.0619464 -2.9806354e-05   0.52996507   0.02347206            0   0.50649301     1.584955    2.1149201  0.054704866 
 8845000    1.0432316 -3.6051677e-05   0.52665329  0.014141164            0   0.51251212    1.5570231    2.0836764   -0.4082155 
 8850000    1.0297099 1.5438262e-05   0.55560122  0.017266318            0   0.53833491     1.536842    2.0924432    3.1595359 
 8855000    1.0543587 -2.0213503e-05   0.50149856  0.026412107            0   0.47508646    1.5736303    2.0751289   0.67797162 
 8860000    1.0429269 -1.9210191e-05   0.51487669  0.017664735            0   0.49721196    1.5565683     2.071445   0.74363665 
 8865000     1.055326 -2.8279147e-06   0.50918629  0.011497541            0   0.49768875    1.5750741    2.0842604    1.8887949 
 8870000    1.0031962 3.4457051e-05   0.57894913  0.012947824            0    0.5660013    1.4972703    2.0762194    4.4578908 
 8875000    1.0296267 4.0662241e-05   0.54778787  0.022673491            0   0.52511438    1.5367178    2.0845057    4.8950798 
 8880000    1.0271998 1.0448986e-05   0.54737798  0.035762204            0   0.51161577    1.5330957    2.0804737    2.8027076 
 8885000    1.0547048 -5.0393099e-06   0.51429672  0.020713655            0   0.49358306    1.5741469    2.0884436    1.7401265 
 8890000     1.032198 1.5247678e-05   0.53051029 0.0032509311            0   0.52725936    1.5405555    2.0710658    3.1249853 
 8895000    1.0168879 6.5688219e-06   0.53501478  0.021129358            0   0.51388542    1.5177052      2.05272     2.506757 
 8900000    1.0638275 -4.527724e-06   0.46165557  0.016435983            0   0.44521959    1.5877626    2.0494182    1.7364619 
 8905000    1.0358848 1.511054e-05   0.51226052  0.032584496            0   0.47967602    1.5460581    2.0583186    3.1027592 
 8910000   0.98817953  1.12709e-05   0.55048633  0.042821744            0   0.50766458    1.4748579    2.0253443    2.8043889 
 8915000   0.98740816 -1.7821901e-05   0.54251428  0.040528392            0   0.50198588    1.4737067     2.016221   0.78437113 
 8920000   0.98566255 -4.9616889e-05   0.52147933  0.022594572            0   0.49888476    1.4711014    1.9925807   -1.4369387 
 8925000   0.96794039 -1.6899888e-05   0.54141975   0.01698736            0   0.52443239     1.444651    1.9860708   0.81795049 
 8930000    0.9899947 -3.1359745e-06   0.49992918  0.010455286            0    0.4894739    1.4775671    1.9774963    1.7607377 
 8935000    1.0003244 -3.039055e-05   0.48054777 0.0026332729            0    0.4779145    1.4929842     1.973532  -0.12706279 
 8940000     1.005374 4.0743672e-05   0.46821286 0.0079556042            0   0.46025725    1.5005207    1.9687335    4.7849362 
 8945000    1.0269331 1.858632e-05   0.44572943 0.0092934882            0   0.43643594    1.5326977    1.9784272    3.2631136 
 8950000   0.99829743 -2.2543562e-05   0.49362221  0.028117326            0   0.46550488    1.4899589    1.9835811   0.42537012 
 8955000   0.93500861 -7.3805069e-05   0.58128511  0.025853318            0   0.55543179    1.3955004    1.9767855   -3.1246209 
 8960000    1.0165118 -4.2790144e-05    0.4468477  0.014403931            0   0.43244377    1.5171438    1.9639915  -0.99366321 
 8965000   0.96327168 -1.4511808e-05   0.51071205  0.023892289            0   0.48681976     1.437683     1.948395   0.94533883 
 8970000   0.98022869 2.3292813e-05   0.46471466  0.022032521            0   0.44268213    1.4629913     1.927706    3.5377052 
 8975000    0.9444702 1.0500895e-05   0.50948355  0.018745619            0   0.49073793    1.4096218    1.9191053    2.6449272 
 8980000   0.93329702 5.9663255e-05     0.529157  0.019375103            0   0.50978189    1.3929458    1.9221028     6.046027 
 8985000   0.98300278 6.3385416e-05   0.46292673 0.0064929974            0   0.45643373    1.4671317    1.9300584    6.3112583 
 8990000     1.005627 7.3014346e-06   0.42580979  0.008140922            0   0.41766887    1.5008983    1.9267081    2.4313833 
 8995000   0.99256152 -1.1246058e-05    0.4631981  0.011513429            0   0.45168467    1.4813981    1.9445962    1.1672687 
 9000000   0.95498097 -2.4462985e-05   0.52363218  0.010534595            0   0.51309758    1.4253091    1.9489413   0.25805974 
 9005000   0.96680494 -1.7188073e-05   0.51140693  0.010745914            0   0.50066102    1.4429564    1.9543633   0.76632372 
 9010000   0.94305057 -1.5266342e-05   0.55956741  0.021136039            0   0.53843138     1.407503    1.9670704    0.9118608 
 9015000    1.0097745 3.6066113e-06   0.46460668  0.016849467            0   0.44775721    1.5070885    1.9716952    2.2209842 
 9020000    1.0120594 1.882466e-05   0.44424196 0.0023020476            0   0.44193991    1.5104987    1.9547407    3.2559011 
 9025000    1.0006821 -8.2291909e-06   0.46019901  0.011289541            0   0.44890947     1.493518    1.9537171    1.3849154 
 9030000   0.99304854 -1.9818558e-06   0.47478996  0.050243429            0   0.42454653    1.4821249    1.9569149     1.819929 
 9035000   0.94557107 -8.6590152e-07   0.53678793  0.025184303            0   0.51160363    1.4112648    1.9480528    1.8882016 
 9040000    1.0101004 -2.735758e-05    0.4518061  0.012723732            0   0.43908237    1.5075748    1.9593809  0.068424955 
 9045000   0.99271996 9.1608442e-06   0.47636232  0.015170287            0   0.46119203    1.4816345    1.9579969    2.5911944 
 9050000    1.0112973 2.3528304e-05   0.45279773   0.01394547            0   0.43885226    1.5093612     1.962159    3.5884354 
 9055000    1.0090923 -9.0168763e-05   0.46790131  0.019098837            0   0.44880247    1.5060703    1.9739716   -4.2584933 
 9060000   0.99879805 -0.00010789624   0.47428918 0.0094281881            0   0.46486099    1.4907061    1.9649953   -5.4927926 
 9065000    1.0027545 2.598172e-05   0.46203043  0.012331553            0   0.44969888     1.496611    1.9586414     3.754498 
 9070000   0.93659009 3.0353379e-05    0.5303248  0.022834596            0    0.5074902    1.3978607    1.9281855     4.026211 
 9075000    1.0157141 -5.3905071e-05   0.40015866  0.012343021            0   0.38781564    1.5159533    1.9161119   -1.8098066 
 9080000   0.94011782 -1.6266636e-05   0.48783957  0.018057248            0   0.46978232    1.4031258    1.8909654   0.76661555 
 9085000   0.92030957 -9.7177193e-06   0.50049993 0.0074304011            0   0.49306953     1.373562     1.874062    1.2023732 
 9090000   0.93960128 1.8928854e-07   0.47560749    0.0189636            0   0.45664389    1.4023549    1.8779624     1.891046 
 9095000   0.95387482 6.5755941e-06   0.45063171  0.027237586            0   0.42339412    1.4236582    1.8742899    2.3287949 
 9100000    0.9557561 -9.605745e-06   0.46661833  0.029539696            0   0.43707863     1.426466    1.8930843    1.2291352 
 9105000   0.92348174 5.2750712e-05   0.49855879 0.0098761336            0   0.48868265    1.3782965    1.8768553    5.5229845 
 9110000   0.95712683 8.0344593e-05   0.44966907 0.0086078428            0   0.44106123    1.4285118    1.8781809    7.4315991 
 9115000   0.93654822 -3.2075873e-05   0.48183292 0.0060528605            0   0.47578006    1.3977982    1.8796311  -0.33745317 
 9120000    0.9751756 -2.7011152e-05   0.44752879  0.017804323            0   0.42972446    1.4554496    1.9029784  0.035967552 
 9125000   0.96103877 -6.673416e-06   0.45929883  0.012037588            0   0.44726124    1.4343504    1.8936492    1.4323827 
 9130000   0.92541572 -4.6927302e-05    0.5006728   0.01126551            0   0.48940729     1.381183    1.8818558   -1.3617593 
 9135000   0.99885093 -8.6167595e-06   0.38990918   0.02010205            0   0.36980713     1.490785    1.8806942    1.2851038 
 9140000   0.92487766 3.6604626e-05   0.49869211  0.021524949            0   0.47716716    1.3803799     1.879072    4.4091838 
 9145000   0.97012797 2.0623806e-06   0.44511411  0.010095159            0   0.43501895     1.447916    1.8930301    2.0355819 
 9150000   0.93791164 -4.2079439e-05   0.48154312 0.0085184452            0   0.47302468    1.3998331    1.8813762   -1.0271546 
 9155000   0.99420927 -2.8531284e-05   0.41173398  0.026234734            0   0.38549925    1.4838573    1.8955913 -0.076491017 
 9160000   0.98491528 -3.8678284e-06   0.41915914   0.02266646            0   0.39649268    1.4699861    1.8891452    1.6218009 
 9165000   0.95457585 4.0989579e-05     0.459045 0.0071373154            0   0.45190768    1.4247045    1.8837495    4.7169491 
 9170000   0.93456081 5.882603e-06   0.46912933 0.0073875372            0   0.46174179     1.394832    1.8639613    2.2705669 
 9175000   0.92883851 -3.0433346e-05   0.47036029 0.0090804021            0   0.46127989    1.3862915    1.8566518  -0.24690112 
 9180000   0.92803853 3.7981465e-06   0.45765256  0.025727221            0   0.43192534    1.3850975    1.8427501     2.105278 
 9185000   0.89917762 -2.5811144e-06   0.49231648  0.027254902            0   0.46506158    1.3420226    1.8343391    1.6559325 
 9190000   0.90342739 2.4158405e-05   0.48615122  0.011808162            0   0.47434306    1.3483654    1.8345166    3.5043456 
 9195000   0.91591488 1.2413889e-05   0.46635534  0.011386837            0    0.4549685     1.367003    1.8333583    2.6914063 
 9200000   0.96494564 3.1313233e-05   0.38298011  0.016545118            0   0.36643499    1.4401814    1.8231615    3.9875321 
 9205000   0.88323716 9.4717199e-06   0.49741373   0.03475361            0   0.46266012    1.3182315    1.8156452    2.4703305 
 9210000    0.9334767 4.1934184e-06    0.4241618  0.022084421            0   0.40207738     1.393214    1.8173758    2.1072249 
 9215000   0.94776245 -1.6675908e-05   0.39649543  0.007322289            0   0.38917314    1.4145355    1.8110309    0.6583921 
 9220000   0.93682564 -1.1984949e-05   0.40544098 0.0081975785            0    0.3972434    1.3982123    1.8036533    0.9752536 
 9225000   0.91138083 1.9187467e-05   0.43958145    0.0136018            0   0.42597965    1.3602359    1.7998173     3.126055 
 9230000   0.90630569 -3.0807821e-05   0.45400535  0.014443532            0   0.43956182    1.3526612    1.8066666  -0.32276997 
 9235000   0.90642583 2.556971e-05   0.44618971  0.022888561            0   0.42330114    1.3528406    1.7990303    3.5664086 
 9240000   0.93724964 2.7480386e-05   0.38521608  0.026389982            0    0.3588261    1.3988451    1.7840612    3.6835055 
 9245000   0.91409485 -2.2571262e-05   0.41606363  0.024327391            0   0.39173624    1.3642866    1.7803502   0.22022455 
 9250000   0.89373107 -3.4004454e-05   0.46352222  0.018030664            0   0.44549155    1.3338936    1.7974158  -0.55297204 
 9255000   0.91286131 -4.1543204e-05   0.42904873  0.015871365            0   0.41317737    1.3624455    1.7914942    -1.079972 
 9260000   0.86880455 -3.6649419e-05   0.49333026  0.019957809            0   0.47337245    1.2966908     1.790021  -0.74318682 
 9265000   0.91503361 -4.3508972e-06   0.42118257  0.014267923            0   0.40691464    1.3656877    1.7868702    1.4861362 
 9270000   0.90762222 1.537691e-06   0.41835123  0.021548021            0   0.39680321    1.3546262    1.7729774    1.8792626 
 9275000   0.87546618 1.2628943e-05   0.46695328 0.0095232563            0   0.45743002    1.3066333    1.7735865    2.6464991 
 9280000   0.90680201 4.6220556e-05   0.43311692 0.0079661724            0   0.42515075     1.353402    1.7865189    4.9812838 
 9285000   0.89392999 7.486781e-06   0.45258125  0.012715645            0    0.4398656    1.3341905    1.7867718    2.3042581 
 9290000   0.94235193 1.1539503e-06   0.37802886  0.021044813            0   0.35698405    1.4064603    1.7844891    1.8642502 
 9295000   0.85941592 7.2772539e-06   0.51300883  0.024270213            0   0.48873862    1.2826783    1.7956871    2.2986909 
 9300000    0.9083668 -3.1143596e-05   0.42285175  0.025135899            0   0.39771585    1.3557375    1.7785892  -0.37405618 
 9305000   0.88279673 -1.8365593e-05   0.46980536  0.025258616            0   0.44454675    1.3175741    1.7873795   0.51794967 
 9310000    0.8988368 2.4852049e-07   0.43482515  0.015041945            0    0.4197832    1.3415139    1.7763391    1.7935168 
 9315000   0.88407029 -6.1508895e-05   0.45613171  0.020501864            0   0.43562985    1.3194749    1.7756066   -2.4758882 
 9320000   0.91179315 -2.8270785e-05   0.41626308  0.024861417            0   0.39140166    1.3608513    1.7771144   -0.1769623 
 9325000    0.8836937 3.9311332e-05   0.46660815  0.025959652            0    0.4406485    1.3189128     1.785521    4.5027202 
 9330000   0.86173131 4.9838939e-05   0.48730656  0.019039608            0   0.46826696     1.286134    1.7734406     5.218308 
 9335000   0.89795904 7.2402731e-05   0.42722042  0.017550196            0   0.40967022    1.3402039    1.7674243     6.771901 
 9340000   0.91728409 2.1186826e-05   0.41055185 0.0051861964            0   0.40536565    1.3690465    1.7795983    3.2440317 
 9345000    0.8784122 1.088323e-05   0.47597161  0.010729821            0   0.46524179    1.3110302    1.7870018    2.5392507 
 9350000   0.89390252 3.4502285e-05   0.44375311  0.038740567            0   0.40501254    1.3341495    1.7779026    4.1627006 
 9355000   0.93461171 2.5230547e-05   0.37818591  0.029307471            0   0.34887844     1.394908    1.7730939    3.5170293 
 9360000   0.91144406 2.8282908e-05   0.40713276  0.013782428            0   0.39335033    1.3603303     1.767463    3.7223776 
 9365000   0.91411566 2.0968259e-05   0.40922677  0.008591809            0   0.40063496    1.3643176    1.7735444    3.2228705 
 9370000   0.90353272 8.4062698e-06   0.40443398   0.01980868            0    0.3846253    1.3485226    1.7529566    2.3339979 
 9375000   0.89578602 4.934069e-06   0.40165221  0.027414986            0   0.37423722    1.3369606    1.7386128    2.0796557 
 9380000   0.90149157 -1.1602738e-05    0.4058154  0.020744328            0   0.38507107    1.3454762    1.7512916   0.94931034 
 9385000   0.90388348 -3.2513841e-05   0.40395666  0.014572484            0   0.38938418    1.3490461    1.7530028  -0.49435397 
 9390000   0.86844593 -2.4249613e-05   0.44590857  0.010888119            0   0.43502045    1.2961555    1.7420641   0.06593087 
 9395000   0.86344703 -3.9754005e-05   0.44711993  0.011578387            0   0.43554155    1.2886947    1.7358146   -1.0119822 
 9400000   0.87570124 -1.935596e-05   0.43168447  0.016994372            0    0.4146901    1.3069841    1.7386686   0.40078462 
 9405000   0.85770707 1.600954e-05   0.44788953  0.020680048            0   0.42720948    1.2801278    1.7280173    2.8345967 
 9410000   0.86141752 -1.5723023e-05   0.46275671  0.033555772            0   0.42920094    1.2856657    1.7484224   0.66164703 
 9415000   0.88767638 4.8541803e-06   0.42616475  0.030161876            0   0.39600287     1.324857    1.7510217    2.0865427 
 9420000   0.86128633 1.6194928e-06   0.45433143  0.033254943            0   0.42107649    1.2854698    1.7398013    1.8517406 
 9425000   0.85592422 -2.0513672e-05   0.45358822   0.01976917            0   0.43381905    1.2774669    1.7310551   0.31315009 
 9430000   0.86652897 -2.217134e-05   0.43563253  0.014087825            0   0.42154471    1.2932945     1.728927   0.19644399 
 9435000   0.88096426 2.0372271e-05   0.42089337  0.016141429            0   0.40475194    1.3148392    1.7357325    3.1438639 
 9440000   0.82122581 -1.7736718e-05   0.53312565  0.023289761            0   0.50983589    1.2256795    1.7588052   0.53284322 
 9445000   0.83786229 8.1813109e-06   0.50219286   0.03216579            0   0.47002707    1.2505095    1.7527023    2.3181945 
 9450000   0.91240539 -7.3596288e-06   0.37671298  0.014297169            0   0.36241581     1.361765     1.738478    1.2297805 
 9455000   0.87869809 -1.172613e-05   0.43017165  0.017428949            0    0.4127427    1.3114569    1.7416285   0.93111845 
 9460000    0.8535389 -3.0845938e-06   0.46595111 0.0065445527            0   0.45940656    1.2739068    1.7398579    1.5266508 
 9465000   0.87558546 -2.096009e-05   0.43405817 0.0082125508            0   0.42584562    1.3068113    1.7408695   0.29210803 
 9470000   0.88739838 9.3238948e-06   0.43779136  0.014904597            0   0.42288676    1.3244421    1.7622334    2.4067011 
 9475000    0.8643984 2.6726244e-06   0.49523022  0.019621515            0    0.4756087    1.2901146    1.7853448    1.9700766 
 9480000   0.86524346 4.2713618e-05   0.49464365  0.030801176            0   0.46384248    1.2913759    1.7860195    4.7383848 
 9485000   0.83085575 1.9630098e-05   0.52762437  0.030726892            0   0.49689747    1.2400522    1.7676766    3.1245089 
 9490000   0.86214015 1.168773e-05   0.48433491  0.022696928            0   0.46163798    1.2867442    1.7710791     2.578935 
 9495000   0.88044045 -1.4884229e-05   0.45451311  0.025565113            0     0.428948    1.3140574    1.7685705   0.73977258 
 9500000   0.88848892 -1.4463409e-05   0.43617621  0.021040817            0   0.41513539    1.3260697    1.7622459   0.76253505 
 9505000   0.88566838 -6.913938e-07   0.46114986  0.027302456            0    0.4338474    1.3218601    1.7830099    1.7352208 
 9510000   0.90256736 -2.2729763e-05   0.44077069  0.019116275            0   0.42165442    1.3470818    1.7878525   0.21677122 
 9515000   0.86342438 -8.5636102e-07   0.49405238  0.048625605            0   0.44542677    1.2886609    1.7827133    1.7235216 
 9520000   0.89024228 -6.136196e-05   0.44604204  0.021931616            0   0.42411042    1.3286866    1.7747286     -2.46661 
 9525000   0.86772418 -7.7014696e-05   0.48797077   0.01878468            0   0.46918609    1.2950783    1.7830491   -3.5402067 
 9530000   0.90592812 2.0095792e-05   0.44225478   0.01229582            0   0.42995896    1.3520977    1.7943525    3.1833737 
 9535000   0.90227239 3.7619555e-05   0.47373325  0.010089114            0   0.46364414    1.3466415    1.8203748    4.4206384 
 9540000   0.85967853 3.5322281e-05   0.52315957  0.028381807            0   0.49477777    1.2830702    1.8062298    4.2477058 
 9545000    0.9220231 -1.449416e-05   0.45528192   0.01836546            0   0.43691646    1.3761195    1.8314014   0.82956508 
 9550000   0.91990557 -1.6651183e-05   0.46628668 0.0083739895            0   0.45791269    1.3729591    1.8392457   0.68831596 
 9555000   0.92425623 1.6430344e-05   0.46080804  0.014957393            0   0.44585065    1.3794524    1.8402605    2.9759259 
 9560000   0.95101079 5.6024481e-05   0.45757849  0.015959461            0   0.44161903    1.4193836    1.8769621    5.7493742 
 9565000   0.97065215 5.5788481e-05   0.46030176 0.0091869347            0   0.45111483    1.4486983    1.9090001    5.7650999 
 9570000   0.92104151 5.4583285e-06   0.53453215     0.014992            0   0.51954015    1.3746545    1.9091866    2.2864663 
 9575000    0.9788117 1.1766652e-05   0.44909665  0.014559608            0   0.43453704    1.4608765    1.9099731    2.7232841 
 9580000   0.97108781  2.02112e-06    0.4554536  0.017849891            0   0.43760371    1.4493486    1.9048022     2.044502 
 9585000   0.96459898 -2.5875797e-05   0.46946257 0.0022478307            0   0.46721474     1.439664    1.9091265   0.12059148 
 9590000   0.94998706 3.1813684e-06   0.48053588 0.0054350741            0   0.47510081    1.4178557    1.8983916    2.1182877 
 9595000    1.0196911 3.7139426e-05   0.36261941 0.0048431931            0   0.35777622    1.5218889    1.8845083    4.4515855 
 9600000   0.94014712 1.3973272e-05   0.46135572 0.0019124951            0   0.45944323    1.4031696    1.8645253    2.8303579 
 9605000   0.91149296 -3.6716044e-05   0.52146292 0.0086744482            0   0.51278847    1.3604032    1.8818662  -0.65594678 
 9610000   0.95339393 -1.8265531e-05    0.4721309  0.024351987            0   0.44777891    1.4229404    1.8950713   0.63255782 
 9615000   0.95826356 6.6700375e-06   0.46215032  0.013739135            0   0.44841118    1.4302084    1.8923587    2.3533917 
 9620000   0.92933944 -2.8041172e-05   0.50071997  0.011248479            0   0.48947149    1.3870391    1.8877591 -0.050446705 
 9625000   0.91414133 -9.8063826e-06   0.52635238  0.016117901            0   0.51023448    1.3643559    1.8907083    1.2128912 
 9630000   0.95691274 1.6860081e-05   0.45291523  0.023946407            0   0.42896883    1.4281923    1.8811075    3.0464763 
 9635000   0.94746455 4.4466765e-05   0.46454474  0.022110321            0   0.44243442    1.4140908    1.8786356    4.9521784 
 9640000   0.91620013 2.6816982e-05   0.50592466  0.016324784            0   0.48959987    1.3674287    1.8733533    3.7269431 
 9645000   0.95477082 -1.686454e-05   0.46771814  0.019566435            0   0.44815171    1.4249954    1.8927136   0.72703655 
 9650000   0.96229126 8.8543424e-06   0.46431684  0.020702452            0   0.44361438    1.4362197    1.9005365    2.5125487 
 9655000   0.91452556 1.6492461e-05    0.5479227  0.041378329            0   0.50654437    1.3649294    1.9128521     3.052811 
 9660000   0.89914912 4.850168e-05   0.57243702  0.077121349            0   0.49531567    1.3419801    1.9144171    5.2668532 
 9665000   0.91371117 -1.2812615e-05   0.55224543  0.027393243            0   0.52485219    1.3637139    1.9159594    1.0303514 
 9670000   0.95921701 -2.0825405e-05   0.48431062  0.028603943            0   0.45570667    1.4316314     1.915942   0.47649001 
 9675000    0.9481524 6.5694706e-05   0.50393188  0.041211781            0    0.4627201    1.4151175    1.9190493    6.4598674 
 9680000    0.9649646 4.8276608e-05   0.46935146  0.017567001            0   0.45178446    1.4402097    1.9095611    5.2464403 
 9685000    0.9806432 -2.9004461e-05   0.46237158  0.021724165            0   0.44064741      1.46361    1.9259816 -0.078806823 
 9690000   0.93769495 -3.6302192e-06   0.50764876  0.050783761            0     0.456865    1.3995097    1.9071585    1.6562377 
 9695000   0.91520165 2.4446983e-05   0.53434216  0.011129254            0   0.52321291    1.3659385    1.9002806    3.5900561 
 9700000   0.93343226 -2.0362453e-06   0.53233523  0.018185202            0   0.51415003    1.3931476    1.9254829    1.7847376 
 9705000   0.93783055 -4.2838562e-05   0.52578987  0.024844473            0    0.5009454    1.3997121     1.925502   -1.0354995 
 9710000   0.89667771 -2.2694179e-05   0.57965297  0.010313783            0   0.56933919    1.3382915    1.9179444   0.34932282 
 9715000   0.96756195 -1.1041057e-05   0.45773355  0.011541078            0   0.44619248    1.4440862    1.9018198    1.1386619 
 9720000    0.9533922 -2.5260842e-06   0.47747755  0.016123106            0   0.46135445    1.4229379    1.9004154    1.7258125 
 9725000   0.92275631 3.6715231e-05    0.5280713   0.01379318            0   0.51427812    1.3772138    1.9052851    4.4430419 
 9730000   0.96666056 4.0954405e-05   0.46561365  0.019595255            0   0.44601839    1.4427409    1.9083545     4.739123 
 9735000   0.92336529 -3.6836952e-05     0.516386  0.016704964            0   0.49968104    1.3781227    1.8945087  -0.65166146 
 9740000   0.94446061 -9.7701348e-06   0.49865128  0.021840171            0   0.47681111    1.4096075    1.9082587     1.232947 
 9745000   0.97267948 7.4018862e-05   0.45889584  0.012177023            0   0.44671881    1.4517241      1.91062    7.0268037 
 9750000   0.91664015 5.3919755e-06   0.53501535  0.010933784            0   0.52408157    1.3680854    1.9031008    2.2757941 
 9755000   0.90977135 1.3568602e-05   0.53888824  0.011307855            0   0.52758038    1.3578337     1.896722    2.8345838 
 9760000   0.95688506 -2.2535415e-05   0.47535769 0.0040998807            0   0.47125781    1.4281509    1.9035086   0.34586074 
 9765000   0.97803853 -4.6399735e-05   0.46577697 0.0062250137            0   0.45955196    1.4597225    1.9254995   -1.2816502 
 9770000   0.95280225 -2.5729894e-05    0.5006858  0.017438171            0   0.48324763    1.4220574    1.9227432   0.14429287 
 9775000   0.93797102 -8.9845117e-06   0.50363559   0.02048015            0   0.48315544    1.3999217    1.9035573    1.2825479 
 9780000   0.95274794 1.5818642e-05   0.48868702   0.03038664            0   0.45830038    1.4219763    1.9106633    3.0040479 
 9785000    0.9749123 -4.9069835e-05   0.46137826  0.016604004            0   0.44477426    1.4550566    1.9164349   -1.4752721 
 9790000   0.92158255 -7.2064716e-05   0.54149147  0.014896774            0    0.5265947     1.375462    1.9169534   -3.0641597 
 9795000   0.95984617 -2.1011844e-05   0.48151748 0.0062501381            0   0.47526734    1.4325704    1.9140879   0.46174925 
 9800000   0.98124276 2.5797454e-05   0.47675441  0.001247132            0   0.47550728    1.4645048    1.9412592    3.7243793 
 9805000   0.96433127 2.290636e-05   0.49370347 0.0083472564            0   0.48535621    1.4392644    1.9329679    3.5162555 
 9810000   0.97923763 1.2343619e-05   0.46760359    0.0258768            0   0.44172679    1.4615122    1.9291158    2.7823067 
 9815000   0.98102343 -1.0924986e-05   0.46979752  0.014736719            0    0.4550608    1.4641775     1.933975      1.17884 
 9820000   0.92873227 2.0430961e-05   0.53298426  0.023817379            0   0.50916688    1.3861329    1.9191172    3.3313052 
 9825000   0.96131909 2.1803959e-05    0.5009901  0.020262337            0   0.48072776    1.4347687    1.9357588    3.4428485 
 9830000   0.95771522 -4.2404351e-05   0.51853847 0.0093046689            0    0.5092338      1.42939    1.9479284  -0.98306034 
 9835000   0.97849069 -6.993211e-06   0.49586915   0.02075273            0   0.47511642    1.4603974    1.9562665    1.4728958 
 9840000    1.0018358 3.8729269e-05   0.45886735   0.01814091            0   0.44072644    1.4952399    1.9541072    4.6310743 
 9845000   0.97909421 9.8393175e-06   0.47775631  0.023269449            0   0.45448686    1.4612981    1.9390544     2.619148 
 9850000   0.95855973 3.2617486e-05   0.50565625  0.017192896            0   0.48846335    1.4306504    1.9363066    4.1908273 
 9855000   0.96450534 1.3464463e-05   0.46134571  0.012450751            0   0.44889496    1.4395242    1.9008699    2.8315336 
 9860000   0.95739278 -2.5553303e-05   0.48319538  0.015790965            0   0.46740442    1.4289087    1.9121041   0.14585981 
 9865000   0.94740042 -1.9087382e-05    0.5092742  0.010790374            0   0.49848383    1.4139951    1.9232693    0.6039495 
 9870000    1.0192225 -8.9083331e-06   0.39807088  0.011473569            0   0.38659731    1.5211896    1.9192605    1.3035165 
 9875000   0.97476321 -3.7703102e-05   0.47567145 0.0073181608            0   0.46835329    1.4548341    1.9305055  -0.67553286 
 9880000   0.96353267 7.4853134e-05   0.50234014  0.010621595            0   0.49171854    1.4380725    1.9404126    7.1142613 
 9885000   0.97863059 3.7927387e-05   0.47455682 0.0079624501            0   0.46659437    1.4606062     1.935163    4.5567039 
 9890000   0.92388698 -8.9504388e-05   0.53384464 0.0074551976            0   0.52638944    1.3789013     1.912746   -4.2737973 
 9895000   0.95822163 1.0752104e-05   0.48885333   0.01531444            0   0.47353889    1.4301458    1.9189991    2.6621846 
 9900000   0.99378859 3.8685525e-05   0.45849265   0.01757311            0   0.44091954    1.4832295    1.9417221    4.6156656 
 9905000   0.94334463 -3.690923e-05   0.50868213  0.023780278            0   0.48490185    1.4079419     1.916624  -0.63454196 
 9910000   0.95117998 -6.6409816e-05   0.48058216  0.016175006            0   0.46440715    1.4196361    1.9002183   -2.6900282 
 9915000   0.93123016 -5.2604698e-06   0.50868364  0.017078862            0   0.49160478     1.389861    1.8985447     1.534941 
 9920000   0.93636847 -1.3769741e-05   0.51000667  0.017399574            0   0.49260709    1.3975299    1.9075366    0.9557721 
 9925000   0.99813175 2.9093257e-05   0.42572724  0.012072694            0   0.41365454    1.4897116    1.9154389    3.9263648 
 9930000    0.9872832 5.9648664e-05   0.43937443 0.0073498943            0   0.43202454    1.4735202    1.9128946    6.0358102 
 9935000   0.90975078 8.7677295e-06    0.5467423 0.0060250108            0   0.54071729     1.357803    1.9045453    2.5105708 
 9940000   0.91447421 1.0800231e-05   0.52662866  0.019548099            0   0.50708056    1.3648528    1.8914814    2.6379934 
 9945000   0.97731442 4.1447616e-05   0.45098399  0.031123618            0   0.41986037    1.4586418    1.9096258     4.774485 
 9950000   0.97622364 -8.6944858e-06   0.45395186 0.0062419051            0   0.44770996    1.4570138    1.9109656    1.3100028 
 9955000   0.89247585 -8.0859104e-05   0.58827959 0.0067979732            0   0.58148161    1.3320202    1.9202998   -3.6686815 
 9960000   0.94791324 -2.9605564e-05   0.49888598  0.024205579            0    0.4746804    1.4147605    1.9136465  -0.13269005 
 9965000    0.9703141 1.9271707e-05   0.47475617   0.04180983            0   0.43294634    1.4481938      1.92295    3.2550103 
 9970000   0.92879643 4.6209595e-05   0.55111605  0.026244907            0   0.52487115    1.3862287    1.9373447     5.131352 
 9975000   0.98289325 1.2800823e-05    0.4854825  0.010879233            0   0.47460327    1.4669682    1.9524507    2.8372436 
 9980000   0.97618186 -5.8386886e-05   0.50002444 0.0096621002            0   0.49036234    1.4569514    1.9569759   -2.0787257 
 9985000    1.0093802 -2.7769087e-05   0.43625484   0.02256452            0   0.41369032    1.5064999    1.9427547   0.02335545 
 9990000   0.99961537 2.7697346e-05   0.45762031  0.026835995            0   0.43078432    1.4919259    1.9495463    3.8639868 
 9995000   0.94022138 1.7510259e-05   0.56177357   0.02247151            0   0.53930206    1.4032804     1.965054    3.1753631 
10000000   0.97394003 2.4795173e-05   0.49162181   0.01528781            0     0.476334    1.4536055    1.9452273    3.6590697 
10005000   0.98588531 -3.4116618e-05   0.47210507  0.017736156            0   0.45436892    1.4714338    1.9435389  -0.41460172 
10010000   0.97136136 -7.8514349e-05   0.49760633   0.03161574            0   0.46599059    1.4497568    1.9473632   -3.4795486 
10015000   0.94069535 -5.5148945e-05   0.53033722  0.037875603            0   0.49246162    1.4039878     1.934325   -1.8775701 
10020000   0.97464772 -9.1783716e-05   0.47311245  0.031085266            0   0.44202719    1.4546617    1.9277742   -4.4163162 
10025000   0.96837742 3.959006e-05   0.47900204  0.012356207            0   0.46664584    1.4453033    1.9243053    4.6607703 
10030000   0.97582348 6.9183502e-05   0.48015586  0.017901492            0   0.46225437    1.4564165    1.9365724     6.718536 
10035000   0.97844817 -4.5245148e-05   0.48799614  0.019096335            0   0.46889981    1.4603339      1.94833   -1.1790146 
10040000   0.99528661 -2.7556463e-05   0.46674445  0.016168128            0   0.45057633    1.4854653    1.9522097  0.047506983 
10045000   0.97102618 -4.3599918e-06   0.49957305  0.016025838            0   0.48354721    1.4492566    1.9488296     1.647467 
10050000   0.98302787 1.5006514e-05   0.47957223  0.010687298            0   0.46888493    1.4671691    1.9467413    2.9839916 
10055000   0.97463554 5.3416311e-06   0.49312383  0.012902334            0   0.48022149    1.4546435    1.9477674    2.3169809 
10060000    0.9568798 -1.0295389e-05   0.51706651  0.023353374            0   0.49371313    1.4281431    1.9452096    1.2335924 
10065000   0.95950171 -1.9203765e-05   0.50809537  0.016712632            0   0.49138274    1.4320563    1.9401517   0.61278746 
10070000   0.91286885 7.2985226e-05   0.58462893  0.028277894            0   0.55635104    1.3624568    1.9470857    6.9918245 
10075000   0.99987136 1.3890958e-05   0.46670246  0.012297384            0   0.45440507     1.492308    1.9590105    2.9191535 
10080000   0.95398888 -7.2092255e-05   0.52656659  0.019614052            0   0.50695254    1.4238284     1.950395   -3.0326216 
10085000   0.96947151 1.0431909e-05   0.50218323  0.025503787            0   0.47667944    1.4469362    1.9491195     2.670173 
10090000   0.97229876 4.437241e-05   0.51680298  0.033197614            0   0.48360536    1.4511559    1.9679589    5.0349798 
10095000    1.0359288 2.3928707e-05   0.41848016  0.015240385            0   0.40323977    1.5461238     1.964604    3.6185561 
10100000   0.97056374 -2.8721749e-05   0.52046648 0.0097571581            0   0.51070932    1.4485664    1.9690329 -0.016214438 
10105000   0.99128939 -5.1144586e-05    0.5036307    0.0316068            0    0.4720239    1.4794994    1.9831301   -1.5519837 
10110000    0.9384897 -4.9883232e-05   0.57540532  0.021222262            0   0.55418306    1.4006959    1.9761012   -1.4718278 
10115000     1.001355 -1.9676507e-05   0.48144866  0.011671315            0   0.46977735    1.4945223     1.975971   0.61593085 
10120000   0.96463398 -3.6972436e-06   0.52091269  0.025658204            0   0.49525448    1.4397162    1.9606289    1.7050754 
10125000    0.9536289 2.7210893e-05   0.51679536  0.013177337            0   0.50361803    1.4232911    1.9400865    3.8209034 
10130000   0.93772079 3.3763502e-05   0.55302983  0.021852653            0   0.53117718    1.3995483    1.9525781    4.2863114 
10135000   0.99335287 -7.125742e-06   0.48469815  0.030765963            0   0.45393219    1.4825792    1.9672773     1.474746 
10140000   0.97484968 -1.0864803e-05   0.51908124  0.038150172            0   0.48093106    1.4549631    1.9740444    1.2230692 
10145000   0.95095919 1.1945934e-05    0.5641104  0.026325226            0   0.53778517    1.4193066     1.983417      2.80912 
10150000     1.033721 4.4755392e-05   0.45267966  0.028376158            0    0.4243035    1.5428285    1.9955082    5.0890009 
10155000   0.99707993 -3.3575113e-05   0.51230755  0.024476583            0   0.48783097    1.4881418    2.0004493  -0.32026247 
10160000   0.99839559 -7.5721444e-05    0.5198205  0.022270889            0   0.49754961    1.4901054    2.0099259   -3.2239403 
10165000    1.0237053 -4.537322e-05     0.476729 0.0075160604            0   0.46921294    1.5278801    2.0046091   -1.1315878 
10170000    1.0049037 -2.3393718e-06   0.50641422 0.0047560141            0    0.5016582    1.4998188     2.006233    1.8445357 
10175000    1.0244121 6.3709988e-05   0.47523346  0.017253508            0   0.45797995     1.528935    2.0041685    6.4078029 
10180000   0.99674855 4.7305445e-05   0.52162732  0.030656109            0   0.49097121    1.4876472    2.0092745    5.2790269 
10185000   0.99947471 5.4427425e-05   0.53288714   0.03222546            0   0.50066168     1.491716    2.0246032    5.7866268 
10190000   0.98890837 5.4445522e-05   0.55784513  0.018182198            0   0.53966293    1.4759457    2.0337909    5.7970653 
10195000     1.025603 4.0454898e-06   0.50011424    0.0263883            0   0.47372594    1.5307125    2.0308267     2.310451 
10200000   0.96911976 -2.6138132e-05   0.59087779  0.056929383            0    0.5339484    1.4464112     2.037289   0.23062136 
10205000    1.0270379 3.1207517e-06   0.51964756  0.028326279            0   0.49132128    1.5328541    2.0525017     2.268208 
10210000    1.0180018 -1.6679689e-05    0.5294113  0.011081403            0    0.5183299    1.5193677     2.048779   0.89587894 
10215000    1.0027876 -4.8472199e-05    0.5778164 0.0094433047            0   0.56837309    1.4966605    2.0744769   -1.2759215 
10220000    1.0210803 -8.7567837e-06     0.543634 0.0082740816            0   0.53535992    1.5239623    2.0675963    1.4623274 
10225000    1.0451179 -4.7543654e-05   0.50315632  0.026191817            0   0.47696451    1.5598385    2.0629949   -1.2232225 
10230000    1.0450095 -4.0306794e-05   0.51915124  0.032572234            0     0.486579    1.5596767    2.0788279  -0.70717771 
10235000     1.002595 1.597618e-05    0.5926138 0.0096870971            0    0.5829267     1.496373    2.0889868    3.1932604 
10240000    1.0921063 4.2066254e-05   0.45756652  0.013257536            0   0.44430898    1.6299686    2.0875352    4.9951547 
10245000    1.0254857 4.3820519e-05   0.56105728  0.022549966            0   0.53850732    1.5305374    2.0915947    5.1204689 
10250000    1.0284233 6.5326397e-05   0.55866703  0.035195345            0   0.52347168    1.5349218    2.0935888    6.6089494 
10255000    0.9986643 1.4656903e-05   0.59924279  0.041504552            0   0.55773824    1.4905065    2.0897493    3.1028344 
10260000    1.0475286 2.0344126e-05   0.53829572  0.032930344            0   0.50536538    1.5634364    2.1017322    3.5079182 
10265000    1.0752705 5.4947032e-05   0.50878765  0.012672867            0   0.49611478    1.6048411    2.1136288    5.9115677 
10270000     1.035837 -4.6015283e-05   0.56603412 0.0080377008            0   0.55799642    1.5459867    2.1120208   -1.0685556 
10275000    1.0383381 -5.4607415e-05   0.55712286 0.0031349347            0   0.55398793    1.5497195    2.1068424   -1.6676221 
10280000    1.0945386 5.1286967e-05   0.51151971 0.0072901028            0    0.5042296    1.6335989    2.1451186    5.6900738 
10285000    1.0624092 5.3034428e-05   0.56113374  0.018329577            0   0.54280416    1.5856457    2.1467794    5.8125191 
10290000    0.9939073 4.086867e-06    0.6634017  0.016649994            0    0.6467517    1.4834066    2.1468083    2.4292926 
10295000    1.0918461 -3.941962e-05   0.53539338  0.015200518            0   0.52019286    1.6295803    2.1649737  -0.55971045 
10300000    1.0362652 -2.4112669e-05   0.62184487  0.026182438            0   0.59566244    1.5466258    2.1684707     0.501803 
10305000    1.1232346 3.0255821e-05   0.51316359  0.037127522            0   0.47603607    1.6764276    2.1895912    4.2808735 
10310000    1.0900333 -3.2439801e-05   0.55776132  0.018356884            0   0.53940444    1.6268747     2.184636 -0.057603037 
10315000    1.0798227 2.0608662e-05    0.5678735  0.012802785            0   0.55507072    1.6116354    2.1795089    3.6039797 
10320000    1.0677986 5.6204459e-05   0.57513068  0.011887255            0   0.56324343    1.5936894    2.1688201    6.0536723 
10325000    1.0075259 -1.0858099e-05   0.64916356 0.0083821369            0   0.64078142    1.5037324     2.152896    1.4023842 
10330000    1.0573988 4.3479768e-05   0.56711366  0.011889589            0   0.55522407    1.5781677    2.1452813    5.1506029 
10335000     1.064542 2.3150355e-05   0.54807079  0.014543355            0   0.53352744    1.5888289    2.1368997    3.7370523 
10340000    1.0394908 -2.719217e-05   0.58717708  0.010647272            0    0.5765298      1.55144     2.138617   0.25909423 
10345000    1.0103494 3.7323984e-05   0.61651385  0.014028146            0   0.60248571    1.5079464    2.1244603    4.7042941 
10350000    1.0508805 -3.8999186e-06   0.56814254   0.01892179            0   0.54922075    1.5684391    2.1365817    1.8670193 
10355000    0.9817798 -9.7991474e-06     0.685203  0.030392362            0   0.65481064    1.4653063    2.1505093    1.4731923 
10360000    1.0467763 1.8769451e-06   0.59149253  0.026426287            0   0.56506624    1.5623136    2.1538061    2.2835406 
10365000    1.0887557 -3.7967047e-05   0.51862711  0.020563563            0   0.49806354    1.6249679     2.143595  -0.48068727 
10370000    1.0157238 -7.5119229e-06   0.61566095  0.015650218            0   0.60001073    1.5159678    2.1316287    1.6124046 
10375000    1.0143656 -2.3686519e-05   0.61224624  0.026870381            0   0.58537586    1.5139407     2.126187   0.48897474 
10380000    1.0547765 -4.5975273e-06   0.53424718  0.038073106            0   0.49617408    1.5742539    2.1085011      1.79072 
10385000    1.0079271 -1.5523517e-05    0.5929263  0.032177985            0   0.56074831    1.5043312    2.0972575     1.024272 
10390000    1.0206496 -1.9536801e-05   0.57861783  0.017981152            0   0.56063668    1.5233195    2.1019373    0.7515536 
10395000    1.0209306 1.0634504e-05   0.58668967   0.01728227            0    0.5694074    1.5237389    2.1104285    2.8454854 
10400000   0.99841981 -4.1713162e-05   0.62035968  0.015143318            0   0.60521636    1.4901416    2.1105012  -0.77271252 
10405000    1.0586434 -2.8225524e-07   0.54319623  0.036551754            0   0.50664447    1.5800252    2.1232214     2.103712 
10410000    1.0073676 3.1717783e-05   0.62713785   0.02836073            0   0.59877712    1.5034962    2.1306341    4.3229673 
10415000    1.0731467 4.0441412e-05   0.53658428  0.021041474            0   0.51554281    1.6016715    2.1382558    4.9335662 
10420000    1.0613084 3.5122273e-05   0.55079572  0.019588501            0   0.53120721    1.5840027    2.1347984      4.56245 
10425000     1.063756 1.1944198e-05   0.55701572  0.030834298            0   0.52618142    1.5876559    2.1446716    2.9702546 
10430000   0.99455776 3.7465151e-06   0.65104782  0.016757557            0   0.63429026    1.4843775    2.1354253    2.3943844 
10435000     1.085749 -6.3681069e-06   0.51182927  0.010129161            0   0.50170011    1.6204804    2.1323097    1.6921462 
10440000    1.0020502 2.1285834e-05   0.59945437 0.0059930356            0   0.59346133    1.4955599    2.0950142    3.5662911 
10445000    1.0250078 4.5213601e-05   0.57149409  0.013483492            0    0.5580106    1.5298242    2.1013183    5.2264824 
10450000    1.0170109 -2.2595143e-05   0.57461221  0.008422006            0    0.5661902    1.5178888     2.092501   0.53072471 
10455000    1.0013835 -2.9203098e-05    0.6020529  0.010508563            0   0.59154434    1.4945649    2.0966178  0.078099608 
10460000    1.0210221 6.1637733e-06   0.55165287  0.020784539            0   0.53086833    1.5238755    2.0755284    2.5015684 
10465000    1.0516572 2.1397966e-05   0.51751426  0.028118015            0   0.48939625    1.5695984    2.0871126    3.5661401 
10470000    1.0135762 1.1958033e-05   0.57883721   0.01441712            0   0.56442009    1.5127624    2.0915996    2.9181389 
10475000    1.0125466 -3.134259e-05     0.579054  0.012383406            0   0.56667059    1.5112258    2.0902798 -0.076120083 
10480000    1.0019137 -4.8788961e-05   0.60626661  0.021965773            0   0.58430084    1.4953562    2.1016228   -1.2706702 
10485000    1.0326649 -7.117471e-06   0.56489064 0.0056964352            0   0.55919421    1.5412523     2.106143    1.6141834 
10490000    1.0292546 8.6230574e-06   0.55398356 0.0028967934            0   0.55108677    1.5361625    2.0901461    2.6861718 
10495000    1.0657231 -8.5955186e-06   0.53208849  0.010341029            0   0.52174746    1.5905917    2.1226802     1.528558 
10500000    1.0129167 -7.9577508e-06   0.61292944  0.025212373            0   0.58771707    1.5117782    2.1247076    1.5746679 
10505000    1.0544126 1.0523921e-05   0.56270229 0.0047315179            0   0.55797077    1.5737108    2.1364131    2.8638265 
10510000    1.0668948 -3.7267291e-06   0.53324894 0.0014748571            0   0.53177408    1.5923405    2.1255894    1.8679979 
10515000    1.0462042 -1.6314616e-05   0.55906539  0.015735797            0   0.54332959    1.5614598    2.1205252   0.99285893 
10520000    1.0197238 1.3210381e-05   0.58665951  0.024931148            0   0.56172836    1.5219378    2.1085973    3.0216989 
10525000    1.0438729 5.3419111e-05    0.5583594  0.024550636            0   0.53380876    1.5579803    2.1163397    5.8086686 
10530000    1.0470643 -5.3258021e-06   0.55474606  0.013486032            0   0.54126003    1.5627435    2.1174896    1.7493702 
10535000    1.0314775 -1.0580455e-05   0.59101016 0.0074996345            0   0.58351052    1.5394802    2.1304903    1.3991693 
10540000    1.0193772 -4.6257917e-06   0.60497304  0.016065522            0   0.58890752    1.5214205    2.1263935    1.8066588 
10545000    1.1105363 -1.416435e-05   0.49728559  0.018462156            0   0.47882343    1.6574755    2.1547611    1.1757212 
10550000    1.0542139 -2.5157659e-05   0.57338211  0.020118699            0   0.55326341    1.5734143    2.1467964   0.40789906 
10555000    1.0497599 5.5423082e-05   0.57039163  0.013972076            0   0.55641955    1.5667667    2.1371583    5.9680018 
10560000    1.0992103 7.0033985e-05   0.47454981 0.0073880468            0   0.46716176    1.6405714    2.1151212    6.9558703 
10565000    1.0625023 5.3670735e-05   0.52489997  0.006637351            0   0.51826262    1.5857847    2.1106847    5.8204058 
10570000    1.0179691 -2.3692357e-05   0.60914062  0.012771701            0   0.59636892    1.5193189    2.1284596   0.49084383 
10575000    1.0871736 3.1101904e-05    0.5241531  0.012375829            0   0.51177727    1.6226066    2.1467597    4.2965233 
10580000    1.0095471 4.2781037e-05   0.63211117 0.0097258616            0    0.6223853    1.5067491    2.1388602    5.0958855 
10585000    1.0519046 -6.9879426e-05    0.5802387 0.0060843409            0   0.57415436    1.5699676    2.1502063   -2.6798596 
10590000    1.1209563 9.7137619e-06   0.47299996  0.028589734            0   0.44441023    1.6730273    2.1460273    2.8174425 
10595000    1.0548136 1.9923947e-05   0.61147621  0.035293885            0   0.57618232    1.5743093    2.1857855    3.5629288 
10600000    1.0831114 -2.3491042e-05   0.56576871  0.016805836            0   0.54896287    1.6165437    2.1823125   0.55861163 
10605000    1.1374521 -2.1271465e-05   0.48172145  0.008786669            0   0.47293478    1.6976473    2.1793688   0.70908512 
10610000    1.1210446 -1.1997227e-05   0.51385478 0.0066446531            0   0.50721013     1.673159    2.1870138    1.3577655 
10615000    1.0734194 5.3548896e-05   0.58308059  0.014424231            0   0.56865636    1.6020784     2.185159    5.8864587 
10620000    1.0841329 1.5306302e-05    0.5558349  0.047582206            0   0.50825269    1.6180684    2.1739033    3.2318749 
10625000    1.0681907 -6.6985927e-06    0.5830854  0.045262125            0   0.53782328    1.5942746      2.17736    1.7143532 
10630000     1.080835 -3.809678e-05    0.5711912  0.025674299            0    0.5455169    1.6131463    2.1843375  -0.44891199 
10635000     1.081231 -4.056145e-05   0.55059459  0.015130167            0   0.53546443    1.6137372    2.1643318   -0.6392756 
10640000    1.1084507 5.1640709e-05   0.51938611  0.013469836            0   0.50591627    1.6543627    2.1737488    5.7431546 
10645000    1.1359256 -1.1672411e-08   0.47985854  0.017673749            0    0.4621848    1.6953689    2.1752275    2.1744207 
10650000    1.0510552 -3.2744068e-05   0.58673209   0.03134038            0   0.55539171    1.5686998    2.1554319  -0.10783807 
10655000    1.0815782 -7.3549651e-06   0.54053446  0.018566059            0    0.5219684    1.6142554    2.1547899    1.6464147 
10660000    1.1157368 2.0409363e-05   0.51314355  0.014731077            0   0.49841247    1.6652371    2.1783807    3.5890758 
10665000    1.1232418 -1.3141602e-05   0.51279828  0.024100497            0   0.48869779    1.6764384    2.1892367    1.2808892 
10670000    1.1054537 4.8810321e-06   0.56330742  0.015563282            0   0.54774414    1.6498897    2.2131971    2.5505741 
10675000    1.1077193 -1.0231578e-05   0.57873405   0.00204342            0   0.57669063    1.6532711    2.2320051    1.5247984 
10680000    1.1615681 -3.3772943e-05   0.51539922 0.0019013347            0   0.51349788    1.7336404    2.2490396 -0.085346265 
10685000    1.1851223 -2.4948569e-05   0.46477362  0.015458945            0   0.44931468     1.768795    2.2335686   0.50912353 
10690000     1.105902 3.784733e-05   0.57446803   0.01808799            0   0.55638004    1.6505588    2.2250268    4.8410342 
10695000    1.1240768 2.0376015e-05   0.55536502  0.013914496            0   0.54145052    1.6776846    2.2330496    3.6414397 
10700000    1.1880328 4.8566358e-05   0.45367833   0.00481281            0   0.44886552     1.773139    2.2268174     5.583724 
10705000     1.150421 6.6959281e-06   0.51244793 0.0064106336            0    0.5060373    1.7170034    2.2294513    2.6922739 
10710000    1.1082477 -9.3886595e-06   0.57516887  0.014997968            0    0.5601709    1.6540597    2.2292285    1.5802844 
10715000    1.1069792 -2.5946539e-05   0.56863906  0.022350968            0   0.54628809    1.6521665    2.2208055   0.42738077 
10720000    1.1306152 1.802574e-06   0.51184023  0.012888119            0   0.49895211    1.6874433    2.1992835    2.3238774 
10725000    1.1011383 -3.3374713e-05   0.55695243  0.017823345            0   0.53912909     1.643449    2.2004014  -0.10645877 
10730000    1.0733717 -1.6359039e-05   0.62043827  0.024344645            0   0.59609363    1.6020073    2.2224456    1.0917088 
10735000    1.1199579 2.7789634e-05    0.5463118  0.026849026            0   0.51946278    1.6715371    2.2178489    4.1386684 
10740000    1.1459459 -2.8655001e-05   0.48437815 0.0089542521            0    0.4754239    1.7103243    2.1947024   0.21406873 
10745000    1.1351588 -3.7683157e-05   0.50636148  0.012468463            0   0.49389302    1.6942245     2.200586  -0.40407382 
10750000    1.1120485 -2.3136475e-06   0.52765547   0.02456666            0   0.50308881    1.6597324    2.1873879    2.0274686 
10755000    1.1174947 2.4676974e-05   0.54252696  0.013146491            0   0.52938047    1.6678608    2.2103877    3.9160602 
10760000    1.1137121 -3.6568602e-06   0.53211703  0.015585992            0   0.51653104    1.6622153    2.1943323    1.9415701 
10765000    1.0873091 -4.5492815e-05   0.55127515 0.0073692035            0   0.54390595    1.6228089     2.174084  -0.97037937 
10770000    1.1258695 -2.1040445e-05   0.49205228 0.0068923987            0   0.48515988    1.6803602    2.1724125   0.71809695 
10775000    1.1242992 8.6926419e-06   0.49825952  0.021800006            0   0.47645952    1.6780165    2.1762761    2.7771115 
10780000    1.0846391 2.7966753e-05   0.56031594  0.011461918            0   0.54885402    1.6188238    2.1791398    4.1122017 
10785000     1.092089 1.8481061e-05    0.5285311  0.031348583            0   0.49718252    1.6299428    2.1584739    3.4358848 
10790000    1.0819866 -3.6275147e-06   0.55623816  0.040357233            0   0.51588093    1.6148651    2.1711032    1.9203694 
10795000    1.0675748 1.7096414e-05   0.57828541   0.02145319            0   0.55683222    1.5933554    2.1716408     3.353345 
10800000    1.1137561 1.1178557e-05   0.48247724  0.013329993            0   0.46914725     1.662281    2.1447583    2.9174201 
10805000    1.0233778 -7.7309043e-05   0.60559174  0.019450011            0   0.58614173    1.5273913    2.1329831    -3.210618 
10810000    1.0975142 -8.350838e-06   0.51552427  0.022218557            0   0.49330571      1.63804    2.1535643    1.5763543 
10815000    1.1008851 8.191322e-05   0.51251537  0.037029659            0   0.47548571     1.643071    2.1555864    7.8174281 
10820000    1.0337286 2.8896485e-05   0.59992594   0.02854612            0   0.57137982    1.5428399    2.1427658    4.1400909 
10825000    1.0958351 8.1698006e-06   0.50010348  0.012228605            0   0.48787487    1.6355339    2.1356373     2.700334 
10830000    1.0948968 -4.2898253e-05   0.48996647  0.010186475            0   0.47977999    1.6341335       2.1241   -0.8410273 
10835000    1.0521758 -7.7394005e-06   0.56335615  0.013595103            0   0.54976104    1.5703724    2.1337286    1.5987812 
10840000    1.0751617 2.6763948e-05   0.52310585  0.013717256            0   0.50938859    1.6046788    2.1277846    3.9777087 
10845000    1.0763971 -8.4238379e-06   0.52252947  0.019786833            0   0.50274264    1.6065227    2.1290521    1.5467965 
10850000    1.0456409 7.4500463e-05   0.55941256  0.026474025            0   0.53293853     1.560619    2.1200316    7.2695036 
10855000     1.039203 2.3806441e-05   0.58858771  0.028489119            0   0.56009859    1.5510104    2.1395982    3.7850994 
10860000    1.0654253 -1.868506e-05   0.55131845  0.044091695            0   0.50722676    1.5901473    2.1414658   0.84995441 
10865000     1.067867 4.0211784e-05   0.55018399  0.023075403            0   0.52710858    1.5937915    2.1439755    4.9234141 
10870000    1.0995599 6.2692634e-05   0.48314714  0.014728101            0   0.46841904    1.6410931    2.1242402    6.4575551 
10875000    1.0444441 9.9491292e-06   0.58378521  0.012046445            0   0.57173876    1.5588327     2.142618    2.8303018 
10880000    1.0624948 2.6939148e-05   0.54697029  0.012150098            0   0.53482019    1.5857735    2.1327438    3.9947777 
10885000    1.0498795 2.3319769e-05   0.56173493  0.032064755            0   0.52967017    1.5669451      2.12868    3.7405424 
10890000     1.082872 1.3154501e-05   0.50566492  0.018902534            0   0.48676239    1.6161864    2.1218513    3.0310905 
10895000    1.0743277 9.0743446e-06    0.5357597 0.0093833023            0    0.5263764    1.6034341    2.1391938    2.7664125 
10900000    1.0823927 3.7314182e-05   0.52353993  0.011142627            0    0.5123973    1.6154711     2.139011    4.7181673 
10905000    1.0606943 4.8236971e-05   0.54966569  0.016894906            0   0.53277078    1.5830862    2.1327519    5.4668914 
10910000    1.0826252 1.2951878e-06   0.53508344  0.023607407            0   0.51147603    1.6158181    2.1509015    2.2404249 
10915000     1.057438 2.9632377e-05    0.5804537  0.029653835            0   0.55079986    1.5782262    2.1586799    4.2068698 
10920000    1.0801812 -5.8291266e-06   0.55057853  0.034374125            0    0.5162044    1.6121705     2.162749    1.7598398 
10925000    1.0835937 -3.9558212e-06   0.54082735  0.013493464            0   0.52733389    1.6172636    2.1580909    1.8846645 
10930000    1.0990313 -2.4832166e-05   0.50688551  0.014665887            0   0.49221963    1.6403043    2.1471898   0.43079048 
10935000    1.0830791 4.7282581e-07    0.5356374  0.018994216            0   0.51664319    1.6164955    2.1521329    2.1848146 
10940000    1.1143949 -2.3193739e-05   0.49162166  0.019216878            0   0.47240478    1.6632344    2.1548561    0.5517049 
10945000    1.1096933 -4.7445792e-06   0.49633527  0.024278268            0     0.472057    1.6562172    2.1525525    1.8246071 
10950000    1.0599621 1.8635889e-05   0.55696392  0.050036558            0   0.50692736    1.5819934    2.1389573      3.42707 
10955000      1.06187 -2.9719602e-05   0.55979533  0.055371774            0   0.50442356     1.584841    2.1446363  0.090417391 
10960000    1.0678995 8.4023205e-08   0.56490308  0.047261068            0   0.51764201      1.59384    2.1587431    2.1645508 
10965000    1.1158908 -1.0284643e-05   0.49023989  0.020679681            0   0.46956021    1.6654671     2.155707    1.4448325 
10970000    1.1343353 -1.3278716e-05   0.46749731  0.012545942            0   0.45495137    1.6929954    2.1604927    1.2426679 
10975000    1.0876776 -2.2985032e-05   0.52172249  0.010027109            0   0.51169538    1.6233588    2.1450813   0.55635592 
10980000    1.0303758 -3.6988631e-05   0.60584726  0.027046611            0   0.57880065    1.5378359    2.1436832  -0.41297098 
10985000     1.120012 8.9523095e-06   0.47066313 0.0065472625            0   0.46411587    1.6716179    2.1422811    2.7610647 
10990000    1.0825519 1.8042533e-05   0.53138505 0.0088803832            0   0.52250467    1.6157087    2.1470938    3.3941937 
10995000    1.0531537 -3.5310861e-07   0.56484818  0.050950571            0   0.51389761    1.5718319    2.1366801    2.1122732 
11000000    1.0327728 -3.3958469e-05   0.59304365  0.031677407            0   0.56136625    1.5414135    2.1344571  -0.21275224 
11005000    1.0747163 2.2339803e-05   0.54172866  0.035117822            0   0.50661084    1.6040141    2.1457428    3.6898699 
11010000    1.0513681 4.1315992e-05   0.56227201  0.015880556            0   0.54639145    1.5691668    2.1314388    4.9872002 
11015000    1.0600351 -4.1688539e-06   0.56292078  0.020211006            0   0.54270978    1.5821024    2.1450232     1.856872 
11020000    1.0625004 -7.2254888e-06   0.53694975  0.015913316            0   0.52103643    1.5857818    2.1227315    1.6233058 
11025000    1.0711293 2.8045521e-05   0.50305192  0.035174484            0   0.46787744    1.5986604    2.1017124    4.0402188 
11030000    1.0416153 -1.6552604e-05   0.55020083  0.044505287            0   0.50569554    1.5546109    2.1048117   0.96069571 
11035000     1.065021 -5.4143135e-05   0.51257604 0.0092538308            0   0.50332221    1.5895439    2.1021199   -1.6402536 
11040000    1.0845055 2.0852618e-05   0.49215059  0.011170753            0   0.48097983    1.6186244     2.110775     3.552108 
11045000    1.1240119 -1.7923038e-05   0.43459675  0.018874486            0   0.41572227    1.6775877    2.1121845   0.87334411 
11050000    1.0525224 3.3414782e-06   0.50874274   0.01652842            0   0.49221432    1.5708897    2.0796324    2.3105954 
11055000   0.99602241 -8.2616549e-06   0.56865314  0.040326616            0   0.52832653    1.4865635    2.0552166     1.484171 
11060000    1.0752827 2.8057035e-06   0.46246679  0.017557317            0   0.44490947    1.6048594    2.0673262    2.2612564 
11065000    1.0683176 5.6561223e-05   0.46604277  0.007254826            0   0.45878794    1.5944641    2.0605068    5.9700186 
11070000    1.0784235 -9.833317e-06   0.43622439 0.0046210169            0   0.43160337    1.6095471    2.0457715    1.3660927 
11075000    1.0032392 5.3796124e-05   0.54045012  0.022046094            0   0.51840403    1.4973345    2.0377846    5.7561727 
11080000    1.0530594 2.8089094e-05   0.47026779  0.015549355            0   0.45471843    1.5716912     2.041959    3.9834771 
11085000    1.0178889 -1.1931107e-06   0.50068733  0.051106366            0   0.44958097    1.5191992    2.0198866    1.9374188 
11090000   0.98172577 -2.5848102e-05   0.55189701  0.041849821            0   0.51004719    1.4652257    2.0171227   0.23050192 
11095000   0.98730656 4.3376783e-05   0.54945018  0.039747354            0   0.50970283     1.473555    2.0230052    5.0212084 
11100000    1.0007799 5.8942825e-05    0.5208586  0.011578844            0   0.50927976    1.4936639    2.0145225    6.0886506 
11105000    1.0133142 1.1476285e-05   0.48720961  0.011476156            0   0.47573345    1.5123715    1.9995811    2.7928219 
11110000    1.0272149 -8.4818489e-06   0.47527455  0.016608008            0   0.45866654    1.5331182    2.0083927    1.4221273 
11115000   0.98884145 2.4429766e-05   0.52622322  0.014204969            0   0.51201825    1.4758459    2.0020691    3.6906545 
11120000    1.0289715 4.6241805e-05   0.48752883 0.0099964209            0   0.47753241      1.53574    2.0232688    5.2195024 
11125000    1.0384871 -2.5704396e-05   0.49441517  0.029053876            0   0.46536129     1.549942    2.0443572   0.26766932 
11130000    1.0133423 -1.0312357e-05   0.53961197   0.03511934            0   0.50449263    1.5124134    2.0520253    1.3392352 
11135000    1.0458259 3.4679147e-05   0.48149014  0.026398711            0   0.45509143    1.5608951    2.0423853    4.4394079 
11140000    1.0007267 -3.8047683e-05   0.53293148  0.029834795            0   0.50309668    1.4935846    2.0265161  -0.60333978 
11145000    1.0096144 -6.4916502e-05   0.54927373  0.023016712            0   0.52625702    1.5068495    2.0561232   -2.4309053 
11150000    1.0132788 1.0705854e-05   0.53766098  0.027802128            0   0.50985885    1.5123187    2.0499796    2.7899683 
11155000      1.03498 5.0080087e-05   0.51071399  0.026728794            0    0.4839852    1.5447077    2.0554217    5.5169573 
11160000    1.0273737 2.1820156e-05   0.52614402  0.025353142            0   0.50079088    1.5333553    2.0594993    3.5677085 
11165000   0.99783954 -1.8055145e-06   0.57385768  0.025365565            0   0.54849211    1.4892755    2.0631332     1.938336 
11170000    1.0477536 -5.0311958e-06   0.47814279  0.034547969            0   0.44359482    1.5637722     2.041915    1.6941587 
11175000    1.0119837 -1.5886111e-05   0.52919425  0.057818961            0   0.47137529    1.5103857      2.03958   0.94153199 
11180000    1.0035037 3.2760308e-05   0.56403897  0.022513273            0    0.5415257    1.4977293    2.0617683    4.3261607 
11185000     1.032084 3.7998144e-06   0.51371992  0.016785414            0   0.49693451    1.5403854    2.0541053    2.3167485 
11190000    1.0180814 -3.4576409e-06   0.53444024  0.028976868            0   0.50546337    1.5194865    2.0539267    1.8149346 
11195000    1.0497739 -5.6432532e-05   0.48436792  0.027887542            0   0.45648038    1.5667876    2.0511555   -1.8494611 
11200000     1.001785 1.3406466e-05   0.56775756  0.029622208            0   0.53813535    1.4951642    2.0629217    2.9895767 
11205000    1.0177479 2.4662322e-05   0.55021354  0.015795222            0   0.53441832    1.5189888    2.0692023     3.773862 
11210000    1.0645589 -2.7326308e-05   0.47170625  0.010971072            0   0.46073517    1.5888541    2.0605604   0.17176596 
11215000    1.0031861 -3.7928186e-05   0.56537024  0.017183048            0   0.54818719    1.4972553    2.0626255  -0.55897068 
11220000    1.0612455 -1.3333148e-05   0.47873488  0.049717998            0   0.42901689     1.583909    2.0626439    1.1410567 
11225000    1.0603209 2.0497842e-06   0.47371689  0.030303209            0   0.44341368     1.582529    2.0562459     2.197927 
11230000    1.0263704 1.4633504e-05   0.52950581  0.038934561            0   0.49057125    1.5318578    2.0613636    3.0728314 
11235000    1.0829896 -1.9518717e-05   0.45151326  0.027138395            0   0.42437487     1.616362    2.0678752   0.71874153 
11240000    1.0070782 -6.5237699e-06   0.56349155  0.013228137            0   0.55026341    1.5030642    2.0665558    1.6156328 
11245000    1.0647332 2.0594825e-05   0.45937888 0.0089095713            0   0.45046931    1.5891144    2.0484932    3.4720075 
11250000   0.99555462 5.9817646e-05   0.54311911  0.024943983            0   0.51817513    1.4858653    2.0289844      6.16358 
11255000    1.0496794 5.3261299e-05    0.4870696  0.022519045            0   0.46455055    1.5666465    2.0537161    5.7351371 
11260000    1.0443949 -8.4761755e-06   0.49197433  0.017198795            0   0.47477554    1.5587594    2.0507337    1.4648605 
11265000    1.0832428 -1.5390221e-05    0.4354917 0.0082981436            0   0.42719356    1.6167399    2.0522317   0.98845957 
11270000    1.0088871 -2.685835e-05   0.53905415  0.017322657            0   0.52173149     1.505764    2.0448182   0.18836899 
11275000    1.0729648 -1.2371252e-05    0.4620852  0.019881285            0   0.44220391       1.6014    2.0634852    1.2083843 
11280000    1.0267085 -1.6711677e-05   0.52527448  0.019782827            0   0.50549166    1.5323625     2.057637   0.90252582 
11285000    1.0330776 2.1638074e-05   0.52379925  0.018219405            0   0.50557985    1.5418683    2.0656676    3.5612912 
11290000    1.0375476 2.0625957e-05   0.52297403  0.014595708            0   0.50837832    1.5485399    2.0715139    3.4971801 
11295000     1.052647 5.7116833e-06   0.51001842   0.01207805            0   0.49794037    1.5710757    2.0810941    2.4758856 
11300000    1.0486253 4.0792377e-05   0.51472678  0.012353242            0   0.50237354    1.5650733       2.0798    4.8993692 
11305000    1.0543582 4.8181455e-05   0.50331576  0.033915419            0   0.46940034    1.5736297    2.0769454    5.4072476 
11310000    1.0143899 2.3873514e-05   0.55192241  0.027857742            0   0.52406466    1.5139769    2.0658993    3.7160366 
11315000     1.053465 5.1517826e-06   0.49086508 0.0066894957            0   0.48417558    1.5722965    2.0631616    2.4192528 
11320000     1.052963 -4.7345194e-05   0.50109072   0.01863107            0   0.48245965    1.5715472    2.0726379   -1.1998619 
11325000    1.0762127 4.2409548e-06    0.4569179  0.021836114            0   0.43508178    1.6062475    2.0631654    2.3563002 
11330000    1.0312932 4.5504251e-05   0.52525021  0.037839576            0   0.48741063    1.5392051    2.0644553    5.2097091 
11335000    1.0444712 -2.2810002e-05   0.50165021  0.037793414            0    0.4638568    1.5588733    2.0605235   0.48389615 
11340000    1.0590751 -8.9866518e-05   0.48717471  0.018696557            0   0.46847816    1.5806696    2.0678443   -4.1437294 
11345000    1.0598003 -4.2318314e-05   0.46832607  0.027362783            0   0.44096329     1.581752    2.0500781   -0.8749638 
11350000    1.0403702 1.784371e-05    0.4955963  0.020033574            0   0.47556273    1.5527526    2.0483489    3.2817062 
11355000    1.0307224 4.6585645e-06   0.50019304 0.0096117588            0   0.49058128    1.5383532    2.0385462    2.3605462 
11360000    1.0108241 -3.2329499e-05   0.53943445  0.020169796            0   0.51926466    1.5086549    2.0480894  -0.18652562 
11365000    1.0331941 -7.5210312e-06   0.49306616  0.011804466            0    0.4812617    1.5420422    2.0351084    1.5152547 
11370000    1.0364103 -2.7755342e-05   0.48552957  0.019200567            0   0.46632901    1.5468424    2.0323719    0.1139227 
11375000   0.99426768 -2.9344042e-05   0.54414651   0.01794631            0    0.5262002    1.4839445     2.028091 -0.00016918867 
11380000    1.0891852 9.8286799e-06   0.42874644  0.014874231            0   0.41387221    1.6256089    2.0543553    2.7337137 
11385000   0.99801171 4.8835564e-05   0.53939396  0.032194268            0   0.50719969    1.4895325    2.0289264    5.4044406 
11390000    1.0508332 3.8000904e-05    0.4723907  0.024673963            0   0.44771674    1.5683685    2.0407592    4.6673817 
11395000   0.99371347 -2.3508359e-05   0.57438396   0.03363769            0   0.54074627    1.4831174    2.0575013   0.43260356 
11400000    1.0011725 -3.3474532e-05   0.54341286  0.014465798            0   0.52894707      1.49425    2.0376629  -0.27609676 
11405000    1.0317094 -6.2646957e-05   0.50855451 0.0074836347            0   0.50107088    1.5398263    2.0483809   -2.2817768 
11410000    1.0260984 -2.4465419e-05   0.51265036  0.026936012            0   0.48571435    1.5314519    2.0441023   0.35305253 
11415000    1.0260707 2.7581393e-05   0.48970269  0.023978469            0   0.46572422    1.5314105    2.0211132    3.9275391 
11420000   0.98525432 -4.6654873e-05   0.56084603   0.02856367            0   0.53228236    1.4704921    2.0313381   -1.1934467 
11425000     1.022497 1.2680979e-05   0.50607771  0.024917942            0   0.48115977    1.5260767    2.0321544    2.9086637 
11430000     1.026251 4.951527e-05   0.51669136  0.016839311            0   0.49985205    1.5316796    2.0483709    5.4708664 
11435000    1.0618301 -2.7086754e-05   0.43832384 0.0078237103            0   0.43050013    1.5847814    2.0231052   0.15086878 
11440000    1.0380849 -4.7799704e-05   0.47434365  0.007334593            0   0.46700905    1.5493416    2.0236853   -1.2802303 
11445000    1.0187015 -1.872173e-05   0.50405149  0.015339922            0   0.48871157    1.5204121    2.0244635   0.73041756 
11450000    1.0476959 -9.1278852e-06   0.45334702   0.01171769            0   0.44162933    1.5636862    2.0170332    1.3861138 
11455000     1.011131 4.5429812e-05   0.51418371  0.016190808            0    0.4979929     1.509113    2.0232967    5.1634053 
11460000    1.0890423 3.7519421e-06   0.39906923  0.034061356            0   0.36500787    1.6253956    2.0244648     2.283799 
11465000    1.0181619 -1.5923619e-05   0.49606234  0.029182521            0   0.46687982    1.5196066     2.015669   0.91502841 
11470000    1.0286534 -4.45859e-05   0.49956392  0.021075463            0   0.47848846    1.5352652    2.0348291   -1.0469483 
11475000    1.0435671 -7.3716847e-05   0.48540137 0.0076975016            0   0.47770386    1.5575238    2.0429252   -3.0523832 
11480000    1.0252933 3.6099747e-05   0.49787966 0.0050712964            0   0.49280837    1.5302502    2.0281299    4.5233444 
11485000    1.0144971 5.6420825e-05   0.50075202 0.0069252407            0   0.49382678    1.5141369    2.0148889    5.9146963 
11490000    1.0415163 -1.4790203e-05   0.46704813  0.007204786            0   0.45984335     1.554463    2.0215111   0.99921235 
11495000    1.0646242 -1.0271887e-05   0.42392579  0.021652375            0   0.40227342    1.5889516    2.0128774    1.3028845 
11500000   0.99946032 7.079084e-06   0.50869832  0.010779368            0   0.49791895    1.4916945    2.0003928    2.4896991 
11505000   0.99301139 -5.7097275e-05   0.51361675 0.0095088713            0   0.50410787    1.4820695    1.9956862   -1.9508774 
11510000   0.98018166 -7.3751838e-05   0.51869429  0.018996547            0   0.49969774    1.4629211    1.9816154   -3.1161116 
11515000   0.97359701 6.6516987e-05   0.53526662  0.019309438            0   0.51595718    1.4530935    1.9883602    6.5860143 
11520000    1.0210505 1.4101329e-05   0.47536123   0.01984622            0   0.45551501    1.5239178     1.999279    2.9739629 
11525000    1.0205445 -3.4648168e-05   0.48682631  0.018718042            0   0.46810827    1.5231626    2.0099889  -0.38489245 
11530000    1.0546361 4.9663011e-05   0.45151659  0.011000981            0   0.44051561    1.5740444     2.025561    5.4582683 
11535000    1.0592711 -3.1648409e-05   0.44630442 0.0077225382            0   0.43858188    1.5809621    2.0272665  -0.16027151 
11540000   0.98605358 -7.0770176e-05   0.56302834  0.026526533            0   0.53650181     1.471685    2.0347133   -2.8569213 
11545000    0.9876668 -2.3380227e-05   0.55257941  0.029868642            0   0.52271077    1.4740927    2.0266721   0.41063083 
11550000    1.0286372 5.5886333e-05   0.50290098  0.016272457            0   0.48662852    1.5352409    2.0381419    5.9010053 
11555000    1.0495776 1.5555807e-05   0.44597873  0.017814586            0   0.42816414    1.5664946    2.0124734    3.0876907 
11560000    1.0283972 -4.0917505e-06   0.48837803  0.021168892            0   0.46720914    1.5348828    2.0232608     1.740439 
11565000    1.0472445 -5.1225713e-06   0.46168034  0.016601739            0    0.4450786    1.5630124    2.0246927    1.6706206 
11570000   0.95344417 7.8018089e-06   0.57773926  0.020052962            0    0.5576863    1.4230154    2.0007547    2.5400157 
11575000    1.0233455 4.6861698e-05   0.47664814 0.0041369249            0   0.47251121    1.5273432    2.0039914    5.2430719 
11580000    0.9843988 3.9044787e-05   0.51369353 0.0038122771            0   0.50988125    1.4692152    1.9829087    4.6816844 
11585000    1.0011491 3.7325831e-05   0.50217345  0.010252173            0   0.49192128    1.4942151    1.9963886      4.57635 
11590000   0.97412834 -4.2426604e-05   0.54874893  0.021953122            0   0.52679581    1.4538865    2.0026355   -0.9298914 
11595000    1.0606504 -2.8232892e-05   0.42846469  0.017553872            0   0.41091081    1.5830207    2.0114854  0.060027885 
11600000    1.0437576 3.0583682e-05    0.4667738    0.0287646            0    0.4380092    1.5578082     2.024582    4.1385261 
11605000   0.97944762 3.4358167e-05   0.53087586  0.018181598            0   0.51269426    1.4618256    1.9927014     4.367538 
11610000   0.99922656 -6.200131e-05   0.47641772  0.011451539            0   0.46496618    1.4913456    1.9677634   -2.3177672 
11615000    0.9802236 -2.1769219e-05   0.51029222  0.021062892            0   0.48922933    1.4629837    1.9732759    0.4685875 
11620000   0.94274019 1.4495679e-05   0.56980067  0.044963674            0     0.524837    1.4070397    1.9768404    2.9787818 
11625000    1.0143345 -9.0360179e-06    0.4696598  0.019857412            0   0.44980239    1.5138943    1.9835541    1.3589845 
11630000    1.0080345 2.4864149e-05   0.48359737  0.016239047            0   0.46735832    1.5044915    1.9880889    3.7066989 
11635000   0.97962972 6.6875608e-06   0.53062504  0.013188338            0    0.5174367    1.4620974    1.9927224    2.4549666 
11640000    1.0206441 -2.1225023e-05   0.47913673  0.019651462            0   0.45948527    1.5233113    2.0024481   0.53537446 
11645000    1.0504805 -4.7969196e-05   0.43062626  0.019289362            0    0.4113369    1.5678421    1.9984684   -1.3171624 
11650000    1.0162008 1.8221135e-05   0.50154989 0.0072048454            0   0.49434505    1.5166797    2.0182296    3.2776744 
11655000    1.0016736 2.1763299e-05   0.51344532  0.017929996            0   0.49551533    1.4949979    2.0084432    3.5127225 
11660000    1.0362972 -2.789419e-05   0.48247022 0.0092844732            0   0.47318574    1.5466736    2.0291438   0.10109738 
11665000    1.0439089 -2.1496358e-05   0.45729511 0.00049368305            0   0.45680143    1.5580341    2.0153292   0.52950098 
11670000    1.0287574 -4.9949875e-06   0.47938004  0.010599588            0   0.46878045    1.5354204    2.0148005    1.6695469 
11675000    1.0189421 -4.4697494e-06   0.52846987  0.014955053            0   0.51351482     1.520771    2.0492409    1.7402918 
11680000    1.0258193 -4.2328608e-05    0.5359908  0.013557024            0   0.52243377    1.5310353     2.067026  -0.85872735 
11685000    1.0542377 -8.762693e-05   0.50857053  0.022051535            0     0.486519    1.5734497    2.0820202   -3.9747532 
11690000    1.0652627 -2.6112565e-05   0.48610083  0.022634092            0   0.46346674    1.5899046    2.0760054   0.27110489 
11695000    1.0469521 1.1751615e-05   0.49504951  0.046165823            0   0.44888368    1.5625761    2.0576256    2.8698972 
11700000    1.0143953 1.003382e-05   0.53679802  0.021035649            0   0.51576237     1.513985     2.050783    2.7443206 
11705000    1.0723905 3.7690982e-06   0.44901433 0.0088797838            0   0.44013454    1.6005428    2.0495571    2.3100772 
11710000    1.0601074 5.4528993e-05   0.45106409   0.02140439            0    0.4296597    1.5822103    2.0332743    5.8023183 
11715000   0.95969722 -3.0611712e-05   0.59569974  0.014542509            0   0.58115723    1.4323481    2.0280478  -0.08783367 
11720000    1.0492749 -3.161497e-06   0.45901928  0.017445404            0   0.44157388    1.5660428     2.025062    1.8065394 
11725000    1.0174915 4.5007761e-05   0.49732469 0.0068153873            0    0.4905093     1.518606    2.0159307    5.1268672 
11730000    1.0124338 3.4426741e-05   0.50392479  0.011892564            0   0.49203223    1.5110574    2.0149822    4.3945585 
11735000    1.0139359 -6.5800855e-06   0.48608438  0.013852043            0   0.47223234    1.5132993    1.9993836    1.5445681 
11740000    0.9869171 -6.4784923e-05   0.51393425   0.01422765            0    0.4997066    1.4729738     1.986908   -2.4910259 
11745000   0.98773832 -4.7151067e-05   0.51441742  0.025465506            0   0.48895191    1.4741994    1.9886169   -1.2704649 
11750000    1.0097246 3.5774385e-05    0.4708595  0.015635549            0   0.45522395    1.5070139    1.9778734    4.4505989 
11755000   0.97079352 1.2828418e-06    0.5032611  0.046268704            0   0.45699239    1.4489093    1.9521704    2.0408404 
11760000   0.98504789 -1.6915561e-05   0.47007327  0.017899927            0   0.45217334     1.470184    1.9402572   0.77105365 
11765000    1.0065035 5.9917787e-05   0.44008763  0.016914931            0    0.4231727    1.5022065    1.9422941    6.0838115 
11770000   0.96796199 3.4261898e-05   0.49904983  0.015633241            0   0.48341659    1.4446833    1.9437331    4.3119155 
11775000   0.98583949 -5.0554882e-05   0.45136488  0.014893455            0   0.43647142    1.4713654    1.9227303   -1.5716231 
11780000   0.98027203 -4.0184756e-05   0.47336221 0.0071053524            0   0.46625686     1.463056    1.9364182  -0.84115215 
11785000    0.9895514 2.9297499e-05   0.45810794  0.015343668            0   0.44276427    1.4769055    1.9350134    3.9600565 
11790000   0.94325311 2.7307887e-05   0.52037252  0.020960284            0   0.49941223    1.4078053    1.9281778    3.8156989 
11795000   0.94225229 -4.7660843e-05   0.51150344 0.0082795807            0   0.50322386    1.4063115     1.917815   -1.3765025 
11800000    1.0001826 -2.6811776e-05   0.41635536  0.011012249            0   0.40534311    1.4927725    1.9091279  0.055897929 
11805000   0.98491591 2.2350563e-05   0.43927759  0.011086811            0   0.42819077     1.469987    1.9092646    3.4541355 
11810000   0.91597218 -9.1409914e-06   0.54460875  0.014189905            0   0.53041884    1.3670885    1.9116972    1.2798719 
11815000    0.9536559 -1.3395311e-05   0.48438888  0.011473213            0   0.47291567    1.4233314    1.9077203   0.98183643 
11820000   0.96688154 3.5380442e-05    0.4509071  0.025870916            0   0.42503618    1.4430707    1.8939778     4.339474 
11825000   0.97639552 3.0480264e-05   0.43121001  0.026282908            0    0.4049271    1.4572703    1.8884803    3.9952762 
11830000   0.92911666 -4.7064405e-05   0.51202392  0.024953462            0   0.48707046    1.3867066    1.8987305   -1.3543611 
11835000   0.96880816 -5.8128178e-05   0.47481467  0.013001343            0   0.46181332    1.4459462    1.9207608   -2.0970588 
11840000   0.96857095 -5.0824017e-06   0.46589215  0.011890018            0   0.45400213    1.4455921    1.9114843    1.5601887 
11845000   0.97270941 3.7860687e-05   0.47878998  0.035888204            0   0.44290178    1.4517688    1.9305588    4.5474895 
11850000   0.95597128 3.4247024e-05   0.50732504  0.013097919            0   0.49422712    1.4267871    1.9341122    4.3012665 
11855000   0.95200993 3.5344292e-05    0.5066362 0.0072084897            0   0.49942771    1.4208748     1.927511    4.3705085 
11860000    1.0087606 2.8690211e-05   0.42714578  0.015880673            0    0.4112651    1.5055751    1.9327209    3.9157883 
11865000   0.98208451 6.8371009e-06   0.45798532  0.011647648            0   0.44633768    1.4657611    1.9237465    2.3963269 
11870000    0.9657989 -3.6061493e-05   0.48875996  0.013729388            0   0.47503058    1.4414549    1.9302148  -0.56235555 
11875000    1.0181856 -6.7466004e-06    0.4142854  0.017196444            0   0.39708895    1.5196421    1.9339275    1.4676024 
11880000   0.95711561 -1.0579809e-05   0.51568306   0.02267865            0   0.49300441    1.4284951    1.9441781    1.2129017 
11885000   0.95827114 -4.2705704e-06    0.5028362  0.025804161            0   0.47703204    1.4302197    1.9330559    1.6378741 
11890000     0.930939 1.3924375e-05   0.55476179  0.018593106            0   0.53616868    1.3894265    1.9441883    2.9066411 
11895000    1.0016048 1.464991e-05   0.44703914 0.0066386333            0   0.44040051    1.4948952    1.9419343    2.9545361 
11900000   0.98375988 -4.6445662e-05   0.46935594 0.0077260293            0   0.46162991    1.4682616    1.9376176   -1.2727066 
11905000   0.96101876 -3.4486449e-05   0.49145563 0.0088594066            0   0.48259623    1.4343205    1.9257761  -0.45792718 
11910000   0.98848761 3.7948251e-05   0.45261191  0.024048675            0   0.42856323    1.4753178    1.9279297    4.5509128 
11915000   0.97801627 2.2754146e-05   0.45995648  0.028153938            0   0.43180255    1.4596893    1.9196458    3.4924124 
11920000   0.96710999 -9.1447768e-06    0.4819333  0.030089621            0   0.45184368    1.4434117     1.925345     1.293258 
11925000   0.97343501 -1.2792251e-05   0.47965637   0.02674341            0   0.45291296    1.4528517    1.9325081    1.0483077 
11930000   0.94701587 -7.1294732e-05   0.51039955  0.005969297            0   0.50443025    1.4134212    1.9238207   -3.0040711 
11935000    1.0166396 -2.444208e-05   0.39566733  0.012963707            0   0.38270362    1.5173346    1.9130019   0.22356539 
11940000    1.0211043 -3.2013183e-05   0.39376483  0.018651109            0   0.37511372    1.5239982     1.917763  -0.29498822 
11945000   0.97007056 -3.3592447e-05   0.49371271  0.026658189            0   0.46705452    1.4478303     1.941543  -0.38036687 
11950000   0.97974503 1.9059165e-05   0.49553033  0.042036469            0   0.45349386    1.4622695    1.9577998    3.2751693 
11955000   0.96286027 -2.5635912e-06   0.50563239  0.038758658            0   0.46687373     1.437069    1.9427014    1.7655059 
11960000    1.0041816 -1.976699e-06   0.46651929  0.045738103            0   0.42078118     1.498741    1.9652603    1.8286309 
11965000    1.0082649 -1.8048531e-05    0.4372131  0.032292411            0   0.40492069    1.5048354    1.9420485     0.694534 
11970000    1.0218885 -2.0462591e-06   0.43531291   0.01331299            0   0.42199992    1.5251687    1.9604816    1.8190441 
11975000   0.96806688 9.5277427e-06    0.5246114  0.015198958            0   0.50941245    1.4448398    1.9694512    2.6280088 
11980000    1.0059688 6.4602569e-06   0.46987984  0.015631454            0   0.45424839    1.5014085    1.9712883    2.4178213 
11985000    1.0201893 -1.2715546e-06   0.44911598  0.026694187            0   0.42242179    1.5226326    1.9717485    1.8838587 
11990000    1.0174737 -1.6989237e-06   0.44501935  0.012912355            0     0.432107    1.5185795    1.9635988    1.8461692 
11995000    0.9647502 9.9701016e-06    0.5264927 0.0063837046            0   0.52010899    1.4398897    1.9663824    2.6555158 
12000000    1.0125721 -1.3133852e-05    0.4579264  0.025787426            0   0.43213897    1.5112638    1.9691902    1.0613784 
12005000    1.0091503 -1.4630483e-05   0.46774143  0.031022402            0   0.43671903    1.5061568    1.9738982   0.96263927 
12010000   0.97374997 -3.8284187e-06   0.54709909  0.022393796            0   0.52470529    1.4533218    2.0004209    1.7358006 
12015000    1.0481094 -9.3366818e-06   0.44756467   0.02491098            0   0.42265369    1.5643033    2.0118679    1.3665165 
12020000    1.0487973 -5.799971e-05   0.44512336  0.011727057            0   0.43339631      1.56533    2.0104534   -1.9984866 
12025000    1.0084563 -2.6192232e-06   0.48916594 0.0031494058            0   0.48601653     1.505121     1.994287    1.8132463 
12030000    1.0274492  5.63361e-05   0.46631058 0.0069094725            0   0.45940111     1.533468    1.9997786    5.8937298 
12035000    1.0263507 -1.5548403e-05   0.48742355   0.00613166            0   0.48129189    1.5318284     2.019252   0.94454634 
12040000    1.0748666 -1.1482886e-05   0.41971263 0.0028714314            0    0.4168412    1.6042385    2.0239511     1.230254 
12045000    1.0176154 2.4038138e-05   0.51067073  0.019411867            0   0.49125886     1.518791    2.0294617    3.6909778 
12050000    1.0009572 -2.6797743e-05   0.53383303  0.020303085            0   0.51352995    1.4939286    2.0277617   0.17550171 
12055000   0.98510219 -1.1751655e-05   0.58094953  0.017050807            0   0.56389872     1.470265    2.0512145    1.2389401 
12060000    1.0649233 7.741147e-05   0.48300555  0.012967656            0    0.4700379    1.5893981    2.0724036    7.4230844 
12065000    1.0523853 6.6037186e-05   0.50182719  0.020106463            0   0.48172073    1.5706851    2.0725123    6.6370026 
12070000    1.0833581 -2.4085144e-05   0.45922048  0.016840723            0   0.44237976    1.6169119    2.0761324   0.41136729 
12075000    1.0086709 -3.662737e-05   0.57818368  0.018772505            0   0.55941118    1.5054413     2.083625   -0.4480588 
12080000    1.0050134 1.6745837e-05   0.59255991  0.061128287            0   0.53143162    1.4999825    2.0925425    3.2500147 
12085000    1.0593986 4.8455035e-05   0.50546138  0.053741921            0   0.45171946    1.5811524    2.0866138    5.4358258 
12090000    1.0467975 3.1819259e-05   0.52709245  0.021113668            0   0.50597878    1.5623453    2.0894377    4.2887849 
12095000    1.0580533 -1.1399563e-06   0.50826295  0.013839792            0   0.49442316    1.5791445    2.0874075    2.0086137 
12100000     1.080918 -4.8292697e-05   0.47779994  0.013674831            0   0.46412511    1.6132701      2.09107   -1.2469212 
12105000    1.0425403 1.1345262e-05   0.51277514  0.036704547            0   0.47607059    1.5559915    2.0687666    2.8529511 
12110000    1.0366728 2.8431275e-07   0.51229965   0.02273722            0   0.48956243    1.5472342    2.0595338    2.0791855 
12115000    1.0120884 -7.67141e-05   0.54919628  0.034494153            0   0.51470213    1.5105419    2.0597381   -3.2427404 
12120000    1.0200695 6.5130346e-06   0.54452001  0.035680532            0   0.50883948    1.5224537    2.0669737    2.5171547 
12125000    1.0258319 2.2936317e-05   0.52627365  0.036713888            0   0.48955976    1.5310541    2.0573278     3.642686 
12130000    1.0481225 -4.5099918e-05   0.49411646  0.043592873            0   0.45052359    1.5643228    2.0584393    -1.058867 
12135000    1.0246344 -3.6372897e-05   0.50040805  0.011602943            0   0.48880511    1.5292668    2.0296748  -0.48441984 
12140000    1.0030429 -3.781599e-08   0.53645016  0.022056934            0   0.51439322    1.4970415    2.0334917    2.0308779 
12145000     1.011691 7.8785064e-05   0.51591696  0.044722104            0   0.47119485    1.5099489    2.0258658    7.4714894 
12150000   0.99306504 3.9048353e-05   0.52927829  0.025400304            0   0.50387799    1.4821496    2.0114279    4.7104501 
12155000    1.0624465 2.2129727e-06   0.45197685  0.018983469            0   0.43299338    1.5857015    2.0376783     2.190639 
12160000    1.0355194 3.5570774e-05   0.49035544 0.0083467003            0   0.48200874    1.5455128    2.0358682    4.4945201 
12165000   0.99165402 3.1060202e-05    0.5627502 0.0024793977            0    0.5602708    1.4800436    2.0427938     4.189675 
12170000    1.0643022 -3.6997049e-06   0.46471921 0.0048305552            0   0.45988865    1.5884711    2.0531903    1.7974667 
12175000   0.99623892 -4.3303536e-05   0.59167108  0.016287136            0   0.57538394    1.4868866    2.0785577  -0.91458276 
12180000    1.0587371 -3.9350172e-05    0.4999433  0.006733007            0   0.49321029    1.5801651    2.0801084  -0.63977553 
12185000    1.0742318 6.5963617e-05   0.48113508  0.014596379            0    0.4665387    1.6032909     2.084426    6.6438313 
12190000    1.0612506 7.0656999e-05   0.50078718  0.027646593            0   0.47314059    1.5839165    2.0847037    6.9685155 
12195000    1.0382878 -1.8496842e-05   0.53393608  0.026084839            0   0.50785124    1.5496445    2.0835806   0.80507881 
12200000    1.0386365 2.415617e-05   0.50993808  0.025356478            0    0.4845816    1.5501649     2.060103    3.7297775 
12205000    1.0419389 2.0761719e-05   0.49685286  0.029784332            0   0.46706853    1.5550938    2.0519467    3.4869966 
12210000     1.048942 7.7067616e-06   0.49452823  0.024630423            0   0.46989781     1.565546    2.0600742    2.5927656 
12215000    1.0326249 2.5332517e-05   0.50724619  0.025162602            0   0.48208359    1.5411927    2.0484389    3.7994225 
12220000    1.0330496 1.1100587e-05   0.48388852   0.01226844            0   0.47162008    1.5418265     2.025715    2.7929876 
12225000    1.0094376 3.6861062e-05   0.51779708  0.020985542            0   0.49681154    1.5065856    2.0243827    4.5722193 
12230000    1.0211235 3.4666557e-05   0.49641685  0.022433205            0   0.47398365    1.5240268    2.0204437    4.4165961 
12235000     1.059763 5.6831115e-06    0.4207702  0.013761047            0   0.40700915    1.5816963    2.0024665    2.3952831 
12240000    1.0125156 5.7154848e-06   0.49438249 0.0073890027            0   0.48699348    1.5111795     2.005562    2.4006163 
12245000    1.0431896 1.3493276e-05     0.455336  0.013722625            0   0.44161337    1.5569605    2.0122965    2.9449517 
12250000   0.98217793 3.8216567e-05   0.52882167  0.028839225            0   0.49998245    1.4659006    1.9947222    4.6362514 
12255000   0.99142583 1.1083776e-05   0.50390721  0.036663915            0   0.46724329    1.4797031    1.9836103    2.7497209 
12260000   0.97426349 -6.4982998e-06    0.5159136 0.0076074625            0   0.50830614    1.4540883    1.9700019    1.5208394 
12265000    0.9952422 1.4198412e-05   0.47198305  0.016202805            0   0.45578025     1.485399     1.957382    2.9387762 
12270000   0.97020703 1.0803595e-05   0.50073141  0.023771622            0   0.47695979     1.448034    1.9487654    2.6955099 
12275000   0.99312119 1.9601432e-05    0.4527836  0.027823022            0   0.42496058    1.4822334     1.935017    3.2898679 
12280000   0.98533155 -4.1384137e-05   0.45174707  0.026911145            0   0.42483593    1.4706073    1.9223544   -0.9381171 
12285000   0.95108506 -2.2305174e-05   0.50482729  0.027430503            0   0.47739678    1.4194944    1.9243217   0.38258811 
12290000   0.96954635 4.022302e-05   0.48633525  0.021120607            0   0.46521465    1.4470479    1.9333832    4.7135983 
12295000   0.99211131 -5.4044474e-06   0.46259286  0.016657417            0   0.44593544    1.4807261     1.943319    1.5697636 
12300000   0.99073841 1.5507223e-05   0.46539503 0.0059031615            0   0.45949187    1.4786771    1.9440721    3.0159313 
12305000   0.96672555 -2.8334891e-05   0.50331962 0.0090104381            0   0.49430918    1.4428379    1.9461575 -0.012350199 
12310000   0.99226601 -3.3375887e-05    0.4698493  0.013303765            0   0.45654553     1.480957    1.9508063    -0.356135 
12315000   0.99872923 -3.9711747e-05   0.45715225 0.0088220692            0   0.44833018    1.4906034    1.9477556  -0.79712033 
12320000   0.97118599 -3.1566542e-05   0.49194213  0.017331907            0   0.47461023    1.4494951    1.9414372  -0.24044215 
12325000   0.96560661 -2.2304022e-05   0.46995085  0.011715106            0   0.45823574    1.4411679    1.9111187   0.36946472 
12330000   0.94273277 -4.2313027e-05   0.48625154 0.0086998131            0   0.47755173    1.4070287    1.8932802   -1.0313962 
12335000   0.97604552 -1.8396339e-05   0.42149578  0.003286159            0   0.41820962    1.4567479    1.8782437   0.60668879 
12340000    0.9296783 6.6535105e-06    0.4867392 0.0018012574            0   0.48493795    1.3875449    1.8742841    2.3341747 
12345000   0.91776265 1.0394138e-05   0.51360949   0.01428306            0   0.49932643    1.3697608    1.8833703    2.6018131 
12350000   0.96058979 1.004369e-05   0.44836116  0.012749756            0    0.4356114    1.4336803    1.8820414    2.5762613 
12355000   0.93464806 3.3137294e-05   0.48487544  0.018687296            0   0.46618814    1.3949622    1.8798377    4.1702874 
12360000   0.91247088 -4.534757e-06   0.51684449  0.024663504            0   0.49218099    1.3618628    1.8787073    1.5652649 
12365000   0.93257038 -2.2906722e-05   0.48215794  0.019924782            0   0.46223315    1.3918613    1.8740192   0.29070661 
12370000   0.95176342 -3.4344892e-05   0.43633856 0.0093179527            0    0.4270206    1.4205069    1.8568455  -0.51707349 
12375000   0.95969407 -3.5692466e-05   0.43436167  0.005769161            0   0.42859251    1.4323434    1.8667051  -0.60035818 
12380000   0.90640819 9.4468479e-06   0.48791721  0.013163524            0   0.47475368    1.3528142    1.8407314    2.4936976 
12385000   0.94797668 1.7345012e-05   0.42202844  0.016157393            0   0.40587105    1.4148552    1.8368836    3.0357708 
12390000   0.92349581 -1.7792149e-05    0.4574537  0.014552025            0   0.44290167    1.3783175    1.8357712   0.60597789 
12395000   0.91636525 -9.6363303e-06   0.43972058  0.032077874            0   0.40764271    1.3676751    1.8073957    1.1413326 
12400000   0.88047155 1.0087221e-05   0.50877853  0.033352085            0   0.47542645    1.3141038    1.8228823     2.520111 
12405000   0.92017926 -2.6633661e-06   0.45020237  0.020187452            0   0.43001492    1.3733675    1.8235699    1.6394781 
12410000   0.92405994 1.795566e-05   0.47041824  0.010266702            0   0.46015154    1.3791595    1.8495777    3.0906729 
12415000   0.93926724 2.0498753e-05   0.45644381  0.013133234            0   0.44331058    1.4018564    1.8583002     3.275174 
12420000   0.92132761 -2.4341891e-05     0.491784  0.012358333            0   0.47942566    1.3750815    1.8668655   0.18435395 
12425000   0.91915631 -7.0456596e-05   0.49865805  0.021327395            0   0.47733066    1.3718408    1.8704988   -2.9994611 
12430000   0.94616323 -1.3118465e-05   0.46287272  0.030753446            0   0.43211928    1.4121486    1.8750213   0.96827303 
12435000   0.93638654 4.0656818e-05   0.46553994  0.014119306            0   0.45142063    1.3975569    1.8630969    4.6732961 
12440000   0.89187376 -7.0619325e-06   0.51548913  0.036622304            0   0.47886683    1.3311216    1.8466107      1.35849 
12445000   0.91288472 -8.2201122e-06   0.49082424  0.049468118            0   0.44135612    1.3624804    1.8533047    1.2851305 
12450000   0.94465643 2.7995806e-05    0.4466294  0.029822412            0   0.41680699    1.4098997    1.8565291    3.7915992 
12455000   0.87580278 3.6937466e-05   0.54403246  0.034356502            0   0.50967595    1.3071356    1.8511681    4.4042858 
12460000   0.92935337 -6.4812843e-06   0.46063881  0.022923389            0   0.43771542    1.3870599    1.8476987    1.3997123 
12465000   0.89279709 -2.0750263e-05   0.50851903  0.023347785            0   0.48517124    1.3324997    1.8410187   0.40676052 
12470000   0.89981967 -1.1995932e-05   0.49038493  0.014481922            0   0.47590301    1.3429809    1.8333658    1.0042069 
12475000   0.91112758 -4.3990332e-05   0.47736992  0.018389737            0   0.45898018    1.3598579    1.8372278   -1.2033839 
12480000    0.8827426 -6.1453118e-05    0.5103936  0.012387439            0   0.49800616    1.3174933    1.8278869   -2.4197526 
12485000    0.8879445 2.1279854e-05   0.50404548  0.027563441            0   0.47648204    1.3252572    1.8293027    3.3001662 
12490000   0.94041296 5.1532881e-05   0.42229593   0.01366458            0   0.40863135    1.4035663    1.8258623     5.387815 
12495000   0.85046497 -1.749804e-05    0.5601614 0.0063941499            0   0.55376725     1.269319    1.8294804   0.62001584 
12500000   0.94620283 -9.8237284e-06   0.40632423 0.0067059288            0    0.3996183    1.4122077    1.8185319    1.1395158 
12505000   0.92943513 2.5212444e-05   0.44287297  0.015046493            0   0.42782648    1.3871819    1.8300549     3.572739 
12510000   0.88033227 6.5329561e-06   0.51606164  0.012871451            0   0.50319019    1.3138959    1.8299576    2.2815155 
12515000   0.91462364 -1.3952418e-05   0.45554188 0.0092285053            0   0.44631337    1.3650758    1.8206177   0.85622654 
12520000   0.91715593 -1.7369983e-05   0.45929413 0.0092004401            0   0.45009369    1.3688552    1.8281493   0.62753613 
12525000   0.87706873 2.8187266e-05   0.51015209 0.0092275459            0   0.50092454    1.3090251    1.8191772     3.767481 
12530000   0.93166227 4.5867282e-05   0.42260133  0.010183683            0   0.41241765    1.3905059    1.8131073    4.9834538 
12535000   0.87773695 3.8767148e-05   0.51158134  0.014509698            0   0.49707164    1.3100224    1.8216037     4.501189 
12540000   0.91365105 -1.1282802e-05   0.44924077  0.022963826            0   0.42627694    1.3636242     1.812865    1.0329977 
12545000   0.93187989 -3.9477566e-05   0.44151751  0.030460104            0   0.41105741    1.3908307    1.8323482  -0.89634111 
12550000   0.88316484 -1.2710398e-06   0.52607085  0.020441444            0   0.50562941    1.3181235    1.8441944    1.7563401 
12555000   0.91757479 3.3929815e-05   0.47384911  0.012393496            0   0.46145561    1.3694804    1.8433295    4.1885583 
12560000   0.92518161 8.5527395e-06   0.45841245  0.024319338            0   0.43409311    1.3808336     1.839246    2.4304114 
12565000    0.8952423 -2.1883413e-05   0.51921479  0.024784025            0   0.49443077    1.3361491    1.8553639    0.3427824 
12570000   0.93821955 -1.4798841e-05   0.47167655 0.0074870383            0   0.46418951    1.4002927    1.8719692   0.84907335 
12575000     0.925895 -5.2463263e-05   0.47091462 0.0090114627            0   0.46190316    1.3818983    1.8528129   -1.7734478 
12580000   0.96775742 -1.1602633e-05    0.4173359    0.0102046            0    0.4071313    1.4443779    1.8617138    1.0597398 
12585000    0.9638464 3.2331912e-05   0.43441505 0.0021979092            0   0.43221714    1.4385408    1.8729558    4.1077376 
12590000   0.92592804 2.7672508e-05   0.49984435 0.0033640175            0   0.49648033    1.3819476    1.8817919    3.7945157 
12595000   0.96805717 1.6149726e-05   0.44411332  0.012663513            0   0.43144981    1.4448253    1.8889387    3.0052077 
12600000   0.93856517 -1.4117511e-05   0.49987605   0.01826793            0   0.48160812    1.4008085    1.9006846   0.92488224 
12605000   0.95127419 -4.1466489e-05   0.46385565  0.025227018            0   0.43862863    1.4197767    1.8836324  -0.98253137 
12610000   0.94386583 -1.3131745e-05   0.46326664  0.011705786            0   0.45156086    1.4087197    1.8719864   0.96432016 
12615000   0.90589537 -5.4112717e-06   0.48762768  0.025918638            0   0.46170905    1.3520488    1.8396765    1.4656494 
12620000   0.92914665 2.1401356e-05   0.46776774  0.025085893            0   0.44268185    1.3867514    1.8545191    3.3337808 
12625000   0.88010126 1.4825687e-05   0.54852665  0.037946962            0   0.51057969    1.3135511    1.8620778    2.8868293 
12630000   0.90948473 -4.5740767e-05   0.49655851   0.03005152            0   0.46650699     1.357406    1.8539645   -1.3076374 
12635000     0.923914 6.0917609e-06   0.47480767 0.0067890458            0   0.46801862    1.3789416    1.8537493    2.2748118 
12640000   0.92754515 -7.055682e-06   0.49545659  0.010712511            0   0.48474408    1.3843611    1.8798177     1.392129 
12645000   0.95277717 -3.1449023e-05   0.46195497  0.034407763            0   0.42754721    1.4220199    1.8839749  -0.28978155 
12650000   0.93468397 6.7052082e-06   0.49270576  0.063498633            0   0.42920713    1.3950158    1.8877216    2.3511856 
12655000   0.90006589 2.7386813e-05   0.54373741  0.027744549            0   0.51599286    1.3433483    1.8870858    3.7800623 
12660000   0.94181481 4.170698e-05   0.47858986  0.011718347            0   0.46687151    1.4056586    1.8842485    4.7670349 
12665000   0.93713339 1.0078681e-05   0.47328569  0.011092057            0   0.46219364    1.3986716    1.8719573    2.5685957 
12670000    0.9320617 -1.4564835e-05   0.49359317  0.013626486            0   0.47996668    1.3911021    1.8846953   0.87797388 
12675000   0.92673721 -1.3120143e-05   0.50647661  0.024284565            0   0.48219204    1.3831553    1.8896319   0.98276757 
12680000    0.9716816 2.1407702e-05   0.47557713  0.026718228            0   0.44885891    1.4502348    1.9258119    3.4055123 
12685000   0.91804085 1.0920218e-05   0.55302689  0.045950663            0   0.50707622     1.370176    1.9232029    2.6780083 
12690000   0.97500218 -6.4479422e-05   0.46951655  0.047864331            0   0.42165222    1.4551908    1.9247073   -2.5321104 
12695000   0.93014012 -6.1961154e-05   0.53115222  0.038943137            0   0.49220908    1.3882341    1.9193864   -2.3633686 
12700000   0.97448721 -1.6367475e-05   0.47757693  0.023854601            0   0.45372233    1.4544222    1.9319991   0.80067925 
12705000   0.97868313 1.0168443e-05   0.49385275  0.028602486            0   0.46525027    1.4606846    1.9545373    2.6573801 
12710000    1.0139904 5.4918028e-05   0.43697753  0.024492733            0    0.4124848    1.5133807    1.9503582    5.7462923 
12715000   0.94870456 4.3107958e-05   0.54142882  0.064047077            0   0.47738174    1.4159416    1.9573704    4.9369924 
12720000   0.98613803 -1.0217723e-05   0.48908468  0.026879434            0   0.46220524     1.471811    1.9608957    1.2546467 
12725000   0.99241281 -1.4019682e-06   0.46762973  0.017319968            0   0.45030976    1.4811761    1.9488058    1.8519018 
12730000   0.96435347 2.7456871e-05   0.50014743  0.012017586            0   0.48812984    1.4392976     1.939445    3.8372639 
12735000   0.93041632 1.7778351e-05   0.55363692 0.0085993892            0   0.54503753    1.3886464    1.9422833    3.1711229 
12740000   0.97678514 -1.151511e-05   0.47692079 0.0040604965            0    0.4728603    1.4578518    1.9347726    1.1388482 
12745000   0.94271159 -2.5696813e-05   0.52597242 0.0086532545            0   0.51731917    1.4069971    1.9329695   0.15680576 
12750000    0.9808734 7.1335047e-05   0.45848269   0.01920782            0   0.43927487    1.4639536    1.9224362    6.8531147 
12755000   0.93103877 4.4498847e-05   0.51884167  0.023840806            0   0.49500087    1.3895754     1.908417    4.9841774 
12760000   0.95750387 -4.8062717e-05   0.48461804  0.022811397            0   0.46180664    1.4290745    1.9136926   -1.4084024 
12765000   0.94502689 -4.5949595e-06   0.50885451  0.015266094            0   0.49358841    1.4104526    1.9193071    1.6017035 
12770000   0.95039259 3.0578143e-05   0.49892079 0.0058544628            0   0.49306633    1.4184609    1.9173817     4.030943 
12775000    0.9357571 -8.0301738e-06   0.53117919  0.017166124            0   0.51401307    1.3966175    1.9277967     1.372751 
12780000   0.95620966 2.1307162e-05   0.50327874  0.019560194            0   0.48371855    1.4271429    1.9304217    3.4031727 
12785000   0.94067111 2.0871652e-05    0.5088124  0.023414669            0   0.48539773    1.4039516     1.912764    3.3554126 
12790000   0.91938889 -1.4860833e-05   0.53743223  0.011517867            0   0.52591436    1.3721879    1.9096202    0.8824394 
12795000   0.93952681 8.0940672e-06   0.51666073  0.014891843            0   0.50176889    1.4022438    1.9189045    2.4783664 
12800000   0.94388186 1.3951889e-06   0.50886709  0.012715205            0   0.49615188    1.4087437    1.9176108    2.0140462 
12805000   0.93321609 1.3995179e-05   0.51406282  0.015239172            0   0.49882365     1.392825    1.9068878    2.8742346 
12810000   0.91563671 5.2642865e-05   0.54099909  0.017327246            0   0.52367184    1.3665878    1.9075869    5.5462617 
12815000    0.9292683 7.2454444e-05   0.50792309  0.034276424            0   0.47364667    1.3869329     1.894856    6.9029072 
12820000   0.92734362 1.8355656e-05   0.51688991  0.023202501            0   0.49368741    1.3840604    1.9009503    3.1696932 
12825000   0.94168351 -4.3273083e-05   0.50536382   0.02354563            0   0.48181819    1.4054626    1.9108265   -1.0802091 
12830000   0.92470965 -1.2245449e-05   0.52882497  0.020889706            0   0.50793526    1.3801292    1.9089541    1.0625487 
12835000   0.93238711 2.7588276e-05   0.52187162  0.015499389            0   0.50637223    1.3915878    1.9134594     3.820361 
12840000   0.95865172 7.1536547e-05   0.47795608  0.019406427            0   0.45854965    1.4307877    1.9087438    6.8533499 
12845000   0.94319002 1.7288069e-05   0.51661897  0.018266824            0   0.49835214    1.4077111    1.9243301    3.1192814 
12850000   0.95247409 -1.517508e-05    0.5113243  0.023480724            0   0.48784358    1.4215676    1.9328919   0.88399035 
12855000   0.92978949 2.3536558e-05   0.52843786  0.025710185            0   0.50272768    1.3877108    1.9161487    3.5429956 
12860000   0.90762652 4.3684967e-07   0.57731141  0.016444847            0   0.56086657    1.3546326     1.931944     1.962139 
12865000   0.91653175 2.5297819e-05   0.54549911  0.024626743            0   0.52087236    1.3679236    1.9134227     3.662008 
12870000   0.91335996 6.6493638e-05   0.55106277  0.040439754            0   0.51062302    1.3631897    1.9142525    6.5102928 
12875000   0.92445891 -1.103124e-05   0.55951065  0.036841509            0   0.52266914    1.3797549    1.9392656    1.1767863 
12880000   0.98021788 -2.5106815e-05   0.47164168  0.026454091            0   0.44518759    1.4629752    1.9346169    0.1992338 
12885000   0.99414513 4.8844576e-05   0.47186539  0.017871279            0   0.45399411    1.4837616     1.955627    5.3317641 
12890000   0.99150745 -4.3526029e-05    0.4792191 0.0092307338            0   0.46998836    1.4798249     1.959044   -1.0494751 
12895000    0.9585806 -0.00010506891   0.53312027  0.016385167            0    0.5167351    1.4306815    1.9638018   -5.2985614 
12900000    1.0109114 2.3760505e-05   0.46682176  0.014871507            0   0.45195026    1.5087853    1.9756071    3.6179332 
12905000   0.97537522 2.4728484e-05   0.52842113  0.012044934            0    0.5163762    1.4557475    1.9841687    3.6934015 
12910000   0.93716443 -1.3084337e-06   0.59989865  0.022505813            0   0.57739284    1.3987179    1.9986166    1.9081776 
12915000   0.98696946 6.8722941e-05   0.50388112  0.011277475            0   0.49260365    1.4730519     1.976933    6.7270627 
12920000     1.026996 -4.938412e-07   0.45078807   0.01380295            0   0.43698512    1.5327915    1.9835795    1.9494452 
12925000   0.99819185 -4.0676009e-06   0.49752613   0.02206824            0   0.47545789    1.4898013    1.9873275    1.7061749 
12930000     0.963372 -6.6570559e-06   0.54919174   0.02348963            0   0.52570211    1.4378327    1.9870244    1.5268887 
12935000   0.96305682 -4.4751113e-05   0.55582805  0.025566523            0   0.53026153    1.4373623    1.9931904   -1.1000065 
12940000   0.97741216 -2.4782256e-07   0.52896166  0.018145062            0    0.5108166    1.4587876    1.9877493    1.9706198 
12945000    1.0255332 3.0431328e-06   0.43549899  0.015024462            0   0.42047453    1.5306083    1.9661072    2.1764486 
12950000   0.97685205 2.1702085e-07   0.50494453  0.023665038            0   0.48127949    1.4579517    1.9628962    1.9778967 
12955000   0.93162751 3.508704e-05   0.58689056  0.015338204            0   0.57155235    1.3904541    1.9773446    4.4025608 
12960000   0.97505294 1.3594359e-05   0.52173941  0.021990938            0   0.49974847    1.4552665    1.9770059     2.916648 
12965000   0.91522746 -5.6536123e-05   0.60705381  0.027584212            0   0.57946959     1.365977    1.9730308   -1.9347461 
12970000   0.94466618 5.7148985e-06   0.55488929  0.019881426            0   0.53500786    1.4099143    1.9648036    2.3598174 
12975000   0.95118564 1.0037481e-05   0.56013312   0.01786895            0   0.54226417    1.4196446    1.9797777    2.6735684 
12980000   0.92311873 -5.538451e-05   0.59964264  0.035946335            0   0.56369631    1.3777547    1.9773974   -1.8507799 
12985000   0.93964951 -2.0107771e-05   0.57529106  0.029124214            0   0.54616685    1.4024269     1.977718   0.58786885 
12990000   0.99968793 -2.3139308e-05   0.47915015  0.021518621            0   0.45763153    1.4920342    1.9711844   0.37179541 
12995000   0.96300339 -1.4751363e-05   0.52724628    0.0228271            0   0.50441918    1.4372826    1.9645288   0.94491465 
13000000   0.93585876 3.4175259e-05   0.57409195  0.017868125            0   0.55622382    1.3967692    1.9708611    4.3330551 
13005000    1.0003284 3.4897728e-05   0.48693709  0.014220728            0   0.47271636    1.4929901    1.9799272    4.3920581 
13010000    1.0193788 3.8358503e-05   0.44889234  0.026539711            0   0.42235263    1.5214228    1.9703152    4.6216549 
13015000   0.98122247 -1.4844851e-05   0.51190379   0.02087985            0   0.49102394    1.4644745    1.9763783   0.95030223 
13020000   0.97631576 -6.6000015e-05   0.52262952  0.015748593            0   0.50688093    1.4571513    1.9797808   -2.5821402 
13025000   0.98122494 7.9757049e-06   0.53890725  0.009640139            0   0.52926711    1.4644782    2.0033855    2.5546662 
13030000   0.99461173 -1.4959906e-05   0.52029336  0.012022903            0   0.50827045     1.484458    2.0047514   0.97072266 
13035000    1.0150225 -4.7448764e-05   0.50845812  0.015668066            0   0.49279005    1.5149211    2.0233793   -1.2562793 
13040000   0.96194536 -1.8864917e-05   0.57308447  0.021656202            0   0.55142826    1.4357035    2.0087879   0.70484486 
13045000   0.97775252 3.1979726e-05   0.54917888   0.01599554            0   0.53318334    1.4592956    2.0084745    4.2189132 
13050000   0.98039177 -2.6960729e-05   0.55573399  0.037654503            0   0.51807949    1.4632347    2.0189687   0.15544311 
13055000   0.94486397 -7.1989504e-05   0.60477968   0.03933626            0   0.56544342    1.4102095    2.0149892   -2.9609253 
13060000   0.96749233 -6.1885828e-05   0.56213381  0.015802401            0   0.54633141    1.4439823    2.0061161   -2.2714323 
13065000    1.0272688 -8.2655592e-05   0.49090419  0.019109796            0    0.4717944    1.5331986    2.0241028   -3.6890517 
13070000    1.0157868 -3.0989654e-06   0.50249047  0.030729786            0   0.47176069    1.5160618    2.0185522    1.8043518 
13075000     1.031639 2.2732927e-05   0.50412129  0.017573896            0    0.4865474    1.5397212    2.0438425    3.6151423 
13080000    1.0133952 2.4620331e-05   0.55307637  0.028501161            0   0.52457521    1.5124923    2.0655686    3.7673259 
13085000    1.0408812 2.3191123e-05   0.52552753  0.019399336            0   0.50612819    1.5535153    2.0790428    3.6820132 
13090000    1.0143777 -5.0607094e-06   0.57350288  0.019178669            0   0.55432421    1.5139588    2.0874616    1.7376654 
13095000    1.0578838 6.914833e-06   0.51432884  0.023555894            0   0.49077295    1.5788916    2.0932204    2.5711737 
13100000    1.0357811 -3.3709671e-05   0.54578211  0.032015213            0    0.5137669    1.5459032    2.0916853  -0.23832712 
13105000     0.975563 -7.1383951e-05   0.65191436  0.039422606            0   0.61249175    1.4560278    2.1079421   -2.8261165 
13110000    1.0103446 -3.2755323e-05    0.5943445  0.033821083            0   0.56052342    1.5079393    2.1022838  -0.16176414 
13115000    1.0604904 -2.3315283e-05   0.51123085  0.010571053            0    0.5006598    1.5827819    2.0940127   0.48246035 
13120000    1.0110393 2.0320061e-05   0.57403042  0.016976199            0   0.55705422    1.5089762    2.0830066    3.4875292 
13125000    1.0157285 7.0853895e-05   0.57331657  0.020335877            0   0.55298069    1.5159748    2.0892914    6.9867126 
13130000    1.0505565 2.3445261e-05   0.53803031  0.011611672            0   0.52641863    1.5679556    2.1059859    3.7265223 
13135000    1.0229546 -2.1326413e-05   0.56720802  0.013099677            0   0.55410835    1.5267597    2.0939678    0.6198861 
13140000     1.028392 4.0327962e-05   0.54121797  0.018870271            0    0.5223477    1.5348751     2.076093    4.8635618 
13145000    1.0407083 -2.7955729e-05   0.52428096  0.022861517            0   0.50141944    1.5532572    2.0775381   0.14523814 
13150000    1.0097989 -6.4464699e-05   0.58650961 0.0065287228            0   0.57998089    1.5071249    2.0936345   -2.3621655 
13155000   0.99183639 3.5730993e-05   0.63225102  0.027598534            0   0.60465249    1.4803158    2.1125668    4.5822931 
13160000    1.0756926 8.2836998e-05   0.50706155  0.043409624            0   0.46365193    1.6054712    2.1125328    7.8382261 
13165000    1.0370916 1.2855864e-06   0.56197083  0.025264858            0   0.53670597    1.5478592    2.1098301    2.1986898 
13170000    1.0179241 -4.0217782e-05   0.59490977  0.026729543            0   0.56818023    1.5192517    2.1141615   -0.6656916 
13175000    1.0988214 -2.3678601e-05   0.49327527  0.017326276            0   0.47594899    1.6399909    2.1332662   0.49660123 
13180000    1.1087001 5.915874e-05   0.47740083 0.0099421805            0   0.46745865    1.6547349    2.1321357    6.2211878 
13185000    1.0241045 2.2347756e-05   0.59628062  0.010730842            0   0.58554978     1.528476    2.1247567    3.6694335 
13190000    1.0543017 -1.3667953e-05   0.55268181  0.026832887            0   0.52584893    1.5735453    2.1262271    1.1814982 
13195000     1.018239 -1.5416133e-05    0.6040907  0.021035513            0   0.58305519    1.5197217    2.1238124    1.0582492 
13200000    1.0443571 -9.5464622e-05   0.56565994  0.026743477            0   0.53891646     1.558703    2.1243629   -4.4741518 
13205000    1.1188098 -1.1003959e-05   0.47173216  0.013641427            0   0.45809073    1.6698237    2.1415558    1.3809622 
13210000    1.0567671 -1.4497961e-05   0.56925711   0.02534674            0   0.54391037    1.5772249     2.146482    1.1443829 
13215000    1.1031231 -4.0640775e-05   0.51846667  0.013886776            0   0.50457989    1.6464112    2.1648779  -0.64421245 
13220000    1.0448026 5.8819031e-05   0.60763588  0.029220093            0   0.57841579    1.5593678    2.1670037    6.2325751 
13225000    1.0781147 1.8329242e-05   0.55757512  0.037279255            0   0.52029586    1.6090862    2.1666613    3.4335786 
13230000    1.0469313 -3.51951e-05   0.59141969   0.02237769            0     0.569042    1.5625449    2.1539646   -0.2787207 
13235000    1.0778657 2.1427693e-06   0.56791098  0.031249131            0   0.53666185    1.6087145    2.1766255    2.3247337 
13240000    1.1237856 4.1770914e-05   0.47174879  0.011142429            0   0.46060636    1.6772501    2.1489989    5.0362045 
13245000    1.0873015 5.7358047e-05   0.51637202  0.010072912            0   0.50629911    1.6227975    2.1391695    6.1037578 
13250000    1.0255169 1.9394971e-05    0.6131745  0.029040264            0   0.58413424     1.530584    2.1437585    3.4843389 
13255000    1.1178509 -2.448316e-05   0.48608925  0.018076208            0   0.46801304    1.6683924    2.1544817   0.46220569 
13260000    1.0900925 -7.8955878e-05   0.53298546  0.032253115            0   0.50073234     1.626963    2.1599485   -3.2974818 
13265000    1.1189029 7.0175148e-06     0.513468  0.017947899            0    0.4955201    1.6699626    2.1834306    2.6684813 
13270000    1.1204424 1.8707055e-05   0.54038926  0.006692252            0   0.53369701    1.6722604    2.2126496    3.5056813 
13275000    1.0812912 -2.8880327e-05   0.61226088 0.0057384602            0   0.60652242    1.6138271    2.2260879   0.22987973 
13280000    1.0958181 3.0285564e-05   0.58092203 0.0097804683            0   0.57114156    1.6355086    2.2164306    4.3097688 
13285000    1.0920297 6.8215615e-06   0.58183991  0.025065813            0    0.5567741    1.6298543    2.2116942    2.6832006 
13290000    1.1103981 1.5032818e-06   0.53777703  0.017348977            0   0.52042805    1.6572691    2.1950461     2.298953 
13295000    1.1337807 -3.5546347e-05   0.49222151  0.009402051            0   0.48281946    1.6921676    2.1843891   -0.2725744 
13300000    1.1030606 3.3114281e-06   0.56424427  0.020187114            0   0.54405716    1.6463179    2.2105622    2.4394481 
13305000    1.1363899 6.7026942e-05   0.52770059   0.01420307            0   0.51349752    1.6960619    2.2237625    6.8566648 
13310000    1.1139195 5.0014341e-05   0.56853244  0.012927764            0   0.55560468    1.6625248    2.2310573    5.6880485 
13315000    1.0761031 2.2309666e-05   0.61612731  0.013590615            0   0.60253669    1.6060838    2.2222111    3.7642553 
13320000    1.1366122 4.5012344e-05   0.52693902  0.012524628            0    0.5144144    1.6963938    2.2233328    5.3345861 
13325000    1.1052638 -3.9461884e-06   0.56410761  0.021082053            0   0.54302556    1.6496062    2.2137138    1.9409533 
13330000     1.072905 -5.7335728e-06   0.59560632  0.026490704            0   0.56911562    1.6013107     2.196917    1.8006125 
13335000    1.0876115 -2.7098673e-06   0.57100127 0.0066550821            0   0.56434619    1.6232601    2.1942614    2.0069554 
13340000    1.1196539 -2.1822809e-05   0.50994636  0.019889699            0   0.49005666    1.6710835    2.1810298   0.67263728 
13345000    1.0710823 -8.4958197e-05   0.55942211  0.026874937            0   0.53254718    1.5985903    2.1580124   -3.7142982 
13350000     1.073923 -2.6521285e-06    0.5485074  0.010658385            0   0.53784901    1.6028301    2.1513375    1.9680224 
13355000    1.0690766 -9.1113363e-06   0.54795997  0.018588687            0   0.52937129    1.5955968    2.1435567    1.5137812 
13360000    1.0467427 -2.5213877e-05   0.57768066  0.031601204            0   0.54607945    1.5622635    2.1399441   0.39716097 
13365000    1.0776076 3.3888601e-05   0.50686547  0.011016602            0   0.49584886    1.6083294    2.1151948    4.4575749 
13370000    1.0842294 5.9586047e-05   0.48361293  0.011757211            0   0.47185572    1.6182124    2.1018254    6.2204129 
13375000    1.0539831 6.8224132e-06   0.50806512  0.041502132            0   0.46656299    1.5730698    2.0811349    2.5527002 
13380000    1.0042289 -3.2527428e-06   0.59066829  0.054079075            0   0.53658921    1.4988116    2.0894799    1.8646503 
13385000    1.0282788 -2.7208041e-05   0.56906547  0.042912795            0   0.52615267    1.5347061    2.1037716   0.22315176 
13390000    1.0481814 -1.7418618e-05   0.53276596  0.019795531            0   0.51297043    1.5644107    2.0971766   0.89320177 
13395000     1.032789 -3.1962311e-06   0.55023089  0.027606626            0   0.52262427    1.5414375    2.0916684    1.8707449 
13400000    1.0289705 3.6709213e-05   0.53176376  0.029852231            0   0.50191153    1.5357384    2.0675022     4.604843 
13405000    1.0128742 4.9653553e-05   0.57298773  0.026662616            0   0.54632512    1.5117148    2.0847025    5.5167561 
13410000    1.0263087 -4.4668446e-05   0.57300052  0.025124731            0   0.54787579    1.5317657    2.1047662  -0.98271684 
13415000    1.0534765 -1.0783847e-05   0.52359219   0.01541832            0   0.50817387    1.5723136    2.0959058    1.3505263 
13420000    1.0151487 2.4644316e-05   0.59321075  0.010308803            0   0.58290195    1.5151095    2.1083202    3.8117354 
13425000    1.0538074 4.3864094e-05   0.53844118 0.0083074699            0   0.53013371    1.5728075    2.1112487    5.1431349 
13430000    1.0257392 -1.1296313e-05   0.58668018  0.020483424            0   0.56619675    1.5309158    2.1175959    1.3367948 
13435000    1.0456152 -0.0001012293   0.57403933  0.016823018            0   0.55721631    1.5605806      2.13462   -4.8623494 
13440000     1.057035 -2.6317423e-05   0.54043414  0.010540929            0   0.52989321    1.5776247    2.1180589   0.29899862 
13445000    1.0989531 -2.7657947e-05   0.47220639 0.0087694776            0   0.46343692    1.6401875    2.1123939   0.20067658 
13450000    1.0535703 -5.8261125e-05   0.55154992  0.012695655            0   0.53885426    1.5724536    2.1240035   -1.9030054 
13455000    1.0550198 -2.7171561e-05   0.52825913 0.0072870842            0   0.52097205    1.5746171    2.1028762   0.22477793 
13460000    1.0496302 -6.6946483e-06   0.52738261 0.0095343405            0   0.51784827     1.566573    2.0939557    1.6312216 
13465000   0.99464216 5.4089809e-05    0.6108179   0.02536715            0   0.58545075    1.4845034    2.0953213    5.8340089 
13470000    1.1054198 5.331538e-05   0.45273215  0.017098905            0   0.43563325    1.6498391    2.1025713    5.7877303 
13475000    1.0721928 9.9194667e-06   0.50446627   0.01778221            0   0.48668406    1.6002478     2.104714    2.7903476 
13480000    1.0458037 -4.1820614e-05   0.54731414  0.014641252            0   0.53267289    1.5608621    2.1081762  -0.78246465 
13485000    1.0257276 -2.214457e-05   0.56103363  0.031852331            0    0.5291813    1.5308985    2.0919321   0.56129946 
13490000    1.0336178 8.6023568e-06   0.54343364  0.024400744            0    0.5190329    1.5426746    2.0861082    2.6807031 
13495000    1.0077454 1.7141127e-05   0.57081311  0.024177498            0   0.54663561      1.50406    2.0748731    3.2596678 
13500000    1.0371794 1.0205307e-05   0.50366533  0.024576791            0   0.47908854    1.5479902    2.0516555    2.7570464 
13505000    1.0087227 -1.9504279e-05   0.55345138  0.027068387            0   0.52638299    1.5055186      2.05897   0.71083425 
13510000    1.0463806 -5.6415063e-06   0.48007878  0.015499797            0   0.46457898     1.561723    2.0418018    1.6518609 
13515000    1.0016985 7.9788656e-06   0.53239928  0.013712616            0   0.51868667     1.495035    2.0274343    2.5789335 
13520000    1.0128437 1.8307099e-05   0.51987393  0.031127928            0     0.488746    1.5116692    2.0315432    3.2969298 
13525000   0.98836749 2.7299602e-05   0.57037132  0.054084428            0   0.51628689    1.4751385    2.0455098    3.9324583 
13530000   0.98261785 -1.8021567e-05   0.58134785  0.025353245            0   0.55599461    1.4665571     2.047905    0.8022543 
13535000    1.0160001 -2.9778034e-05   0.54075498  0.026334847            0   0.51442013    1.5163802    2.0571352 -0.0011225398 
13540000    1.0570506 1.7901914e-05   0.48929178  0.020124756            0   0.46916702     1.577648    2.0669398    3.3043201 
13545000    1.0226906 2.7798919e-05   0.54217243  0.012052855            0   0.53011958    1.5263657    2.0685381    3.9899994 
13550000     1.025495 -1.4039243e-05   0.51767658  0.014591836            0   0.50308474    1.5305513    2.0482279    1.0778354 
13555000    1.0360602 -1.1977993e-06   0.49230897 0.0040709114            0   0.48823806    1.5463198    2.0386288    1.9558369 
13560000    1.0206806 -1.1997482e-05   0.50260085  0.011195008            0   0.49140584    1.5233658    2.0259667    1.1967007 
13565000   0.98664739 -3.4576236e-05   0.55364909  0.027135359            0   0.52651373    1.4725712    2.0262203  -0.36368913 
13570000    1.0217116 -1.9202732e-05   0.49789357  0.016779063            0    0.4811145    1.5249045    2.0227981   0.69550527 
13575000   0.98671315 -1.5638684e-05   0.55583649  0.028185044            0   0.52765144    1.4726694    2.0285059   0.94756003 
13580000    1.0356972 1.0976254e-05   0.49332803  0.012677505            0   0.48065053    1.5457781    2.0391061    2.7977848 
13585000      1.01612 1.1594716e-05   0.54201384 0.0094014985            0   0.53261234    1.5165591    2.0585729    2.8599997 
13590000     1.009083 -4.2422242e-05   0.54497079  0.026596888            0    0.5183739    1.5060564    2.0510272  -0.88119819 
13595000    1.0050266 -1.2205742e-05   0.57113161  0.014308516            0    0.5568231    1.5000022    2.0711338    1.2274729 
13600000    1.0306055 -5.1069509e-06   0.52926919  0.023954302            0   0.50531489    1.5381787    2.0674479    1.7144554 
13605000    1.0218056 -4.8383108e-05   0.52775084  0.011221178            0   0.51652966    1.5250448    2.0527957   -1.2914448 
13610000    1.0335651 -5.9661646e-05   0.50470845 0.0058919783            0   0.49881647    1.5425959    2.0473043   -2.0765087 
13615000    1.0179596 6.256053e-06    0.5472817  0.010688517            0   0.53659318    1.5193046    2.0665863    2.4990047 
13620000   0.97751054 8.0639638e-05   0.59838034  0.017661776            0   0.58071856    1.4589345    2.0573148    7.6311266 
13625000    1.0136827 7.7291882e-05   0.55378742 0.0090790787            0   0.54470834    1.5129214    2.0667088    7.4091237 
13630000    1.0326535 4.148908e-05   0.53157311  0.011904814            0    0.5196683    1.5412354    2.0728085    4.9405337 
13635000    1.0375592 4.4204455e-05   0.55345822  0.015809092            0   0.53764912    1.5485571    2.1020153    5.1574273 
13640000    1.0511284 3.0861727e-05   0.54612175  0.010206141            0   0.53591561    1.5688091    2.1149309    4.2480935 
13645000    1.0767614 -5.8340568e-05   0.51393325  0.016337034            0   0.49759622    1.6070664    2.1209996   -1.9115005 
13650000     1.072933 -5.4733266e-05   0.52715525  0.016459008            0   0.51069624    1.6013524    2.1285077   -1.6546557 
13655000    1.0578237 1.4075377e-05   0.55929864 0.0097259813            0   0.54957266    1.5788019    2.1381005    3.1109906 
13660000    1.0050547 6.9391162e-05   0.62346043  0.018608571            0   0.60485186    1.5000441    2.1235046    6.9198217 
13665000    1.0257375 4.458891e-05   0.57187462  0.037491725            0    0.5343829    1.5309132    2.1027878    5.1847733 
13670000    1.0946548 2.6555447e-05    0.4896914  0.019926472            0   0.46976492    1.6337722    2.1234636    3.9589762 
13675000    1.0331213 -5.9790494e-05   0.57812113   0.03790201            0   0.54021912    1.5419335    2.1200546   -2.0126643 
13680000    1.0527888 -4.9507085e-05    0.5356501   0.02318957            0   0.51246053    1.5712873    2.1069374   -1.3149923 
13685000    1.0328208 4.6675527e-05   0.56392382  0.037955287            0   0.52596853     1.541485    2.1054088    5.3316212 
13690000    1.1032599 3.6225159e-05   0.44267686  0.013459912            0   0.42921694    1.6466154    2.0892923    4.5931753 
13695000    1.0272686 2.1548978e-06   0.54078645  0.027848675            0   0.51293778    1.5331983    2.0739848    2.2229313 
13700000   0.95532496 -8.6254751e-06   0.64676812  0.036200724            0    0.6105674    1.4258225    2.0725906    1.4763978 
13705000    1.0277567 -5.3368733e-05   0.53981024  0.015406346            0   0.52440389    1.5339269    2.0737371   -1.6151097 
13710000    1.0065401 -6.5813205e-05   0.56163999 0.0073871185            0   0.55425287    1.5022611     2.063901   -2.4851077 
13715000    1.0596848 4.3741941e-06   0.48308905 0.0047616741            0   0.47832738    1.5815796    2.0646686    2.3670129 
13720000    1.0026494 -1.6378591e-05   0.55381575 0.0016531452            0   0.55216261    1.4964542      2.05027   0.91818176 
13725000    1.0100621 8.1313613e-06   0.54664096 0.0061922362            0   0.54044873    1.5075177    2.0541586    2.6161983 
13730000   0.99636851 -2.0676307e-05   0.55211737   0.02368132            0   0.52843605      1.48708    2.0391974   0.61005101 
13735000    1.0080888 -1.8637699e-06    0.5237606  0.023851508            0   0.49990909    1.5045725    2.0283331    1.8995093 
13740000   0.98659355 2.9075472e-05   0.56270294  0.022594007            0   0.54010893    1.4724909    2.0351938    4.0448905 
13745000   0.99161575 -3.1373921e-05    0.5552244  0.030565099            0    0.5246593    1.4799865    2.0352109  -0.13335451 
13750000      1.00422 1.4433054e-05   0.52763496  0.043943697            0   0.48369126    1.4987984    2.0264334    3.0240461 
13755000    1.0237172 7.0338404e-05   0.50844441  0.029934497            0   0.47850991    1.5278979    2.0363423    6.8981328 
13760000   0.98935242 2.4398936e-05   0.53313217  0.029725778            0   0.50340639    1.4766085    2.0097407    3.6961951 
13765000   0.99369538 -2.085628e-07   0.52201107  0.023653498            0   0.49835758    1.4830904    2.0051014    1.9906856 
13770000   0.97125166 6.1539575e-05   0.53898034  0.011692728            0   0.52728761    1.4495931    1.9885734    6.2421889 
13775000     0.971829 -4.2654722e-06   0.54374105  0.016242431            0   0.52749862    1.4504548    1.9941958    1.6993664 
13780000   0.97135956 3.8148721e-05   0.53452977 0.0076534094            0   0.52687636    1.4497541    1.9842839    4.6211235 
13785000    1.0113576 2.3301265e-05   0.49219083  0.022712476            0   0.46947836    1.5094512     2.001642    3.6122255 
13790000    1.0082583 -8.8745219e-06    0.4897843  0.028868781            0   0.46091552    1.5048255    1.9946098    1.3812028 
13795000    1.0408501 1.1296008e-08   0.46924446  0.018871443            0   0.45037302    1.5534688    2.0227133     2.023494 
13800000    1.0078303 3.7748962e-05   0.50166989  0.023149554            0   0.47852033    1.5041867    2.0058566    4.6150648 
13805000   0.97432778 4.5550039e-05    0.5442067  0.043447508            0   0.50075919    1.4541842    1.9983909    5.1468096 
13810000    1.0349689 -7.0644056e-05   0.46598064  0.034233251            0   0.43174739    1.5446911    2.0106717   -2.8722454 
13815000    0.9862617 -4.3158253e-05   0.53900497 0.0074661538            0   0.53153882    1.4719956    2.0110006  -0.97209791 
13820000    1.0127502 3.0808293e-05   0.52506814 0.0035300007            0   0.52153814    1.5115297    2.0365979    4.1660671 
13825000     1.017246 2.4205981e-05   0.49749188  0.020908724            0   0.47658316    1.5182396    2.0157315    3.6888489 
13830000   0.98717672 -1.7638416e-05   0.55704266  0.039917156            0    0.5171255    1.4733613    2.0304039   0.81123658 
13835000    1.0080785 -7.2841567e-06   0.52662442  0.030655828            0    0.4959686    1.5045572    2.0311816    1.5277007 
13840000    1.0347011 3.3967812e-05   0.47639729  0.029184506            0   0.44721278    1.5442914    2.0206886    4.3685438 
13845000    1.0237594 1.8545172e-05   0.48599802 0.0078331727            0   0.47816485    1.5279609    2.0139589    3.2958012 
13850000   0.98582385 -3.7633139e-07   0.56267408 0.0056305995            0   0.55704348    1.4713421    2.0340162    2.0080041 
13855000    1.0198041 1.2660428e-05   0.52093447  0.013060478            0   0.50787399    1.5220576     2.042992    2.9180808 
13860000    1.0699385 -2.9520564e-06   0.44746837 0.0098220199            0   0.43764635    1.5968833    2.0443517    1.8403055 
13865000    1.0283991 -1.6608569e-05   0.52760872 0.0082020619            0   0.51940666    1.5348856    2.0624943   0.91451006 
13870000    1.0174018 -9.6449859e-06   0.55018206  0.021929042            0   0.52825302    1.5184722    2.0686543    1.4019929 
13875000    1.0410224 1.568777e-06   0.52109232  0.017031835            0   0.50406049     1.553726    2.0748183    2.1832522 
13880000    1.0927769 2.6899992e-05   0.44914135  0.010105956            0    0.4390354    1.6309695    2.0801109    3.9394384 
13885000    1.0368146 3.9814876e-06   0.52975021 0.0066395312            0   0.52311068    1.5474458     2.077196    2.3523964 
13890000    1.0416216 4.1994885e-05   0.53514577  0.005975372            0   0.52917039    1.5546202     2.089766    4.9924524 
13895000    1.0632495 7.8966905e-05   0.49567049   0.01134226            0   0.48432823    1.5868999    2.0825704    7.5407629 
13900000    1.0888342 -8.3444733e-06   0.48047911  0.040377809            0    0.4401013    1.6250851    2.1055642    1.5287942 
13905000    1.0494419 -3.4541472e-05   0.53882854  0.037987687            0   0.50084086     1.566292    2.1051205  -0.28238605 
13910000    1.0512301 -1.7250151e-05   0.53374552 0.0081354527            0   0.52561007     1.568961    2.1027065   0.91037602 
13915000    1.0681458 -1.0326973e-05   0.50515457  0.023598497            0   0.48155607    1.5942076    2.0993622    1.3855618 
13920000    1.0933927 -1.184532e-05   0.46980036 0.0093243967            0   0.46047597    1.6318886    2.1016889    1.2829404 
13925000     1.082677 -1.3839903e-05   0.48169199 0.0035799938            0   0.47811199    1.6158954    2.0975874    1.1409733 
13930000    1.0231051 2.2342584e-05   0.55371648  0.011892391            0   0.54182409    1.5269844    2.0807009    3.6250203 
13935000    1.0440586 -3.3828425e-05   0.51556805  0.020182884            0   0.49538516    1.5582575    2.0738255   -0.2643952 
13940000    1.0364706 -2.1708364e-05   0.53090024 0.0096147238            0   0.52128552    1.5469323    2.0778326   0.57735045 
13945000     1.053679 -4.2031383e-06   0.51650975  0.015476269            0   0.50103349     1.572616    2.0891257    1.7986048 
13950000    1.0269273 -6.1116233e-05   0.58209345  0.010940284            0   0.57115316     1.532689    2.1147825   -2.1095715 
13955000    1.0552992 -2.056678e-05   0.54176993  0.010415723            0    0.5313542    1.5750341     2.116804   0.69522816 
13960000    1.0852176 3.2888881e-05   0.48926546  0.011199044            0   0.47806641    1.6196872    2.1089527    4.3822322 
13965000     1.078563 -1.9753473e-05   0.50918221  0.012480706            0   0.49670151    1.6097553    2.1189376   0.75357751 
13970000    1.0348368 -7.0860371e-05   0.55410236  0.014345312            0   0.53975704     1.544494    2.0985963   -2.7992725 
13975000    1.0144162 -6.1222513e-05   0.56385772 0.0066195032            0   0.55723822    1.5140161    2.0778738   -2.1538263 
13980000    1.0767746 1.6231946e-05   0.44883108   0.01606075            0   0.43277033    1.6070861    2.0559171    3.1778693 
13985000    1.0181827 4.2040936e-05   0.54127009  0.028868246            0   0.51240184    1.5196377    2.0609078    4.9667773 
13990000   0.98749536 -1.2727069e-06   0.55702719  0.015474752            0   0.54155244    1.4738368     2.030864    1.9428945 
13995000    1.0210481 -1.1113665e-05   0.49523221  0.014729709            0    0.4805025    1.5239144    2.0191466    1.2509701 
14000000    1.0219234 -4.8123499e-05   0.49537898 0.0095893511            0   0.48578963    1.5252207    2.0205997   -1.3056966 
14005000    1.0122608 -3.1465814e-06   0.48965998   0.01443896            0   0.47522102    1.5107993    2.0004593    1.7829676 
14010000   0.99909141 -6.2273644e-06   0.50604461  0.014407988            0   0.49163663    1.4911439    1.9971885    1.5667531 
14015000    1.0019418 -2.091719e-05   0.50013673 0.0092359944            0   0.49090074    1.4953981    1.9955349   0.54973872 
14020000    1.0112379 -6.9507677e-07   0.48460189  0.029027916            0   0.45557398    1.5092725    1.9938744    1.9458307 
14025000   0.97357025 1.0243891e-05   0.52865673  0.022397335            0   0.50625939    1.4530536    1.9817103     2.689768 
14030000    1.0136252  2.21573e-06   0.47184315  0.019115288            0   0.45272787    1.5128357    1.9846788    2.1378301 
14035000   0.99130587 1.3458425e-06   0.50379673  0.020923409            0   0.48287332     1.479524    1.9833207    2.0763454 
14040000   0.98074344 5.562692e-06   0.53380408  0.017901272            0    0.5159028    1.4637596    1.9975637    2.3820569 
14045000    1.0014622 2.0944614e-05   0.51294363 0.0066774127            0   0.50626622    1.4946823    2.0076259    3.4553176 
14050000     1.059631 2.7748612e-05   0.42618911 0.0061472254            0   0.42004188    1.5814993    2.0076884    3.9256724 
14055000   0.95070344 3.508731e-05    0.5637385  0.013145868            0   0.55059263    1.4189249    1.9826634    4.4078982 
14060000    1.0358496 1.9885247e-06   0.45648036  0.021318687            0   0.43516167    1.5460056    2.0024859    2.1399328 
14065000   0.98357947 -2.5601548e-05   0.54325661  0.047002839            0   0.49625377    1.4679924     2.011249      0.24167 
14070000   0.96389925 -2.3659316e-05   0.56290248  0.041854509            0   0.52104797    1.4386196    2.0015221   0.36619017 
14075000   0.99804881 -9.6342018e-06    0.5142613  0.037363149            0   0.47689815    1.4895878    2.0038491    1.3379331 
14080000   0.96891638 -3.2435615e-05   0.56022188   0.02653741            0   0.53368447    1.4461077    2.0063296  -0.23562015 
14085000   0.98093393 -5.3816165e-05   0.54263334  0.042520971            0   0.50011237    1.4640439    2.0066772   -1.7130961 
14090000   0.95250972 -4.9772212e-06    0.5751462  0.025094924            0   0.55005128    1.4216208     1.996767    1.6527414 
14095000    1.0133479 1.4648664e-05    0.4816465 0.0097183533            0   0.47192815    1.5124217    1.9940682    3.0065838 
14100000   0.99259053 -3.62114e-05   0.52467827  0.010407587            0   0.51427068    1.4814414    2.0061196  -0.49681236 
14105000    1.0086757 2.7531237e-06   0.52380915  0.016738388            0   0.50707076    1.5054484    2.0292576    2.2195535 
14110000   0.99621703 3.6277455e-05   0.55579947  0.013947182            0   0.54185229    1.4868539    2.0426534    4.5501511 
14115000    1.0164023 -2.37974e-05   0.53568067  0.017967776            0   0.51771289    1.5169804    2.0526611   0.40778479 
14120000    1.0010193 7.8678208e-07   0.53598124  0.017524687            0   0.51845656    1.4940213    2.0300026     2.084385 
14125000   0.99607032 3.5601534e-05   0.53313197  0.022017333            0   0.51111464    1.4866349    2.0197669    4.4805449 
14130000    1.0176689 -3.5816091e-05   0.50852079  0.008558072            0   0.49996272    1.5188708    2.0273916  -0.44821661 
14135000   0.99033627 -1.2870576e-05   0.54823389 0.0052657662            0   0.54296812    1.4780769    2.0263108    1.1366966 
14140000    1.0246787 4.6071361e-05   0.49623076  0.020344788            0   0.47588597     1.529333    2.0255638    5.2100163 
14145000   0.95780153 -2.602256e-05   0.61109379  0.033612586            0    0.5774812    1.4295188    2.0406126   0.24193326 
14150000   0.99805653 -2.6383127e-05   0.54666274  0.030722262            0   0.51594048    1.4895994    2.0362621   0.21266038 
14155000   0.97500683 4.9370361e-06     0.598319  0.034375696            0    0.5639433    1.4551977    2.0535167    2.3947646 
14160000   0.95288113 4.5343904e-05   0.62392691  0.025119799            0   0.59880711    1.4221751     2.046102    5.1802726 
14165000    1.0438771 4.8371021e-05   0.50446258  0.018522487            0   0.48594009    1.5579865    2.0624491    5.4058541 
14170000    1.0197031 -1.1933789e-05    0.5370694  0.011384621            0   0.52568478    1.5219069    2.0589763    1.2341127 
14175000    1.0418185 -4.8950289e-05   0.50888628 0.0076897375            0   0.50119654    1.5549141    2.0638004   -1.3196436 
14180000    1.0261658 -3.1350982e-05   0.54092883 0.0089717475            0   0.53195708    1.5315524    2.0724812 -0.094498627 
14185000   0.98884106 -4.1064041e-05   0.58730655 0.0050208971            0   0.58228565    1.4758453    2.0631518  -0.77519472 
14190000    1.0172164 -2.2469175e-05   0.54806717  0.014853519            0   0.53321365    1.5181955    2.0662626   0.51319327 
14195000    1.0081604 5.8101713e-06   0.55898206  0.029095518            0   0.52988654    1.5046794    2.0636615    2.4652605 
14200000    1.0316648 -1.9139342e-05   0.53637287    0.0281145            0   0.50825837    1.5397597    2.0761326   0.75322121 
14205000      1.03439 -2.3210105e-05   0.53566261  0.010863759            0   0.52479885     1.543827    2.0794896   0.47520713 
14210000   0.98294899 -3.7434982e-05   0.58616258  0.014119159            0   0.57204342    1.4670514    2.0532139  -0.53429202 
14215000   0.99851026 -3.1159789e-05   0.56868138  0.012898997            0   0.55578239    1.4902766    2.0589579  -0.09480667 
14220000      1.08428 -1.5136077e-05    0.4538372 0.0074254013            0    0.4464118    1.6182879    2.0721251    1.0259195 
14225000    1.0245885 5.4879819e-05     0.542467  0.013745918            0   0.52872108    1.5291983    2.0716653    5.8649584 
14230000   0.98910466 1.6711396e-05   0.58636468  0.048762594            0   0.53760208    1.4762387    2.0626034    3.2176951 
14235000    1.0277816 -0.00011906317   0.53684164  0.027939748            0   0.50890189    1.5339641    2.0708057   -6.1588403 
14240000    1.0639983 -2.5881068e-05   0.49828301 0.0081131916            0   0.49016981    1.5880175    2.0863005   0.29740109 
14245000    1.0287428 6.4673649e-05   0.55770331 0.0032966197            0   0.55440669    1.5353986    2.0931019    6.5633445 
14250000     1.044233 -2.0078593e-05   0.54191026  0.002015223            0   0.53989504    1.5585177     2.100428   0.71259561 
14255000    1.0530763 -3.8661585e-05    0.5328297 0.0028657459            0   0.52996396    1.5717164    2.1045461  -0.56774266 
14260000    1.1046388 -2.0394731e-05   0.47632871 0.0045941944            0   0.47173452    1.6486734    2.1250021   0.71531834 
14265000    1.1085592 -2.6513255e-06   0.49234432  0.010424078            0   0.48192024    1.6545246     2.146869    1.9636093 
14270000    1.0354251 -2.5293604e-05   0.60423722 0.0091178168            0   0.59511941     1.545372    2.1496092    0.4013153 
14275000    1.0965796 2.1852608e-05   0.48983609  0.017637296            0   0.47219879    1.6366451    2.1264812    3.6369335 
14280000    1.0346374 4.7952417e-05   0.55041558   0.02171161            0   0.52870397    1.5441963    2.0946119     5.409083 
14285000    1.0370641 -2.2511854e-05    0.5424593  0.017043761            0   0.52541554    1.5478181    2.0902775   0.53425812 
14290000    1.0051492 -5.1496988e-05   0.60280832  0.021092374            0   0.58171595    1.5001851    2.1029935   -1.4564783 
14295000    1.0743949 -1.7773463e-05   0.49590865  0.012467928            0   0.48344072    1.6035344    2.0994431   0.87094133 
14300000    1.0465626 4.5966498e-05   0.53160517  0.036437568            0    0.4951676    1.5619947    2.0935999    5.2708042 
14305000     1.025066 7.7872861e-06   0.57410963  0.011745337            0   0.56236429    1.5299111    2.1040207    2.6422779 
14310000    1.0611016 -1.5172498e-05   0.51960507 0.0063370792            0   0.51326799    1.5836942    2.1032992    1.0545761 
14315000    1.0934895 -1.9638362e-05   0.47733139 0.0032547377            0   0.47407665    1.6320331    2.1093645    0.7519609 
14320000    1.0578242 1.4636525e-05   0.54647725 0.0094269973            0   0.53705025    1.5788027    2.1252799    3.1369565 
14325000     1.027277 7.290118e-07   0.61041394  0.025886312            0   0.58452763     1.533211    2.1436249    2.1940142 
14330000    1.0506672 -3.8834514e-05    0.5954847  0.042675967            0   0.55280873    1.5681207    2.1636054  -0.52063617 
14335000    1.0352499 1.4508176e-05   0.62459214  0.038192015            0   0.58640012    1.5451105    2.1697026    3.1725078 
14340000    1.0796782 2.5819241e-05   0.56626915  0.016929613            0   0.54933954    1.6114198    2.1776889    3.9623149 
14345000    1.0557919 2.4639722e-05   0.62786036  0.010943079            0   0.61691728    1.5757694    2.2036297    3.9067273 
14350000    1.0974589 1.6197231e-05   0.56348001  0.030542325            0   0.53293769    1.6379574    2.2014374      3.32099 
14355000    1.0751008 -1.4832571e-05   0.59959801  0.024102755            0   0.57549526     1.604588     2.204186    1.1789587 
14360000    1.1413098 2.8428695e-05   0.48382221 0.0098895272            0   0.47393269    1.7034048     2.187227    4.1522184 
14365000    1.1135057 2.525046e-05   0.52768746 0.0078360117            0   0.51985144    1.6619073    2.1895948    3.9349066 
14370000    1.0950937 8.2815934e-07   0.54892666 0.0077539711            0   0.54117269    1.6344274     2.183354    2.2405964 
14375000    1.0511384 -1.8700257e-05   0.60793831  0.006514828            0   0.60142348     1.568824    2.1767623   0.88420053 
14380000    1.1241363 6.7835549e-06   0.48541186 0.0058801694            0   0.47953169    1.6777734    2.1631852    2.6320645 
14385000    1.0746034 4.5032042e-06   0.56110356 0.0088881429            0   0.55221542    1.6038456    2.1649492    2.4762107 
14390000    1.0599598 1.0030635e-05   0.60521667 0.0058607071            0   0.59935596    1.5819901    2.1872067    2.8805243 
14395000    1.0724425 8.6941346e-06   0.56810358 0.0065481008            0   0.56155548    1.6006204     2.168724    2.7696626 
14400000    1.0946087 -1.3530837e-05   0.53684289  0.014154556            0   0.52268833    1.6337035    2.1705464    1.2352949 
14405000     1.101405 -1.0670694e-05   0.52222619  0.016937662            0   0.50528852    1.6438469    2.1660731    1.4285147 
14410000    1.1278549 5.0373269e-06   0.50080563  0.010937684            0   0.48986795    1.6833235    2.1841291    2.5323092 
14415000    1.0316656 3.9933353e-06   0.63455404  0.011056724            0   0.62349732     1.539761     2.174315    2.4503344 
14420000    1.0960596 -2.7440639e-07   0.53939988  0.023506753            0   0.51589313     1.635869    2.1752689    2.1563019 
14425000    1.1006544 -2.5823639e-05   0.55094141  0.049149095            0   0.50179231    1.6427267    2.1936681   0.40873816 
14430000    1.1253762 -5.239202e-05   0.50548345  0.029095026            0   0.47638843     1.679624    2.1851074    -1.436229 
14435000    1.1128042 -2.7782105e-05   0.51592889  0.031552292            0    0.4843766    1.6608603    2.1767892   0.25649005 
14440000    1.0635048 1.8366366e-05   0.60982778  0.014484767            0   0.59534301    1.5872809    2.1971087    3.4665919 
14445000    1.1301446 3.823945e-05   0.53251138 0.0083052143            0   0.52420616    1.6867408    2.2192522     4.862363 
14450000    1.1485904 2.9873912e-05   0.50950739  0.012643868            0   0.49686352    1.7142711    2.2237785    4.2886633 
14455000    1.0908983 -7.0874192e-06   0.58890058   0.02258751            0   0.56631307    1.6281657    2.2170663    1.7271839 
14460000    1.1158611 1.8696275e-05      0.56475  0.015842575            0   0.54890743    1.6654226    2.2301726    3.5224591 
14465000    1.1611773 3.8236795e-06   0.50302404  0.017433691            0   0.48559034    1.7330572    2.2360812     2.500374 
14470000    1.1466934 -3.9049095e-05   0.52556978  0.036712238            0   0.48885755    1.7114398    2.2370096  -0.46206385 
14475000    1.0776682 1.3436742e-05   0.61610429  0.032710765            0   0.58339353    1.6084198    2.2245241    3.1532717 
14480000    1.1059369 2.7672588e-05   0.57810138 0.0078238912            0   0.57027749    1.6506108    2.2287122    4.1414415 
14485000    1.0924354 3.9969949e-05   0.58065492  0.013937987            0   0.56671694    1.6304599    2.2111148    4.9738377 
14490000    1.1730882 3.4589004e-05   0.47485753   0.01697903            0    0.4578785    1.7508341    2.2256916    4.6164835 
14495000     1.139383 -2.8932559e-05   0.51311721  0.022831795            0   0.49028541    1.7005292    2.2136464   0.21382791 
14500000    1.1209187 -3.2952758e-06   0.53558035  0.012258794            0   0.52332155    1.6729712    2.2085515    1.9807821 
14505000    1.1701048 -5.3176954e-05   0.47065068 0.0053298747            0   0.46532081    1.7463815    2.2170322   -1.4585589 
14510000    1.1303949 1.0164004e-05   0.53147989 0.0094610702            0   0.52201882    1.6871144    2.2185943    2.9211302 
14515000    1.1481075 4.8333334e-05   0.49537207  0.015502168            0    0.4798699    1.7135505    2.2089225    5.5497226 
14520000    1.1110013 -8.9693393e-05   0.57670941  0.022436217            0   0.55427319    1.6581694    2.2348788   -3.9647285 
14525000    1.1244574 -3.356167e-05   0.53749184  0.043420168            0   0.49407168    1.6782526    2.2157445  -0.10403819 
14530000    1.1341201 -3.7444372e-05   0.51326762  0.032980806            0   0.48028681    1.6926742    2.2059418  -0.38221323 
14535000    1.1071432 8.860312e-06   0.54279593  0.019335041            0   0.52346089    1.6524112    2.1952072    2.8076319 
14540000    1.1086923 6.0744701e-05   0.53931445  0.014010416            0   0.52530404    1.6547232    2.1940376    6.3927114 
14545000    1.1006673 -3.8781684e-05   0.56565474  0.023223468            0   0.54243127     1.642746    2.2084007   -0.4721893 
14550000    1.1234548 -4.6983776e-05   0.53363972   0.01498341            0   0.51865631    1.6767564    2.2103961   -1.0371225 
14555000    1.1157547 2.3096129e-05   0.55131751  0.019757943            0   0.53155957    1.6652639    2.2165814    3.8129858 
14560000    1.1042396 1.3076049e-05   0.57803733  0.018833613            0   0.55920372    1.6480777     2.226115    3.1299315 
14565000     1.120051 -1.5778256e-05   0.55532564  0.016769714            0   0.53855592    1.6716761    2.2270018    1.1364087 
14570000    1.1573704 -4.5355115e-05    0.5171084   0.02425435            0   0.49285405    1.7273753    2.2444837  -0.89046191 
14575000    1.1541603 -6.6089859e-06    0.5273163  0.015564624            0   0.51175168    1.7225843    2.2499006    1.7930875 
14580000     1.172243 3.641465e-05   0.49750125  0.021036665            0   0.47646459    1.7495726    2.2470739    4.7640545 
14585000    1.1123485 7.2278114e-05   0.57785963  0.014959019            0   0.56290061    1.6601801    2.2380397     7.233903 
14590000     1.133158 2.5467238e-05   0.54441666   0.03174107            0   0.51267559    1.6912383     2.235655    3.9959504 
14595000    1.0777199 -3.8077212e-05   0.62312323  0.014454084            0   0.60866914     1.608497    2.2316202  -0.40027668 
14600000    1.1453029 9.9023123e-05   0.53371849  0.019926431            0   0.51379206    1.7093646    2.2430831    9.0875614 
14605000     1.112745 -1.1000503e-05   0.57766164  0.044622457            0   0.53303919     1.660772    2.2384336    1.4780789 
14610000    1.1154152 -5.4600399e-05   0.57984778  0.012231835            0   0.56761595    1.6647572    2.2446049   -1.5293747 
14615000     1.180487 1.8536813e-05   0.47818155  0.017202628            0   0.46097892    1.7618769    2.2400584     3.521323 
14620000    1.1196092 1.8911588e-05   0.55975518  0.016258159            0   0.54349702    1.6710167    2.2307719    3.5379409 
14625000    1.1144995 3.9932606e-05   0.56645353  0.021101364            0   0.54535217    1.6633905     2.229844    4.9899857 
14630000    1.1524677 2.7176034e-05   0.50755317   0.01976715            0   0.48778602     1.720058    2.2276112    4.1060187 
14635000    1.1715944 4.2584214e-05   0.48658405  0.029154762            0   0.45742929    1.7486046    2.2351887    5.1786095 
14640000    1.1485374 -1.2685925e-05   0.52899383  0.034848038            0   0.49414579    1.7141921    2.2431859    1.3663348 
14645000    1.1202126 -3.5941977e-06   0.58351502  0.046719057            0   0.53679596    1.6719174    2.2554324    2.0070015 
14650000    1.1564897 -1.6200192e-05   0.55075074  0.017351151            0   0.53339958    1.7260609    2.2768116    1.1570544 
14655000    1.1113878 -8.7242497e-08   0.61285401  0.040756776            0   0.57209723    1.6587463    2.2716003    2.2655701 
14660000    1.1651488 5.2100374e-07   0.52841122  0.015803809            0   0.51260741    1.7389846    2.2673958    2.3034076 
14665000     1.112359 2.827723e-06   0.61952421  0.070554622            0   0.54896959    1.6601958      2.27972    2.4751722 
14670000    1.1880711 -3.9675331e-06   0.49671913  0.025878487            0   0.47084064    1.7731961    2.2699152    1.9956794 
14675000    1.1586803 3.4462386e-05   0.55451259  0.020057066            0   0.53445553    1.7293303    2.2838429     4.665883 
14680000    1.0907722 -5.0472789e-05   0.63791356  0.035692932            0   0.60222063    1.6279775     2.265891   -1.2227882 
14685000     1.119355 -2.13587e-06   0.59033379  0.032574641            0   0.55775915    1.6706373    2.2609711    2.1133397 
14690000    1.1660578 6.7070717e-06   0.52454781  0.013806217            0   0.51074159    1.7403413    2.2648891    2.7284819 
14695000    1.1545791 -2.5858655e-05   0.53368091 0.0091830386            0   0.52449787    1.7232093    2.2568902   0.46953998 
14700000    1.1760115 1.8779555e-05   0.51754578 0.0052493549            0   0.51229643    1.7551972     2.272743    3.5707858 
14705000    1.1216227 -8.6700879e-06   0.58662082  0.024460345            0   0.56216047    1.6740219    2.2606427    1.6613663 
14710000    1.1317129 6.6422356e-05   0.56501291  0.063804908            0     0.501208    1.6890815    2.2540944    6.8452076 
14715000    1.1518568 3.1852758e-05   0.54386004  0.030349851            0   0.51351019    1.7191463    2.2630063     4.464669 
14720000    1.1811937 -1.247361e-05   0.51832469  0.011257284            0   0.50706741    1.7629316    2.2812563    1.4190804 
14725000    1.1463529 -2.928921e-05   0.55719958  0.014388297            0   0.54281128    1.7109316    2.2681312   0.24366099 
14730000    1.1428883 -8.3580645e-05   0.52769132  0.031533671            0   0.49615765    1.7057608    2.2334521   -3.5436421 
14735000    1.1614173 -2.0842966e-05    0.4895942  0.012402739            0   0.47719146    1.7334153    2.2230095   0.78234365 
14740000    1.1085411 3.5403468e-05   0.54448842 0.0091716386            0   0.53531678    1.6544976     2.198986    4.6460737 
14745000    1.0700161 2.2300113e-05   0.59366523  0.049458389            0   0.54420684     1.596999    2.1906642     3.732048 
14750000    1.0719109 -2.3886049e-05   0.59755685  0.050622779            0   0.54693407     1.599827    2.1973838   0.54638013 
14755000    1.0588403 -5.3016563e-05   0.62047222  0.032952002            0   0.58752022    1.5803192    2.2007914   -1.4637134 
14760000    1.0812729 -2.1703226e-05   0.55933436  0.015757222            0   0.54357714    1.6137997    2.1731341   0.67300716 
14765000     1.068381 -1.2237009e-05   0.56516254  0.031503091            0   0.53365945    1.5945587    2.1597212    1.3138991 
14770000    1.0842426 -3.0701669e-05   0.54404264   0.01464206            0   0.52940058    1.6182321    2.1622747  0.040175327 
14775000    1.0347832 -1.4534863e-05   0.58215546  0.026312334            0   0.55584313     1.544414    2.1265694    1.1219197 
14780000    1.0489289 2.1374388e-05   0.55363941   0.04433929            0   0.50930012    1.5655264    2.1191658    3.5965635 
14785000     1.014921 -2.0560753e-05   0.62335551  0.044050523            0   0.57930499    1.5147696    2.1381251    0.7169659 
14790000    1.0116809 -5.6392404e-05   0.62885152 0.0068068431            0   0.62204468    1.5099337    2.1387852   -1.7590577 
14795000    1.0198118 5.9177416e-07    0.5957919  0.014987349            0   0.58080455    1.5220692    2.1178611    2.1587645 
14800000    1.0762773 4.1098242e-05   0.51142273  0.046286672            0   0.46513606    1.6063438    2.1177666    4.9584771 
14805000    1.0250928 -8.0372571e-06   0.60197431  0.055554679            0   0.54641963     1.529951    2.1319253    1.5763901 
14810000    1.0351715 -3.4789575e-05   0.58258767  0.020822167            0   0.56176551    1.5449934    2.1275811  -0.27707433 
14815000    1.0707708 -4.3266996e-05   0.53052707 0.0088405696            0    0.5216865    1.5981254    2.1286525  -0.86196231 
14820000    1.0974801 -1.5535959e-05   0.49554042 0.0024922907            0   0.49304813     1.637989    2.1335294     1.059684 
14825000    1.0616605 -3.6589716e-05   0.54641491 0.0089766881            0   0.53743822    1.5845283    2.1309433  -0.39813793 
14830000    1.0392511 -2.0217583e-05   0.58747601  0.020096911            0    0.5673791    1.5510823    2.1385583   0.74111894 
14835000    1.0591414 -1.5067185e-05   0.55245611  0.019225796            0   0.53323032    1.5807686    2.1332247    1.0917808 
14840000    1.0470742 1.170179e-05   0.55524838  0.029281472            0   0.52596691    1.5627582    2.1180066    2.9268343 
14845000    1.0713518 2.8865217e-05   0.53625365  0.024107717            0   0.51214593    1.5989925    2.1352462      4.13041 
14850000     1.103521 -4.5146644e-06   0.49494978  0.014623151            0   0.48032663    1.6470052    2.1419549    1.8299013 
14855000     1.028615 -2.2382334e-06   0.62797948  0.010163122            0   0.61781636    1.5352078    2.1631873    2.0084806 
14860000    1.0639807 -3.0706875e-05   0.57589807  0.011740119            0   0.56415795    1.5879912    2.1638893  0.041430084 
14865000    1.0744197 -2.0346161e-05   0.54651509  0.018201246            0   0.52831384    1.6035714    2.1500865   0.74375983 
14870000    1.0793706 -8.7845293e-06   0.53212366   0.03896933            0   0.49315433    1.6109606    2.1430843    1.5358976 
14875000    1.0336842 3.9742665e-05   0.56956245  0.049515435            0   0.52004702    1.5427737    2.1123362    4.8593491 
14880000    1.0447465 3.162723e-05   0.56142598  0.043123097            0   0.51830288    1.5592842    2.1207101    4.3067843 
14885000   0.99572083 1.9223735e-05   0.62412443  0.071914242            0   0.55221019    1.4861133    2.1102378    3.4389823 
14890000    1.0647122 2.2900685e-05   0.53853721  0.043522532            0   0.49501468    1.5890829    2.1276201    3.7105155 
14895000    1.0777839 -5.6759947e-05   0.51394628  0.015041992            0   0.49890429    1.6085924    2.1225387   -1.8007088 
14900000    1.0748036 1.3435945e-06   0.51223697  0.019770061            0   0.49246691    1.6041443    2.1163813    2.2092505 
14905000     1.073631 1.3161581e-05   0.52361742  0.028938589            0   0.49467883    1.6023943    2.1260117    3.0357402 
14910000    0.9749869 -1.9429294e-06   0.66812776  0.031894732            0   0.63623303    1.4551679    2.1232957    1.9890004 
14915000    1.0783617 1.7457553e-05   0.52592704  0.010425646            0    0.5155014    1.6094548    2.1353819    3.3420479 
14920000    1.0635437 7.8857962e-05   0.55213051   0.03024876            0   0.52188175     1.587339    2.1394695    7.5901318 
14925000    1.0642797 -4.3586021e-05   0.54127284  0.025039848            0   0.51623299    1.5884375    2.1297103  -0.88295542 
14930000    1.0657088 -2.1420302e-05   0.55223788  0.039463339            0   0.51277454    1.5905704    2.1428083   0.66223703 
14935000    1.0686551 1.5881366e-05   0.56131192  0.029269063            0   0.53204286    1.5949677    2.1562796    3.2539996 
14940000     1.119021 -4.553988e-05   0.49928101   0.01321196            0   0.48606905    1.6701388    2.1694199  -0.97829668 
14945000    1.0941749 -1.9732913e-05   0.55663809  0.026996505            0   0.52964159     1.633056    2.1896941   0.82575519 
14950000    1.0820271 1.4694936e-05   0.57281537  0.031951291            0   0.54086408    1.6149254    2.1877408    3.2034548 
14955000    1.0518403 2.8147835e-05   0.63531391  0.053630984            0   0.58168292    1.5698716    2.2051855    4.1507639 
14960000    1.0810489 4.5962969e-05   0.59730584  0.064085185            0   0.53322066    1.6134655    2.2107713    5.3877318 
14965000    1.0906629 -5.0757644e-05   0.57908379  0.026534964            0   0.55254882    1.6278144    2.2068981   -1.3014702 
14970000    1.0815383 -6.2386796e-06   0.60172714  0.028409149            0   0.57331799    1.6141959     2.215923    1.7847055 
14975000    1.1393279 8.673499e-05    0.5191006  0.014738925            0   0.50436168    1.7004469    2.2195475      8.21467 
14980000     1.068776 1.3482054e-05   0.62662012  0.018111209            0   0.60850891    1.5951481    2.2217682    3.1536478 
14985000    1.0608215 0.00012290797   0.62648263  0.068060101            0   0.55842253     1.583276    2.2097587    10.705157 
14990000    1.0537232 8.0660324e-05   0.62875927  0.042598364            0    0.5861609    1.5726819    2.2014412    7.7766828 
14995000    1.0688481 -8.7940726e-06   0.58457416  0.013707178            0   0.57086698    1.5952558    2.1798299    1.5719836 
15000000    1.0988951 -5.3083508e-06   0.53407361  0.014614878            0   0.51945873     1.640101    2.1741746    1.8072614 
15005000    1.0721019 1.8187138e-05   0.58441228   0.04400699            0   0.54040529    1.6001121    2.1845243    3.4416193 
15010000    1.0534104 -4.5421763e-05   0.59505462  0.017680236            0   0.57737438     1.572215    2.1672696  -0.97228267 
15015000    1.0939914 -5.4453664e-06   0.52947788  0.020280876            0   0.50919701    1.6327822    2.1622601    1.7858764 
15020000    1.0728076 1.402076e-05   0.55213169  0.044486287            0   0.50764541    1.6011653     2.153297     3.122412 
15025000    1.0273537 -1.3281469e-05   0.60634713   0.03262142            0   0.57372571    1.5333255    2.1396726    1.2216574 
15030000     1.027988 2.0259286e-05   0.60841643  0.032351514            0   0.57606491    1.5342722    2.1426886    3.5430104 
15035000    1.0593609 7.7601192e-05    0.5631605 0.0088033075            0   0.55435719    1.5810962    2.1442567     7.508051 
15040000    1.0869165 1.7264618e-06   0.52448689  0.022471953            0   0.50201494    1.6222229    2.1467098    2.2660428 
15045000    1.0505469 -1.9238148e-05    0.5646573  0.031769396            0   0.53288791    1.5679413    2.1325986   0.80285781 
15050000   0.99076849 -3.1562053e-05   0.64482914  0.023413696            0   0.62141544     1.478722    2.1235511 -0.058017985 
15055000    1.0164247 -4.6612316e-05   0.59093777  0.021945854            0   0.56899192    1.5170139    2.1079517   -1.1138916 
15060000     1.045858 -1.6786442e-05   0.54074942  0.024615863            0   0.51613356    1.5609431    2.1016925   0.94141364 
15065000    1.0189413 3.3582956e-05   0.56938405  0.031892837            0   0.53749121    1.5207699    2.0901539    4.4114079 
15070000   0.97137625 9.930319e-06   0.63179218  0.039299663            0   0.59249252    1.4497791    2.0815712    2.7679549 
15075000   0.99899077 -2.8658991e-05   0.58533397  0.014589866            0    0.5707441    1.4909937    2.0763277   0.09541826 
15080000   0.98693327 4.245222e-06   0.58796293  0.052382233            0    0.5355807    1.4729979    2.0609608    2.3543906 
15085000    1.0208184 5.9849027e-05   0.52882675  0.042022945            0    0.4868038    1.5235714    2.0523982    6.1891629 
15090000    1.0364537 4.7981351e-05   0.51622616 0.0092577002            0   0.50696846    1.5469072    2.0631334    5.3796044 
15095000    1.0164919 4.8458221e-06   0.54765779 0.0066065487            0   0.54105124    1.5171142     2.064772    2.3997152 
15100000   0.95760319 5.5543638e-05   0.64696406  0.019977229            0   0.62698683    1.4292228    2.0761868    5.9153631 
15105000    1.0586106 1.7152267e-05   0.52102011   0.01597914            0   0.50504097    1.5799763    2.1009964    3.2865611 
15110000    1.0639864 -5.4601795e-05    0.5076093  0.032733844            0   0.47487546    1.5879997     2.095609    -1.678467 
15115000   0.99115976 -3.9510571e-05   0.63103606  0.025314782            0   0.60572128    1.4793059     2.110342  -0.62062863 
15120000     1.029802 1.5371613e-05    0.5653334  0.020862026            0   0.54447138    1.5369795    2.1023129    3.1647988 
15125000    1.0422087 2.6876262e-05   0.54138391  0.026303136            0   0.51508077    1.5554965    2.0968804    3.9545676 
15130000    1.0184331  2.72656e-05   0.58584072  0.018031039            0   0.56780968    1.5200114    2.1058521    3.9904504 
15135000    1.0234858 -3.6987471e-05   0.59013275  0.016629608            0   0.57350314    1.5275526    2.1176853  -0.43888868 
15140000    1.0166193 -7.8648938e-05   0.58615014  0.016868434            0   0.56928171    1.5173044    2.1034545   -3.3327601 
15145000    1.0617753 -4.3880041e-07   0.51273669  0.010022635            0   0.50271406    1.5846997    2.0974364    2.0671065 
15150000    1.0695123 4.8550866e-05   0.53026674 0.0087368554            0   0.52152989    1.5962472    2.1265139    5.4823497 
15155000    1.0088009 4.2101188e-05   0.62914141 0.0094578703            0   0.61968354    1.5056353    2.1347768    5.0448108 
15160000    1.0289814 -9.241398e-07   0.57971032  0.014303042            0   0.56540728    1.5357547    2.1154651    2.0515885 
15165000    1.0337054 1.8383676e-05   0.57205895  0.029058751            0    0.5430002    1.5428053    2.1148642    3.3855439 
15170000   0.99235956 3.0936626e-05     0.618471  0.043556888            0   0.57491411    1.4810966    2.0995676    4.2379072 
15175000    1.0229957 -9.7471683e-06    0.5756126  0.026957915            0   0.54865468    1.5268211    2.1024337    1.4287094 
15180000    1.0134058 2.9327454e-05   0.59975246 0.0095448472            0   0.59020761    1.5125082    2.1122607    4.1393743 
15185000    1.0562453 -1.0351207e-06   0.51556412 0.0076174325            0   0.50794669    1.5764461    2.0920103    2.0204627 
15190000     1.037784 -6.2277392e-05   0.53505027  0.011423648            0   0.52362663    1.5488926    2.0839429   -2.2206704 
15195000    1.0210056 -3.4972309e-05   0.54658355 0.0066853251            0   0.53989823    1.5238509    2.0704345  -0.34685149 
15200000   0.97961789 -2.9213854e-05   0.57949061  0.020918283            0   0.55857233    1.4620797    2.0415703  0.022308698 
15205000    1.0007737 -4.065406e-05   0.53195376  0.018127369            0   0.51382639    1.4936548    2.0256086  -0.78440008 
15210000   0.97266165 8.7757707e-06     0.581061  0.020250325            0   0.56081067    1.4516975    2.0327585    2.6393398 
15215000    1.0195211 1.5031689e-05   0.52680373  0.014413901            0   0.51238983    1.5216352    2.0484389    3.0874293 
15220000   0.99260904 1.4138367e-05   0.54856164  0.019879987            0   0.52868165     1.481469    2.0300306    3.0072745 
15225000     1.007843 3.451575e-05   0.51862068  0.019117073            0   0.49950361    1.5042057    2.0228264     4.408555 
15230000   0.98146339 -2.4397075e-05   0.53621291  0.014254646            0   0.52195826    1.4648341     2.001047    0.3147212 
15235000    0.9750481 -3.5369862e-05   0.54544159  0.006064546            0   0.53937705    1.4552593    2.0007009  -0.44406399 
15240000    0.9864139 -2.4819522e-05   0.52963416  0.015075588            0   0.51455857    1.4722227    2.0018569   0.28633158 
15245000   0.98380462 -4.4959254e-05    0.5370482  0.021754304            0   0.51529389    1.4683284    2.0053766    -1.102207 
15250000    0.9777569 -4.9424007e-06   0.55090151 0.0073702529            0   0.54353125    1.4593022    2.0102037    1.6685849 
15255000   0.97449777 1.165439e-05   0.54427939  0.012397435            0   0.53188196    1.4544379    1.9987173    2.8042688 
15260000    1.0093004 -3.7458366e-05   0.50285829 0.0094729678            0   0.49338532    1.5063809    2.0092392  -0.57988308 
15265000    1.0032324 -5.4020778e-06   0.52093079 0.0096341133            0   0.51129667    1.4973244    2.0182551    1.6448635 
15270000    1.0524469 2.1002314e-05   0.46217787  0.014689948            0   0.44748792    1.5707771    2.0329549    3.4846349 
15275000    1.0536299 -2.0536254e-05   0.46180013  0.011902942            0   0.44989719    1.5725426    2.0343427   0.61487686 
15280000   0.96669199 -5.798142e-05   0.60500648  0.012478059            0   0.59252842    1.4427878    2.0477943   -1.9598815 
15285000    1.0285485 -2.311508e-05   0.50539487  0.015511872            0     0.489883    1.5351086    2.0405034    0.4427891 
15290000   0.99148978 3.2574713e-06   0.55642239  0.014336106            0   0.54208629    1.4797985    2.0362209    2.2613773 
15295000   0.98527675 -1.2886991e-06   0.57917764  0.018486805            0   0.56069083    1.4705256    2.0497032    1.9606283 
15300000    1.0052666 2.8295699e-06   0.53501279  0.034071555            0   0.50094123    1.5003604    2.0353732    2.2309531 
15305000   0.99573401 -5.3724423e-05   0.53678443  0.018172223            0   0.51861221     1.486133    2.0229174   -1.6905146 
15310000   0.99211324 -3.9012406e-05    0.5303199  0.016943721            0   0.51337617     1.480729    2.0110489  -0.68548857 
15315000    1.0207813 4.875176e-06   0.50362267  0.027743649            0   0.47587902     1.523516    2.0271387    2.3641109 
15320000    1.0250571 -2.1681757e-06   0.52160655  0.026339419            0   0.49526713    1.5298977    2.0515043      1.90164 
15325000    1.0564433 -1.2291312e-05   0.47169216  0.015427895            0   0.45626427    1.5767416    2.0484338    1.1988583 
15330000    1.0146762 -3.3163303e-05   0.54755796 0.0036632565            0    0.5438947    1.5144043    2.0619622  -0.23028526 
15335000    1.0388133 -1.4322073e-05   0.52064616 0.0040680906            0   0.51657807    1.5504288     2.071075    1.0811333 
15340000    0.9684904 -1.867815e-05   0.61131268  0.010968515            0   0.60034416    1.4454719    2.0567846   0.76575087 
15345000   0.97593291 5.1232753e-05   0.59421679  0.018124396            0    0.5760924    1.4565799    2.0507967    5.5920046 
15350000     1.031858 6.1823345e-05   0.49828481 0.0079320061            0    0.4903528     1.540048    2.0383328    6.3115624 
15355000    1.0343979 6.1556909e-06   0.49055914 0.0035479146            0   0.48701123    1.5438388     2.034398    2.4598793 
15360000   0.99863801 -1.6937001e-05   0.54223018  0.006486178            0     0.535744    1.4904672    2.0326974   0.86201192 
15365000   0.97690427 -7.847554e-05   0.55815604  0.024438351            0   0.53371769    1.4580296    2.0161857   -3.4080437 
15370000   0.95805877 -4.6794892e-05   0.58652388  0.026367344            0   0.56015654    1.4299027    2.0164266   -1.2180363 
15375000   0.97299828 2.1783743e-05   0.55564402  0.034356966            0   0.52128705    1.4521999    2.0078439    3.5135363 
15380000   0.97668353 2.6455143e-05   0.53258928  0.022061212            0   0.51052807    1.4577002    1.9902895    3.8188689 
15385000   0.98743517 2.3283952e-05    0.5201134  0.024471989            0   0.49564141     1.473747    1.9938604    3.6032471 
15390000   0.97304768 5.9351493e-05   0.54987942  0.038643707            0   0.51123571    1.4522737    2.0021531    6.1045283 
15395000   0.96439347 2.6800228e-05   0.54481209  0.050601881            0   0.49421021    1.4393572    1.9841693    3.8366011 
15400000   0.92747991 7.9197628e-06   0.59453006  0.045952785            0   0.54857727    1.3842638    1.9787938    2.5262078 
15405000     1.002242 -3.7826189e-06    0.4881479  0.017682107            0   0.47046579    1.4958462    1.9839941    1.7225395 
15410000   0.97299655 -3.5323807e-05   0.52975119  0.020411486            0    0.5093397    1.4521974    1.9819485  -0.45963302 
15415000   0.96740693 2.1340459e-05   0.54276302  0.019890813            0    0.5228722    1.4438548    1.9866179    3.4616704 
15420000    0.9133649 2.1963084e-05    0.6204931  0.021203259            0   0.59928984    1.3631971    1.9836902    3.5017786 
15425000   0.97910109 2.3772085e-05   0.52641998  0.026982589            0   0.49943739    1.4613084    1.9877284    3.6308549 
15430000    1.0165045 7.1482056e-05   0.46102725  0.011831735            0   0.44919551     1.517133    1.9781602        6.919 
15435000    0.9424068 5.4912647e-05   0.56597516  0.020274416            0   0.54570074    1.4065421    1.9725173    5.7680795 
15440000   0.99651218 4.5270709e-05   0.48553123  0.026392092            0   0.45913913    1.4872944    1.9728257    5.1019371 
15445000   0.98321612 2.5776876e-05    0.5148812  0.012552957            0   0.50232825    1.4674501    1.9823313    3.7640289 
15450000   0.98967918 2.8629222e-05   0.48958589  0.010667362            0   0.47891853    1.4770962    1.9666821    3.9455339 
15455000   0.99940331 2.0552517e-06   0.47011309  0.017266195            0    0.4528469    1.4916094    1.9617225    2.1037815 
15460000   0.94768526 3.0439695e-06   0.54896726  0.022652982            0   0.52631428    1.4144202    1.9633875    2.1737867 
15465000    0.9877016 2.3800403e-05   0.51737876  0.029991856            0   0.48738691    1.4741446    1.9915234    3.6366073 
15470000   0.99218259 -4.037294e-05   0.50170559  0.016026516            0   0.48567908    1.4808325    1.9825381  -0.80803948 
15475000    1.0016677 -8.6189224e-05   0.48546289  0.018476917            0   0.46698597    1.4949891     1.980452   -3.9769472 
15480000   0.96204517 -5.7887487e-05   0.54528522  0.012758191            0   0.53252703    1.4358524    1.9811376   -2.0200455 
15485000    0.9680884 -2.2716557e-05   0.54557388 0.0095185357            0   0.53605534    1.4448719    1.9904458   0.42027736 
15490000   0.96118075 1.5091411e-05   0.55760937  0.012608213            0   0.54500116    1.4345623    1.9921716      3.03529 
15495000   0.99079681 7.2416496e-05   0.53109253 0.0059504828            0   0.52514205    1.4787642    2.0098568     7.015285 
15500000    1.0481618 7.7604597e-05   0.45115477  0.010710091            0   0.44044468    1.5643815    2.0155363     7.379566 
15505000    1.0022802 1.5485289e-05   0.51115049  0.034744282            0   0.47640621    1.4959032    2.0070537    3.0773969 
15510000   0.94380417 -8.5616935e-05   0.59354723  0.013334527            0    0.5802127    1.4086277    2.0021749   -3.9156676 
15515000     1.009312 1.5145359e-05   0.50560097  0.033873654            0   0.47172732    1.5063982    2.0119992    3.0588464 
15520000    1.0127218 6.8592415e-05   0.49892346  0.032484371            0   0.46643909    1.5114873    2.0104108    6.7515185 
15525000   0.99551344 -1.1360673e-05   0.52882783  0.027096444            0   0.50173139    1.4858038    2.0146316    1.2293819 
15530000    1.0123963 -2.1667701e-05   0.51063359  0.035507825            0   0.47512576    1.5110014     2.021635   0.52396352 
15535000   0.97413593 -1.8530877e-05   0.55564315  0.023297423            0   0.53234573    1.4538979     2.009541   0.72868683 
15540000   0.98126025 -4.9901218e-05   0.53598688  0.012850937            0   0.52313595    1.4645309    2.0005178   -1.4486544 
15545000   0.98484245 -4.9428655e-05   0.54559384  0.017247504            0   0.52834634    1.4698774    2.0154712   -1.4010374 
15550000   0.98644868 9.8191119e-06   0.53541466  0.017432079            0   0.51798258    1.4722747    2.0076893    2.6863863 
15555000   0.99865858 6.891815e-05   0.51604736  0.019598956            0   0.49644841    1.4904979    2.0065453    6.7701678 
15560000    1.0117432 2.372692e-05   0.48703859  0.037884696            0    0.4491539    1.5100267    1.9970653      3.63707 
15565000   0.96345586 -4.4427446e-05   0.55187637  0.031011977            0   0.52086439    1.4379579    1.9898342   -1.0809908 
15570000    0.9429697 -2.8459005e-05   0.58450595 0.0099365308            0   0.57456941    1.4073823    1.9918882  0.024801781 
15575000    0.9561721 -4.4397312e-05    0.5308593  0.028948056            0   0.50191124    1.4270869    1.9579462    -1.110796 
15580000   0.97625147 3.1604902e-06   0.51182451  0.044544229            0   0.46728028    1.4570553    1.9688798    2.1873329 
15585000   0.93632973 8.1652304e-05   0.55690879  0.032578836            0   0.52432995    1.3974721    1.9543809    7.5981882 
15590000   0.97535667 -8.9964433e-06   0.48542141  0.019175131            0   0.46624628    1.4557198    1.9411412    1.3193071 
15595000   0.98880656 -3.4850446e-05   0.47189006  0.013560235            0   0.45832983    1.4757938    1.9476838  -0.46117898 
15600000   0.99298277 1.0503382e-05   0.47810625  0.015767288            0   0.46233896    1.4820268     1.960133    2.6861268 
15605000    0.9809736 4.3489689e-05   0.49232869  0.013453884            0   0.47887481    1.4641031    1.9564318    4.9624391 
15610000   0.94543472 -6.8293075e-05   0.53609054 0.0042930711            0   0.53179747    1.4110613    1.9471519   -2.7732655 
15615000    1.0260203 -3.3978209e-05   0.40926159 0.0036973687            0   0.40556422    1.5313352    1.9405968  -0.40797696 
15620000   0.95137536 1.0146446e-05   0.51018704 0.0063732369            0   0.50381381    1.4199277    1.9301148    2.6314371 
15625000   0.96780345 2.4430197e-05   0.48992644  0.010422263            0   0.47950418    1.4444467    1.9343731    3.6229883 
15630000   0.96283616 4.2419819e-05   0.50873905  0.019813525            0   0.48892552     1.437033     1.945772    4.8778299 
15635000   0.96177212 4.7367049e-05   0.50312205  0.034242146            0    0.4688799    1.4354449    1.9385669    5.2125773 
15640000    1.0005045 4.7435412e-05   0.45122169  0.011318037            0   0.43990365     1.493253    1.9444747    5.2232103 
15645000   0.97952797 -1.430017e-05   0.48953455  0.016664538            0   0.47287001    1.4619455      1.95148   0.96305231 
15650000   0.99200593 1.5018158e-05    0.4629932  0.028990699            0    0.4340025    1.4805688     1.943562    2.9816171 
15655000   0.98250029 1.6960736e-05   0.45499862  0.018728738            0   0.43626988    1.4663817    1.9213803    3.0937064 
15660000   0.96743132 -2.1124778e-05   0.48278483  0.032320338            0    0.4504645    1.4438912    1.9266761   0.46653144 
15665000   0.90921145 4.7352149e-05   0.57870041  0.039193809            0    0.5395066    1.3569981    1.9356985     5.208679 
15670000   0.96595537 2.2794791e-05   0.48101244  0.015287046            0   0.46572539    1.4416884    1.9227008    3.4982768 
15675000   0.99675602 2.8849503e-05   0.42589947 0.0082510623            0   0.41764841    1.4876584    1.9135578    3.9076355 
15680000   0.94143557 1.1227863e-05   0.48687801  0.010047791            0   0.47683022    1.4050926    1.8919706    2.6680405 
15685000   0.93835324 -5.4235128e-05   0.48380104 0.0078606262            0   0.47594041    1.4004922    1.8842933   -1.8644388 
15690000   0.95385928 -3.5318859e-05   0.48959843 0.0093936209            0   0.48020481     1.423635    1.9132334  -0.52800613 
15695000   0.97122601 1.6635478e-05   0.46147884 0.0027952065            0   0.45868364    1.4495548    1.9110337    3.0608779 
15700000   0.92607262 -2.1152484e-05   0.51614953   0.01160044            0   0.50454909    1.3821634    1.8983129   0.43625319 
15705000   0.92743286 -6.9295543e-07   0.49966338   0.03971389            0   0.45994949    1.3841935    1.8838569    1.8359598 
15710000   0.96205611 4.7919148e-05   0.47283989  0.021857666            0   0.45098223    1.4358687    1.9087086    5.2208801 
15715000    0.9303898 -8.9182804e-06   0.51135236  0.025885943            0   0.48546642    1.3886068    1.8999591    1.2835276 
15720000   0.92223403 2.1628856e-05   0.51136972  0.024066365            0   0.48730336    1.3764343     1.887804    3.3827905 
15725000   0.92253505 4.3629852e-05    0.4915559  0.021533362            0   0.47002254    1.3768836    1.8684395    4.8841348 
15730000   0.91290773 2.0727002e-05    0.4943293  0.028113904            0    0.4662154    1.3625148    1.8568441    3.2894945 
15735000   0.88621813 -4.0851396e-05   0.52540025  0.024538423            0   0.50086183    1.3226806    1.8480808  -0.97556769 
15740000   0.92513672 -5.2028387e-05   0.47297524  0.017295969            0   0.45567927    1.3807666    1.8537418   -1.7424603 
15745000   0.90370191 3.7455444e-06   0.50028711  0.017858912            0    0.4824282    1.3487751    1.8490622    2.1079542 
15750000   0.93823197 -2.6179124e-07   0.45705137  0.021929643            0   0.43512173    1.4003112    1.8573626    1.8392676 
15755000   0.93323217 1.6909754e-05   0.45908016  0.019626294            0   0.43945386     1.392849    1.8519292    3.0207314 
15760000   0.91065415 5.8094885e-05   0.48542224  0.015515797            0   0.46990644    1.3591513    1.8445736     5.860092 
15765000   0.90261423 -2.3256012e-07    0.5176372  0.016966342            0   0.50067086    1.3471517    1.8647889    1.8487144 
15770000   0.91340553 -2.2148338e-06   0.50894671  0.010271737            0   0.49867497    1.3632577    1.8722045    1.7191151 
15775000   0.91966342 -2.748532e-05   0.51910647   0.01359651            0   0.50550996    1.3725977    1.8917041 -0.008081172 
15780000   0.98857574 -1.5994914e-05   0.42864433  0.015379452            0   0.41326487    1.4754493    1.9040936   0.79852518 
15785000   0.93091071 -6.0047896e-05   0.51935277  0.015849292            0   0.50350347    1.3893842     1.908737   -2.2417736 
15790000   0.92817804 -5.2096125e-05   0.53274223  0.026113275            0   0.50662896    1.3853057     1.918048   -1.6828362 
15795000    0.9906526 -6.6690754e-06   0.45248734  0.017508572            0   0.43497877     1.478549    1.9310363    1.4700699 
15800000   0.95039064 -2.9042915e-05    0.5128356 0.0045269666            0   0.50830864     1.418458    1.9312936 -0.076152633 
15805000   0.98936372 -3.0772688e-05   0.45237872 0.0050040918            0   0.44737463    1.4766253    1.9290041  -0.19800411 
15810000   0.94321778 -2.6801232e-06   0.50620092 0.0081219464            0   0.49807898    1.4077525    1.9139535    1.7287033 
15815000   0.94952418 2.3626469e-05   0.47460646 0.0087484624            0     0.465858    1.4171648    1.8917713    3.5248328 
15820000    0.9531772 1.2799653e-05   0.46786348  0.014217101            0   0.45364638     1.422617    1.8904804    2.7751924 
15825000   0.94134188  1.14222e-05   0.49335489  0.046250522            0   0.44710437    1.4049528    1.8983077    2.6878101 
15830000   0.96513382 -2.7234372e-05   0.47229629  0.016049289            0     0.456247    1.4404622    1.9127585  0.030318718 
15835000   0.89780681 -4.7528671e-06   0.55307387  0.030165732            0   0.52290814    1.3399767    1.8930505    1.5645324 
15840000   0.94555839 3.8681804e-05   0.48320124   0.01366549            0   0.46953575    1.4112459    1.8944471    4.5681334 
15845000   0.95539946 3.0771697e-05   0.48579146  0.021546921            0   0.46424454    1.4259337    1.9117251    4.0386648 
15850000    0.9417476 -7.7121512e-06   0.51042441  0.016773643            0   0.49365077    1.4055583    1.9159827    1.3829188 
15855000   0.95932576 -1.446113e-07   0.48442383  0.021251806            0   0.46317202    1.4317937    1.9162175     1.906222 
15860000   0.94798164 4.5960656e-05   0.50221134  0.030216095            0   0.47199525    1.4148626    1.9170739    5.0938744 
15865000   0.91453571 4.8708008e-05   0.56001423   0.02725602            0   0.53275821    1.3649445    1.9249588    5.2916563 
15870000   0.95106538 -9.0747799e-06   0.51735192  0.017156741            0   0.50019518    1.4194651     1.936817    1.3095682 
15875000   0.92715972 -2.641477e-05   0.56415103  0.018754945            0   0.54539609    1.3837859    1.9479369   0.12214801 
15880000   0.94472365 1.5684442e-05   0.52299794  0.016764475            0   0.50623347         1.41     1.932998    3.0171066 
15885000   0.95700573 1.874769e-05   0.50732956  0.020966689            0   0.48636287    1.4283311    1.9356606    3.2315009 
15890000   0.95561087 9.8692447e-06    0.5206096  0.017498102            0    0.5031115    1.4262492    1.9468588     2.629021 
15895000   0.97750671 2.7635699e-05   0.46701507  0.031040351            0   0.43597472    1.4589288    1.9259438    3.8361234 
15900000   0.94054153 -3.7257955e-05   0.54492855  0.020585539            0   0.52434301    1.4037582    1.9486868  -0.62658306 
15905000   0.94957789 -4.9855502e-05     0.539522  0.020789729            0   0.51873227     1.417245     1.956767   -1.4892453 
15910000    1.0028977 1.7922288e-05   0.46118243  0.017574165            0   0.44360826    1.4968249    1.9580073    3.1967958 
15915000   0.90204788 6.4919479e-05   0.58606745 0.0084814422            0   0.57758601    1.3463065    1.9323739    6.4196083 
15920000   0.96971429 3.7288354e-06   0.48815349  0.007542781            0   0.48061071    1.4472986    1.9354521    2.1931892 
15925000   0.96660105 -5.7930363e-05   0.50117581 0.0069493563            0   0.49422645    1.4426521    1.9438279   -2.0603188 
15930000   0.94772544 -3.7167881e-06   0.51909768  0.012196771            0   0.50690091    1.4144802    1.9335779    1.6766735 
15935000   0.97657869 1.9149943e-05   0.48383862  0.016624922            0    0.4672137    1.4575437    1.9413823    3.2650264 
15940000   0.94980122 2.6034018e-05   0.52512926 0.0063365055            0   0.51879275    1.4175783    1.9427076    3.7421789 
15945000    0.9626746 3.2107616e-05   0.50478362 0.0068663972            0   0.49791722    1.4367918    1.9415755    4.1608539 
15950000    0.9111503 -3.2192895e-05   0.60109611 0.0044010448            0   0.59669506    1.3598918    1.9609879  -0.26418497 
15955000   0.98055433 2.0512047e-05   0.51840868 0.0082132147            0   0.51019546    1.4634773     1.981886    3.3996787 
15960000   0.97746363 8.4183694e-05   0.51211432 0.0096550339            0   0.50245928    1.4588645    1.9709788    7.7897557 
15965000    1.0378387 -1.2329743e-05   0.42819067 0.0095425443            0   0.41864812    1.5489743     1.977165    1.1249331 
15970000    0.9812857 -6.729516e-05   0.53553631   0.01787448            0   0.51766183    1.4645689    2.0001052   -2.6513362 
15975000   0.98443049 -3.1961558e-05   0.52437036  0.014059605            0   0.51031075    1.4692625    1.9936329  -0.21555001 
15980000     1.005647 -2.7402825e-05   0.47785323  0.017197895            0   0.46065533    1.5009282    1.9787814  0.084698166 
15985000   0.94688329 -5.5098363e-05   0.55826769  0.014148729            0   0.54411896    1.4132233     1.971491   -1.8369079 
15990000   0.93309017 -2.8258288e-05   0.58777894  0.024764193            0   0.56301475    1.3926371     1.980416  0.027203138 
15995000   0.98179652 -1.6714164e-05   0.52519314  0.025076202            0   0.50011694    1.4653313    1.9905244   0.83524142 
16000000   0.97831307  1.05527e-05   0.51501283  0.010449383            0   0.50456345    1.4601323    1.9751451    2.7045477 
16005000     0.981996 3.3647316e-06     0.498755  0.014879632            0   0.48387537     1.465629     1.964384    2.1969543 
16010000   0.96058854 6.5692436e-06   0.54126348   0.01077587            0   0.53048761    1.4336784    1.9749419     2.429008 
16015000    1.0132803 -3.2554787e-05   0.47882705  0.024295181            0   0.45453186    1.5123209     1.991148  -0.25903895 
16020000    1.0333802 -4.9423988e-05   0.45479648  0.025831048            0   0.42896543      1.54232    1.9971165   -1.4190695 
16025000    1.0489716 1.1269533e-06   0.45348237  0.011144664            0   0.44233771    1.5655902    2.0190725    2.0969676 
16030000    1.0495303 4.7430141e-05   0.45664364  0.013353606            0   0.44329004    1.5664239    2.0230676    5.3014389 
16035000    1.0136407 8.6589619e-05   0.50445351  0.017038777            0   0.48741473    1.5128588    2.0173123    8.0023868 
16040000   0.99191316 4.5397997e-05   0.53927639  0.024698759            0   0.51457763    1.4804304    2.0197068    5.1576163 
16045000    1.0481481 -1.9947894e-05    0.4915549   0.02642619            0   0.46512871    1.5643611     2.055916   0.67711749 
16050000   0.98848483 6.2371013e-06   0.57730784 0.0088352655            0   0.56847257    1.4753136    2.0526214    2.4837299 
16055000   0.98614503 -3.713764e-05   0.58638806  0.006013407            0   0.58037466    1.4718215    2.0582095  -0.50874414 
16060000    1.0053907 -2.6027346e-05   0.54493007  0.010317392            0   0.53461268    1.5005456    2.0454757   0.24646556 
16065000    1.0154994 2.4380255e-05   0.54343123  0.027400875            0   0.51603036    1.5156328    2.0590641    3.7442273 
16070000    1.0304747 -5.4534189e-06   0.52457819   0.01565817            0   0.50892002    1.5379835    2.0625617    1.6856214 
16075000    1.0576548 -4.2920709e-06   0.48054398 0.0083661843            0   0.47217779    1.5785497    2.0590937    1.7624258 
16080000   0.98563175 6.2503056e-05   0.57366495  0.014990569            0   0.55867438    1.4710554    2.0447203    6.3649316 
16085000    1.0307655 6.1448523e-05   0.50055457   0.01129512            0   0.48925945    1.5384175    2.0389721     6.286294 
16090000    1.0323152 -1.290268e-05   0.50355254  0.022360582            0   0.48119196    1.5407305     2.044283    1.1524498 
16095000    1.0249482 -3.2184687e-05   0.49811544 0.0082451155            0   0.48987033    1.5297352    2.0278507  -0.19675491 
16100000    1.0488832 -3.6771058e-05   0.46834654  0.010665639            0    0.4576809    1.5654582    2.0338047  -0.50781084 
16105000     1.002778 -2.2465901e-06   0.55655645  0.013724413            0   0.54283204    1.4966461    2.0532026    1.8979183 
16110000    1.0372159 4.4986347e-05   0.50389654  0.026310662            0   0.47758588    1.5480447    2.0519413    5.1613975 
16115000    1.0512014 -3.1673493e-06   0.48325906  0.016036742            0   0.46722232    1.5689181    2.0521771    1.8332499 
16120000    1.0055885 -5.0618364e-05   0.55465697  0.022065473            0    0.5325915    1.5008408    2.0554978   -1.4432435 
16125000    1.0233499 -5.4815188e-05   0.55709438  0.041927432            0   0.51516695    1.5273498    2.0844441   -1.7043817 
16130000    1.0413972 -1.1986429e-05   0.52844404  0.028118639            0   0.50032541    1.5542853    2.0827294    1.2542274 
16135000    1.0384962 1.7618978e-05    0.5591539  0.021575063            0   0.53757884    1.5499555    2.1091094    3.3269332 
16140000    1.0466089 -3.2743913e-05   0.52018074  0.023310156            0   0.49687058    1.5620638    2.0822445  -0.18101469 
16145000    1.0065334 1.9790701e-06    0.5604807  0.015834269            0   0.54464643    1.5022511    2.0627318    2.1995251 
16150000    1.0665188 7.1091412e-05   0.46891427 0.0048325847            0   0.46408169    1.5917793    2.0606936     6.974532 
16155000     1.021177 5.4147497e-05    0.5320991 0.0094067955            0   0.52269231    1.5241067    2.0562058    5.7988808 
16160000    1.0104031 1.6703752e-05   0.54006918 0.0047435304            0   0.53532565    1.5080267    2.0480958    3.2026592 
16165000    1.0640309 -9.4538264e-06   0.46271627 0.0002078105            0   0.46250846    1.5880661    2.0507824    1.3973339 
16170000   0.99251357 -3.2511407e-05   0.58008809 0.0012969406            0   0.57879115    1.4813265    2.0614146  -0.18577384 
16175000    1.0477519 5.6401594e-05     0.488796 0.0058231716            0   0.48297283    1.5637697    2.0525657    5.9510439 
16180000    1.0695304 5.0591858e-05   0.48628939  0.017980357            0   0.46830904    1.5962741    2.0825635    5.5794727 
16185000    1.0341549 -6.3097214e-05   0.54113087  0.024503199            0   0.51662767    1.5434761     2.084607   -2.2766724 
16190000    1.0019248 -4.9604528e-05   0.58502825  0.028140171            0   0.55688808    1.4953727     2.080401   -1.3482641 
16195000     1.029841 1.0068992e-05   0.54793862  0.020049675            0   0.52788895    1.5370377    2.0849763     2.780945 
16200000    1.0171506 2.3719904e-05   0.57007625   0.02210275            0    0.5479735    1.5180973    2.0881735    3.7276933 
16205000    1.0681545 1.4385926e-05   0.49110038  0.046017067            0   0.44508331    1.5942205    2.0853209    3.0796761 
16210000    1.0543828 2.1293529e-06   0.52450427  0.015453041            0   0.50905122    1.5736663    2.0981706    2.2453515 
16215000    1.0751425 -9.7354339e-06   0.48537796  0.014465949            0   0.47091201    1.6046502    2.0900281     1.417115 
16220000   0.97591629 -2.5324189e-06   0.61020137  0.016084304            0   0.59411707    1.4565551    2.0667564    1.8917156 
16225000    1.0179247 4.0972803e-05   0.53505741  0.015139047            0   0.51991836    1.5192526      2.05431    4.8863501 
16230000     1.053135 1.1734469e-05   0.48646999  0.026358696            0   0.46011129     1.571804     2.058274    2.8693605 
16235000    1.0179554 -4.0916013e-05    0.5216217   0.01923592            0   0.50238578    1.5192984    2.0409201  -0.78719471 
16240000     1.009524 -1.7829897e-05   0.53514061  0.027541672            0   0.50759893    1.5067146    2.0418552   0.80945272 
16245000    1.0393827 -2.6804298e-05   0.48630932  0.034260467            0   0.45204886    1.5512786     2.037588   0.18487487 
16250000     1.024594 -2.4211465e-06    0.5057779  0.019189478            0   0.48658843    1.5292066    2.0349845    1.8676349 
16255000    1.0050166 2.6777239e-05   0.55083047  0.010066001            0   0.54076447    1.4999873    2.0508178    3.9016606 
16260000    1.0281541 -2.4779056e-05   0.53225793  0.014525192            0   0.51773274      1.53452     2.066778   0.35404958 
16265000    1.0417481 -8.0381292e-05    0.5133122   0.02609544            0   0.48721676     1.554809    2.0681212   -3.4878337 
16270000   0.98578121 -5.6856686e-05   0.58599305  0.024430198            0   0.56156285    1.4712785    2.0572715   -1.8726626 
16275000    1.0098444 -2.4355061e-05   0.53727375   0.01825431            0   0.51901944    1.5071927    2.0444665   0.36104468 
16280000    1.0201992 -2.7341693e-06   0.56178809   0.01723389            0    0.5445542    1.5226473    2.0844354    1.8954496 
16285000    1.0778617 1.6817892e-05   0.46624445   0.02671797            0   0.43952648    1.6087086     2.074953    3.2374057 
16290000    1.0570899 2.8454646e-05   0.50274974  0.013260837            0   0.48948891    1.5777067    2.0804564    4.0472416 
16295000    1.0356911 -2.7451241e-05   0.54311512  0.012578041            0   0.53053708    1.5457689    2.0888841    0.1914543 
16300000    1.0529722 4.5073207e-06   0.50840308  0.015091643            0   0.49331143     1.571561     2.079964      2.39151 
16305000    1.0768696 4.438765e-05   0.46114332  0.014075373            0   0.44706795    1.6072278    2.0683712    5.1364455 
16310000    1.0316812 -3.4963585e-05   0.50310415  0.022934043            0   0.48017011    1.5397842    2.0428883  -0.37379467 
16315000    1.0423233 -5.1462564e-05   0.50300542  0.019092447            0   0.48391297    1.5556675    2.0586729   -1.4984196 
16320000   0.99256525 -2.939835e-05    0.5874189  0.019571396            0    0.5678475    1.4814036    2.0688225  0.036808606 
16325000    1.0226024 -3.3752819e-05   0.53744963  0.045251175            0   0.49219846    1.5262341    2.0636838   -0.2693111 
16330000    1.0497386 3.8040492e-05   0.51673615  0.058174824            0   0.45856133    1.5667349     2.083471    4.7128299 
16335000    1.0187162 3.3046095e-05   0.56698004  0.028178645            0   0.53880139    1.5204339     2.087414    4.3715601 
16340000     1.038356 8.4673722e-07   0.52852902 0.0092571039            0   0.51927191    1.5497464    2.0782754    2.1368019 
16345000      1.06907 7.3427429e-06   0.48585794  0.013120351            0   0.47273759    1.5955869    2.0814449    2.5889752 
16350000    1.0249387 -3.5175962e-05   0.56026043  0.021549505            0   0.53871093     1.529721    2.0899814  -0.34138109 
16355000    1.0645884 -3.3787998e-06   0.51965673  0.048102836            0    0.4715539    1.5888982    2.1085549    1.8750123 
16360000    1.0210331 1.8031328e-05   0.57606103  0.031545779            0   0.54451525    1.5238919     2.099953    3.3462784 
16365000    1.0240963 -2.8947958e-05   0.55796778  0.024170259            0   0.53379752    1.5284637    2.0864315  0.085548685 
16370000    1.0143999 -2.2407557e-05   0.59021216   0.02134263            0   0.56886953    1.5139919    2.1042041   0.55539374 
16375000    1.0734599 3.2910961e-05   0.50896272  0.017298129            0   0.49166459    1.6021389    2.1111016    4.3859073 
16380000    1.0111936 6.1745005e-06   0.59383672  0.020402722            0     0.573434    1.5092064    2.1030431    2.5298246 
16385000    1.0653107 -1.2148911e-05   0.50816437 0.0088047278            0   0.49935964    1.5899762    2.0981405    1.2584078 
16390000    1.0797672 -7.22864e-06   0.48230903 0.0028584532            0   0.47945057    1.6115525    2.0938616     1.594218 
16395000    1.0953604 2.1103701e-05   0.48196163  0.015265403            0   0.46669623    1.6348253     2.116787    3.5754747 
16400000   0.97775308 3.1390447e-06   0.64106643   0.01569583            0    0.6253706    1.4592965    2.1003629    2.3173337 
16405000    1.0222115 1.4904481e-05   0.56502512 0.0081903783            0   0.55683474    1.5256507    2.0906758    3.1208735 
16410000    1.0699354 3.3591186e-05   0.49612846  0.025437158            0   0.47069131    1.5968786    2.0930071    4.4148299 
16415000    1.0552538 2.7087602e-05   0.52307898  0.042189939            0   0.48088904    1.5749663    2.0980453    3.9703404 
16420000     1.032834 -4.1536921e-05   0.54797828  0.033612442            0   0.51436584    1.5415047     2.089483  -0.78154896 
16425000    1.0158594 8.2016105e-06   0.55771931   0.04131187            0   0.51640744    1.5161702    2.0738895    2.6407848 
16430000    1.0550382 5.2052486e-05   0.49861253  0.025475854            0   0.47313668    1.5746446    2.0732571    5.6711249 
16435000    1.0387324 -1.6106451e-05    0.5183994  0.019697816            0   0.49870158    1.5503082    2.0687076   0.95542967 
16440000    0.9847057 -3.2676359e-06   0.57500244  0.027539377            0   0.54746307    1.4696733    2.0446757    1.8188167 
16445000    1.0203576 -3.513165e-05   0.50550183   0.01173693            0    0.4937649    1.5228838    2.0283856  -0.39991404 
16450000     0.987636 -7.4734434e-05    0.5607712  0.013348594            0    0.5474226    1.4740467    2.0348179   -3.1308261 
16455000    1.0555056 -2.3834894e-05   0.47067317 0.0096282982            0   0.46104488    1.5753421    2.0460153   0.39854742 
16460000      1.00365 2.0781408e-05   0.53904205  0.012121582            0   0.52692047    1.4979476    2.0369896    3.4734005 
16465000    1.0310268 6.0267777e-05   0.51533526  0.032190083            0   0.48314518    1.5388075    2.0541427    6.2198515 
16470000     1.014998 4.9012093e-05   0.52031535   0.03386673            0   0.48644862    1.5148845    2.0351998    5.4229158 
16475000   0.99606484 -4.104047e-05   0.55898738  0.017994487            0    0.5409929    1.4866268    2.0456142  -0.79110314 
16480000     1.024585 -1.5549985e-05   0.51940564  0.012832666            0   0.50657298    1.5291931    2.0485988   0.97378379 
16485000    1.0462455 -1.7809985e-05   0.50066184  0.035875187            0   0.46478665    1.5615215    2.0621833   0.83115714 
16490000    1.0348667 4.3512402e-05   0.50381659  0.037723207            0   0.46609338    1.5445385    2.0483551    5.0559323 
16495000   0.99363137 7.1491997e-06   0.57091126  0.037967801            0   0.53294346    1.4829948    2.0539061    2.5480588 
16500000    1.0256336 -1.6650222e-05   0.52159881   0.03077255            0   0.49082626    1.5307581    2.0523569    0.9014936 
16505000    1.0558265 1.7406312e-05   0.47577746  0.025698096            0   0.45007937    1.5758211    2.0515985    3.2547228 
16510000    1.0087759 -5.5511337e-06   0.55243348  0.027048108            0   0.52538538     1.505598    2.0580315    1.6743371 
16515000    1.0323627 4.8112917e-06   0.52051546  0.023681692            0   0.49683377    1.5408013    2.0613168    2.3938733 
16520000    1.0196111 4.9464743e-05   0.52893746  0.019752389            0   0.50918507    1.5217696     2.050707    5.4697101 
16525000    1.0487908 0.00011578711   0.49506217  0.028715679            0   0.46634649    1.5653203    2.0603824    10.063588 
16530000    1.0457177 3.054688e-05   0.51776481  0.041631251            0   0.47613356    1.5607336    2.0784984    4.1898988 
16535000    1.0165461 -2.3677118e-05   0.55802482  0.023846442            0   0.53417837    1.5171951    2.0752199   0.43865754 
16540000    1.0102437 1.3283451e-05   0.57390926  0.032116961            0    0.5417923    1.5077887     2.081698    2.9998501 
16545000    1.0007714 -1.836205e-05   0.56633521  0.034156452            0   0.53217875    1.4936513    2.0599865   0.79080163 
16550000    1.0473792 2.2833947e-05   0.47347147  0.023962131            0   0.44950934    1.5632135     2.036685    3.6149674 
16555000     1.041264 1.1881961e-05   0.49314543  0.028815957            0   0.46432947    1.5540866     2.047232    2.8685132 
16560000   0.96362691 2.4827207e-05   0.60835036  0.028421944            0   0.57992841    1.4382132    2.0465635      3.76262 
16565000     1.051375 8.9704281e-06   0.48000754  0.013217323            0   0.46679022    1.5691771    2.0491847    2.6692207 
16570000    1.0585283 2.6672716e-06   0.47592822 0.0064338718            0   0.46949435    1.5798535    2.0557817    2.2401436 
16575000    1.0175586 5.1493827e-05   0.52741588   0.01647971            0   0.51093617    1.5187062    2.0461221    5.6053754 
16580000     1.032912 3.2091927e-05   0.50322627  0.040127843            0   0.46309843    1.5416211    2.0448474    4.2630414 
16585000    1.0579255 1.2673719e-05   0.47641134  0.008756567            0   0.46765477    1.5789538    2.0553651    2.9313726 
16590000    1.0434497 8.7762817e-07   0.50671176 0.0082156333            0   0.49849613    1.5573486    2.0640604     2.124722 
16595000    1.0293973 -6.5320432e-05   0.52465374  0.016109171            0   0.50854457    1.5363754    2.0610292   -2.4539191 
16600000    1.0563033 -1.7652383e-05   0.48081283  0.012246806            0   0.46856603    1.5765327    2.0573456   0.83721289 
16605000    1.0723285 3.7787249e-05   0.48181721  0.014198202            0   0.46761901    1.6004503    2.0822675    4.6941222 
16610000    1.0211152 -2.4453731e-05   0.57865235  0.022828624            0   0.55582372    1.5240144    2.1026668   0.41242487 
16615000    1.0219383 -2.6491155e-05   0.56633695  0.038471871            0   0.52786508     1.525243    2.0915799   0.26051128 
16620000   0.99895977 -3.7378345e-05    0.6040082  0.042211252            0   0.56179695    1.4909475    2.0949557  -0.48863557 
16625000    1.0718544 3.5466144e-05   0.50371331   0.03084771            0    0.4728656    1.5997427     2.103456    4.5548759 
16630000     1.020816 6.2875365e-05   0.61204362  0.023950549            0   0.58809307    1.5235679    2.1356115    6.4815567 
16635000    1.0668507 -1.3924014e-05   0.52922545  0.015805879            0   0.51341958    1.5922747    2.1215001    1.1590722 
16640000    1.0646443 -5.2252276e-05    0.5444646  0.034856427            0   0.50960817    1.5889817    2.1334463    -1.478231 
16645000    1.0569821 -1.6537239e-05   0.53877248  0.019735386            0    0.5190371    1.5775458    2.1163182   0.97326425 
16650000     1.074645 -2.7104911e-05   0.51015457  0.029698295            0   0.48045627    1.6039077    2.1140623   0.24057083 
16655000    1.0991936 -8.5082106e-06   0.50746678  0.021862986            0    0.4856038    1.6405465    2.1480133    1.5599258 
16660000    1.0382008 3.6481287e-05   0.59304132  0.050143877            0   0.54289744    1.5495146     2.142556    4.6641425 
16665000    1.1119929 -4.2734369e-05   0.50075756  0.021855708            0   0.47890185    1.6596494     2.160407   -0.7933926 
16670000    1.0737101 -0.00011503191   0.56152581 0.0068127999            0   0.55471301    1.6025123    2.1640381   -5.7869674 
16675000    1.1207389 -6.5303943e-05   0.47683402  0.014992932            0   0.46184109    1.6727028    2.1495369   -2.3642717 
16680000    1.0565935 -4.1751217e-05   0.58919109  0.053794099            0   0.53539699    1.5769657    2.1661568  -0.71968727 
16685000    1.0638991 2.9608176e-05   0.58408803  0.038944753            0   0.54514327    1.5878694    2.1719574    4.2184745 
16690000    1.0746631 4.3560273e-05   0.54954547  0.035739763            0   0.51380571    1.6039346    2.1534801    5.1643662 
16695000     1.091647 1.4919181e-05   0.53423754  0.036704831            0   0.49753271    1.6292832    2.1635207    3.1947345 
16700000    1.0445718 -2.2752138e-05   0.56594649  0.033287303            0   0.53265919    1.5590233    2.1249698   0.55234203 
16705000    1.0498968 6.8335416e-06   0.56077439    0.0233353            0   0.53743909     1.566971    2.1277454    2.6000798 
16710000    1.0648509 7.3611122e-06   0.56493885  0.020527441            0   0.54441141      1.58929    2.1542288    2.6630289 
16715000    1.0597089 -3.6004993e-05   0.56265315  0.027621718            0   0.53503143    1.5816156    2.1442687  -0.34439638 
16720000     1.045333 -3.4600475e-05   0.57131918  0.015277618            0   0.55604156    1.5601595    2.1314787  -0.26010615 
16725000    1.0778275 3.698025e-05   0.51766191   0.01986846            0   0.49779345    1.6086575    2.1263194    4.6823943 
16730000    1.0424887 -1.0601652e-05   0.56105183  0.041465937            0   0.51958589    1.5559143    2.1169661      1.38418 
16735000    1.0620718 -5.0083737e-05   0.52755898  0.036371221            0   0.49118776    1.5851422    2.1127012   -1.3490867 
16740000    1.0228798 -4.805679e-06   0.57253983  0.025369512            0   0.54717032    1.5266481    2.0991879    1.7670194 
16745000    1.0059085 7.0239091e-05   0.58312092  0.010603268            0   0.57251765    1.5013185    2.0844394    6.9393654 
16750000    1.0768681 6.0098416e-05   0.46463987  0.012882471            0    0.4517574    1.6072257    2.0718655     6.225868 
16755000    1.0059932 -6.9117717e-05   0.56355483  0.021299423            0   0.54225541    1.5014448    2.0649996    -2.712417 
16760000    1.0006659 -1.9353274e-05   0.57019657  0.030873558            0   0.53932301    1.4934939    2.0636904   0.72599213 
16765000   0.97118675 6.738032e-05   0.61768289  0.016098098            0   0.60158479    1.4494962    2.0671791    6.7245068 
16770000     1.035263 5.4395366e-05   0.54274132  0.038565847            0   0.50417547      1.54513    2.0878713     5.847679 
16775000    0.9832071 -1.6196268e-05   0.60194474  0.044706197            0   0.55723854    1.4674366    2.0693813   0.94989529 
16780000   0.96558294 2.9229852e-05   0.63343943  0.029638791            0   0.60380063    1.4411325     2.074572    4.0949393 
16785000    1.0099887 4.023652e-05    0.5575183  0.017425152            0   0.54009315    1.5074081    2.0649264    4.8460747 
16790000    1.0082693 -1.1879642e-05    0.5582352  0.034398069            0   0.52383713    1.5048419    2.0630771    1.2419562 
16795000    1.0168127 -2.3274517e-06    0.5643222  0.023177049            0   0.54114516    1.5175929    2.0819151    1.9210417 
16800000    0.9723841 5.4440998e-06    0.6225297   0.02062961            0    0.6019001    1.4512833     2.073813    2.4501092 
16805000    1.0987737 -2.2156103e-05   0.44424893 0.0035333554            0   0.44071557    1.6399197    2.0841687   0.55273886 
16810000    1.0695699 7.4008793e-06   0.48623806  0.011941202            0   0.47429685    1.5963331    2.0825712    2.5941199 
16815000   0.98362852 1.9878169e-05   0.60506348  0.035144941            0   0.56991854    1.4680656    2.0731291    3.4471081 
16820000    1.0128906 -2.5305038e-06   0.57259284  0.041315965            0   0.53127688    1.5117393    2.0843321    1.9094237 
16825000    1.0238843 -4.1944313e-05   0.53710987  0.036661331            0   0.50044854    1.5281474    2.0652573  -0.83393364 
16830000    1.0008743 -5.2651835e-05   0.56695914  0.028494756            0   0.53846438    1.4938049     2.060764   -1.5785308 
16835000   0.99988649 -3.4068516e-05    0.5742224  0.031878718            0   0.54234368    1.4923306     2.066553  -0.28826281 
16840000    1.0344099 5.2627799e-05   0.52366176  0.013997441            0   0.50966432    1.5438567    2.0675185    5.7051519 
16845000    1.0241109 1.0469275e-05   0.52342987  0.026421438            0   0.49700843    1.5284855    2.0519153    2.7755516 
16850000    1.0192278 -4.094782e-05   0.55150828  0.017906786            0    0.5336015    1.5211975    2.0727058  -0.75760757 
16855000    1.0021951 3.1076602e-05   0.56198511  0.017041802            0   0.54494331    1.4957762    2.0577613     4.205776 
16860000    1.0118501  3.68799e-05   0.55681967   0.02310504            0   0.53371463    1.5101863    2.0670059    4.6161446 
16865000    1.0165401 4.6228768e-05   0.54793971  0.013757083            0   0.53418262     1.517186    2.0651257    5.2604582 
16870000    1.0665947 1.9953198e-05   0.47639961  0.015380115            0   0.46101949    1.5918926    2.0682922    3.4474573 
16875000    1.0019261 -7.5176447e-05    0.5505459  0.018038571            0   0.53250733    1.4953746    2.0459206   -3.1502755 
16880000    0.9880127 -4.337974e-05   0.58581294  0.015443865            0   0.57036908     1.474609    2.0604219  -0.93798575 
16885000   0.99574609 3.0159636e-05   0.56353904  0.019646266            0   0.54389278     1.486151    2.0496901    4.1343241 
16890000   0.96560768 1.6235987e-05   0.61717259 0.0099559129            0   0.60721668    1.4411695    2.0583421    3.1805735 
16895000    1.0240074 -1.4168549e-05   0.52934892  0.012026029            0   0.51732289     1.528331    2.0576799    1.0783498 
16900000   0.99082055 -1.4014936e-05   0.56828788  0.033155014            0   0.53513286    1.4787997    2.0470875    1.0783752 
16905000     1.033097 2.9969392e-05   0.51191756  0.028897447            0   0.48302011    1.5418973    2.0538149    4.1252992 
16910000    1.0172189 5.1106726e-05   0.53802701  0.022047295            0   0.51597971    1.5181992    2.0562262    5.5887231 
16915000    1.0101311 6.0242358e-06   0.54095127  0.019898109            0   0.52105316    1.5076206    2.0485719    2.4649671 
16920000   0.95985698 -4.2031641e-05   0.61240777  0.015750009            0   0.59665777    1.4325865    2.0449943  -0.86023271 
16925000    1.0019754 8.7246766e-06   0.53475436 0.0091526987            0   0.52560167    1.4954482    2.0302026    2.6332522 
16930000   0.98763991 1.7902109e-05   0.54986639  0.010426016            0   0.53944038    1.4740526     2.023919    3.2613127 
16935000    1.0084404 7.7476259e-06   0.52674019  0.020865457            0   0.50587473    1.5050973    2.0318375    2.5673534 
16940000   0.97026387 -1.7254192e-05   0.58834665  0.028345712            0   0.56000094    1.4481188    2.0364655   0.84385571 
16945000    1.0100167 -2.2345718e-05   0.54622592  0.027270836            0   0.51895508    1.5074499    2.0536758   0.50913981 
16950000      1.00842 1.3645007e-05   0.53037041  0.024641119            0   0.50572929    1.5050668    2.0354372    2.9785801 
16955000    1.0028249 -1.478568e-05   0.54741905  0.018450966            0   0.52896808    1.4967161    2.0441351     1.022149 
16960000   0.98833495 -1.9195217e-05   0.56172108  0.024147028            0   0.53757405    1.4750899     2.036811   0.71003758 
16965000   0.99427897 3.4832985e-05   0.54379558   0.03313313            0   0.51066245    1.4839614    2.0277569    4.4354129 
16970000    1.0240979 4.8004245e-05   0.49002752  0.028397947            0   0.46162957    1.5284661    2.0184936     5.336547 
16975000   0.99735671 1.2454341e-05   0.54124486  0.019639448            0   0.52160541    1.4885549    2.0297998    2.8906438 
16980000   0.98932857 4.2232314e-05   0.54587765 0.0085058106            0   0.53737184    1.4765729    2.0224505    4.9415481 
16985000    1.0064221 3.7256236e-05   0.51661162 0.0088768614            0   0.50773476    1.5020851    2.0186967    4.5938477 
16990000     1.006515 -5.3119267e-06   0.52017879  0.007782302            0   0.51239649    1.5022236    2.0224024     1.655242 
16995000   0.96818991 -1.9177203e-05   0.55998891  0.011557151            0   0.54843176    1.4450234    2.0050124   0.67948406 
17000000     1.009584 1.9786205e-05   0.50378557  0.019750261            0   0.48403531    1.5068042    2.0105897    3.3782122 
17005000   0.96002755 -1.1227543e-05   0.57853982   0.03198828            0   0.54655154    1.4328411    2.0113809    1.2353332 
17010000    0.9784015 5.9282191e-06   0.58225465  0.027162052            0    0.5550926    1.4602642    2.0425189    2.4522774 
17015000   0.97567295 1.4963912e-05   0.59577305  0.016301186            0   0.57947186    1.4561919    2.0519649    3.0862705 
17020000   0.99911099 -9.784331e-06   0.56349477  0.039780563            0   0.52371421    1.4911731    2.0546679     1.378375 
17025000   0.99668728 -3.593768e-05   0.58571833  0.028004828            0    0.5577135    1.4875558    2.0732741  -0.41073836 
17030000    1.0067295 -2.4594535e-05   0.57462827 0.0095124653            0    0.5651158    1.5025438    2.0771721   0.37719784 
17035000     1.005055 5.9696779e-06   0.58050653  0.021821445            0   0.55868508    1.5000446    2.0805511    2.4931753 
17040000    1.0238583 -6.619527e-05   0.57099289  0.043068816            0   0.52792407    1.5281085    2.0991014   -2.4763156 
17045000    1.0599145 -5.294292e-05   0.53088825  0.018269654            0    0.5126186    1.5819224    2.1128106    -1.546604 
17050000   0.96916894 -3.49164e-06   0.65152657  0.032779737            0   0.61874683    1.4464846    2.0980112    1.8566691 
17055000    1.0143734 -6.4089319e-05     0.577587   0.03621254            0   0.54137446    1.5139524    2.0915394   -2.3383144 
17060000    1.0627883 -6.9043404e-05   0.49057571  0.025223156            0   0.46535256    1.5862116    2.0767873   -2.6954928 
17065000    1.0553906 3.6022749e-06   0.48898188  0.011818966            0   0.47716291    1.5751705    2.0641524    2.3131417 
17070000    1.0088354 -1.0471931e-05    0.5429106 0.0060698078            0   0.53684079    1.5056869    2.0485975    1.3247776 
17075000    1.0143712 -1.6683776e-05   0.52241012 0.0037029456            0   0.51870718    1.5139491    2.0363592   0.88317656 
17080000     1.026304 1.7206942e-05   0.52379501 0.0060343396            0   0.51776067    1.5317587    2.0555537    3.2448975 
17085000     0.988322 5.950798e-06   0.58385679  0.025895253            0   0.55796154    1.4750706    2.0589274    2.4702465 
17090000    1.0199847 3.3172703e-06   0.52827024  0.015287769            0   0.51298247    1.5223272    2.0505975    2.2798872 
17095000    1.0179069 -3.4097898e-05    0.5220238  0.024517959            0   0.49750584    1.5192261    2.0412499  -0.31559686 
17100000    1.0180417 -2.5220275e-05   0.52306808  0.019505588            0   0.50356249    1.5194272    2.0424953   0.29926984 
17105000    1.0007491 -1.7790235e-05   0.54934582  0.027098577            0   0.52224724    1.4936181    2.0429639   0.81330285 
17110000    1.0017302 -4.1117774e-05   0.54159305  0.039487361            0   0.50210569    1.4950823    2.0366754  -0.80538521 
17115000    1.0008866 6.7066814e-05     0.524806  0.032875014            0   0.49193099    1.4938232    2.0186292    6.6542875 
17120000   0.96910357 -1.9010177e-05   0.56170471  0.021945635            0   0.53975907    1.4463871    2.0080918   0.69410838 
17125000    1.0172271 2.3423307e-05   0.50283555  0.023022585            0   0.47981296    1.5182114     2.021047     3.640066 
17130000   0.98286217 3.0744562e-05   0.56022601  0.037414921            0   0.52281108    1.4669218    2.0271478    4.1522119 
17135000    1.0146233 -5.6860974e-05   0.51335634  0.023564099            0   0.48979224    1.5143253    2.0276817   -1.9025488 
17140000   0.99733628 -5.9486049e-06   0.52335363 0.0061060991            0   0.51724753    1.4885244     2.011878    1.6007105 
17145000    1.0052039 4.6712475e-05   0.50298926 0.0083543789            0   0.49463488    1.5002669    2.0032561    5.2320224 
17150000   0.96203866 -2.401049e-05   0.56163897  0.029387518            0   0.53225145    1.4358427    1.9974817    0.3378766 
17155000   0.96396945 -6.8408879e-05   0.55197607  0.022262091            0   0.52971397    1.4387244    1.9907005   -2.7377212 
17160000   0.98064241 -5.7827958e-05   0.53347345  0.010907904            0   0.52256555    1.4636088    1.9970823   -1.9999862 
17165000    1.0113584 -1.8142079e-05   0.47009602  0.011115222            0    0.4589808    1.5094524    1.9795484   0.72556793 
17170000   0.98477218 5.5994438e-05   0.49772835  0.012244061            0   0.48548429    1.4697725    1.9675008    5.8378364 
17175000    1.0076031 7.1377057e-05   0.47677799  0.011810196            0   0.46496779    1.5038476    1.9806256    6.9142078 
17180000   0.96470952 1.4972626e-05   0.52564994  0.022262112            0   0.50338783     1.439829    1.9654789    3.0003868 
17185000   0.90933898 -3.5980755e-05   0.61135994  0.032942784            0   0.57841716    1.3571884    1.9685484  -0.51844139 
17190000   0.96616148 5.6422481e-05   0.52226046  0.039215991            0   0.48304447     1.441996    1.9642565    5.8641784 
17195000   0.98101738 7.2813587e-05   0.50246174  0.011407515            0   0.49105422    1.4641684    1.9666302    6.9995053 
17200000   0.98760618 -6.0546319e-06   0.48981392  0.010493366            0   0.47932055    1.4740022    1.9638161      1.54532 
17205000   0.90535666 -2.038484e-05   0.60130637  0.015278795            0   0.58602757    1.3512448    1.9525512   0.54355104 
17210000   0.90675024 -3.6531402e-05   0.58656458  0.021923652            0   0.56464092    1.3533247    1.9398893  -0.58516122 
17215000   0.95774244 1.1159947e-05    0.5090752  0.028731923            0   0.48034328    1.4294306    1.9385058    2.7098813 
17220000   0.93652225 1.8161919e-05   0.52328988  0.027891777            0   0.49539811    1.3977595    1.9210493    3.1764012 
17225000   0.95110295 3.5848508e-05   0.50799532   0.03426636            0   0.47372896    1.4195211    1.9275165    4.4053653 
17230000   0.92000346 5.4133394e-05   0.55224327  0.041447849            0   0.51079542    1.3731052    1.9253484    5.6670487 
17235000   0.98242488 -3.9575331e-05   0.45407431  0.030900784            0   0.42317353    1.4662691    1.9203435  -0.81510343 
17240000   0.95604341 -3.9738003e-05   0.52085209  0.017320389            0    0.5035317    1.4268948    1.9477469   -0.7989439 
17245000   0.97329753 5.2670979e-05    0.5030661   0.01904727            0   0.48401883    1.4526466    1.9557127    5.5963307 
17250000   0.93381565 6.2319898e-05   0.57123993  0.032535793            0   0.53870414    1.3937199    1.9649598    6.2725111 
17255000   0.97673617 -2.9141391e-05   0.52330005   0.02164296            0   0.50165709    1.4577787    1.9810788 -0.033174168 
17260000    1.0255362 3.2330296e-05   0.45333726 0.0096150998            0   0.44372216    1.5306128    1.9839501    4.2186201 
17265000   0.95803487 6.8977608e-05   0.56237969  0.037872188            0   0.52450751     1.429867    1.9922467     6.759979 
17270000   0.99917983 3.5775521e-05   0.49169671  0.030938309            0    0.4607584    1.4912759    1.9829726    4.4557766 
17275000     1.006077 4.2155081e-05   0.47160106  0.024998147            0   0.44660292    1.5015699    1.9731709    4.8869302 
17280000   0.93670447 -3.1747195e-05   0.58200951  0.019296596            0   0.56271292    1.3980314    1.9800409   -0.2143252 
17285000   0.96471455 -5.8307821e-05   0.52568546   0.01819271            0   0.50749275    1.4398365    1.9655219   -2.0647146 
17290000   0.99541292 3.7794815e-06   0.47533001   0.02982901            0     0.445501    1.4856538    1.9609838    2.2222215 
17295000   0.96027028 1.862522e-05   0.54328554  0.031306894            0   0.51197865    1.4332034    1.9764889    3.2638642 
17300000   0.95409533 -8.8129361e-06   0.53835081  0.014455385            0   0.52389543    1.4239873    1.9623381    1.3531879 
17305000   0.95237815 -5.3965468e-05   0.55745581  0.015132116            0    0.5423237    1.4214244    1.9788802    -1.751213 
17310000   0.97110002 -2.6820113e-05   0.53300849  0.011549415            0   0.52145907    1.4493668    1.9823753   0.12856907 
17315000     1.051807 3.270425e-05    0.4256006  0.006568656            0   0.41903195    1.5698219    1.9954225    4.2559403 
17320000    1.0071184 -1.3884457e-05    0.4889648  0.026856105            0   0.46210869    1.5031243    1.9920891    1.0323954 
17325000    1.0032777 -0.00013087665   0.48427095  0.011594027            0   0.47267692    1.4973919    1.9816629   -7.0645314 
17330000   0.96856804 -3.3122772e-05    0.5474114  0.021357271            0   0.52605413    1.4455878    1.9929992  -0.29644683 
17335000    0.9636575 3.9148383e-05   0.56090949  0.024586383            0    0.5363231    1.4382588    1.9991683    4.7051045 
17340000    1.0088275 3.7745383e-06   0.48856918   0.02560909            0   0.46296009    1.5056751    1.9942443    2.2551404 
17345000   0.98956627 -1.3804055e-05   0.51779252  0.014151573            0   0.50364095    1.4769277    1.9947202    1.0405839 
17350000   0.96884386 -1.939391e-05   0.55869109  0.017105628            0   0.54158546    1.4459995    2.0046906   0.66418351 
17355000   0.99721625  2.23606e-05   0.51819377  0.029768728            0   0.48842505    1.4883453     2.006539    3.5521037 
17360000   0.95818147 5.1265426e-05   0.57907315  0.040170159            0   0.53890299    1.4300858     2.009159    5.5526253 
17365000   0.97528245 2.4680947e-05   0.55421011  0.016562097            0   0.53764802    1.4556091    2.0098192    3.7157662 
17370000   0.99507174 3.2150815e-05   0.52539595  0.013943467            0   0.51145248    1.4851446    2.0105405    4.2328049 
17375000    0.9644258 6.1706204e-07   0.57430746     0.033102            0   0.54120546    1.4394055     2.013713    2.0563643 
17380000   0.98631461 -1.9962596e-05   0.50996535  0.016657152            0    0.4933082    1.4720746    1.9820399   0.60222524 
17385000    1.0033464 3.2729014e-05   0.47503782 0.0043200332            0   0.47071778    1.4974945    1.9725323    4.2347618 
17390000   0.97981863 1.748965e-05   0.52762357  0.011151113            0   0.51647246    1.4623793    1.9900029    3.1988875 
17395000   0.96622703 2.6709447e-05   0.51600526  0.033271182            0   0.48273408    1.4420938    1.9580991    3.8042561 
17400000   0.96505994 2.8549242e-05   0.51194792  0.053857517            0    0.4580904     1.440352    1.9522999    3.9256235 
17405000   0.98469286 -5.0422811e-06   0.49099944  0.017824195            0   0.47317525    1.4696541    1.9606535    1.6121311 
17410000   0.94514288 -2.5116842e-05   0.52020892 0.0079972021            0   0.51221172    1.4106257    1.9308347   0.19475858 
17415000   0.94002454 3.1774865e-05   0.50970101  0.028648857            0   0.48105215    1.4029866    1.9126876    4.1089663 
17420000   0.92744677 8.618408e-05   0.54028169   0.02649497            0   0.51378672    1.3842143     1.924496    7.8815396 
17425000   0.95227432 9.1868808e-06   0.50169243  0.026050798            0   0.47564163    1.4212694    1.9229619    2.5579591 
17430000   0.95600923 -1.9225308e-05   0.50409611  0.013363051            0   0.49073306    1.4268438    1.9309399   0.60208657 
17435000   0.92177039 2.1194757e-06   0.54456926  0.012072738            0   0.53249652    1.3757423    1.9203116    2.0668097 
17440000    1.0070633 2.6390004e-05    0.4266579 0.0085300282            0   0.41812787     1.503042    1.9296999     3.753777 
17445000   0.96290758 -2.2366591e-05    0.5047894  0.012585199            0    0.4922042    1.4371396     1.941929    0.3959502 
17450000   0.94155104 -3.5148204e-05   0.53787165  0.025700667            0   0.51217098    1.4052649    1.9431366  -0.48630729 
17455000   0.99556982 1.1346596e-05   0.48801643  0.014364934            0    0.4736515     1.485888    1.9739044    2.7581811 
17460000   0.95559063 5.9889439e-06   0.56279576  0.029735161            0    0.5330606     1.426219    1.9890148    2.4029706 
17465000   0.94479911 -4.4275793e-05   0.56118876  0.021168204            0   0.54002056    1.4101127    1.9713014   -1.0890414 
17470000   0.93120845 -5.9540061e-05   0.57619257  0.012031037            0   0.56416153    1.3898286    1.9660212   -2.1493879 
17475000     1.008646 2.5573431e-05   0.46795305  0.010086383            0   0.45786666    1.5054042    1.9733573    3.7409928 
17480000   0.95363929 1.9040066e-05   0.55909591  0.021394046            0   0.53770186    1.4233066    1.9824026    3.2984519 
17485000   0.95012958 -7.8983302e-05   0.56210363  0.024185341            0   0.53791829    1.4180684     1.980172   -3.4791538 
17490000     0.968922 -6.4349717e-05   0.54394968  0.027462587            0    0.5164871    1.4461161    1.9900658   -2.4577867 
17495000   0.94949146 -1.4376481e-05    0.5478051  0.036850747            0   0.51095436     1.417116    1.9649211   0.97121871 
17500000   0.97427893 0.00011063436   0.50811026  0.012477771            0   0.49563249    1.4541113    1.9622216    9.6092683 
17505000   0.95617958 5.7530115e-05   0.52487231 0.0074496616            0   0.51742265     1.427098    1.9519703    5.9284519 
17510000   0.97760085 -5.3681744e-05   0.49257253  0.010234405            0   0.48233813    1.4590693    1.9516418   -1.7588404 
17515000   0.93498301 -3.6859099e-05   0.55787179 0.0094547074            0   0.54841708    1.3954621    1.9533339  -0.59436702 
17520000   0.98687656 -1.6769149e-05   0.50695147  0.014336749            0   0.49261473    1.4729133    1.9798647   0.82078119 
17525000   0.98905211 1.6681068e-05    0.5205652  0.045331934            0   0.47523327    1.4761603    1.9967255    3.1497209 
17530000   0.92715481 -1.2920802e-05    0.5934679  0.067363302            0    0.5261046    1.3837786    1.9772465    1.0841606 
17535000   0.97333467 -2.6303762e-05   0.51124259  0.030250906            0   0.48099168     1.452702    1.9639446   0.14582853 
17540000    1.0480439 4.0609911e-07   0.41631792  0.012545207            0   0.40377272    1.5642055    1.9805234     2.008593 
17545000   0.99580481 -5.429204e-06   0.48507119 0.0034597346            0   0.48161146    1.4862387    1.9713099    1.5960433 
17550000    1.0073119 1.5046396e-05   0.48331634 0.0020967549            0   0.48121958    1.5034129    1.9867293    3.0267361 
17555000   0.98377881 -1.8393433e-05   0.53760781  0.016497479            0   0.52111033    1.4682899    2.0058977   0.73454359 
17560000    1.0063214 -3.1084856e-05   0.52599959  0.004316357            0   0.52168323    1.5019346    2.0279342    -0.120651 
17565000    1.0363231 2.2260297e-06   0.50148999  0.039807365            0   0.46168262    1.5467123    2.0482022    2.2020654 
17570000    1.0318858 -2.5751588e-05   0.52642407  0.038369575            0   0.48805449    1.5400896    2.0665136   0.28656387 
17575000    1.0135708 -5.591405e-05    0.5628053  0.023018833            0   0.53978647    1.5127545    2.0755598   -1.7892194 
17580000     1.029516 -1.5173175e-05   0.56117885  0.048804592            0   0.51237426    1.5365526    2.0977314    1.0489616 
17585000    1.0486388 7.0995104e-05   0.50968411  0.027786843            0   0.48189727    1.5650935    2.0747776    6.9819591 
17590000    1.0338416 -4.2533035e-06   0.52792998  0.013386151            0   0.51454383    1.5430086    2.0709386    1.7769503 
17595000   0.98562277 -4.4512447e-05   0.59403143  0.023857488            0   0.57017394     1.471042    2.0650734   -1.0116269 
17600000   0.97677791 4.9192788e-06   0.58459299   0.01833305            0   0.56625994     1.457841     2.042434    2.3824546 
17605000    1.0239791 2.086346e-05   0.53662212  0.025259865            0   0.51136226    1.5282888     2.064911    3.5069933 
17610000    1.0657867 8.7297206e-05   0.48130716  0.015605822            0   0.46570134    1.5906867    2.0719939    8.1059767 
17615000    1.0423028 0.00010688995   0.53152158  0.017148275            0    0.5143733    1.5556369    2.0871585    9.4753917 
17620000     1.015815 2.051794e-05   0.54043418  0.011984673            0   0.52844951    1.5161038     2.056538     3.474738 
17625000    1.0249223 5.5859803e-06   0.50682838  0.014511112            0   0.49231727    1.5296965    2.0365249    2.4226278 
17630000    1.0342744 5.0818896e-05   0.47994013  0.028923302            0   0.45101682    1.5436546    2.0235947    5.5361968 
17635000    1.0204742 -1.626542e-05   0.49830852  0.036451663            0   0.46185685    1.5230577    2.0213663   0.89710045 
17640000    1.0008273 -6.8413925e-05   0.53445417  0.035733814            0   0.49872036    1.4937347    2.0281889   -2.7005816 
17645000    1.0389324 2.5391933e-05   0.48017277  0.010100446            0   0.47007232    1.5506066    2.0307794    3.7858698 
17650000    1.0575024 2.1517281e-05    0.4451375  0.017535552            0   0.42760194    1.5783224    2.0234599    3.5107343 
17655000    1.0222705 -3.4444875e-05   0.52455531  0.026242575            0   0.49831273    1.5257388    2.0502941  -0.33053565 
17660000    1.0449451 -8.2063081e-06   0.48512005   0.01149815            0    0.4736219    1.5595805    2.0447006    1.4774805 
17665000    1.0538049 -2.2545016e-05   0.47154609  0.013552741            0   0.45799335    1.5728038    2.0443499   0.48603834 
17670000    1.0608536 -2.1677793e-05   0.46813846  0.010937846            0   0.45720062     1.583324    2.0514625   0.55309342 
17675000    1.0447493 3.5732229e-05    0.4756398  0.014163587            0   0.46147622    1.5592884    2.0349282    4.5047398 
17680000   0.99253809 2.6021282e-05   0.55593095  0.025762085            0   0.53016887    1.4813631    2.0372941    3.8358851 
17685000     1.046037 -5.7489179e-05   0.46894129  0.019641617            0   0.44929967    1.5612102    2.0301515   -1.9435005 
17690000    1.0053721 -5.8990728e-05   0.52863026 0.0090298009            0   0.51960046    1.5005178    2.0291481    -2.048291 
17695000     1.030199 -1.6438357e-06     0.485933  0.013422315            0   0.47251069     1.537572     2.023505    1.9098831 
17700000    1.0065267 1.8544536e-05   0.51404486  0.025224329            0   0.48882053     1.502241    2.0162859    3.2980842 
17705000    1.0257903 -1.5974038e-05   0.47816399  0.016195428            0   0.46196857     1.530992     2.009156   0.90503048 
17710000   0.97426044 1.6788134e-05   0.55227869 0.0084712343            0   0.54380746    1.4540837    2.0063624    3.1667582 
17715000    1.0327274 7.3305911e-05   0.46820113   0.01081511            0   0.45738602    1.5413457    2.0095468    7.0764514 
17720000    0.9818417 1.3241816e-05   0.52557823  0.048516399            0   0.47706183    1.4653987     1.990977    2.9062513 
17725000     0.995951 -2.6575794e-05   0.50581932  0.020183329            0   0.48563599    1.4864569    1.9922762   0.15535734 
17730000     1.005549 -4.7927066e-06   0.51809694  0.016481613            0   0.50161532    1.5007819    2.0188788     1.687607 
17735000    1.0186903 4.9099941e-05   0.50407371  0.017806944            0   0.48626677    1.5203953     2.024469     5.418257 
17740000    1.0606959 -1.311758e-06   0.44440419  0.010100902            0   0.43430329    1.5830887    2.0274929    1.9368242 
17745000    1.0743813 -4.4827891e-05   0.44766478  0.010692248            0   0.43697253    1.6035141    2.0511789   -1.0473249 
17750000    1.0288702 -3.7228204e-05    0.4961907 0.0083783154            0   0.48781239    1.5355888    2.0317795  -0.54143395 
17755000    1.0433863 1.4134436e-05   0.48734291  0.016462668            0   0.47088024     1.557254    2.0445969    3.0215692 
17760000    1.0453711 2.5072457e-05    0.4668055  0.024812505            0     0.441993    1.5602163    2.0270218    3.7600301 
17765000    1.0034802 4.7801174e-06   0.52151586  0.030829169            0   0.49068669    1.4976942    2.0192101    2.3496118 
17770000    1.0437331 -1.9127748e-05   0.46376254  0.021953226            0   0.44180931    1.5577717    2.0215342   0.69942427 
17775000     1.007789 -5.380091e-05   0.51803953  0.026060003            0   0.49197952     1.504125    2.0221646   -1.6965543 
17780000   0.99706661 -5.1920017e-05   0.51896234  0.037705945            0    0.4812564    1.4881219    2.0070843   -1.5816273 
17785000   0.95950889 7.1702821e-05   0.55306639  0.019252433            0   0.53381396     1.432067    1.9851334    6.9412324 
17790000    1.0104077 5.8268241e-05   0.45629702 0.0099778679            0   0.44631915    1.5080335    1.9643306    5.9918314 
17795000    0.9941663 -4.975462e-05   0.48509779  0.019214485            0    0.4658833    1.4837932     1.968891   -1.4701483 
17800000    1.0112695 8.0211626e-06   0.45515864  0.043062789            0   0.41209585    1.5093197    1.9644783    2.5189011 
17805000    1.0227533 -4.2275211e-05   0.43402436  0.019841928            0   0.41418243    1.5264593    1.9604837  -0.96157893 
17810000   0.96955197 -9.369497e-05   0.49025905  0.023762452            0    0.4664966    1.4470563    1.9373154    -4.538881 
17815000   0.99079107 8.4838273e-06   0.43567776  0.015988568            0    0.4196892    1.4787557    1.9144334    2.5008356 
17820000   0.92832281 1.0601637e-05   0.53988304  0.027619282            0   0.51226375    1.3855218    1.9254048      2.65819 
17825000   0.93380888 -6.6330038e-06   0.54019242  0.034287532            0   0.50590489    1.3937098    1.9339022     1.475429 
17830000    1.0044832 3.8010312e-05   0.42520381  0.019081826            0   0.40612198    1.4991912     1.924395    4.5516678 
17835000    0.9617741 7.5023139e-06   0.49339479  0.026823426            0   0.46657137    1.4354478    1.9288426    2.4474026 
17840000    1.0048429 1.3655546e-05   0.44542224   0.03091797            0   0.41450427     1.499728    1.9451503    2.8890216 
17845000   0.97899906 -1.9215731e-05   0.45868017  0.034586181            0   0.42409399    1.4611561    1.9198363   0.59164493 
17850000   0.97443189 -4.9072373e-05   0.46496238  0.013584691            0   0.45137769    1.4543396     1.919302   -1.4725804 
17855000   0.96117296 -1.6708389e-05   0.49261259  0.018557489            0    0.4740551    1.4345506    1.9271632   0.77227935 
17860000   0.95921346 1.1031206e-05   0.48396904  0.017063853            0   0.46690518    1.4316261    1.9155951    2.6780721 
17865000   0.98015323 5.535605e-06   0.48010016  0.014250096            0   0.46585006    1.4628787    1.9429788    2.3255999 
17870000   0.96956615 -4.1199116e-05   0.50668578  0.021495572            0   0.48519021    1.4470775    1.9537633  -0.89391962 
17875000   0.99254338 2.1503631e-05   0.47270481  0.018547098            0   0.45415771     1.481371    1.9540758    3.4404068 
17880000   0.98094391 2.1501065e-05   0.49712807 0.0076135379            0   0.48951453    1.4640588    1.9611869    3.4473405 
17885000    1.0025998 -1.093982e-05   0.46423143 0.0030400651            0   0.46119137    1.4963802    1.9606116    1.2044512 
17890000    1.0181262 -2.7868777e-05   0.45188875  0.013117466            0   0.43877128    1.5195533    1.9714421  0.045152242 
17895000   0.95347208 -5.1265604e-05   0.52689715   0.02390852            0   0.50298863    1.4230571    1.9499542   -1.5935243 
17900000   0.96697184 7.7534432e-06   0.49451307   0.01308196            0   0.48143112    1.4432055    1.9377186    2.4736365 
17905000   0.97512851 3.6976206e-05   0.49337393  0.011433341            0   0.48194059    1.4553793    1.9487532    4.5045486 
17910000    1.0116238 4.6675029e-05   0.44717455  0.010487396            0   0.43668716    1.5098486    1.9570231    5.1832012 
17915000    1.0082564 5.9908755e-05    0.4420204  0.014112888            0   0.42790751    1.5048227    1.9468431    6.0877363 
17920000    0.9883173 -1.2414786e-06   0.48521428  0.014919528            0   0.47029475    1.4750636    1.9602778    1.8744668 
17925000   0.98395944 4.4977226e-06   0.47432853  0.015580071            0   0.45874846    1.4685595     1.942888    2.2537706 
17930000   0.98299372 -1.4028991e-05    0.4888531  0.016326268            0   0.47252683    1.4671181    1.9559712   0.98628735 
17935000    1.0319615 -2.6123273e-06    0.4399065  0.020734162            0   0.41917234    1.5402026    1.9801091     1.799545 
17940000   0.99831681 -4.456925e-05   0.48021943  0.010060276            0   0.47015915    1.4899878    1.9702073   -1.1104193 
17945000   0.99972314 -1.0322975e-05    0.4924114  0.012178945            0   0.48023245    1.4920868    1.9844982    1.2709741 
17950000    1.0349174 6.2303741e-05   0.46065934  0.020955172            0   0.43970417    1.5446142    2.0052736    6.3117082 
17955000   0.97968762 2.7888492e-05   0.51623538  0.010152835            0   0.50608254    1.4621838    1.9784191    3.9060717 
17960000    1.0239926 1.5994663e-05   0.44983529  0.005650468            0   0.44418482     1.528309    1.9781443    3.0836954 
17965000   0.98959404 -7.0058402e-06   0.48722015   0.01871021            0   0.46850994    1.4769691    1.9641893    1.4799456 
17970000    1.0059999 -6.636662e-06   0.46744802  0.022667164            0   0.44478086    1.5014548    1.9689029    1.5101768 
17975000    1.0144236 -1.1114949e-05   0.46900654  0.019941236            0    0.4490653    1.5140272    1.9830337    1.2147684 
17980000    1.0180106 -3.9181567e-06   0.46997864  0.043633024            0   0.42634562    1.5193808    1.9893594    1.7185365 
17985000    1.0045205 -1.2980541e-05   0.48734152  0.031059027            0    0.4562825    1.4992468    1.9865883    1.0893733 
17990000    1.0012127 -4.5010671e-05   0.48110497  0.021685887            0   0.45941908      1.49431     1.975415   -1.1357226 
17995000    1.0199967 -9.27032e-06   0.46171844  0.034354263            0   0.42736418    1.5223451    1.9840636     1.343299 
18000000    1.0499611 2.5843614e-05   0.40588041  0.020571652            0   0.38530876     1.567067    1.9729474     3.759258 
18005000   0.99856683 1.5258668e-05   0.48036526  0.025781625            0   0.45458363     1.490361    1.9707263    3.0254054 
18010000    1.0222628 1.7666269e-05   0.45089963  0.022703064            0   0.42819656    1.5257272    1.9766269    3.1977194 
18015000   0.99670614 -5.9032529e-07   0.49657081  0.031434402            0   0.46513641    1.4875839    1.9841547    1.9433514 
18020000    1.0464505 -3.5122356e-05   0.44439213  0.012379023            0    0.4320131    1.5618274    2.0062195  -0.42143771 
18025000    1.0530109 -2.109716e-05   0.45393511 0.0092845374            0   0.44465058    1.5716187    2.0255539   0.56731816 
18030000    1.0600094 7.8473314e-06   0.44859606 0.0095176879            0   0.43907837     1.582064    2.0306601    2.5730677 
18035000    1.0785571 -8.0571209e-06   0.41723962 0.0067715218            0    0.4104681    1.6097465    2.0269861    1.4700779 
18040000    1.0526827 -2.6405615e-05   0.44820999  0.010354819            0   0.43785517     1.571129     2.019339   0.19418287 
18045000    1.0456994 -2.2775349e-06   0.46215938  0.020773952            0   0.44138543    1.5607063    2.0228657    1.8654425 
18050000    1.0307877 4.5686841e-05   0.47516146  0.018590954            0    0.4565705    1.5384506    2.0136121    5.1714865 
18055000    1.0477134 3.5586868e-05   0.44468258 0.0086561706            0   0.43602641    1.5637123    2.0083949    4.4681592 
18060000    1.0442099 6.664596e-06   0.42214416  0.024191944            0   0.39795222    1.5584833    1.9806274    2.4412843 
18065000   0.98470591 -3.5118211e-05   0.50470975  0.015783672            0   0.48892607    1.4696736    1.9743833  -0.45298741 
18070000   0.99030191 -1.0582225e-06   0.49519241  0.028465052            0   0.46672736    1.4780256     1.973218    1.9000737 
18075000   0.97446022 3.4575235e-06   0.50312718  0.042473878            0    0.4606533    1.4543819    1.9575091    2.1964931 
18080000   0.95693646 -1.9503177e-06    0.5217325  0.027541305            0   0.49419119    1.4282277    1.9499602    1.8151542 
18085000   0.99428485 6.0281731e-06   0.45794289  0.020148111            0   0.43779478    1.4839701     1.941913    2.3585804 
18090000   0.99295627 -4.4972032e-05   0.46321206  0.012845831            0   0.45036623    1.4819872    1.9451993   -1.1632676 
18095000    0.9905395 -6.0607234e-05   0.44802271  0.013738778            0   0.43428394    1.4783802    1.9264029   -2.2627691 
18100000    1.0164438 -1.906998e-05   0.42958416  0.014038495            0   0.41554566    1.5170424    1.9466266   0.62850952 
18105000   0.99880137 1.6877285e-05   0.45068543   0.02658737            0   0.42409806     1.490711    1.9413965    3.1079544 
18110000    1.0002408 -1.3585471e-05    0.4500491  0.015648219            0   0.43440088    1.4928594    1.9429085    1.0038807 
18115000    0.9500719 1.1864524e-05   0.51519807  0.011761902            0   0.50343616    1.4179823    1.9331804    2.7532563 
18120000    1.0087158 3.1608169e-05    0.4348626  0.014655899            0    0.4202067    1.5055084     1.940371    4.1251276 
18125000    1.0088689 2.9993217e-05   0.43997153  0.013223653            0   0.42674788    1.5057369    1.9457084    4.0188396 
18130000   0.96524998 -8.1027414e-06   0.51012565  0.014069729            0   0.49605592    1.4406356    1.9507613    1.3906998 
18135000   0.97256428 -2.9873863e-06   0.50574605  0.027367284            0   0.47837876    1.4515522    1.9572982    1.7508101 
18140000    1.0042236 1.7225038e-05   0.45647663   0.01826905            0   0.43820758    1.4988037    1.9552803    3.1458749 
18145000     1.021854 1.2561173e-05   0.41469387 0.0037255419            0   0.41096832    1.5251171     1.939811    2.8080393 
18150000   0.97814944 1.5756145e-05   0.48138716 0.0032750218            0   0.47811214     1.459888    1.9412752    3.0303399 
18155000    1.0149793 5.4340734e-05   0.44578135  0.011193131            0   0.43458822    1.5148566     1.960638    5.7166696 
18160000   0.98975193 2.7395048e-05   0.48087693 0.0083583022            0   0.47251862    1.4772048    1.9580817    3.8516274 
18165000   0.99995702 -1.9869072e-05   0.45072973  0.011976643            0   0.43875309    1.4924358    1.9431656   0.56981531 
18170000    1.0279264 4.487147e-05   0.43968944 0.0070535014            0   0.43263594    1.5341802    1.9738696    5.0753856 
18175000     1.020536 3.8820036e-05   0.44858382 0.0074701968            0   0.44111362      1.52315    1.9717338    4.6549747 
18180000   0.98507632 2.0274905e-05   0.48312447   0.01364901            0   0.46947546    1.4702264    1.9533509    3.3547523 
18185000   0.96088629 3.6326797e-05   0.51224476  0.038712957            0    0.4735318    1.4341228    1.9463675    4.4572757 
18190000   0.99951885 8.0097477e-07   0.46358966  0.022119225            0   0.44147044    1.4917819    1.9553716    2.0107349 
18195000    1.0344914 2.0477757e-05   0.42308756  0.032556674            0   0.39053089    1.5439784    1.9670659    3.3824885 
18200000    1.0027446 2.2232352e-05    0.4702392  0.022412139            0   0.44782707    1.4965963    1.9668355    3.5035357 
18205000    1.0221253 -3.3022072e-05   0.42227255  0.011084476            0   0.41118807     1.525522    1.9477945  -0.33469108 
18210000    1.0199167 -2.9457548e-05   0.42464497  0.012397294            0   0.41224768    1.5222257    1.9468707 -0.089235023 
18215000    1.0204799 -8.3268483e-06   0.42935487  0.010403997            0   0.41895088    1.5230663    1.9524212    1.3768694 
18220000    1.0263143 2.0482624e-05    0.4206331  0.015437334            0   0.40519577    1.5317741    1.9524072    3.3681662 
18225000     1.022803 1.7886201e-05   0.42518699  0.030313701            0   0.39487329    1.5265334    1.9517204    3.1880146 
18230000    1.0267242 -5.9190134e-06   0.41492929  0.014555928            0   0.40037336    1.5323858    1.9473151    1.5381929 
18235000    1.0373002 -2.5852679e-05   0.40489221  0.016548064            0   0.38834415    1.5481705    1.9530627   0.16612549 
18240000    1.0225179 -6.4363272e-05   0.42282543  0.011116105            0   0.41170933     1.526108    1.9489334    -2.499856 
18245000    1.0210414 -7.8734183e-05   0.42723761  0.011924052            0   0.41531356    1.5239044     1.951142   -3.4909648 
18250000   0.97037488 -6.9630569e-06   0.49983743  0.062076897            0   0.43776054    1.4482845    1.9481219    1.4668354 
18255000     1.017234 8.0737355e-06   0.41688327  0.045414751            0   0.37146852    1.5182217     1.935105    2.4931616 
18260000   0.98479825 -2.7745117e-05   0.46972267  0.028758493            0   0.44096418    1.4698114    1.9395341  0.021791581 
18265000    1.0300759 3.3249872e-05   0.40725548 0.0083680945            0   0.39888739    1.5373883    1.9446438     4.242875 
18270000    1.0323013 3.7771142e-05   0.39422311 0.0053254007            0   0.38889771    1.5407096    1.9349327    4.5456741 
18275000    1.0011993 1.6609245e-06   0.44420984 0.0094880444            0    0.4347218    1.4942899    1.9384997    2.0533028 
18280000   0.98805966 -5.4654578e-06   0.45304634  0.011631346            0     0.441415     1.474679    1.9277254    1.5499529 
18285000   0.98079177 -5.7392731e-05   0.45836046 0.0099563097            0   0.44840415    1.4638317    1.9221922   -2.0447934 
18290000   0.96935313 -6.5280889e-05   0.46238721  0.028442576            0   0.43394463    1.4467596    1.9091468   -2.6030683 
18295000   0.94347103 3.034841e-06   0.48919019  0.020654468            0   0.46853572    1.4081305    1.8973207    2.1070889 
18300000   0.99866567 -3.1096836e-06   0.41244122  0.023483517            0    0.3889577    1.4905085    1.9029497    1.6880084 
18305000   0.97748762 -3.2009657e-05   0.44945037  0.018851918            0   0.43059845    1.4589003    1.9083506  -0.30415685 
18310000   0.99613171 1.3870214e-05   0.42575289  0.017211472            0   0.40854142    1.4867266    1.9124795    2.8711886 
18315000   0.94655744 2.3105044e-05   0.48247248  0.020354499            0   0.46211798     1.412737    1.8952095    3.4922301 
18320000   0.96248279 1.5378067e-05   0.45244822  0.042189514            0   0.41025871    1.4365056    1.8889538    2.9518858 
18325000   0.97455641 -3.606672e-05   0.42833662 0.0096807712            0   0.41865585    1.4545254    1.8828621  -0.61006965 
18330000   0.97692781 -4.5677683e-05   0.42080226 0.0051733313            0   0.41562893    1.4580648     1.878867   -1.2783745 
18335000   0.94170813 -3.8103609e-05   0.47599782  0.016133698            0   0.45986413    1.4054994    1.8814972  -0.75222423 
18340000   0.94790509  -2.4251e-05   0.47944096   0.04250921            0   0.43693175    1.4147484    1.8941893   0.21796022 
18345000   0.93720388 3.2352407e-05   0.50072637  0.027634673            0    0.4730917    1.3987768    1.8995032    4.1357015 
18350000   0.97700804 -1.9071209e-05   0.45230326 0.0094827558            0   0.44282051    1.4581845    1.9104878   0.59228578 
18355000    0.9600514 2.1704398e-06   0.45648684  0.012884311            0   0.44360253    1.4328767    1.8893636    2.0393844 
18360000   0.96244294 -9.887547e-06   0.42983833  0.016622945            0   0.41321538    1.4364461    1.8662844    1.1828572 
18365000   0.96087859 3.9387534e-05   0.42164184 0.0088818226            0   0.41276001    1.4341113    1.8557531    4.5782195 
18370000   0.97085577 4.1300351e-05   0.39737875  0.009424268            0   0.38795448    1.4490022     1.846381    4.7010613 
18375000   0.90059205 -3.88829e-05   0.49375921  0.020172002            0    0.4735872    1.3441336    1.8378928  -0.84969319 
18380000   0.94186706 -1.6427994e-05    0.4463952  0.030160161            0   0.41623504    1.4057366    1.8521318   0.71662884 
18385000   0.94010309 6.5445926e-05   0.44678028  0.023649502            0   0.42313078    1.4031039    1.8498841    6.3735066 
18390000   0.93936723 1.2667302e-05   0.45371141  0.016455927            0   0.43725548    1.4020056     1.855717    2.7312809 
18395000   0.91883597 -1.9283176e-05    0.4912659  0.021601579            0   0.46966432    1.3713627    1.8626286   0.52977544 
18400000   0.97423439 -3.4124852e-06   0.42251347  0.018291547            0   0.40422192    1.4540448    1.8765583    1.6406873 
18405000   0.95457147 2.5150274e-05   0.45684177 0.0097585057            0   0.44708326    1.4246979    1.8815397    3.6199267 
18410000   0.95641128 9.0164316e-06   0.48879978 0.0056606777            0    0.4831391    1.4274438    1.9162436    2.5394594 
18415000   0.97234142 -2.379752e-05     0.480707  0.013465568            0   0.46724143    1.4512196    1.9319266   0.28704201 
18420000   0.94522949 5.6675132e-05   0.51194499  0.017289365            0   0.49465562     1.410755       1.9227    5.8400851 
18425000   0.96579085 9.4438474e-06   0.46816714 0.0049035306            0   0.46326361    1.4414428      1.90961    2.5623687 
18430000     0.909212 -1.230106e-05   0.57191999  0.033392199            0   0.53852779    1.3569989    1.9289189    1.0786696 
18435000   0.94639137 2.0608059e-05   0.52921457  0.031776974            0    0.4974376    1.4124891    1.9417037    3.3661327 
18440000   0.94847691  4.47848e-05   0.52299158  0.011257681            0   0.51173389    1.4156018    1.9385934    5.0341187 
18445000   0.95627342 -2.38127e-05   0.51686745  0.011399561            0   0.50546789    1.4272381    1.9441055   0.29817171 
18450000   0.92771417 -8.8283102e-06   0.57061142  0.022055744            0   0.54855568    1.3846134    1.9552248     1.345012 
18455000   0.93309307 -7.7893366e-05   0.58184161  0.035797413            0    0.5460442    1.3926414     1.974483   -3.4095064 
18460000    1.0067894 -4.8056907e-05   0.45995669  0.016307252            0   0.44364944    1.5026332    1.9625899   -1.3591035 
18465000    0.9918751 -3.3290137e-05   0.49991548  0.012769763            0   0.48714571    1.4803736    1.9802891  -0.32072521 
18470000   0.97299691 -2.152609e-05   0.53058431  0.011347806            0    0.5192365    1.4521979    1.9827822   0.49489889 
18475000   0.97857014 3.2948853e-05   0.53277634  0.016211424            0   0.51656491    1.4605159    1.9932923     4.270717 
18480000    1.0127568 1.7790038e-05   0.48870742  0.018471107            0   0.47023631    1.5115395    2.0002469    3.2298943 
18485000    1.0161484 -8.2988585e-06   0.47032677 0.0089499664            0    0.4613768    1.5166014    1.9869282    1.4133111 
18490000   0.98294202 -3.3682822e-05     0.521985  0.012249658            0   0.50973534     1.467041     1.989026  -0.33913068 
18495000    1.0185303 1.2312519e-05   0.46475951   0.01083456            0   0.45392495    1.5201565     1.984916    2.8359574 
18500000   0.98886363 -1.4407033e-06   0.47930191  0.018541214            0   0.46076069     1.475879    1.9551809    1.8555995 
18505000   0.99346356 3.5873562e-07   0.49057548  0.016555442            0   0.47402003    1.4827444    1.9733198    1.9981156 
18510000   0.98425137 -1.7769971e-05   0.50585406  0.012721777            0   0.49313228    1.4689952    1.9748492   0.74658885 
18515000   0.97926437 -3.3496272e-05   0.51733388   0.01287521            0   0.50445867    1.4615521    1.9788859  -0.33637637 
18520000   0.99260191 1.3244273e-05   0.48804558 0.0024723328            0   0.48557325    1.4814584    1.9695039    2.8849481 
18525000    1.0009038 -4.332787e-05   0.47526321 0.0059987536            0   0.46926445    1.4938489    1.9691121   -1.0257102 
18530000    0.9388775 -4.8387273e-05   0.56727845  0.013713676            0   0.55356478    1.4012747    1.9685531   -1.3759752 
18535000    1.0225323 -7.3097397e-06   0.44772665 0.0074874389            0   0.44023921    1.5261294     1.973856    1.4686068 
18540000    1.0296389 -4.1977363e-06    0.4405011 0.0019116462            0   0.43858946     1.536736    1.9772371    1.6870896 
18545000   0.99518203 -3.4882968e-05   0.48965847 0.0075240289            0   0.48213444    1.4853092    1.9749677  -0.43614307 
18550000   0.94896023 -4.6052088e-05   0.53443859  0.022241797            0   0.51219679    1.4163231    1.9507617   -1.2323586 
18555000   0.97635325 -4.9577906e-05   0.49484768  0.020911062            0   0.47393661    1.4572072    1.9520549     -1.47477 
18560000   0.95222644 -5.8821043e-06   0.51606733  0.012289218            0   0.50377811     1.421198    1.9372653    1.5306942 
18565000   0.97065243 5.8210662e-06   0.47212816  0.019647581            0   0.45248058    1.4486988    1.9208269     2.323179 
18570000   0.94423664 -6.7583841e-07   0.51034925  0.024584071            0   0.48576518    1.4092732    1.9196224    1.8729085 
18575000   0.96776202 -1.9891871e-05   0.48120913  0.013279768            0   0.46792937    1.4443848    1.9255939   0.55066781 
18580000   0.96277794 -1.8203383e-05   0.48730721 0.0089001779            0   0.47840703    1.4369461    1.9242533   0.66603545 
18585000   0.95225364 3.3081117e-05   0.50953356  0.016556425            0   0.49297714    1.4212386    1.9307721    4.2173389 
18590000   0.95173859 7.8068618e-05   0.50373324  0.014201557            0   0.48953169    1.4204699    1.9242031     7.320306 
18595000   0.98763369 4.6515093e-05   0.44514405  0.017588636            0   0.42755541    1.4740433    1.9191873    5.1343106 
18600000   0.93676194 -3.5359671e-05   0.51936983  0.037120432            0    0.4822494    1.3981172     1.917487  -0.52657344 
18605000   0.95766035 -5.9610532e-05   0.49000238  0.015667889            0   0.47433449    1.4293081    1.9193104   -2.2009695 
18610000    0.9831024 -2.2346377e-07    0.4592089   0.02059324            0   0.43861566    1.4672803    1.9264892    1.9110434 
18615000   0.92520608 4.0872324e-05   0.55379008  0.033433975            0   0.52035611    1.3808701    1.9346602    4.7597552 
18620000   0.94620592 1.6279372e-05   0.51524583  0.019766967            0   0.49547886    1.4122123    1.9274582    3.0526884 
18625000    0.9356482 -3.1793896e-05   0.52507713  0.020082989            0   0.50499414    1.3964549    1.9215321  -0.27606206 
18630000   0.99985987 -6.3382149e-05   0.44932383  0.017320032            0    0.4320038    1.4922909    1.9416147   -2.4393594 
18635000   0.97434986 -3.8858493e-05   0.50193383  0.022552574            0   0.47938126    1.4542172     1.956151  -0.72974804 
18640000   0.93832363 -5.9876802e-06   0.53548156  0.038457395            0   0.49702417     1.400448    1.9359296    1.5220611 
18645000   0.94662391 2.2917189e-06   0.52690608  0.017912043            0   0.50899403    1.4128362    1.9397423    2.0981459 
18650000    1.0031397 8.5078724e-06   0.45426734 0.0052937799            0   0.44897356    1.4971861    1.9514534    2.5395175 
18655000   0.94661062 1.3113893e-05   0.50534237  0.012053363            0   0.49328901    1.4128164    1.9181587     2.824591 
18660000   0.95489431 2.0722891e-05   0.47719717  0.006350772            0    0.4708464    1.4251798    1.9023769    3.3347431 
18665000   0.99409124 -2.5974722e-05   0.42715297  0.012756902            0   0.41439607    1.4836812    1.9108341   0.11546136 
18670000   0.94258094 -3.4740447e-06   0.48899274  0.039011326            0   0.44998141     1.406802    1.8957948    1.6556688 
18675000   0.92304488 -8.5372079e-06   0.52110019  0.017968185            0     0.503132    1.3776445    1.8987447    1.3086529 
18680000    0.9582693 1.133066e-05   0.46898561  0.010041209            0    0.4589444    1.4302169    1.8992025    2.6823778 
18685000   0.97813145 1.3705704e-05   0.46727281  0.017877743            0   0.44939506    1.4598612     1.927134    2.8744723 
18690000   0.94359651 4.241455e-05   0.50905273  0.014190566            0   0.49486217    1.4083178    1.9173705    4.8490642 
18695000   0.97956764 5.009202e-05   0.45449256  0.013939869            0   0.44055269    1.4620047    1.9164973    5.3788577 
18700000   0.92205127 -4.7860313e-05   0.53146556  0.012918725            0   0.51854683    1.3761615    1.9076271   -1.4004778 
18705000   0.95375143 -2.0572331e-05   0.49152411  0.010354163            0   0.48116995     1.423474    1.9149981   0.49303861 
18710000   0.92668361 6.3680633e-05   0.53659802 0.0088957179            0    0.5277023    1.3830753    1.9196733    6.3212787 
18715000   0.99042777 5.6616637e-05   0.43466094  0.015697422            0   0.41896352    1.4782135    1.9128744    5.8262164 
18720000   0.92902615 -9.4827231e-06   0.52262157   0.02397057            0     0.498651    1.3865715    1.9091931    1.2537473 
18725000   0.97994184 -1.9666209e-05   0.45384457  0.032369872            0    0.4214747    1.4625632    1.9164078    0.5570794 
18730000     0.966629 3.9076876e-05   0.48270407  0.019214386            0   0.46348969    1.4426938    1.9253979    4.6263915 
18735000   0.97226221 8.1356037e-06   0.45137689 0.0072840793            0   0.44409281    1.4511014    1.9024782    2.4648112 
18740000    0.9206283 -3.5427598e-05   0.52134033 0.0060750303            0    0.5152653    1.3740377    1.8953781  -0.55337753 
18745000    1.0036479 -8.7012967e-06   0.41805264  0.013853869            0   0.40419877    1.4979446    1.9159972    1.3145636 
18750000   0.95000184 1.5439037e-05   0.50686956  0.020210178            0   0.48665938    1.4178777    1.9247473    2.9918935 
18755000   0.98473807 6.1622719e-06   0.45122596  0.020562692            0   0.43066327    1.4697216    1.9209475    2.3468838 
18760000   0.94960804 -3.4568145e-05   0.50473008  0.018560815            0   0.48616927      1.41729    1.9220201  -0.46733011 
18765000   0.94543522 -2.1679076e-05    0.4971574  0.039868755            0   0.45728865    1.4110621    1.9082195   0.40976172 
18770000   0.91363714 5.8313816e-05   0.53797616   0.03258287            0    0.5053933    1.3636034    1.9015796    5.9322305 
18775000   0.95845956 2.6589244e-05   0.47316488  0.017798899            0   0.45536598    1.4305009    1.9036658    3.7415143 
18780000   0.98885573 -6.6006882e-06   0.42917242  0.013140505            0   0.41603191    1.4758672    1.9050396       1.4488 
18785000   0.96971958 2.5110209e-05   0.45777655  0.024124264            0   0.43365228    1.4473065     1.905083    3.6407007 
18790000   0.95035874 2.362013e-05   0.48936267  0.024166688            0   0.46519598    1.4184104    1.9077731    3.5403965 
18795000   0.95280847 1.8072329e-05   0.48579403   0.02688385            0   0.45891018    1.4220666    1.9078607    3.1570201 
18800000   0.95879802 2.0533227e-07   0.48016045   0.02752317            0   0.45263728     1.431006    1.9111665    1.9253591 
18805000   0.98202426 -1.3174782e-05   0.45391254  0.018623688            0   0.43528885    1.4656712    1.9195837    1.0089428 
18810000    0.9992178 2.7441184e-05   0.45327205  0.018605158            0   0.43466689    1.4913326    1.9446046    3.8413393 
18815000   0.97691971 2.2341579e-05   0.48182322  0.013064004            0   0.46875922    1.4580527    1.9398759    3.4841259 
18820000   0.97909649 1.3026347e-05   0.46997566   0.01889074            0   0.45108492    1.4613015    1.9312772    2.8316583 
18825000     1.005801 -9.2692293e-06    0.4376374  0.015283637            0   0.42235376     1.501158    1.9387954    1.2981063 
18830000   0.99527042 -5.30153e-05   0.46165528  0.019556334            0   0.44209895    1.4854411    1.9470964   -1.7173212 
18835000   0.96717344 -4.702245e-05   0.50245646  0.028288381            0   0.47416808    1.4435064    1.9459628    -1.304229 
18840000    0.9795332 -9.9609712e-06    0.5008266  0.020520892            0   0.48030571    1.4619533    1.9627799    1.2742776 
18845000    1.0429704 2.4525227e-05   0.40311137  0.017731936            0   0.38537943    1.5566334    1.9597448    3.6549285 
18850000    1.0004537 1.0024632e-06   0.44577342 0.0065785893            0   0.43919483    1.4931771    1.9389505    2.0082408 
18855000    1.0050951 -1.8789618e-05   0.45141961  0.010225929            0   0.44119368    1.5001045    1.9515241    0.6527857 
18860000   0.99304102 -7.0025859e-06   0.48168763  0.030446973            0   0.45124066    1.4821137    1.9638013    1.4797826 
18865000   0.98127342 -2.0457088e-05   0.49805626   0.03920934            0   0.45884691    1.4645506    1.9626068   0.54861294 
18870000    1.0407925 -1.8832579e-05   0.40156735  0.011312828            0   0.39025452    1.5533828    1.9549502   0.65324237 
18875000    1.0049327 -4.1653571e-05   0.47023621 0.0066178273            0   0.46361838    1.4998621    1.9700983  -0.90899652 
18880000   0.97855644 -6.0235016e-05   0.48364392 0.0084101872            0   0.47523374    1.4604955    1.9441394   -2.2193049 
18885000     0.996552 3.4341343e-05   0.45875063  0.009309897            0   0.44944074    1.4873539    1.9461045    4.3197781 
18890000   0.99528024 6.6322795e-05   0.45543271  0.016243851            0   0.43918886    1.4854558    1.9408885      6.52512 
18895000   0.95452577 1.761519e-06   0.52727633  0.022943098            0   0.50433323    1.4246297     1.951906    2.0736622 
18900000   0.98719288 6.418138e-06   0.48740442  0.045011271            0   0.44239315    1.4733854    1.9607898    2.4044115 
18905000   0.97694335 3.2830492e-05   0.49989407  0.028193123            0   0.47170094     1.458088     1.957982    4.2272257 
18910000    0.9671933 -2.5387666e-06   0.51304718  0.023210613            0   0.48983656     1.443536    1.9565832    1.7811036 
18915000     0.953815 1.263785e-05   0.52136813  0.025072356            0   0.49629577    1.4235689     1.944937    2.8184652 
18920000   0.98884585 2.3497083e-05   0.48392403  0.023748757            0   0.46017527    1.4758524    1.9597765    3.5838948 
18925000   0.99875305 -2.0668816e-05   0.47494305  0.018129144            0   0.45681391    1.4906389     1.965582   0.53695343 
18930000    1.0336595 -1.5057814e-05   0.41609825     0.020131            0   0.39596725    1.5427368     1.958835   0.91803894 
18935000    1.0175666 2.334335e-05   0.46783426  0.012519075            0   0.45531519    1.5187182    1.9865525    3.6000448 
18940000    1.0102706 2.4349653e-05   0.48777929  0.026656834            0   0.46112246    1.5078288    1.9956081    3.6786561 
18945000    1.0206399 4.9157019e-06   0.47499435  0.027380961            0   0.44761339    1.5233051    1.9982994    2.3380727 
18950000     1.018608 6.2534488e-07   0.49004978  0.019302761            0   0.47074702    1.5202724    2.0103222     2.053546 
18955000    0.9746419 -3.6858561e-05   0.56055533   0.02556931            0   0.53498602     1.454653    2.0152084  -0.53245534 
18960000   0.99476503 3.2520687e-05   0.52590808  0.044591762            0   0.48131632    1.4846868    2.0105949    4.2584247 
18965000    1.0387485 5.6031718e-06   0.45367086  0.025832018            0   0.42783885    1.5503322     2.004003    2.3912943 
18970000    0.9696547 -4.4578714e-05   0.57541211  0.039836046            0   0.53557607    1.4472096    2.0226218    -1.058659 
18975000    1.0161262 -2.3507286e-06   0.50685823  0.039889238            0   0.46696899    1.5165684    2.0234266    1.8609443 
18980000    1.0362508 -2.2590558e-06   0.46705922  0.029655522            0   0.43740369    1.5466043    2.0136635    1.8575176 
18985000   0.99692124 1.8242216e-05   0.51111194  0.038937513            0   0.47217442     1.487905    1.9990169    3.2599188 
18990000    1.0483892 1.9654731e-05   0.44439447  0.018144654            0   0.42624981    1.5647209    2.0091154    3.3676504 
18995000    0.9837334 1.5675104e-05   0.51997122  0.016177076            0   0.50379415    1.4682221    1.9881933    3.0716565 
19000000    1.0103642 6.3062836e-06   0.47802305  0.046038417            0   0.43198463    1.5079685    1.9859916    2.4218819 
19005000    1.0032036 -3.7701374e-06   0.49614727  0.039739277            0   0.45640799    1.4972814    1.9934287    1.7328368 
19010000     1.017407 -4.2236736e-06   0.45477252   0.02061844            0   0.43415408    1.5184799    1.9732524    1.6813121 
19015000   0.98860465 4.4122534e-06   0.49953357  0.026609006            0   0.47292456    1.4754924     1.975026     2.280001 
19020000   0.95407293 -4.8001149e-06   0.54999851  0.035343558            0   0.51465495    1.4239538    1.9739524    1.6421684 
19025000    1.0086429 -3.1624419e-05   0.48594089  0.037330138            0   0.44861075    1.5053995    1.9913404  -0.19453946 
19030000    1.0288814 -1.6888604e-05   0.44640422   0.05669146            0   0.38971276    1.5356055    1.9820097    0.8146694 
19035000   0.97606585 -1.6709285e-05   0.52630789  0.024462328            0   0.50184556    1.4567783    1.9830862    0.8281404 
19040000     1.010356 2.7285017e-05   0.47397172  0.012285048            0   0.46168668    1.5079564    1.9819281    3.8678685 
19045000    1.0151316 5.5092031e-05   0.47517675 0.0044897944            0   0.47068696    1.5150839    1.9902606    5.7982218 
19050000    1.0353239 1.3286695e-05   0.43348664  0.007745586            0   0.42574105    1.5452209    1.9787075    2.8970839 
19055000    1.0079484 7.2952989e-06   0.48240506  0.014403319            0   0.46800174     1.504363    1.9867681    2.4910191 
19060000   0.97781564 -1.4961467e-05   0.49402172  0.012931567            0   0.48109015    1.4593898    1.9534116   0.91927498 
19065000    1.0309279 -6.0105636e-05   0.44169536  0.017528062            0    0.4241673    1.5386599    1.9803553   -2.1741462 
19070000   0.96176405 -2.562988e-05   0.51643845  0.018079353            0    0.4983591    1.4354328    1.9518713     0.180334 
19075000    1.0053374 3.6337348e-05   0.45714512  0.017881127            0   0.43926399     1.500466    1.9576111    4.4692486 
19080000     1.001867 4.402394e-06   0.46211349  0.013655253            0   0.44845823    1.4952865       1.9574    2.2616935 
19085000     1.012045 -3.0878637e-05     0.457885  0.010936515            0   0.44694848    1.5104772    1.9683622  -0.16596916 
19090000   0.96798412 -2.2317973e-05   0.51032969  0.017044276            0   0.49328541    1.4447163     1.955046   0.41242771 
19095000    1.0054303 -8.1731395e-07   0.43810975  0.055063618            0   0.38304613    1.5006048    1.9387145    1.8822218 
19100000    1.0061173 -2.9081109e-05   0.45102174  0.027092655            0   0.42392909      1.50163    1.9526517 -0.057434492 
19105000   0.99569882 2.8339557e-05   0.49024834   0.01674104            0    0.4735073    1.4860805    1.9763288     3.935159 
19110000   0.98603971 3.4995247e-05   0.48046259  0.014485004            0   0.46597759    1.4716643    1.9521269    4.3709983 
19115000   0.99952846 4.3506496e-05   0.46259832   0.01242776            0   0.45017056    1.4917962    1.9543946    4.9615636 
19120000    1.0236306 4.7990926e-05   0.42874083  0.012190854            0   0.41654998    1.5277686    1.9565094    5.2736422 
19125000    1.0431645 -1.482004e-05   0.40567912 0.0035553148            0   0.40212381    1.5569231    1.9626022   0.93824105 
19130000    1.0175443 -9.8966711e-06     0.444208 0.0078048903            0   0.43640311    1.5186849    1.9628929     1.278835 
19135000   0.99425672 1.6128356e-05   0.47285904  0.010515266            0   0.46234377    1.4839282    1.9567872    3.0715792 
19140000    1.0116505 -5.2888118e-05   0.47346536  0.006119881            0   0.46734548    1.5098884    1.9833537   -1.6722729 
19145000   0.98374939 -4.984971e-05   0.50833914 0.0049757542            0   0.50336339     1.468246    1.9765851   -1.4690268 
19150000    1.0128354 1.945355e-05   0.44836109 0.0095344454            0   0.43882664    1.5116569     1.960018    3.3046474 
19155000    1.0127666 -4.4742172e-05   0.44952394  0.022381728            0   0.42714221    1.5115542    1.9610781   -1.1315008 
19160000   0.96720449 -2.8257247e-05   0.50750352  0.013947225            0    0.4935563    1.4435527    1.9510562 -0.0020847023 
19165000    1.0001052 3.913631e-05   0.45338338  0.012383246            0   0.44100013     1.492657    1.9460404    4.6511421 
19170000   0.95208908 -5.610716e-05   0.53200156  0.026688647            0   0.50531291    1.4209929    1.9529945   -1.9251324 
19175000   0.95116157 -7.1969975e-05   0.52318847  0.022468497            0   0.50071997    1.4196086    1.9427971   -3.0317676 
19180000   0.99755464 3.726793e-05   0.46386881  0.011485723            0   0.45238309    1.4888503    1.9527191    4.5286784 
19185000   0.99953877 4.3164484e-05   0.44689263  0.015884314            0   0.43100832    1.4918116    1.9387042    4.9222333 
19190000    1.0046012 -1.9599775e-05   0.43713128  0.035419402            0   0.40171188    1.4993674    1.9364986   0.58176221 
19195000   0.99885422 -2.8387503e-05   0.44665328  0.017913757            0   0.42873953    1.4907899    1.9374432 -0.024700972 
19200000   0.98691449 -2.0902986e-05   0.47366205   0.01888861            0   0.45477344    1.4729699    1.9466319   0.50181754 
19205000    1.0483979 2.759204e-06   0.38986409  0.019896361            0   0.36996773    1.5647339     1.954598    2.1453142 
19210000   0.98699295 1.2164905e-05   0.49005095  0.044878598            0   0.44517235     1.473087    1.9631379    2.8039762 
19215000   0.97401501 -3.1077131e-05    0.5212546  0.037722086            0   0.48353251    1.4537174     1.974972  -0.17307928 
19220000    1.0237379 3.4615467e-05   0.43468342  0.018113657            0   0.41656976    1.5279288    1.9626122    4.3552333 
19225000   0.99626272 6.9177867e-05   0.46316558  0.035857879            0    0.4273077    1.4869221    1.9500877    6.7316619 
19230000    1.0166096 -2.3958746e-06    0.4463068  0.018699366            0   0.42760744    1.5172899    1.9635967    1.7979938 
19235000    1.0136788 -4.4189303e-05   0.46142913  0.017363276            0   0.44406586    1.5129156    1.9743447   -1.0800199 
19240000   0.98704255 -1.3750268e-07   0.49010306   0.01593238            0   0.47417068     1.473161    1.9632641    1.9537599 
19245000    1.0073832 -1.3234033e-05   0.45681213  0.011347915            0   0.44546421    1.5035195    1.9603316    1.0455953 
19250000    1.0043367 -5.8979685e-06   0.47148084  0.011030958            0   0.46044988    1.4989725    1.9704533    1.5627857 
19255000    1.0262125 -1.7091248e-05   0.42829326  0.012772439            0   0.41552082    1.5316222    1.9599154   0.77856842 
19260000   0.97517041 -7.9102804e-05   0.48862561   0.01306178            0   0.47556383    1.4554418    1.9440674   -3.5235184 
19265000    0.9340765 -5.652399e-05   0.52315393  0.034893395            0   0.48826053    1.3941092    1.9172631   -1.9896751 
19270000   0.97727468 -1.6363915e-05   0.46651635  0.016480076            0   0.45003628    1.4585825    1.9250988   0.79402503 
19275000   0.99684329 -1.92991e-05   0.44104664  0.011559201            0   0.42948743    1.4877886    1.9288352   0.59488142 
19280000    1.0154989 -5.502024e-06   0.41320969 0.0039776232            0   0.40923206    1.5156322    1.9288418    1.5485419 
19285000   0.98358276 1.8988966e-05   0.44743383 0.0058695989            0   0.44156423    1.4679973    1.9154311    3.2279485 
19290000    1.0010012 1.5392364e-05   0.41889465 0.0085074794            0   0.41038717    1.4939942    1.9128889    2.9768091 
19295000   0.99538119 -2.2119254e-05   0.42421711 0.0070842337            0   0.41713288    1.4856064    1.9098235    0.3809407 
19300000   0.93957911 -3.7123017e-06    0.5123891  0.022994094            0   0.48939501    1.4023218    1.9147109    1.6581166 
19305000   0.99224471 -1.5095859e-07   0.41338264  0.014248324            0   0.39913432    1.4809252    1.8943079    1.8838736 
19310000   0.92666455 -5.3585308e-05   0.51075967  0.044663054            0   0.46609661    1.3830468    1.8938065     -1.81001 
19315000   0.95636235 -3.2495915e-05   0.45381749   0.02261527            0   0.43120222    1.4273708    1.8811883  -0.36492935 
19320000   0.94113795 3.3094621e-05   0.49889753 0.0082776586            0   0.49061987    1.4046484    1.9035459    4.1910461 
19325000   0.95862745 3.8914616e-05   0.46453662  0.013457824            0   0.45107879    1.4307515    1.8952881    4.5850664 
19330000   0.99602694 -1.1889437e-05   0.40484721 0.0041737104            0    0.4006735    1.4865702    1.8914174    1.0696195 
19335000   0.97292153 3.1947332e-05   0.43471773 0.0088209765            0   0.42589675    1.4520854    1.8868031    4.0950027 
19340000   0.91440779 -2.0398687e-05   0.51516731  0.026915251            0   0.48825206    1.3647536    1.8799209   0.46996366 
19345000   0.90261639  -2.5399e-05   0.51571523   0.03338303            0    0.4823322     1.347155    1.8628702   0.10729133 
19350000   0.92855272 1.5903634e-07   0.47624466  0.016580999            0   0.45966366    1.3858649    1.8621096    1.8731022 
19355000   0.93819595 -2.0536981e-05   0.44991739 0.0065097584            0   0.44340763    1.4002575    1.8501749    0.4306587 
19360000   0.93120434 1.6016239e-06   0.45942811   0.01833411            0     0.441094    1.3898225    1.8492506    1.9599548 
19365000   0.94501974 1.5769007e-05   0.44641757   0.02987842            0   0.41653915     1.410442    1.8568595    2.9468133 
19370000   0.89342354 -5.6389222e-05   0.52721964  0.024508697            0   0.50271094    1.3334346    1.8606543   -2.0369688 
19375000   0.93612012 1.1707419e-05   0.46722056  0.027591879            0   0.43962868    1.3971593    1.8643798    2.6735966 
19380000   0.94788753 5.0364435e-05   0.46205792  0.017220077            0   0.44483784    1.4147221    1.8767801    5.3579698 
19385000   0.94646108 1.7748506e-05   0.46737098  0.011813854            0   0.45555713    1.4125932    1.8799641    3.1067409 
19390000   0.92587583 3.484986e-05   0.48726933 0.0040641274            0    0.4832052    1.3818697     1.869139    4.2779614 
19395000   0.93423951 5.4481681e-06   0.47010727  0.016291818            0   0.45381545    1.3943525    1.8644597    2.2410371 
19400000   0.91696188 -1.6638866e-05   0.49871186   0.03673836            0    0.4619735    1.3685656    1.8672775   0.71719904 
19405000   0.92638786 -5.1611028e-05   0.45736968   0.02874767            0   0.42862201    1.3826339    1.8400036   -1.7273507 
19410000   0.88143033 -1.6283112e-05   0.51932513  0.032542639            0   0.48678249    1.3155348    1.8348599   0.70937122 
19415000   0.89419994 -5.2545078e-06   0.49907591  0.021256487            0   0.47781943    1.3345934    1.8336693    1.4704777 
19420000   0.92162179 2.2445947e-05    0.4825313  0.036848267            0   0.44568303    1.3755205    1.8580518    3.4095157 
19425000   0.95043721 -1.9049969e-05    0.4466936   0.01766236            0   0.42903124    1.4185275    1.8652211   0.54848729 
19430000   0.95072813 -5.554048e-06   0.46112963  0.016874103            0   0.44425553    1.4189617    1.8800914    1.4961956 
19435000   0.92932112 -1.0643681e-05   0.47806833  0.014977816            0   0.46309051    1.3870118    1.8650801    1.1293889 
19440000   0.91044522 8.9006671e-06   0.50370734  0.026007933            0    0.4776994    1.3588395    1.8625468    2.4777609 
19445000   0.93703611 2.8320177e-05   0.46830581  0.026219426            0   0.44208639    1.3985264    1.8668322    3.8243228 
19450000   0.93003837 5.1838111e-05   0.48936032  0.010219551            0   0.47914077    1.3880823    1.8774426    5.4604928 
19455000   0.95533919 -1.3168715e-06   0.45363546  0.019106895            0   0.43452856    1.4258437    1.8794792     1.788457 
19460000   0.93990583 -1.686599e-05   0.49208395  0.023072724            0   0.46901122    1.4028094    1.8948934   0.72911616 
19465000   0.98131043 1.0609915e-06   0.44598017  0.014873815            0   0.43110636    1.4646058     1.910586    1.9839217 
19470000   0.95201454 -4.6961168e-05    0.4988548  0.015279008            0   0.48357579    1.4208817    1.9197365   -1.3262194 
19475000   0.94805091 -4.9102754e-05   0.48981735  0.011475917            0   0.47834143     1.414966    1.9047833    -1.489199 
19480000   0.94672795 -7.9499806e-06    0.4946191  0.015706785            0   0.47891232    1.4129915    1.9076106    1.3581079 
19485000   0.99440288 3.4659098e-05   0.41508889  0.030248799            0   0.38484009    1.4841463    1.8992352     4.294872 
19490000   0.97465884 5.8368325e-05   0.45692394  0.046027606            0   0.41089633    1.4546783    1.9116023    5.9460209 
19495000   0.92069484 3.3880429e-05    0.5491731  0.047722073            0   0.50145103     1.374137    1.9233101    4.2651254 
19500000   0.98040511 4.3207015e-05   0.47357215  0.034981105            0   0.43859104    1.4632546    1.9368268    4.9232956 
19505000    1.0037595 1.3574646e-05   0.44507303  0.017073911            0   0.42799911     1.498111     1.943184    2.8814635 
19510000    1.0023372 -5.2452533e-05   0.42616365  0.010384334            0   0.41577932    1.4959883     1.922152   -1.7033671 
19515000   0.93496663 1.5111339e-05   0.50699741  0.021778345            0   0.48521906    1.3954377    1.9024351    2.9469309 
19520000   0.94025759 -1.5120557e-05   0.49919752  0.014862575            0   0.48433494    1.4033345     1.902532   0.85739909 
19525000    0.9759042 -1.0849713e-05   0.43633635   0.01150661            0   0.42482974     1.456537    1.8928734    1.1429412 
19530000   0.90888392 3.636982e-05   0.53031434  0.024544976            0   0.50576936    1.3565093    1.8868236    4.4007056 
19535000   0.97255246 1.3643309e-05    0.4543481   0.02351302            0   0.43083508    1.4515345    1.9058826    2.8489082 
19540000   0.92572515 -1.0280982e-05    0.5198412   0.01475749            0   0.50508371    1.3816448     1.901486    1.1908645 
19545000   0.95110443 -8.0878719e-06   0.49987071  0.039079657            0   0.46079106    1.4195234    1.9193941    1.3603604 
19550000    1.0034805 2.0745249e-06   0.42117391  0.019816067            0   0.40135785    1.4976946    1.9188685    2.0622597 
19555000   0.98597764 3.1198791e-05   0.45677254  0.017745963            0   0.43902657    1.4715716    1.9283442    4.0848046 
19560000   0.98778806 5.3219384e-05   0.46937427  0.027373759            0   0.44200051    1.4742737    1.9436479    5.6221718 
19565000   0.96281866 7.6817848e-06   0.50041746  0.016731551            0   0.48368591    1.4370068    1.9374243    2.4683893 
19570000   0.98658601 -4.9200709e-05   0.46320175   0.02198321            0   0.44121854    1.4724796    1.9356814   -1.4650716 
19575000    1.0243078 -5.2675166e-05   0.44613453  0.019487375            0   0.42664715    1.5287794     1.974914   -1.6659935 
19580000    1.0250602 -4.33753e-05   0.45931883  0.019943237            0   0.43937559    1.5299024    1.9892212   -1.0088795 
19585000    1.0039313 9.7291475e-06   0.48914235  0.020573949            0    0.4685684    1.4983674    1.9875098    2.6599885 
19590000   0.98489555 5.7446936e-05   0.50816998  0.013263993            0   0.49490599    1.4699566    1.9781266    5.9488588 
19595000    1.0227471 3.6988805e-06   0.45849327  0.012859727            0   0.44563354      1.52645    1.9849433    2.2406099 
19600000   0.99356374 -0.00011027081   0.53784833  0.028514666            0   0.50933367    1.4828939    2.0207422   -5.6011762 
19605000    1.0000731 1.0600873e-05   0.51328912  0.022006079            0   0.49128304     1.492609    2.0058982    2.7386305 
19610000    1.0262936 6.2266418e-05    0.4682185  0.016089082            0   0.45212942    1.5317431    1.9999616    6.3038164 
19615000    1.0329684 3.2190892e-05   0.46391127  0.010554732            0   0.45335654    1.5417054    2.0056166    4.2306511 
19620000   0.98182318 1.2236663e-05   0.53072723  0.018340773            0   0.51238646    1.4653711    1.9960983    2.8418965 
19625000    1.0174793 3.9185139e-05   0.46308801  0.004261057            0   0.45882695    1.5185878    1.9816758    4.6901526 
19630000   0.97637905 -6.453181e-06   0.52547424 0.0023198078            0   0.52315444    1.4572457      1.98272    1.5366761 
19635000    1.0433487 -2.1103005e-05   0.42108871 0.0077170759            0   0.41337163     1.557198    1.9782867   0.51964702 
19640000    1.0293484 7.0345899e-06   0.43243482 0.0083638882            0   0.42407093    1.5363025    1.9687373    2.4549681 
19645000    1.0263184 -4.3751416e-05   0.44564278 0.0047263985            0   0.44091638    1.5317803    1.9774231   -1.0466748 
19650000    1.0078369 -6.5859903e-05   0.46026682  0.013940244            0   0.44632658    1.5041966    1.9644634    -2.587773 
19655000   0.93010916 9.7099999e-06   0.57715159  0.019683207            0   0.55746839    1.3881879    1.9653395    2.6364947 
19660000     1.028001 7.3753415e-06   0.44346211 0.0066706518            0   0.43679146    1.5342915    1.9777536    2.4875372 
19665000   0.99468728 1.1145637e-05    0.4830911  0.007574612            0   0.47551649    1.4845708    1.9676619    2.7380483 
19670000   0.97439345 6.5571793e-05   0.49840149  0.010012958            0   0.48838853    1.4542822    1.9526837    6.4850061 
19675000   0.99566905 5.9088695e-05    0.4702773 0.0090842413            0   0.46119306    1.4860361    1.9563134     6.040524 
19680000     1.028323 1.7857967e-05   0.41433558  0.022418525            0   0.39191705     1.534772    1.9491076    3.1834503 
19685000    1.0228334 1.1073426e-05   0.43499681  0.027874136            0   0.40712267    1.5265788    1.9615756    2.7269708 
19690000   0.90840181 -2.1374136e-05   0.61491453  0.024277772            0   0.59063676    1.3557897    1.9707042   0.49332393 
19695000   0.98109891 2.4497749e-05   0.49798453  0.025222703            0   0.47276183    1.4642901    1.9622747    3.6555591 
19700000    1.0153351 1.2922402e-05   0.44472734 0.0089084182            0   0.43581893    1.5153877     1.960115    2.8533114 
19705000   0.98848157 -2.7816559e-06   0.49089227  0.011636811            0   0.47925546    1.4753087     1.966201     1.773933 
19710000   0.99810522 -9.0357457e-06   0.49881737  0.025430805            0   0.47338657     1.489672    1.9884894    1.3639387 
19715000   0.98410607 4.2057355e-06   0.51389303  0.032342296            0   0.48155073    1.4687783    1.9826713    2.2733718 
19720000    1.0213496 2.6773168e-05   0.46131485  0.026200502            0   0.43511435    1.5243643    1.9856792    3.8362406 
19725000   0.96497084 6.9816238e-07    0.5435484   0.02481898            0   0.51872942     1.440219    1.9837674    2.0320244 
19730000    1.0370307 9.2148742e-06   0.43890335  0.020572715            0   0.41833063    1.5477683    1.9866716    2.6236037 
19735000   0.99419515 -2.2566388e-05   0.50138392  0.020579795            0   0.48080412    1.4838363    1.9852202   0.42543141 
19740000   0.98857563 -7.407109e-06   0.52961454  0.027316906            0   0.50229764    1.4754491    2.0050637    1.4930843 
19745000   0.99990819 1.8219401e-05   0.51796462  0.024015788            0   0.49394883     1.492363    2.0103276    3.2696526 
19750000     0.977586 -8.2673219e-05   0.55473229  0.024103466            0   0.53062882    1.4590471    2.0137794   -3.7005935 
19755000    1.0661079 -5.0317173e-06   0.44022908 0.0086794192            0   0.43154966    1.5911661    2.0313952    1.6836029 
19760000    1.0364529 6.6061613e-05   0.48041751 0.0036112347            0   0.47680627     1.546906    2.0273235    6.5935022 
19765000    1.0082385 4.0349817e-05   0.51062912  0.017854688            0   0.49277443     1.504796    2.0154251    4.8044044 
19770000    1.0401923  4.94338e-05   0.46973446  0.021269741            0   0.44846472     1.552487    2.0222214    5.4390857 
19775000    1.0279872 -1.3897981e-05   0.48871253  0.018001242            0   0.47071129    1.5342709    2.0229835     1.062355 
19780000   0.97953641 -3.0779935e-05   0.57694323  0.033308859            0   0.54363437    1.4619581    2.0389013 -0.088607809 
19785000    1.0268604 6.0345454e-06   0.48435756  0.022915889            0   0.46144167    1.5325891    2.0169466    2.4340544 
19790000    1.0244316 -5.0464218e-06   0.49545879  0.012904601            0   0.48255419    1.5289641    2.0244229    1.6756142 
19795000    1.0116015 -1.3095629e-05   0.51952625 0.0083498022            0   0.51117645    1.5098153    2.0293416    1.1241717 
19800000    1.0349738 -1.0480921e-05   0.48691106 0.0098247999            0   0.47708626    1.5446983    2.0316094    1.3071681 
19805000   0.99571491 -4.8837742e-05   0.53868797  0.010227991            0   0.52845998    1.4861045    2.0247925   -1.3508722 
19810000   0.96641716 -4.7218512e-05   0.58932151   0.03627329            0   0.55304822    1.4423776    2.0316991   -1.2320444 
19815000    1.0219788 2.1829796e-06   0.51577168  0.026258938            0   0.48951274    1.5253033     2.041075    2.1919625 
19820000    1.0390746 7.2095418e-05   0.47140623    0.0217355            0   0.44967073    1.5508188     2.022225    7.0054603 
19825000    1.0051941 -4.5839874e-06   0.52114417  0.031903704            0   0.48924046    1.5002523    2.0213964    1.7045512 
19830000   0.98680098 -2.262956e-05   0.53421395  0.022870153            0   0.51134379    1.4728005    2.0070144    0.4428592 
19835000   0.97686293 -7.4171285e-06   0.55409796  0.028457969            0   0.52563999    1.4579679    2.0120659     1.499394 
19840000    1.0032471 -3.0930828e-05   0.51403108  0.021669594            0   0.49236149    1.4973463    2.0113774  -0.12656141 
19845000   0.95623692 -1.9354409e-05   0.56091607  0.018472762            0    0.5424433    1.4271836    1.9880997    0.6503229 
19850000   0.96232316 -2.1003146e-05   0.54478489  0.021655056            0   0.52312984    1.4362673    1.9810522   0.52931478 
19855000     1.010488 3.4567537e-05   0.48974384  0.018024539            0    0.4717193    1.5081534    1.9978972    4.3872054 
19860000   0.99611851 -1.4703176e-05   0.50422307  0.022969619            0   0.48125345    1.4867069    1.9909299   0.97464643 
19865000   0.96016846 -3.4542058e-06   0.55092359  0.026147859            0   0.52477573    1.4330514     1.983975    1.7452203 
19870000   0.99556733 5.981179e-05    0.5073423  0.020388022            0   0.48695427    1.4858842    1.9932265    6.1274174 
19875000    1.0012453 -6.8500861e-06   0.49519597  0.030295873            0    0.4649001    1.4943586    1.9895546    1.5160767 
19880000   0.99054217 -2.2538639e-05   0.49953205  0.031483236            0   0.46804882    1.4783842    1.9779162   0.42004554 
19885000   0.98659193 3.6751846e-05     0.500649  0.024512207            0   0.47613679    1.4724885    1.9731375    4.5134251 
19890000   0.99572922 3.5107491e-05   0.50332653  0.016303207            0   0.48702332    1.4861259    1.9894524    4.4160821 
19895000    1.0122493 -2.6420394e-05   0.48893246  0.011399976            0   0.47753248     1.510782    1.9997145   0.17353683 
19900000    1.0115136 1.5386382e-05    0.4753501  0.016290346            0   0.45905976    1.5096841    1.9850342     3.048541 
19905000   0.95080319 3.3829912e-06   0.55054987  0.017960027            0   0.53258984    1.4190738    1.9696236     2.203456 
19910000    1.0015833 -6.7338635e-06   0.49099232   0.01739343            0   0.47359889    1.4948631    1.9858555    1.5204108 
19915000   0.95513411 1.8447133e-05   0.55423153  0.031403228            0    0.5228283    1.4255377    1.9797692     3.254835 
19920000    1.0169395 -2.9250253e-05   0.45019322 0.0078290691            0   0.44236415    1.5177823    1.9679755 -0.053802007 
19925000   0.99681435 -3.8343435e-05   0.47143772 0.0046836585            0   0.46675406    1.4877454    1.9591831  -0.69111506 
19930000   0.99555741 2.1778262e-05   0.48462988 0.0085194641            0   0.47611042    1.4858694    1.9704993    3.4758128 
19935000    1.0184564 -2.2833901e-05   0.45056421  0.022184163            0   0.42838005    1.5200461    1.9706103   0.39233109 
19940000   0.97280796 -1.0917417e-05   0.52926249   0.01028303            0   0.51897946    1.4519159    1.9811784    1.2265665 
19945000   0.99431894 0.00010030855   0.46658307  0.020850607            0   0.44573246     1.484021    1.9506041    8.8839311 
19950000   0.93734181 7.2373909e-05   0.56121226 0.0083637719            0   0.55284849    1.3989827    1.9601949    6.9626795 
19955000    1.0203095 4.9742015e-05   0.45615013  0.011646467            0   0.44450367    1.5228119     1.978962    5.4171301 
19960000    1.0036231 1.5237735e-07   0.48709914  0.048223816            0   0.43887533    1.4979075    1.9850066    1.9955389 
19965000   0.96787941 -2.7700213e-05   0.55070245   0.02874581            0   0.52195664      1.44456    1.9952625  0.080623719 
19970000    1.0056932 1.2715844e-06    0.4932035  0.014114988            0   0.47908851    1.5009971    1.9942006    2.0820925 
19975000    1.0207503 1.8010768e-05    0.4965681  0.023677673            0   0.47289043    1.5234699     2.020038    3.2649423 
19980000    1.0257844 -4.2947217e-06   0.49234633   0.01082072            0   0.48152561    1.5309832    2.0233295    1.7264784 
19985000   0.96175652 9.8511023e-06   0.60326162  0.017319494            0   0.58594212    1.4354216    2.0386832    2.7195914 
19990000   0.99918994 -3.7453663e-06   0.53429895  0.016155285            0   0.51814366     1.491291    2.0255899    1.7667102 
19995000    1.0302437 -1.2474542e-05   0.49205431 0.0087090803            0   0.48334523    1.5376387     2.029693    1.1674527 
20000000    1.0364252 1.8414217e-05   0.47306794 0.0057084899            0   0.46735945    1.5468646    2.0199326    3.2927232 
Loop time of 541.604 on 1 procs for 20000000 steps with 200 atoms

Performance: 31905.221 tau/day, 36927.339 timesteps/s
99.6% CPU use with 1 MPI tasks x no OpenMP threads

MPI task timing breakdown:
Section |  min time  |  avg time  |  max time  |%varavg| %total
---------------------------------------------------------------
Pair    | 17.677     | 17.677     | 17.677     |   0.0 |  3.26
Bond    | 57.421     | 57.421     | 57.421     |   0.0 | 10.60
Neigh   | 83.659     | 83.659     | 83.659     |   0.0 | 15.45
Comm    | 191.73     | 191.73     | 191.73     |   0.0 | 35.40
Output  | 0.99908    | 0.99908    | 0.99908    |   0.0 |  0.18
Modify  | 177.61     | 177.61     | 177.61     |   0.0 | 32.79
Other   |            | 12.5       |            |       |  2.31

Nlocal:        200.000 ave         200 max         200 min
Histogram: 1 0 0 0 0 0 0 0 0 0
Nghost:        0.00000 ave           0 max           0 min
Histogram: 1 0 0 0 0 0 0 0 0 0
Neighs:        57.0000 ave          57 max          57 min
Histogram: 1 0 0 0 0 0 0 0 0 0

Total # of neighbors = 57
Ave neighs/atom = 0.285
Ave special neighs/atom = 5.9400000
Neighbor list builds = 4271
Dangerous builds = 0
write_restart restart.equil
System init for write_restart ...
WARNING: Communication cutoff 1.4200000000000002 is shorter than a bond length based estimate of 1.8. This may lead to errors. (../comm.cpp:667)
#--------------End of Input file ------------------
Total wall time: 0:09:01
