LAMMPS (29 Oct 2020)
###################### polyelectrolyte complexation ######################
clear

#Initialization
#------------------------------------
units				lj
dimension			3
atom_style			full
boundary			p p p

#Atom Definition
#-------------------------------------
read_restart			restart.equil
Reading restart file ...
  restart file = 29 Oct 2020, LAMMPS = 29 Oct 2020
  restoring atom style full from restart
  orthogonal box = (-80.000000 -80.000000 -80.000000) to (80.000000 80.000000 80.000000)
  1 by 1 by 1 MPI processor grid
  restoring pair style lj/cut from restart
  restoring bond style harmonic from restart
  60 atoms
  59 bonds
Finding 1-2 1-3 1-4 neighbors ...
  special bond factors lj:    0.0      1.0      1.0     
  special bond factors coul:  0.0      0.0      0.0     
     2 = max # of 1-2 neighbors
     2 = max # of 1-3 neighbors
     4 = max # of 1-4 neighbors
     6 = max # of special neighbors
  special bonds CPU = 0.000 seconds
  read_restart CPU = 0.002 seconds

#Force definition
#----------------------------------------------
#Bond definition
bond_style			harmonic
bond_coeff			1 5000 1
#Pair definition
special_bonds	lj 0 1 1
dielectric		80
pair_style		 lj/cut 1.12
pair_modify 		 shift yes
pair_coeff	1 1 1 1 1.12

#Timestep etc
#--------------------------------------------
timestep		0.001
run_style		verlet
velocity		all	create	1	7

#Fix
#---------------------------------------
group polymers type 1
60 atoms in group polymers
fix 1 all nve
fix 2 all langevin 1	1	100	7

#Dump
#------------------------------------------------
compute  1 all gyration
variable  myRg2 equal c_1
variable  i equal step
fix  mythermofile all print 5000 "$i ${myRg2}" file radius_of_gyration.dat screen no

thermo_style		 custom step temp press pe evdwl ecoul ebond ke etotal enthalpy
thermo 	5000
dump	3 all custom 5000 dump.lammpstrj id mol type xu yu zu
run		2000000
Neighbor list info ...
  update every 1 steps, delay 10 steps, check yes
  max neighbors/atom: 2000, page size: 100000
  master list distance cutoff = 1.42
  ghost atom cutoff = 1.42
  binsize = 0.71, bins = 226 226 226
  1 neighbor lists, perpetual/occasional/extra = 1 0 0
  (1) pair lj/cut, perpetual
      attributes: half, newton on
      pair build: half/bin/newton
      stencil: half/bin/3d/newton
      bin: standard
WARNING: Communication cutoff 1.4200000000000002 is shorter than a bond length based estimate of 1.8. This may lead to errors. (../comm.cpp:667)
Per MPI rank memory allocation (min/avg/max) = 54.71 | 54.71 | 54.71 Mbytes
Step Temp Press PotEng E_vdwl E_coul E_bond KinEng TotEng Enthalpy 
 2000000            1 -0.00012130765   0.43871753 0.0060657727            0   0.43265176        1.475    1.9137175   -6.3675516 
 2005000   0.96013836 -7.0176452e-05   0.49363317  0.047604829            0   0.44602834    1.4162041    1.9098373   -2.8808752 
 2010000   0.86520086 7.2498519e-05   0.48709356 0.0028382415            0   0.48425532    1.2761713    1.7632648     6.712497 
 2015000   0.93485703 -1.4232138e-05   0.48791744  0.011588517            0   0.47632892    1.3789141    1.8668316   0.89525093 
 2020000   0.93905509 8.4617131e-05   0.50969931 0.0053410015            0   0.50435831    1.3851063    1.8948056     7.671335 
 2025000   0.85222094 5.3544918e-05   0.57302578 0.0046788619            0   0.56834692    1.2570259    1.8300517    5.4853847 
 2030000     1.063883 1.3238534e-05   0.34445074 0.0018175666            0   0.34263317    1.5692274    1.9136781    2.8174287 
 2035000    1.0515505 -1.6598441e-05   0.32951727 0.00035337846            0   0.32916389     1.551037    1.8805543   0.74743407 
 2040000   0.92878537 -4.1665528e-05   0.57677409 0.0058696096            0   0.57090448    1.3699584    1.9467325   -0.8976342 
 2045000    0.9664685 3.4917746e-05   0.52316006  0.021882812            0   0.50127725     1.425541    1.9487011    4.3324192 
 2050000   0.94112196 1.2717844e-06   0.56013427  0.024129414            0   0.53600485    1.3881549    1.9482892    2.0351096 
 2055000    0.9636727 -9.3809945e-05    0.5517186  0.011922355            0   0.53979625    1.4214172    1.9731358   -4.4309564 
 2060000   0.94468327 4.2200648e-06   0.56663982  0.027241844            0   0.53939798    1.3934078    1.9600476    2.2481374 
 2065000    1.0210792 -2.1209852e-05    0.3880467 0.0037708827            0   0.38427582    1.5060918    1.8941385   0.44621263 
 2070000   0.99460017 -4.7707004e-05   0.46872239  0.036990647            0   0.43173174    1.4670353    1.9357576   -1.3210405 
 2075000     0.998518 -2.5738102e-05   0.45695191  0.018255713            0    0.4386962    1.4728141     1.929766   0.17271151 
 2080000   0.98379228 5.7044199e-06   0.46362603   0.03029146            0   0.43333457    1.4510936    1.9147197    2.3041414 
 2085000    1.1076901 -2.8198428e-05   0.30084046 0.0042328142            0   0.29660765    1.6338429    1.9346834 0.0096706755 
 2090000   0.99215162 -5.772267e-05   0.43365615   0.02337097            0   0.41028518    1.4634236    1.8970798   -2.0434545 
 2095000   0.96740774 -4.9475089e-05   0.39546594 0.0042837594            0   0.39118218    1.4269264    1.8223924    -1.555107 
 2100000   0.85852368 2.3179229e-05   0.48075886 0.0029159379            0   0.47784292    1.2663224    1.7470813      3.32945 
 2105000   0.87167551 3.6799836e-05   0.49731383  0.037788453            0   0.45952538    1.2857214    1.7830352    4.2952373 
 2110000    0.9205402 -2.9885694e-05   0.42757871  0.020997568            0   0.40658114    1.3577968    1.7853755  -0.25482124 
 2115000   0.86651308 2.6296586e-05   0.41955077 0.00067774768            0   0.41887302    1.2781068    1.6976576    3.4928378 
 2120000   0.84027357 -8.2318541e-05   0.50419689  0.012784372            0   0.49141251    1.2394035    1.7436004    -3.876012 
 2125000   0.83408988  -4.4205e-05    0.5294202  0.056710535            0   0.47270966    1.2302826    1.7597028   -1.2580252 
 2130000   0.86636804 1.5707543e-05   0.40394401  0.024211609            0    0.3797324    1.2778929    1.6818369    2.7541385 
 2135000   0.89254623 1.5934629e-05   0.37391769 0.0031143305            0   0.37080336    1.3165057    1.6904234    2.7782274 
 2140000   0.78983075 1.8415843e-05   0.47390215  0.012925744            0    0.4609764    1.1650004    1.6389025    2.8960907 
 2145000      0.93796 -1.5392165e-05   0.40798217  0.025394128            0   0.38258804     1.383491    1.7914732   0.74070137 
 2150000   0.96312126 -7.2580201e-05   0.38179125            0            0   0.38179125    1.4206039    1.8023951   -3.1524133 
 2155000   0.94272821 1.4011627e-05   0.51988463 0.0014952891            0   0.51838934    1.3905241    1.9104087    2.8669358 
 2160000   0.99260051 1.318508e-05   0.43070157  0.011944013            0   0.41875756    1.4640858    1.8947873    2.7948888 
 2165000   0.90122069 1.5134172e-05   0.49295004 0.0054683262            0   0.48748172    1.3293005    1.8222506      2.85541 
 2170000   0.92623675 -0.00016652426   0.45683476 0.0064815787            0   0.45035318    1.3661992     1.823034   -9.5450221 
 2175000   0.95346675 -1.3434911e-05   0.39847162  0.019223145            0   0.37924848    1.4063635    1.8048351    0.8876785 
 2180000   0.82033065 -4.9484315e-05   0.56546411  0.019883553            0   0.54558056    1.2099877    1.7754518   -1.6026774 
 2185000   0.88379168 1.0468026e-06   0.61853868 0.0060333276            0   0.61250535    1.3035927    1.9221314    1.9935931 
 2190000   0.96343556 -2.9035362e-05   0.40826485  0.013971916            0   0.39429293    1.4210675    1.8293323  -0.15281509 
 2195000   0.88201313 6.0909058e-05   0.52886532  0.008343068            0   0.52052226    1.3009694    1.8298347     5.987893 
 2200000   0.94382961 -2.6867264e-05    0.5140147 0.0095201169            0   0.50449458    1.3921487    1.9061634  0.072024835 
 2205000    1.0043199 5.4222556e-05   0.47305611  0.021431225            0   0.45162488    1.4813719     1.954428    5.6560211 
 2210000   0.98546117 -4.7062323e-05   0.45625863  0.052517581            0   0.40374105    1.4535552    1.9098139   -1.3029741 
 2215000    0.9522304 -6.341854e-05   0.60516898  0.018184466            0   0.58698452    1.4045398    2.0097088   -2.3196635 
 2220000    1.0503007 -5.4126223e-05   0.54009617  0.037540654            0   0.50255551    1.5491936    2.0892898   -1.6057271 
 2225000   0.94383599 -2.2505844e-05   0.66804797  0.038936273            0    0.6291117    1.3921581    2.0602061   0.52380711 
 2230000   0.99188122 -7.8510598e-05   0.61272632 0.0021698334            0   0.61055648    1.4630248    2.0757511   -3.2839057 
 2235000   0.89874413 5.7152884e-05   0.67574371 0.0042908018            0   0.67145291    1.3256476    2.0013913    5.9030282 
 2240000     1.034089 -0.00010327307   0.54270725  0.017603765            0   0.52510348    1.5252813    2.0679885   -4.9821196 
 2245000    1.0029013 -8.3303021e-05   0.49154747 7.835545e-05            0   0.49146911    1.4792794    1.9708268   -3.7159927 
 2250000   0.93261686 0.00010833088   0.63706198 0.0029392001            0   0.63412278    1.3756099    2.0126719    9.4080599 
 2255000    1.0245747 -3.5275342e-05   0.42905495 0.0039089252            0   0.42514603    1.5112477    1.9403026  -0.46782735 
 2260000   0.92945887 3.9687771e-05   0.49811907 0.0024299946            0   0.49568907    1.3709518    1.8690709    4.5784227 
 2265000   0.92780441 -7.4001005e-05   0.61601163  0.022700489            0   0.59331114    1.3685115    1.9845231   -3.0672788 
 2270000    1.0177051 7.4565807e-05   0.49835346  0.015126515            0   0.48322695     1.501115    1.9994684    7.0898276 
 2275000   0.95333111 7.1091129e-06    0.5463924 0.0016819333            0   0.54471047    1.4061634    1.9525558    2.4378712 
 2280000    1.0467256 8.2697779e-06   0.40821963 0.0074427595            0   0.40077687    1.5439202    1.9521398      2.51669 
 2285000    0.8772865 -0.00012990887   0.65980411  0.036010802            0   0.62379331    1.2939976    1.9538017   -6.9146441 
 2290000   0.97246204 1.2746476e-06   0.56391862 0.0023656963            0   0.56155293    1.4343815    1.9983001    2.0853161 
 2295000    1.0348961 8.6458542e-05   0.47491086            0            0   0.47491086    1.5264718    2.0013826    7.9036191 
 2300000   0.97621211 -2.1706024e-05   0.64740295  0.038928726            0   0.60847423    1.4399129    2.0873158    0.6055179 
 2305000    1.0790384 3.1977526e-05   0.55047474  0.045448202            0   0.50502654    1.5915816    2.1420563    4.3250555 
 2310000    1.0805837 -8.2599953e-05   0.43984068  0.010594535            0   0.42924614    1.5938609    2.0337016   -3.6051218 
 2315000   0.98095969 -3.4949111e-06   0.68349046 0.0072591566            0   0.67623131    1.4469155     2.130406    1.8918201 
 2320000    1.1301488 -6.3202166e-06   0.49323699  0.051408118            0   0.44182887    1.6669695    2.1602065    1.7287463 
 2325000   0.99972539 -3.0789834e-05   0.57749154  0.011949906            0   0.56554164    1.4745949    2.0520865 -0.049832838 
 2330000    1.0646498 -1.7762529e-05   0.56636297   0.04216806            0    0.5241949    1.5703584    2.1367214   0.92413272 
 2335000    1.1746975 -6.6675914e-06    0.5056444  0.075325629            0   0.43031877    1.7326787    2.2383232    1.7831489 
 2340000    1.1303632 -0.00013206772   0.45591507   0.02425446            0   0.43166061    1.6672857    2.1232007    -6.892622 
 2345000    1.1406736 -4.3806524e-05   0.60427327 0.0089388792            0   0.59533439    1.6824936    2.2867668  -0.70375854 
 2350000    1.1056549 2.0281605e-05   0.52167612  0.040189183            0   0.48148694    1.6308409     2.152517    3.5370746 
 2355000    1.1006853 4.3655441e-05   0.53695711  0.016137259            0   0.52081985    1.6235108    2.1604679    5.1406793 
 2360000    1.0399457 6.1113725e-05     0.646236 0.0026207394            0   0.64361526    1.5339199    2.1801559    6.3521862 
 2365000    1.1041889 -0.00012857977   0.48588412  0.022081172            0   0.46380294    1.6286787    2.1145628   -6.6631494 
 2370000   0.99611341 -3.3576799e-05    0.5381822  0.011043173            0   0.52713903    1.4692673    2.0074495  -0.28472667 
 2375000    1.1265121 5.3452084e-05   0.48228285 0.0095466856            0   0.47273616    1.6616054    2.1438882    5.7928838 
 2380000    1.0835949 -2.9477777e-05   0.45935861  0.013011906            0    0.4463467    1.5983025    2.0576611   0.04531155 
 2385000   0.97182809 -7.0181629e-05   0.60352251 0.0055584885            0   0.59796402    1.4334464    2.0369689   -2.7540969 
 2390000   0.93225339 -4.1762855e-05   0.55364751  0.017011752            0   0.53663576    1.3750737    1.9287213  -0.92228963 
 2395000   0.99166507 -8.8931976e-05    0.4873552 0.00033056593            0   0.48702463     1.462706    1.9500612   -4.1210284 
 2400000   0.99805207 -2.5269608e-05   0.55741675   0.01844713            0   0.53896962    1.4721268    2.0295436   0.30447166 
 2405000    1.0576219 -1.6359682e-05   0.45065215 0.0073933378            0   0.44325881    1.5599923    2.0106445   0.89382352 
 2410000   0.89391611 -9.8926514e-05   0.58522364            0            0   0.58522364    1.3185263    1.9037499   -4.8496335 
 2415000   0.96492719 -1.2010839e-05   0.56858641  0.010440721            0   0.55814569    1.4232676     1.991854    1.1719141 
 2420000   0.98246593 -0.00017734877   0.58812108  0.026013523            0   0.56210756    1.4491373    2.0372583   -10.069751 
 2425000   0.97914687 1.0660355e-06   0.51688322  0.035367802            0   0.48151541    1.4442416    1.9611249    2.0338995 
 2430000   0.93301077 0.00012054864   0.56401738  0.019383063            0   0.54463432    1.3761909    1.9402083    10.169662 
 2435000   0.93718415 -0.00010462714   0.59287718 6.898073e-05            0    0.5928082    1.3823466    1.9752238   -5.1673222 
 2440000   0.97685854 -4.0077252e-05   0.56703849  0.016018456            0   0.55102003    1.4408663    2.0079048  -0.72803557 
 2445000    1.0149237 -8.9066457e-05   0.66324055  0.019921088            0   0.64331946    1.4970125     2.160253   -3.9200171 
 2450000    1.0518068 3.0062392e-05    0.5555686 0.0033018735            0   0.55226672     1.551415    2.1069836    4.1592429 
 2455000    1.0622507 3.696979e-05   0.53203612  0.039346637            0   0.49268948    1.5668198    2.0988559    4.6226603 
 2460000   0.99567475 -2.0420546e-05   0.54524037  0.047450661            0   0.49778971    1.4686203    2.0138606     0.619818 
 2465000   0.95285595 9.0285123e-05   0.56256134 0.00020956496            0   0.56235177    1.4054625    1.9680239    8.1314883 
 2470000    1.0689998 6.6880453e-05   0.44652062  0.012554429            0   0.43396619    1.5767747    2.0232954    6.5890009 
 2475000     1.027006 1.8961104e-05   0.56596204  0.032032792            0   0.53392925    1.5148338    2.0807959    3.3752072 
 2480000   0.91826817 5.151216e-05   0.65154527  0.042604651            0   0.60894062    1.3544456    2.0059908    5.5225543 
 2485000    1.0461636 7.3084061e-05   0.48082613  0.029638695            0   0.45118743    1.5430913    2.0239175    7.0131227 
 2490000   0.93422152 -6.8236727e-05   0.61366302  0.026778145            0   0.58688488    1.3779767    1.9916398   -2.6666541 
 2495000    1.0039864 6.5228746e-05   0.58954396 0.0080129645            0   0.58153099      1.48088    2.0704239     6.523373 
 2500000     1.209133 6.0701071e-05   0.31980216 0.0043757787            0   0.31542638    1.7834712    2.1032734    6.2471331 
 2505000    1.0412665 -0.00012843678   0.56922376  0.053567216            0   0.51565654     1.535868    2.1050918   -6.6628591 
 2510000    1.0842217 -5.0865516e-05    0.5315023            0            0    0.5315023    1.5992271    2.1307294   -1.3416899 
 2515000    1.2405879 -5.7330363e-05   0.48047066 0.0038591657            0    0.4766115    1.8298672    2.3103378   -1.6034149 
 2520000    1.1254289 -6.9594708e-05   0.56126126 0.0057748702            0   0.55548639    1.6600076    2.2212688   -2.5297299 
 2525000   0.90034986 -2.6097446e-05   0.74457684 0.0084328274            0   0.73614401     1.328016    2.0725929   0.29100726 
 2530000    1.1233096 1.7997084e-05    0.5205988  0.016136424            0   0.50446238    1.6568817    2.1774805    3.4060814 
 2535000    1.0867307 2.5635465e-05   0.62851751  0.032424496            0   0.59609302    1.6029278    2.2314454    3.9814931 
 2540000     1.178099 -9.9732939e-06   0.53407251 0.00060489779            0   0.53346761    1.7376961    2.2717686     1.590925 
 2545000    1.1409934 5.951342e-05   0.54753285 0.0077685713            0   0.53976428    1.6829653    2.2304981    6.2932809 
 2550000    1.1488236 0.00010575303   0.48388622  0.020496701            0   0.46338952    1.6945148     2.178401    9.3978081 
 2555000    1.0521129 -4.7335638e-05   0.59334763  0.013567668            0   0.57977996    1.5518666    2.1452142    -1.086232 
 2560000    1.0599363 2.1759575e-05   0.59774169  0.021189124            0   0.57655257    1.5634061    2.1611478    3.6466014 
 2565000    1.1652894 -3.9562359e-05   0.52452129 0.0039215382            0   0.52059976    1.7188018    2.2433231   -0.4574673 
 2570000    1.1575399 -2.6995562e-05   0.52483951   0.01376708            0   0.51107243    1.7073713    2.2322108   0.38931381 
 2575000    1.1129481 5.3644129e-05   0.59972302  0.015262833            0   0.58446019    1.6415985    2.2413215    5.9034274 
 2580000    1.1232157 -1.9085488e-06    0.5965568 0.0083314085            0   0.58822539    1.6567432       2.2533    2.1230097 
 2585000    1.0722541 7.2454313e-06   0.59981404  0.013823193            0   0.58599084    1.5815748    2.1813888    2.6760103 
 2590000    1.0587789 9.8429384e-05   0.66841279  0.024524914            0   0.64388788    1.5616989    2.2301117    8.9495576 
 2595000    1.1587713 6.403498e-05   0.55958812  0.027374053            0   0.53221407    1.7091877    2.2687758    6.6402304 
 2600000    1.0464381 -9.0490999e-06   0.67150825  0.025223872            0   0.64628437    1.5434962    2.2150045    1.5972526 
 2605000    1.1191699 4.5775909e-05   0.62000168  0.048281617            0   0.57172007    1.6507756    2.2707773     5.395746 
 2610000    1.1283401 -0.00010259854   0.62979948  0.030749697            0   0.59904978    1.6643016    2.2941011   -4.7099591 
 2615000    1.1687559 -3.3031499e-05    0.6116199  0.027735828            0   0.58388407     1.723915    2.3355349  0.080584603 
 2620000    1.2408168 -3.9998555e-05   0.49085494  0.033256949            0   0.45759799    1.8302048    2.3210597  -0.40950832 
 2625000    1.2293098 9.6447459e-05   0.41999927  0.015534625            0   0.40446465     1.813232    2.2332313    8.8173778 
 2630000    1.1064175 -6.4575723e-05   0.60108628 0.0032288875            0   0.59785739    1.6319659    2.2330522   -2.1753172 
 2635000   0.97519982 -5.3960167e-05   0.68348079   0.01080249            0    0.6726783    1.4384197    2.1219005   -1.5617802 
 2640000   0.97165104 0.00014131038   0.78713873  0.018917496            0   0.76822124    1.4331853     2.220324    11.867112 
 2645000    0.9923527 6.1518415e-05   0.68282407 0.0054091166            0   0.67741495    1.4637202    2.1465443    6.3462014 
 2650000    1.0298793 7.9067672e-06   0.64676783  0.021288287            0   0.62547954     1.519072    2.1658398    2.7056085 
 2655000    1.1312822 7.4553574e-05   0.57974867 0.0025985251            0   0.57715014    1.6686412    2.2483899    7.3379139 
 2660000    1.1381252 3.1511846e-05    0.5521093  0.035391957            0   0.51671734    1.6787347     2.230844    4.3820527 
 2665000    1.1812685 -4.3417167e-06   0.56291294  0.017017348            0   0.54589559     1.742371     2.305284    2.0088894 
 2670000    1.0850946 -6.0033238e-05   0.69479369  0.037744114            0   0.65704957    1.6005145    2.2953082   -1.8029608 
 2675000    1.1186421 0.0001082211   0.64792766  0.035657256            0   0.61227041    1.6499971    2.2979247    9.6858186 
 2680000    1.1297413 1.7809788e-05   0.56375558  0.037541122            0   0.52621446    1.6663684    2.2301239    3.4459388 
 2685000    1.0809476 -3.1347514e-05   0.49431952 0.0030407987            0   0.49127872    1.5943976    2.0887172  -0.05127313 
 2690000    1.0448504 -9.3565757e-05   0.59509611  0.059814496            0   0.53528161    1.5411544    2.1362505   -4.2511718 
 2695000    1.1296321 4.1193535e-05     0.427458 0.0036893207            0   0.42376868    1.6662073    2.0936653    4.9058107 
 2700000    1.0160096 0.00010045061   0.59362458  0.056415036            0   0.53720954    1.4986142    2.0922387    8.9496673 
 2705000    1.0804187 4.9629456e-05   0.60144768  0.061067689            0   0.54037999    1.5936176    2.1950653    5.5831028 
 2710000   0.99135585 -9.1143306e-05    0.5695082   0.02507385            0   0.54443435    1.4622499    2.0317581   -4.1902916 
 2715000    1.0128555 -3.8041811e-06   0.54128007 0.0014365406            0   0.53984353    1.4939618    2.0352419    1.7755431 
 2720000     1.110983 5.3559748e-05   0.44366574 0.00029313047            0   0.44337261    1.6386999    2.0823656    5.7387111 
 2725000    1.1248832 -3.734092e-05   0.54213239 0.0037247295            0   0.53840766    1.6592028    2.2013352  -0.34780498 
 2730000    1.0282262 9.477041e-05   0.62013682  0.026523967            0   0.59361285    1.5166337    2.1367705    8.6064305 
 2735000    1.0415273 -5.0746812e-05   0.53755273 0.0068058458            0   0.53074688    1.5362528    2.0738055   -1.3905102 
 2740000   0.96317343 -0.00011223836   0.66296574   0.11786509            0   0.54510065    1.4206808    2.0836465    -5.578492 
 2745000    1.0296936 2.4942596e-05   0.49680816  0.017434676            0   0.47937348     1.518798    2.0156062    3.7183541 
 2750000   0.97589701 -7.5701096e-05   0.54550324  0.066090881            0   0.47941236    1.4394481    1.9849513   -3.1829101 
 2755000    1.0267896 -2.0485525e-05   0.47321072  0.026050046            0   0.44716068    1.5145146    1.9877254   0.58924683 
 2760000   0.85977438 -5.7796796e-05   0.69536042 0.0059459729            0   0.68941444    1.2681672    1.9635276    -1.982067 
 2765000   0.95260231 1.624939e-06   0.46286705 0.0065387411            0   0.45632831    1.4050884    1.8679555    1.9788846 
 2770000   0.83272743 6.6498399e-05   0.62000826  0.022198702            0   0.59780956     1.228273    1.8482812    6.3879052 
 2775000   0.86121093 7.1318295e-05   0.50393465  0.022152438            0   0.48178221    1.2702861    1.7742208     6.642883 
 2780000    0.8788285 -2.3410792e-05   0.44777087 0.0070932285            0   0.44067764     1.296272    1.7440429   0.14586618 
 2785000   0.87509108 -0.00011821225   0.52821477  0.021407506            0   0.50680726    1.2907593    1.8189741   -6.2509824 
 2790000    1.0019955 -4.0950032e-05   0.36286366 0.0080151853            0   0.35484847    1.4779433    1.8408069  -0.95471521 
 2795000   0.96248476 8.0439938e-05   0.37598506 0.0044836277            0   0.37150143     1.419665    1.7956501    7.2870165 
 2800000   0.78196614 0.00010597698    0.6383149  0.044799486            0   0.59351541    1.1534001    1.7917149      9.02641 
 2805000   0.96737339 -8.3284096e-05   0.47003425  0.019982862            0   0.45005138    1.4268758      1.89691   -3.7886176 
 2810000   0.94205275 -0.00010275625   0.54703848 0.0037226287            0   0.54331585    1.3895278    1.9365663   -5.0782606 
 2815000   0.99174423 5.4137509e-05   0.39613975  0.010324169            0   0.38581558    1.4628227    1.8589625    5.5547498 
 2820000   0.93116936 6.6207094e-05   0.52674274 0.0027257634            0   0.52401697    1.3734748    1.9002175    6.4199552 
 2825000   0.94613796 8.481862e-06   0.58137669            0            0   0.58137669    1.3955535    1.9769302    2.5559586 
 2830000   0.90702441 1.1108689e-05   0.57646634   0.00771201            0   0.56875433     1.337861    1.9143273    2.6726805 
 2835000   0.90439759 -2.8094782e-05   0.52662743   0.03241822            0   0.49420921    1.3339864    1.8606139 -0.057323259 
 2840000   0.80030811 3.0239571e-05   0.60499262   0.04534769            0   0.55964493    1.1804545    1.7854471    3.8498018 
 2845000    0.8312068 1.2132917e-05   0.55027783 0.0066140149            0   0.54366382      1.22603    1.7763079    2.6045817 
 2850000   0.95546057 -7.8179505e-06   0.43167675 0.0010855986            0   0.43059115    1.4093043    1.8409811    1.3072757 
 2855000   0.87766371 9.6961571e-06   0.56548453  0.071522556            0   0.49396197     1.294554    1.8600385    2.5219628 
 2860000    0.8847689 -5.4171288e-05    0.5024324 0.0043464555            0   0.49808594    1.3050341    1.8074665   -1.8906267 
 2865000   0.95941518 -0.00011415665   0.42349944  0.023812166            0   0.39968728    1.4151374    1.8386368   -5.9544573 
 2870000   0.88985224 -0.00010088199   0.47908058 0.0031000828            0    0.4759805    1.3125321    1.7916126   -5.0952645 
 2875000    0.7422831 3.0588602e-06   0.59922122   0.03581959            0   0.56340163    1.0948676    1.6940888     1.902907 
 2880000   0.80992795 -9.2315767e-05   0.46897251  0.059464831            0   0.40950768    1.1946437    1.6636162   -4.6384734 
 2885000   0.76744284 -5.9691143e-05   0.50887635  0.037023094            0   0.47185326    1.1319782    1.6408545   -2.4340608 
 2890000   0.80801671 1.0702657e-07   0.47376563  0.020984624            0     0.452781    1.1918247    1.6655903    1.6728966 
 2895000   0.82113957 -4.7547686e-05   0.52890118  0.023692925            0   0.50520825    1.2111809     1.740082     -1.50584 
 2900000   0.89426565 -2.0755944e-05   0.33795214  0.015635742            0    0.3223164    1.3190418     1.656994   0.24005489 
 2905000   0.84927706 4.5304741e-05    0.4307266  0.018866462            0   0.41186014    1.2526837    1.6834103    4.7762139 
 2910000   0.87095327 4.5271661e-06   0.47542868  0.024630379            0    0.4507983    1.2846561    1.7600848    2.0691393 
 2915000   0.90908664 -8.4105582e-05   0.45999049  0.012134437            0   0.44785605    1.3409028    1.8008933   -3.9407145 
 2920000   0.91287574 5.446501e-05   0.41613086  0.019271579            0   0.39685929    1.3464917    1.7626226    5.4807673 
 2925000   0.86633617 6.7014298e-05    0.5107587   0.07513093            0   0.43562777    1.2778458    1.7886045    6.3634473 
 2930000   0.87352019 8.1615737e-05   0.40216373 0.00060376882            0   0.40155997    1.2884423     1.690606    7.2622403 
 2935000   0.84828159 -2.2063112e-05   0.48340629  0.018071766            0   0.46533453    1.2512153    1.7346216   0.22844653 
 2940000   0.90782501 -2.6741597e-05   0.36724354    0.0132409            0   0.35400264    1.3390419    1.7062854  -0.11927424 
 2945000   0.91508052 8.5632543e-05   0.44840304 0.00018239774            0   0.44822065    1.3497438    1.7981468    7.6439951 
 2950000   0.81255972 -0.00010279211   0.51377261  0.022097517            0    0.4916751    1.1985256    1.7122982   -5.3049767 
 2955000   0.76815588 9.009684e-05   0.56359347  0.026331828            0   0.53726165    1.1330299    1.6966234    7.8472344 
 2960000   0.84821506 6.1165875e-05   0.46652831 0.0047319208            0   0.46179639    1.2511172    1.7176455    5.8932359 
 2965000   0.90140915 7.5591861e-05   0.48029256  0.015006176            0   0.46528638    1.3295785    1.8098711    6.9702754 
 2970000   0.89640859 7.0881932e-05   0.53451516  0.022765836            0   0.51174932    1.3222027    1.8567178     6.695591 
 2975000   0.85317009 -6.2448044e-05    0.5774697 0.0084906661            0   0.56897903    1.2584259    1.8358956   -2.4272242 
 2980000   0.91507637 9.8664501e-05   0.47741172 0.0046722853            0   0.47273944    1.3497377    1.8271494     8.562646 
 2985000   0.92964328 -8.0538492e-05   0.53726806   0.03573854            0   0.50152952    1.3712238    1.9084919   -3.5896025 
 2990000    0.9788159 -9.3165874e-05   0.45217174   0.02184042            0   0.43033132    1.4437535    1.8959252   -4.4641985 
 2995000    1.0771922 -6.7808359e-05   0.43815866 0.0064209944            0   0.43173767    1.5888584    2.0270171   -2.6020336 
 3000000    1.0730254 2.3177977e-05   0.50849534  0.015437211            0   0.49305813    1.5827124    2.0912078     3.673491 
 3005000    1.1829462 -6.3412206e-05   0.38978311 0.0027076515            0   0.38707545    1.7448457    2.1346288   -2.1943112 
 3010000    1.1630163 -3.7686887e-05   0.43184333            0            0   0.43184333    1.7154491    2.1472924  -0.42546576 
 3015000    1.0077423 -9.1346286e-05   0.66643195  0.048157428            0   0.61827452    1.4864199    2.1528518   -4.0830546 
 3020000   0.94484447 -8.6642012e-05   0.76400497   0.05536002            0   0.70864495    1.3936456    2.1576506   -3.7571108 
 3025000    1.0404675 7.4916844e-05   0.64559248   0.01297063            0   0.63262185    1.5346895     2.180282    7.2946052 
 3030000    1.1118133 9.9115952e-05    0.5272766  0.020613269            0   0.50666333    1.6399246    2.1672012    8.9335168 
 3035000    1.1375103 2.2131957e-05   0.47493746  0.027044816            0   0.44789264    1.6778276    2.1527651    3.6636401 
 3040000    1.0831649 -7.3580235e-06   0.51676005  0.011338509            0   0.50542154    1.5976682    2.1144282    1.6121205 
 3045000    1.2044491 -8.3545075e-05   0.43534494  0.011829133            0    0.4235158    1.7765625    2.2119074   -3.4914364 
 3050000    1.1150955 8.3950064e-05   0.58446682  0.013073646            0   0.57139317    1.6447659    2.2292327    7.9602237 
 3055000    1.1250491 -7.4270398e-05   0.47587829 0.0022700812            0   0.47360821    1.6594474    2.1353257   -2.9348668 
 3060000    1.0986179 8.1446376e-06   0.56560997  0.017110653            0   0.54849932    1.6204613    2.1860713    2.7420786 
 3065000    1.0221705 -0.00013316224   0.68801688  0.062872196            0   0.62514469    1.5077015    2.1957184   -6.8948235 
 3070000    1.0452277 -1.9561591e-05   0.45418374  0.032377704            0   0.42180604    1.5417109    1.9958946      0.66049 
 3075000   0.97757766 2.5213199e-05   0.46987405   0.02222039            0   0.44765366    1.4419271    1.9118011    3.6330222 
 3080000   0.87720824 -3.8266243e-05   0.46694643            0            0   0.46694643    1.2938822    1.7608286  -0.85148026 
 3085000   0.93501198 3.7633232e-05    0.3856549  0.035277732            0   0.35037716    1.3791427    1.7647976    4.3338928 
 3090000    0.9203719 -6.1927112e-05   0.42087493  0.013871741            0   0.40700318    1.3575486    1.7784235   -2.4491341 
 3095000   0.88860643 2.7391126e-05    0.5621743 0.0068525248            0   0.55532178    1.3106945    1.8728688    3.7427696 
 3100000   0.92647531 -4.9739972e-06   0.50345442 0.0081847152            0   0.49526971    1.3665511    1.8700055    1.5304473 
 3105000   0.95524051 -0.00011485427   0.56940988 0.0044737166            0   0.56493616    1.4089797    1.9783896   -5.8623288 
 3110000   0.89684619 -9.0542259e-05   0.57287247  0.032320126            0   0.54055235    1.3228481    1.8957206   -4.2852976 
 3115000   0.85664747 1.7175804e-05   0.50316907  0.012151749            0   0.49101732     1.263555    1.7667241     2.939259 
 3120000   0.90178948 -2.84566e-05   0.42291611  0.048289022            0   0.37462709    1.3301395    1.7530556  -0.18958163 
 3125000   0.94036535 -7.6811142e-05   0.31333596 0.0089714083            0   0.30436456    1.3870389    1.7003749   -3.5432658 
 3130000   0.83310526 3.2349543e-07   0.39179596  0.028433474            0   0.36336249    1.2288303    1.6206262    1.6427102 
 3135000   0.80954761 -6.69733e-05   0.44154195  0.031024393            0   0.41051756    1.1940827    1.6356247   -2.9364192 
 3140000   0.87911286 2.4843317e-05   0.30943821 0.0033022125            0     0.306136    1.2966915    1.6061297    3.3021002 
 3145000   0.94474319 4.5224648e-07   0.31646485 4.0081213e-05            0   0.31642477    1.3934962    1.7099611    1.7408344 
 3150000    1.0401723 -6.7441265e-05   0.30829951  0.027792809            0    0.2805067    1.5342541    1.8425536   -2.7614367 
 3155000   0.99520381 -3.6092789e-05   0.37452682   0.03297873            0   0.34154809    1.4679256    1.8424524  -0.62148198 
 3160000    1.0054429 -5.5071798e-05   0.40838756  0.032777806            0   0.37560975    1.4830283    1.8914158   -1.8681523 
 3165000   0.99587374 6.7789912e-05   0.40627899 0.0014328884            0    0.4048461    1.4689138    1.8751928    6.5029841 
 3170000    1.0832549 -4.6390872e-05   0.31389524 0.0066295796            0   0.30726566    1.5978009    1.9116962    -1.255254 
 3175000   0.97423202 9.3847571e-06   0.37528051 0.0042085089            0     0.371072    1.4369922    1.8122727    2.4529388 
 3180000   0.88893662 -9.3720688e-05   0.39397942 0.0064412924            0   0.38753812    1.3111815    1.7051609   -4.6928381 
 3185000    0.9459748 4.4487353e-05   0.41174425            0            0   0.41174425    1.3953128    1.8070571    4.8440604 
 3190000     1.012426 -0.00010545933   0.42935419  0.025018544            0   0.40433565    1.4933283    1.9226825   -5.2766742 
 3195000    1.0507068 1.0175083e-05   0.39125949 0.0069424693            0   0.38431702    1.5497925     1.941052     2.635671 
 3200000   0.97486789 -4.7094363e-05   0.52221195  0.033909397            0   0.48830256    1.4379301    1.9601421   -1.2548331 
 3205000   0.99321051 1.3123295e-05   0.40528154  0.048207925            0   0.35707361    1.4649855     1.870267    2.7661506 
 3210000    1.0105092 2.7721045e-05   0.36836937  0.026014114            0   0.34235526    1.4905011    1.8588705    3.7512938 
 3215000   0.97460477 1.5064996e-05   0.33323089 0.0071427645            0   0.32608813     1.437542    1.7707729      2.79921 
 3220000   0.87835908 1.1271081e-05    0.4274798 0.0020497653            0   0.42543004    1.2955796    1.7230594    2.4924986 
 3225000   0.98774552 -5.4244477e-06   0.38587434 0.0095822248            0   0.37629212    1.4569246     1.842799      1.47249 
 3230000    1.0141146 -1.1109014e-05   0.42448888  0.004544693            0   0.41994419     1.495819    1.9203079    1.1619325 
 3235000   0.98231037 1.4227397e-05   0.44080773  0.023387072            0   0.41742066    1.4489078    1.8897155    2.8609725 
 3240000   0.99099806 -9.4280456e-06   0.49759409 0.00061056235            0   0.49698353    1.4617221    1.9593162     1.315695 
 3245000    1.0614648 6.5189407e-05   0.44876557  0.030406823            0   0.41835875    1.5656606    2.0144262    6.4646896 
 3250000   0.93162335 2.3532286e-05   0.57037647 0.0049459684            0    0.5654305    1.3741444    1.9445209    3.5509916 
 3255000    1.0134864 -2.8054365e-06   0.34865116  0.018836301            0   0.32981486    1.4948924    1.8435436    1.6520258 
 3260000   0.93425979 8.6576861e-05   0.43389268 0.0096938602            0   0.42419882    1.3780332    1.8119259    7.7222396 
 3265000   0.94178044 -2.2629309e-05   0.48126832   0.01090261            0   0.47036571    1.3891261    1.8703945     0.325567 
 3270000    1.0502772 -1.8404241e-05   0.38891551 0.0068449487            0   0.38207056    1.5491589    1.9380744   0.68167818 
 3275000    0.9771539 3.1286321e-05   0.38604686 0.0057063219            0   0.38034054     1.441302    1.8273489    3.9631617 
 3280000   0.99697258 -3.0933994e-05   0.42103206 0.0086689322            0   0.41236313    1.4705346    1.8915666  -0.22019405 
 3285000   0.89252732 -2.8561543e-05   0.49473254  0.011374988            0   0.48335756    1.3164778    1.8112103  -0.13859097 
 3290000   0.92978672 2.4346325e-06   0.51202031  0.006638698            0   0.50538161    1.3714354    1.8834557      2.04966 
 3295000   0.88749782 3.1375642e-05   0.57181308   0.04704207            0   0.52477101    1.3090593    1.8808724    4.0227829 
 3300000   0.88066858 -4.6654674e-05   0.57397896 0.0050353005            0   0.56894366    1.2989862    1.8729651   -1.3119939 
 3305000   0.94449538 -4.3072671e-05   0.53572442  0.010114874            0   0.52560955    1.3931307    1.9288551   -1.0115726 
 3310000   0.91687741 -7.9743341e-05   0.62302295  0.027518207            0   0.59550474    1.3523942    1.9754171   -3.4683949 
 3315000    1.0181751 -9.676632e-05   0.47568008  0.044728841            0   0.43095124    1.5018082    1.9774883   -4.6284258 
 3320000   0.95841738 -5.8900734e-05   0.52664457  0.036619382            0   0.49002519    1.4136656    1.9403102   -2.0806466 
 3325000   0.92183226 -0.00013229735   0.51344972 0.00081749299            0   0.51263223    1.3597026    1.8731523   -7.1583465 
 3330000   0.99443879 -1.100202e-05   0.47963143  0.021760428            0   0.45787101    1.4667972    1.9464286    1.1953574 
 3335000    1.0786683 -2.0173755e-05   0.36678523 0.0059265141            0   0.36085872    1.5910357    1.9578209    0.5806259 
 3340000   0.98630519 4.6543777e-06   0.53510626  0.035104384            0   0.50000187    1.4548002    1.9899064    2.3076453 
 3345000   0.96192575 -5.4195122e-05   0.47478339  0.005650529            0   0.46913286    1.4188405    1.8936239   -1.8060965 
 3350000   0.88832251 -2.5744758e-05   0.51165497  0.054208044            0   0.45744692    1.3102757    1.8219307  0.064421843 
 3355000   0.94240243 5.5454368e-05   0.48883927 0.0014712841            0   0.48736799    1.3900436    1.8788829    5.6645677 
 3360000   0.91302089 -5.1410868e-05   0.49238761  0.043005158            0   0.44938245    1.3467058    1.8390934   -1.6705552 
 3365000   0.95373175 -2.941297e-06   0.50384782  0.025581215            0   0.47826661    1.4067543    1.9106022    1.7098096 
 3370000   0.85052044 -1.7131353e-05   0.51046573  0.016033063            0   0.49443267    1.2545176    1.7649834   0.59548302 
 3375000   0.93803881 -3.7526262e-05   0.33390922 0.0010300608            0   0.33287916    1.3836072    1.7175165  -0.84427633 
 3380000   0.89252052 5.3578627e-05   0.48921199  0.043205549            0   0.44600644    1.3164678    1.8056797     5.463314 
 3385000   0.97054093 0.00016153958   0.47197401  0.036202799            0   0.43577121    1.4315479    1.9035219     12.93129 
 3390000   0.99451424 -5.3588184e-05   0.45700949  0.047800185            0    0.4092093    1.4669085     1.923918   -1.7343687 
 3395000   0.97704594 5.5210389e-05   0.41827445  0.082175048            0    0.3360994    1.4411428    1.8594172    5.6284465 
 3400000    1.0418572 8.2815449e-06   0.36557918 0.0037990867            0   0.36178009    1.5367394    1.9023186    2.4676721 
 3405000    1.0960577 -6.5843695e-06   0.33847639 0.0062072945            0   0.33226909    1.6166851    1.9551615    1.5056685 
 3410000   0.93923133 -8.0530538e-05    0.4983869 0.0035675217            0   0.49481938    1.3853662    1.8837531   -3.6137983 
 3415000    1.0902773 -8.5945458e-05   0.38400758  0.011307447            0   0.37270013     1.608159    1.9921666   -3.8750434 
 3420000    1.0810568 -2.8702741e-05   0.49881349  0.052706952            0   0.44610654    1.5945588    2.0933723   0.13393183 
 3425000    1.1118283 0.00011136569   0.45780275  0.013413368            0   0.44438938    1.6399467    2.0977494    9.7003138 
 3430000    1.1212243 2.2073489e-05   0.41925686  0.051812385            0   0.36744447    1.6538059    2.0730627    3.5799462 
 3435000    1.0136273 3.369057e-05   0.44627634  0.033228617            0   0.41304772    1.4951002    1.9413765    4.2413195 
 3440000    0.9873012   4.5489e-05   0.48150516  0.069951278            0   0.41155388    1.4562693    1.9377744    5.0431569 
 3445000    1.1320117 2.0243999e-05   0.34569638 0.0028374696            0   0.34285891    1.6697173    2.0154137     3.397404 
 3450000     1.020804 3.8370378e-05   0.44522656  0.043562947            0   0.40166361    1.5056859    1.9509124    4.5703303 
 3455000    1.0307771 3.4182392e-05   0.37363973  0.062951746            0   0.31068799    1.5203962     1.894036    4.2275539 
 3460000   0.93150688 9.0249116e-05   0.47963819  0.055946532            0   0.42369166    1.3739726    1.8536108    8.0146172 
 3465000   0.99055459 -3.6684623e-05   0.39465648  0.019077511            0   0.37557897     1.461068    1.8557245  -0.64861241 
 3470000   0.97300382 -9.5486284e-06    0.3383251 0.0067772657            0   0.33154784    1.4351806    1.7735057    1.1216527 
 3475000    1.0609648 5.6569997e-05    0.2693804  0.015855949            0   0.25352445    1.5649232    1.8343035    5.6961487 
 3480000   0.93331236 5.2423259e-05   0.48386604   0.14428604            0      0.33958    1.3766357    1.8605018    5.4392629 
 3485000    1.0099051 -3.2980602e-05   0.40514734  0.015945269            0   0.38920207      1.48961    1.8947573  -0.35671843 
 3490000     1.019233 -4.8717233e-05   0.47838653 0.0026178829            0   0.47576865    1.5033686    1.9817551   -1.3440079 
 3495000    1.0272338 8.1388468e-05   0.41847801  0.073788248            0   0.34468976    1.5151699    1.9336479    7.4897673 
 3500000    1.0659246 -2.2786335e-05   0.38222896  0.020094267            0   0.36213469    1.5722387    1.9544677   0.39892053 
 3505000    1.0888242 -1.3351293e-05    0.3724779  0.033972883            0   0.33850502    1.6060158    1.9784937    1.0670454 
 3510000    0.9892417 -4.3116005e-05   0.56966609  0.019915962            0   0.54975013    1.4591315    2.0287976  -0.91458832 
 3515000     1.054302 4.0225232e-05   0.44977433  0.086329794            0   0.36344454    1.5550955    2.0048698    4.7509123 
 3520000    1.1191959 1.1210859e-05   0.43715833   0.03407206            0   0.40308627    1.6508139    2.0879722    2.8533002 
 3525000    1.0468596 9.4241151e-05   0.49432751  0.070612511            0     0.423715    1.5441179    2.0384454    8.4719747 
 3530000   0.99320374 3.1259157e-05   0.49626615  0.011759302            0   0.48450685    1.4649755    1.9612417    4.0952001 
 3535000    1.0823687 4.9844686e-06    0.5016134  0.066293166            0   0.43532023    1.5964938    2.0981072    2.4383803 
 3540000    1.0424545 4.0768017e-05   0.58074614  0.081180908            0   0.49956523    1.5376203    2.1183665    4.9014631 
 3545000    1.1394746 -3.1966034e-06   0.48714302 0.0092993139            0   0.47784371     1.680725    2.1678681    1.9496466 
 3550000    1.2354271 1.7329567e-05   0.32624831  0.035375951            0   0.29087236     1.822255    2.1485033     3.331535 
 3555000    1.2013271 -5.1067413e-06   0.34309471  0.016023447            0   0.32707126    1.7719575    2.1150522     1.766432 
 3560000    1.1396058 -3.9720867e-05   0.42844903  0.045372512            0   0.38307652    1.6809186    2.1093676  -0.60224356 
 3565000    1.1547807 -7.2229127e-05   0.33667597 0.0019127476            0   0.33476322    1.7033016    2.0399775   -2.8908642 
 3570000     1.142591 1.8600248e-05   0.27868074 0.00026914196            0    0.2784116    1.6853218    1.9640025    3.2337794 
 3575000    1.0683886 4.8770102e-06   0.44858262  0.072076968            0   0.37650566    1.5758732    2.0244559    2.3573931 
 3580000    1.0751478 3.9498344e-06   0.37467002  0.020719802            0   0.35395022     1.585843     1.960513     2.230155 
 3585000    1.1025574 3.8901803e-06   0.36368462 0.0071342883            0   0.35655033    1.6262721    1.9899567    2.2555264 
 3590000   0.94443772 -5.4939241e-05   0.55613483 0.0020654725            0   0.55406936    1.3930456    1.9491805   -1.8013384 
 3595000    1.0590917 -5.6913288e-05   0.38548759 0.0074739739            0   0.37801361    1.5621603    1.9476479   -1.9376326 
 3600000    1.0178336 7.9492485e-06   0.48537045  0.068649889            0   0.41672056    1.5013046     1.986675    2.5293437 
 3605000    1.0705814 -2.5855003e-05   0.35138131  0.005933248            0   0.34544806    1.5791075    1.9304888   0.16545397 
 3610000   0.98611428 6.8656964e-05   0.54377781  0.057290603            0    0.4864872    1.4545186    1.9982964    6.6852785 
 3615000    1.0176897 -2.3022379e-05    0.4597743  0.020282131            0   0.43949217    1.5010924    1.9608667   0.38920556 
 3620000    1.1012943 -2.3586151e-05   0.43085395  0.027258597            0   0.40359535     1.624409     2.055263   0.44511511 
 3625000   0.96593184 -0.0001074622   0.48392812  0.058210112            0   0.42571801    1.4247495    1.9086776   -5.4274086 
 3630000    1.0653071 -3.9691193e-05   0.36829833  0.036884783            0   0.33141354    1.5713279    1.9396262  -0.76995917 
 3635000    1.0805783 -3.3396123e-05   0.30509487 0.0043183884            0   0.30077648     1.593853    1.8989479  -0.38089405 
 3640000    1.0996631 -8.4422932e-05    0.3936417  0.071452002            0   0.32218969     1.622003    2.0156447   -3.7476274 
 3645000    1.0528208 3.1802509e-05   0.53700835 0.0037013062            0   0.53330705    1.5529107    2.0899191    4.2609704 
 3650000    1.0908859 1.8265444e-05   0.39534931  0.050076558            0   0.34527275    1.6090567     2.004406     3.251327 
 3655000    1.0374256 -3.8533785e-05   0.48061432  0.018768972            0   0.46184535    1.5302027     2.010817    -0.619756 
 3660000    1.0370947 2.0773881e-05   0.49258001  0.021462834            0   0.47111718    1.5297147    2.0222948    3.4404583 
 3665000    1.0516403 4.2543099e-05   0.49244389 0.0099623367            0   0.48248155    1.5511695    2.0436134     4.947889 
 3670000    1.0176679 -6.458947e-05   0.51282261 0.0026866656            0   0.51013594    1.5010602    2.0138828    -2.395425 
 3675000    1.0181843 -1.996762e-05   0.55067239  0.023301742            0   0.52737065    1.5018218    2.0524942   0.68937133 
 3680000   0.95954222 -1.7747973e-05   0.58744835  0.012924398            0   0.57452395    1.4153248    2.0027731   0.79117815 
 3685000   0.98816779 -6.7149052e-05   0.61909612  0.010063137            0   0.60903298    1.4575475    2.0766436   -2.5073983 
 3690000    1.0608924 3.4730261e-05   0.51309385 0.0029620663            0   0.51013178    1.5648163    2.0779102    4.4488293 
 3695000     1.100678 7.7203609e-05   0.45113751 0.0036798818            0   0.44745763       1.6235    2.0746375    7.3450706 
 3700000    1.0133897   4.7608e-06   0.60977982  0.024671412            0   0.58510841    1.4947497    2.1045296    2.4295335 
 3705000    1.0337855 -5.5015194e-05   0.49752313 0.0018080803            0   0.49571505    1.5248336    2.0223568   -1.7333472 
 3710000   0.93485119 4.1467812e-05   0.59142115 0.0039818208            0   0.58743933    1.3789055    1.9703267     4.801196 
 3715000    1.0512084 -3.6857355e-05   0.47771095  0.021817103            0   0.45589384    1.5505323    2.0282433  -0.48788552 
 3720000    1.0932094 1.873623e-05   0.39420521  0.014009295            0   0.38019592    1.6124839    2.0066891    3.2857491 
 3725000   0.97329457 1.8785711e-05   0.65854898 0.0024148508            0   0.65613413    1.4356095    2.0941585    3.3765964 
 3730000   0.96660274 2.0514189e-05   0.57707313 0.0092210376            0   0.56785209     1.425739    2.0028122    3.4032475 
 3735000   0.92187008 -7.6006337e-06   0.62536299  0.030164588            0    0.5951984    1.3597584    1.9851213    1.4662514 
 3740000    1.0990092 6.5842657e-05   0.50166706  0.029068545            0   0.47259852    1.6210386    2.1227056    6.6175643 
 3745000    1.1854629 -4.2280592e-05   0.47429294  0.015796097            0   0.45849684    1.7485578    2.2228507  -0.66350434 
 3750000    1.0652501 7.675631e-05   0.58991986  0.068907807            0   0.52101205     1.571244    2.1611638    7.4010613 
 3755000    1.0564062 2.5581988e-05   0.49624356  0.077810564            0     0.418433    1.5581992    2.0544427    3.8008398 
 3760000    1.0127054 0.00011810448   0.55923038  0.031310039            0   0.52792034    1.4937404    2.0529708     10.11557 
 3765000    1.1167327 9.881342e-05   0.43364335  0.019357148            0    0.4142862    1.6471807    2.0808241    8.8264868 
 3770000    1.0107039 -1.7915888e-05   0.47500249 0.0029292826            0   0.47207321    1.4907882    1.9657907   0.74273274 
 3775000    1.0560865 1.0758538e-05    0.4797829  0.006191531            0   0.47359136    1.5577276    2.0375105      2.77196 
 3780000   0.96841507 -1.5879116e-05   0.54303657 0.0066658144            0   0.53637075    1.4284122    1.9714488    0.8874345 
 3785000   0.93958853 -6.4823836e-05   0.52977458   0.01583424            0   0.51394034    1.3858931    1.9156677   -2.5096395 
 3790000   0.91743105 -0.00011808197   0.49816974  0.046453408            0   0.45171633    1.3532108    1.8513805   -6.2096819 
 3795000   0.99498664 4.3452324e-05   0.39222634 0.0015209255            0   0.39070541    1.4676053    1.8598316     4.826177 
 3800000   0.89244917 -5.3534343e-05   0.49984832  0.013535937            0   0.48631239    1.3163625    1.8162108   -1.8384003 
 3805000   0.86451469 5.314819e-05   0.52313456  0.022608933            0   0.50052563    1.2751592    1.7982937    5.4265435 
 3810000   0.90907949 -1.0093776e-05   0.44171503  0.008448301            0   0.43326673    1.3408922    1.7826073    1.0935389 
 3815000   0.82587789 6.574756e-05   0.49927728  0.040057629            0   0.45921965    1.2181699    1.7174472    6.2058139 
 3820000    0.8590362 -3.0132215e-05   0.50746435   0.01718335            0     0.490281    1.2670784    1.7745428  -0.28248315 
 3825000   0.89434396 7.9689977e-05   0.38838273 0.0022193347            0   0.38616339    1.3191573    1.7075401    7.1477092 
 3830000   0.87953892 -9.8055465e-06   0.46593931  0.055969548            0   0.40996976    1.2973199    1.7632592    1.0938672 
 3835000   0.94390013 2.0186641e-05   0.39576869   0.02631419            0    0.3694545    1.3922527    1.7880214    3.1660961 
 3840000   0.87722283 -6.2420902e-05   0.47290717  0.059966674            0    0.4129405    1.2939037    1.7668109   -2.4944561 
 3845000    0.8601911 0.00015216911   0.52063193    0.0287076            0   0.49192433    1.2687819    1.7894138    12.177491 
 3850000    0.8425473 -3.9145541e-05    0.5435202   0.02058777            0   0.52293243    1.2427573    1.7862775  -0.88605815 
 3855000    0.9866006 9.985962e-06    0.3303975  0.004464012            0   0.32593348    1.4552359    1.7856334    2.4673417 
 3860000   0.88409565 7.032523e-05   0.45177938  0.047110068            0   0.40466931    1.3040411    1.7558205    6.5566895 
 3865000   0.87990635 -1.5441603e-05   0.49623503            0            0   0.49623503    1.2978619    1.7940969   0.73995014 
 3870000   0.88204134 3.7565871e-05   0.55775497  0.042601958            0   0.51515301     1.301011    1.8587659    4.4232628 
 3875000   0.98762441 3.168624e-05   0.43695181  0.012238612            0    0.4247132     1.456746    1.8936978    4.0568118 
 3880000    1.0076306 6.1957036e-05   0.49756603 0.00025131314            0   0.49731472    1.4862551    1.9838212    6.2134215 
 3885000    1.0802069 -1.5679229e-06   0.45708539  0.033003757            0   0.42408163    1.5933052    2.0503906    1.9433537 
 3890000    1.0297043 0.00014656363    0.4913948  0.045213325            0   0.44618147    1.5188138    2.0102086    12.015619 
 3895000    1.0569144 -2.9004731e-05   0.52888204  0.017094686            0   0.51178735    1.5589488    2.0878308   0.10777448 
 3900000    1.1169979 -0.00013505296   0.48062631  0.052062896            0   0.42856341    1.6475719    2.1281982   -7.0914176 
 3905000    1.1883777 3.3604606e-05   0.37201326  0.046145621            0   0.32586764    1.7528571    2.1248704    4.4189448 
 3910000    1.0983999 -8.5901755e-06   0.44474411 0.0032414981            0   0.44150261    1.6201398     2.064884    1.4784613 
 3915000    1.1170748 -2.4751623e-05   0.43357937 0.0037442361            0   0.42983513    1.6476853    2.0812646   0.39155385 
 3920000    1.2066252 -3.7566048e-05   0.36689952 0.0044408592            0   0.36245866    1.7797721    2.1466717  -0.41783725 
 3925000    1.1162328 -2.0499309e-05   0.47777912 0.0050133917            0   0.47276573    1.6464434    2.1242225   0.72480303 
 3930000    1.0908721 -0.00011333162   0.51057303  0.018398227            0    0.4921748    1.6090363    2.1196093   -5.6171629 
 3935000    1.0080694 -5.782667e-05   0.45929247  0.026566085            0   0.43272639    1.4869023    1.9461948   -2.0014392 
 3940000    1.0771023 -1.25338e-05   0.38948976 0.0099750413            0   0.37951471    1.5887259    1.9782157     1.122575 
 3945000    1.0627714 2.3236513e-05   0.36628109 0.0031618633            0   0.36311923    1.5675878    1.9338689    3.5201481 
 3950000     1.033753 -3.3729436e-05   0.40245363 0.0050643387            0   0.39738929    1.5247857    1.9272393  -0.37535682 
 3955000   0.95624464 4.5490318e-05   0.47346669  0.010558925            0   0.46290776    1.4104608    1.8839275    4.9893999 
 3960000   0.93652629 -0.00010511458   0.60866179   0.02282306            0   0.58583873    1.3813763    1.9900381   -5.1857842 
 3965000   0.99199352 -9.0119775e-05   0.57068849  0.064766418            0   0.50592207    1.4631904    2.0338789   -4.1182977 
 3970000    1.0229229 2.4236757e-05   0.45422018  0.052678485            0    0.4015417    1.5088112    1.9630314     3.617594 
 3975000    1.0546496 1.3846029e-05   0.43676487 0.0082043489            0   0.42856052    1.5556081     1.992373    2.9375952 
 3980000    1.0561711 4.2465091e-06   0.36997375  0.028160952            0    0.3418128    1.5578524    1.9278261    2.2177211 
 3985000   0.97640871 -8.0170314e-05   0.48093422  0.015368898            0   0.46556532    1.4402028    1.9211371    -3.551823 
 3990000    1.0053081 2.8078987e-05   0.36980595  0.026670782            0   0.34313516    1.4828294    1.8526354    3.7694942 
 3995000    0.9519034 7.1798512e-05   0.45555277 0.0038634666            0    0.4516893    1.4040575    1.8596103    6.7610554 
 4000000   0.95696194 3.0180746e-05   0.42314152  0.011283403            0   0.41185811    1.4115189    1.8346604    3.8949993 
Loop time of 207.164 on 1 procs for 2000000 steps with 60 atoms

Performance: 834121.782 tau/day, 9654.187 timesteps/s
99.5% CPU use with 1 MPI tasks x no OpenMP threads

MPI task timing breakdown:
Section |  min time  |  avg time  |  max time  |%varavg| %total
---------------------------------------------------------------
Pair    | 0.72041    | 0.72041    | 0.72041    |   0.0 |  0.35
Bond    | 1.8209     | 1.8209     | 1.8209     |   0.0 |  0.88
Neigh   | 175.63     | 175.63     | 175.63     |   0.0 | 84.78
Comm    | 24.385     | 24.385     | 24.385     |   0.0 | 11.77
Output  | 0.039466   | 0.039466   | 0.039466   |   0.0 |  0.02
Modify  | 3.9554     | 3.9554     | 3.9554     |   0.0 |  1.91
Other   |            | 0.6087     |            |       |  0.29

Nlocal:        60.0000 ave          60 max          60 min
Histogram: 1 0 0 0 0 0 0 0 0 0
Nghost:        0.00000 ave           0 max           0 min
Histogram: 1 0 0 0 0 0 0 0 0 0
Neighs:        24.0000 ave          24 max          24 min
Histogram: 1 0 0 0 0 0 0 0 0 0

Total # of neighbors = 24
Ave neighs/atom = 0.4
Ave special neighs/atom = 5.8000000
Neighbor list builds = 38039
Dangerous builds = 0
write_restart restart.rerun.1
System init for write_restart ...
WARNING: Communication cutoff 1.4200000000000002 is shorter than a bond length based estimate of 1.8. This may lead to errors. (../comm.cpp:667)
#--------------End of Input file ------------------
Total wall time: 0:03:27
