LAMMPS (29 Oct 2020)
###################### polyelectrolyte complexation ######################
clear

#Initialization
#------------------------------------
units				lj
dimension			3
atom_style			full
boundary			p p p

#Atom Definition
#-------------------------------------
read_restart			restart.equil
Reading restart file ...
  restart file = 29 Oct 2020, LAMMPS = 29 Oct 2020
  restoring atom style full from restart
  orthogonal box = (-80.000000 -80.000000 -80.000000) to (80.000000 80.000000 80.000000)
  1 by 1 by 1 MPI processor grid
  restoring pair style lj/cut from restart
  restoring bond style harmonic from restart
  60 atoms
  59 bonds
Finding 1-2 1-3 1-4 neighbors ...
  special bond factors lj:    0.0      1.0      1.0     
  special bond factors coul:  0.0      0.0      0.0     
     2 = max # of 1-2 neighbors
     2 = max # of 1-3 neighbors
     4 = max # of 1-4 neighbors
     6 = max # of special neighbors
  special bonds CPU = 0.000 seconds
  read_restart CPU = 0.002 seconds

#Force definition
#----------------------------------------------
#Bond definition
bond_style			harmonic
bond_coeff			1 5000 1
#Pair definition
special_bonds	lj 0 1 1
dielectric		80
pair_style		 lj/cut 1.12
pair_modify 		 shift yes
pair_coeff	1 1 1 1 1.12

#Timestep etc
#--------------------------------------------
timestep		0.001
run_style		verlet
velocity		all	create	1	7

#Fix
#---------------------------------------
group polymers type 1
60 atoms in group polymers
fix 1 all nve
fix 2 all langevin 1	1	10	7

#Dump
#------------------------------------------------
compute  1 all gyration
variable  myRg2 equal c_1
variable  i equal step
fix  mythermofile all print 5000 "$i ${myRg2}" file radius_of_gyration.dat screen no

thermo_style		 custom step temp press pe evdwl ecoul ebond ke etotal enthalpy
thermo 	5000
dump	3 all custom 5000 dump.lammpstrj id mol type xu yu zu
run		2000000
Neighbor list info ...
  update every 1 steps, delay 10 steps, check yes
  max neighbors/atom: 2000, page size: 100000
  master list distance cutoff = 1.42
  ghost atom cutoff = 1.42
  binsize = 0.71, bins = 226 226 226
  1 neighbor lists, perpetual/occasional/extra = 1 0 0
  (1) pair lj/cut, perpetual
      attributes: half, newton on
      pair build: half/bin/newton
      stencil: half/bin/3d/newton
      bin: standard
WARNING: Communication cutoff 1.4200000000000002 is shorter than a bond length based estimate of 1.8. This may lead to errors. (../comm.cpp:667)
Per MPI rank memory allocation (min/avg/max) = 54.71 | 54.71 | 54.71 Mbytes
Step Temp Press PotEng E_vdwl E_coul E_bond KinEng TotEng Enthalpy 
 2000000            1 -0.00012130765   0.43871753 0.0060657727            0   0.43265176        1.475    1.9137175   -6.3675516 
 2005000    1.0155808 1.5849456e-05   0.54242507  0.020451099            0   0.52197397    1.4979816    2.0404067    3.1223963 
 2010000    1.1689371 4.8296746e-05    0.4892534  0.016397819            0   0.47285558    1.7241822    2.2134356    5.5104934 
 2015000    1.1763787 -0.00012886067   0.56199945 0.0016385034            0   0.56036095    1.7351586    2.2971581   -6.4997302 
 2020000    1.1866882 7.758004e-05   0.40834593  0.010207506            0   0.39813842     1.750365     2.158711    7.4548417 
 2025000    1.0685573 -2.4686292e-05   0.53467408 0.0016778397            0   0.53299624    1.5761221    2.1107962   0.42554532 
 2030000   0.81201948 -8.3055706e-05   0.45052176  0.021783768            0   0.42873799    1.1977287    1.6482505   -4.0216857 
 2035000   0.87337063 -3.5613004e-05   0.55110042  0.026790277            0   0.52431014    1.2882217    1.8393221  -0.59185894 
 2040000    0.9791603 -3.1630579e-05   0.60813041  0.028622093            0   0.57950832    1.4442614    2.0523919  -0.10692231 
 2045000    1.0076848 6.8980948e-05   0.67251921  0.059377344            0   0.61314186    1.4863351    2.1588543    6.8679536 
 2050000   0.94031805 4.0230661e-05   0.64848242   0.10107004            0   0.54741237    1.3869691    2.0354515    4.7818647 
 2055000    0.9521698 -8.355247e-05   0.49706415  0.011746992            0   0.48531716    1.4044505    1.9015146    -3.802334 
 2060000   0.95457167 3.4584453e-05   0.53184842  0.040175272            0   0.49167314    1.4079932    1.9398416    4.3008069 
 2065000   0.89309806 4.2748949e-05   0.45124908  0.024064305            0   0.42718477    1.3173196    1.7685687     4.686897 
 2070000    1.0096506 7.2812966e-05   0.40314453  0.021022727            0   0.38212181    1.4892347    1.8923792    6.8630777 
 2075000    1.0822245 -1.3611041e-05   0.34744165  0.017444611            0   0.32999704    1.5962812    1.9437229    1.0145425 
 2080000   0.88720809 4.5999613e-05   0.43947332 0.0035106396            0   0.43596268    1.3086319    1.7481053    4.8883455 
 2085000   0.90490922 -1.1295238e-05   0.38505089  0.032982064            0   0.35206883    1.3347411     1.719792   0.94870375 
 2090000    1.0168862 -4.2440281e-05   0.47366148 0.0095179518            0   0.46414353    1.4999072    1.9735686  -0.92368784 
 2095000   0.97647975 -3.656785e-05   0.53972902   0.11565745            0   0.42407156    1.4403076    1.9800366  -0.51632861 
 2100000    1.1021332 5.8793645e-05   0.57677547  0.091810202            0   0.48496527    1.6256464    2.2024219    6.2160681 
 2105000    1.1610649 7.1885752e-05     0.610145  0.021106045            0   0.58903895    1.7125708    2.3227158    7.2301164 
 2110000    1.1366648 7.3837535e-05   0.73366164  0.019407469            0   0.71425417    1.6765806    2.4102423    7.4508847 
 2115000    1.0691012 2.5303725e-05   0.62063512  0.017565497            0   0.60306962    1.5769243    2.1975594    3.9249604 
 2120000    1.0918795 -3.5780332e-05   0.69551549   0.07566664            0   0.61984885    1.6105223    2.3060378  -0.13656623 
 2125000    1.0870305 -1.7151033e-05    0.4291164            0            0    0.4291164      1.60337    2.0324864   0.86164256 
 2130000    1.3092443 2.8317937e-05   0.45153965  0.003064925            0   0.44847473    1.9311354     2.382675    4.3158462 
 2135000    1.1313202 2.9331253e-06   0.42015777  0.024315304            0   0.39584247    1.6686973     2.088855    2.2890897 
 2140000    1.2107801 4.8775879e-05   0.37474087 0.0080394175            0   0.36670145    1.7859007    2.1606416    5.4904083 
 2145000   0.98672842 -6.403165e-05   0.48814782  0.013344394            0   0.47480342    1.4554244    1.9435722   -2.4276551 
 2150000    1.0065553 1.0216593e-05   0.52745466  0.018768737            0   0.50868592     1.484669    2.0121237    2.7095764 
 2155000   0.96913759 5.2941197e-06    0.4899437 0.0069963529            0   0.48294735     1.429478    1.9194217    2.2808336 
 2160000   0.94031235 -0.00012586811   0.32867643  0.015531546            0   0.31314488    1.3869607    1.7156371   -6.8769595 
 2165000   0.98119962 -2.4283388e-05   0.39583032 0.00020696335            0   0.39562336    1.4472694    1.8430998   0.18535381 
 2170000    0.9325063 -8.5557727e-06    0.5868194  0.064989329            0   0.52183007    1.3754468    1.9622662    1.3781921 
 2175000   0.82475062 3.4027824e-05   0.56070319  0.014747329            0   0.54595586    1.2165072    1.7772104    4.1001765 
 2180000   0.96373548 6.1500669e-05   0.42104148 0.0014460097            0   0.41959547    1.4215098    1.8425513     6.040997 
 2185000    1.1757027 5.1528674e-05   0.42451778  0.011949396            0   0.41256839    1.7341614    2.1586792      5.67637 
 2190000    1.0196595 -7.9879895e-05   0.63406077 0.0096747429            0   0.62438602    1.5039978    2.1380585   -3.3150756 
 2195000   0.94992533 5.6088925e-05   0.49036138 0.0043670866            0    0.4859943    1.4011399    1.8915012    5.7205052 
 2200000   0.98085836 -8.3170554e-05   0.68441612 0.0079871469            0   0.67642897    1.4467661    2.1311822   -3.5465943 
 2205000    1.0920738 1.1229222e-05   0.63425826  0.033146293            0   0.60111196    1.6108089    2.2450671    3.0116487 
 2210000    1.1194343 2.9487435e-05   0.55958811  0.040903443            0   0.51868467    1.6511655    2.2107536    4.2237625 
 2215000   0.86786212 -0.00019354697   0.78176121  0.031077797            0   0.75068342    1.2800966    2.0618578   -11.150949 
 2220000    1.2094432 5.8041399e-05   0.49953534  0.033015571            0   0.46651977    1.7839287     2.283464    6.2457569 
 2225000    1.1829341 2.740282e-05   0.68368757  0.030381805            0   0.65330577    1.7448278    2.4285154    4.2992146 
 2230000    1.0567167 -2.4533897e-05   0.50355087 0.0021996549            0   0.50135121    1.5586572     2.062208   0.38736064 
 2235000    1.1147176 5.6248241e-08    0.5699074  0.017276891            0   0.55263051    1.6442084    2.2141158    2.2179557 
 2240000   0.96751281 4.4935849e-05   0.41130369 0.0028872479            0   0.40841645    1.4270814    1.8383851    4.9060057 
 2245000     1.091401 -3.1360665e-05   0.42788349  0.045378181            0    0.3825053    1.6098164    2.0376999  -0.10318815 
 2250000    1.0072069 -3.5309403e-07   0.49595207  0.010754608            0   0.48519746    1.4856302    1.9815822    1.9574777 
 2255000   0.90517413 -1.909616e-05   0.59661648 0.0027388975            0   0.59387758    1.3351318    1.9317483   0.62811712 
 2260000   0.94756546 0.00010635288   0.68003441  0.046275496            0   0.63375892    1.3976591    2.0776935    9.3380502 
 2265000    0.9617358 4.4890953e-05   0.51679955  0.017202603            0   0.49959695    1.4185603    1.9353599    4.9999156 
 2270000    1.0256749 -6.5841479e-05   0.51575447  0.024590936            0   0.49116353    1.5128705     2.028625   -2.4661533 
 2275000    1.0197875 6.3736424e-05    0.5715309 0.0054667606            0   0.56606414    1.5041866    2.0757175    6.4267907 
 2280000    0.9014156 -9.2921575e-05   0.60103241  0.014483589            0   0.58654882     1.329588    1.9306204   -4.4128258 
 2285000   0.94543693 4.7705394e-05   0.50604154  0.015771756            0   0.49026978    1.3945195     1.900561    5.1572493 
 2290000    1.0508275 -1.0081131e-05   0.58892285  0.063505039            0   0.52541781    1.5499705    2.1388934    1.4506882 
 2295000    1.1008145 -2.4860756e-05   0.56451518  0.024857504            0   0.53965767    1.6237014    2.1882166   0.49105562 
 2300000    1.2243058 -4.5625357e-05   0.45283274 0.00077320419            0   0.45205954    1.8058511    2.2586838  -0.85600719 
 2305000    1.0376485 -2.8331896e-05   0.58354443 0.00024787726            0   0.58329655    1.5305316     2.114076   0.17995187 
 2310000    1.0368145 8.039099e-05   0.43769755  0.026656827            0   0.41104072    1.5293014     1.966999    7.4550239 
 2315000    1.1775655 -8.0864486e-05   0.45910219   0.04893824            0   0.41016395    1.7369092    2.1960114   -3.3243376 
 2320000    0.7422634 -7.5431454e-05   0.41314725 0.0067330097            0   0.40641424    1.0948385    1.5079858   -3.6414681 
 2325000    1.0165762 0.0001107624   0.41956761  0.023415641            0   0.39615197    1.4994498    1.9190174    9.4803976 
 2330000   0.87082199 -3.9997811e-05   0.46346039  0.050867462            0   0.41259293    1.2844624    1.7479228  -0.98259439 
 2335000    1.1157141 2.2583485e-05   0.33256866 0.0096596588            0     0.322909    1.6456783    1.9782469    3.5199461 
 2340000   0.85308277 0.00010658657   0.42082344  0.024989174            0   0.39583427    1.2582971    1.6791205    8.9554304 
 2345000    1.1118405 6.088452e-05   0.42352919  0.011327365            0   0.41220183    1.6399648     2.063494    6.2198772 
 2350000    1.0717076 -1.6813294e-05   0.39771231  0.011154928            0   0.38655738    1.5807687     1.978481   0.83069351 
 2355000   0.83239791 1.8390289e-05   0.54337508  0.012810933            0   0.53056415    1.2277869     1.771162    3.0266058 
 2360000   0.83749229 -7.6523754e-06   0.48800703 0.0098138067            0   0.47819322    1.2353011    1.7233081     1.200906 
 2365000   0.90495429 -5.3184317e-05   0.50967909  0.018507251            0   0.49117184    1.3348076    1.8444867   -1.7862294 
 2370000   0.88522803 -5.4119127e-05   0.59103658  0.052420927            0   0.53861565    1.3057113    1.8967479   -1.7977845 
 2375000    0.9258266 -4.1511132e-05   0.55504991  0.033876048            0   0.52117386    1.3655942    1.9206441  -0.91318247 
 2380000   0.91802869 1.8509864e-05   0.75721305  0.048663795            0   0.70854926    1.3540923    2.1113054    3.3749121 
 2385000    1.0544221 7.5552987e-05   0.58129626 0.0046291088            0   0.57666715    1.5552726    2.1365689    7.2943195 
 2390000      1.06889 3.7924326e-05   0.49864654 0.00059360047            0   0.49805294    1.5766128    2.0752594    4.6642266 
 2395000   0.91622728 2.4949499e-05   0.69382914  0.016154622            0   0.67767451    1.3514352    2.0452644    3.7484835 
 2400000    1.1306274 8.5977616e-07   0.53165377  0.024083329            0   0.50757044    1.6676754    2.1993292    2.2580232 
 2405000    1.0774673 6.1969055e-05   0.54695412 0.0056625301            0   0.54129159    1.5892642    2.1362184    6.3666391 
 2410000    1.1839031 -9.3617765e-05   0.60157123   0.14688341            0   0.45468781     1.746257    2.3478282   -4.0431445 
 2415000    1.0946116 7.4085212e-05   0.57320078  0.050038664            0   0.52316211    1.6145522    2.1877529    7.2453034 
 2420000    0.9868067 -4.0301662e-05   0.70636816  0.024181449            0   0.68218672    1.4555399     2.161908  -0.58935206 
 2425000   0.95952547 -6.0555898e-06   0.64301434  0.027435023            0   0.61557932    1.4153001    2.0583144    1.6449195 
 2430000   0.92146313 -6.2341518e-05   0.61904287  0.015443898            0   0.60359897    1.3591581     1.978201   -2.2776467 
 2435000   0.99728967 -7.7053196e-05   0.52647158 0.0071515776            0      0.51932    1.4710023    1.9974738    -3.262691 
 2440000    1.0695779 7.6075651e-05   0.51713492  0.047965479            0   0.46916944    1.5776275    2.0947624    7.2881935 
 2445000   0.95222386 2.1784397e-05   0.59014935   0.11027169            0   0.47987766    1.4045302    1.9946795    3.4818277 
 2450000    1.0184556 -1.0336901e-06   0.42680037  0.029644217            0   0.39715616     1.502222    1.9290223    1.8584557 
 2455000    1.0130593 4.5287747e-05   0.64651316  0.045009932            0   0.60150322    1.4942625    2.1407757    5.2324192 
 2460000    1.0327144 7.5646993e-05   0.48483312 0.0087937576            0   0.47603936    1.5232538    2.0080869     7.172255 
 2465000   0.91072516 0.0001013398   0.44640394  0.020230436            0    0.4261735    1.3433196    1.7897236    8.7078539 
 2470000    1.0834565 -4.6543741e-05   0.55043749  0.039601166            0   0.51083632    1.5980984    2.1485359   -1.0288502 
 2475000    0.8848435 -8.5056521e-05   0.63677049 0.0088977819            0   0.62787271    1.3051442    1.9419147   -3.8646105 
 2480000    1.0043666 9.4972238e-05   0.48957581            0            0   0.48957581    1.4814408    1.9710166    8.4544547 
 2485000    1.0819511 5.3868603e-05   0.38885062 0.0031791987            0   0.38567142    1.5958779    1.9847285    5.6621585 
 2490000    0.8470344 -5.1632564e-05   0.49894241 0.0013057309            0   0.49763668    1.2493757    1.7483182   -1.7764649 
 2495000   0.95617449 -5.3355783e-05   0.45723193  0.018480073            0   0.43875186    1.4103574    1.8675893   -1.7748321 
 2500000    1.1163104 -1.9601122e-05   0.40134628  0.014565332            0   0.38678095    1.6465578    2.0479041   0.70980084 
 2505000    1.0223931 3.2146555e-05   0.41623954 0.00066120247            0   0.41557833    1.5080298    1.9242694    4.1188075 
 2510000   0.97672182 0.00012716397   0.42132638  0.011008874            0    0.4103175    1.4406647    1.8619911    10.543052 
 2515000    1.0180194 -4.8581133e-06   0.49372822  0.018312781            0   0.47541544    1.5015786    1.9953068    1.6636596 
 2520000   0.92242847 2.9632727e-05   0.46038246  0.055213595            0   0.40516887     1.360582    1.8209645    3.8438919 
 2525000    1.0048864 1.4222569e-05   0.44221314  0.050762711            0   0.39145043    1.4822074    1.9244206    2.8953479 
 2530000    1.0107404 -1.3476614e-05   0.62223136  0.002948905            0   0.61928245    1.4908421    2.1130735      1.19307 
 2535000    1.0309787 -2.7083791e-05   0.46670439  0.018218508            0   0.44848589    1.5206935    1.9873979   0.13847784 
 2540000   0.87245124 -1.3574596e-05   0.55482768  0.014792138            0   0.54003554    1.2868656    1.8416933   0.91500086 
 2545000   0.97408299 7.5459665e-06   0.63493841   0.01395484            0   0.62098357    1.4367724    2.0717108    2.5868488 
 2550000      1.04443 2.4029262e-05   0.47574287  0.024314649            0   0.45142822    1.5405343    2.0162771    3.6566747 
 2555000   0.99100575 -6.5373474e-06   0.54376903  0.018778499            0   0.52499053    1.4617335    2.0055025    1.5592196 
 2560000    1.0211976 0.00011714266    0.5707604  0.030558468            0   0.54020193    1.5062664    2.0770268    10.073966 
 2565000    1.2106559 -1.4303332e-05   0.54291652  0.055234061            0   0.48768246    1.7857174    2.3286339    1.3521931 
 2570000    1.1588367 -2.0334225e-05   0.60822467  0.045909281            0   0.56231539    1.7092841    2.3175088   0.92935902 
 2575000    1.0655737 5.701197e-05   0.80999294   0.04665193            0   0.76334101    1.5717212    2.3817142    6.2737313 
 2580000    1.1452345 -3.7844425e-05   0.46514374 0.0027308214            0   0.46241292    1.6892208    2.1543646  -0.42914815 
 2585000   0.83341349 8.8152056e-07   0.65003957 0.00074546801            0    0.6492941    1.2292849    1.8793245    1.9395029 
 2590000   0.97256044 7.9918631e-05   0.49926863 0.0044723253            0    0.4947963    1.4345266    1.9337953    7.3895738 
 2595000     1.087677 0.00013761738   0.52911705  0.020189882            0   0.50892717    1.6043236    2.1334407     11.52812 
 2600000    1.0736301 -7.8405104e-05   0.51449507 0.0063768857            0   0.50811818    1.5836044    2.0980994   -3.2543557 
 2605000    0.9011933 7.2266765e-05   0.66360592  0.041929721            0    0.6216762    1.3292601     1.992866    6.9262772 
 2610000   0.97965384 -4.6324597e-05   0.79811436  0.019645216            0   0.77846914    1.4449894    2.2431038  -0.91932204 
 2615000     1.073468 4.2933163e-06   0.61531418  0.027091931            0   0.58822225    1.5833654    2.1986796    2.4917699 
 2620000    1.1448598 -0.00012401985   0.53087537 0.0088431287            0   0.52203224    1.6886682    2.2195436   -6.2468779 
 2625000    1.0120782 3.7706691e-06    0.6114171  0.015172022            0   0.59624507    1.4928154    2.1042325    2.3616435 
 2630000   0.96938159 3.7113528e-05   0.41977295  0.062442758            0   0.35733019    1.4298378    1.8496108    4.3832276 
 2635000   0.91866354 -5.8607008e-05   0.47659186  0.001249024            0   0.47534284    1.3550287    1.8316206   -2.1692845 
 2640000     1.107975 2.3439484e-05   0.49393566   0.00785855            0   0.48607711    1.6342631    2.1281988    3.7283342 
 2645000   0.89179369 1.1834634e-05   0.40288989  0.028994515            0   0.37389537    1.3153957    1.7182856    2.5261966 
 2650000    0.7864104 -0.00011041134   0.44368469  0.016706462            0   0.42697823    1.1599553      1.60364   -5.9337744 
 2655000    1.0002212 1.605123e-05   0.53145516  0.021310449            0   0.51014471    1.4753263    2.0067814    3.1025454 
 2660000   0.95458214 6.8695847e-06   0.47054121 0.00075619762            0   0.46978502    1.4080087    1.8785499    2.3475135 
 2665000    1.0291009 7.869498e-05   0.56266337  0.077925036            0   0.48473834    1.5179239    2.0805872    7.4528312 
 2670000    1.1420414 3.2590525e-05   0.44561012 0.0021194321            0   0.44349069    1.6845111    2.1301213    4.3549677 
 2675000    1.1026557 5.3872709e-05    0.4342811 0.00067292371            0   0.43360818    1.6264172    2.0606983    5.7384086 
 2680000    1.0674858 -3.9594904e-05   0.47773496  0.013267664            0    0.4644673    1.5745416    2.0522765  -0.65073559 
 2685000    1.1039512 -9.346405e-05   0.51692826  0.011244135            0   0.50568412    1.6283279    2.1452562    -4.235223 
 2690000      1.17316 5.0346431e-06   0.64434617 0.0035110093            0   0.64083516     1.730411    2.3747572    2.7184555 
 2695000    1.0695063 -4.919288e-06   0.65776772  0.022915953            0   0.63485177    1.5775218    2.2352896    1.8994662 
 2700000    1.0287062 1.6811639e-05   0.44093399  0.014680469            0   0.42625352    1.5173416    1.9582756    3.1059502 
 2705000   0.95667938 -7.6143416e-06   0.38339662  0.017313302            0   0.36608332    1.4111021    1.7944987     1.274693 
 2710000   0.96923333 1.9817551e-05    0.3418503 0.0019479454            0   0.33990236    1.4296192    1.7714695    3.1243476 
 2715000   0.99093227 -2.0752177e-05   0.41684829  0.019126908            0   0.39772138    1.4616251    1.8784734   0.46179146 
 2720000   0.87820434 2.7268454e-05   0.54045127  0.066298364            0   0.47415291    1.2953514    1.8358027    3.6973291 
 2725000    1.0084075 -2.2847931e-05   0.52435045  0.029081719            0   0.49526873    1.4874011    2.0117516   0.45199946 
 2730000    1.0627626 -0.00011242761   0.58187654  0.046669559            0   0.53520698    1.5675749    2.1494514   -5.5256066 
 2735000    1.1539385 4.2559727e-05   0.43181792 0.0003284955            0   0.43148942    1.7020593    2.1338773     5.039288 
 2740000    1.0802276 -3.812224e-05   0.59240279   0.02950927            0   0.56289352    1.5933357    2.1857385  -0.41673968 
 2745000   0.88437128 -5.8600215e-07   0.67322459   0.10362884            0   0.56959574    1.3044476    1.9776722    1.9376678 
 2750000    1.1005435 -0.0001039328   0.53191927  0.011887357            0   0.52003191    1.6233017    2.1552209   -4.9399246 
 2755000    1.1835102 8.3841849e-05   0.59462562  0.018007928            0   0.57661769    1.7456776    2.3403032    8.0639068 
 2760000    1.1066588 -7.755501e-05   0.67959026 0.0012937601            0    0.6782965    1.6323217    2.3119119     -2.98251 
 2765000    1.0802902 -5.8479869e-05   0.70461085 0.00018810077            0   0.70442275     1.593428    2.2980389   -1.6941869 
 2770000    0.9482727 1.309476e-05   0.66139416  0.015498153            0   0.64589601    1.3987022    2.0600964     2.954032 
 2775000    1.0015342 5.4976744e-05   0.48555966 0.0093651609            0    0.4761945     1.477263    1.9628226    5.7159017 
 2780000    1.0066884 -3.6296173e-06   0.38684259  0.018808666            0   0.36803392    1.4848654     1.871708    1.6239261 
 2785000   0.79891447  -7.2382e-05   0.54704162  0.028163201            0   0.51887842    1.1783988    1.7254405   -3.2158374 
 2790000    1.1202156 4.5420332e-05   0.37548318  0.011910111            0   0.36357307     1.652318    2.0278012    5.1284958 
 2795000    1.0864272 -3.1014112e-05   0.42442257 0.0040792054            0   0.42034336    1.6024801    2.0269027 -0.090327396 
 2800000    1.1505695 3.9956045e-05    0.4525112 0.0076374141            0   0.44487379    1.6970901    2.1496013    4.8772673 
 2805000    1.0358011 4.2978403e-05   0.50578979  0.076808965            0   0.42898083    1.5278066    2.0335964    4.9675887 
 2810000   0.93979169 -5.7858327e-05   0.64805599  0.011979776            0   0.63607621    1.3861927    2.0342487   -1.9155464 
 2815000   0.98198103 3.3212834e-05   0.43195515  0.051674212            0   0.38028094     1.448422    1.8803772    4.1477066 
 2820000   0.92350143 -1.6054116e-05   0.52493498  0.039897316            0   0.48503766    1.3621646    1.8870996    0.7911386 
 2825000   0.90039654 2.5025925e-07   0.50486263  0.018670444            0   0.48619219    1.3280849    1.8329475    1.8500319 
 2830000   0.86051077 -9.5015089e-05   0.61815676 0.00097295866            0    0.6171838    1.2692534    1.8874101   -4.5989533 
 2835000    1.0371883 7.9405306e-05   0.32384785  0.031705088            0   0.29214276    1.5298527    1.8537005    7.2744361 
 2840000   0.99729871  9.70134e-05    0.4140421 0.0038179675            0   0.41022413    1.4710156    1.8850577    8.5078391 
 2845000   0.93125419 5.8185617e-06   0.61699369  0.065671398            0    0.5513223    1.3735999    1.9905936    2.3878074 
 2850000    1.1395463 -9.0299288e-05    0.4768013 0.0053474619            0   0.47145383    1.6808309    2.1576322   -4.0067992 
 2855000    1.0150554 -8.0036853e-07    0.3241905 0.0098681597            0   0.31432234    1.4972067    1.8213972    1.7667587 
 2860000    1.2423728 -5.3558956e-05   0.58022344  0.017567013            0   0.56265643    1.8324999    2.4127234   -1.2435681 
 2865000    1.0649764 3.6382903e-05   0.65555786 0.0053273977            0   0.65023046    1.5708402     2.226398    4.7101376 
 2870000   0.98428056 4.8962904e-05   0.61532293  0.038899194            0   0.57642373    1.4518138    2.0671368     5.409671 
 2875000     1.068189 -5.8648889e-05   0.68620146  0.014156794            0   0.67204467    1.5755787    2.2617802    -1.741984 
 2880000   0.98444459 -6.3993357e-05   0.53740426  0.020990471            0   0.51641379    1.4520558      1.98946   -2.3791531 
 2885000   0.93570581 3.1987489e-05   0.54702892 0.0048431501            0   0.54218577    1.3801661     1.927195    4.1108743 
 2890000    1.0695963 -0.00011916078   0.53470418  0.016014873            0   0.51868931    1.5776546    2.1123588   -6.0223502 
 2895000   0.86972421 0.00011152477   0.50328656  0.018713949            0   0.48457261    1.2828432    1.7861298    9.3995538 
 2900000    1.0765377 -8.442911e-05   0.50113642  0.006844802            0   0.49429161    1.5878931    2.0890296   -3.6746644 
 2905000   0.92986698 -4.1036192e-05   0.36399393            0            0   0.36399393    1.3715538    1.7355477   -1.0658563 
 2910000   0.90259459 -9.0906207e-05   0.48277119  0.024106267            0   0.45866493     1.331327    1.8140982   -4.3917655 
 2915000    1.0714374 1.0785725e-05   0.31657615  0.013921993            0   0.30265416    1.5803702    1.8969463    2.6332518 
 2920000    1.1284819 0.00010953071   0.46678318  0.029023059            0   0.43776012    1.6645108     2.131294    9.6085903 
 2925000    1.0257935 -5.1558469e-05   0.47871574 0.0073358443            0   0.47137989    1.5130454    1.9917611   -1.5279637 
 2930000    1.0594414 -4.5922968e-06   0.48626909  0.010163604            0   0.47610549    1.5626761    2.0489452    1.7354444 
 2935000    1.1244847 -4.2146881e-05   0.38454561  0.012759638            0   0.37178597     1.658615    2.0431606  -0.83406653 
 2940000    1.0375399 -2.183307e-05   0.48381583 0.0002913331            0    0.4835245    1.5303713    2.0141871   0.52371618 
 2945000    1.1302594 6.878271e-05   0.59673465  0.035353243            0   0.56138141    1.6671326    2.2638672    6.9594336 
 2950000    1.2925455 1.1368818e-05   0.46381425 0.0068750232            0   0.45693922    1.9065047    2.3703189    3.1464302 
 2955000    1.2128412 2.8421113e-05   0.38497755 0.0026935878            0   0.38228396    1.7889408    2.1739183     4.114133 
 2960000   0.93745907 -3.1856211e-05   0.63143564  0.035771159            0   0.59566448    1.3827521    2.0141878  -0.16052956 
 2965000   0.91249198 -2.0291113e-05   0.52536661     0.109492            0   0.41587461    1.3459257    1.8712923   0.48608566 
 2970000    0.9791631 -3.3992021e-05   0.50595481  0.011010584            0   0.49494423    1.4442656    1.9502204  -0.37030159 
 2975000   0.99852222 -2.5227071e-06    0.4585145  0.025855519            0   0.43265898    1.4728203    1.9313348     1.759118 
 2980000   0.90610195 2.9047793e-05   0.45497891  0.022496727            0   0.43248219    1.3365004    1.7914793    3.7744753 
 2985000    1.0123832 7.195245e-05   0.44056855  0.020686877            0   0.41988168    1.4932652    1.9338338    6.8457877 
 2990000   0.98164175 0.00010651854   0.56326141   0.02566828            0   0.53759313    1.4479216     2.011183    9.2828488 
 2995000   0.92477191 -3.5612065e-05    0.4988555  0.027233502            0   0.47162199    1.3640386    1.8628941  -0.56822293 
 3000000    1.0004239  6.26652e-05   0.52658595 0.0035333423            0    0.5230526    1.4756253    2.0022113    6.2801556 
 3005000   0.90561111 -2.4480151e-05   0.60614051 0.0092328272            0   0.59690768    1.3357764    1.9419169   0.27073857 
 3010000   0.98445105 4.5358771e-05   0.63477858  0.037419074            0   0.59735951    1.4520653    2.0868439    5.1833359 
 3015000    1.0418109 -9.5206436e-05   0.51377323   0.04385085            0   0.46992238     1.536671    2.0504443   -4.4489818 
 3020000    1.0014032 -8.6528723e-05   0.55523434  0.017143346            0   0.53809099    1.4770697     2.032304   -3.8747234 
 3025000      1.00702 -9.2550045e-06   0.44692057  0.016458545            0   0.43046202    1.4853545     1.932275    1.3004667 
 3030000   0.87180652 3.3764074e-05   0.50742844  0.084978727            0   0.42244972    1.2859146    1.7933431    4.0983039 
 3035000   0.83892584 -9.5926201e-05   0.54229531   0.03839604            0   0.50389927    1.2374156    1.7797109   -4.7688511 
 3040000    1.0923566 -1.2100673e-05   0.47569171  0.010458171            0   0.46523354     1.611226    2.0869177    1.2608451 
 3045000   0.96549097 2.0723398e-05   0.47770346  0.026750185            0   0.45095327    1.4240992    1.9018026      3.31652 
 3050000     1.149297 -9.8775772e-06   0.42107814  0.018329504            0   0.40274864    1.6952131    2.1162912    1.4419819 
 3055000    0.9808739 -0.00010793343   0.49522322            0            0   0.49522322     1.446789    1.9420122    -5.426243 
 3060000    1.2124198 3.3828481e-05   0.46885256   0.10481048            0   0.36404207    1.7883193    2.2571718    4.5665295 
 3065000    1.1825962 0.00011101655   0.54132017 0.0062811522            0   0.53503902    1.7443294    2.2856496    9.8643792 
 3070000    1.0680304 1.4469581e-05    0.5777143 0.0012179097            0   0.57649639    1.5753449    2.1530592    3.1408493 
 3075000    1.1232337 5.5691006e-05   0.60879211  0.028848681            0   0.57994342    1.6567696    2.2655618    6.0674011 
 3080000     1.230974 0.00012132228    0.5592188   0.08241495            0   0.47680385    1.8156866    2.3749054    10.657173 
 3085000    1.0321004 -3.9623679e-05   0.74904024    0.0390697            0   0.70997054     1.522348    2.2713883  -0.43358821 
 3090000    1.0700084 1.4516354e-05   0.62522381  0.038593055            0   0.58663075    1.5782623    2.2034862    3.1944692 
 3095000    1.0018209 -3.0430769e-05   0.53911098  0.047463127            0   0.49164785    1.4776859    2.0167969 -0.060610315 
 3100000    1.0136967 2.1361756e-05   0.57391256  0.028391341            0   0.54552122    1.4952027    2.0691152    3.5274111 
 3105000   0.91911326 5.032035e-05   0.45451548  0.022423609            0   0.43209187    1.3556921    1.8102075    5.2454101 
 3110000   0.90470991 -4.2091563e-05   0.46489366 0.0020122402            0   0.46288142    1.3344471    1.7993408     -1.07411 
 3115000    1.0312212 -9.7482004e-05   0.62560449   0.01448059            0    0.6111239    1.5210513    2.1466558   -4.5081157 
 3120000    1.0039164 -5.290444e-05   0.59579007  0.023668565            0    0.5721215    1.4807767    2.0765667   -1.5350431 
 3125000    0.8587078 -7.7169816e-06   0.55423911  0.025626935            0   0.52861217     1.266594    1.8208331    1.2940205 
 3130000   0.77789612 -9.836227e-06    0.6902739  0.089224361            0   0.60104954    1.1473968    1.8376707    1.1661843 
 3135000    1.1556781 6.322568e-05   0.59378674  0.017683645            0   0.57610309    1.7046252    2.2984119    6.6146184 
 3140000    1.0188766 1.1792028e-05    0.6659686  0.056475643            0   0.60949295     1.502843    2.1688116     2.973814 
 3145000     1.153318 -1.4431679e-05   0.51394886 0.0097401381            0   0.50420872     1.701144    2.2150929    1.2298903 
 3150000    1.1291288 -8.9354842e-05   0.51293971  0.011170719            0   0.50176899    1.6654649    2.1784047   -3.9215525 
 3155000   0.97766712 7.0585919e-05   0.55770143 0.0063069365            0    0.5513945     1.442059    1.9997604    6.8184258 
 3160000   0.94477865 8.5939503e-07   0.50117195  0.035770759            0   0.46540119    1.3935485    1.8947205    1.9533885 
 3165000    1.0761603 -7.038254e-06   0.67252472 0.0043278575            0   0.66819686    1.5873365    2.2598612    1.7793831 
 3170000   0.99516147 7.2351522e-05   0.53907112  0.043223172            0   0.49584794    1.4678632    2.0069343    6.9461315 
 3175000    1.1040805 -6.6229534e-05   0.55523597  0.023301824            0   0.53193414    1.6285187    2.1837546   -2.3375149 
 3180000    1.1159057 -8.5857709e-05   0.70692848   0.02879839            0   0.67813009    1.6459609    2.3528894   -3.5083302 
 3185000    1.0739172 5.3891273e-05   0.63711921  0.021321449            0   0.61579776    1.5840279    2.2211471    5.9001247 
 3190000     1.044704 6.7500741e-05   0.62521206  0.025962379            0   0.59924969    1.5409383    2.1661504     6.774201 
 3195000   0.96512941 -4.3185708e-05   0.69581997  0.032816567            0    0.6630034    1.4235659    2.1193858  -0.82875848 
 3200000   0.97985509 -3.211445e-05   0.65004928  0.023250649            0   0.62679863    1.4452863    2.0953355 -0.097010912 
 3205000   0.86824893 -2.0157869e-05   0.55047785  0.022233008            0   0.52824485    1.2806672     1.831145   0.45503452 
 3210000    1.0281469 7.9352172e-05     0.610837  0.058252549            0   0.55258445    1.5165166    2.1273536    7.5444619 
 3215000     1.089564 4.9838106e-05   0.42888534 8.8373732e-06            0    0.4288765    1.6071069    2.0359922    5.4382736 
 3220000    1.1061916 5.6718518e-05   0.41701275  0.018045576            0   0.39896718    1.6316326    2.0486453    5.9206295 
 3225000   0.96596963 3.2391371e-05   0.58468496  0.025421442            0   0.55926352    1.4248052    2.0094902    4.2207411 
 3230000    1.0532576 4.3755683e-05   0.52361638  0.025146828            0   0.49846955     1.553555    2.0771714     5.064226 
 3235000    1.1221848 -3.2183607e-06   0.46970371  0.022432115            0   0.44727159    1.6552225    2.1249262    1.9052195 
 3240000    1.1452053 -4.0272011e-05   0.43374163 0.0033448831            0   0.43039675    1.6891778    2.1229194  -0.62631649 
 3245000   0.94009053 -0.00014290964   0.60047044  0.034088925            0   0.56638152    1.3866335     1.987104    -7.768861 
 3250000    1.0073111 -7.1596468e-05   0.50141867            0            0   0.50141867    1.4857838    1.9872025   -2.9004497 
 3255000   0.96789485 -3.8489451e-05   0.59509798 0.0079443426            0   0.58715363    1.4276449    2.0227429  -0.60480361 
 3260000    1.0664619 -0.00011125514   0.77787167  0.035331861            0   0.74253981    1.5730313     2.350903   -5.2441143 
 3265000     1.255313 8.0832312e-05   0.58416442  0.026106415            0     0.558058    1.8515867    2.4357511    7.9539037 
 3270000    1.2681074 -2.1561172e-05   0.46347159 0.0094508267            0   0.45402076    1.8704584      2.33393   0.86202062 
 3275000    1.0092081 3.5752934e-05   0.49536192  0.042032314            0    0.4533296    1.4885819    1.9839438    4.4246774 
 3280000    1.1287516 -1.9654168e-05    0.3984221  0.011361921            0   0.38706018    1.6649086    2.0633307   0.72160612 
 3285000   0.93016025 -5.0864029e-05   0.61144795 0.0016183221            0   0.60982963    1.3719864    1.9834343   -1.4888834 
 3290000   0.94271682 -5.7574268e-05   0.69350868  0.022412182            0    0.6710965    1.3905073     2.084016   -1.8463874 
 3295000    1.3334188 8.3831478e-05   0.48735539  0.021568557            0   0.46578684    1.9667928    2.4541481    8.1770437 
 3300000    1.0891697 6.2960155e-05   0.49950131  0.029109058            0   0.47039225    1.6065253    2.1060266    6.4041066 
 3305000    1.0312005 -3.4737967e-05   0.58468787  0.022326716            0   0.56236116    1.5210207    2.1057086  -0.26573664 
 3310000    1.1188302 -3.271073e-05   0.59737163  0.014438382            0   0.58293325    1.6502746    2.2476462  0.014593673 
 3315000    1.0991872 4.5936238e-05   0.40528018 0.0029817974            0   0.40229838    1.6213011    2.0265812    5.1624951 
 3320000   0.86344725 -9.9421891e-06   0.65822449  0.052397911            0   0.60582657    1.2735847    1.9318092    1.2530891 
 3325000    1.0742227 -4.1787451e-05    0.6083895  0.002825911            0   0.60556359    1.5844785     2.192868  -0.65982194 
 3330000   0.92916077 2.7067458e-05   0.85735456   0.01154581            0   0.84580875    1.3705121    2.2278667    4.0756719 
 3335000   0.94174021 7.1158715e-05   0.64676098 0.0087389062            0   0.63802207    1.3890668    2.0358278     6.893596 
 3340000    1.1009185 -3.6170112e-05   0.46826313 0.0031329915            0   0.46513014    1.6238548     2.092118    -0.377095 
 3345000    1.2419405 -3.0888582e-05   0.46094548 0.0095108173            0   0.45143466    1.8318622    2.2928077    0.1841472 
 3350000     1.096928 1.7699601e-05    0.5018273  0.058072803            0   0.44375449    1.6179688    2.1197961    3.3280889 
 3355000    1.0664551 -3.002327e-06   0.33772874   0.01170124            0    0.3260275    1.5730213      1.91075    1.7057911 
 3360000     1.045175 -9.3229089e-06    0.4984382   0.02164525            0   0.47679295    1.5416331    2.0400713    1.4036274 
 3365000    1.0338453 -5.2772375e-05   0.38523272 0.00099382731            0   0.38423889    1.5249218    1.9101546   -1.6924395 
 3370000     1.047312 -2.8303857e-05   0.36793692 0.0057094047            0   0.36222752    1.5447852    1.9127221  -0.01948787 
 3375000   0.99925664 -5.7628295e-05   0.61021396   0.11872229            0   0.49149166    1.4739035    2.0841175   -1.8499741 
 3380000    1.0085341 0.00011161193   0.66242826  0.021394888            0   0.64103337    1.4875877     2.150016    9.7693903 
 3385000    1.0055241 -7.9633238e-05   0.61210098  0.028358225            0   0.58374275    1.4831481    2.0952491   -3.3410466 
 3390000    1.0936673 -6.420611e-05   0.36648379  0.012607186            0    0.3538766    1.6131593    1.9796431    -2.403494 
 3395000    1.1873922 -0.00013866153    0.3665877 0.0043360684            0   0.36225164    1.7514035    2.1179912   -7.3479695 
 3400000    1.0286726 3.1049593e-05   0.52436106  0.038362164            0    0.4859989    1.5172921    2.0416532    4.1613054 
 3405000    1.0532845 1.1310892e-05   0.46580982  0.024115456            0   0.44169437    1.5535947    2.0194045    2.7915614 
 3410000    1.0064046 -3.4183681e-05   0.46677427  0.018295992            0   0.44847828    1.4844467     1.951221  -0.38238491 
 3415000    1.0029451 1.2579995e-05   0.58933652 0.00079462159            0    0.5885419    1.4793441    2.0686806    2.9274749 
 3420000   0.94543643 6.687387e-05   0.66657934  0.010325694            0   0.65625365    1.3945187    2.0610981    6.6263543 
 3425000   0.91771661 -7.4729898e-05   0.59219763 0.0096136504            0   0.58258398     1.353632    1.9458296   -3.1557314 
 3430000   0.96448617 -1.2729423e-05   0.54504764  0.032203528            0   0.51284411    1.4226171    1.9676647    1.0986695 
 3435000    1.0043447 -1.0899438e-05    0.4822282 0.00052881497            0   0.48169939    1.4814084    1.9636366    1.2195683 
 3440000    1.0615829 0.00011552057   0.53411586  0.027940932            0   0.50617493    1.5658348    2.0999507    9.9861548 
 3445000    1.0763707 -5.6610399e-06     0.519164   0.04577143            0   0.47339257    1.5876468    2.1068108    1.7203505 
 3450000   0.99813147 4.4939668e-07   0.32073014 0.00029444382            0    0.3204357    1.4722439    1.7929741    1.8236529 
 3455000   0.84459122 9.1031311e-05   0.45076431  0.014962982            0   0.43580133     1.245772    1.6965364    7.9109406 
 3460000   0.91959823 5.3651558e-05   0.54215081 0.0024783196            0   0.53967249    1.3564074    1.8985582    5.5611712 
 3465000    1.1057386 -1.8674954e-05   0.47614967  0.059693032            0   0.41645664    1.6309644    2.1071141   0.83223722 
 3470000     1.071027 -1.2522328e-05   0.45401528 0.0081445953            0   0.44587069    1.5797648    2.0337801    1.1789225 
 3475000    1.0236273 2.4406467e-05   0.41179066   0.03714345            0   0.37464721    1.5098502    1.9216409     3.587789 
 3480000   0.89631289 -1.6036844e-05   0.57267733  0.043316296            0   0.52936104    1.3220615    1.8947389   0.79995696 
 3485000   0.96633347 4.662454e-05   0.58893048  0.040377305            0   0.54855318    1.4253419    2.0142723    5.1971743 
 3490000    1.0887983 0.0001495492   0.60339298 0.0032318293            0   0.60016115    1.6059775    2.2093705    12.418596 
 3495000    1.0477217 -3.4454994e-05    0.5434479  0.014485092            0   0.52896281    1.5453895    2.0888374  -0.26329014 
 3500000   0.98826391 9.1003872e-05   0.61248392  0.014914268            0   0.59756965    1.4576893    2.0701732    8.2827041 
 3505000    1.1371984 9.3360274e-05   0.50892537 0.0027862213            0   0.50613915    1.6773677    2.1862931    8.5596877 
 3510000    1.0006038 -4.6395954e-05   0.47429853  0.013215182            0   0.46108335    1.4758906    1.9501892    -1.217108 
 3515000    1.0161108 6.9422353e-05   0.61086078  0.015472281            0    0.5953885    1.4987635    2.1096242    6.8488569 
 3520000    1.0168055 4.3228155e-06   0.63617334  0.064324153            0   0.57184919    1.4997881    2.1359614    2.4310656 
 3525000    1.0228639 -1.4695768e-05   0.54991212  0.016514889            0   0.53339723    1.5087242    2.0586363    1.0554053 
 3530000   0.82263998 -2.5850324e-05   0.36149432 0.0081780025            0   0.35331631     1.213394    1.5748883  -0.18982718 
 3535000   0.79888272 -5.7274847e-05   0.44978202  0.030361074            0   0.41942095     1.178352     1.628134   -2.2818289 
 3540000    1.0067971 -3.9483621e-06   0.32890247            0            0   0.32890247    1.4850257    1.8139282    1.5443866 
 3545000   0.87240568 -3.0172326e-05   0.55173861 0.0082861012            0   0.54345251    1.2867984     1.838537  -0.22122713 
 3550000   0.96430035 3.7771586e-05   0.83141367   0.13099388            0   0.70041979     1.422343    2.2537567    4.8322969 
 3555000    1.0305029 -5.6620647e-05    0.6013164 0.0096962763            0   0.59162013    1.5199918    2.1213082   -1.7439946 
 3560000    1.0659744 7.2341548e-05   0.64646103  0.053664096            0   0.59279693    1.5723122    2.2187732    7.1572896 
 3565000    1.0758919 -4.6884141e-05   0.63902294   0.01670347            0   0.62231947    1.5869405    2.2259634  -0.97466057 
 3570000    1.1901369 -7.3338533e-05   0.53691733  0.036040521            0   0.50087681     1.755452    2.2923693   -2.7142079 
 3575000    1.0358137 -8.2912575e-05   0.65062305  0.017527223            0   0.63309582    1.5278252    2.1784482   -3.4817169 
 3580000    1.0608963 5.4230154e-05   0.56260228  0.018001213            0   0.54460107    1.5648221    2.1274244    5.8295362 
 3585000     1.082238 9.5495203e-05   0.54097925 0.0038799015            0   0.53709935    1.5963011    2.1372803    8.6564195 
 3590000   0.95724371 2.1350316e-05   0.49087367  0.010438531            0   0.48043514    1.4119345    1.9028082    3.3603231 
 3595000   0.87305883 -0.00013479817   0.60154035  0.050805685            0   0.55073466    1.2877618    1.8893021   -7.3129194 
 3600000   0.81101744 1.5499158e-05   0.50291708  0.016712903            0   0.48620418    1.1962507    1.6991678    2.7572437 
 3605000    0.9318971 -7.2790989e-06   0.56085249 0.0027995134            0   0.55805298    1.3745482    1.9354007    1.4384809 
 3610000    0.9781421 -4.6450592e-05   0.47706303  0.041553867            0   0.43550916    1.4427596    1.9198226   -1.2512045 
 3615000   0.96877634 0.00015127118   0.68285963  0.019565938            0   0.66329369    1.4289451    2.1118047    12.438584 
 3620000     1.129818 0.00015758649   0.56891626 0.0062671436            0   0.56264912    1.6664816    2.2353978    12.993302 
 3625000   0.94259985 9.8619102e-05   0.76265291  0.018625439            0   0.74402747    1.3903348    2.1529877    8.8853851 
 3630000    1.1655849 -5.5774793e-05   0.63376549  0.024449579            0   0.60931591    1.7192377    2.3530032   -1.4545561 
 3635000    1.1765079 0.00012032397   0.71596732  0.012531243            0   0.70343608    1.7353491    2.4513165    10.665433 
 3640000    1.0909567 5.9083113e-05   0.53015693  0.031209026            0    0.4989479    1.6091611     2.139318    6.1727252 
 3645000   0.97654826 -8.5937251e-05   0.46420335 0.0061695806            0   0.45803377    1.4404087     1.904612   -3.9620376 
 3650000   0.89098682 -0.00012676154   0.51975155 0.0013958492            0    0.5183557    1.3142056    1.8339571    -6.819631 
 3655000    0.8510565 0.00010634251   0.45009527  0.010780082            0   0.43931519    1.2553083    1.7054036    8.9650521 
 3660000   0.99226523 -0.00010619122   0.44875783  0.034484764            0   0.41427307    1.4635912     1.912349   -5.3369716 
 3665000    1.0127152 -1.0013544e-05    0.5308068  0.015417029            0   0.51538977     1.493755    2.0245618    1.3409705 
 3670000   0.93154058 7.9113312e-05   0.37844788  0.021270303            0   0.35717758    1.3740224    1.7524702    7.1532724 
 3675000   0.97744147 -1.2697065e-05   0.46421297  0.053379781            0   0.41083319    1.4417262    1.9059391    1.0391528 
 3680000   0.90801586 -2.7647572e-05   0.60856032  0.037391028            0   0.57116929    1.3393234    1.9478837  0.060476127 
 3685000    1.2007769 -1.7650403e-05   0.42647368 0.0031237136            0   0.42334997     1.771146    2.1976197   0.99268549 
 3690000     1.140082 -3.4809724e-05   0.66118149  0.029505398            0    0.6316761     1.681621    2.3428025 -0.033541309 
 3695000   0.86636735 8.3145652e-07   0.56887943  0.022297695            0   0.54658173    1.2778918    1.8467713     1.903532 
 3700000   0.88613004 -4.7865045e-05   0.41082256  0.009109578            0   0.40171298    1.3070418    1.7178644   -1.5497227 
 3705000    1.0446239 -4.2763267e-06   0.47147389  0.028812191            0    0.4426617    1.5408202    2.0122941    1.7203636 
 3710000   0.95586606 -6.3382993e-05   0.47028426  0.018777786            0   0.45150647    1.4099024    1.8801867   -2.4467589 
 3715000    1.0494587 -4.2173695e-05   0.50351557  0.014799238            0   0.48871633    1.5479516    2.0514672  -0.82759044 
 3720000   0.86519024 8.9621426e-05    0.8091331  0.066147769            0   0.74298533    1.2761556    2.0852887    8.2034447 
 3725000    1.0670446 -4.184168e-05   0.51616304 0.0013799764            0   0.51478306    1.5738908    2.0900538  -0.76633819 
 3730000    1.0071266 7.1309034e-05    0.5059211  0.029433159            0   0.47648794    1.4855118    1.9914329     6.859463 
 3735000    1.0519875 -4.2636931e-06   0.43082312 0.0070024025            0   0.42382071    1.5516816    1.9825047    1.6914366 
 3740000    1.0757256 8.6628068e-05   0.40130132 0.0059777439            0   0.39532358    1.5866952    1.9879966     7.901806 
 3745000   0.97932224 5.2650653e-05   0.55300209  0.035813535            0   0.51718856    1.4445003    1.9975024     5.591787 
 3750000    1.1401014 1.6495469e-05   0.74751624    0.0168378            0   0.73067844    1.6816496    2.4291658    3.5552565 
 3755000    1.0556887 3.1220263e-05   0.44896612    0.0493602            0   0.39960592    1.5571408     2.006107    4.1374103 
 3760000    1.0150204 -9.5141035e-06   0.64107998  0.016196992            0   0.62488298    1.4971551    2.1382351    1.4887389 
 3765000   0.95603801 -4.9440977e-05   0.38082738  0.009518402            0   0.37130898    1.4101561    1.7909834   -1.5841873 
 3770000    1.0562681 -1.2546641e-05   0.54081857  0.092472495            0   0.44834608    1.5579955    2.0988141    1.2422967 
 3775000    1.1092955 -3.1231669e-05   0.47494459 0.0044797304            0   0.47046486    1.6362108    2.1111554 -0.020926486 
 3780000    1.0852725 -3.0586025e-06   0.52363675 0.00089631277            0   0.52274043    1.6007769    2.1244137    1.9156131 
 3785000   0.94094079 -2.0539172e-05   0.58978134  0.011126465            0   0.57865488    1.3878877     1.977669   0.57552823 
 3790000   0.84535022 -4.6566559e-05   0.50127604  0.028759787            0   0.47251625    1.2468916    1.7481676   -1.4307761 
 3795000   0.99248331 -3.8915494e-05   0.63266582 0.0075842652            0   0.62508156    1.4639129    2.0965787  -0.56005232 
 3800000   0.96018964 -5.5882709e-05   0.52314868  0.010550058            0   0.51259863    1.4162797    1.9394284   -1.8754979 
 3805000   0.96332758 7.6923896e-05   0.59682655  0.049292249            0    0.5475343    1.4209082    2.0177347    7.2690727 
 3810000   0.88428498 4.5433316e-06    0.4777694  0.026938366            0   0.45083103    1.3043203    1.7820897    2.0922478 
 3815000    1.1182739 -5.4160273e-05   0.49169044 0.0010007829            0   0.49068965     1.649454    2.1411445   -1.5561968 
 3820000   0.92281593 -8.7673658e-05    0.4829854  0.018373553            0   0.46461184    1.3611535    1.8441389   -4.1410495 
 3825000   0.87103222 -8.146112e-05   0.56560139   0.01051537            0   0.55508602    1.2847725    1.8503739   -3.7107052 
 3830000    1.0011437 1.3882081e-05   0.36371398 0.0055644557            0   0.35814953     1.476687     1.840401    2.7880844 
 3835000    1.0861843 -4.6380833e-05   0.45959097  0.013254561            0   0.44633641    1.6021218    2.0617128   -1.1045521 
 3840000    1.1500046 -3.5095565e-06   0.51869854 0.0078880623            0   0.51081047    1.6962568    2.2149553    1.9753696 
 3845000    1.0518583 8.7461116e-05    0.4723708  0.016121822            0   0.45624898     1.551491    2.0238618    7.9945407 
 3850000    1.1609708 1.0068785e-05   0.50770838 0.0054775914            0   0.50223079    1.7124319    2.2201403    2.9075026 
 3855000    1.1805527 -5.4203226e-06   0.51246272  0.021015819            0    0.4914469    1.7413152    2.2537779    1.8837506 
 3860000   0.96866826 0.00013899503   0.55832213 0.0016045933            0   0.55671753    1.4287857    1.9871078    11.475835 
 3865000    1.0050077 1.5142379e-05   0.42476347  0.023671143            0   0.40109232    1.4823863    1.9071498    2.9408696 
 3870000   0.92285713 -5.8978646e-05   0.56778283  0.025123206            0   0.54265962    1.3612143    1.9289971   -2.0972784 
 3875000    1.0278857 -2.6750849e-05   0.47572424 0.0044317182            0   0.47129252    1.5161314    1.9918556   0.16566431 
 3880000    1.1634193 -0.00015452607   0.60842794   0.02825355            0   0.58017439    1.7160434    2.3244714   -8.2245083 
 3885000    1.0704517 6.0567577e-05   0.71100796  0.028891223            0   0.68211674    1.5789162    2.2899242    6.4246708 
 3890000   0.91420097 -3.5483832e-05   0.60648265 0.0092407592            0   0.59724189    1.3484464    1.9549291  -0.46743387 
 3895000    1.1596452 5.442308e-05    0.5942269  0.013698896            0     0.580528    1.7104766    2.3047035    6.0199858 
 3900000    1.0651962 -8.6665957e-05   0.51386914  0.002937834            0   0.51093131    1.5711643    2.0850335   -3.8313625 
 3905000   0.86324457 5.9041171e-06    0.5750506  0.029144846            0   0.54590575    1.2732857    1.8483363    2.2513907 
 3910000    1.0162939 0.00011490478   0.55555603 0.0037093586            0   0.55184668    1.4990336    2.0545896    9.8987562 
 3915000    1.0337443 4.397625e-05   0.50587431  0.033229654            0   0.47264465    1.5247729    2.0306472    5.0327592 
 3920000    1.1515752 -4.3563968e-05   0.48175122   0.01664765            0   0.46510357    1.6985734    2.1803246  -0.79364225 
 3925000   0.86323742 -1.9038448e-05   0.55595317  0.029438612            0   0.52651456    1.2732752    1.8292284   0.52953699 
 3930000   0.90946731 3.5802719e-05   0.60652734            0            0   0.60652734    1.3414643    1.9479916    4.3921239 
 3935000   0.93538248 1.1501594e-05   0.58697455  0.043348803            0   0.54362575    1.3796892    1.9666637    2.7518392 
 3940000    1.1165116 5.4587168e-05   0.37041707    0.0332633            0   0.33715377    1.6468547    2.0172717    5.7437557 
 3945000    1.0962373 8.827493e-06   0.35335671 0.00094915464            0   0.35240755    1.6169501    1.9703068    2.5729303 
 3950000   0.92208516 -5.4524004e-05   0.48341133  0.066595647            0   0.41681568    1.3600756    1.8434869   -1.8786851 
 3955000   0.83180818 -3.1504965e-05   0.40050485  0.036216046            0    0.3642888    1.2269171    1.6274219  -0.52331707 
 3960000   0.96252674 -4.7722117e-05   0.63541681   0.10953604            0   0.52588076    1.4197269    2.0551437   -1.2026861 
 3965000    1.1868232 -9.1092211e-05   0.50595885  0.018809041            0   0.48714981    1.7505642     2.256523   -3.9620386 
 3970000    1.0367601 8.1107892e-05   0.50086395 0.0019267931            0   0.49893716    1.5292211    2.0300851    7.5670505 
 3975000   0.96766563 0.00016973647   0.61221913 0.0073747605            0   0.60484437    1.4273068    2.0395259    13.626869 
 3980000    0.7128644 2.4892985e-07   0.57255238 0.0034200614            0   0.56913232     1.051475    1.6240274     1.641021 
 3985000   0.87161165 3.4434211e-05   0.47128692            0            0   0.47128692    1.2856272    1.7569141    4.1076229 
 3990000    0.9008741 1.9239766e-05   0.45987596  0.026158374            0   0.43371758    1.3287893    1.7886653    3.1020999 
 3995000   0.94006686 -1.2417677e-05    0.5552582 0.0015336923            0   0.55372451    1.3865986    1.9418568    1.0941434 
 4000000     1.168495 4.440975e-05   0.55572832  0.051218594            0   0.50450972    1.7235302    2.2792585    5.3109641 
Loop time of 217.596 on 1 procs for 2000000 steps with 60 atoms

Performance: 794131.413 tau/day, 9191.336 timesteps/s
98.8% CPU use with 1 MPI tasks x no OpenMP threads

MPI task timing breakdown:
Section |  min time  |  avg time  |  max time  |%varavg| %total
---------------------------------------------------------------
Pair    | 0.78901    | 0.78901    | 0.78901    |   0.0 |  0.36
Bond    | 1.9034     | 1.9034     | 1.9034     |   0.0 |  0.87
Neigh   | 184.24     | 184.24     | 184.24     |   0.0 | 84.67
Comm    | 25.355     | 25.355     | 25.355     |   0.0 | 11.65
Output  | 0.043746   | 0.043746   | 0.043746   |   0.0 |  0.02
Modify  | 4.6096     | 4.6096     | 4.6096     |   0.0 |  2.12
Other   |            | 0.6515     |            |       |  0.30

Nlocal:        60.0000 ave          60 max          60 min
Histogram: 1 0 0 0 0 0 0 0 0 0
Nghost:        0.00000 ave           0 max           0 min
Histogram: 1 0 0 0 0 0 0 0 0 0
Neighs:        23.0000 ave          23 max          23 min
Histogram: 1 0 0 0 0 0 0 0 0 0

Total # of neighbors = 23
Ave neighs/atom = 0.38333333
Ave special neighs/atom = 5.8000000
Neighbor list builds = 38228
Dangerous builds = 0
write_restart restart.rerun.1
System init for write_restart ...
WARNING: Communication cutoff 1.4200000000000002 is shorter than a bond length based estimate of 1.8. This may lead to errors. (../comm.cpp:667)
#--------------End of Input file ------------------
Total wall time: 0:03:37
