LAMMPS (29 Oct 2020)
###################### polyelectrolyte complexation ######################
clear

#Initialization
#------------------------------------
units				lj
dimension			3
atom_style			full
boundary			p p p

#Atom Definition
#-------------------------------------
read_restart			restart.equil
Reading restart file ...
  restart file = 29 Oct 2020, LAMMPS = 29 Oct 2020
  restoring atom style full from restart
  orthogonal box = (-80.000000 -80.000000 -80.000000) to (80.000000 80.000000 80.000000)
  1 by 1 by 1 MPI processor grid
  restoring pair style lj/cut from restart
  restoring bond style harmonic from restart
  60 atoms
  59 bonds
Finding 1-2 1-3 1-4 neighbors ...
  special bond factors lj:    0.0      1.0      1.0     
  special bond factors coul:  0.0      0.0      0.0     
     2 = max # of 1-2 neighbors
     2 = max # of 1-3 neighbors
     4 = max # of 1-4 neighbors
     6 = max # of special neighbors
  special bonds CPU = 0.000 seconds
  read_restart CPU = 0.003 seconds

#Force definition
#----------------------------------------------
#Bond definition
bond_style			harmonic
bond_coeff			1 5000 1
#Pair definition
special_bonds	lj 0 1 1
dielectric		80
pair_style		 lj/cut 1.12
pair_modify 		 shift yes
pair_coeff	1 1 1 1 1.12

#Timestep etc
#--------------------------------------------
timestep		0.001
run_style		verlet
velocity		all	create	1	3

#Fix
#---------------------------------------
group polymers type 1
60 atoms in group polymers
fix 1 all nve
fix 2 all langevin 1	1	100	3

#Dump
#------------------------------------------------
compute  1 all gyration
variable  myRg2 equal c_1
variable  i equal step
fix  mythermofile all print 5000 "$i ${myRg2}" file radius_of_gyration.dat screen no

thermo_style		 custom step temp press pe evdwl ecoul ebond ke etotal enthalpy
thermo 	5000
dump	3 all custom 5000 dump.lammpstrj id mol type xu yu zu
run		2000000
Neighbor list info ...
  update every 1 steps, delay 10 steps, check yes
  max neighbors/atom: 2000, page size: 100000
  master list distance cutoff = 1.42
  ghost atom cutoff = 1.42
  binsize = 0.71, bins = 226 226 226
  1 neighbor lists, perpetual/occasional/extra = 1 0 0
  (1) pair lj/cut, perpetual
      attributes: half, newton on
      pair build: half/bin/newton
      stencil: half/bin/3d/newton
      bin: standard
WARNING: Communication cutoff 1.4200000000000002 is shorter than a bond length based estimate of 1.8. This may lead to errors. (../comm.cpp:667)
Per MPI rank memory allocation (min/avg/max) = 54.71 | 54.71 | 54.71 Mbytes
Step Temp Press PotEng E_vdwl E_coul E_bond KinEng TotEng Enthalpy 
 2000000            1 -0.00012130765   0.43871753 0.0060657727            0   0.43265176        1.475    1.9137175   -6.3675516 
 2005000    1.0256709 3.1817129e-05   0.46069341 0.0061568798            0   0.45453653    1.5128646     1.973558    4.1456074 
 2010000    0.9364304 -4.8806074e-05   0.62455133            0            0   0.62455133    1.3812348    2.0057862   -1.3260418 
 2015000    1.0355275 -4.94439e-05   0.46770777  0.010418136            0   0.45728963     1.527403    1.9951108   -1.3802595 
 2020000   0.92921954 -3.4669546e-06   0.65207056  0.023227298            0   0.62884326    1.3705988    2.0226694    1.7859919 
 2025000    1.0391525 -6.0174746e-05   0.46332002  0.026684194            0   0.43663583      1.53275      1.99607   -2.1118593 
 2030000     1.000233 5.9044168e-05   0.48730575  0.026974388            0   0.46033137    1.4753437    1.9626495     5.993398 
 2035000   0.90793366 9.8128553e-05   0.60330562 0.0076593271            0   0.59564629    1.3392021    1.9425078     8.641417 
 2040000   0.89546278 -8.7957605e-06   0.65659506 0.0060976412            0   0.65049742    1.3208076    1.9774027    1.3769454 
 2045000   0.98484817 0.00011726424   0.51458473  0.018696756            0   0.49588797    1.4526511    1.9672358    9.9724746 
 2050000   0.92002772 4.2282492e-05   0.63998562  0.028746328            0   0.61123929    1.3570409    1.9970265    4.8835113 
 2055000    1.1384937 1.1383811e-05   0.53807383  0.024423262            0   0.51365057    1.6792782     2.217352    2.9944868 
 2060000    1.0932122 -3.2113552e-05   0.59827321  0.086686357            0   0.51158685    1.6124879    2.2107611  0.018475993 
 2065000    1.1355321 -3.4707103e-05   0.44866547 0.0046565721            0    0.4440089    1.6749099    2.1235754  -0.24576285 
 2070000    1.0412669 3.8089288e-05    0.5258207  0.028913889            0   0.49690681    1.5358686    2.0616893    4.6619181 
 2075000    1.1031496 -3.0941419e-05   0.45305572  0.032677968            0   0.42037775    1.6271457    2.0802014 -0.032066146 
 2080000    1.0904056 7.6569545e-05   0.48770982  0.036162352            0   0.45154746    1.6083483    2.0960581    7.3232057 
 2085000   0.98734191 -6.391874e-06   0.61749441  0.034759293            0   0.58273512    1.4563293    2.0738237    1.6374718 
 2090000    1.0416795 0.00011071471   0.62461152  0.017217148            0   0.60739437    1.5364772    2.1610887    9.7192129 
 2095000    1.0953647 -4.9240245e-05   0.59872655  0.042086217            0   0.55664033     1.615663    2.2143895   -1.1470779 
 2100000    1.0823672 -9.390303e-05    0.4856212  0.024882374            0   0.46073883    1.5964916    2.0821128   -4.3283341 
 2105000    1.0621615 1.4805428e-05   0.54480321  0.031348351            0   0.51345486    1.5666882    2.1114915    3.1222087 
 2110000    1.0160998 -6.3243926e-05   0.47952169 0.0084974518            0   0.47102424    1.4987472    1.9782689   -2.3391831 
 2115000    1.0120969 0.00013213788   0.52675738  0.035964975            0   0.49079241    1.4928429    2.0196003    11.040213 
 2120000   0.99484628 -7.0628926e-06   0.54188225  0.020431783            0   0.52145046    1.4673983    2.0092805    1.5271204 
 2125000   0.95657599 -3.0931145e-05   0.59156289  0.035526227            0   0.55603666    1.4109496    2.0025125  -0.10905367 
 2130000    1.0649367 1.203665e-06   0.43206952 0.0050875676            0   0.42698195    1.5707816    2.0028511    2.0850213 
 2135000   0.83129646 5.5092397e-05   0.63103158  0.029596938            0   0.60143464    1.2261623    1.8571939    5.6181682 
 2140000   0.90519625 -8.5040626e-05   0.54248957 0.0043027101            0   0.53818686    1.3351645     1.877654    -3.927786 
 2145000   0.90499382 -0.00012519599   0.47214981  0.022816907            0    0.4493329    1.3348659    1.8070157   -6.7396974 
 2150000   0.95056908 0.00013442093   0.50861781  0.019224585            0   0.48939322    1.4020894    1.9107072    11.087176 
 2155000   0.96518997 4.6861966e-05    0.4734898  0.041298513            0   0.43219129    1.4236552     1.897145    5.0962552 
 2160000    1.0150946 1.3020624e-05   0.44324921 0.0084858128            0    0.4347634    1.4972645    1.9405137    2.8293883 
 2165000    1.1349474 -7.4559001e-05   0.32710139  0.012889698            0   0.31421169    1.6740475    2.0011489   -3.0887456 
 2170000    1.0348244 1.3415556e-05   0.54244508  0.023506259            0   0.51893882     1.526366    2.0688111    2.9846464 
 2175000    1.0319863 -4.244779e-05    0.5631379   0.11974488            0   0.44339302    1.5221798    2.0853177  -0.81245147 
 2180000    1.1654281 -3.9774736e-05   0.41180805  0.007591419            0   0.40421664    1.7190065    2.1308146  -0.58447408 
 2185000    1.1727057 -7.2935073e-05   0.54004569  0.022526746            0   0.51751895    1.7297409    2.2697866   -2.7092477 
 2190000    1.1587781 3.4950279e-05   0.50244546            0            0   0.50244546    1.7091977    2.2116432    4.5975822 
 2195000    1.2202588 -8.5203447e-05   0.42592967  0.037141299            0   0.38878837    1.7998818    2.2258114   -3.5907439 
 2200000    1.1688286 -6.4591077e-05   0.49014023  0.030832167            0   0.45930806    1.7240222    2.2141624   -2.1952551 
 2205000    1.1628966 -7.5634961e-05   0.46002886 0.00020225033            0   0.45982661    1.7152726    2.1753014   -2.9880453 
 2210000    1.1430413 -5.9576353e-05   0.53169443 0.0013820934            0   0.53031234    1.6859859    2.2176804   -1.8493986 
 2215000    1.0894016 -2.0679318e-05   0.59051395  0.024327052            0    0.5661869    1.6068674    2.1973814   0.78567323 
 2220000    1.1681868 2.7582939e-05   0.43316928  0.039776109            0   0.39339317    1.7230755    2.1562447      4.03924 
 2225000    1.0988676 -4.5103609e-05   0.58424065   0.01061346            0   0.57362719    1.6208298    2.2050704  -0.87400263 
 2230000    1.1911549 4.9486544e-05   0.40452763   0.02168437            0   0.38284326    1.7569534    2.1614811    5.5397625 
 2235000    1.1455229 -7.907768e-05    0.4352656  0.015481671            0   0.41978393    1.6896463    2.1249119   -3.2734577 
 2240000    1.1438839 -0.00013751999    0.4506896 0.0030064421            0   0.44768315    1.6872287    2.1379183   -7.2501132 
 2245000    1.1003195 -4.5195855e-05   0.49285515 0.0043897653            0   0.48846539    1.6229712    2.1158264    -0.969544 
 2250000    1.0560041 -1.0035434e-05    0.4671207  0.058383512            0   0.40873719     1.557606    2.0247267    1.3396411 
 2255000    1.0892118 -0.00011287173   0.45380148  0.045194301            0   0.40860718    1.6065873    2.0603888   -5.6449877 
 2260000    1.0655793 9.1142107e-05   0.52337744  0.056104686            0   0.46727275    1.5717295    2.0951069    8.3170748 
 2265000    1.0767044 -0.00013352439   0.53306961  0.026849133            0   0.50622047    1.5881389    2.1212085   -6.9940566 
 2270000    1.2149218 0.00010270356   0.42610997  0.025845528            0   0.40026445    1.7920096    2.2181196    9.2293492 
 2275000    1.2255086 -9.3165739e-06   0.45845776  0.033718642            0   0.42473912    1.8076253     2.266083    1.6300716 
 2280000    1.1195977 -4.0703511e-05   0.54770582  0.040700112            0   0.50700571    1.6514066    2.1991124  -0.57958054 
 2285000    1.1549822 0.00011729753   0.54448256 0.0098790683            0   0.53460349    1.7035987    2.2480812    10.255593 
 2290000    1.0824636 -2.4989525e-05   0.57771801  0.015062126            0   0.56265589    1.5966338    2.1743518   0.46840031 
 2295000    1.0500765 -8.9584019e-05    0.4398425  0.050594594            0    0.3892479    1.5488629    1.9887054    -4.126897 
 2300000     1.111081 4.8623156e-05   0.35235963 0.0081015084            0   0.34425812    1.6388445    1.9912041    5.3105449 
 2305000    1.0467759 -2.5475006e-05   0.42691789   0.05759955            0   0.36931834    1.5439944    1.9709123   0.23181856 
 2310000   0.99521364 1.628836e-06   0.49377447  0.060795673            0    0.4329788    1.4679401    1.9617146    2.0729098 
 2315000    1.0545858 1.1437709e-05   0.36371537  0.027010214            0   0.33670515    1.5555141    1.9192294    2.7000437 
 2320000     1.012565 -1.3351893e-06   0.39473084  0.014884467            0   0.37984637    1.4935334    1.8882642    1.7971153 
 2325000   0.93816832 1.8711607e-05   0.38430531 0.00046721666            0   0.38383809    1.3837983    1.7681036    3.0454826 
 2330000   0.82719398 -2.6611843e-06   0.45627487 0.0044288767            0   0.45184599    1.2201111     1.676386    1.4947158 
 2335000   0.90253082 -4.1543345e-06   0.36586034 6.226094e-05            0   0.36579808     1.331233    1.6970933    1.4134907 
 2340000   0.94344668 8.9633113e-05   0.38848492  0.050353539            0   0.33813138    1.3915838    1.7800688    7.8990226 
 2345000    0.9668777 -5.651456e-05   0.39062597  0.020514199            0   0.37011177    1.4261446    1.8167706   -2.0412901 
 2350000    1.0137088 -1.1522489e-05   0.32619806 0.00089009643            0   0.32530796    1.4952204    1.8214185    1.0348166 
 2355000   0.97508905 -4.0561366e-05   0.38418214  0.034671729            0   0.34951041    1.4382564    1.8224385  -0.94655077 
 2360000    1.0676338 3.3607741e-05   0.24471128 0.0081545933            0   0.23655669    1.5747599    1.8194712    4.1137596 
 2365000    0.9883596 -0.00010451991   0.48387739  0.034976169            0   0.44890122    1.4578304    1.9417078   -5.1935182 
 2370000   0.99063899 -0.00012180678    0.3860026 0.00024527248            0   0.38575733    1.4611925    1.8471951   -6.4681479 
 2375000   0.98755802 3.7773876e-05   0.36797955 0.0099565957            0   0.35802295    1.4566481    1.8246276    4.4033242 
 2380000   0.89132289 -2.2858062e-05   0.45397157 0.0043413159            0   0.44963026    1.3147013    1.7686728   0.20822913 
 2385000    1.0173799 -2.0265376e-05   0.32434417 0.0077209345            0   0.31662324    1.5006354    1.8249796   0.44152987 
 2390000   0.88256229 4.3492036e-05   0.53928981  0.020793848            0   0.51849596    1.3017794    1.8410692    4.8101255 
 2395000    1.0537381 4.235381e-05   0.33370495 0.0031103466            0    0.3305946    1.5542637    1.8879687    4.7793221 
 2400000   0.92731524 -4.8681604e-05   0.50425675  0.037416951            0    0.4668398      1.36779    1.8720467   -1.4512841 
 2405000   0.96192539 2.8524873e-05   0.54343999 0.0024085866            0   0.54103141      1.41884      1.96228     3.909578 
 2410000    1.0024764 -1.173086e-05   0.46835276  0.014866039            0   0.45348672    1.4786526    1.9470054    1.1461787 
 2415000   0.92845298 -3.863781e-05   0.51100722  0.057839334            0   0.45316788    1.3694681    1.8804754  -0.75719915 
 2420000   0.99417114 6.2140987e-06   0.48484038  0.019064967            0   0.46577542    1.4664024    1.9512428    2.3754586 
 2425000   0.99568591 0.00010475656   0.53508367  0.033261568            0    0.5018221    1.4686367    2.0037204    9.1551014 
 2430000   0.98887639 7.5133305e-05   0.52810816  0.035176175            0   0.49293199    1.4585927    1.9867008    7.1158011 
 2435000    1.0068214 1.5115326e-05   0.42370475  0.034288068            0   0.38941668    1.4850616    1.9087663    2.9406393 
 2440000    1.0824581 3.0650988e-06   0.33274641 0.0069736404            0   0.32577277    1.5966257    1.9293721    2.1386162 
 2445000   0.88280479 -9.8577031e-05   0.59045788  0.023508793            0   0.56694908    1.3021371    1.8925949   -4.8369304 
 2450000   0.95285961 -9.1013675e-05   0.50950695  0.011229849            0    0.4982771    1.4054679    1.9149749   -4.2982254 
 2455000    1.0069806 -0.00014928461     0.486435  0.016232494            0   0.47020251    1.4852964    1.9717314   -8.2194314 
 2460000   0.96689272 -4.6874296e-05   0.53332985   0.09736666            0   0.43596319    1.4261668    1.9594966   -1.2404554 
 2465000    1.0556619 2.3653149e-06   0.45205346  0.011556991            0   0.44049647    1.5571014    2.0091548     2.170627 
 2470000    0.9709686 8.8537259e-05   0.55247606  0.051029367            0   0.50144669    1.4321787    1.9846547    8.0287983 
 2475000    1.0175932 -3.5227337e-05   0.50153163    0.0359192            0   0.46561243      1.50095    2.0024816  -0.40237124 
 2480000    1.0358216 -9.8984538e-05   0.54478075 0.0079839866            0   0.53679676    1.5278369    2.0726176   -4.6847269 
 2485000   0.97955469 4.8041751e-05   0.58302041  0.068634036            0   0.51438638    1.4448432    2.0278636    5.3075138 
 2490000    1.0120624 -1.8140492e-05   0.48279288 0.0040066414            0   0.47878624    1.4927921     1.975585   0.73719404 
 2495000    1.0554926 -8.6050066e-06   0.36282943 0.00083129053            0   0.36199814    1.5568516     1.919681    1.3322459 
 2500000    1.0358522 -4.8222851e-05   0.45957458  0.052604977            0    0.4069696    1.5278821    1.9874566   -1.3045567 
 2505000   0.99718658 9.1272372e-05   0.45751063  0.015000897            0   0.44250973    1.4708502    1.9283608    8.1592214 
 2510000   0.90955031 -4.5643367e-05   0.48666883  0.010075618            0   0.47659321    1.3415867    1.8282555    -1.287665 
 2515000   0.85354156 -6.0237887e-05   0.53052907  0.029488676            0    0.5010404    1.2589738    1.7895029   -2.3227369 
 2520000   0.85466555 -6.5304685e-05    0.4910347 0.0088323169            0   0.48220239    1.2606317    1.7516664   -2.7064668 
 2525000    0.9556754 -3.6464558e-06   0.33198551 0.0028531566            0   0.32913235    1.4096212    1.7416067    1.4926753 
 2530000   0.85260591 -6.6375629e-06    0.5302043  0.011096588            0   0.51910771    1.2575937     1.787798    1.3346737 
 2535000   0.93427548 -4.2633181e-05   0.39211483  0.027739836            0   0.36437499    1.3780563    1.7701712    -1.140254 
 2540000   0.77317065 -4.9198183e-05   0.66849224  0.013406958            0   0.65508528    1.1404267     1.808919    -1.549677 
 2545000   0.83506916 6.1248935e-05   0.54822055  0.024377216            0   0.52384333     1.231727    1.7799476    5.9612082 
 2550000   0.83200273 4.6994991e-05   0.45738804   0.01797711            0   0.43941093     1.227204    1.6845921    4.8927834 
 2555000   0.78568387 1.0774313e-06   0.59874943  0.020605733            0    0.5781437    1.1588837    1.7576331    1.8311858 
 2560000   0.85613507 -1.0350925e-05   0.49144722  0.013886567            0   0.47756065    1.2627992    1.7542464    1.0476233 
 2565000   0.84761021 -0.00010102734   0.51256654  0.014728145            0   0.49783839    1.2502251    1.7627916   -5.1340081 
 2570000   0.84540518 2.9229189e-05   0.55540115  0.012512056            0    0.5428891    1.2469726    1.8023738    3.7977531 
 2575000   0.89161281 -8.8267374e-05   0.46807985  0.017816203            0   0.45026364    1.3151289    1.7832087   -4.2425107 
 2580000   0.94758878 -2.0133552e-05   0.58902981  0.027391524            0   0.56163829    1.3976935    1.9867233   0.61227277 
 2585000    1.0196099 7.1319514e-06   0.59395423  0.016140281            0   0.57781394    1.5039246    2.0978788    2.5847534 
 2590000   0.91803661 -6.4755178e-05   0.65660715  0.020441399            0   0.63616575     1.354104    2.0107111    -2.409909 
 2595000    1.1537231 6.9322658e-05   0.55305041 0.00015957181            0   0.55289083    1.7017416     2.254792    6.9872188 
 2600000      1.11212 -0.00011763459   0.58202221 0.0050786455            0   0.57694356     1.640377    2.2223992   -5.8081224 
 2605000    1.1278389 0.00010811961   0.49027351 0.0042485402            0   0.48602497    1.6635623    2.1538358    9.5348011 
 2610000    1.1375022 9.2157415e-05   0.41076331  0.022447724            0   0.38831559    1.6778158    2.0885791    8.3798586 
 2615000    1.0343016 -3.8436177e-05   0.56814896  0.015914257            0    0.5522347    1.5255948    2.0937438  -0.53016592 
 2620000    1.1178828 -3.2126861e-05   0.48591736  0.024804306            0   0.46111305    1.6488771    2.1347945 -0.058399216 
 2625000    1.0592095 -9.088669e-05    0.5192453  0.021297542            0   0.49794776     1.562334    2.0815793   -4.1229521 
 2630000     1.055428 -0.00014442652    0.6055851  0.051176003            0    0.5544091    1.5567563    2.1623414    -7.697176 
 2635000    1.0436568 1.4359057e-05   0.57724114  0.011564671            0   0.56567647    1.5393938    2.1166349    3.0968798 
 2640000    1.0406241 7.9598516e-06   0.44868444   0.01650834            0    0.4321761    1.5349205    1.9836049    2.5269975 
 2645000    1.0191318 -1.0315202e-05   0.54384908  0.013967745            0   0.52988133    1.5032194    2.0470685     1.342884 
 2650000    1.0117927 7.9917691e-05   0.63219509  0.085429809            0   0.54676528    1.4923942    2.1245893    7.5803036 
 2655000    1.0050242 -6.7892266e-05   0.56888618  0.030432977            0    0.5384532    1.4824107    2.0512969   -2.5834819 
 2660000     1.043217 4.9561094e-05   0.49993159  0.027099318            0   0.47283227    1.5387451    2.0386767    5.4220474 
 2665000   0.97043755 -0.000130943   0.54438339  0.018055147            0   0.52632825    1.4313954    1.9757788   -6.9632634 
 2670000   0.93529628 -7.9586219e-05   0.38999856  0.013219224            0   0.37677933     1.379562    1.7695606   -3.6635253 
 2675000    0.8576366 -8.3559467e-05   0.57499099   0.06179444            0   0.51319655     1.265014     1.840005   -3.8643213 
 2680000   0.89398929 -1.2903973e-06   0.42436318 0.0026653601            0   0.42169782    1.3186342    1.7429974    1.6549063 
 2685000   0.87983584 9.4736689e-05   0.39441665  0.036655161            0   0.35776148    1.2977579    1.6921745    8.1595325 
 2690000   0.90150901 -6.1657703e-05   0.49923232  0.020226849            0   0.47900547    1.3297258    1.8289581   -2.3802078 
 2695000   0.92096689 -0.00011129692   0.50769578   0.03842577            0   0.46927001    1.3584262    1.8661219   -5.7317475 
 2700000    1.0173357 1.7627895e-05   0.40988551  0.047222215            0   0.36266329    1.5005701    1.9104556    3.1138532 
 2705000   0.87971974 -9.0051539e-05   0.55815952  0.023077447            0   0.53508207    1.2975866    1.8557461   -4.2917723 
 2710000      1.00756 3.3204985e-05   0.48460413            0            0   0.48460413     1.486151    1.9707552    4.2375488 
 2715000   0.95522103 1.5861742e-05   0.48073533  0.009709233            0    0.4710261     1.408951    1.8896864    2.9725146 
 2720000    1.0494457 -4.8340592e-05   0.42764163 0.0016285701            0   0.42601306    1.5479324    1.9755741    -1.324477 
 2725000    1.0492361 6.5901476e-05   0.49673132  0.019547599            0   0.47718372    1.5476232    2.0443545    6.5432286 
 2730000    1.0780597 -8.4555017e-06   0.42013411  0.014521094            0   0.40561301     1.590138    2.0102721    1.4330432 
 2735000   0.99561559 -3.0776205e-05   0.55321265 0.00060447832            0   0.55260817     1.468533    2.0217456  -0.07924332 
 2740000   0.96899027 5.854738e-06    0.6074569 0.0034524042            0   0.60400449    1.4292606    2.0367175     2.436401 
 2745000    1.0407351 1.2016233e-05   0.56683243  0.011914701            0   0.55491773    1.5350843    2.1019167    2.9222249 
 2750000    1.1477173 -1.7405785e-05   0.46053067  0.030851949            0   0.42967872     1.692883    2.1534136   0.96517874 
 2755000    1.1201422 6.0839273e-05   0.52049865  0.012895599            0   0.50760305    1.6522097    2.1727083    6.3260027 
 2760000     1.105589 -7.1465253e-05   0.48729536   0.02235547            0   0.46493989    1.6307438    2.1180392   -2.7606554 
 2765000    1.0419771 -5.0109829e-05   0.50054842  0.023954836            0   0.47659358    1.5369162    2.0374647   -1.3833664 
 2770000    1.1120185 -4.6599352e-05   0.38333175 0.0061546971            0   0.37717705    1.6402273     2.023559   -1.1576234 
 2775000   0.94908653 0.00010963565   0.61946441  0.085362645            0   0.53410177    1.3999026     2.019367    9.5038272 
 2780000    1.0746075 1.0128673e-05   0.49638507  0.010415678            0   0.48596939    1.5850461    2.0814311    2.7728819 
 2785000    1.0471957 5.3013684e-05   0.52679368  0.037511663            0   0.48928202    1.5446136    2.0714073    5.6904748 
 2790000    1.1042582 -2.2994253e-05   0.51091106 0.0059926175            0   0.50491845    1.6287808    2.1396919   0.56995091 
 2795000    1.0454687 -4.7325984e-05   0.50210969  0.054943835            0   0.44716585    1.5420664    2.0441761   -1.1866111 
 2800000    1.0655973 -2.2605388e-05   0.44881774  0.011442462            0   0.43737528     1.571756    2.0205738    0.4773793 
 2805000   0.92864669 7.9953006e-05   0.62851776  0.031447614            0   0.59707014    1.3697539    1.9982716    7.4563968 
 2810000    1.0788642 -3.7334541e-05   0.37166765  0.013591155            0    0.3580765    1.5913247    1.9629923  -0.58571235 
 2815000   0.91256218 -2.4846874e-05   0.52387637            0            0   0.52387637    1.3460292    1.8699056   0.17369231 
 2820000    0.9476365 5.2853004e-05   0.44824714  0.060844057            0   0.38740309    1.3977638     1.846011    5.4541094 
 2825000    0.9797675 -5.0012165e-05   0.36101161  0.026743119            0   0.33426849    1.4451571    1.8061687   -1.6079951 
 2830000   0.89061276 -8.8767703e-05   0.52802626     0.047905            0   0.48012126    1.3136538    1.8416801   -4.2181951 
 2835000   0.87172337 3.4819949e-05   0.44790829  0.026829394            0   0.42107889     1.285792    1.7337003    4.1107421 
 2840000    1.0001573 2.8744398e-05   0.34939154  0.016865271            0   0.33252627     1.475232    1.8246236    3.7869078 
 2845000   0.87797881 -3.7258837e-05   0.51428901  0.013095474            0   0.50119354    1.2950187    1.8093078  -0.73422884 
 2850000   0.90493785 0.00010320098   0.44970434  0.023151897            0   0.42655245    1.3347833    1.7844877    8.8296746 
 2855000   0.99778464 -1.4668887e-06   0.34864573  0.014994538            0   0.33365119    1.4717323    1.8203781    1.7202385 
 2860000   0.98505697 1.9145493e-05   0.43968955 0.0089119141            0   0.43077764     1.452959    1.8926486    3.1996476 
 2865000   0.99501804 -0.00013025675   0.43297871  0.013274243            0   0.41970447    1.4676516    1.9006303   -6.9915639 
 2870000     0.877859 2.5057682e-05   0.49832278 0.0074759796            0    0.4908468     1.294842    1.7931648    3.5037692 
 2875000   0.84161102 2.0306759e-06   0.47536981  0.042021524            0   0.43334829    1.2413762    1.7167461    1.8553735 
 2880000   0.87401603 -3.6044611e-05   0.47236291  0.011975134            0   0.46038777    1.2891736    1.7615366  -0.69910889 
 2885000   0.82588814 1.0774736e-05   0.45820765 0.0010258615            0   0.45718179     1.218185    1.6763927     2.411948 
 2890000   0.83842525 -5.5314986e-05   0.51478574            0            0   0.51478574    1.2366772     1.751463   -2.0247067 
 2895000   0.87579929 0.00011022447   0.46506585 0.0041781003            0   0.46088775     1.291804    1.7568698    9.2815271 
 2900000   0.82722826 0.00011320488   0.58456834  0.012382185            0   0.57218616    1.2201617      1.80473      9.53285 
 2905000   0.88931807 2.8367501e-05   0.45600741 0.0025021616            0   0.45350525    1.3117442    1.7677516    3.7043063 
 2910000   0.96304363 -1.5955843e-05   0.45460707  0.016919719            0   0.43768735    1.4204894    1.8750964   0.78584423 
 2915000    1.0097466 4.6898738e-05   0.46741739  0.004597944            0   0.46281944    1.4893762    1.9567936    5.1584141 
 2920000     1.070823 -6.9326576e-05   0.49589538   0.10197261            0   0.39392277     1.579464    2.0753593   -2.6573349 
 2925000   0.92113052 -0.0001647638   0.53848086  0.014046128            0   0.52443474    1.3586675    1.8971484   -9.3507272 
 2930000    1.0331917 9.6544429e-07   0.42157811  0.024412181            0   0.39716592    1.5239577    1.9455358    2.0114435 
 2935000   0.91691953 -3.275256e-05   0.48570284 0.00064287918            0   0.48505997    1.3524563    1.8381592  -0.39774892 
 2940000   0.89005192 -8.1943424e-06   0.50832581            0            0   0.50832581    1.3128266    1.8211524     1.261752 
 2945000   0.87717018 -8.3544175e-05   0.58150551  0.020242734            0   0.56126277     1.293826    1.8753315   -3.8279508 
 2950000   0.88658023 4.7677531e-05   0.52937465  0.012467802            0   0.51690685    1.3077058    1.8370805    5.0918666 
 2955000   0.81427794 1.7371993e-05   0.45896559 0.0054978681            0   0.45346772      1.20106    1.6600256    2.8459536 
 2960000   0.88236565 9.7973063e-05   0.38490803  0.010073578            0   0.37483446    1.3014893    1.6863974    8.3746918 
 2965000   0.83771665 2.0501077e-05   0.49167488  0.020149545            0   0.47152534    1.2356321    1.7273069    3.1268471 
 2970000   0.81886034 6.550064e-05   0.44644612 0.0087884867            0   0.43765763     1.207819    1.6542651    6.1257755 
 2975000   0.85866398 6.183202e-05   0.41229877    0.0360551            0   0.37624367    1.2665294    1.6788281     5.899894 
 2980000     0.872757 2.5450427e-06    0.3742997  0.022057674            0   0.35224203    1.2873166    1.6616163    1.8353579 
 2985000   0.85363747 -7.6585334e-05   0.42920044  0.010841011            0   0.41835942    1.2591153    1.6883157   -3.5399097 
 2990000   0.88138698 -7.2373593e-05   0.42926205 0.0045703896            0   0.42469166    1.3000458    1.7293078   -3.2113961 
 2995000   0.82467325 -2.5850891e-05   0.47913856  0.032883525            0   0.44625503     1.216393    1.6955316 -0.069222537 
 3000000   0.86973625 4.4744428e-05    0.4173902  0.064147873            0   0.35324232     1.282861    1.7002512    4.7548041 
 3005000   0.93678156 -5.2180043e-05   0.35810367  0.026512006            0   0.33159166    1.3817528    1.7398565   -1.8223011 
 3010000    0.8255361 -8.8964904e-05   0.43861614  0.020182974            0   0.41843317    1.2176657    1.6562819   -4.4170556 
 3015000   0.85395716 -2.5423105e-05   0.46215656  0.013643395            0   0.44851317    1.2595868    1.7217434 -0.013807231 
 3020000   0.91729453 -6.0692187e-06    0.4412466  0.047739004            0   0.39350759    1.3530094     1.794256    1.3799307 
 3025000   0.88877721 2.6288707e-05   0.53809104 0.0024362823            0   0.53565476    1.3109464    1.8490374    3.6436799 
 3030000    0.9640564 -7.8249477e-05   0.48049837  0.049130368            0   0.43136801    1.4219832    1.9024816   -3.4393494 
 3035000    0.8611334 -4.1561669e-05   0.59468931  0.033856237            0   0.56083307    1.2701718    1.8648611  -0.97241554 
 3040000   0.93004761 0.00013742097   0.51315123 0.0029062932            0   0.51024494    1.3718202    1.8849715    11.266243 
 3045000   0.96986845 4.578062e-05    0.4685204  0.046456813            0   0.42206359     1.430556    1.8990764    5.0243667 
 3050000   0.92630073 8.564441e-06   0.57469657 0.0064604674            0    0.5682361    1.3662936    1.9409902     2.525656 
 3055000   0.94737279 2.4955596e-05   0.49980548 0.0020719204            0   0.49773356    1.3973749    1.8971803    3.6008157 
 3060000     0.888316 5.0096116e-05   0.59433787  0.035103154            0   0.55923472    1.3102661     1.904604    5.3244989 
 3065000    0.9323526 5.1532126e-05   0.46347299  0.021505849            0   0.44196714    1.3752201    1.8386931    5.3566196 
 3070000   0.94790915 0.0001385439   0.48781145 0.0023807397            0   0.48543071     1.398166    1.8859774    11.343908 
 3075000   0.98518537 5.1413636e-05   0.42499825 0.0002105135            0   0.42478774    1.4531484    1.8781467    5.3879842 
 3080000   0.98145257 0.00011540986   0.46396883 0.0058515541            0   0.45811728    1.4476425    1.9116114    9.7902578 
 3085000   0.96357702 1.5113286e-05    0.4838404  0.024083061            0   0.45975734    1.4212761    1.9051165    2.9368501 
 3090000   0.92805817 -3.1896766e-05   0.45818953  0.024631102            0   0.43355842    1.3688858    1.8270753  -0.35041056 
 3095000    1.0020089 0.00010265795   0.42757877  0.014496221            0   0.41308255    1.4779631    1.9055419    8.9136577 
 3100000    1.0063248 -0.00011770347   0.50351079  0.019460095            0   0.48405069    1.4843291    1.9878399   -6.0473837 
 3105000      1.00914 -6.7396067e-05    0.5699597  0.061157241            0   0.50880246    1.4884815    2.0584412   -2.5424636 
 3110000    1.0788883 2.8317909e-05   0.40219752   0.05598273            0   0.34621479    1.5913602    1.9935578     3.926727 
 3115000    1.0233479 -4.7348832e-05   0.46612042  0.011930484            0   0.45418994    1.5094381    1.9755586   -1.2567883 
 3120000    1.0168785 1.2823138e-06   0.56302218  0.097039327            0   0.46598285    1.4998959     2.062918    2.1504573 
 3125000    1.1471552 -1.6654149e-05   0.41695327  0.028510114            0   0.38844316     1.692054    2.1090073   0.97208405 
 3130000   0.99577729 -7.0559874e-05   0.56496669  0.032832101            0   0.53213458    1.4687715    2.0337382   -2.7831492 
 3135000    1.0153237 -1.7417517e-05   0.57461429  0.083665525            0   0.49094876    1.4976025    2.0722168   0.88318099 
 3140000    1.0962142 1.6766101e-05   0.52959211  0.023820016            0    0.5057721    1.6169159    2.1465081    3.2910739 
 3145000     1.088156 -6.639418e-05   0.48491741 0.0047032174            0    0.4802142      1.60503    2.0899475   -2.4425619 
 3150000    1.0585177 2.9337954e-05   0.61700014  0.017783048            0   0.59921709    1.5613137    2.1783138    4.1811181 
 3155000    1.1304558 0.00010330204   0.45737726  0.003848569            0   0.45352869    1.6674223    2.1247996    9.1768858 
 3160000   0.93357174 -6.5106696e-05    0.5929058 0.0096643954            0    0.5832414    1.3770183    1.9699241    -2.474693 
 3165000    1.0266355 4.1378663e-05   0.46564613 0.00021401259            0   0.46543212    1.5142873    1.9799334    4.8047168 
 3170000   0.99115248 -0.00011414186   0.46563484  0.036601744            0   0.42903309    1.4619499    1.9275847   -5.8644994 
 3175000    1.0345942 5.9408862e-05   0.43232666 0.0087383014            0   0.42358836    1.5260264    1.9583531     6.013998 
 3180000    1.0922282 7.9322958e-05    0.3401968  0.018992965            0   0.32120383    1.6110366    1.9512334    7.3663473 
 3185000    1.0262354 -0.00012484507    0.4227036 0.0069213175            0   0.41578228    1.5136973    1.9364009   -6.5863562 
 3190000    1.0411067 1.4755804e-05   0.39741671  0.010121642            0   0.38729507    1.5356324    1.9330491    2.9403787 
 3195000   0.90846386 8.9188251e-05   0.60566424 0.0078223038            0   0.59784193    1.3399842    1.9456484    8.0342331 
 3200000    1.0452172 4.1365013e-05   0.49227747  0.045876565            0    0.4464009    1.5416954    2.0339728    4.8578244 
 3205000   0.99946727 7.6096073e-05   0.59454057  0.035068283            0   0.55947229    1.4742142    2.0687548    7.2635801 
 3210000    1.0372008 6.2147206e-05   0.47169813  0.011210343            0   0.46048779    1.5298713    2.0015694     6.244152 
 3215000    1.0469589  2.03609e-05   0.46219853   0.04095991            0   0.42123862    1.5442644    2.0064629    3.3964337 
 3220000    1.0254157 -3.7355535e-05   0.50010741 0.0086198095            0    0.4914876    1.5124881    2.0125955  -0.53754234 
 3225000     1.087586 6.6074437e-05   0.43538533  0.015020217            0   0.42036511    1.6041893    2.0395746    6.5502562 
 3230000    1.0812378 2.7744514e-05    0.5068187  0.020298441            0   0.48652026    1.5948258    2.1016445      3.99567 
 3235000    1.1306837 -1.4498953e-06   0.56080538 0.0069296179            0   0.55387576    1.6677584    2.2285638    2.1295843 
 3240000    1.2139736 -3.3128469e-05   0.38175704            0            0   0.38175704    1.7906111    2.1723681 -0.089202015 
 3245000    1.1334347 -7.3281825e-06   0.47058833 0.0031658698            0   0.46742246    1.6718162    2.1424045    1.6421339 
 3250000    1.0215739 -8.8076308e-05   0.52216366  0.031615814            0   0.49054785    1.5068215    2.0289852   -3.9836908 
 3255000    1.0829428 -8.714064e-05   0.46500021  0.020222444            0   0.44477777    1.5973407    2.0623409   -3.8864601 
 3260000    1.0475232 4.399615e-05   0.41217045  0.027375379            0   0.38479507    1.5450967    1.9572671    4.9607376 
 3265000   0.96004662 -1.6393133e-05   0.45237589  0.041391231            0   0.41098466    1.4160688    1.8684447   0.74934013 
 3270000   0.96592192 -1.8789471e-05   0.40450806 0.0012868016            0   0.40322126    1.4247348    1.8292429   0.54654837 
 3275000    1.0251528 -7.7508558e-06   0.41500662 0.0042908316            0   0.41071579    1.5121003     1.927107    1.3979819 
 3280000    1.0687433 0.00014042902   0.43230912 0.0095537503            0   0.42275537    1.5763963    2.0087055    11.595327 
 3285000   0.94836692 -0.00011950568   0.58218971  0.004504923            0   0.57768479    1.3988412    1.9810309   -6.1772237 
 3290000     1.001572 -5.9013312e-06   0.42945792  0.029055809            0   0.40040211    1.4773187    1.9067766    1.5039124 
 3295000    1.0641971 -0.00010481258   0.42981247  0.025146439            0   0.40466603    1.5696907    1.9995032   -5.1557022 
 3300000     1.118137 1.3038949e-05   0.38714397   0.01457825            0   0.37256572    1.6492521     2.036396    2.9265216 
 3305000    1.0760546 4.4995145e-05   0.30070525 0.00097987656            0   0.29972537    1.5871805    1.8878857    4.9595543 
 3310000   0.97521912 -5.3239234e-05   0.42265592   0.02691919            0   0.39573673    1.4384482    1.8611041   -1.7733609 
 3315000    1.0271477 1.225172e-05   0.37842531 0.0099786637            0   0.36844665    1.5150429    1.8934682    2.7298523 
 3320000    1.1110119 7.6703106e-05   0.41485966  0.021933277            0   0.39292638    1.6387426    2.0536023    7.2898677 
 3325000    1.0799669 -4.3729749e-05   0.45745079 0.0068583942            0    0.4505924    1.5929511    2.0504019  -0.93488224 
 3330000    1.0097465 -2.3314518e-05   0.46943462  0.012735574            0   0.45669905    1.4893761    1.9588107   0.36720626 
 3335000   0.97115885 -0.00010759569   0.49311963 0.00023048106            0   0.49288915    1.4324593    1.9255789   -5.4196203 
 3340000    1.0347704 1.5249494e-06   0.50874338 0.0015155632            0   0.50722781    1.5262863    2.0350296    2.1391329 
 3345000    1.0450934 8.766187e-05   0.43319967   0.05334243            0   0.37985724    1.5415127    1.9747124    7.9590961 
 3350000    1.1440854 -2.251349e-05   0.38861393  0.016770917            0   0.37184301     1.687526    2.0761399   0.53921896 
 3355000    1.0996672 6.2196817e-05   0.43295296  0.069538511            0   0.36341444    1.6220091     2.054962    6.3009314 
 3360000   0.99650903 -0.00010737109    0.4383308  0.022971055            0   0.41535974    1.4698508    1.9081816   -5.4216848 
 3365000    1.0458592 1.6077621e-05   0.45235678 0.0060900235            0   0.44626676    1.5426423    1.9949991    3.0925647 
 3370000    1.1154776 -2.4999499e-06   0.39910698  0.011185643            0   0.38792134    1.6453295    2.0444364    1.8737732 
 3375000   0.97917556 -0.00016139269   0.57723333  0.048529813            0   0.52870352     1.444284    2.0215173   -8.9962234 
 3380000   0.98626226 -9.3766829e-05   0.46061269 0.00091906321            0   0.45969363    1.4547368    1.9153495   -4.4857993 
 3385000   0.98013545 -5.4484543e-05   0.40622728 0.0062149526            0   0.40001233    1.4456998    1.8519271   -1.8675511 
 3390000    1.0130226 7.4039169e-05   0.47565618  0.030038301            0   0.44561788    1.4942083    1.9698645    7.0242718 
 3395000    1.0510338 -9.9970887e-05   0.48878192  0.038835106            0   0.44994681    1.5502749    2.0390568   -4.7856224 
 3400000   0.95586908 5.2229259e-05   0.44006134  0.028118092            0   0.41194324    1.4099069    1.8499682    5.4154856 
 3405000    0.9651302 0.00011111541   0.36028199 0.0039567138            0   0.35632528     1.423567     1.783849    9.3693274 
 3410000   0.89035002 -4.1645778e-05   0.53257372  0.025690558            0   0.50688316    1.3132663      1.84584  -0.99717844 
 3415000   0.92612805 2.7296718e-05   0.51460536 0.0018898567            0    0.5127155    1.3660389    1.8806442    3.7441002 
 3420000    1.0174188 0.00010087732   0.42425587 0.0031115984            0   0.42114428    1.5006927    1.9249486    8.8115072 
 3425000    1.0182342 -9.1901446e-06   0.46524099  0.025071927            0   0.44016907    1.5018954    1.9671364    1.3397559 
 3430000    1.1405253 -3.2196748e-05   0.41321214  0.011779546            0   0.40143259    1.6822748     2.095487  -0.10247767 
 3435000    1.1195781 8.2241149e-05   0.62528913  0.026710175            0   0.59857895    1.6513777    2.2766669     7.890996 
 3440000    1.0744334 0.00010418492   0.61543133   0.03937674            0   0.57605459    1.5847893    2.2002206    9.3125779 
 3445000    1.1730299 6.6283668e-05   0.47253274   0.02553322            0   0.44699952    1.7302192    2.2027519     6.727717 
 3450000    1.0533217 -3.5617145e-05   0.66665923   0.13628892            0   0.53037031    1.5536494    2.2203087  -0.21115508 
 3455000    1.1617129 -6.2476762e-05   0.49272039  0.008951215            0   0.48376918    1.7135265    2.2062469   -2.0588333 
 3460000    1.2247753 5.8952853e-05   0.45167243  0.040321514            0   0.41135091    1.8065436     2.258216    6.2827308 
 3465000    1.2135233 -9.4108302e-05   0.44184494 0.0032109304            0   0.43863401    1.7899469    2.2317918   -4.1926683 
 3470000    1.0434399 -8.2925981e-05   0.67419173  0.033507426            0   0.64068431    1.5390738    2.2132655   -3.4478148 
 3475000    1.2170634 -4.8303402e-05   0.47828885  0.013994028            0   0.46429482    1.7951685    2.2734573   -1.0240549 
 3480000     1.135079 -4.3230918e-05    0.5789127   0.01707277            0   0.56183993    1.6742415    2.2531542  -0.69807644 
 3485000    1.0753339 -6.304201e-05    0.6990141   0.07837737            0   0.62063673    1.5861176    2.2851317   -2.0185362 
 3490000    1.0834935 -0.00010473974   0.73003735  0.050568659            0   0.67946869    1.5981529    2.3281902   -4.8220426 
 3495000    1.0945516 -2.9656082e-05   0.76002303  0.059250574            0   0.70077246    1.6144636    2.3744866   0.34996477 
 3500000    1.0731744 4.8297358e-05   0.63745028  0.015714583            0   0.62173569    1.5829323    2.2203826    5.5174822 
 3505000     1.181896 7.4520881e-05   0.45147728   0.02012381            0   0.43135347    1.7432967    2.1947739    7.2820661 
 3510000    1.1658481 4.0774068e-05    0.3888036 0.0031510564            0   0.38565254     1.719626    2.1084296    4.8919393 
 3515000   0.97825401 7.8277539e-05   0.59491474  0.033213502            0   0.56170124    1.4429247    2.0378394    7.3815861 
 3520000    0.9883468 -5.1365066e-05   0.63280651  0.019417477            0   0.61338904    1.4578115     2.090618   -1.4159038 
 3525000    1.0333638 -2.6667306e-05   0.48838708 0.0093136399            0   0.47907344    1.5242116    2.0125987   0.19211058 
 3530000    1.0474244 -5.742067e-06   0.55652255 0.0013969527            0    0.5551256     1.544951    2.1014736    1.7094818 
 3535000    1.1624281 7.2003259e-05   0.50576609   0.08273582            0   0.42303027    1.7145815    2.2203476      7.13577 
 3540000    1.0475415 2.2545368e-05   0.66368456  0.009334704            0   0.65434985    1.5451237    2.2088083    3.7479054 
 3545000    1.1049093 -4.419067e-05   0.54257512 0.0061743441            0   0.53640078    1.6297412    2.1723163  -0.84443345 
 3550000   0.98927141 -0.00020540444    0.6598636 0.0094742547            0   0.65038934    1.4591753    2.1190389   -11.903237 
 3555000    1.0718881 -5.0715182e-05    0.5684409 0.0051874913            0   0.56325341     1.581035    2.1494759   -1.3126806 
 3560000    1.0283238 5.9506425e-05   0.51735529 0.0069462915            0     0.510409    1.5167777    2.0341329    6.0964383 
 3565000    0.9661986 -0.00010030746   0.71198798 0.00044901925            0   0.71153896    1.4251429    2.1371309   -4.7105252 
 3570000    1.1644457 6.9864703e-05    0.4071537  0.033673005            0   0.37348069    1.7175574    2.1247111    6.8941415 
 3575000    1.1046858 -4.1974236e-05   0.45070077 0.0025927179            0   0.44810805    1.6294116    2.0801124  -0.78532878 
 3580000    1.1213148 2.1336129e-05   0.48730723 0.0020626414            0   0.48524459    1.6539393    2.1412465    3.5977929 
 3585000     1.083284 2.8406324e-05   0.51241527 0.0073213855            0   0.50509389    1.5978438    2.1102591    4.0494641 
 3590000    1.0457849 4.0481384e-05   0.49018968 0.0085810749            0   0.48160861    1.5425327    2.0327224    4.7962515 
 3595000    1.0272339 0.00015103316    0.5475134  0.010203982            0   0.53730942      1.51517    2.0626834    12.373214 
 3600000    1.1789743 3.5809463e-05   0.41548475  0.010908498            0   0.40457625    1.7389871    2.1544719    4.5990645 
 3605000     1.058053 3.2619813e-05   0.56252003  0.030481513            0   0.53203852    1.5606281    2.1231481     4.349994 
 3610000   0.93515843 4.0853438e-05   0.62392427  0.069163201            0   0.55476106    1.3793587    2.0032829    4.7922109 
 3615000    1.0426997 1.6554658e-05   0.50135577  0.017173122            0   0.48418265     1.537982    2.0393378    3.1694691 
 3620000    1.0481868 2.7730053e-05   0.45892237 0.0080662979            0   0.45085607    1.5460756     2.004998    3.8980362 
 3625000    1.0739624 7.8246699e-05   0.50108739 0.0015920272            0   0.49949536    1.5840945    2.0851819    7.4268232 
 3630000    1.0184562 -4.7685726e-05   0.60458226  0.014594591            0   0.58998767    1.5022229    2.1068052   -1.1485403 
 3635000   0.96476234 9.5220308e-06   0.59448412  0.033383483            0   0.56110064    1.4230244    2.0175086    2.6675459 
 3640000   0.90370514 7.2345425e-05   0.66569132  0.014002372            0   0.65168895    1.3329651    1.9986564    6.9374374 
 3645000   0.89848888 9.0096713e-05   0.62468999 0.0044282263            0   0.62026176    1.3252711    1.9499611    8.1005633 
 3650000   0.98562603 4.9864691e-05   0.59098452  0.013990259            0   0.57699426    1.4537984    2.0447829    5.4488792 
 3655000    1.0261774 -1.8247037e-05   0.56632539  0.022764221            0   0.54356117    1.5136117     2.079937   0.83427262 
 3660000    1.0413623 2.0591705e-05   0.57591479  0.059469099            0   0.51644569    1.5360094    2.1119242    3.5176512 
 3665000    1.1579047 -1.6106557e-05   0.39773145  0.016098553            0    0.3816329    1.7079094    2.1056409    1.0060999 
 3670000    1.0747305 4.1268987e-06   0.48249158  0.018400223            0   0.46409136    1.5852275    2.0677191    2.3494487 
 3675000    1.0247883 -7.3008484e-05   0.60910328            0            0   0.60910328    1.5115627     2.120666   -2.8633799 
 3680000   0.90993047 -3.7854092e-05   0.62384389 0.0072921243            0   0.61655176    1.3421474    1.9659913  -0.61818139 
 3685000    1.0482968 -1.2475048e-05   0.52762728  0.018252498            0   0.50937479    1.5462377     2.073865    1.2222351 
 3690000   0.95226348 -4.0097859e-05   0.70618008  0.056183345            0   0.64999674    1.4045886    2.1107687  -0.62657845 
 3695000    1.0906564 -5.2631757e-05   0.54468498 3.3427628e-06            0   0.54468164    1.6087181    2.1534031   -1.4395915 
 3700000    1.1291117 1.1130774e-05   0.49229299  0.023929624            0   0.46836337    1.6654398    2.1577328    2.9175937 
 3705000    1.0782403 9.2007792e-07   0.63518598  0.065587036            0   0.56959895    1.5904045    2.2255905    2.2884011 
 3710000    1.0656495 -4.0224367e-05   0.59425078  0.056495367            0   0.53775542     1.571833    2.1660838  -0.57989972 
 3715000    1.1621686 -1.8582709e-05   0.45264775   0.01696572            0   0.43568203    1.7141987    2.1668464    0.8982668 
 3720000    1.0161352 -3.4132363e-05    0.6144189  0.021100197            0    0.5933187    1.4987995    2.1132184   -0.2168843 
 3725000    1.0357378 -4.0064489e-05   0.53187128 0.00019309879            0   0.53167818    1.5277132    2.0595845  -0.67548459 
 3730000    1.1591547 9.7289055e-05    0.4819073  0.031563002            0    0.4503443    1.7097532    2.1916605    8.8332599 
 3735000    1.1784283 4.3782976e-05   0.45418669  0.024673272            0   0.42951341    1.7381817    2.1923684    5.1812862 
 3740000     1.139359 -7.4686055e-06   0.58062306  0.039313034            0   0.54131003    1.6805545    2.2611776    1.7513208 
 3745000    1.0831349 -5.8908319e-05   0.65025089  0.007172171            0   0.64307872     1.597624    2.2478749   -1.7735997 
 3750000    1.1573534 -5.4628391e-05   0.50798138   0.07021059            0   0.43777079    1.7070962    2.2150776   -1.5142206 
 3755000   0.99681927 -5.0457341e-05   0.69876841   0.02262616            0   0.67614225    1.4703084    2.1690768   -1.2754776 
 3760000    1.0505218 9.0959803e-06   0.59632514 0.0031904445            0   0.59313469    1.5495196    2.1458447     2.766797 
 3765000    1.0436583 -8.2494469e-05   0.62240314            0            0   0.62240314     1.539396    2.1617992   -3.4698232 
 3770000    1.0685114 2.8342205e-05    0.5711189  0.022939444            0   0.54817945    1.5760542    2.1471731     4.082001 
 3775000    1.1388717 8.0009021e-05    0.4011208  0.044819821            0   0.35630098    1.6798357    2.0809565    7.5429057 
 3780000    1.1740779 -2.581546e-05   0.34733348 0.0051250988            0   0.34220838     1.731765    2.0790984   0.31676303 
 3785000    1.0278623 5.7495154e-05   0.54189105  0.036201186            0   0.50568987    1.5160969     2.057988    5.9829905 
 3790000    1.1143722 4.7076779e-05   0.45313785  0.028585887            0   0.42455197     1.643699    2.0968369    5.3106116 
 3795000      1.18522 -8.7666239e-05   0.42693667   0.01530519            0   0.41163148    1.7481995    2.1751362   -3.8095457 
 3800000    1.1541763 3.7318914e-05    0.4431418  0.023331481            0   0.41981032      1.70241    2.1455518    4.6931897 
 3805000    1.0667417 -3.7905973e-05    0.6087533   0.05640797            0   0.55234533     1.573444    2.1821973  -0.40551718 
 3810000     1.151531 4.7980455e-05   0.44237415  0.024958431            0   0.41741571    1.6985082    2.1408823     5.416348 
 3815000    1.2334964 -8.6419242e-06   0.45240065  0.012018295            0   0.44038236    1.8194072    2.2718078    1.6818525 
 3820000    1.2277222 -1.5367741e-05   0.51597342  0.022912677            0   0.49306074    1.8108903    2.3268637    1.2777592 
 3825000    1.1150332 -9.3471625e-05   0.61415835 0.0041142759            0   0.61004407    1.6446739    2.2588323    -4.122164 
 3830000    1.0920759 -9.9532734e-05   0.64587237  0.024342589            0   0.62152979    1.6108119    2.2566843   -4.5380837 
 3835000     1.163344 3.9560368e-05   0.45295961  0.012410116            0   0.44054949    1.7159323    2.1688919    4.8695464 
 3840000   0.97948463 -2.42068e-05   0.67764536 0.0030461399            0   0.67459922    1.4447398    2.1223852   0.46986766 
 3845000    1.0703418 -1.9114453e-05   0.48056179   0.01370674            0   0.46685505    1.5787541    2.0593159    0.7544359 
 3850000   0.93099738 -0.00011199911   0.58960266 1.7019944e-05            0   0.58958564    1.3732211    1.9628238   -5.6829822 
 3855000   0.95745001 -0.00010408164   0.54758379  0.059316446            0   0.48826734    1.4122388    1.9598226   -5.1454842 
 3860000    1.0207026 -6.0255395e-05   0.48353712  0.011049259            0   0.47248786    1.5055363    1.9890734   -2.1243615 
 3865000    1.1125501 -0.00013692615    0.4591678  0.019910837            0   0.43925696    1.6410115    2.1001793   -7.2473123 
 3870000      1.00023 7.3337578e-05   0.59681169  0.041945652            0   0.55486604    1.4753393     2.072151     7.078663 
 3875000    1.0351783 -5.7739994e-05   0.54479047  0.018645958            0   0.52614451    1.5268879    2.0716784   -1.8700386 
 3880000    0.9653638 2.0818642e-05   0.64644896   0.03731875            0   0.60913021    1.4239116    2.0703606    3.4915798 
 3885000    1.0010624 3.3991336e-05    0.6373454 0.0015010824            0   0.63584431     1.476567    2.1139124    4.4343876 
 3890000    1.0926383 1.1706902e-05   0.64714842  0.043956316            0   0.60319211    1.6116415    2.2587899    3.0579811 
 3895000    1.1651064 0.00011151821   0.52480336 0.0087306923            0   0.51607267    1.7185319    2.2433353     9.856312 
 3900000    1.0772252 -3.4880375e-05   0.61826798  0.043080872            0   0.57518711    1.5889072    2.2071752  -0.17399174 
 3905000    1.0973786 -2.8839367e-05   0.56708519  0.024169962            0   0.54291522    1.6186335    2.1857186   0.21695122 
 3910000    1.0427496 8.0028469e-05   0.55334082 0.0029256649            0   0.55041515    1.5380556    2.0913965    7.5546733 
 3915000   0.99753913 3.3329243e-05   0.64755753  0.024746366            0   0.62281117    1.4713702    2.1189278    4.3942041 
 3920000   0.95117111 -2.5994226e-05   0.71357282  0.037795186            0   0.67577764    1.4029774    2.1165502   0.34201108 
 3925000     1.030881 8.9653079e-05   0.55768207  0.033511365            0    0.5241707    1.5205495    2.0782316    8.1985484 
 3930000    1.0741113 4.2054913e-05   0.45339064 0.0070428794            0   0.44634776    1.5843142    2.0377049    4.9086536 
 3935000    1.1384814 4.1698595e-05   0.49342887 0.0063001562            0   0.48712872    1.6792601     2.172689    5.0193131 
 3940000    1.1136566 9.6903851e-06    0.6022645  0.025866418            0   0.57639808    1.6426435     2.244908    2.9064383 
 3945000    1.2419513 5.3992057e-05    0.4510983  0.014665636            0   0.43643266    1.8318782    2.2829765    5.9688343 
 3950000    1.1998223 1.8454904e-05   0.46864111  0.017502897            0   0.45113821     1.769738    2.2383791    3.4982339 
 3955000    1.1181167 -9.1576191e-07    0.5759369  0.011238713            0   0.56469818    1.6492221     2.225159     2.162643 
 3960000    1.1709036 -0.00014937845    0.4730156  0.030064443            0   0.44295115    1.7270828    2.2000984   -7.9974701 
 3965000    1.1475747 1.405562e-05   0.37119197  0.034692422            0   0.33649955    1.6926726    2.0638646    3.0233949 
 3970000    1.0323669 -1.4377698e-05   0.48956405  0.018544314            0   0.47101974    1.5227411    2.0123052    1.0307877 
 3975000    0.9294764 3.8743766e-05   0.49611647  0.029531965            0   0.46658451    1.3709777    1.8670942    4.5120019 
 3980000   0.97635702 6.867365e-05   0.51499293  0.010437937            0   0.50455499    1.4401266    1.9551195    6.6432407 
 3985000   0.99795686 1.0595057e-05   0.45157927  0.029901036            0   0.42167823    1.4719864    1.9235656    2.6468549 
 3990000   0.97404441 -4.0549026e-05    0.4544622  0.029016584            0   0.42544562    1.4367155    1.8911777  -0.87696914 
 3995000    0.9272311 1.4424846e-06   0.51207579 0.0057139317            0   0.50636186    1.3676659    1.8797417    1.9782153 
 4000000   0.78394955 5.2182204e-05   0.63851593  0.046585366            0   0.59193056    1.1563256    1.7948415    5.3571466 
Loop time of 226.111 on 1 procs for 2000000 steps with 60 atoms

Performance: 764225.976 tau/day, 8845.208 timesteps/s
97.9% CPU use with 1 MPI tasks x no OpenMP threads

MPI task timing breakdown:
Section |  min time  |  avg time  |  max time  |%varavg| %total
---------------------------------------------------------------
Pair    | 0.79971    | 0.79971    | 0.79971    |   0.0 |  0.35
Bond    | 1.9346     | 1.9346     | 1.9346     |   0.0 |  0.86
Neigh   | 191.95     | 191.95     | 191.95     |   0.0 | 84.89
Comm    | 26.153     | 26.153     | 26.153     |   0.0 | 11.57
Output  | 0.043719   | 0.043719   | 0.043719   |   0.0 |  0.02
Modify  | 4.5834     | 4.5834     | 4.5834     |   0.0 |  2.03
Other   |            | 0.6516     |            |       |  0.29

Nlocal:        60.0000 ave          60 max          60 min
Histogram: 1 0 0 0 0 0 0 0 0 0
Nghost:        0.00000 ave           0 max           0 min
Histogram: 1 0 0 0 0 0 0 0 0 0
Neighs:        26.0000 ave          26 max          26 min
Histogram: 1 0 0 0 0 0 0 0 0 0

Total # of neighbors = 26
Ave neighs/atom = 0.43333333
Ave special neighs/atom = 5.8000000
Neighbor list builds = 38835
Dangerous builds = 0
write_restart restart.rerun.1
System init for write_restart ...
WARNING: Communication cutoff 1.4200000000000002 is shorter than a bond length based estimate of 1.8. This may lead to errors. (../comm.cpp:667)
#--------------End of Input file ------------------
Total wall time: 0:03:46
