LAMMPS (29 Oct 2020)
###################### polyelectrolyte complexation ######################
clear

#Initialization
#------------------------------------
units				lj
dimension			3
atom_style			full
boundary			p p p

#Atom Definition
#-------------------------------------
read_data			data.complexation
Reading data file ...
  orthogonal box = (-80.000000 -80.000000 -80.000000) to (80.000000 80.000000 80.000000)
  1 by 1 by 1 MPI processor grid
  reading atoms ...
  80 atoms
  scanning bonds ...
  1 = max bonds/atom
  reading bonds ...
  79 bonds
Finding 1-2 1-3 1-4 neighbors ...
  special bond factors lj:    0.0      0.0      0.0     
  special bond factors coul:  0.0      0.0      0.0     
     2 = max # of 1-2 neighbors
     2 = max # of 1-3 neighbors
     4 = max # of 1-4 neighbors
     6 = max # of special neighbors
  special bonds CPU = 0.000 seconds
  read_data CPU = 0.002 seconds

#Force definition
#----------------------------------------------
#Bond definition
bond_style			harmonic
bond_coeff			1 5000 1
#Pair definition
special_bonds	lj 0 1 1
Finding 1-2 1-3 1-4 neighbors ...
  special bond factors lj:    0.0      1.0      1.0     
  special bond factors coul:  0.0      0.0      0.0     
     2 = max # of 1-2 neighbors
     2 = max # of 1-3 neighbors
     4 = max # of 1-4 neighbors
     6 = max # of special neighbors
  special bonds CPU = 0.000 seconds
pair_style		 lj/cut 1.12
pair_modify 		 shift yes
pair_coeff	1 1 1 1 1.12

#Timestep etc
#--------------------------------------------
timestep		1e-05
run_style		verlet
velocity		all	create	1	12

#Fix
#---------------------------------------
group polymers type 1
80 atoms in group polymers
fix 1 all nve
fix 2 all langevin 1	1	10	12
fix 3 polymers recenter INIT INIT INIT units box

#Dump
#------------------------------------------------
compute  1 all gyration
variable  myRg2 equal c_1
variable  i equal step
fix  mythermofile all print 5000 "$i ${myRg2}" file radius_of_gyration.dat screen no

thermo_style		 custom step temp press pe evdwl ecoul ebond ke etotal enthalpy
thermo 	5000
dump	3 all custom 5000 dump.lammpstrj id mol type xu yu zu
run		20000000
Neighbor list info ...
  update every 1 steps, delay 10 steps, check yes
  max neighbors/atom: 2000, page size: 100000
  master list distance cutoff = 1.42
  ghost atom cutoff = 1.42
  binsize = 0.71, bins = 226 226 226
  1 neighbor lists, perpetual/occasional/extra = 1 0 0
  (1) pair lj/cut, perpetual
      attributes: half, newton on
      pair build: half/bin/newton
      stencil: half/bin/3d/newton
      bin: standard
WARNING: Communication cutoff 1.4200000000000002 is shorter than a bond length based estimate of 1.8. This may lead to errors. (../comm.cpp:667)
Per MPI rank memory allocation (min/avg/max) = 54.71 | 54.71 | 54.71 Mbytes
Step Temp Press PotEng E_vdwl E_coul E_bond KinEng TotEng Enthalpy 
       0            1 1.9287109e-05            0            0            0            0      1.48125      1.48125      2.46875 
    5000   0.79637986 -0.00032744494   0.30914727            0            0   0.30914727    1.1796377    1.4887849   -15.276396 
   10000   0.45623179 -0.00065116956   0.79879266            0            0   0.79879266   0.67579333     1.474586   -31.865295 
   15000   0.73157002 -0.00027841201   0.40391489            0            0   0.40391489    1.0836381     1.487553   -12.767142 
   20000   0.73172727 -0.00019343194   0.38684618            0            0   0.38684618     1.083871    1.4707172   -8.4329984 
   25000   0.57009679 -0.00054033341   0.62644519            0            0   0.62644519   0.84445586    1.4709011    -26.19417 
   30000   0.76015728 -0.00026352368   0.36863221            0            0   0.36863221     1.125983    1.4946152   -11.997797 
   35000   0.78133177 -2.3569464e-05   0.34089002            0            0   0.34089002    1.1573477    1.4982377   0.29148114 
   40000   0.73920476 -0.00010328807   0.40242997            0            0   0.40242997     1.094947     1.497377   -3.7909723 
   45000   0.69225914 -0.00039790317   0.47114799            0            0   0.47114799    1.0254089    1.4965568   -18.876086 
   50000   0.81108751 -4.4005998e-05   0.30269448            0            0   0.30269448    1.2014234    1.5041179  -0.74898921 
   55000   0.81659728 0.00015371343   0.30843379            0            0   0.30843379    1.2095847    1.5180185    9.3881461 
   60000   0.80937566 -3.3589381e-05   0.31562743            0            0   0.31562743    1.1988877    1.5145151  -0.20526118 
   65000   0.79073517 -0.00018642564   0.33606739            0            0   0.33606739    1.1712765    1.5073439    -8.037649 
   70000   0.79602607 -4.6716983e-05   0.32003973            0            0   0.32003973    1.1791136    1.4991534  -0.89275619 
   75000    0.8489045 5.1344585e-05   0.23984744            0            0   0.23984744    1.2574398    1.4972872      4.12613 
   80000   0.84981575 2.647934e-05   0.26150125            0            0   0.26150125    1.2587896    1.5202908     2.876033 
   85000   0.76428434 -0.0001005388   0.38590575            0            0   0.38590575    1.1320962    1.5180019   -3.6295846 
   90000   0.82611724 -0.00011790409   0.32252236            0            0   0.32252236    1.2236862    1.5462085   -4.4904811 
   95000   0.80350923 -2.4638828e-06   0.35523285            0            0   0.35523285     1.190198    1.5454309    1.4192801 
  100000   0.81891522 0.00011967803    0.3256656            0            0    0.3256656    1.2130182    1.5386838    7.6661987 
  105000   0.78452838 -0.00012349392   0.35841685            0            0   0.35841685    1.1620827    1.5204995   -4.8023891 
  110000   0.80154018 -0.00013984808   0.32475366            0            0   0.32475366    1.1872814    1.5120351   -5.6481865 
  115000   0.77475604 9.334351e-05   0.36689854            0            0   0.36689854    1.1476074    1.5145059    6.2936936 
  120000   0.83331274 2.2305372e-05   0.26996459            0            0   0.26996459    1.2343445    1.5043091    2.6463442 
  125000   0.76866331 -0.00018861586   0.39209737            0            0   0.39209737    1.1385825    1.5306799    -8.126452 
  130000   0.73617182 0.00012464953   0.43743797            0            0   0.43743797    1.0904545    1.5278925    7.9099486 
  135000    0.8008856 3.4009879e-05   0.32073446            0            0   0.32073446    1.1863118    1.5070463     3.248352 
  140000   0.78224046 -0.00013808645   0.35102057            0            0   0.35102057    1.1586937    1.5097143   -5.5603122 
  145000   0.83600013 3.8978527e-05   0.26028501            0            0   0.26028501    1.2383252    1.4986102    3.4943108 
  150000    0.7492251 -3.3838215e-05   0.40360132            0            0   0.40360132    1.1097897     1.513391  -0.21912562 
  155000    0.8281135 6.5288033e-05   0.29251206            0            0   0.29251206    1.2266431    1.5191552    4.8619024 
  160000   0.77095515 -1.781329e-05   0.38041116            0            0   0.38041116    1.1419773    1.5223885   0.61034802 
  165000    0.7999845 -5.1975908e-05   0.32399744            0            0   0.32399744     1.184977    1.5089745    -1.152192 
  170000   0.74836733 9.1939526e-05   0.38737743            0            0   0.38737743    1.1085191    1.4958965    6.2032003 
  175000   0.73616977 -3.0731857e-05   0.39176833            0            0   0.39176833    1.0904515    1.4822198 -0.091251286 
  180000   0.74060045 -8.38532e-05   0.37101931            0            0   0.37101931    1.0970144    1.4680337   -2.8252501 
  185000   0.76557266 0.00011295494   0.35264121            0            0   0.35264121    1.1340045    1.4866457    7.2699388 
  190000   0.74898871 -4.1757244e-05   0.36619107            0            0   0.36619107    1.1094395    1.4756306   -0.6623403 
  195000   0.79503537 -0.00010856009   0.30962309            0            0   0.30962309    1.1776461    1.4872692   -4.0710073 
  200000   0.75856417 0.00017912169   0.35214313            0            0   0.35214313    1.1236232    1.4757663    10.646797 
  205000   0.74681118 -9.7713252e-05   0.36341166            0            0   0.36341166    1.1062141    1.4696257   -3.5332928 
  210000   0.72755461 -7.8475896e-05   0.38377782            0            0   0.38377782    1.0776903    1.4614681   -2.5564978 
  215000   0.76466853  0.000103241   0.33135469            0            0   0.33135469    1.1326653      1.46402    6.7499592 
  220000   0.73648943 -4.9778944e-05   0.33943815            0            0   0.33943815     1.090925    1.4303631   -1.1183188 
  225000   0.72522642 2.6293324e-06   0.36970367            0            0   0.36970367    1.0742416    1.4439453    1.5785671 
  230000   0.71211354 7.2400124e-05   0.38161934            0            0   0.38161934    1.0548182    1.4364375    5.1433238 
  235000   0.72215758 2.3733121e-05   0.36775933            0            0   0.36775933    1.0696959    1.4374552     2.652591 
  240000   0.72351242 -0.00010475358   0.35201946            0            0   0.35201946    1.0717028    1.4237222   -3.9396611 
  245000   0.69627909 2.6536142e-05   0.36859611            0            0   0.36859611    1.0313634    1.3999595      2.75861 
  250000   0.77011372 7.4468084e-05   0.25013902            0            0   0.25013902    1.1407309      1.39087    5.2036359 
  255000   0.76750129 -0.00015627547   0.26830674            0            0   0.26830674    1.1368613     1.405168   -6.5961361 
  260000   0.73176239 0.0001663152   0.34197891            0            0   0.34197891     1.083923    1.4259019    9.9412403 
  265000   0.75271864 -0.00013169356   0.33407554            0            0   0.33407554    1.1149645      1.44904   -5.2936701 
  270000   0.71553467 6.3273643e-05   0.37553108            0            0   0.37553108    1.0598857    1.4354168    4.6750274 
  275000   0.75885902 -9.2825192e-05   0.34062798            0            0   0.34062798    1.1240599    1.4646879   -3.2879619 
  280000   0.73004665 0.00020524911   0.38305126            0            0   0.38305126    1.0813816    1.4644329    11.973187 
  285000   0.77871933 -0.00017126919   0.33646379            0            0   0.33646379     1.153478    1.4899418   -7.2790409 
  290000    0.7806633 0.00013726879   0.34569948            0            0   0.34569948    1.1563575     1.502057    8.5302193 
  295000   0.72067607 -3.1482954e-05     0.413111            0            0     0.413111    1.0675014    1.4806124  -0.13131482 
  300000   0.72033252 -7.4533378e-05    0.4197169            0            0    0.4197169    1.0669925    1.4867095   -2.3293995 
  305000   0.78600473 0.00016659354   0.33564035            0            0   0.33564035    1.1642695    1.4999099    10.029499 
  310000   0.77914167 -7.687108e-05   0.37850299            0            0   0.37850299    1.1541036    1.5326066   -2.4031927 
  315000   0.78389835 -2.0989179e-05   0.35900521            0            0   0.35900521    1.1611494    1.5201546   0.44550868 
  320000   0.78014983 0.00010820751   0.35880275            0            0   0.35880275    1.1555969    1.5143997    7.0546242 
  325000   0.77278753 -0.00012038065   0.41624705            0            0   0.41624705    1.1446915    1.5609386   -4.6025508 
  330000    0.8058437 0.00011760511   0.39964932            0            0   0.39964932     1.193656    1.5933053    7.6146867 
  335000   0.81122928 -7.3540125e-05   0.39953643            0            0   0.39953643    1.2016334    1.6011698   -2.1640846 
  340000   0.79608508 -9.088999e-05   0.39861932            0            0   0.39861932     1.179201    1.5778204   -3.0757471 
  345000   0.83834998 6.1076587e-05   0.33620889            0            0   0.33620889    1.2418059    1.5780148     4.705136 
  350000   0.83146091 -7.563967e-05    0.3666738            0            0    0.3666738    1.2316015    1.5982753   -2.2744758 
  355000   0.80328198 6.8596935e-05   0.40600402            0            0   0.40600402    1.1898614    1.5958655    5.1080285 
  360000   0.81450728 -6.9405767e-06   0.38288665            0            0   0.38288665    1.2064889    1.5893756     1.234018 
  365000   0.78546266 -0.00016486878   0.40604299            0            0   0.40604299    1.1634666    1.5695096    -6.871772 
  370000   0.83974533 0.00016347174   0.31658451            0            0   0.31658451    1.2438728    1.5604573    9.9302104 
  375000   0.75272985 -0.00015410783   0.43911394            0            0   0.43911394    1.1149811     1.554095   -6.3362261 
  380000   0.76925146 9.3546044e-05   0.40988486            0            0   0.40988486    1.1394537    1.5493386    6.3388961 
  385000   0.79040063 -3.596531e-05   0.38878916 0.0002744864            0   0.38851468    1.1707809    1.5595701  -0.28185377 
  390000   0.73927337 4.3613864e-05   0.46862923 0.00017976682            0   0.46844946    1.0950487    1.5636779    3.7967077 
  395000   0.76362187 -0.00021620197   0.42579752 0.00025226568            0   0.42554526    1.1311149    1.5569124   -9.5126287 
  400000   0.76104199 0.00014853891   0.42984991 0.00027192008            0   0.42957799    1.1272935    1.5571434    9.1623354 
  405000   0.73667821 -0.00017708666   0.45505455 0.0004033643            0   0.45465118    1.0912046    1.5462591   -7.5205781 
  410000   0.79238457 0.00013113789   0.42049071 0.00028549459            0   0.42020522    1.1737196    1.5942104    8.3084705 
  415000   0.80752471 -0.00012518697   0.40728363 6.6068229e-05            0   0.40721756     1.196146    1.6034296   -4.8061434 
  420000   0.85569757 0.00010817824   0.35305964            0            0   0.35305964     1.267502    1.6205617    7.1592877 
  425000   0.77216053 -0.00012145592   0.44420388            0            0   0.44420388    1.1437628    1.5879667   -4.6305763 
  430000   0.80502055 -1.1355714e-05   0.39887286            0            0   0.39887286    1.1924367    1.5913096     1.009897 
  435000   0.84727197 7.0060164e-05    0.3443864            0            0    0.3443864    1.2550216     1.599408    5.1864884 
  440000   0.83665005 -8.5480748e-05   0.38337919            0            0   0.38337919    1.2392879    1.6226671   -2.7539472 
  445000   0.81255418 8.3181832e-05   0.40368152 2.0097409e-06            0   0.40367951    1.2035959    1.6072774    5.8661872 
  450000   0.81114276 -0.00017704745   0.42045338 0.00021324978            0   0.42024013    1.2015052    1.6219586    -7.442871 
  455000   0.85314218 9.6084449e-05   0.36245652 0.0010781705            0   0.36137835    1.2637169    1.6261734    6.5456972 
  460000   0.79555737 7.431697e-06   0.44647248 0.00099465774            0   0.44547782    1.1784193    1.6248918    2.0053947 
  465000    0.7848908 -3.7705043e-07   0.45367814 0.00070558817            0   0.45297255    1.1626195    1.6162976    1.5969927 
  470000    0.8333858 4.0817215e-05    0.3770766 0.00026432029            0   0.37681228    1.2344527    1.6115293    3.7013707 
  475000   0.79988195 3.5081204e-05   0.42660512 6.5791653e-05            0   0.42653932    1.1848251    1.6114303    3.4075879 
  480000   0.82056631 2.1817978e-05   0.38898083            0            0   0.38898083    1.2154638    1.6044447    2.7215252 
  485000   0.82359113 3.437492e-05   0.37331375 0.00029285151            0    0.3730209    1.2199444    1.5932581     3.353254 
  490000   0.82149671 -2.3256303e-05   0.34710541 0.0015611675            0   0.34554424     1.216842    1.5639474   0.37322472 
  495000   0.80372905 3.6367556e-05   0.36999693 0.0027669792            0   0.36722995    1.1905237    1.5605206    3.4225395 
  500000   0.80405295 8.634417e-06   0.40750848  0.003888765            0   0.40361972    1.1910034    1.5985119    2.0405941 
  505000   0.82743226 5.0565514e-05   0.37276656 0.0012772766            0   0.37148928     1.225634    1.5984006    4.1873549 
  510000   0.80128155 -7.385962e-05   0.38430677            0            0   0.38430677    1.1868983    1.5712051   -2.2104075 
  515000    0.7603669 2.1091841e-05   0.44401456            0            0   0.44401456    1.1262935     1.570308    2.6502103 
  520000   0.78796514 -0.0001615953   0.39770041            0            0   0.39770041    1.1671734    1.5648738   -6.7088054 
  525000   0.73963376 -6.9325078e-07   0.49707913 1.5868755e-05            0   0.49706326    1.0955825    1.5926616    1.5571672 
  530000   0.80550769 -7.4127859e-05    0.4084407  0.001242928            0   0.40719778    1.1931583     1.601599   -2.1937474 
  535000   0.76271293 -6.7523984e-05   0.50203186 0.0032744501            0   0.49875741    1.1297685    1.6318004   -1.8254276 
  540000   0.81203844 3.7784765e-06   0.43892856 0.0036420527            0   0.43528651    1.2028319    1.6417605    1.8352185 
  545000    0.8306004 1.3027189e-05   0.40965887 0.0034092809            0   0.40624959    1.2303268    1.6399857    2.3069778 
  550000   0.80329117 -2.0843692e-06   0.43525432 0.0049529821            0   0.43030134     1.189875    1.6251294    1.5184097 
  555000   0.78952989 -8.0197921e-05   0.47940689  0.001882876            0   0.47752402    1.1694911     1.648898   -2.4572355 
  560000    0.8233123 2.682279e-05   0.44903803 4.5089524e-05            0   0.44899294    1.2195313    1.6685694    3.0418962 
  565000   0.85974714 -3.8083691e-06   0.39955249  0.001545987            0    0.3980065    1.2735005    1.6730529    1.4780644 
  570000   0.81758699 -2.1108952e-06   0.47848777  0.015377596            0   0.46311017    1.2110507    1.6895385    1.5814607 
  575000   0.84880274 1.0592585e-05   0.42184849  0.015418398            0    0.4064301    1.2572891    1.6791376    2.2214779 
  580000   0.86148872 7.0276201e-05   0.37794673 0.0042417892            0   0.37370494    1.2760802    1.6540269    5.2521684 
  585000   0.88419531 -2.6223435e-05   0.34106315 0.00084207243            0   0.34022108    1.3097143    1.6507775   0.30813759 
  590000   0.85097213 -1.052218e-05   0.39172462            0            0   0.39172462    1.2605025    1.6522271    1.1134915 
  595000   0.80653117 -5.8329351e-05   0.45005856            0            0   0.45005856    1.1946743    1.6447329   -1.3417299 
  600000   0.83285819 4.6133454e-05   0.40708315            0            0   0.40708315    1.2336712    1.6407544    4.0027872 
  605000   0.85163311 4.1047167e-06   0.35428639 1.2642297e-05            0   0.35427375    1.2614815    1.6157679    1.8259294 
  610000   0.78877575 8.3623223e-06   0.43316568 0.0031459169            0   0.43001977    1.1683741    1.6015398    2.0296907 
  615000   0.74828473 -1.6932155e-05   0.49512822   0.01000997            0   0.48511825    1.1083968     1.603525   0.73659866 
  620000   0.85418265 7.2969264e-05   0.33947444  0.006426433            0   0.33304801     1.265258    1.6047325    5.3407588 
  625000   0.80669489 -4.2625925e-05   0.41669731 0.0011457057            0    0.4155516    1.1949168    1.6116141  -0.57083323 
  630000   0.73777586 2.8447248e-05   0.50186243            0            0   0.50186243    1.0928305    1.5946929     3.051192 
  635000   0.79725636 4.1783741e-06   0.41054275            0            0   0.41054275     1.180936    1.5914787    1.8054115 
  640000   0.78749596 -5.7977186e-06   0.41473071            0            0   0.41473071    1.1664784    1.5812091    1.2843659 
  645000   0.77153104 -2.7417434e-05   0.44555843            0            0   0.44555843    1.1428304    1.5883888   0.18461619 
  650000     0.794854 -8.1356672e-05   0.40618378            0            0   0.40618378    1.1773775    1.5835613   -2.5819004 
  655000   0.82511761 0.00010039093   0.36442382 5.7979473e-05            0   0.36436584    1.2222055    1.5866293    6.7266449 
  660000   0.77583467 -6.5183767e-05   0.43673438 0.00031193526            0   0.43642244    1.1492051    1.5859395   -1.7514694 
  665000   0.74395254 -5.244795e-05   0.47866681 0.00046369847            0   0.47820311    1.1019797    1.5806465   -1.1046886 
  670000   0.80880998 5.0985254e-05   0.41078943 0.0001416999            0   0.41064773    1.1980498    1.6088392    4.2192842 
  675000   0.73589473 -0.00012467385   0.52378369 4.6193436e-06            0   0.52377907    1.0900441    1.6138278   -4.7694736 
  680000   0.79663322 0.00010347297   0.43774954 0.00018604518            0   0.43756349     1.180013    1.6177625    6.9155788 
  685000   0.82254762 -3.2353852e-05   0.38708728 0.0008850931            0   0.38620219    1.2183987    1.6054859 -0.051031251 
  690000   0.76899347 0.00015827064   0.46900428 0.00059928223            0   0.46840499    1.1390716    1.6080758    9.7115326 
  695000   0.82976333 1.3303198e-05   0.38350247 0.00034183154            0   0.38316064    1.2290869    1.6125894    2.2937132 
  700000   0.85470831 -7.1588282e-05   0.34586969 9.9050695e-05            0   0.34577064    1.2660367    1.6119064   -2.0534137 
  705000   0.82339779 -0.00011294128   0.40599309            0            0   0.40599309     1.219658    1.6256511   -4.1569424 
  710000     0.795832 -3.322386e-05   0.48537868            0            0   0.48537868    1.1788261    1.6642048   -0.0368568 
  715000   0.87512478 0.00015244643   0.35223632 0.0038962161            0    0.3483401    1.2962786    1.6485149    9.4537722 
  720000   0.77066605 -3.9219305e-05   0.48190167  0.011964603            0   0.46993707    1.1415491    1.6234508  -0.38457769 
  725000   0.75295949 0.0001780112   0.46947604 0.0060222687            0   0.46345377    1.1153213    1.5847973    10.698971 
  730000   0.76498801 3.3910568e-05   0.48827656 7.2532739e-05            0   0.48820402    1.1331385     1.621415    3.3576361 
  735000   0.81877175 1.6230212e-05   0.40899465 0.00024881116            0   0.40874584    1.2128057    1.6218003    2.4527871 
  740000   0.76728609 -0.00010392458   0.47869569 0.00044035765            0   0.47825533    1.1365425    1.6152382   -3.7057001 
  745000   0.83056128 5.6931279e-05   0.40348495 0.00033187805            0   0.40315307    1.2302689    1.6337538    4.5486354 
  750000   0.87654715 1.9910533e-07   0.33452261 0.0052061383            0   0.32931647    1.2983855    1.6329081    1.6431023 
  755000   0.76686984 6.7296661e-06   0.52558592  0.017610101            0   0.50797582     1.135926    1.6615119    2.0060708 
  760000   0.83836435 -4.7864797e-05   0.42742993  0.018869157            0   0.40856078    1.2418272    1.6692571  -0.78142049 
  765000   0.85143222 7.2559801e-05   0.42298319  0.014120743            0   0.40886245     1.261184    1.6841672     5.399229 
  770000   0.84899182 -0.00018705704   0.42799026 0.0080601299            0   0.41993013    1.2575691    1.6855594   -7.8917611 
  775000   0.79450942 0.0001004253    0.4738841  0.021117814            0   0.45276629    1.1768671    1.6507512    6.7925266 
  780000   0.83829502 -3.6775054e-05   0.43612472  0.021720929            0   0.41440379    1.2417245    1.6778492  -0.20503356 
  785000   0.85712629 -7.063868e-05   0.43609549 0.0056876542            0   0.43040783    1.2696183    1.7057138   -1.9109866 
  790000   0.87459478 8.1684491e-05     0.412038 0.0040677651            0   0.40797023    1.2954935    1.7075315    5.8897774 
  795000   0.89716771 0.0001271864   0.38969179 0.0096253538            0   0.38006644    1.3289297    1.7186215    8.2305654 
  800000   0.82994452 -0.00013753757   0.48507782  0.020631589            0   0.46444623    1.2293553    1.7144331   -5.3274904 
  805000    0.8914675 -1.5491298e-05   0.38264186  0.010325041            0   0.37231681    1.3204862    1.7031281   0.90997362 
  810000   0.82804363 7.8144317e-05   0.46974638 0.00096489985            0   0.46878148    1.2265396     1.696286     5.697275 
  815000   0.90091335 -1.0036164e-05   0.37166468 0.00057875979            0   0.37108592    1.3344779    1.7061426     1.192291 
  820000   0.85337373 -0.0001117824   0.44827203 0.0019464463            0   0.44632559    1.2640598    1.7123319   -4.0109272 
  825000   0.84910093 -8.5346004e-07    0.4597906 0.0034330571            0   0.45635754    1.2577308    1.7175214    1.6738242 
  830000   0.91837812 2.305943e-05   0.37103906 0.0065966598            0    0.3644424    1.3603476    1.7313867    2.9120295 
  835000   0.83527657 -1.6701341e-05   0.52095296  0.028102216            0   0.49285074    1.2372534    1.7582064   0.90309774 
  840000   0.86615774 -0.00010145055   0.46773634  0.018029324            0   0.44970702    1.2829962    1.7507325   -3.4435355 
  845000   0.88426466 7.1020263e-05     0.464262  0.015173007            0     0.449089     1.309817     1.774079    5.4103165 
  850000   0.90783386   1.2161e-05   0.43656503  0.004022688            0   0.43254234    1.3447289    1.7812939    2.4039371 
  855000   0.87829189 4.6346492e-05   0.48056821 0.0011446116            0   0.47942359    1.3009699    1.7815381    4.1544785 
  860000   0.96021481 -1.0959864e-07   0.36613165 0.00021566598            0   0.36591598    1.4223182    1.7884498    1.7828384 
  865000   0.92515237 -1.8380164e-05   0.43797735 0.0013240827            0   0.43665327    1.3703819    1.8083593   0.86729493 
  870000   0.92359019 -1.1300477e-06   0.40501789 0.0088844205            0   0.39613347     1.368068    1.7730859    1.7152274 
  875000   0.87578152 8.779611e-05   0.46838417  0.013767686            0   0.45461649    1.2972514    1.7656355    6.2607964 
  880000   0.87432061 -5.8153991e-05   0.48745446 0.0074543102            0   0.48000015    1.2950874    1.7825419   -1.1949425 
  885000   0.84875262 0.00011600948   0.51975368 0.0010303284            0   0.51872335    1.2572148    1.7769685    7.7166538 
  890000    0.9120171 -0.00010205284    0.4032432 0.0083226471            0   0.39492055    1.3509253    1.7541685   -3.4709369 
  895000   0.85352412 -0.00015091329   0.50540324  0.010581548            0   0.49482169    1.2642826    1.7696858   -5.9570747 
  900000   0.88230864 0.00012844495   0.47878594  0.003905907            0   0.47488003    1.3069197    1.7857056     8.362087 
  905000    0.9029438 3.4726883e-05   0.42436343            0            0   0.42436343    1.3374855    1.7618489    3.5398654 
  910000   0.91472025 -9.8965958e-05   0.41778153 0.00040901272            0   0.41737252    1.3549294    1.7727109   -3.2943462 
  915000   0.86568441 0.00014060388   0.50643163 0.0084285912            0   0.49800304     1.282295    1.7887267    8.9876452 
  920000    0.9587281 -7.7285086e-05   0.39257088  0.011067739            0   0.38150315     1.420116    1.8126869   -2.1443095 
  925000   0.89764399 -8.8695283e-05   0.51416519   0.01136066            0   0.50280453    1.3296352    1.8438004   -2.6973982 
  930000   0.94516986 -8.2066374e-05   0.44067327  0.027469504            0   0.41320377    1.4000329    1.8407061   -2.3610922 
  935000   0.90608495 -9.4959172e-06   0.50936179  0.025399449            0   0.48396234    1.3421383    1.8515001    1.3653092 
  940000   0.92693921 -9.7895267e-05   0.50134089 0.0022043675            0   0.49913653    1.3730287    1.8743696   -3.1378681 
  945000   0.91149194 -6.2040791e-05   0.54125366  0.013640746            0   0.52761291    1.3501474    1.8914011   -1.2850874 
  950000   0.92564653 9.1881823e-05   0.55004983  0.020721789            0   0.52932804    1.3711139    1.9211637    6.6255131 
  955000   0.99156431 2.5414736e-05    0.4334628  0.003101176            0   0.43036163    1.4687546    1.9022174    3.2034519 
  960000   0.93225796 -7.4660745e-05   0.54061627  0.004038106            0   0.53657816    1.3809071    1.9215234   -1.9011068 
  965000   0.99558122 -0.00017184725   0.43425266   0.01177827            0   0.42247439    1.4747047    1.9089573   -6.8896218 
  970000   0.94055581 -4.5774142e-05     0.504373 0.0079907683            0   0.49638223    1.3931983    1.8975713  -0.44606479 
  975000   0.88900536 -2.9155142e-05   0.58406196 0.0037379233            0   0.58032403    1.3168392    1.9009011   0.40815787 
  980000    0.9350838 -0.00010846029   0.53660909 0.0077002747            0   0.52890881    1.3850929     1.921702   -3.6314649 
  985000   0.91045826 0.00016796602   0.57969088  0.019628164            0   0.56006272    1.3486163    1.9283072    10.528167 
  990000   0.98329696 -5.4354297e-05   0.46416128  0.022373607            0   0.44178768    1.4565086    1.9206699   -0.8622701 
  995000    0.9439187 -9.7652074e-05   0.52729638  0.021599712            0   0.50569667    1.3981796     1.925476   -3.0743102 
 1000000    0.8921299 -3.4167136e-05   0.57944927   0.01016305            0   0.56928623    1.3214674    1.9009167   0.15155931 
 1005000   0.94783067 -5.3591234e-05   0.49851067 0.0084880149            0   0.49002265    1.4039742    1.9024849  -0.84138634 
 1010000   0.97269469 2.2558569e-05   0.47380371  0.030590693            0   0.44321301     1.440804    1.9146077    3.0696064 
 1015000   0.96890235 -0.00011892505    0.4855629  0.024149489            0   0.46141341    1.4351866    1.9207495   -4.1682132 
 1020000   0.87805027 -5.5821416e-05   0.59889541 0.0037293655            0   0.59516604     1.300612    1.8995074  -0.95854914 
 1025000   0.93626687 -8.9972111e-05   0.51828009 0.0008818586            0   0.51739824    1.3868453    1.9051254   -2.7014467 
 1030000   0.82815128 1.7554162e-05   0.61617769 0.0021710581            0   0.61400663    1.2266991    1.8428768    2.7416499 
 1035000   0.84164358 -3.3748153e-05   0.60630456 0.0015659666            0   0.60473859    1.2466846    1.8529891   0.12508366 
 1040000    0.9490237 -5.4492404e-05   0.45782765 0.00077635218            0    0.4570513    1.4057413     1.863569   -0.9264421 
 1045000   0.82603393 -1.9908285e-05   0.61599765 0.0029112578            0   0.61308639    1.2235628    1.8395604   0.82025623 
 1050000    0.9262656 -8.5880966e-06   0.47410262 0.0024761098            0   0.47162651    1.3720309    1.8461335     1.406423 
 1055000   0.88623746 7.1483255e-05   0.51584083 0.0063165328            0   0.50952429    1.3127392    1.8285801    5.4885227 
 1060000   0.96577063 1.0138764e-05   0.40412628 0.0071634428            0   0.39696284    1.4305478     1.834674    2.3537787 
 1065000   0.89313891 7.6472492e-05   0.50826642  0.015356329            0   0.49291009     1.322962    1.8312284      5.74662 
 1070000   0.85389035 -3.0494203e-05   0.56709755  0.018589327            0   0.54850822    1.2648251    1.8319226   0.27061945 
 1075000   0.87191462 0.00010531101   0.51510442 0.0096558231            0   0.50544859    1.2915235     1.806628    7.1985519 
 1080000   0.89777601 8.0913863e-05   0.45761302  0.004039443            0   0.45357358    1.3298307    1.7874437    5.9302335 
 1085000   0.91429677 -9.5919755e-05   0.45302627  0.013323083            0   0.43970319    1.3543021    1.8073284   -3.1037631 
 1090000   0.88460322 1.4761229e-05   0.51631567 0.0081882431            0   0.50812742    1.3103185    1.8266342    2.5824091 
 1095000   0.88357367 -7.5871844e-05   0.53593172  0.003210794            0   0.53272093    1.3087935    1.8447252   -2.0399132 
 1100000   0.91206774 5.8404721e-05   0.48736034 0.0012106741            0   0.48614967    1.3510003    1.8383607    4.8286824 
 1105000   0.89564728 8.7955247e-05   0.50849916 0.00057197906            0   0.50792718    1.3266775    1.8351767    6.3384853 
 1110000    0.8408858 -6.9988994e-06   0.57930741 0.00076878486            0   0.57853862    1.2455621    1.8248695    1.4665259 
 1115000   0.89233185 -3.5582551e-05   0.51749082 0.0032412316            0   0.51424959    1.3217665    1.8392574   0.01743075 
 1120000   0.93521522 0.00011011921   0.45328463 0.0032364921            0   0.45004814    1.3852875    1.8385722     7.476676 
 1125000   0.91723347 -3.2920992e-05   0.50140186 0.0025846351            0   0.49881722    1.3586521    1.8600539   0.17449912 
 1130000    0.9303808 7.6533449e-05   0.47072378  0.010112607            0   0.46061118    1.3781266    1.8488503    5.7673629 
 1135000   0.86448092 6.7692448e-05   0.55844468   0.01619019            0   0.54225449    1.2805124     1.838957    5.3048104 
 1140000   0.86201645 -8.3629205e-05   0.55069315   0.00517222            0   0.54552093    1.2768619     1.827555   -2.4542603 
 1145000   0.91618766 -1.7413149e-05   0.47789894  0.014263363            0   0.46363558     1.357103    1.8350019   0.94344869 
 1150000   0.95501175 5.3885019e-05   0.43380008  0.022775627            0   0.41102445    1.4146112    1.8484112    4.6073242 
 1155000   0.93099554 -7.2191194e-05   0.45998181     0.016019            0   0.44396281    1.3790371     1.839019   -1.8571702 
 1160000   0.91226828 5.0672692e-05   0.52590454 0.0077859885            0   0.51811855    1.3512974    1.8772019    4.4716438 
 1165000   0.91660893 6.9569433e-05   0.49857198  0.010628306            0   0.48794367     1.357727     1.856299    5.4182539 
 1170000   0.95818129 -3.3408186e-05   0.43172385  0.010504254            0    0.4212196     1.419306    1.8510299   0.14053075 
 1175000   0.83731731 3.9368667e-05   0.60593511  0.013059228            0   0.59287588    1.2402763    1.8462114    3.8618871 
 1180000   0.93934029 1.7087423e-06   0.45634013 0.0086202473            0   0.44771988    1.3913978    1.8477379    1.9352255 
 1185000   0.89768601 4.6337923e-05    0.5208868 0.0058075375            0   0.51507926    1.3296974    1.8505842    4.2230859 
 1190000   0.94237423 -4.4585232e-05    0.4446453 0.0076691359            0   0.43697617    1.3958918    1.8405371  -0.44222676 
 1195000    0.9126463 1.4348516e-05   0.51447531 0.0069252856            0   0.50755003    1.3518573    1.8663326    2.6009767 
 1200000   0.95019765 -6.6893128e-05   0.41393804 0.0042180064            0   0.40972004    1.4074803    1.8214183   -1.6035098 
 1205000   0.87427233 1.8310407e-08   0.50067243 0.0027636008            0   0.49790883    1.2950159    1.7956883    1.7966258 
 1210000   0.88443406 0.0001012056   0.48948674 0.0028005481            0   0.48668619     1.310068    1.7995547    6.9812815 
 1215000   0.89654606  3.63662e-05   0.46811174 0.0076411378            0   0.46047061    1.3280089    1.7961206      3.65807 
 1220000   0.88466872 0.00010173263   0.45985959  0.016894074            0   0.44296552    1.3104155    1.7702751    6.9789859 
 1225000   0.85274715 -3.0965829e-05   0.47869208   0.00745934            0   0.47123274    1.2631317    1.7418238   0.15637335 
 1230000   0.87791885 2.4987914e-05   0.44754372 0.00086247333            0   0.44668125    1.3004173     1.747961    3.0273422 
 1235000   0.89430799 -0.00012592641   0.41312657 0.0023746394            0   0.41075193    1.3246937    1.7378203   -4.7096121 
 1240000   0.83892758 5.5459975e-05    0.4965815  0.014526368            0   0.48205514    1.2426615     1.739243    4.5787937 
 1245000   0.84304923 1.1179288e-05   0.49429003  0.016068088            0   0.47822194    1.2487667    1.7430567    2.3154362 
 1250000   0.86617147 -2.0124523e-05   0.48201243 0.0061837634            0   0.47582867    1.2830165    1.7650289   0.73465336 
 1255000   0.87409099 -8.0766233e-06   0.49214527 0.0024442833            0   0.48970098    1.2947473    1.7868926    1.3733694 
 1260000   0.75774561 0.00010708267   0.64295033  0.004833423            0   0.63811691    1.1224107     1.765361    7.2479938 
 1265000   0.90429924 4.5419798e-05   0.43763866 0.0055223199            0   0.43211634    1.3394933    1.7771319    4.1026256 
 1270000   0.89004842 -2.2449546e-05   0.46332142 0.0016773429            0   0.46164407    1.3183842    1.7817056    0.6322889 
 1275000   0.91651412 -2.2313441e-05   0.45268381 0.00017355495            0   0.45251025    1.3575865    1.8102703   0.66782214 
 1280000    0.8219008 0.00011395701   0.57239395 0.00087064977            0    0.5715233    1.2174406    1.7898345    7.6244332 
 1285000   0.87730842 -8.8443643e-05     0.477691 0.0021550781            0   0.47553592    1.2995131    1.7772041   -2.7511104 
 1290000   0.86278739 -6.9689275e-05   0.49384076 0.0087401572            0   0.48510061    1.2780038    1.7718446   -1.7962463 
 1295000    0.8690696 4.8828676e-05   0.47868007  0.017123182            0   0.46155688    1.2873093    1.7659894    4.2660176 
 1300000   0.85036185 7.1279889e-05   0.49437197  0.012888366            0    0.4814836    1.2595985    1.7539705    5.4035008 
 1305000   0.90161223 -3.3259902e-05   0.43576689 0.0058756204            0   0.42989127    1.3355131      1.77128  0.068373025 
 1310000   0.89492614 -3.2147419e-05   0.42044064 0.0020700318            0    0.4183706    1.3256093      1.74605   0.10010214 
 1315000   0.89170527 0.00011152367   0.41810608 0.0058323016            0   0.41227378    1.3208384    1.7389445    7.4489566 
 1320000    0.8068328 7.7273931e-05   0.54140962 0.0073233301            0   0.53408629    1.1951211    1.7365307     5.692956 
 1325000   0.85347157 -3.8313224e-05   0.47967501 0.0053188241            0   0.47435618    1.2642048    1.7438798  -0.21775732 
 1330000   0.93765739 -9.7433544e-05   0.37516738 0.0019082621            0   0.37325912     1.388905    1.7640724   -3.2245251 
 1335000   0.92003564 -4.1714169e-05    0.4104343 0.00055135442            0   0.40988294    1.3628028    1.7732371  -0.36252838 
 1340000   0.82413485 -7.1731035e-05   0.55564563 0.0029526806            0   0.55269295    1.2207497    1.7763954   -1.8962336 
 1345000   0.91604248 -0.00012415477   0.42710286 0.0064221615            0    0.4206807    1.3568879    1.7839908   -4.5727335 
 1350000   0.83703657 1.6397416e-05    0.5437234 0.0034722023            0   0.54025119    1.2398604    1.7835838    2.6231315 
 1355000   0.94057341 1.9037628e-05   0.39272591 0.0014284581            0   0.39129745    1.3932244    1.7859503    2.7606768 
 1360000   0.83285721 6.1619898e-05   0.53131449 0.0020041363            0   0.52931035    1.2336697    1.7649842     4.919923 
 1365000   0.89351543  4.09208e-06   0.45569327 0.0011499925            0   0.45454328    1.3235197     1.779213    1.9887275 
 1370000   0.95546519 1.5541659e-05   0.36080634 0.0034511649            0   0.35735517    1.4152828    1.7760891    2.5718221 
 1375000   0.82112379 -8.1183143e-05   0.53715956  0.029986102            0   0.50717346    1.2162896    1.7534492   -2.4031278 
 1380000   0.88783218 3.3414728e-05   0.44735059  0.018971991            0    0.4283786    1.3151014     1.762452    3.4732861 
 1385000   0.88182051 -2.9431214e-05   0.44676648  0.011040908            0   0.43572557    1.3061966    1.7529631   0.24608499 
 1390000   0.85961405 -8.6798602e-05   0.48410999   0.01113248            0   0.47297751    1.2733033    1.7574133   -2.6866751 
 1395000    0.9515489 2.0932219e-05   0.33908751 0.0015926768            0   0.33749484    1.4094818    1.7485693    2.8202989 
 1400000   0.82696876 1.7713065e-06   0.54241515 0.0020680928            0   0.54034705    1.2249475    1.7673626    1.8580535 
 1405000     0.843171 0.00011682594   0.49279657  0.002768867            0    0.4900277     1.248947    1.7417436    7.7232315 
 1410000   0.87568073 -0.0001064179   0.44794167 0.0095730344            0   0.43836864    1.2971021    1.7450437   -3.7035526 
 1415000   0.83161769 -0.00010262557   0.52426459  0.010665623            0   0.51359896    1.2318337    1.7560983    -3.498331 
 1420000   0.92137787 6.0852027e-05   0.39721853 0.0019343404            0   0.39528419     1.364791    1.7620095    4.8776333 
 1425000   0.81768844 7.6268859e-06   0.53882188 0.00067079633            0   0.53815109     1.211201    1.7500229    2.1405194 
 1430000   0.86458748 0.00019396409   0.49158887  0.010115686            0   0.48147318    1.2806702    1.7722591    11.703221 
 1435000    0.8549053 9.9682306e-05   0.51983481  0.022684476            0   0.49715033    1.2663285    1.7861633    6.8898973 
 1440000   0.87618599 -6.533206e-05   0.49052795  0.011926302            0   0.47860165    1.2978505    1.7883785    -1.556623 
 1445000   0.90671606 3.1247159e-05   0.42037513  0.020637046            0   0.39973809    1.3430732    1.7634483    3.3633028 
 1450000   0.90470799 -4.5238313e-05   0.43552458  0.023205408            0   0.41231917    1.3400987    1.7756233  -0.54057836 
 1455000   0.83911721 3.8907411e-06   0.51040202 0.0041653163            0   0.50623671    1.2429424    1.7533444    1.9525503 
 1460000   0.89697119 -4.0484764e-05    0.4116928 0.0069405141            0   0.40475228    1.3286386    1.7403314  -0.33248857 
 1465000   0.90245233 -6.7691887e-05   0.39570367  0.004124247            0   0.39157943    1.3367575    1.7324612   -1.7333634 
 1470000   0.90976772 4.4718022e-05   0.40797465 0.0031180433            0    0.4048566    1.3475934    1.7555681    4.0451308 
 1475000   0.86296477 3.2818298e-05   0.50089381  0.004562804            0   0.49633101    1.2782666    1.7791604    3.4594572 
 1480000   0.89588803 -0.00010210881   0.44972432 0.0076568653            0   0.44206745    1.3270341    1.7767585   -3.4512129 
 1485000   0.87871091 -6.9439512e-05   0.47346089  0.025680788            0    0.4477801    1.3015905    1.7750514   -1.7802516 
 1490000   0.93261289 6.5387183e-05   0.38653449 0.0046149636            0   0.38191953    1.3814328    1.7679673    5.1157911 
 1495000   0.85060295 1.8479017e-05   0.54432132 0.00019441554            0    0.5441269    1.2599556    1.8042769    2.7504026 
 1500000   0.90245273 5.4112448e-05   0.45474932 0.00011710043            0   0.45463222    1.3367581    1.7915074    4.5620647 
 1505000   0.94111035 -4.1857662e-05   0.40423099            0            0   0.40423099    1.3940197    1.7982507  -0.34486161 
 1510000   0.88395446 6.9037729e-05   0.50898552            0            0   0.50898552    1.3093575    1.8183431    5.3530748 
 1515000   0.94103682 2.8014744e-05   0.43217656 0.00037537589            0   0.43180119    1.3939108    1.8260874    3.2604422 
 1520000   0.89206822 -6.4979906e-05   0.51884795   0.00531484            0   0.51353311    1.3213761     1.840224   -1.4867472 
 1525000   0.97601693 7.514693e-05   0.40630795  0.029605379            0   0.37670257    1.4457251     1.852033    5.6995558 
 1530000   0.95522943 6.2909581e-05   0.43547261  0.025513004            0   0.40995961    1.4149336    1.8504062    5.0713767 
 1535000    1.0035354 4.7463122e-06   0.38465053 0.0030931774            0   0.38155735    1.4864868    1.8711373    2.1141485 
 1540000   0.94851915 5.184325e-05    0.4395873 0.00042686191            0   0.43916044     1.404994    1.8445813    4.4989557 
 1545000   0.93463652 1.098465e-07   0.43593184  0.001651558            0   0.43428029    1.3844303    1.8203622    1.8259863 
 1550000   0.96358064 -1.6404768e-05   0.36921256 0.0058926805            0   0.36331987    1.4273038    1.7965164   0.95659225 
 1555000   0.90006439 -1.7796353e-05   0.45333296  0.024395462            0    0.4289375    1.3332204    1.7865533   0.87538008 
 1560000   0.86069257 4.2487944e-06   0.50129645  0.013330584            0   0.48796587    1.2749009    1.7761973    1.9937356 
 1565000   0.92648866 -6.8585792e-05   0.39401191 0.0024334257            0   0.39157849    1.3723613    1.7663732   -1.7452193 
 1570000   0.90727222 0.00010651357   0.45951827  0.020524563            0    0.4389937     1.343897    1.8034152    7.2569098 
 1575000   0.89232552 2.1766117e-05     0.493549  0.013729187            0   0.47981981    1.3217572    1.8153062    2.9297314 
 1580000   0.90954763 3.2789046e-05    0.4746135  0.022525494            0   0.45208801    1.3472674    1.8218809    3.5006801 
 1585000   0.99243389 3.2034417e-05    0.3648168  0.018276908            0   0.34653989    1.4700427    1.8348595    3.4750216 
 1590000    0.8729526 -0.0002036028   0.56486966  0.014128403            0   0.55074125     1.293061    1.8579307   -8.5665328 
 1595000   0.91824071 -9.8281129e-06   0.49042542 0.0087579427            0   0.48166747     1.360144    1.8505695    1.3473701 
 1600000   0.94581771 -5.3603047e-05   0.44448353 0.0041087193            0   0.44037481    1.4009925     1.845476  -0.89899997 
 1605000   0.94159981 5.0816059e-06   0.43575378  0.023122625            0   0.41263115    1.3947447    1.8304985    2.0906767 
 1610000   0.95550173 5.3577784e-05   0.42179673  0.025417025            0    0.3963797    1.4153369    1.8371337    4.5803162 
 1615000   0.99564791 2.0879696e-05   0.37371184 0.0033091806            0   0.37040266    1.4748035    1.8485153    2.9175557 
 1620000   0.90547976 3.9819728e-05   0.50335697 0.00011978116            0   0.50323719    1.3412419    1.8445989    3.8833689 
 1625000   0.91851649 4.6721267e-05   0.46635089  0.007644201            0   0.45870669    1.3605526    1.8269034    4.2190323 
 1630000   0.91865056 6.5019263e-05   0.44421114  0.031929302            0   0.41228184    1.3607511    1.8049623    5.1339486 
 1635000   0.85706447 7.4443619e-05    0.4960903  0.048444978            0   0.44764532    1.2695267     1.765617    5.5771303 
 1640000   0.79175616 9.347038e-05   0.59500943   0.02650257            0   0.56850686    1.1727888    1.7677982    6.5534817 
 1645000   0.88973056 2.3333628e-06   0.47366025 0.00024979943            0   0.47341045    1.3179134    1.7915736    1.9110418 
 1650000   0.89425625 -3.0227938e-05   0.47583503 2.0498162e-05            0   0.47581453    1.3246171    1.8004521    0.2527817 
 1655000   0.92474976 5.9032006e-05   0.42912266 0.00049929778            0   0.42862336    1.3697856    1.7989082     4.821347 
 1660000    0.8534823 5.0622543e-05   0.51543182  0.003019348            0   0.51241247    1.2642207    1.7796525    4.3715267 
 1665000   0.99479355 7.0439607e-05   0.31261484 0.0054869052            0   0.30712794     1.473538    1.7861528    5.3926607 
 1670000   0.97267541 -2.2019475e-06   0.38424192 0.0062853279            0   0.37795659    1.4407755    1.8250174    1.7122777 
 1675000   0.86661685 -1.8563465e-07   0.56947442 0.0023584887            0   0.56711593    1.2836762    1.8531506    1.8436461 
 1680000   0.85113128 3.6150536e-05   0.57638141 0.00017638098            0   0.57620503    1.2607382    1.8371196    3.6880271 
 1685000   0.97034135 1.4776397e-05   0.39519119 0.0029633391            0   0.39222785    1.4373181    1.8325093    2.5890608 
 1690000   0.94299653 7.4163507e-06    0.4620173  0.013213434            0   0.44880387    1.3968136    1.8588309    2.2385481 
 1695000   0.91917887 -9.0230626e-05   0.48026595  0.019242395            0   0.46102356    1.3615337    1.8417997   -2.7780084 
 1700000   0.90096491 -2.1493148e-05   0.48503175   0.01250016            0   0.47253159    1.3345543     1.819586   0.71913684 
 1705000   0.93822501 9.3705933e-05   0.42999036 0.00087362368            0   0.42911673    1.3897458    1.8197361    6.6174799 
 1710000   0.92591519 -8.3908475e-05   0.47382925            0            0   0.47382925    1.3715119    1.8453411   -2.4507728 
 1715000   0.95621741 -9.2638104e-05   0.41489108 0.00076760116            0   0.41412348     1.416397    1.8312881   -2.9117828 
 1720000   0.89887392 0.00011973666    0.4951495  0.014604292            0   0.48054521     1.331457    1.8266065    7.9571234 
 1725000   0.87980428 3.4672869e-05   0.48128226  0.033505748            0   0.44777651    1.3032101    1.7844924    3.5597432 
 1730000   0.89474651 1.4297102e-05   0.46658058  0.044693426            0   0.42188715    1.3253433    1.7919238    2.5239355 
 1735000   0.90907075 5.3572382e-05   0.46973072  0.021922245            0   0.44780848     1.346561    1.8162918    4.5591978 
 1740000   0.89790038 4.8157382e-06   0.46183785 0.0088132224            0   0.45302462    1.3300149    1.7918528    2.0384186 
 1745000   0.91021453 5.1215482e-05   0.41996709 0.0025413278            0   0.41742576    1.3482553    1.7682224     4.390455 
 1750000   0.91400511 3.4978576e-06   0.41148558  0.026773288            0   0.38471229    1.3538701    1.7653556     1.944446 
 1755000   0.91889627 -0.00010013873   0.42476354  0.032096849            0   0.39266669    1.3611151    1.7858786   -3.3412244 
 1760000   0.91810277 -0.00013627636   0.45217808 0.0048213248            0   0.44735675    1.3599397    1.8121178   -5.1652319 
 1765000   0.91671353 -0.00010940592   0.45691319 0.00089677449            0   0.45601642    1.3578819    1.8147951   -3.7867879 
 1770000    0.9347335 -1.4302759e-05   0.43674693  0.027461723            0   0.40928521     1.384574    1.8213209    1.0890196 
 1775000   0.91763202 -2.664186e-05    0.4807414   0.03020899            0   0.45053241    1.3592424    1.8399838   0.47592057 
 1780000   0.93595054 1.5522644e-05   0.44436308  0.014188379            0    0.4301747    1.3863767    1.8307398    2.6254992 
 1785000   0.90130294 7.1652548e-05    0.4885403  0.012523699            0    0.4760166     1.335055    1.8235953    5.4922057 
 1790000   0.97809165 -1.4705185e-05   0.37877847 0.0093567038            0   0.36942176    1.4487983    1.8275767    1.0746712 
 1795000   0.96228181 -9.0704563e-05   0.37726502  0.008624433            0   0.36864058    1.4253799     1.802645   -2.8414287 
 1800000    0.8924056 -4.7957667e-06   0.47952505 0.0044970848            0   0.47502796    1.3218758    1.8014008    1.5558576 
 1805000   0.89408326 -6.4884519e-06   0.48676686 0.0038082234            0   0.48295864    1.3243608    1.8111277     1.478919 
 1810000   0.96361558 7.6029272e-05   0.42807713  0.020735222            0   0.40734191    1.4273556    1.8554327    5.7481314 
 1815000   0.94743538 1.4779023e-05   0.47726193  0.028987399            0   0.44827453    1.4033887    1.8806506    2.6373366 
 1820000   0.97607776 -4.1328181e-05   0.42920892  0.025898261            0   0.40331066    1.4458152    1.8750241  -0.24097875 
 1825000   0.99693837 -2.4039368e-05   0.39431796 0.0057511832            0   0.38856677     1.476715    1.8710329   0.64021726 
 1830000    1.0122213 -1.3683264e-05   0.36807418  0.014960913            0   0.35311326    1.4993528     1.867427    1.1668439 
 1835000   0.93696887 -8.7755485e-06   0.44153792  0.038961553            0   0.40257636    1.3878851    1.8294231     1.380115 
 1840000   0.86488622 -1.7442666e-05   0.54900595  0.046707091            0   0.50229886    1.2811127    1.8301187   0.93705415 
 1845000   0.87429061 1.289587e-05   0.52651501  0.041619541            0   0.48489547     1.295043     1.821558    2.4818265 
 1850000   0.91080035 7.0022237e-05   0.48895798  0.034119138            0   0.45483884     1.349123     1.838081    5.4232195 
 1855000   0.89901304 4.4727067e-05   0.49963024  0.029314797            0   0.47031544    1.3316631    1.8312933    4.1213191 
 1860000   0.95467358 1.4849567e-05   0.41697138  0.013884022            0   0.40308736    1.4141102    1.8310816    2.5913794 
 1865000   0.96960369 5.2434524e-06   0.39418338 0.0042214455            0   0.38996193    1.4362255    1.8304088    2.0988736 
 1870000   0.92148782 1.4659488e-05   0.47061214  0.003544445            0    0.4670677    1.3649538     1.835566    2.5861318 
 1875000   0.89026077 3.3195996e-05   0.51632236 0.0024168837            0   0.51390548    1.3186988    1.8350211    3.5346561 
 1880000   0.98789723 -5.4164293e-06   0.40532738 0.0013445346            0   0.40398285    1.4633228    1.8686502     1.591329 
 1885000    1.0008398 -9.2633439e-06   0.38804878 0.0041291027            0   0.38391967    1.4824939    1.8705427    1.3962595 
 1890000   0.91071336 -8.3079432e-05   0.54444355  0.023440072            0   0.52100348    1.3489942    1.8934377   -2.3602292 
 1895000   0.99862756 -2.4129633e-05    0.4178497  0.023428828            0   0.39442087    1.4792171    1.8970668   0.66162954 
 1900000    1.0093674 0.00011604228   0.37555934  0.013266111            0   0.36229323    1.4951255    1.8706848    7.8120493 
 1905000   0.96789162 6.6728445e-05    0.4532965 0.0046550655            0   0.44864143    1.4336895     1.886986    5.3034823 
 1910000   0.91743954 -5.7894841e-05   0.50872434 0.0059507403            0    0.5027736    1.3589573    1.8676817   -1.0965342 
 1915000   0.94246307 -0.00012962282   0.48098085  0.010137027            0   0.47084382    1.3960234    1.8770043   -4.7596842 
 1920000   0.96058994 -3.715213e-05   0.47713793  0.010138085            0   0.46699984    1.4228739    1.9000118 -0.0021772504 
 1925000   0.95546261 -5.8689191e-05    0.4565429 0.0056030903            0   0.45093981     1.415279    1.8718219   -1.1330647 
 1930000   0.98988387 -6.9384186e-05   0.40407249 0.0091069386            0   0.39496555    1.4662655     1.870338   -1.6821323 
 1935000   0.99485462 -7.6197406e-06   0.41844296  0.012160514            0   0.40628245    1.4736284    1.8920714    1.5019407 
 1940000   0.97464646 -9.0813069e-07   0.44165634  0.011842479            0   0.42981386    1.4436951    1.8853514    1.8388551 
 1945000   0.92240842 2.473439e-05   0.51642541  0.022100768            0   0.49432464    1.3663175    1.8827429    3.1491437 
 1950000   0.94051456 -4.9509844e-05   0.49891259  0.018338781            0   0.48057381    1.3931372    1.8920498  -0.64285423 
 1955000    1.0051221 -0.00011355688   0.44403677  0.017277038            0   0.42675973    1.4888371    1.9328738   -3.8812382 
 1960000   0.98263149 -2.4832495e-05   0.43977115  0.010560298            0   0.42921085    1.4555229     1.895294   0.62387028 
 1965000   0.96638513 1.5361982e-05   0.45997321  0.034848992            0   0.42512422     1.431458    1.8914312    2.6779646 
 1970000    1.0079128 -1.4417102e-05   0.40234917 0.0064784246            0   0.39587074    1.4929708    1.8953199    1.1571643 
 1975000    1.0142283 -5.3582056e-05   0.40585745 0.0033051664            0   0.40255229    1.5023256    1.9081831  -0.83521814 
 1980000    0.9362009 -8.7400409e-05   0.54971109  0.023911192            0    0.5257999    1.3867476    1.9364587   -2.5384422 
 1985000   0.93216311 3.7773851e-05   0.53715588  0.024220168            0   0.51293571    1.3807666    1.9179225    3.8519437 
 1990000     1.004569 0.00015612787   0.41876767 0.0092781549            0   0.40948951    1.4880178    1.9067855    9.9005325 
 1995000    0.9856283 -3.9922418e-05   0.42322838 0.0027639422            0   0.42046443    1.4599619    1.8831903  -0.16083752 
 2000000   0.95864848 -7.9942464e-05   0.46849195 0.0096065014            0   0.45888545    1.4199981      1.88849   -2.2045641 
 2005000   0.91556353 6.9122542e-05   0.53366458  0.036760069            0   0.49690451    1.3561785    1.8898431    5.4289172 
 2010000   0.95894934 6.9768436e-05    0.4455843  0.024432073            0   0.42115223    1.4204437     1.866028    5.4381719 
 2015000   0.98705416 -7.771409e-06   0.40109778 0.0029751504            0   0.39812263     1.462074    1.8631718    1.4652756 
 2020000   0.95170014 -5.2868285e-05   0.46602112  0.013500494            0   0.45252062    1.4097058    1.8757269  -0.83112924 
 2025000   0.96006929 -7.7335389e-05   0.43350997  0.035825066            0   0.39768491    1.4221026    1.8556126   -2.1039593 
 2030000   0.84755047 -8.7786027e-05   0.62332956  0.021867832            0   0.60146173    1.2554341    1.8787637   -2.6158809 
 2035000   0.96179072 -7.5482066e-05   0.45304527  0.023382653            0   0.42966262    1.4246525    1.8776978    -1.986984 
 2040000   0.90434323 -6.9642436e-05   0.53070576  0.031118651            0   0.49958711    1.3395584    1.8702642   -1.6954286 
 2045000   0.87867509 -5.8198304e-06   0.58283794  0.010649978            0   0.57218796    1.3015375    1.8843754    1.5864001 
 2050000   0.98878121 6.0998691e-05   0.40984406  0.002461391            0   0.40738267    1.4646322    1.8744762    4.9976092 
 2055000   0.93282034 -3.3831476e-05   0.49731556 0.0064232081            0   0.49089235    1.3817401    1.8790557   0.14688413 
 2060000   0.97056649 -6.5816083e-05   0.42898832  0.023247576            0   0.40574075    1.4376516    1.8666399   -1.5031435 
 2065000   0.93493998 -1.6322377e-05    0.4991988  0.022872285            0   0.47632652    1.3848798    1.8840786    1.0483729 
 2070000   0.96257023 -6.4902432e-05   0.47538442  0.014779462            0   0.46060495    1.4258072    1.9011916    -1.421813 
 2075000   0.95478592 -7.1903228e-05   0.48846388  0.012096107            0   0.47636778    1.4142767    1.9027405   -1.7787048 
 2080000   0.94787821 5.4501642e-05   0.51647797  0.032717488            0   0.48376049    1.4040446    1.9205226    4.7110066 
 2085000   0.97617616 0.00010302984   0.44771739  0.046532995            0    0.4011844    1.4459609    1.8936783    7.1688059 
 2090000   0.90810196 -9.4840878e-05   0.52794455  0.020680702            0   0.50726384     1.345126    1.8730706   -2.9827824 
 2095000   0.91340873 -7.1526879e-05   0.50984309  0.015323431            0   0.49451966    1.3529867    1.8628298   -1.7993465 
 2100000   0.95716075 -1.2001591e-05   0.43457384 0.0085511317            0   0.42602271    1.4177944    1.8523682    1.2378867 
 2105000   0.91976479 -3.4880679e-05   0.47022714 0.0043259074            0   0.46590123    1.3624016    1.8326287  0.046737987 
 2110000    0.9521246 8.0062918e-06   0.44356024 0.0059800207            0   0.43758022    1.4103346    1.8538948    2.2638169 
 2115000   0.95116998 2.5930253e-05   0.46955122 0.0092487933            0   0.46030243    1.4089205    1.8784718    3.2061007 
 2120000   0.91220485 7.5295897e-05   0.53189303  0.054052408            0   0.47784062    1.3512034    1.8830965    5.7382464 
 2125000   0.95515639 5.0719851e-05   0.46804298   0.01691727            0   0.45112571    1.4148254    1.8828684    4.4797248 
 2130000   0.92568825 4.4957066e-05   0.49223496  0.045983467            0    0.4462515    1.3711757    1.8634107    4.1652124 
 2135000   0.93010763 4.1093607e-05   0.48241578 0.0057145615            0   0.47670122    1.3777219    1.8601377    3.9641304 
 2140000   0.97248322 5.1659206e-05   0.43039579 0.0089703246            0   0.42142546    1.4404908    1.8708866    4.5158379 
 2145000   0.94780758 2.7470533e-05   0.46149361  0.028730779            0   0.43276283      1.40394    1.8654336    3.2719248 
 2150000   0.92659209 -1.5343786e-05   0.48050132  0.024120828            0   0.45638049    1.3725145    1.8530158     1.067414 
 2155000   0.97923109 -7.9497721e-05   0.41810207 0.0049022944            0   0.41319977     1.450486    1.8685881   -2.2016952 
 2160000   0.93244302 1.1083304e-05   0.47280087 0.0022833251            0   0.47051754    1.3811812    1.8539821    2.4214473 
 2165000    1.0119694 7.8909833e-07   0.35890129  0.019871169            0   0.33903012    1.4989797     1.857881    1.8982828 
 2170000   0.88944536 -5.3160263e-05   0.54903252  0.029182333            0   0.51985019    1.3174909    1.8665235  -0.85528199 
 2175000   0.90702705 -8.8883517e-05   0.54085178  0.030256342            0   0.51059544    1.3435338    1.8843856   -2.6664505 
 2180000   0.97715141 -9.7845413e-05    0.4393032 0.0089094276            0   0.43039377    1.4474055    1.8867087   -3.1229764 
 2185000   0.89145346 -7.6577623e-05   0.55726382 0.0024006574            0   0.55486316    1.3204654    1.8777293   -2.0430451 
 2190000   0.96682513 -6.7031857e-05   0.44490445 0.00097278299            0   0.44393167    1.4321097    1.8770142   -1.5550169 
 2195000   0.97027662 -4.2962587e-05   0.46762561  0.011021851            0   0.45660376    1.4372222    1.9048478  -0.29483661 
 2200000    0.9039736 -9.0966942e-05   0.56197301  0.041536257            0   0.52043675    1.3390109    1.9009839   -2.7565235 
 2205000    1.0169264 -9.2946836e-06   0.38010998  0.036426932            0   0.34368305    1.5063223    1.8864322    1.4105444 
 2210000   0.99146597 0.00011236408   0.40554628  0.026301389            0   0.37924489     1.468609    1.8741553    7.6271963 
 2215000   0.91847646 0.00012711955   0.49356447  0.012604436            0   0.48096003    1.3604933    1.8540577    8.3625785 
 2220000   0.93065497 0.00010229057   0.45703049  0.019510216            0   0.43752028    1.3785327    1.8355632    7.0728404 
 2225000   0.90589026 0.00010428672   0.47759214  0.027001762            0   0.45059038      1.34185    1.8194421    7.1589222 
 2230000   0.93003068 0.00013322783   0.45772387  0.040703072            0   0.41702079    1.3776079    1.8353318    8.6565967 
 2235000   0.90275504 3.2425504e-05   0.49333495   0.01588164            0   0.47745331    1.3372059    1.8305408    3.4907267 
 2240000   0.91281172 -3.7234038e-05   0.45501177   0.01546579            0   0.43954598    1.3521024    1.8071141 -0.099268613 
 2245000   0.92764039 -2.5889019e-05   0.43813253  0.030302352            0   0.40783017    1.3740673    1.8121999   0.48668208 
 2250000   0.95242387 -5.0605763e-05   0.41635995 0.0033283898            0   0.41303156    1.4107779    1.8271378  -0.76387726 
 2255000    0.9190967 -6.0937621e-05   0.44473265  0.015317136            0   0.42941551     1.361412    1.8061446   -1.3138616 
 2260000   0.97917854 -4.7860014e-05   0.34376124 0.0068434245            0   0.33691782    1.4504082    1.7941695  -0.65626327 
 2265000   0.90873119 9.8481064e-06   0.44023415 0.0073065224            0   0.43292762    1.3460581    1.7862922    2.2905153 
 2270000   0.88383991 -1.5056301e-05   0.49068533 0.0061249893            0   0.48456034    1.3091879    1.7998732    1.0289906 
 2275000   0.91346243 -0.00018470079   0.48645183 0.0025157908            0   0.48393604    1.3530662    1.8395181   -7.6171624 
 2280000   0.85060997 1.1195677e-05   0.54102622  0.016880792            0   0.52414543     1.259966    1.8009922    2.3742109 
 2285000   0.97044032 -5.91205e-06   0.39899485  0.023669282            0   0.37532557    1.4374647    1.8364596    1.5337626 
 2290000   0.94150071 -1.7735969e-05   0.45448179  0.017471019            0   0.43701077    1.3945979    1.8490797   0.94099808 
 2295000   0.92001799 0.00011734847   0.46719123  0.011138442            0   0.45605279    1.3627766    1.8299679    7.8382094 
 2300000   0.93473476 0.00012173686   0.42977887  0.010379277            0   0.41939959    1.3845759    1.8143547     8.047282 
 2305000   0.92658978 -9.5543466e-06   0.43640662   0.01659254            0   0.41981408    1.3725111    1.8089177    1.3197352 
 2310000   0.90164137 -7.9386418e-05   0.48169512  0.018581278            0   0.46311385    1.3355563    1.8172514   -2.2473332 
 2315000   0.94223479 -2.8802452e-05   0.43698393 0.0093709042            0   0.42761303    1.3956853    1.8326692   0.35798367 
 2320000   0.93241031 -4.9087156e-05   0.45201594  0.018177402            0   0.43383853    1.3811328    1.8331487  -0.68011371 
 2325000   0.93618914 2.4118509e-05   0.44064889  0.029451348            0   0.41119754    1.3867302     1.827379    3.0622467 
 2330000   0.99069264 8.5772297e-05    0.3692835  0.034279677            0   0.33500382    1.4674635     1.836747    6.2282886 
 2335000   0.89396791 4.8282548e-06   0.52761111  0.027734633            0   0.49987648      1.32419    1.8518011    2.0990077 
 2340000   0.91772795 4.0660171e-05   0.50112924  0.061537646            0    0.4395916    1.3593845    1.8605138    3.9423145 
 2345000   0.92365345 2.0677279e-05    0.4721039  0.042353328            0   0.42975057    1.3681617    1.8402656    2.8989423 
 2350000   0.94230997 -5.9537527e-05   0.47086732  0.018338281            0   0.45252904    1.3957966     1.866664   -1.1816574 
 2355000   0.97200585 -5.7036349e-05   0.44319545  0.019849547            0    0.4233459    1.4397837    1.8829791   -1.0372819 
 2360000   0.99615024 -0.00014451444   0.40920864   0.01555396            0   0.39365468    1.4755475    1.8847562   -5.5143833 
 2365000   0.92418575 -0.00018594685    0.5029542   0.00573772            0   0.49721648    1.3689501    1.8719043   -7.6485743 
 2370000   0.98348391 2.8215956e-06   0.42527823  0.023299847            0   0.40197839    1.4567855    1.8820638    2.0265295 
 2375000   0.94133085 0.00015933481   0.51698399  0.025616592            0   0.49136739    1.3943463    1.9113303    10.069272 
 2380000    1.0107925 0.00013450702   0.41374701   0.01779813            0   0.39594888    1.4972364    1.9109834    8.7977426 
 2385000    1.0208617 -2.1883477e-05   0.39770752  0.022726966            0   0.37498056    1.5121513    1.9098589   0.78942485 
 2390000    1.0132586 -6.1697783e-05   0.42789041   0.01311178            0   0.41477863    1.5008893    1.9287798   -1.2301467 
 2395000    1.0753661 1.3295894e-05   0.34573002 0.0037157994            0   0.34201422    1.5928861    1.9386161    2.6193659 
 2400000    1.0034921 -1.0566867e-05    0.4174927  0.025319723            0   0.39217298    1.4864226    1.9039153    1.3628917 
 2405000   0.97001683 -4.7827283e-05   0.47242699  0.049924703            0   0.42250229    1.4368374    1.9092644  -0.53949245 
 2410000   0.93547264 -4.4230351e-05   0.50936879  0.025862136            0   0.48350665    1.3856689    1.8950376  -0.36955634 
 2415000   0.99534267 2.9406598e-05   0.40374693  0.023917191            0   0.37982974    1.4743513    1.8780983    3.3837161 
 2420000    1.0212247 -1.0676287e-05   0.38869029  0.010178553            0   0.37851174    1.5126891    1.9013794    1.3547535 
 2425000     1.005066 -3.2391628e-05   0.38681781  0.020330845            0   0.36648696     1.488754    1.8755718   0.21712044 
 2430000   0.96140557 1.1773113e-05   0.46838023   0.03230473            0    0.4360755     1.424082    1.8924622    2.4952456 
 2435000    1.0200734 -6.4910042e-05   0.39138155  0.023163582            0   0.36821797    1.5109837    1.9023652   -1.4210289 
 2440000   0.94491789 -0.00015487381   0.51683996  0.061514869            0   0.45532509    1.3996596    1.9164996   -6.0130394 
 2445000   0.96745358 -0.00013198965   0.48848172  0.023207961            0   0.46527376    1.4330406    1.9215223   -4.8363479 
 2450000    1.0159747 -1.2952721e-05   0.39731983 0.0093603691            0   0.38795946    1.5049125    1.9022324    1.2390531 
 2455000   0.99987569 -3.6485957e-05   0.42217041  0.008180215            0   0.41399019    1.4810659    1.9032363  0.035155257 
 2460000    1.0383506 7.1993083e-05   0.35898625  0.038285544            0   0.32070071    1.5380569    1.8970431     5.583089 
 2465000    1.0160925 3.7776233e-05   0.37791868 0.0097987379            0   0.36811994     1.505087    1.8830057    3.8171488 
 2470000    0.9202516 2.5825036e-05    0.5113111  0.032594747            0   0.47871635    1.3631227    1.8744338    3.1966756 
 2475000   0.99863234 5.6626897e-05   0.39972723  0.043481206            0   0.35624603    1.4792242    1.8789514    4.7782485 
 2480000   0.97680811 6.8699269e-05    0.4219961  0.010727364            0   0.41126874     1.446897    1.8688931    5.3862957 
 2485000   0.99129542 8.8535443e-05   0.40429939  0.026815098            0    0.3774843    1.4683563    1.8726557    6.4056704 
 2490000   0.97281807 -1.0547947e-05   0.40672133  0.063434943            0   0.34328639    1.4409868    1.8477081    1.3076532 
 2495000   0.91389985 -8.3512521e-05   0.49383614  0.021346988            0   0.47248915    1.3537142    1.8475503   -2.4282908 
 2500000    0.9716478 6.5020293e-05   0.41389544  0.038108359            0   0.37578708    1.4392533    1.8531487    5.1821877 
 2505000    0.9815904 0.00015264343   0.41946675  0.043924174            0   0.37554257    1.4539808    1.8734475    9.6887913 
 2510000   0.98453865 -3.1423839e-05   0.41747891  0.040981338            0   0.37649758    1.4583479    1.8758268   0.26692622 
 2515000   0.95694667 -0.00014571272   0.45465969  0.023637164            0   0.43102253    1.4174773    1.8721369   -5.5883545 
 2520000   0.97661925 -3.9350763e-05   0.40442117  0.016628159            0   0.38779301    1.4466173    1.8510384  -0.16372063 
 2525000   0.99807169 3.563119e-05   0.36056435 0.0035202098            0   0.35704414    1.4783937     1.838958     3.663275 
 2530000   0.98887412 9.2586351e-05   0.37211041 0.0086844339            0   0.36342598    1.4647698    1.8368802    6.5773014 
 2535000   0.93747027 1.6288049e-05   0.47012346  0.013248143            0   0.45687532    1.3886278    1.8587513    2.6926994 
 2540000   0.89615425 -0.00012966293   0.54564746  0.066880999            0   0.47876646    1.3274285    1.8730759   -4.7656662 
 2545000    1.0351205 2.1169592e-05   0.37809416  0.010170106            0   0.36792405    1.5332722    1.9113664    2.9952495 
 2550000    1.0206032 7.9396293e-05   0.39770585 0.0048022101            0   0.39290364    1.5117685    1.9094744    5.9745646 
 2555000   0.97164962 6.7326315e-05   0.48412051  0.025744867            0   0.45837565     1.439256    1.9233765    5.3704839 
 2560000   0.98674902 2.5205304e-05   0.45982356 0.0085967909            0   0.45122676     1.461622    1.9214455    3.2119571 
 2565000    1.0624098 1.6287316e-05    0.3417959  0.016180643            0   0.32561526    1.5736946    1.9154905     2.749401 
 2570000      1.02892 6.8605928e-05   0.41133663  0.019123192            0   0.39221344    1.5240878    1.9354244    5.4480479 
 2575000    1.0096723 0.00010273077   0.39642069   0.02816803            0   0.36825266    1.4955771    1.8919977    7.1518132 
 2580000    1.0393078 1.4960128e-05   0.36028177  0.012757238            0   0.34752453    1.5394747    1.8997565    2.6657151 
 2585000    1.0194322 3.1798029e-06   0.38215589  0.022942227            0   0.35921366     1.510034    1.8921899    2.0549958 
 2590000   0.99198224 6.1459445e-05   0.43628867  0.017498732            0   0.41878993    1.4693737    1.9056624     5.052386 
 2595000   0.96061456 -9.7038084e-06   0.47601358  0.024758922            0   0.45125465    1.4229103    1.8989239    1.4020889 
 2600000    1.0155769 6.232465e-05   0.38203775 0.0098704687            0   0.37216728    1.5043232     1.886361    5.0773831 
 2605000    1.0609994 -4.3760822e-05   0.31816292  0.025139827            0   0.29302309    1.5716053    1.8897682  -0.35078583 
 2610000    1.0639817 -6.220461e-06   0.34295192  0.039429534            0   0.30352239    1.5760229    1.9189749    1.6004872 
 2615000    1.0430912 3.0040718e-05   0.39101105   0.02824182            0   0.36276923    1.5450789      1.93609    3.4741747 
 2620000    1.0295956 0.00011000767   0.41006746  0.021854978            0   0.38821248    1.5250884    1.9351559    7.5675487 
 2625000    1.0822542 -4.972947e-05     0.332257 0.0045251913            0    0.3277318     1.603089     1.935346  -0.61080285 
 2630000    1.0948908 9.910711e-06     0.339245  0.013702839            0   0.32554216     1.621807     1.961052    2.4684804 
 2635000    1.0385323 -2.7851128e-05   0.40163558  0.035730342            0   0.36590524    1.5383259    1.9399615   0.51398373 
 2640000    1.0037252 -7.4173325e-05   0.45375079  0.013666977            0   0.44008381    1.4867679    1.9405187   -1.8571555 
 2645000    1.1056014 2.7901421e-05   0.27507832 0.0067699957            0   0.26830832    1.6376721    1.9127504    3.3413032 
 2650000    1.0660458 5.403355e-05   0.36795503 0.0031899573            0   0.36476507    1.5790803    1.9470353    4.7135531 
 2655000    1.0816059 5.8907901e-05   0.35524821 0.0020245162            0   0.35322369    1.6021288     1.957377    4.9734615 
 2660000    1.1052593 -4.7112795e-05   0.29810734 0.0021746682            0   0.29593267    1.6371653    1.9352726  -0.47690248 
 2665000   0.98622182 -1.5197491e-05   0.45917694  0.053265436            0   0.40591151    1.4608411     1.920018    1.1419065 
 2670000   0.98501098 8.876697e-06   0.44409749  0.077220048            0   0.36687744    1.4590475     1.903145    2.3576319 
 2675000   0.98651333 -9.158026e-05   0.43367431  0.070409229            0   0.36326508    1.4612729    1.8949472   -2.7939621 
 2680000     1.036386 3.0383768e-05   0.35169041  0.030133427            0   0.32155698    1.5351467    1.8868371     3.442486 
 2685000   0.99586791 5.5958141e-05   0.42711622  0.011098696            0   0.41601752    1.4751293    1.9022456    4.7673024 
 2690000   0.99421866 -6.3678064e-06   0.40145735  0.023121053            0    0.3783363    1.4726864    1.8741437    1.5481121 
 2695000    1.0567082 -1.1305271e-05   0.29590149  0.016880002            0   0.27902149    1.5652489    1.8611504    1.2823206 
 2700000   0.97350819 4.5256362e-05   0.40535055  0.019963668            0   0.38538688     1.442009    1.8473596    4.1644853 
 2705000   0.98479594 6.0572895e-05   0.35375126  0.040879566            0    0.3128717     1.458729    1.8124803    4.9138125 
 2710000    1.0290015 -1.862338e-05   0.28642949  0.024108069            0   0.26232142    1.5242085     1.810638   0.85712096 
 2715000   0.98551914 -0.00011195544   0.34597203 0.0095563194            0   0.33641571    1.4598002    1.8057723   -3.9263463 
 2720000   0.97842464 -6.3235563e-05   0.35804282 0.0085501609            0   0.34949266    1.4492915    1.8073343   -1.4303265 
 2725000   0.98824547 4.1452723e-05   0.35638022  0.021212749            0   0.33516747    1.4638386    1.8202188    3.9425982 
 2730000    0.9989599 7.8772541e-06   0.35163946  0.029252125            0   0.32238733    1.4797094    1.8313488    2.2346642 
 2735000    1.0119035 -4.9655241e-05   0.33357586 0.0069660323            0   0.32660983    1.4988821     1.832458   -0.7098904 
 2740000   0.98832121 1.0260271e-05   0.33932474  0.013394859            0   0.32592988    1.4639508    1.8032755    2.3286014 
 2745000   0.98387075 3.4077417e-05   0.33141105  0.018731761            0   0.31267929    1.4573586    1.7887696    3.5335333 
 2750000   0.95018074 -1.0220674e-05   0.36701609  0.030398383            0   0.33661771    1.4074552    1.7744713    1.2511728 
 2755000    1.0036039 2.2847518e-05   0.27355031 0.0070448366            0   0.26650548    1.4865883    1.7601386    2.9299315 
 2760000   0.98217271 5.0881702e-05   0.30206806 0.0098571251            0   0.29221094    1.4548433    1.7569114    4.3620545 
 2765000   0.96464086 -2.4970784e-05   0.32722198  0.023676151            0   0.30354583    1.4288743    1.7560963   0.47759211 
 2770000   0.98396368 -2.9341775e-05    0.3185937  0.019839781            0   0.29875391    1.4574962    1.7760899   0.27379104 
 2775000    0.9864355 2.2751227e-05   0.30455339  0.049640822            0   0.25491257    1.4611576     1.765711    2.9305738 
 2780000   0.98735084 0.00010341931   0.32654207   0.03648298            0   0.29005909    1.4625134    1.7890555    7.0841241 
 2785000   0.96774494 -1.8918012e-05   0.32878657  0.013580897            0   0.31520568    1.4334722    1.7622588   0.79365653 
 2790000   0.93691379 -1.7585293e-05   0.37965971  0.014879493            0   0.36478022    1.3878036    1.7674633   0.86709625 
 2795000   0.95731691 5.515527e-05   0.33656524  0.013423679            0   0.32314157    1.4180257    1.7545909    4.5785408 
 2800000   0.95250008 4.6299099e-05   0.38850723  0.044266274            0   0.34424095    1.4108907     1.799398    4.1699118 
 2805000   0.99485765 -1.7316005e-05   0.34204814  0.013361803            0   0.32868633    1.4736329     1.815681   0.92910156 
 2810000   0.95167902 -5.8095088e-05   0.40678519  0.044888359            0   0.36189683    1.4096745    1.8164597   -1.1580088 
 2815000   0.91303481 -2.8087999e-05   0.48595665  0.045228165            0   0.44072849    1.3524328    1.8383895   0.40028395 
 2820000    1.0005374 6.5411493e-05   0.37381605  0.047993194            0   0.32582286     1.482046     1.855862    5.2049305 
 2825000     1.052588 3.7908213e-05   0.31683031   0.01754557            0   0.29928474     1.559146    1.8759763    3.8168768 
 2830000   0.99383308 1.3640225e-06    0.4205028 0.0077816847            0   0.41272111    1.4721153    1.8926181     1.962456 
 2835000    1.0332606 1.4739875e-05   0.33496443 0.0050720021            0   0.32989242    1.5305173    1.8654818    2.6201634 
 2840000    1.0805016 -3.6612729e-06   0.30385366  0.003312396            0   0.30054126     1.600493    1.9043467    1.7168895 
 2845000    1.0436144 -3.9983436e-05   0.36629372  0.013459266            0   0.35283445    1.5458539    1.9121476  -0.13500434 
 2850000   0.98184299 -1.1933936e-06   0.45900541  0.015069099            0   0.44393631    1.4543549    1.9133603    1.8522586 
 2855000   0.97705452 -4.0206568e-06    0.4877021  0.070095214            0   0.41760688     1.447262    1.9349641    1.7291065 
 2860000    1.0244078 4.7172812e-05   0.39420641   0.02255187            0   0.37165454     1.517404    1.9116104    4.3268584 
 2865000     1.057488 8.5449154e-05   0.34875176 0.0073676845            0   0.34138407    1.5664042    1.9151559    6.2901526 
 2870000    0.9986258 -3.6356983e-05   0.41089428  0.037079332            0   0.37381495    1.4792145    1.8901087  0.028631231 
 2875000    1.0198176 -1.3351788e-05    0.3932168  0.046573122            0   0.34664368    1.5106048    1.9038216    1.2202101 
 2880000    1.0610791 -7.6983435e-05    0.3313219  0.025059906            0   0.30626199    1.5717234    1.9030453   -2.0385065 
 2885000   0.97897549 -6.4204767e-05   0.42331831  0.059284734            0   0.36403357    1.4501074    1.8734258   -1.4138583 
 2890000    1.0338312 0.00014683242   0.33440907  0.023895853            0   0.31051322    1.5313625    1.8657716    9.3835917 
 2895000    1.0576758 4.0960285e-05   0.30892839 0.0064802121            0   0.30244817    1.5666823    1.8756107    3.9727773 
 2900000    1.0131561 -1.5287959e-06   0.36363276 0.0079256763            0   0.35570708    1.5007374    1.8643702    1.7860958 
 2905000   0.93927479 -4.192411e-05   0.45851064  0.040546654            0   0.41796399    1.3913008    1.8498114  -0.29670301 
 2910000   0.99708387 -3.0420387e-05   0.36344979  0.014502865            0   0.34894693    1.4769305    1.8403803   0.28285645 
 2915000   0.90852724 5.2373896e-05   0.48579999  0.011577218            0   0.47422277     1.345756     1.831556    4.5130994 
 2920000    1.0101127 6.8787501e-05   0.34784017  0.033573438            0   0.31426673    1.4962295    1.8440697    5.3659897 
 2925000     1.008597  -3.2887e-05    0.3980741  0.028660457            0   0.36941364    1.4939843    1.8920584   0.20824404 
 2930000   0.96685834 -2.5838113e-05   0.45830571  0.020929963            0   0.43737575    1.4321589    1.8904646   0.56755325 
 2935000   0.99214415 -4.0738068e-05   0.39061337   0.01294772            0   0.37766565    1.4696135    1.8602269  -0.22556221 
 2940000   0.93577695 -9.5948933e-05   0.44441244  0.066679358            0   0.37773308    1.3861196     1.830532   -3.0820533 
 2945000    1.0040425 1.1998346e-05   0.35289635  0.016610622            0   0.33628572    1.4872379    1.8401343    2.4544496 
 2950000   0.98399172 6.4712931e-05   0.35684935  0.029872211            0   0.32697714    1.4575377    1.8143871    5.1276892 
 2955000   0.98143313 -4.4495407e-06   0.35510489  0.033927867            0   0.32117702    1.4537478    1.8088527    1.5810362 
 2960000   0.95487005 -2.8560809e-05   0.43120088  0.074238366            0   0.35696252    1.4144013    1.8456021   0.38328874 
 2965000   0.89518938 9.6414331e-05   0.49005634  0.076161987            0   0.41389435    1.3259993    1.8160556    6.7524693 
 2970000    1.0170772 5.1825126e-05   0.32333588  0.015454721            0   0.30788116    1.5065455    1.8298814    4.4833279 
 2975000    0.9458748 -7.3005043e-05   0.40259941 0.0017378206            0   0.40086159     1.401077    1.8036765   -1.9341817 
 2980000   0.98038677 1.3789159e-05   0.35444244 0.0083536406            0    0.3460888    1.4521979    1.8066403    2.5126453 
 2985000    1.0096314 5.018878e-05    0.3069311 0.0081725681            0   0.29875853    1.4955166    1.8024477    4.3721132 
 2990000   0.98008959 4.2441613e-05   0.38030382 0.00077212687            0   0.37953169    1.4517577    1.8320615    4.0050721 
 2995000     1.019249 7.413889e-05   0.34044265 0.00024044429            0   0.34020221    1.5097626    1.8502053    5.6461164 
 3000000    1.0387018 -8.53094e-05   0.32137592 0.00075336472            0   0.32062256     1.538577    1.8599529   -2.5078883 
 3005000   0.95374371 -0.00011600858   0.41627997 0.0070884113            0   0.40919156    1.4127329    1.8290128   -4.1106267 
 3010000   0.95386963 -4.8837397e-05   0.41442884  0.021396966            0   0.39303187    1.4129194    1.8273482  -0.67312649 
 3015000    1.0154475 -5.5523594e-05   0.33623271  0.020917535            0   0.31531518    1.5041316    1.8403643   -1.0024437 
 3020000    1.0528524 -1.4036563e-05   0.29569973  0.022314824            0   0.27338491    1.5595376    1.8552373    1.1365653 
 3025000   0.96420436 5.5499164e-05   0.43751892  0.023954721            0    0.4135642    1.4282277    1.8657466    4.7073038 
 3030000   0.97855124 8.7542892e-05   0.39681875  0.021327718            0   0.37549103     1.449479    1.8462978    6.3284939 
 3035000   0.99500589 -7.9066739e-06   0.35284003  0.025803467            0   0.32703656    1.4738525    1.8266925    1.4218708 
 3040000    1.0092968 5.6749989e-05    0.3372012  0.045004553            0   0.29219665    1.4950208     1.832222    4.7378214 
 3045000      0.97192 0.00010025606   0.43985247   0.02372048            0   0.41613199    1.4396565     1.879509    7.0126194 
 3050000    1.0339255 -1.8463087e-05    0.3434798  0.013181592            0   0.33029821    1.5315021    1.8749819   0.92967181 
 3055000    1.0455563 -6.6174369e-05   0.35449099  0.031843977            0   0.32264701    1.5487303    1.9032213   -1.4849064 
 3060000    1.0525464 3.2948657e-05   0.35149131   0.01165764            0   0.33983367    1.5590844    1.9105757    3.5975469 
 3065000    1.0579301  7.15774e-06   0.34780874 0.0031335472            0   0.34467519     1.567059    1.9148678     2.281344 
 3070000    1.0030907 -1.5868523e-05   0.41804247  0.011466381            0   0.40657609    1.4858281    1.9038706    1.0914022 
 3075000     1.057131 4.1311145e-05    0.3226757  0.019525102            0    0.3031506    1.5658753     1.888551    4.0036816 
 3080000   0.93552792 7.5477698e-05   0.45870775   0.04172354            0   0.41698421    1.3857507    1.8444585    5.7089166 
 3085000    1.0461721 3.7138903e-05   0.30860249  0.014570907            0   0.29403158    1.5496425     1.858245    3.7597568 
 3090000    1.0171683  7.41316e-05   0.34463169  0.016010761            0   0.32862093    1.5066806    1.8513123    5.6468502 
 3095000   0.95183496 -4.9556191e-05   0.44897494  0.051772792            0   0.39720214    1.4099055    1.8588805   -0.6783965 
 3100000   0.94388322 -3.9853288e-05   0.47695082  0.070187201            0   0.40676362     1.398127    1.8750778   -0.1654105 
 3105000    1.0299808 -2.1834263e-05   0.33034815  0.027901263            0   0.30244689    1.5256591    1.8560072   0.73809295 
 3110000    1.0157632 -6.1566916e-05   0.34799692  0.005273449            0   0.34272347    1.5045993    1.8525962   -1.2996299 
 3115000    1.0114689 -8.9289777e-05   0.38109411 0.0058622448            0   0.37523186    1.4982384    1.8793325   -2.6923041 
 3120000    1.0138427 -2.2800197e-05   0.35934668  0.014175268            0   0.34517141    1.5017545    1.8611012    0.6937311 
 3125000    0.9881617 8.5679649e-05   0.40261935  0.014512337            0   0.38810702    1.4637145    1.8663339    6.2531319 
 3130000   0.98533506 8.3880373e-05   0.39956347  0.019978444            0   0.37958503    1.4595276     1.859091    6.1537661 
 3135000    1.0168713 -4.1832474e-05   0.34052215  0.025559204            0   0.31496295    1.5062407    1.8467628  -0.29505986 
 3140000   0.96464574 -0.00011922927   0.37415697  0.014275025            0   0.35988194    1.4288815    1.8030385   -4.3015002 
 3145000   0.99820663 -3.4889984e-05   0.33156109  0.021410594            0    0.3101505    1.4785936    1.8101547  0.023787489 
 3150000   0.99524764 -3.449929e-06   0.34455549  0.017583112            0   0.32697238    1.4742106    1.8187661    1.6421297 
 3155000   0.99946242 -2.2532304e-05   0.37248767   0.01208139            0   0.36040628    1.4804537    1.8529414   0.69928739 
 3160000   0.98781297 6.7873389e-06   0.37899995 0.0063340397            0   0.37266591     1.463198    1.8421979    2.1897097 
 3165000   0.99220272 2.5496375e-05   0.30232668  0.028014208            0   0.27431247    1.4697003     1.772027    3.0774414 
 3170000   0.94507615 -7.0050185e-05   0.39444097  0.033528234            0   0.36091273    1.3998941     1.794335   -1.7922345 
 3175000   0.96056966 4.6212825e-06   0.34815318  0.011401312            0   0.33675187    1.4228438     1.770997    2.0076067 
 3180000   0.92238464 7.287514e-05   0.42663598  0.014279619            0   0.41235636    1.3662823    1.7929182    5.5241254 
 3185000   0.91378849 1.7940316e-05    0.4536219  0.035813166            0   0.41780873    1.3535492    1.8071711    2.7257153 
 3190000   0.98855088 9.869779e-05   0.33380221  0.021769958            0   0.31203225     1.464291    1.7980932      6.85142 
 3195000   0.95561308 0.00012721042   0.36513649 0.0081668675            0   0.35696962    1.4155019    1.7806384    8.2938118 
 3200000   0.97503565 6.8066637e-05    0.3235627 0.0017062506            0   0.32185645    1.4442716    1.7678343    5.2528461 
 3205000   0.95755715 1.5742469e-05   0.34723107 0.0036349312            0   0.34359614    1.4183815    1.7656126     2.571627 
 3210000   0.94933131 -1.1339036e-05   0.37306699  0.029099996            0   0.34396699     1.406197     1.779264    1.1987053 
 3215000   0.94233224 -1.0342687e-05   0.36635689  0.057768964            0   0.30858793    1.3958296    1.7621865     1.232641 
 3220000   0.95153203 -4.33519e-05   0.38533141  0.027212596            0   0.35811882    1.4094568    1.7947882  -0.42482906 
 3225000   0.93471036 -2.567171e-05   0.37511064 0.0046805679            0   0.37043007    1.3845397    1.7596504   0.44525882 
 3230000   0.97340276 0.00011818676   0.31178793    0.0212833            0   0.29050463    1.4418528    1.7536408    7.8048029 
 3235000   0.92890758 0.00011016722   0.37264836  0.017024029            0   0.35562433    1.3759444    1.7485927    7.3891544 
 3240000   0.89302853 -6.476335e-05   0.40443299  0.012174114            0   0.39225887    1.3227985    1.7272315    -1.588652 
 3245000   0.90773404 -7.675484e-05   0.36785405   0.01461086            0   0.35324319     1.344581    1.7124351   -2.2174127 
 3250000   0.89260219 -4.6810959e-05   0.37415199 0.0083915245            0   0.36576046     1.322167     1.696319  -0.70040213 
 3255000   0.91541597 -6.616051e-05   0.37160061 0.0088464155            0   0.36275419    1.3559599    1.7275605   -1.6598576 
 3260000   0.86572835 6.6427121e-05   0.43515954  0.031909477            0   0.40325006    1.2823601    1.7175197    5.1185883 
 3265000   0.95332763 3.4521245e-05   0.32719387  0.012766706            0   0.31442716    1.4121165    1.7393104    3.5067982 
 3270000   0.92272768 3.3282521e-05    0.3572976 0.0092273026            0    0.3480703    1.3667904     1.724088    3.4281531 
 3275000   0.87668174 4.5792886e-05   0.41233432  0.024403233            0   0.38793108    1.2985848    1.7109191    4.0555149 
 3280000   0.83867967 -3.8022634e-05   0.43535132  0.037870398            0   0.39748092    1.2422943    1.6776456   -0.2691133 
 3285000   0.90810065 7.7549551e-06   0.32836931 0.0077955061            0   0.32057381    1.3451241    1.6734934    2.0705471 
 3290000   0.88154609 2.0586022e-05    0.3565299   0.01433862            0   0.34219128    1.3057901      1.66232    2.7163244 
 3295000   0.84140871 6.1779786e-05   0.41516752  0.046133115            0   0.36903441    1.2463367    1.6615042    4.8246292 
 3300000   0.88724069 9.4100703e-05   0.35532559 0.0070337183            0   0.34829187    1.3142253    1.6695509    6.4875068 
 3305000   0.88884765 -7.0534166e-06   0.35549689  0.014154823            0   0.34134206    1.3166056    1.6721025    1.3109675 
 3310000    0.8414834 2.1187988e-06   0.37255484  0.016463251            0   0.35609159    1.2464473    1.6190021    1.7274846 
 3315000    0.8442271 -4.7453242e-05   0.36952753 0.0052018869            0   0.36432565    1.2505114    1.6200389  -0.80956707 
 3320000   0.83607594 -5.7667785e-05   0.38395858 0.0016734804            0    0.3822851    1.2384375    1.6223961   -1.3301945 
 3325000   0.84942882 -7.4918167e-05   0.36147057    0.0099692            0   0.35150137    1.2582164     1.619687   -2.2161232 
 3330000   0.85899258 -0.00015965634   0.37431037  0.032661712            0   0.34164866    1.2723828    1.6466931   -6.5277115 
 3335000   0.87771209 -3.4443968e-06   0.35411662  0.016148817            0    0.3379678     1.300111    1.6542276    1.4778745 
 3340000   0.78511477 1.3925604e-05   0.44864034 0.0050548193            0   0.44358552    1.1629513    1.6115916    2.3245825 
 3345000   0.80706335 2.0283459e-05    0.4148891  0.030368465            0   0.38452063    1.1954626    1.6103517    2.6488648 
 3350000   0.85044718 -0.00010169854   0.34700981  0.060118423            0   0.28689138    1.2597249    1.6067347   -3.6002306 
 3355000   0.85220384 6.2373005e-05   0.34444949  0.041132365            0   0.30331712    1.2623269    1.6067764    4.8002743 
 3360000   0.83593591 -3.9544007e-05   0.37785432  0.018528446            0   0.35932587    1.2382301    1.6160844  -0.40856876 
 3365000    0.8278701 -5.0063367e-05   0.39726523  0.043142216            0   0.35412302    1.2262826    1.6235478  -0.93969657 
 3370000   0.81868462 -0.00014915741   0.41087198  0.024961835            0   0.38591014    1.2126766    1.6235486   -6.0133108 
 3375000   0.85658027 -8.6074901e-05   0.35359332  0.025677007            0   0.32791632    1.2688095    1.6224029   -2.7846321 
 3380000   0.80178393 -6.7122876e-05    0.4125169  0.013115563            0   0.39940134    1.1876424    1.6001593   -1.8365319 
 3385000   0.77710283 0.00010559036   0.41221551  0.054150854            0   0.35806465    1.1510836    1.5632991    6.9695255 
 3390000    0.8315798 2.3902765e-05   0.35191976  0.015632344            0   0.33628742    1.2317776    1.5836973    2.8075189 
 3395000   0.85570624 -6.6986861e-05   0.35392564 0.0097761549            0   0.34414948    1.2675149    1.6214405   -1.8082868 
 3400000   0.83723732 -0.0001005179   0.37865702 0.0090137974            0   0.36964322    1.2401578    1.6188148   -3.5277017 
 3405000   0.89804121 -3.1846536e-05   0.28907557 0.0096564039            0   0.27941916    1.3302235    1.6192991 -0.011243526 
 3410000   0.84331151 6.9023966e-05   0.36108407  0.016274947            0   0.34480913    1.2491552    1.6102392    5.1442663 
 3415000   0.82951446 3.4505782e-05   0.38208583 0.0096859027            0   0.37239992    1.2287183    1.6108041    3.3775002 
 3420000   0.82499192 -1.6792902e-05   0.41262679  0.053565791            0     0.359061    1.2220193    1.6346461   0.77484949 
 3425000   0.83375179 -0.00018967197   0.40646317  0.056261234            0   0.35020194    1.2349948     1.641458   -8.0697471 
 3430000   0.83153938 -3.9121884e-06   0.43000007  0.018479004            0   0.41152107    1.2317177    1.6617178    1.4614137 
 3435000   0.84907131 3.3675245e-05   0.42360214   0.03151329            0   0.39208885    1.2576869     1.681289    3.4054616 
 3440000   0.83077938 2.1079425e-05   0.44651649   0.03479447            0   0.41172202    1.2305919    1.6771084     2.756375 
 3445000   0.93040032 2.6195623e-05   0.32411311  0.011599278            0   0.31251383    1.3781555    1.7022686    3.0434845 
 3450000   0.88519027 9.8129185e-06   0.39831189  0.010082398            0    0.3882295    1.3111881       1.7095    2.2119214 
 3455000   0.87518317 3.0284453e-05   0.43654839 0.0082264845            0   0.42832191    1.2963651    1.7329135    3.2834775 
 3460000   0.86733689 -4.2084173e-05   0.49700962   0.00274827            0   0.49426135    1.2847428    1.7817524  -0.37295725 
 3465000   0.89388143 -2.3614946e-05   0.46477462 0.00019459811            0   0.46458002    1.3240619    1.7888365   0.57975125 
 3470000   0.94367593 8.6300688e-05   0.35425337 0.0067946226            0   0.34745875      1.39782    1.7520733    6.1706686 
 3475000   0.86595366 0.00010857585   0.47705336  0.011509685            0   0.46554368    1.2826939    1.7597472    7.3188305 
 3480000   0.97413282 7.3764623e-05   0.33990921 0.0082273466            0   0.33168187    1.4429342    1.7828435    5.5595921 
 3485000   0.85424271 1.4184716e-05   0.52429546  0.012238188            0   0.51205727     1.265347    1.7896425    2.5158999 
 3490000    0.9091408 -1.6511213e-05   0.44975826  0.024156944            0   0.42560132    1.3466648    1.7964231   0.95104896 
 3495000   0.88093135 -2.6329187e-05   0.48682403  0.082517828            0    0.4043062    1.3048796    1.7917036   0.44364922 
 3500000   0.90088907 2.5981655e-05   0.45718437  0.037924591            0   0.41925978    1.3344419    1.7916263     3.121887 
 3505000   0.87797442 3.4689748e-05   0.48640391  0.018455302            0   0.46794861    1.3004996    1.7869035    3.5630186 
 3510000   0.83663415 -3.8344134e-05   0.52320896  0.026430265            0   0.49677869    1.2392643    1.7624733  -0.20074637 
 3515000   0.94194083   3.5564e-05   0.36270895  0.030759985            0   0.33194897    1.3952499    1.7579588    3.5788356 
 3520000     0.939077 3.7471771e-05   0.39116664  0.015440569            0   0.37572607    1.3910078    1.7821744    3.7007291 
 3525000   0.88912802 -2.5016645e-05   0.50315993  0.018232091            0   0.48492784    1.3170209    1.8201808   0.53932859 
 3530000    0.9537274 2.1937871e-05   0.41194547 0.0033700178            0   0.40857545    1.4127087    1.8246542    2.9478732 
 3535000   0.90513375 0.00013929699   0.48431666  0.022876047            0   0.46144061    1.3407294     1.825046    8.9570517 
 3540000   0.93416571 9.5178899e-05   0.43081265  0.051398242            0    0.3794144     1.383733    1.8145456    6.6877052 
 3545000   0.93933253 1.813033e-05   0.43385633  0.043088051            0   0.39076828    1.3913863    1.8252426    2.7535155 
 3550000   0.91025179 -4.8349836e-05   0.46829635  0.028094281            0   0.44020207    1.3483105    1.8166068   -0.6589048 
 3555000   0.95581313 1.8849822e-05    0.4064866  0.045169199            0    0.3613174    1.4157982    1.8222848    2.7873957 
 3560000    0.9093899 6.1601942e-05   0.50619032  0.032648601            0   0.47354172    1.3470338    1.8532241    5.0072435 
 3565000   0.95641388 8.4964486e-05    0.4544771  0.052497489            0   0.40197961    1.4166881    1.8711652    6.2213468 
 3570000   0.96245702 1.4426408e-05   0.42682171  0.079538754            0   0.34728296    1.4256395    1.8524612    2.5910932 
 3575000   0.92407944 -0.00013985989   0.47095487  0.025391166            0    0.4455637    1.3687927    1.8397475    -5.321079 
 3580000   0.94766806 -5.8501432e-05   0.42725875  0.018545873            0   0.40871288    1.4037333    1.8309921   -1.1642812 
 3585000   0.96290382 -2.9627952e-05   0.41540415 0.0050443888            0   0.41035976    1.4263013    1.8417054   0.32475429 
 3590000   0.95353231 -5.0778741e-05   0.42955225 0.00061273957            0   0.42893951    1.4124197     1.841972  -0.75789957 
 3595000    1.0308702 0.00010068507   0.30365394 0.0041959384            0   0.29945801    1.5269765    1.8306305    6.9857063 
 3600000   0.85247474 0.00011641155   0.53379831  0.044950804            0   0.48884751    1.2627282    1.7965265     7.756798 
 3605000   0.88550495 -8.2832782e-05   0.47080544  0.028378925            0   0.44242652    1.3116542    1.7824596   -2.4585788 
 3610000   0.94237222 -9.5786854e-05   0.38212754  0.024504876            0   0.35762266    1.3958888    1.7780164   -3.1262705 
 3615000   0.91188168 -0.0001483969   0.43033337  0.010249438            0   0.42008393    1.3507247    1.7810581   -5.8168631 
 3620000   0.97745045 -3.2724981e-05   0.34939943 0.0067978334            0   0.34260159    1.4478485    1.7972479   0.12172886 
 3625000   0.88337976 0.00014031437   0.48321375  0.025901117            0   0.45731263    1.3085063      1.79172    8.9758159 
 3630000   0.94807885 9.8223659e-05   0.38365767  0.015132191            0   0.36852547    1.4043418    1.7879995    6.8170508 
 3635000   0.88664723 -2.16563e-05   0.46004262 0.0049348019            0   0.45510781    1.3133462    1.7733888   0.66458628 
 3640000   0.90270774 2.947606e-05   0.45246307     0.025092            0   0.42737107    1.3371358    1.7895989    3.2987732 
 3645000   0.89228531 5.1083431e-06   0.48739294   0.03037919            0   0.45701375    1.3216976    1.8090906    2.0706377 
 3650000   0.87588775 -0.00011360585   0.51236884 0.0076766658            0   0.50469217    1.2974087    1.8097776   -4.0068419 
 3655000    1.0104073 2.314787e-05   0.32829895 0.0010589189            0   0.32724004    1.4966658    1.8249648    3.0101357 
 3660000   0.98726044 5.6608316e-05   0.38861426  6.07035e-05            0   0.38855356    1.4623795    1.8509938    4.7493395 
 3665000   0.91122096 -7.8514058e-05   0.50638286            0            0   0.50638286    1.3497461    1.8561289   -2.1637908 
 3670000    1.0108177 3.3132613e-05   0.36927182  0.004802208            0   0.36446961    1.4972737    1.8665455    3.5629353 
 3675000   0.94836486 7.9855403e-05   0.45090148  0.014513524            0   0.43638796    1.4047654    1.8556669    5.9442636 
 3680000   0.90948161 -1.323974e-05    0.5008161  0.023334433            0   0.47748167    1.3471696    1.8479857     1.170111 
 3685000   0.98429992 2.1336625e-05   0.41409861  0.023142999            0   0.39095561    1.4579943    1.8720929    2.9645281 
 3690000   0.98768365 3.3827408e-05   0.40703984    0.0669985            0   0.34004134    1.4630064    1.8700463    3.6020095 
 3695000   0.89286619 -9.7915766e-05    0.5514236  0.028771865            0   0.52265174     1.322558    1.8739817   -3.1393055 
 3700000    0.9898639 -4.4935457e-05   0.38789494 0.0077910609            0   0.38010388    1.4662359    1.8541308  -0.44656457 
 3705000   0.94875784 -8.5507607e-05   0.49215484  0.010857645            0    0.4812972    1.4053476    1.8975024   -2.4804871 
 3710000    0.9544369 -0.00013238971   0.48563984   0.01470675            0   0.47093309    1.4137597    1.8993995   -4.8789535 
 3715000    1.0165695 -7.4437419e-05   0.39371486 0.0097345052            0   0.38398036    1.5057936    1.8995084   -1.9116874 
 3720000   0.95051916 1.2925748e-05   0.49288788  0.009606548            0   0.48328133    1.4079565    1.9008444    2.5626427 
 3725000    1.0310792 3.1803105e-05   0.38596237  0.039836903            0   0.34612547    1.5272861    1.9132485    3.5415675 
 3730000   0.94755783 -8.9102103e-05   0.49176096  0.051118573            0   0.44064238      1.40357     1.895331   -2.6666967 
 3735000   0.98635908 -1.3702198e-05   0.43797287  0.019381427            0   0.41859145    1.4610444    1.8990173    1.1974647 
 3740000   0.96650242 6.6648391e-06   0.44670596  0.031221772            0   0.41548419    1.4316317    1.8783377    2.2195774 
 3745000   0.95533254 -8.8997788e-05   0.47767743  0.019027192            0   0.45865023    1.4150863    1.8927638    -2.663923 
 3750000    1.0446908 -0.0001668792   0.35262667 0.0060151877            0   0.34661149    1.5474483     1.900075   -6.6441399 
 3755000   0.94545134 -0.00012004286   0.52708637 0.0036355547            0   0.52345082    1.4004498    1.9275362   -4.2186582 
 3760000    0.9976791 -8.6323604e-06   0.43317749 0.0060072733            0   0.42717022    1.4778122    1.9109897    1.4690128 
 3765000    1.0032049 1.6282062e-05   0.40534004 0.0071650012            0   0.39817504    1.4859973    1.8913373    2.7249789 
 3770000    1.0071326 2.4308018e-05   0.41955931  0.011725497            0   0.40783381    1.4918152    1.9113745     3.155945 
 3775000   0.90022936 2.6300351e-05   0.55841971  0.058389381            0   0.50003033    1.3334647    1.8918845    3.2384624 
 3780000    1.0317083 -4.11924e-05   0.35263187  0.042496909            0   0.31013496    1.5282179    1.8808497  -0.22820116 
 3785000   0.88461722 -5.1866742e-05   0.59489331  0.047345257            0   0.54754805    1.3103393    1.9052326  -0.75034461 
 3790000    1.0204967 1.4325475e-05    0.3868189  0.038371316            0   0.34844758    1.5116107    1.8984296    2.6318939 
 3795000   0.99332742 -6.0900307e-05   0.41871463  0.051163665            0   0.36755096    1.4713662    1.8900809   -1.2280148 
 3800000   0.95368426 -3.6956734e-05   0.48968033  0.020558296            0   0.46912203    1.4126448    1.9023251  0.010140371 
 3805000    1.0117365 1.306166e-05   0.40332113 0.0012221139            0   0.40209902    1.4986347    1.9019559    2.5707128 
 3810000    1.1154096 -1.4916463e-05   0.23837226 0.0097410148            0   0.22863124    1.6522004    1.8905727    1.1268498 
 3815000   0.95423435 -5.322065e-05    0.4899646  0.026881756            0   0.46308285    1.4134596    1.9034242  -0.82147307 
 3820000   0.96525499 3.4851005e-05   0.47419684  0.041074762            0   0.43312208     1.429784    1.9039808    3.6883522 
 3825000   0.91941231 0.00011279418   0.55803283  0.079124329            0    0.4789085    1.3618795    1.9199123    7.6949746 
 3830000      1.03417 7.6409746e-06   0.40432839  0.039031667            0   0.36529672    1.5318643    1.9361927    2.3274106 
 3835000    1.0099005 -7.9158652e-06   0.45048218  0.029649487            0   0.42083269    1.4959151    1.9463973     1.541105 
 3840000     0.972356  5.15899e-05   0.51715822 0.0038993669            0   0.51325885    1.4403023    1.9574605    4.5988634 
 3845000    1.0611661 -2.1078868e-05   0.37338231 5.0730911e-05            0   0.37333158    1.5718522    1.9452346   0.86599653 
 3850000    1.0481379 -1.2926824e-05   0.40706083 0.0011785682            0   0.40588227    1.5525542    1.9596151    1.2977617 
 3855000    1.0551556 4.5810395e-05   0.40175483  0.010943316            0   0.39081151    1.5629492     1.964704    4.3101963 
 3860000     1.028426 -0.00015192649   0.45562901  0.023977554            0   0.43165145     1.523356     1.978985   -5.7996512 
 3865000    1.0075773 -7.7588512e-06   0.47139536  0.037712951            0   0.43368241    1.4924739    1.9638692     1.566616 
 3870000    1.0315303 3.7605231e-05   0.38548979 0.0093135426            0   0.37617625    1.5279543    1.9134441    3.8388319 
 3875000   0.93381592 -9.7160645e-05   0.52530466  0.023505708            0   0.50179895    1.3832148    1.9085195   -3.0661055 
 3880000    0.9761939 4.584693e-05   0.43889728  0.021745881            0    0.4171514    1.4459872    1.8848845    4.2322473 
 3885000    0.9720824 2.2143188e-05   0.42506176  0.022826923            0   0.40223483    1.4398971    1.8649588    2.9986901 
 3890000   0.92360993 -2.3562853e-05    0.5386802  0.029913721            0   0.50876648    1.3680972    1.9067774   0.70035935 
 3895000    1.0301426 2.8748598e-06   0.38676846  0.020112576            0   0.36665588    1.5258987    1.9126671    2.0598599 
 3900000   0.96979821 3.5234978e-06   0.51489223  0.012933378            0   0.50195885    1.4365136    1.9514058    2.1318089 
 3905000    1.0518226 -5.1398514e-05   0.40198059  0.034858744            0   0.36712185    1.5580122    1.9599928  -0.67161117 
 3910000    1.0633787 -7.8141237e-05   0.38137465 0.0057007296            0   0.37567392    1.5751297    1.9565043    -2.044327 
 3915000     1.081656 1.412322e-06   0.36063752  0.011821187            0   0.34881633    1.6022029    1.9628404    2.0351513 
 3920000   0.97077339 5.1076381e-05   0.48660702  0.012612895            0   0.47399413    1.4379581    1.9245651    4.5396758 
 3925000   0.98667543 -1.8676426e-06   0.47600226 0.00075513273            0   0.47524713     1.461513    1.9375152    1.8418919 
 3930000   0.95465829 -7.7653769e-05   0.52016778 0.0043272456            0   0.51584053    1.4140876    1.9342554   -2.0416176 
 3935000   0.95706315 -4.8032685e-05   0.49857793 0.0080454983            0   0.49053244    1.4176498    1.9162277  -0.54304575 
 3940000    0.9776407 0.00011281019   0.48168832  0.011600728            0    0.4700876    1.4481303    1.9298186    7.7057005 
 3945000    1.0485636 6.4163516e-05   0.33819268  0.034151216            0   0.30404146    1.5531848    1.8913775    5.1765495 
 3950000   0.97181279 -0.00017347684   0.43795946   0.01836097            0   0.41959849    1.4394977    1.8774572   -7.0045573 
 3955000   0.97771973 -3.0690911e-05   0.44291947  0.025056736            0   0.41786274    1.4482473    1.8911668   0.31979218 
 3960000   0.96602114 2.7404371e-05   0.44895022  0.020479096            0   0.42847113    1.4309188     1.879869    3.2829728 
 3965000   0.90003309 -0.00012785357   0.50611311  0.047434281            0   0.45867883     1.333174    1.8392871   -4.7068154 
 3970000   0.91094653 -0.00010683431   0.48190543  0.010863978            0   0.47104145    1.3493396     1.831245   -3.6386717 
 3975000   0.91403282 1.5681455e-05   0.47159823  0.022316577            0   0.44928166    1.3539111    1.8255094    2.6283998 
 3980000   0.92131174 -0.00011193969   0.46626905  0.015517488            0   0.45075156     1.364693    1.8309621   -3.9003502 
 3985000   0.89192948 4.1095114e-06   0.51248772  0.022011643            0   0.49047608    1.3211705    1.8336583    2.0440653 
 3990000   0.91224245 3.4321809e-05    0.4670214  0.021296978            0   0.44572442    1.3512591    1.8182805    3.5755572 
 3995000    0.9869007 2.8140688e-05   0.37897528  0.011578005            0   0.36739728    1.4618467    1.8408219    3.2816252 
 4000000    1.0196214 -4.9503426e-05   0.35596292  0.015141552            0   0.34082137    1.5103142    1.8662771   -0.6682983 
 4005000   0.94302939 -8.9808259e-05   0.47326204  0.030195984            0   0.44306606    1.3968623    1.8701243   -2.7280585 
 4010000   0.97053773 1.1734124e-05   0.43634638  0.013285255            0   0.42306113     1.437609    1.8739554    2.4747426 
 4015000   0.96539873 -2.4067507e-05   0.45275098   0.04146347            0   0.41128751    1.4299969    1.8827479   0.65049153 
 4020000   0.93354772 0.00010220269    0.4765906  0.039967017            0   0.43662358    1.3828176    1.8594082    7.0921858 
 4025000   0.87121533 -3.9113292e-05   0.55943344   0.01730573            0   0.54212771    1.2904877    1.8499211  -0.15267939 
 4030000    0.9673697 -4.0254531e-05   0.39973091  0.030834548            0   0.36889637    1.4329164    1.8326473   -0.2283847 
 4035000   0.95768906 -4.3757843e-05    0.4292419  0.049293797            0   0.37994811    1.4185769    1.8478188  -0.39258275 
 4040000   0.95685181 -5.7712346e-05   0.41868313  0.025387855            0   0.39329527    1.4173367    1.8360199   -1.1188523 
 4045000   0.91183247 8.5427409e-05   0.47685109  0.035822436            0   0.44102866    1.3506518    1.8275029    6.2013863 
 4050000   0.99343372 1.3368098e-05   0.38843599  0.027967191            0    0.3604688    1.4715237    1.8599597    2.5444063 
 4055000   0.95204259 -3.0133621e-05   0.46082638  0.013499138            0   0.44732724    1.4102131    1.8710395   0.32819809 
 4060000   0.94583954 3.0082786e-05   0.46919213  0.042086103            0   0.42710603    1.4010248    1.8702169    3.4104556 
 4065000   0.92785511 -0.00014242901   0.49966582   0.07347906            0   0.42618676    1.3743854    1.8740512   -5.4183141 
 4070000   0.95649363 -5.5448782e-05    0.4580214  0.050943822            0   0.40707758    1.4168062    1.8748276  -0.96415005 
 4075000    1.0150049 -1.5744817e-07   0.37201076 0.0069438639            0    0.3650669     1.503476    1.8754868    1.8674254 
 4080000    0.9500119 0.00010229942   0.46115733  0.038555733            0    0.4226016    1.4072051    1.8683625    7.1060926 
 4085000   0.97858598 -3.8661471e-05   0.40986044  0.016607285            0   0.39325316    1.4495305    1.8593909  -0.12007638 
 4090000   0.98529369 -4.177771e-05   0.39098315 0.0018791223            0   0.38910402    1.4594663    1.8504494  -0.28856935 
 4095000    1.0038376 6.5919159e-05   0.37705428 0.0089455829            0    0.3681087    1.4869344    1.8639887    5.2390496 
 4100000   0.96612592 2.1597946e-05   0.45332177  0.022587191            0   0.43073458     1.431074    1.8843958    2.9902106 
 4105000   0.94966734 -2.3748629e-05   0.48975371  0.013161362            0   0.47659235    1.4066947    1.8964485   0.68051863 
 4110000    1.0136178 9.1379661e-05    0.4251418 0.0030931387            0   0.42204867    1.5014213    1.9265631    6.6052018 
 4115000    1.0550202 -0.00013289968   0.39474686 0.0036783035            0   0.39106855    1.5627486    1.9574955   -4.8469682 
 4120000    1.0492826 2.4307194e-05   0.39408196 0.0069172113            0   0.38716475    1.5542499    1.9483319    3.1928602 
 4125000    1.0789466 4.4049308e-05   0.37255185  0.018851245            0   0.35370061    1.5981897    1.9707415    4.2260661 
 4130000   0.95039024 2.7371653e-05   0.50724284  0.098594797            0   0.40864804    1.4077655    1.9150084     3.316437 
 4135000   0.99151238 -4.0538375e-05   0.42604889  0.051582124            0   0.37446677    1.4686777    1.8947266  -0.18083819 
 4140000    1.0427699 -9.0734387e-05   0.38370533  0.029905057            0   0.35380028     1.544603    1.9283083   -2.7172923 
 4145000    1.0409754 -8.0615332e-06   0.37200891 0.0068081276            0   0.36520078    1.5419448    1.9139537    1.5012032 
 4150000    1.0008814 -7.9592078e-05   0.40609504 0.0016126117            0   0.40448243    1.4825556    1.8886506   -2.1864638 
 4155000    1.0283225 -7.2204071e-06   0.39526685  0.011077651            0    0.3841892    1.5232027    1.9184695    1.5487847 
 4160000   0.99300258 7.9937699e-05    0.4335886  0.020175137            0   0.41341346    1.4708851    1.9044737    5.9972838 
 4165000    1.0150842 7.5248114e-05   0.35250011  0.005135319            0   0.34736479    1.5035934    1.8560935     5.708797 
 4170000   0.97240566 7.4617529e-05   0.41282192 0.0094124622            0   0.40340945    1.4403759    1.8531978    5.6736153 
 4175000   0.91550758 -0.00011484025   0.50735674  0.040257322            0   0.46709942    1.3560956    1.8634523   -4.0163684 
 4180000   0.99935703 6.5297206e-05   0.37225589  0.042893266            0   0.32936263    1.4802976    1.8525535    5.1957705 
 4185000   0.90984238 7.8024938e-05   0.50546661  0.056702234            0   0.44876437     1.347704    1.8531706    5.8480474 
 4190000   0.98390098 2.9356108e-05   0.38553329  0.029375164            0   0.35615812    1.4574033    1.8429366    3.3459694 
 4195000   0.92103582 -4.7284887e-06   0.46496985  0.011363861            0   0.45360599    1.3642843    1.8292542    1.5871555 
 4200000   0.90757804 2.8391657e-05   0.48819266  0.058507668            0     0.429685      1.34435    1.8325426    3.2861955 
 4205000   0.94832811 -5.0266479e-05   0.43276324  0.026775054            0   0.40598818     1.404711    1.8374742  -0.73616947 
 4210000    1.0052532 4.9200031e-05   0.38431778  0.017760346            0   0.36655744    1.4890313    1.8733491    4.3923907 
 4215000   0.89919566 4.8231553e-06   0.53525688  0.021597416            0   0.51365946    1.3319336    1.8671905     2.114136 
 4220000    1.0327822 -3.8519503e-05     0.345796 0.0025880595            0   0.34320794    1.5298086    1.8756046 -0.096594005 
 4225000   0.96406676 6.0725092e-05   0.46076753  0.017006512            0   0.44376101    1.4280239    1.8887914    4.9979161 
 4230000   0.98764749 6.1990591e-05   0.42051627  0.051425565            0   0.36909071    1.4629528    1.8834691    5.0573874 
 4235000   0.95700061 1.4952593e-06   0.47809977  0.021740865            0    0.4563589    1.4175571    1.8956569    1.9722142 
 4240000   0.96067594 4.1417927e-05   0.45042459   0.03227096            0   0.41815363    1.4230012    1.8734258    3.9940237 
 4245000   0.93303733 3.8629217e-05   0.46902654   0.02595128            0   0.44307526    1.3820615    1.8510881     3.828904 
 4250000    0.8875938 -1.1783249e-05   0.52428565  0.051931265            0   0.47235438    1.3147483     1.839034    1.2357316 
 4255000   0.96537515 2.3990475e-05    0.4344111  0.017559041            0   0.41685206    1.4299619     1.864373    3.0926854 
 4260000   0.96965342 -8.0927097e-05   0.41994785  0.017089077            0   0.40285877    1.4362991     1.856247   -2.2872204 
 4265000   0.91826204 -7.1708132e-05    0.4831647  0.035768557            0   0.44739614    1.3601756    1.8433403    -1.828116 
 4270000   0.94550571 0.00012526175   0.43493909  0.046694393            0    0.3882447    1.4005303    1.8354694    8.2488709 
 4275000   0.86322137 0.00010273781   0.54106039   0.05439631            0   0.48666408    1.2786467     1.819707    7.0798827 
 4280000   0.97361973 -0.00010271812   0.38708952  0.033246546            0   0.35384298    1.4421742    1.8292638   -3.4299042 
 4285000   0.89177046 -0.00011119932   0.50166449  0.025250421            0   0.47641407     1.320935    1.8225995   -3.8708056 
 4290000   0.89192439 5.9730619e-05   0.47272161 0.0083562329            0   0.46436538     1.321163    1.7938846    4.8520923 
 4295000   0.88195256 1.2876305e-05   0.45471603 0.0061723093            0   0.44854372    1.3063922    1.7611083    2.4203751 
 4300000    0.7993366 7.9943354e-06   0.55418772  0.015736949            0   0.53845078    1.1840173    1.7382051     2.147515 
 4305000   0.94364014 3.4368425e-05   0.35046462  0.042749796            0   0.30771482     1.397767    1.7482316    3.5078949 
 4310000   0.86392234 -5.2040428e-07   0.47346103 0.0083607332            0   0.46510029     1.279685     1.753146    1.7265013 
 4315000   0.90343231 -7.967003e-06   0.40670072 0.0018268529            0   0.40487387    1.3382091    1.7449098    1.3369993 
 4320000   0.84035554 -4.8158052e-05   0.48867049  0.015967701            0   0.47270279    1.2447766    1.7334471  -0.73224512 
 4325000   0.89597634 3.4969415e-05   0.39006686  0.018011566            0    0.3720553    1.3271649    1.7172318    3.5076659 
 4330000   0.85384862 0.00011015222      0.45026 0.0027555299            0   0.44750447    1.2647633    1.7150233    7.3548169 
 4335000   0.82648625 -8.7329592e-05    0.4858668 0.00029532973            0   0.48557147    1.2242328    1.7100996   -2.7611755 
 4340000   0.86129769 3.3906619e-05   0.42567996 0.0025861964            0   0.42309376    1.2757972    1.7014772     3.437496 
 4345000   0.93093855 -6.0178236e-05    0.3438836 0.0032267083            0    0.3406569    1.3789527    1.7228363   -1.3582894 
 4350000   0.86232774 -0.00010165252   0.45585305 0.0050010285            0   0.45085202     1.277323     1.733176   -3.4714329 
 4355000   0.89277806 -4.7557084e-05   0.43119193 0.0025829882            0   0.42860894    1.3224275    1.7536194  -0.68130328 
 4360000   0.91836148 -1.9514737e-05   0.40299353 0.00034833074            0    0.4026452    1.3603229    1.7633165   0.76416194 
 4365000   0.86801642 8.2080881e-05   0.47218931 0.0020276555            0   0.47016165    1.2857493    1.7579386    5.9604797 
 4370000   0.90628296 -8.9926824e-05   0.40401173 0.0068781459            0   0.39713359    1.3424316    1.7464434     -2.85781 
 4375000   0.86801718 -4.410596e-05   0.47448316 0.0083837896            0   0.46609937    1.2857504    1.7602336  -0.49799157 
 4380000   0.85588253 -4.6520808e-05   0.47209534 0.0022978973            0   0.46979744     1.267776    1.7398713  -0.64199406 
 4385000   0.93040026 -0.00014836341   0.37525833 0.0065568582            0   0.36870147    1.3781554    1.7534137   -5.8427929 
 4390000   0.84099962 -3.9116979e-05   0.50867935  0.013715721            0   0.49496363    1.2457307      1.75441  -0.24837926 
 4395000   0.86365695 4.0248405e-05    0.4708942  0.017779752            0   0.45311444    1.2792919    1.7501861    3.8109044 
 4400000    0.8152004 -1.575423e-05   0.51135299  0.031112634            0   0.48024035    1.2075156    1.7188686   0.91225202 
 4405000   0.89695024 -0.00010147973   0.38991263  0.010280916            0   0.37963172    1.3286075    1.7185202    -3.477242 
 4410000   0.84430319 4.8794026e-05   0.46678907  0.012909246            0   0.45387983    1.2506241    1.7174132    4.2156673 
 4415000   0.84806801 1.2036255e-06   0.47350659 0.0040129844            0    0.4694936    1.2562007    1.7297073    1.7913329 
 4420000   0.89239299 4.0715595e-05   0.39401485 0.0048074487            0    0.3892074    1.3218571     1.715872    3.8005104 
 4425000   0.87193109 0.00013585573   0.41475062  0.021525107            0   0.39322551    1.2915479    1.7062985    8.6621119 
 4430000   0.84856903 -6.8515258e-05   0.46759471  0.010215316            0    0.4573794    1.2569429    1.7245376   -1.7834436 
 4435000    0.7864003 -7.6180405e-05   0.53887481  0.030060661            0   0.50881415    1.1648554    1.7037303   -2.1967065 
 4440000   0.83551983 0.00010117659   0.49061618  0.054616103            0   0.43600008    1.2376138    1.7282299    6.9084715 
 4445000   0.91062611 6.3719327e-05   0.40312131  0.023076251            0   0.38004506    1.3488649    1.7519862    5.0144158 
 4450000   0.83421148 3.5453602e-05   0.52411497  0.021580034            0   0.50253494    1.2356758    1.7597907    3.5750152 
 4455000   0.94636385 0.00015059871   0.37107228 0.0055314271            0   0.36554086    1.4018015    1.7728737    9.4835279 
 4460000   0.93320172 3.6528701e-05    0.4317676 0.00072084399            0   0.43104676     1.382305    1.8140727    3.6843421 
 4465000   0.88174093 -5.0371714e-05    0.5102796 0.0099637874            0   0.50031581    1.3060788    1.8163584   -0.7626734 
 4470000   0.90492403 2.9144461e-05   0.45536644 0.0077936959            0   0.44757274    1.3404187    1.7957852    3.2879816 
 4475000   0.95727497 6.7858933e-06   0.36312164  0.034553549            0    0.3285681    1.4179636    1.7810852    2.1285229 
 4480000   0.84061277 -2.4726191e-05   0.52045472  0.020744913            0    0.4997098    1.2451577    1.7656124   0.49963142 
 4485000   0.92637841 -2.3995802e-05   0.38377795            0            0   0.38377795     1.372198     1.755976   0.52739092 
 4490000   0.91020601 -6.2876091e-06   0.43374308 3.5374619e-05            0   0.43370771    1.3482426    1.7819857    1.4600601 
 4495000   0.85762508 0.00010651184   0.51438444  0.016963301            0   0.49742114    1.2703572    1.7847416    7.2381478 
 4500000   0.91682999 2.4431355e-05   0.42272019  0.015017121            0   0.40770307    1.3580544    1.7807746      3.03166 
 4505000   0.90098391 -3.36474e-05    0.4322386 0.0011920612            0   0.43104654    1.3345824     1.766821  0.044074126 
 4510000   0.89328692 3.1929332e-05   0.43535296 0.0074910058            0   0.42786196    1.3231813    1.7585342     3.393316 
 4515000   0.89638366 -2.6885704e-05   0.44179225  0.016552353            0   0.42523989    1.3277683    1.7695605   0.39301252 
 4520000   0.88374276 -9.2303754e-05   0.45958796  0.010957435            0   0.44863052     1.309044    1.7686319   -2.9573203 
 4525000   0.90372269 -8.4014495e-05   0.44590957 0.0010045234            0   0.44490504    1.3386392    1.7845488   -2.5169933 
 4530000    0.8800044 -7.3462071e-06   0.49311052 0.00092799165            0   0.49218253    1.3035065     1.796617    1.4204912 
 4535000   0.88171153 8.9336409e-05   0.48078105   0.01251126            0   0.46826979    1.3060352    1.7868162    6.3608404 
 4540000   0.87062275 -1.1255635e-05   0.52606959  0.024416449            0   0.50165314    1.2896099    1.8156795     1.239391 
 4545000   0.85901988 -9.0627998e-05   0.52279295  0.032445086            0   0.49034787    1.2724232    1.7952162   -2.8449374 
 4550000   0.91322366 3.2556585e-05   0.43583338 0.00036488062            0    0.4354685    1.3527125    1.7885459    3.4554431 
 4555000   0.93095091 -1.4137007e-05   0.43246308 0.00047567671            0    0.4319874     1.378971    1.8114341    1.0876194 
 4560000   0.90217656 -2.7974415e-06   0.50622406   0.02039924            0   0.48582482     1.336349    1.8425731    1.6993441 
 4565000   0.93171565 -3.5996818e-05   0.45391555  0.020002693            0   0.43391286    1.3801038    1.8340194 -0.0090177328 
 4570000   0.88727028 -2.2412432e-05   0.50127729  0.015965413            0   0.48531188    1.3142691    1.8155464   0.66802985 
 4575000   0.88159297 2.7638433e-05   0.50610421  0.082157198            0   0.42394701    1.3058596    1.8119638    3.2270516 
 4580000   0.83946622 -5.0287826e-05   0.54522091  0.053953994            0   0.49126691    1.2434593    1.7886802  -0.78605644 
 4585000   0.89326918 5.8374358e-05   0.44700802  0.019787234            0   0.42722079     1.323155     1.770163    4.7589301 
 4590000    0.8941454 0.00011473829   0.42519962 0.0031248191            0    0.4220748    1.3244529    1.7496525    7.6242527 
 4595000   0.90831738 -1.4723848e-05   0.40268276 0.00026931013            0   0.40241345    1.3454451    1.7481279   0.99426684 
 4600000   0.83428674 -0.00010579073    0.5352993 0.0065933568            0   0.52870594    1.2357872    1.7710865   -3.6453988 
 4605000   0.91550016 -8.8051959e-05   0.38710527  0.037354262            0   0.34975101    1.3560846    1.7431899   -2.7650704 
 4610000   0.86469542 -9.0777555e-06   0.45720228  0.028512564            0   0.42868971    1.2808301    1.7380324    1.2732513 
 4615000   0.93195395 4.4211033e-05   0.39817645 0.0038342349            0   0.39434222    1.3804568    1.7786332    4.0422381 
 4620000   0.92968052 4.9352802e-05   0.40456469 0.0020377511            0   0.40252694    1.3770893     1.781654    4.3085174 
 4625000   0.84356845 -5.4635457e-05   0.51959958 0.0034817495            0   0.51611783    1.2495358    1.7691353   -1.0282001 
 4630000   0.88093843 -0.00011863686   0.46170999  0.020943845            0   0.44076614      1.30489       1.7666   -4.3076071 
 4635000   0.87738545 3.8816415e-05   0.48893663  0.024486281            0   0.46445035    1.2996272    1.7885638    3.7759643 
 4640000   0.92481346 5.1779697e-05   0.42334428 0.0045129492            0   0.41883133    1.3698799    1.7932242    4.4443447 
 4645000   0.87903751 -7.7036647e-05   0.46538343 0.0048039379            0   0.46057949    1.3020743    1.7674577   -2.1768186 
 4650000   0.87477516 -6.3938421e-06   0.48943252  0.056179173            0   0.43325334    1.2957607    1.7851932    1.4578285 
 4655000   0.83183739 2.1693841e-06    0.5257267   0.02018057            0   0.50554613    1.2321591    1.7578858    1.8689583 
 4660000    0.8668593 6.7830759e-05   0.49083342  0.020333341            0   0.47050008    1.2840353    1.7748688    5.2478036 
 4665000   0.82846421 -4.700177e-05   0.54264417  0.014352012            0   0.52829216    1.2271626    1.7698068  -0.63668386 
 4670000   0.93994453 -7.7348668e-05   0.41549271  0.011602558            0   0.40389015    1.3922928    1.8077856   -2.1524663 
 4675000   0.90101754 -2.5619878e-05   0.48437179  0.014950316            0   0.46942147    1.3346322     1.819004   0.50726629 
 4680000   0.88082409 4.5376769e-05   0.51228953  0.029780642            0   0.48250889    1.3047207    1.8170102    4.1403008 
 4685000   0.89341822 0.00019228301   0.49558243  0.050067315            0   0.44551511    1.3233757    1.8189582    11.663848 
 4690000   0.98385007 0.00011381239   0.37937491  0.035211039            0   0.34416387    1.4573279    1.8367028    7.6638972 
 4695000   0.84430523 -1.5017194e-05   0.60059898  0.038861866            0   0.56173711    1.2506271    1.8512261    1.0823458 
 4700000   0.88712497 -5.7620517e-05   0.53846181  0.046123977            0   0.49233783    1.3140539    1.8525157   -1.0976548 
 4705000   0.91546532 -4.8545535e-05   0.49399663   0.04144166            0   0.45255497     1.356033    1.8500296  -0.63550176 
 4710000   0.92654565 3.6103779e-05   0.50569122  0.025381218            0      0.48031    1.3724457     1.878137    3.7266504 
 4715000   0.96780102 0.00014046486   0.44635084  0.022211909            0   0.42413893    1.4335553    1.8799061    9.0717069 
 4720000   0.90215815 8.2710932e-05   0.54087184  0.012718618            0   0.52815322    1.3363218    1.8771936    6.1119933 
 4725000    0.9557183 -0.00011036958   0.46667059  0.035954696            0    0.4307159    1.4156577    1.8823283    -3.768594 
 4730000   0.91039503 -0.00010642042   0.54201711  0.041549955            0   0.50046715    1.3485226    1.8905398   -3.5581857 
 4735000   0.91489451 -3.1994872e-05   0.53866919  0.022469923            0   0.51619927    1.3551875    1.8938567   0.25571922 
 4740000   0.93691957 2.2809548e-05   0.48234286  0.019538633            0   0.46280423    1.3878121     1.870155    3.0380038 
 4745000   0.88658345 -3.7998924e-05   0.54538226  0.004048826            0   0.54133343    1.3132517     1.858634  -0.08691093 
 4750000   0.91809496 3.8409176e-05   0.49909559  0.022961411            0   0.47613418    1.3599282    1.8590237    3.8255736 
 4755000   0.91009749 5.0449952e-05   0.51638509  0.076585591            0    0.4397995    1.3480819     1.864467    4.4475046 
 4760000   0.84297464 -5.7002689e-05   0.60971909  0.037368977            0   0.57235011    1.2486562    1.8583753   -1.0601624 
 4765000   0.99626398 -5.4415915e-06   0.40583165  0.027179362            0   0.37865229     1.475716    1.8815477    1.6029382 
 4770000    1.0194384 -1.6298356e-05   0.36801136 0.0060764492            0   0.36193491    1.5100431    1.8780545    1.0435786 
 4775000   0.92311724 -2.3332404e-05   0.50705147 0.0092795463            0   0.49777193    1.3673674    1.8744189    0.6797998 
 4780000   0.88028808 6.457026e-06   0.59911284   0.01782097            0   0.58129187    1.3039267    1.9030396    2.2336393 
 4785000    1.0328887 -4.9304675e-05   0.39342046  0.003714705            0   0.38970575    1.5299664    1.9233869  -0.60101248 
 4790000   0.99100905 -4.0465764e-05   0.45934495            0            0   0.45934495    1.4679322    1.9272771     -0.14457 
 4795000   0.95870554 6.8392384e-05   0.52208915            0            0   0.52208915    1.4200826    1.9421717    5.4438618 
 4800000    1.0097201 6.7900198e-05   0.45254809            0            0   0.45254809    1.4956479     1.948196    5.4246861 
 4805000    0.9812204 9.4719673e-05   0.51775266 0.0007164884            0   0.51703618    1.4534327    1.9711854    6.8208326 
 4810000    1.0108005 5.7433829e-05   0.48451156  0.015170161            0    0.4693414    1.4972482    1.9817598    4.9223718 
 4815000   0.90789574 -3.5558441e-05    0.6491093  0.033417536            0   0.61569177    1.3448206    1.9939299   0.17333769 
 4820000    1.0292051 3.313482e-06    0.4658682  0.012841239            0   0.45302696    1.5245101    1.9903783    2.1600286 
 4825000    1.0015439 6.1601899e-05    0.4865804  0.011021359            0   0.47555905     1.483537    1.9701174    5.1241346 
 4830000   0.95674479 -0.00010206236   0.50137014  0.011463534            0   0.48990661    1.4171782    1.9185484   -3.3070446 
 4835000   0.94237661 -6.258463e-05   0.51378361  0.017094295            0   0.49668932    1.3958954     1.909679   -1.2946541 
 4840000   0.95812614 -1.2987667e-05    0.4987489 0.0081507552            0   0.49059815    1.4192243    1.9179733    1.2530047 
 4845000    1.0093285 6.7648042e-07   0.43614732  0.034548191            0   0.40159912    1.4950679    1.9312152     1.965851 
 4850000   0.93295421 3.5740724e-05   0.57387937  0.041832968            0    0.5320464    1.3819384    1.9558178    3.7857429 
 4855000   0.96693682 6.5025874e-05   0.53520274  0.014857029            0   0.52034571    1.4322752    1.9674779    5.2968027 
 4860000    1.0301999 3.845624e-05   0.44370093 0.0078505165            0   0.43585042    1.5259836    1.9696845     3.938644 
 4865000   0.96578081 -0.00010708818    0.5421419 0.0012240427            0   0.54091786    1.4305628    1.9727047   -3.5102099 
 4870000   0.96871484 -9.0077085e-05   0.52333209 6.3017244e-05            0   0.52326907    1.4349089     1.958241   -2.6537058 
 4875000    1.0021446 -3.2622379e-05    0.4452661  0.016130403            0    0.4291357    1.4844267    1.9296928   0.25942696 
 4880000   0.93944865 -8.0315595e-05   0.53917086  0.026395203            0   0.51277566    1.3915583    1.9307292   -2.1814293 
 4885000   0.93098919 -0.00017697287   0.54765752  0.016859026            0    0.5307985    1.3790277    1.9266853   -7.1343259 
 4890000   0.89780926 -5.8619732e-05   0.56678132  0.019649122            0    0.5471322      1.32988    1.8966613    -1.104669 
 4895000   0.95695024 9.7252934e-05   0.46839176  0.015503655            0   0.45288811    1.4174825    1.8858743    6.8652245 
 4900000   0.90283746 -5.7667645e-06    0.5263893  0.007015518            0   0.51937378     1.337328    1.8637173    1.5684589 
 4905000   0.85471895 1.3734952e-05   0.58721797 0.0075567669            0    0.5796612    1.2660524    1.8532704    2.5564999 
 4910000   0.92910113 0.00012136935   0.45899218  0.017794827            0   0.44119736     1.376231    1.8352232    8.0493342 
 4915000    0.8780441 4.465555e-05   0.55479562  0.013331456            0   0.54146416    1.3006028    1.8553984    4.1417626 
 4920000   0.89104027 6.7710464e-05   0.52629319 0.0029306105            0   0.52336258    1.3198534    1.8461466    5.3129224 
 4925000   0.93481757 6.6142608e-05   0.46189538 0.0018553814            0      0.46004    1.3846985    1.8465939    5.2330954 
 4930000   0.86394946 -2.2543203e-05   0.58069079  0.004724897            0   0.57596589    1.2797251    1.8604159   0.70620394 
 4935000   0.95795307  8.20399e-05   0.43366219  0.015762136            0   0.41790006     1.418968    1.8526302     6.053073 
 4940000   0.87037815 0.00012903567   0.58794198  0.048437981            0     0.539504    1.2892476    1.8771896    8.4838159 
 4945000   0.96826634 8.739473e-06   0.43593614  0.011856478            0   0.42407966    1.4342445    1.8701806    2.3176417 
 4950000   0.97624797 -4.2881422e-05   0.41692106 0.0078481653            0   0.40907289    1.4460673    1.8629884  -0.33254043 
 4955000    0.9460292 -4.6834629e-05   0.45270857  0.030305148            0   0.42240342    1.4013058    1.8540143  -0.54391869 
 4960000   0.87885975 2.7656267e-05   0.53627688  0.054364271            0   0.48191261     1.301811    1.8380879    3.2540887 
 4965000   0.86732607 0.00012653484   0.57973025 0.0096229447            0   0.57010731    1.2847267     1.864457    8.3430406 
 4970000   0.93106501 8.7468133e-05   0.49147098  0.029318518            0   0.46215247      1.37914     1.870611    6.3489795 
 4975000   0.88113372 1.4779665e-05   0.57273216  0.043514206            0   0.52921795    1.3051793    1.8779115    2.6346303 
 4980000   0.97278672 5.7112772e-05   0.45415186  0.029391139            0   0.42476072    1.4409403    1.8950922    4.8192661 
 4985000   0.92307102 3.3366791e-05   0.49676346  0.032647542            0   0.46411592    1.3672989    1.8640624    3.5724421 
 4990000   0.91266411 -6.8470372e-05   0.51849633  0.017963218            0   0.50053311    1.3518837    1.8703801    -1.635303 
 4995000    0.9090287 -3.9124173e-05   0.55439094 0.0029295119            0   0.55146142    1.3464988    1.9008897  -0.10226798 
 5000000   0.93318458 2.9333701e-05   0.51209573 0.0027080188            0   0.50938771    1.3822797    1.8943754    3.3962609 
 5005000   0.99978533 6.9455344e-05   0.41836505  0.011248047            0   0.40711701     1.480932    1.8992971    5.4554107 
 5010000   0.94160412 7.2532647e-05   0.51910278  0.008649008            0   0.51045377    1.3947511    1.9138539    5.6275254 
 5015000   0.91491528 4.8537176e-05   0.53603751   0.01437301            0    0.5216645    1.3552183    1.8912558    4.3763592 
 5020000   0.96747743 7.9621425e-05   0.46805347  0.013464921            0   0.45458855    1.4330759    1.9011294    5.9777463 
 5025000   0.98060902 2.8749727e-05     0.413822  0.017971561            0   0.39585043    1.4525271    1.8663491    3.3383351 
 5030000   0.87141022 -4.7918886e-05   0.54589605  0.013202204            0   0.53269385    1.2907764    1.8366724   -0.6167745 
 5035000   0.89813149 6.9087424e-06   0.49009576 0.0051500131            0   0.48494574    1.3303573     1.820453    2.1741806 
 5040000   0.90429629 -8.4268421e-05    0.5049884    0.0195749            0    0.4854135    1.3394889    1.8444773   -2.4700659 
 5045000   0.88201302 4.8869918e-05   0.54688658 0.0027863937            0   0.54410018    1.3064818    1.8533684    4.3555082 
 5050000   0.90026645 -3.76502e-05   0.50290567 0.0034932711            0    0.4994124    1.3335197    1.8364253  -0.09126491 
 5055000   0.92749147 7.9088132e-05   0.48394839  0.015635546            0   0.46831285    1.3738467    1.8577951    5.9071075 
 5060000    0.9373357 2.5906098e-06   0.44077434 0.0057404255            0   0.43503391    1.3884285    1.8292028    1.9618421 
 5065000   0.87427423 6.7171161e-06   0.53622238  0.010907138            0   0.52531524    1.2950187    1.8312411    2.1751574 
 5070000   0.90567687 2.0725295e-05    0.5086756  0.022947745            0   0.48572785    1.3415339    1.8502095    2.9113446 
 5075000   0.92171662 6.0729154e-05   0.49513099  0.022016863            0   0.47311412    1.3652928    1.8604237    4.9697564 
 5080000   0.90481645 7.228698e-05    0.5313704 0.0060107599            0   0.52535964    1.3402594    1.8716298    5.5727232 
 5085000   0.93285235 4.3611104e-05   0.47835066 0.0047954927            0   0.47355517    1.3817875    1.8601382    4.0930267 
 5090000    0.8283267 4.5658585e-05   0.62182796  0.050668229            0   0.57115973    1.2269589    1.8487869    4.1865064 
 5095000   0.82643956 6.200677e-05   0.63612951  0.035494687            0   0.60063482    1.2241636    1.8602931    5.0350397 
 5100000   0.90671691 1.709462e-05    0.5105268  0.022814229            0   0.48771257    1.3430744    1.8536012    2.7288457 
 5105000   0.91634315 -8.9540794e-06   0.48934949  0.025537605            0   0.46381188    1.3573333    1.8466828    1.3882339 
 5110000   0.87260075 4.2415119e-05   0.58385236  0.083033504            0   0.50081886    1.2925399    1.8763922    4.0480463 
 5115000   0.92030779 -6.5193299e-06   0.52560039  0.087614076            0   0.43798631    1.3632059    1.8888063    1.5550166 
 5120000   0.87358269 -0.00011088915   0.58452222  0.064538947            0   0.51998328    1.2939944    1.8785166   -3.7990079 
 5125000   0.96689434 5.9353261e-05   0.48070376  0.044195882            0   0.43650788    1.4322122     1.912916     4.951803 
 5130000   0.89535199 0.00018565486   0.60945731   0.04518212            0   0.56427519    1.3262401    1.9356974    11.441226 
 5135000    1.0249825 0.00012289593   0.43223953  0.014607149            0   0.41763239    1.5182553    1.9504948    8.2427664 
 5140000    1.0330636 2.9690622e-05   0.42732625  0.018772426            0   0.40855383    1.5302255    1.9575517    3.4777116 
 5145000   0.92653332 -5.6193708e-05    0.5454842  0.039683823            0   0.50580038    1.3724275    1.9179117  -0.95920616 
 5150000   0.92839269 -4.4977296e-05   0.57026084  0.021081244            0    0.5491796    1.3751817    1.9454425  -0.35739506 
 5155000   0.99011049 -9.0915081e-06   0.46958082  0.033079689            0   0.43650114    1.4666012     1.936182    1.4706968 
 5160000   0.93872552 0.00012582618   0.52695953  0.017862906            0   0.50909662    1.3904872    1.9174467     8.359747 
 5165000   0.95459015 5.6475456e-05   0.48400674  0.017142767            0   0.46686397    1.4139867    1.8979934    4.7895368 
 5170000   0.89061941 -9.1446076e-05   0.56496446 0.0038072581            0    0.5611572      1.31923    1.8841945   -2.7978446 
 5175000   0.95195613 -1.7215512e-05   0.48459478 0.00025445078            0   0.48434033     1.410085    1.8946798    1.0132456 
 5180000    0.9267204 2.6583365e-05   0.52471779 0.00027333178            0   0.52444446    1.3727046    1.8974224    3.2584907 
 5185000   0.94983755 -9.1921978e-06   0.49121551 0.0017047057            0    0.4895108    1.4069469    1.8981624    1.4275218 
 5190000    0.9429644 -1.6412235e-05   0.48597912 0.0034115548            0   0.48256756     1.396766    1.8827451    1.0424387 
 5195000   0.92852842 -4.3864452e-05   0.52367498   0.01027037            0   0.51340461    1.3753827    1.8990577  -0.34680223 
 5200000   0.94294119 -2.901346e-05   0.49049398  0.015139603            0   0.47535437    1.3967316    1.8872256   0.40173647 
 5205000   0.89241062 2.5175366e-06    0.5592682  0.001906215            0   0.55736199    1.3218832    1.8811514    2.0100493 
 5210000   0.84883915 6.7888445e-05   0.61907076 0.00087733886            0   0.61819342     1.257343    1.8764138    5.3523022 
 5215000   0.90554969 0.00017739389   0.55015781 0.0085817674            0   0.54157604    1.3413455    1.8915033    10.974071 
 5220000   0.91776475 0.00012370702   0.52555644  0.037800952            0   0.48775549     1.359439    1.8849955     8.218795 
 5225000    1.0369161 2.0283301e-05   0.37247859  0.011728577            0   0.36075001     1.535932    1.9084106    2.9469156 
 5230000   0.88328186 -0.00011803601   0.60176413  0.013770057            0   0.58799408    1.3083613    1.9101254   -4.1333183 
 5235000   0.95684116 -0.00015983337   0.47789724  0.012531353            0   0.46536588     1.417321    1.8952182   -6.2882502 
 5240000   0.94247656 -4.7047135e-05   0.50227432   0.01147017            0   0.49080415    1.3960434    1.8983177  -0.51049559 
 5245000   0.91661558 9.5355233e-05   0.56020461  0.013736937            0   0.54646767    1.3577368    1.9179414    6.8001294 
 5250000   0.89497847 6.2535147e-05   0.60177858 0.0069502608            0   0.59482832    1.3256869    1.9274654     5.129265 
 5255000   0.95691962 0.00010314799   0.50603688  0.023214519            0   0.48282236    1.4174372    1.9234741    7.2046511 
 5260000   0.95054033 6.226652e-05   0.52763977  0.010556344            0   0.51708343    1.4079879    1.9356276    5.1236735 
 5265000   0.90101926 -5.3033244e-05   0.57673565  0.012741828            0   0.56399382    1.3346348    1.9113704  -0.80393168 
 5270000   0.97744292 -2.1430215e-05   0.48257344  0.012996917            0   0.46957653    1.4478373    1.9304108   0.83318376 
 5275000    1.0463807 -2.3317697e-05    0.3990633  0.018315509            0   0.38074779    1.5499513    1.9490146   0.75514858 
 5280000   0.97720394 -2.7644443e-05    0.5038373  0.016987922            0   0.48684938    1.4474833    1.9513206   0.53592515 
 5285000   0.97354012 8.3701913e-05   0.50765494 0.0097935575            0   0.49786138    1.4420563    1.9497112    6.2352492 
 5290000   0.94353059 -4.029559e-05   0.55319465  0.010927084            0   0.54226757    1.3976047    1.9507993  -0.11233487 
 5295000    1.0079554 -8.1905198e-05   0.47153439   0.03159534            0   0.43993905     1.493034    1.9645683   -2.2289778 
 5300000   0.98222371 8.6209634e-05   0.49996102  0.018474655            0   0.48148637    1.4549189    1.9548799    6.3688132 
 5305000    1.0302951 6.9300742e-06   0.42673916 0.0022867491            0   0.42445241    1.5261247    1.9528638    2.3076836 
 5310000    1.0394908 4.870741e-05   0.40659103 0.0037128747            0   0.40287816    1.5397457    1.9463368    4.4401562 
 5315000    0.9054744 -0.00010290317   0.57008874  0.013485823            0   0.55660292    1.3412339    1.9113227   -3.3573196 
 5320000   0.96472405 -6.1916822e-05   0.48844251  0.013939151            0   0.47450336    1.4289975      1.91744   -1.2527013 
 5325000   0.95325815 -8.4746629e-05   0.49097877  0.020661143            0   0.47031763    1.4120136    1.9029924    -2.436035 
 5330000   0.93420957 -4.482595e-05   0.52394453   0.02684635            0   0.49709818    1.3837979    1.9077425  -0.38734621 
 5335000   0.96082715 4.8545793e-05    0.4810939  0.018540248            0   0.46255365    1.4232252    1.9043191    4.3898637 
 5340000   0.93324455 7.1412937e-05   0.52506933 0.0045476543            0   0.52052167    1.3823685    1.9074378    5.5637802 
 5345000   0.89423316 -0.00015733225   0.55534868  0.025008267            0   0.53034041    1.3245829    1.8799316   -6.1754794 
 5350000   0.94527938 -0.00011264385   0.48369658   0.02602645            0   0.45767013    1.4001951    1.8838917   -3.8834735 
 5355000   0.86826571 7.8303896e-05   0.59190459  0.023551525            0   0.56835307    1.2861186    1.8780232    5.8871826 
 5360000   0.88758794 -4.0196964e-05   0.54868933  0.026745423            0    0.5219439    1.3147396     1.863429  -0.19465558 
 5365000   0.85704673 -0.00014270708   0.57601589 0.0090667023            0   0.56694919    1.2695005    1.8455164   -5.4610863 
 5370000   0.95067587 2.7827279e-06   0.40683843 0.0066547841            0   0.40018365    1.4081886    1.8150271    1.9575027 
 5375000   0.91772376 7.5522582e-05   0.43412836 0.0054304898            0   0.42869787    1.3593783    1.7935067    5.6602629 
 5380000   0.91188529 1.1126342e-05   0.46534101 0.0097085308            0   0.45563248    1.3507301    1.8160711    2.3857398 
 5385000   0.96762001 -7.5544522e-06   0.38279566  0.019529554            0   0.36326611    1.4332871    1.8160828    1.4292949 
 5390000   0.93803663 6.3466644e-05   0.43200636  0.013754954            0   0.41825141    1.3894668    1.8214731    5.0709653 
 5395000   0.88412712 9.1839645e-05   0.53074413 0.00050653899            0   0.53023759    1.3096133    1.8403574    6.5425473 
 5400000   0.92985232 2.8747863e-05   0.44976284 5.8260064e-05            0   0.44970458    1.3773438    1.8271066    3.2989972 
 5405000   0.90563867 8.6135516e-05   0.48167324 0.0021909387            0    0.4794823    1.3414773    1.8231505    6.2332889 
 5410000   0.92093341 0.00012345783    0.4744448 0.0064844622            0   0.46796034    1.3641326    1.8385774    8.1596183 
 5415000   0.93254217 -7.21157e-06   0.45102954  0.011241985            0   0.43978755    1.3813281    1.8323576    1.4631252 
 5420000    0.8676199 -0.00011184439   0.57194152 0.0052463613            0   0.56669516     1.285162    1.8571035    -3.869329 
 5425000   0.92381116 -4.8671989e-05    0.5032851 0.00055856413            0   0.50272654    1.3683953    1.8716804  -0.62032547 
 5430000   0.87931131 -4.1918137e-05   0.57733292 0.0017942819            0   0.57553864    1.3024799    1.8798128  -0.26639583 
 5435000   0.92768397 5.2519341e-06   0.49815741 0.0036033551            0   0.49455405    1.3741319    1.8722893    2.1411883 
 5440000   0.93868682 -2.7526302e-05    0.4898953 0.0017569209            0   0.48813837    1.3904299    1.8803252   0.47097849 
 5445000   0.92629742 -5.2058395e-05   0.51944147 0.00032772929            0   0.51911374    1.3720781    1.8915195  -0.77387032 
 5450000   0.99150307 1.1818853e-05   0.42709604 0.00020487583            0   0.42689117    1.4686639      1.89576    2.5008852 
 5455000   0.92483138 5.0103154e-05   0.52868043 4.6883593e-05            0   0.52863354    1.3699065    1.8985869    4.4638684 
 5460000   0.81874702 -2.956061e-05   0.70403319 0.00063598595            0    0.7033972     1.212769    1.9168022   0.40329897 
 5465000   0.92240216 -5.5189379e-05   0.55951969 0.0081335445            0   0.55138614    1.3663082    1.9258279   -0.8998683 
 5470000   0.96143552 -6.4205913e-05   0.49892443  0.010324057            0   0.48860037    1.4241264    1.9230508    -1.364292 
 5475000    1.0229777 -3.7789467e-05   0.40756531 0.0063532414            0   0.40121206    1.5152858    1.9228511  -0.01196961 
 5480000   0.90237813 3.5600623e-05   0.57017418  0.020963244            0   0.54921094    1.3366476    1.9068218    3.7295737 
 5485000   0.90608546 7.8174273e-05   0.59938864  0.015206178            0   0.58418246    1.3421391    1.9415277    5.9440505 
 5490000   0.93172775 -2.4780394e-05   0.54266691  0.025186488            0   0.51748043    1.3801217    1.9227886   0.65403249 
 5495000   0.92832402 -2.6898718e-05   0.51701519  0.034251723            0   0.48276346      1.37508    1.8920951   0.51488076 
 5500000   0.88013694 -1.5294996e-05   0.59563627  0.016685193            0   0.57895108    1.3037028    1.8993391    1.1162353 
 5505000   0.92053228 -4.7216309e-05   0.53814527  0.017192687            0   0.52095258    1.3635384    1.9016837  -0.51579131 
 5510000   0.85617804 -2.8848368e-05   0.66427137  0.021264663            0    0.6430067    1.2682137    1.9324851   0.45544865 
 5515000   0.88715229 -3.3129925e-05   0.59045101   0.01876976            0   0.57168125    1.3140943    1.9045453   0.20829316 
 5520000   0.89670976 -0.00010900248   0.58965353  0.012327206            0   0.57732632    1.3282513    1.9179049   -3.6630223 
 5525000    1.0048057 -8.9692192e-05    0.4332462 0.00095912893            0   0.43228707    1.4883684    1.9216146   -2.6706256 
 5530000   0.84268289 -1.5616543e-05   0.67752072 0.0026040045            0   0.67491672     1.248224    1.9257448    1.1261777 
 5535000   0.95021666 4.361919e-05   0.47548965  0.021632661            0   0.45385699    1.4075084    1.8829981    4.1163006 
 5540000   0.89677279 6.3621459e-05   0.54512565  0.015934305            0   0.52919134    1.3283447    1.8734703     5.130889 
 5545000    0.8614935 2.2548675e-05   0.60855909 0.0080185889            0   0.60054051    1.2760873    1.8846463    3.0391385 
 5550000   0.85165263 5.448526e-05   0.63100644 0.0049184576            0   0.62608798    1.2615105    1.8925169    4.6821622 
 5555000   0.98897689 5.8211163e-05     0.420458 0.0031594313            0   0.41729857     1.464922      1.88538    4.8657916 
 5560000   0.95932307 5.4467239e-05   0.49105841  0.001243304            0   0.48981511    1.4209973    1.9120557    4.7007783 
 5565000   0.85123361 7.711877e-05   0.69124241 0.0018333023            0    0.6894091    1.2608898    1.9521322    5.9006132 
 5570000   0.89029457 5.6039243e-05   0.64409694 0.0073751615            0   0.63672178    1.3187488    1.9628458     4.832055 
 5575000   0.89738584 4.249391e-05   0.65025535  0.015985845            0   0.63426951    1.3292528    1.9795081    4.1551963 
 5580000   0.89934263 0.00012523393   0.64051944  0.029290376            0   0.61122906    1.3321513    1.9726707    8.3846481 
 5585000   0.87627561 6.9929176e-05   0.65887359  0.058124838            0   0.60074876    1.2979833    1.9568568    5.5372306 
 5590000   0.89316236 1.1632563e-05   0.65205706  0.031723477            0   0.62033358    1.3229968    1.9750538     2.570641 
 5595000   0.96092265 4.9891084e-05   0.56969952  0.013689567            0   0.55600995    1.4233667    1.9930662    4.5474897 
 5600000   0.94084953 1.6102992e-05   0.58976628  0.021068457            0   0.56869782    1.3936334    1.9833997    2.8078728 
 5605000   0.88639925 -0.00013215807   0.65673717 0.0033971037            0   0.65334007    1.3129789    1.9697161   -4.7967772 
 5610000   0.92691611 -3.1622946e-05   0.60447983 0.0015550986            0   0.60292473    1.3729945    1.9774743   0.35837947 
 5615000   0.99329163 2.0992807e-05   0.52104399 0.0038240263            0   0.51721996    1.4713132    1.9923572    3.0671889 
 5620000   0.98830027 5.4766372e-05   0.55600661 0.0012267017            0   0.55477991    1.4639198    2.0199264    4.8239646 
 5625000   0.94190531 6.5407819e-06   0.60116341 1.6336082e-05            0   0.60114707    1.3951972    1.9963606    2.3312487 
 5630000    0.9460242 -6.4361866e-05   0.60508598 0.0012701953            0   0.60381578    1.4012983    2.0063843   -1.2889432 
 5635000     1.043146 6.6075829e-05   0.46770706 0.0076283361            0   0.46007872    1.5451601    2.0128671    5.3959496 
 5640000    1.0171346 2.5867703e-05   0.49904559  0.025262017            0   0.47378357    1.5066306    2.0056762    3.3301026 
 5645000   0.92196838 -8.5060262e-05   0.63078997  0.034395833            0   0.59639413    1.3656657    1.9964556   -2.3586298 
 5650000   0.93859624 -5.5927304e-05   0.62024898 0.0093043299            0   0.61094465    1.3902957    2.0105447  -0.85293332 
 5655000   0.94971801 -5.5548499e-05   0.58102478 0.0013672634            0   0.57965752    1.4067698    1.9877946  -0.85628858 
 5660000    1.0584739 -7.9695605e-05    0.4199543 0.0016025236            0   0.41835178    1.5678645    1.9878188   -2.0925962 
 5665000   0.94372605 -1.5878326e-05   0.60258464  0.019365573            0   0.58321907    1.3978942    2.0004789    1.1875086 
 5670000   0.95806443 -5.2539111e-05   0.58183749  0.012188565            0   0.56964892    1.4191329    2.0009704  -0.68903205 
 5675000   0.99125623 -8.7810206e-06   0.54043191 0.0032901756            0   0.53714173    1.4682983    2.0087302    1.5591419 
 5680000    1.0502827 7.955597e-06   0.48858364 0.0059634247            0   0.48262021    1.5557312    2.0443148    2.4516414 
 5685000   0.98342442 -0.0001061912   0.57957712  0.016559502            0   0.56301761    1.4566974    2.0362745    -3.400715 
 5690000   0.99742836 -0.00015390603   0.55408945  0.023575816            0   0.53051363    1.4774408    2.0315302   -5.8484587 
 5695000   0.95744304 2.0425367e-05    0.5967114  0.014412902            0    0.5822985    1.4182125    2.0149239    3.0607027 
 5700000    1.0785448 0.00012121193   0.41289539 0.0023154126            0   0.41057998    1.5975945    2.0104899    8.2165406 
 5705000   0.96474426 -6.0770559e-05   0.57817167 0.0048774163            0   0.57329425    1.4290274    2.0071991   -1.1042535 
 5710000    1.0343741 -3.6643247e-05   0.48913307  0.037695347            0   0.45143773    1.5321667    2.0212998   0.14516553 
 5715000   0.90547655 2.2482514e-05   0.67502888 0.0054013295            0   0.66962755    1.3412371     2.016266    3.1673707 
 5720000    1.0124563 0.00013802618   0.53605002 0.0077548355            0   0.52829519    1.4997009    2.0357509    9.1026916 
 5725000   0.97311595 0.00013006096    0.5984671  0.041463146            0   0.55700396     1.441428    2.0398951    8.6990161 
 5730000   0.91532296 9.6175712e-06   0.67499489  0.027189699            0   0.64780519    1.3558221     2.030817    2.5232367 
 5735000   0.94618516 7.9329558e-05   0.62377138   0.02311756            0   0.60065382    1.4015368    2.0253081    6.0869815 
 5740000   0.95493082 3.9043169e-05   0.60745088  0.010410988            0   0.59703989    1.4144913    2.0219422    4.0209524 
 5745000   0.98916384 -3.7050901e-05   0.55070124 6.8975694e-05            0   0.55063226    1.4651989    2.0159002   0.11889406 
 5750000    1.0437423 -3.8306735e-05   0.50514744            0            0   0.50514744    1.5460432    2.0511907  0.089885858 
 5755000     1.068755 2.1748763e-05   0.48389746            0            0   0.48389746    1.5830934    2.0669909    3.1805275 
 5760000   0.97655511 2.044673e-05   0.60442576 0.0010345347            0   0.60339123    1.4465223     2.050948    3.0978206 
 5765000    1.1029421 4.1664606e-05    0.4401513  0.014873607            0   0.42527769     1.633733    2.0738843    4.2071122 
 5770000   0.98729491 -4.803091e-06   0.61762945  0.045829599            0   0.57179985    1.4624306      2.08006    1.8341418 
 5775000    1.0453099 -0.00010732523   0.49668031  0.022685158            0   0.47399516    1.5483653    2.0450456   -3.4500061 
 5780000    1.0584599 1.770726e-06    0.4508685 0.0075725346            0   0.44329597    1.5678437    2.0187122    2.1093733 
 5785000    1.0046711 2.3905067e-05   0.55103273  0.013212623            0   0.53782011    1.4881691    2.0392019    3.2631413 
 5790000    1.0898447 -6.86679e-05   0.41018593 0.0044515888            0   0.40573434    1.6143325    2.0245185    -1.491278 
 5795000   0.94274296 -1.1928115e-05   0.62794559   0.00259122            0   0.62535437     1.396438    2.0243836    1.4136641 
 5800000    1.0599726 2.1874535e-05   0.48143706 0.0062343826            0   0.47520267    1.5700844    2.0515214    3.1714976 
 5805000    1.0476228 -2.5832124e-05     0.503286  0.011064705            0    0.4922213    1.5517913    2.0550773   0.73247255 
 5810000    1.0187135 1.976077e-05   0.51743961 0.0080890334            0   0.50935058    1.5089694     2.026409    3.0381604 
 5815000   0.97127638 0.00011876023   0.56156246  0.012955023            0   0.54860744    1.4387031    2.0002656    8.0807894 
 5820000   0.98611318 -2.6316661e-05   0.55218347 0.0076693737            0   0.54451409    1.4606802    2.0128636   0.66545055 
 5825000    1.0016078 -0.00013250933   0.54572961 0.0048260342            0   0.54090358    1.4836315    2.0293611   -4.7551166 
 5830000    1.0053253 -2.1394515e-05   0.56893871  0.020325194            0   0.54861351     1.489138    2.0580767   0.96267757 
 5835000    1.0493573 -2.3135502e-05   0.49997511  0.032761229            0   0.46721388    1.5543604    2.0543355   0.86979783 
 5840000    0.9203033 -0.0001033628   0.68424626  0.051820554            0   0.63242571    1.3631993    2.0474455   -3.2447301 
 5845000    1.0650484 -0.00014868766   0.45919455  0.038042845            0    0.4211517    1.5776029    2.0367974   -5.5760108 
 5850000    1.0150697 -0.00017689322   0.53807443  0.013110905            0   0.52496353     1.503572    2.0416465   -7.0152863 
 5855000    1.0011825 -0.00017511262   0.56365834  0.007669793            0   0.55598855    1.4830016    2.0466599    -6.919106 
 5860000   0.98929833 -4.6061319e-05   0.54554237  0.014463571            0    0.5310788    1.4653981    2.0109405    -0.347399 
 5865000   0.92405147 0.00011910711   0.62379625  0.033148317            0   0.59064794    1.3687512    1.9925475    8.0908315 
 5870000    1.0013753 5.8520989e-05   0.49657799  0.026034875            0   0.47054312    1.4832871    1.9798651    4.9761397 
 5875000    1.0351975 5.6479494e-05   0.46144056  0.016816603            0   0.44462396    1.5333863    1.9948268    4.8865769 
 5880000   0.96458093 6.1799467e-05   0.56857054 0.0097186586            0   0.55885188    1.4287855     1.997356    5.1614887 
 5885000    1.0953696 -9.8444122e-05   0.37991898 0.0034208855            0    0.3764981    1.6225162    2.0024351   -3.0379039 
 5890000   0.96347918 -6.0420879e-05   0.54199634 0.0047622203            0   0.53723412    1.4271535    1.9691499   -1.1243991 
 5895000    1.0768465 3.6828516e-05    0.3957553 0.0033287184            0   0.39242658    1.5950789    1.9908342    3.8764542 
 5900000   0.99735463 -6.929793e-06   0.50064381 0.0024160534            0   0.49822776    1.4773315    1.9779754      1.62317 
 5905000    1.0725124 1.9185228e-05    0.3784501 0.0052167937            0   0.37323331     1.588659    1.9671091    2.9493928 
 5910000    1.0311917 7.0480684e-05   0.44942796  0.015255643            0   0.43417232    1.5274527    1.9768806    5.5854917 
 5915000    1.0106579 1.8855758e-07   0.46687002  0.025211101            0   0.44165892    1.4970371    1.9639071    1.9735612 
 5920000    1.0034745 1.4469204e-05    0.4818048  0.028727495            0    0.4530773    1.4863966    1.9682014    2.7090246 
 5925000    0.9842044 6.9584301e-05   0.49728359  0.011901643            0   0.48538195    1.4578528    1.9551364    5.5178526 
 5930000   0.96835432 4.0059245e-05    0.5206586  0.012963582            0   0.50769502    1.4343748    1.9550334    4.0060668 
 5935000   0.98040384 7.1086468e-05   0.47788636  0.026464709            0   0.45142165    1.4522232    1.9301095    5.5697367 
 5940000   0.99275632 5.4818291e-05   0.45043095  0.044797445            0    0.4056335    1.4705203    1.9209513    4.7276478 
 5945000   0.97035706 -4.5478086e-05   0.48531042  0.021169351            0   0.46414106    1.4373414    1.9226518  -0.40582619 
 5950000    1.0019708 -7.8333743e-05   0.44058296  0.010247188            0   0.43033577    1.4841692    1.9247522   -2.0859355 
 5955000   0.89233352 -2.9306094e-05   0.60535175   0.06774313            0   0.53760862     1.321769    1.9271208   0.42664878 
 5960000   0.95971934 0.0001147989   0.50194452  0.035770254            0   0.46617427    1.4215843    1.9235288    7.8012324 
 5965000   0.99198908 4.074692e-05   0.45061546  0.035064927            0   0.41555054    1.4693838    1.9199993    4.0062416 
 5970000    1.0299194 -7.3207267e-05   0.43391994  0.020068958            0   0.41385098    1.5255682    1.9594881    -1.788724 
 5975000   0.96814887 -2.8125843e-05   0.50181478 0.0075226656            0   0.49429212    1.4340705    1.9358853   0.49584211 
 5980000   0.94856176 3.1877336e-06   0.51702848  0.020262802            0   0.49676568    1.4050571    1.9220856    2.0852975 
 5985000   0.94118103 3.6298774e-05   0.51569034  0.011022334            0   0.50466801    1.3941244    1.9098147     3.768312 
 5990000   0.92126485 -7.096004e-05   0.52259395  0.022496829            0   0.50009712    1.3646236    1.8872175   -1.7459365 
 5995000   0.98313949 -0.00011603457    0.4424455  0.024168497            0     0.418277    1.4562754    1.8987209    -4.042249 
 6000000   0.95840007 2.3009712e-05   0.48186004 0.0016036964            0   0.48025634    1.4196301    1.9014901    3.0795874 
 6005000   0.97666605 2.5712191e-05   0.45691974  0.004543572            0   0.45237617    1.4466866    1.9036063    3.2200705 
 6010000    1.0049429 3.9827489e-05   0.39878835  0.012105026            0   0.38668333    1.4885717      1.88736    3.9265274 
 6015000   0.97318111 -1.4669079e-05   0.45767153  0.036064604            0   0.42160693    1.4415245    1.8991961    1.1481392 
 6020000    0.9273134 -0.00016407345   0.49639148   0.02469754            0   0.47169394     1.373583    1.8699745    -6.530586 
 6025000   0.94878489 -3.6907945e-05   0.47004429  0.016488722            0   0.45355557    1.4053876    1.8754319 -0.014254867 
 6030000   0.99756327 2.8982592e-05   0.40635134 0.0097806773            0   0.39657066    1.4776406    1.8839919    3.3679007 
 6035000   0.93015931 -1.626253e-05   0.50624099  0.030015643            0   0.47622535    1.3777985    1.8840395    1.0513979 
 6040000   0.94970246 -4.6660232e-05   0.47747864   0.03453543            0   0.44294321    1.4067468    1.8842254  -0.50477847 
 6045000   0.95413088 -4.8736574e-06   0.49904485  0.038022013            0   0.46102284    1.4133064    1.9123512      1.66282 
 6050000    1.0395512 0.00013170473   0.38560462  0.012972331            0   0.37263229    1.5398352    1.9254398     8.668722 
 6055000   0.97883879 9.8861941e-05   0.49667356 0.0011345113            0   0.49553904     1.449905    1.9465785    7.0083099 
 6060000   0.98438723 -3.623879e-05   0.51624928 0.0088464773            0    0.5074028    1.4581236    1.9743729   0.11894679 
 6065000   0.98056972 -4.8990423e-05   0.52940913   0.01173192            0   0.51767721    1.4524689     1.981878  -0.52643164 
 6070000   0.99972057 -9.018589e-06   0.45834258   0.01655526            0   0.44178732    1.4808361    1.9391787    1.4774269 
 6075000   0.99355559 -0.00010873119   0.48006995   0.01747193            0   0.46259802    1.4717042    1.9517742   -3.6152629 
 6080000   0.90622069 -0.00012882437   0.61193026  0.018662245            0   0.59326801    1.3423394    1.9542696    -4.641538 
 6085000    1.0031823 -2.4679291e-05   0.49017635  0.030704545            0   0.45947181    1.4859637    1.9761401   0.71256038 
 6090000   0.97512828 -3.3650785e-05   0.53773627  0.027411292            0   0.51032498    1.4444088     1.982145   0.25922484 
 6095000   0.90551419 1.0268556e-05   0.60787258  0.083109315            0   0.52476326    1.3412929    1.9491655    2.4749156 
 6100000   0.92396517 2.7121019e-05   0.59059563  0.053479444            0   0.53711618    1.3686234     1.959219    3.3478152 
 6105000   0.96586727 -7.402223e-05   0.50934293   0.02066111            0   0.48868182    1.4306909    1.9400338   -1.8499043 
 6110000   0.94434205 3.2163243e-06   0.56125112  0.023505389            0   0.53774573    1.3988067    1.9600578    2.1247336 
 6115000   0.97237054 -1.1989493e-05   0.50580515 0.0084371609            0   0.49736799    1.4403239     1.946129     1.332267 
 6120000   0.97106611 -6.3351299e-05   0.54391594  0.005407892            0   0.53850805    1.4383917    1.9823076   -1.2612789 
 6125000    1.0636527 -4.347437e-05   0.42834392  0.010493895            0   0.41785002    1.5755355    2.0038794  -0.22200829 
 6130000    1.0014798 -2.652941e-06   0.51797935   0.04069804            0   0.47728131    1.4834419    2.0014212    1.8655907 
 6135000    1.0272189 -1.2932732e-05   0.50086211  0.019928952            0   0.48093316     1.521568    2.0224302    1.3602743 
 6140000    1.0415061 -4.433136e-05    0.4839574 0.00022865009            0   0.48372875    1.5427308    2.0266882  -0.24307741 
 6145000   0.96660122 -0.00010503199   0.56924403            0            0   0.56924403    1.4317781    2.0010221   -3.3766156 
 6150000    1.0924835 5.0571981e-05   0.40322933 0.0016825674            0   0.40154676    1.6182411    2.0214705    4.6107559 
 6155000    1.0224642 0.00012620035    0.4770242  0.010270559            0   0.46675365     1.514525    1.9915492    8.4530069 
 6160000    1.0685792 -4.5281069e-05   0.39920075  0.010273767            0   0.38892698     1.582833    1.9820337    -0.336357 
 6165000   0.99074017 -5.0611343e-06     0.517498 0.0046618242            0   0.51283617    1.4675339    1.9850319    1.7259018 
 6170000    0.9827896 3.6580355e-05   0.53428441  0.049934744            0   0.48434967    1.4557571    1.9900415    3.8629557 
 6175000     1.027351 -2.1969638e-05   0.43157154  0.023207371            0   0.40836417    1.5217637    1.9533352   0.82848974 
 6180000   0.98884757 1.134034e-05   0.47148116 0.0077671883            0   0.46371398    1.4647305    1.9362116     2.516837 
 6185000   0.98793211 -2.8204237e-05   0.45476292 0.0036728065            0   0.45109011    1.4633744    1.9181374   0.47408045 
 6190000   0.88819389 -1.2657917e-05   0.59204007  0.010315721            0   0.58172435    1.3156372    1.9076773    1.2595919 
 6195000   0.99213343 0.00010244256   0.40985395  0.022238709            0   0.38761525    1.4695976    1.8794516    7.1245109 
 6200000   0.94728734 0.00010508179   0.47298603  0.016531289            0   0.45645474    1.4031694    1.8761554     7.256343 
 6205000   0.97840956 -7.2420822e-06    0.4297156  0.010777188            0   0.41893842    1.4492692    1.8789848    1.5081902 
 6210000   0.97676743 -6.5866147e-05    0.4297495 0.0039550011            0    0.4257945    1.4468368    1.8765863   -1.4957605 
 6215000   0.96242514 -2.7525734e-06   0.45556255  0.011088034            0   0.44447452    1.4255922    1.8811548     1.740223 
 6220000   0.96513411 2.4288608e-05   0.43279871   0.03687815            0   0.39592056    1.4296049    1.8624036    3.1059804 
 6225000     0.936813 -9.7620298e-05   0.47844089  0.046030712            0   0.43241017    1.3876543    1.8660951   -3.1320641 
 6230000    0.9348247 -0.00010061056   0.49650291  0.021543356            0   0.47495956    1.3847091     1.881212   -3.2700489 
 6235000   0.94337597 -1.672462e-05   0.49115203  0.011287373            0   0.47986466    1.3973757    1.8885277    1.0322271 
 6240000   0.89804739 3.0484916e-05   0.52585393  0.012570919            0   0.51328301    1.3302327    1.8560866    3.4169143 
 6245000   0.92908737 -1.8054945e-05   0.51013564   0.01119739            0   0.49893825    1.3762107    1.8863463   0.96193309 
 6250000   0.97883426 -0.00011670266   0.47040577  0.021778589            0   0.44862718    1.4498982     1.920304   -4.0548723 
 6255000   0.92560313 -2.0086416e-05    0.5359973  0.049635617            0   0.48636168    1.3710496    1.9070469   0.87862245 
 6260000   0.91217953 -2.0519671e-05   0.55529872  0.070625985            0   0.48467273    1.3511659    1.9064646   0.85585748 
 6265000   0.88678615 -5.8982377e-05   0.58672782  0.045972187            0   0.54075563     1.313552    1.9002798   -1.1196179 
 6270000   0.98203159 4.705289e-05   0.42146073  0.041455666            0   0.38000506    1.4546343     1.876095     4.285203 
 6275000    0.9218851 0.00016903396   0.52776982  0.018176587            0   0.50959323    1.3655423    1.8933121    10.547851 
 6280000   0.92542412 8.4090151e-05    0.5085854  0.012432232            0   0.49615317    1.3707845    1.8793699    6.1847856 
 6285000    0.8979153 -7.8892787e-05   0.55198641   0.02268255            0   0.52930386     1.330037    1.8820234   -2.1572872 
 6290000    0.9488698 4.319253e-06   0.45221603  0.036078036            0   0.41613799    1.4055134    1.8577294    2.0788752 
 6295000   0.90248234 5.6008977e-05   0.49549711  0.023286255            0   0.47221086     1.336802    1.8322991    4.6999587 
 6300000   0.92286923 -3.8457922e-06   0.47180008 0.0042426284            0   0.46755745        1.367    1.8388001    1.6418956 
 6305000   0.88456191 -3.0917138e-05   0.51960768 0.0016846856            0     0.517923    1.3102573     1.829865   0.24690754 
 6310000   0.95103079 4.4348943e-05   0.41385373 0.00031746535            0   0.41353626    1.4087144    1.8225681     4.093234 
 6315000     0.939826 1.3883754e-05   0.41131344  0.004302945            0    0.4070105    1.3921173    1.8034307    2.5142789 
 6320000   0.86298063 -4.3716022e-05   0.52310439  0.010152342            0   0.51295204    1.2782901    1.8013944  -0.43686588 
 6325000   0.89328994 7.7493809e-05   0.49397362 0.0044197052            0   0.48955392    1.3231857    1.8171593    5.7848424 
 6330000   0.92861104 7.7067203e-05   0.42552063 0.0014859043            0   0.42403473    1.3755051    1.8010257    5.7468665 
 6335000   0.90770601 7.7483225e-06   0.45946041 0.0011883255            0   0.45827208    1.3445395    1.8039999    2.2007141 
 6340000   0.88543035 1.1886545e-05    0.4809898 0.0076177761            0   0.47337202    1.3115437    1.7925335    2.4011246 
 6345000   0.86663908 -2.5440733e-05   0.52751631  0.020083403            0   0.50743291    1.2837091    1.8112254   0.50865992 
 6350000   0.86610272 -3.680601e-05   0.54711048   0.03436598            0    0.5127445    1.2829146    1.8300251 -0.054442558 
 6355000   0.92038289 0.0001244125   0.49321105  0.038787526            0   0.45442353    1.3633172    1.8565282    8.2264483 
 6360000   0.96478876 0.0001173175    0.4329012  0.007115609            0   0.42578559    1.4290934    1.8619946    7.8686507 
 6365000   0.97323959 -2.7782727e-05   0.44472986 0.0067503246            0   0.43797954    1.4416111     1.886341   0.46386537 
 6370000   0.87972854 -7.0822862e-05   0.57163631 0.0095299421            0   0.56210636    1.3030979    1.8747342   -1.7513963 
 6375000   0.92139703 -7.4990134e-05   0.53934357  0.020948817            0   0.51839476    1.3648194    1.9041629   -1.9353319 
 6380000    0.9243873 -9.5628936e-05   0.56446086  0.030989137            0   0.53347172    1.3692487    1.9337095    -2.962492 
 6385000   0.97145378 -7.1610653e-07   0.50164915  0.014369972            0   0.48727918    1.4389659    1.9406151    1.9039504 
 6390000   0.94436308 7.5690442e-05   0.55112819   0.04698791            0   0.50414028    1.3988378     1.949966    5.8253166 
 6395000    0.9221274 -8.8352032e-06   0.57879799  0.029414621            0   0.54938337    1.3659012    1.9446992    1.4923368 
 6400000   0.95724099 4.6896373e-05   0.53550275  0.034479882            0   0.50102287    1.4179132     1.953416    4.3545103 
 6405000   0.99988088 -2.8656928e-05   0.46938606  0.014116674            0   0.45526939    1.4810735    1.9504596   0.48322488 
 6410000    1.0105516 -4.2318051e-05    0.4383226  0.011077045            0   0.42724556    1.4968795    1.9352021  -0.23148214 
 6415000   0.98544849 4.7644912e-05   0.49541952  0.007098007            0   0.48832151    1.4596956    1.9551151    4.3945346 
 6420000   0.94911824 1.0229044e-05    0.5817809  0.041984681            0   0.53979622    1.4058814    1.9876623    2.5113893 
 6425000     1.003085 -6.5553597e-05   0.51653133  0.033313303            0   0.48321802    1.4858197     2.002351   -1.3539931 
 6430000    1.0221305 -3.7656662e-05   0.47762755  0.029993277            0   0.44763427    1.5140309    1.9916584  0.063637305 
 6435000    1.0316703 5.6201621e-05   0.45949679  0.034718026            0   0.42477876    1.5281616    1.9876584    4.8651814 
 6440000   0.97053105 -4.5166487e-05   0.53738195  0.031397045            0   0.50598491    1.4375991    1.9749811  -0.33754307 
 6445000   0.97511078 9.0361011e-07   0.54409385  0.077191117            0   0.46690274    1.4443828    1.9884767    2.0347415 
 6450000    1.0007672 0.00012770033   0.49671846  0.019158124            0   0.47756034    1.4823864    1.9791048    8.5173619 
 6455000   0.95900318 -5.6373143e-05     0.553691  0.013632538            0   0.54005846    1.4205235    1.9742145  -0.91209045 
 6460000   0.98855667 2.9418828e-05   0.50227595  0.020222231            0   0.48205372    1.4642996    1.9665755    3.4728195 
 6465000   0.99878301 0.00013979617   0.48554116  0.012454405            0   0.47308676    1.4794473    1.9649885    9.1225524 
 6470000    0.9527264 -0.00011095245   0.54903799  0.058125067            0   0.49091292     1.411226     1.960264   -3.7205013 
 6475000    1.0169218 -1.6394245e-05   0.42802351  0.024881578            0   0.40314193    1.5063153    1.9343389    1.0949535 
 6480000   0.94925181 4.8357112e-05    0.5218821   0.02374152            0   0.49814058    1.4060792    1.9279614    4.4038455 
 6485000    0.9684397 -2.7855097e-06   0.46913789  0.024330006            0   0.44480788    1.4345013    1.9036392    1.7610211 
 6490000   0.97610913 -8.8341312e-05   0.48494826  0.034964163            0    0.4499841    1.4458617    1.9308099   -2.5922653 
 6495000   0.93550727 0.00013840002   0.52043135  0.011539729            0   0.50889162    1.3857201    1.9061515    8.9922327 
 6500000   0.97469059 7.7452787e-05   0.45322185   0.01089585            0     0.442326    1.4437604    1.8969823     5.862565 
 6505000   0.92888026 -0.00012366394   0.49201765  0.022655392            0   0.46936225    1.3759039    1.8679215    -4.463672 
 6510000   0.89203454 1.8097504e-05   0.51088651  0.026993358            0   0.48389316    1.3213262    1.8322127    2.7588049 
 6515000   0.92753504 2.0144789e-05   0.46857627  0.019295931            0   0.44928034    1.3739113    1.8424875    2.8739007 
 6520000   0.89563288 -1.7512878e-05   0.51154845 0.0070121751            0   0.50453628    1.3266562    1.8382047   0.94154528 
 6525000   0.91833122 1.5532855e-06   0.47778735 0.0024895677            0   0.47529778    1.3602781    1.8380655    1.9175937 
 6530000   0.92712851 1.6862194e-06   0.49078542 0.0094861745            0   0.48129925    1.3733091    1.8640945     1.950429 
 6535000    0.9797838 -7.4368065e-05   0.37516171  0.026166558            0   0.34899515    1.4513048    1.8264665   -1.9811785 
 6540000   0.89018807 -8.6670024e-05   0.47874952  0.028120138            0   0.45062939    1.3185911    1.7973406   -2.6401646 
 6545000   0.88363037 -3.8394096e-05   0.46755781 0.0090154805            0   0.45854233    1.3088775    1.7764353  -0.18934243 
 6550000   0.88376616 2.8962807e-05   0.47129274 0.0021777724            0   0.46911497    1.3090786    1.7803714    3.2632671 
 6555000   0.82514286 8.7327714e-05   0.53164386  0.050226172            0   0.48141768    1.2222429    1.7538867    6.2250657 
 6560000   0.87392874 0.00013225079   0.47113784  0.014221317            0   0.45691653    1.2945069    1.7656448     8.536885 
 6565000   0.86535047 5.8364243e-05   0.43813807  0.034175081            0   0.40396299    1.2818004    1.7199384    4.7081877 
 6570000   0.84138976 -3.3119388e-05   0.46715178  0.026777605            0   0.44037418    1.2463086    1.7134604  0.017747699 
 6575000   0.75503382 -7.8649643e-06   0.58403327  0.017467148            0   0.56656612    1.1183938    1.7024271    1.2997409 
 6580000   0.85034255 8.5406251e-05   0.46698075   0.01391074            0   0.45307001    1.2595699    1.7265507    6.0993507 
 6585000   0.81452107 6.7090025e-05    0.5299414 0.0042226297            0   0.52571877    1.2065093    1.7364507      5.17146 
 6590000   0.84551143 -2.8144669e-08   0.49847049 0.0076267914            0   0.49084369    1.2524138    1.7508843    1.7494433 
 6595000   0.86992544 -1.3853879e-05   0.48491574  0.034373507            0   0.45054224    1.2885771    1.7734928    1.0641742 
 6600000   0.90167277 2.3316648e-05   0.43845424 0.0064466868            0   0.43200755    1.3356028     1.774057    2.9678694 
 6605000   0.90400885 -1.3864846e-05   0.46071781  0.011564618            0   0.44915319    1.3390631    1.7997809    1.0899008 
 6610000    0.8922247 -0.00011109613    0.4671909  0.022236737            0   0.44495416    1.3216078    1.7887987   -3.8993229 
 6615000   0.86897778 -0.00010776305   0.51184628  0.012481225            0   0.49936506    1.2871733    1.7990196   -3.7184486 
 6620000   0.85263006 -2.6682601e-05   0.57988986  0.015263627            0   0.56462623    1.2629583    1.8428481   0.47669894 
 6625000   0.91247288 -4.4664278e-05   0.46795271  0.008647268            0   0.45930545    1.3516004    1.8195532  -0.46725785 
 6630000   0.88109174 1.9005405e-05   0.54438756  0.010654208            0   0.53373335    1.3051171    1.8495047    2.8225814 
 6635000   0.85934587 0.00015345422   0.57669713  0.018336297            0   0.55836083    1.2729061    1.8496032    9.7064594 
 6640000   0.92021781 8.594005e-05   0.47271226   0.01001764            0   0.46269462    1.3630726    1.8357849    6.2359154 
 6645000   0.93108795 -1.0896269e-05   0.45189509 0.0056476709            0   0.44624742     1.379174    1.8310691    1.2731801 
 6650000   0.87999158 -9.3194274e-05   0.52004972 0.0027415941            0   0.51730813    1.3034875    1.8235373   -2.9480096 
 6655000   0.93768471 -0.00018140491   0.42257056 0.00035328444            0   0.42221727    1.3889455     1.811516   -7.4764155 
 6660000   0.89323567 5.9491094e-05   0.50036824            0            0   0.50036824    1.3231053    1.8234736    4.8694176 
 6665000   0.89953704 6.5603806e-06   0.49237038 0.0013200559            0   0.49105033    1.3324392    1.8248096    2.1607011 
 6670000   0.90563019 -0.00010476839    0.4984929   0.01850163            0   0.47999127    1.3414647    1.8399576    -3.524184 
 6675000   0.91295797 -1.3603631e-05   0.44973239  0.022076987            0    0.4276554     1.352319    1.8020514    1.1055455 
 6680000    0.8607819 -1.8826062e-05   0.53687683 0.0089828298            0     0.527894    1.2750332      1.81191   0.84801565 
 6685000   0.86889991 2.7286354e-06    0.5333901  0.013326151            0   0.52006395     1.287058    1.8204481    1.9601542 
 6690000   0.92693914 3.5140898e-05    0.4659094 0.0085330104            0   0.45737639    1.3730286     1.838938     3.638152 
 6695000   0.89271131 -3.5052809e-05    0.5206507 0.0020020692            0   0.51864864    1.3223286    1.8429793  0.048275499 
 6700000   0.88845618 8.8776828e-06   0.51044299 0.0015252328            0   0.50891776    1.3160257    1.8264687    2.2810061 
 6705000   0.91650204 7.5826682e-05   0.47554569  0.011056078            0   0.46448962    1.3575686    1.8331143    5.7154404 
 6710000   0.93041516 4.7652094e-05   0.46267836  0.012600185            0   0.45007817    1.3781775    1.8408558     4.280643 
 6715000   0.89621442 2.0094369e-05   0.50221374 0.0026704074            0   0.49954334    1.3275176    1.8297314     2.858563 
 6720000   0.94996783 -3.1602471e-05   0.44425057  0.025099053            0   0.41915152    1.4071398    1.8513904   0.23334389 
 6725000   0.89932765 -1.2913504e-05   0.51283647  0.036307289            0   0.47652918    1.3321291    1.8449656    1.1837942 
 6730000   0.94077599 8.4330908e-06   0.45925928  0.017041766            0   0.44221751    1.3935244    1.8527837     2.284558 
 6735000   0.87765347 -1.4798353e-05   0.57481013  0.010915096            0   0.56389504    1.3000242    1.8748343    1.1171586 
 6740000   0.90181348 -8.1215962e-07    0.5413466  0.013868013            0   0.52747858    1.3358112    1.8771578    1.8355752 
 6745000     0.858766 -1.5232759e-05   0.59058714  0.010577378            0   0.58000976    1.2720471    1.8626343     1.082717 
 6750000   0.87915628 -3.3996071e-05   0.54374683 0.0025644881            0   0.54118234    1.3022502    1.8459971   0.10539823 
 6755000   0.92444504 4.368986e-05   0.49566458  0.001208404            0   0.49445618    1.3693342    1.8649988    4.1019197 
 6760000   0.93723396 0.00016135881   0.51092821 0.0031351958            0   0.50779301    1.3882778     1.899206    10.160777 
 6765000   0.91495189 4.0126283e-05   0.54399061  0.018488409            0    0.5255022    1.3552725    1.8992631    3.9537288 
 6770000   0.93042263 -3.7356374e-05   0.56612477  0.039738781            0   0.52638599    1.3781885    1.9443133  0.031666931 
 6775000   0.92640236 4.0583168e-05   0.56652194  0.017466037            0    0.5490559    1.3722335    1.9387554    4.0166137 
 6780000    1.0442564 0.00010480491   0.38275654  0.011509266            0   0.37124728    1.5468048    1.9295613    7.2955726 
 6785000   0.94596353 1.4463619e-06   0.55519681  0.020847681            0   0.53434913    1.4012085    1.9564053     2.030459 
 6790000   0.95574597 -1.6736701e-05    0.5478383  0.026957584            0   0.52088072    1.4156987     1.963537    1.1066179 
 6795000    0.9601876 -0.00013248366   0.54687085 0.0077078803            0   0.53916297    1.4222779    1.9691487   -4.8140149 
 6800000    1.0239485 -4.3576834e-05   0.45454262 0.0077409245            0    0.4468017    1.5167238    1.9712664  -0.25986753 
 6805000    1.0001919 0.00013278333   0.48286764  0.017951064            0   0.46491658    1.4815342    1.9644018    8.7629086 
 6810000   0.99449453 2.8992362e-05   0.52013718  0.060876471            0   0.45926071     1.473095    1.9932322    3.4776412 
 6815000    1.0705847 -9.7813234e-06   0.41686384 0.0060481866            0   0.41081565    1.5858036    2.0026674    1.5018637 
 6820000   0.99899703 6.4656319e-05   0.54968869  0.003887453            0   0.54580124    1.4797644     2.029453    5.3398566 
 6825000    1.0490502 6.2546388e-05   0.48059732  0.011269268            0   0.46932805    1.5539055    2.0345029    5.2368779 
 6830000    1.0048525 1.414832e-05   0.53995209  0.039332836            0   0.50061925    1.4884377    2.0283898    2.7527838 
 6835000     1.044782 2.8519065e-05    0.5176689  0.037202571            0   0.48046632    1.5475833    2.0652522    3.5254284 
 6840000    1.0606056 -5.788967e-05   0.50460506  0.019121281            0   0.48548378     1.571022    2.0756271  -0.88832401 
 6845000    1.0482584 -0.00017684502   0.55779215  0.010787194            0   0.54700495    1.5527327    2.1105249   -6.9439403 
 6850000    1.0195169 -0.00014856555   0.60869391  0.012856216            0   0.59583769    1.5101595    2.1188534   -5.4877028 
 6855000    1.0643347 -0.0001402962   0.56839792 0.0086104949            0   0.55978742    1.5765458    2.1449437    -5.038222 
 6860000    1.1552059 -5.3983148e-05   0.46264966  0.010191014            0   0.45245865    1.7111487    2.1737984  -0.59013881 
 6865000    1.1095985 2.4165996e-05   0.52845721  0.012106671            0   0.51635054    1.6435927    2.1720499    3.4093489 
 6870000    1.1187334 -2.1969551e-05   0.51821359 0.0069745657            0   0.51123903    1.6571239    2.1753375    1.0504965 
 6875000    1.0442186 1.3779341e-06   0.62599271  0.022954715            0   0.60303799    1.5467488    2.1727415    2.2432917 
 6880000    1.1021613 -2.3157289e-05   0.55398906 0.0062961446            0   0.54769292    1.6325764    2.1865654    1.0009122 
 6885000    1.1214315 -6.4576209e-05   0.54335472  0.027900215            0    0.5154545    1.6611204    2.2044751   -1.1018268 
 6890000    1.1568082 -3.8258427e-05   0.51642638  0.036636216            0   0.47979016    1.7135221    2.2299485   0.27111706 
 6895000    1.0318982 3.1170789e-05   0.68507213  0.046606745            0   0.63846538    1.5284993    2.2135714    3.8095158 
 6900000    1.0551798 9.7106974e-05   0.67245418  0.038339302            0   0.63411488    1.5629851    2.2354393    7.2073163 
 6905000    1.1701949 4.3538384e-05   0.48584553  0.021549082            0   0.46429645    1.7333512    2.2191967    4.4483619 
 6910000    1.0964618 2.6724315e-05   0.60031301 0.0089242343            0   0.59138878     1.624134     2.224447     3.592732 
 6915000    1.0911404 -1.1781448e-05   0.60695383  0.014530257            0   0.59242358    1.6162517    2.2232056    1.6199954 
 6920000    1.0359876 -2.1214513e-05   0.67000893  0.047818227            0    0.6221907    1.5345567    2.2045656    1.1183825 
 6925000    1.0651262 -9.3092992e-05   0.64405002  0.014568508            0   0.62948151    1.5777181    2.2217681    -2.544593 
 6930000    1.1505423 8.5206336e-05    0.5072882  0.016699673            0   0.49058852    1.7042407    2.2115289    6.5740934 
 6935000    1.1208328 0.00015162244   0.54175657  0.010385772            0   0.53137079    1.6602336    2.2019901    9.9650588 
 6940000     1.066064 4.5464059e-05   0.61590065 0.0099728583            0   0.60592779    1.5791073     2.195008    4.5227678 
 6945000     1.065961 -0.00019003273   0.63475069 0.0094626244            0   0.62528807    1.5789548    2.2137054   -7.5159702 
 6950000    1.1520737 -6.3631709e-05   0.52642492 0.0028315951            0   0.52359332    1.7065091    2.2329341   -1.0250095 
 6955000    1.1355396 4.119407e-05   0.56208608 0.0014313083            0   0.56065477     1.682018    2.2441041    4.3532405 
 6960000    1.1427162 0.00012701132    0.5341653  0.017141228            0   0.51702407    1.6926484    2.2268137    8.7297933 
 6965000    1.1167291 -3.9614062e-05   0.64068964  0.029716031            0   0.61097361     1.654155    2.2948447    0.2666047 
 6970000     1.056966 1.5382807e-05   0.72119454  0.060000421            0   0.66119412    1.5656309    2.2868255    3.0744252 
 6975000    1.1485426 6.1626338e-05   0.59206021  0.081392522            0   0.51066768    1.7012788     2.293339    5.4486075 
 6980000    1.1223187 -9.410103e-05   0.62151315  0.023782027            0   0.59773113    1.6624345    2.2839477   -2.5340251 
 6985000    1.1089153 -0.00013445647   0.63107867  0.012153889            0   0.61892478    1.6425808    2.2736595   -4.6105117 
 6990000    1.1395015 2.1665739e-05   0.57798127  0.045244647            0   0.53273662    1.6878866    2.2658678    3.3751537 
 6995000     1.141892 0.00010597054   0.58994265  0.025015212            0   0.56492744    1.6914275    2.2813702    7.7070621 
 7000000    1.0840394 -6.2947124e-05   0.68777619 0.0020983549            0   0.68567784    1.6057334    2.2935096  -0.92938319 
 7005000    1.0976797 -8.3224713e-05   0.67776873 0.0055651113            0   0.67220362     1.625938    2.3037068   -1.9573985 
 7010000    1.1078333 -2.386034e-05   0.63274189  0.035251657            0   0.59749023    1.6409781      2.27372    1.0520705 
 7015000    1.0579268 5.2387831e-05   0.72292865  0.057777463            0   0.66515119    1.5670541    2.2899827    4.9722397 
 7020000    1.1619508 0.00021042988   0.58817865 0.0056473509            0    0.5825313    1.7211397    2.3093183    13.083328 
 7025000    1.2828107 9.7878063e-05   0.44353369 0.0026556793            0   0.44087802    1.9001633     2.343697    7.3550538 
 7030000    1.1554356 -0.0001026044   0.63592497  0.012553827            0   0.62337115     1.711489     2.347414   -2.9059315 
 7035000    1.1623454 -0.00013407454   0.62513009  0.019459182            0   0.60567091    1.7217241    2.3468542   -4.5177624 
 7040000    1.1352393 -0.00018385325    0.6486865  0.011997784            0   0.63668872    1.6815732    2.3302597   -7.0830268 
 7045000    1.1976377 -9.6813573e-05   0.52744245 0.0024620059            0   0.52498044    1.7740008    2.3014433   -2.6554117 
 7050000    1.0928528 4.3818497e-05   0.68335434  0.035489093            0   0.64786524    1.6187883    2.3021426    4.5456496 
 7055000     1.132656 -3.2944664e-05   0.60060913  0.046982787            0   0.55362634    1.6777467    2.2783558   0.59158905 
 7060000    1.1167365 -9.1431735e-05   0.62526009  0.028666919            0   0.59659317     1.654166    2.2794261   -2.4018787 
 7065000    1.1383079 -4.5332087e-05   0.61660768  0.043554179            0    0.5730535    1.6861186    2.3027262 -0.018276616 
 7070000    1.1626521 5.9306375e-05    0.5708353  0.024073402            0    0.5467619    1.7221785    2.2930138    5.3295002 
 7075000    1.2390667 -8.3988273e-05   0.45723757  0.029524289            0   0.42771328    1.8353675    2.2926051   -2.0075945 
 7080000    1.1316882 -3.2979865e-05   0.63308202  0.024385431            0   0.60869659    1.6763132    2.3093952   0.62082613 
 7085000    1.1274853 -7.6818021e-06   0.64799554  0.030561298            0   0.61743424    1.6700876    2.3180831    1.9247749 
 7090000     1.199466 0.00011889987   0.53086767 0.0085252864            0   0.52234238     1.776709    2.3075767    8.3952499 
 7095000    1.1962986 9.9256547e-05   0.51126939            0            0   0.51126939    1.7720173    2.2832867    7.3652219 
 7100000    1.1250597 0.00018346918   0.59591864   0.02473542            0   0.57118322    1.6664947    2.2624134    11.656035 
 7105000    1.1384349 -2.8692356e-05   0.56421372  0.035980742            0   0.52823297    1.6863067    2.2505204    0.7814718 
 7110000    1.2228138 4.6972117e-06    0.4354722 0.0026481902            0   0.43282401    1.8112929    2.2467651    2.4872624 
 7115000    1.2285631 2.9433472e-05   0.42723663  0.001830372            0   0.42540626    1.8198091    2.2470457    3.7540395 
 7120000     1.249921 6.1152156e-05   0.40587134 0.0015548469            0   0.40431649    1.8514454    2.2573167    5.3883071 
 7125000     1.096317 6.1639069e-05   0.62995492  0.006631997            0   0.62332292    1.6239196    2.2538745    5.4097949 
 7130000    1.1774334 1.8707048e-05   0.51035093  0.010284675            0   0.50006626    1.7440733    2.2544242     3.212225 
 7135000    1.1679518 8.1119838e-05   0.53930226  0.019782434            0   0.51951983    1.7300286    2.2693308    6.4226666 
 7140000     1.189706 -8.2122847e-05    0.5121022  0.021011201            0     0.491091    1.7622521    2.2743543   -1.9303355 
 7145000    1.0838353 -5.4413578e-05   0.66263082 0.0094133614            0   0.65321746     1.605431    2.2680618  -0.51791338 
 7150000    1.1843752 -3.6509775e-06   0.51449138 0.0024684178            0   0.51202296    1.7543557    2.2688471    2.0819171 
 7155000    1.2074906 -4.9177349e-05   0.48472658 0.00039080512            0   0.48433577    1.7885955     2.273322  -0.24455826 
 7160000    1.1337555 -0.00015275463    0.5867941 0.0041019418            0   0.58269215    1.6793753    2.2661694   -5.5548679 
 7165000    1.1180319 0.00014001262   0.59326889 0.0084312251            0   0.58483766    1.6560847    2.2493536    9.4179997 
 7170000    1.1712334 0.00014400811   0.52058332  0.020778787            0   0.49980453    1.7348894    2.2554728    9.6286879 
 7175000    1.0803912 -0.00018019593   0.65180974  0.017566867            0   0.63424287    1.6003294    2.2521392   -6.9738923 
 7180000    1.0602023 -0.0001466705   0.69621873  0.022973702            0   0.67324503    1.5704247    2.2666434    -5.242886 
 7185000    1.1238387 -3.3161541e-05   0.61114171  0.061674459            0   0.54946725    1.6646861    2.2758279   0.57795698 
 7190000    1.0893042 2.6152033e-06   0.67756129  0.043438337            0   0.63412296    1.6135318    2.2910931    2.4249915 
 7195000    1.0912928 5.6372189e-05   0.65739516  0.034987686            0   0.62240747    1.6164775    2.2738726    5.1601287 
 7200000    1.1634534 -1.9646261e-05   0.54909565  0.034916479            0   0.51417918    1.7233653     2.272461    1.2665724 
 7205000    1.0636395 -2.7200305e-05   0.69010678  0.021028451            0   0.66907832     1.575516    2.2656228   0.87296716 
 7210000    1.1395684 2.3480432e-05   0.57914042 0.0080078702            0   0.57113255    1.6879857    2.2671261    3.4693242 
 7215000    1.1339247 2.2772067e-05    0.5784131  0.022626581            0   0.55578652     1.679626    2.2580391     3.423969 
 7220000   0.97568158 6.0104977e-05   0.80514736  0.014089757            0    0.7910576    1.4452283    2.2503757    5.3277505 
 7225000    1.1573186 5.7986982e-05   0.55673239 0.0093460051            0   0.54738639    1.7142782    2.2710106    5.2399441 
 7230000     1.064358 -4.2220553e-05   0.69287411  0.027120992            0   0.66575312    1.5765803    2.2694544   0.10776207 
 7235000     1.082636 -7.8097983e-05   0.66539916  0.032214356            0    0.6331848    1.6036545    2.2690537    -1.729563 
 7240000    1.0837424 3.1148481e-05   0.64692009  0.023411769            0   0.62350832    1.6052935    2.2522136    3.8470158 
 7245000     1.075173 -3.3137248e-05   0.65439092  0.013076741            0   0.64131418    1.5925999    2.2469909   0.55036375 
 7250000    1.0636725 -6.6673396e-05   0.64402282   0.04294258            0   0.60108024    1.5755649    2.2195878   -1.1940901 
 7255000     1.124435 7.9043599e-05   0.58845272   0.08228748            0   0.50616524    1.6655694    2.2540221    6.3010544 
 7260000     1.135073 5.0780245e-05   0.53988681  0.036457106            0   0.50342971    1.6813269    2.2212137    4.8211623 
 7265000    1.0620173 -8.0207105e-05   0.69021207  0.030773914            0   0.65943815    1.5731131    2.2633251   -1.8432786 
 7270000    1.0704468 -2.4718675e-05   0.63824864  0.021299921            0   0.61694872    1.5855993     2.223848   0.95825182 
 7275000    1.1427996 0.0001144485   0.53317355 0.0093206633            0   0.52385289    1.6927718    2.2259454    8.0857088 
 7280000    1.1227238 5.4300851e-05   0.56880929 0.0058950975            0   0.56291419    1.6630346    2.2318439    5.0120475 
 7285000     1.098464 -1.0617879e-08    0.6062507 0.0036920233            0   0.60255868    1.6270998    2.2333505    2.2328068 
 7290000    1.0932017 6.8979164e-05   0.59114749 0.0060813838            0    0.5850661    1.6193051    2.2104526    5.7421858 
 7295000    1.1767854 1.9256163e-05   0.50207155  0.020883939            0   0.48118761    1.7431134     2.245185    3.2311005 
 7300000    1.0748388 2.5600453e-05    0.6143009 0.0092173111            0   0.60508359     1.592105    2.2064059    3.5171491 
 7305000    1.0885598 -0.00012467861   0.60420958   0.02217947            0   0.58203011    1.6124292    2.2166388    -4.166906 
 7310000    1.1544871 -0.0001267843   0.52063341  0.016081503            0   0.50455191     1.710084    2.2307174   -4.2606387 
 7315000    1.0425049 8.601001e-05    0.6782305 0.0015244078            0   0.67670609    1.5442104    2.2224409    6.6261534 
 7320000    1.0931636 7.954655e-05   0.61283646  0.012195066            0    0.6006414    1.6192485     2.232085    6.3048683 
 7325000     1.164338 5.7652051e-05   0.49834982  0.038515171            0   0.45983465    1.7246756    2.2230254    5.1748105 
 7330000     1.115948 5.7726609e-05   0.52645659  0.020340686            0    0.5061159     1.652998    2.1794546     5.135057 
 7335000    1.0137083 -2.471425e-05   0.68593291 0.0026089797            0   0.68332393    1.5015554    2.1874883   0.92211873 
 7340000   0.96438607 -5.0904672e-05   0.76102294 0.0076087185            0   0.75341422    1.4284969    2.1895198  -0.41679937 
 7345000    1.0700664 4.4252997e-05   0.64309985  0.014914992            0   0.62818486    1.5850359    2.2281357    4.4938891 
 7350000    1.1459674 1.6535499e-05   0.52153217 0.0069909248            0   0.51454125    1.6974642    2.2189963    3.0656139 
 7355000    1.0257951 -6.0699872e-05   0.71745747 0.0024786005            0   0.71497887     1.519459    2.2369165  -0.87091691 
 7360000     1.098749 -1.3973766e-05     0.606476 0.0025912509            0   0.60388475    1.6275219    2.2339979    1.5185411 
 7365000    1.1414845 3.2102561e-06   0.51358518  0.011105328            0   0.50247985    1.6908239    2.2044091    2.3687742 
 7370000    1.0846174 -9.5052811e-05   0.58749175  0.016130005            0   0.57136175    1.6065895    2.1940812   -2.6726227 
 7375000    1.0785631 -0.00017401001   0.62894578 0.0095384978            0   0.61940728    1.5976216    2.2265674   -6.6827454 
 7380000     1.081882 -0.00017209775   0.63164785  0.017863235            0   0.61378461    1.6025377    2.2341856   -6.5772191 
 7385000    1.0961055 -0.00012860371   0.62667636  0.041888939            0   0.58478742    1.6236063    2.2502826   -4.3342273 
 7390000    1.0053985 -5.7247747e-05   0.77519857    0.0272869            0   0.74791167    1.4892465    2.2644451  -0.66663951 
 7395000    1.1332631 7.9245376e-05   0.55068373  0.048041099            0   0.50264263     1.678646    2.2293297     6.286693 
 7400000    1.0886294 9.2552869e-05   0.61281566  0.015149597            0   0.59766606    1.6125323    2.2253479    6.9640548 
 7405000    1.0767699 0.00011789594   0.59693417 0.00056786321            0   0.59636631    1.5949654    2.1918996    8.2281715 
 7410000    1.0951616 0.0001161416   0.54704606 0.0011695282            0   0.54587654    1.6222082    2.1692542    8.1157044 
 7415000    1.0793684 3.3306166e-05   0.59690885 0.0074061305            0   0.58950272    1.5988145    2.1957233    3.9009991 
 7420000    1.0735351 6.369105e-06   0.60368656  0.017252568            0   0.58643399    1.5901739    2.1938605    2.5199586 
 7425000    1.0718992 5.7523926e-05   0.58580059  0.013714929            0   0.57208566    1.5877507    2.1735513    5.1187763 
 7430000    1.0404847 8.6828036e-05   0.64517128  0.020853331            0   0.62431795    1.5412179    2.1863892    6.6319846 
 7435000    1.0346552 -6.2092115e-05   0.62495007   0.01216297            0    0.6127871     1.532583    2.1575331   -1.0215832 
 7440000    1.0247609 -0.00015287809   0.65902303  0.026164171            0   0.63285886    1.5179271    2.1769501    -5.650408 
 7445000    1.1000034 -9.6395572e-05   0.55684341  0.021128249            0   0.53571516      1.62938    2.1862234   -2.7492299 
 7450000     1.076577 -0.00010416728   0.58359906   0.06199049            0   0.52160857    1.5946797    2.1782788    -3.155086 
 7455000    1.0755245 -3.7654251e-06   0.59592889  0.068273228            0   0.52765566    1.5931207    2.1890496    1.9962598 
 7460000    1.0520722 0.00010921758    0.6263226  0.044778956            0   0.58154364    1.5583819    2.1847045    7.7766445 
 7465000   0.99268107 4.3473989e-05   0.70002876  0.033038864            0   0.66698989    1.4704088    2.1704376    4.3963058 
 7470000    1.0687181 -1.3632414e-06   0.56953048  0.040460323            0   0.52907016    1.5830386    2.1525691    2.0827712 
 7475000    1.0837646 -6.3484571e-05   0.56421162  0.035774838            0   0.52843678    1.6053264     2.169538    -1.080872 
 7480000    1.0787332 -0.00013116014   0.57236668  0.033684947            0   0.53868173    1.5978735    2.1702402   -4.5451587 
 7485000    1.0744858 -5.2676037e-05   0.55635764  0.011624748            0   0.54473289    1.5915821    2.1479397  -0.54907336 
 7490000    1.0867238 0.00010720587   0.51227884 0.0033895856            0   0.50888925    1.6097096    2.1219884    7.6109288 
 7495000   0.99214581 8.165077e-05   0.67339193 0.0047741039            0   0.66861783     1.469616    2.1430079    6.3235273 
 7500000    1.0728397 4.1725533e-06   0.56390041 0.0032691902            0   0.56063121    1.5891438    2.1530442    2.3666789 
 7505000    1.1286157 4.7911391e-05   0.48154367  0.014607029            0   0.46693664     1.671762    2.1533057    4.6063689 
 7510000    1.0787006 5.3577927e-05   0.55080765  0.024780522            0   0.52602713    1.5978253    2.1486329    4.8918228 
 7515000    1.0725935 5.4767607e-06   0.54020724  0.026297142            0    0.5139101    1.5887791    2.1289863    2.4093965 
 7520000    1.1070604 7.1777121e-05   0.49567311  0.019319492            0   0.47635362    1.6398332    2.1355064    5.8104949 
 7525000     1.064823 4.4735016e-05   0.58434976  0.026049851            0   0.55829991    1.5772691    2.1616188    4.4520517 
 7530000    1.1288931 -1.8592526e-05   0.54011445    0.0194365            0   0.52067795    1.6721729    2.2122873      1.26035 
 7535000    1.0927827 1.7434901e-05   0.50679193  0.011157902            0   0.49563403    1.6186844    2.1254763    3.0181432 
 7540000    1.0974675 0.00017025831    0.5165097  0.017827848            0   0.49868185    1.6256237    2.1421334    10.859359 
 7545000    1.0468882 8.3791181e-05   0.56614322 0.0048720195            0    0.5612712    1.5507031    2.1168463    6.4069548 
 7550000    1.0060046 -8.2498456e-05   0.63048735  0.010186229            0   0.62030112    1.4901443    2.1206316   -2.1032894 
 7555000    1.0083609 -0.00010109226   0.60108774  0.048939567            0   0.55214817    1.4936346    2.0947223   -3.0812011 
 7560000   0.99646818 -3.9196858e-05   0.59949168  0.017004341            0   0.58248734    1.4760185    2.0755102  0.068631052 
 7565000    0.9561399 7.8087385e-05    0.6360986    0.0173039            0    0.6187947    1.4162822    2.0523808    6.0504549 
 7570000    1.0722554 -1.9635917e-05   0.49253955  0.021079662            0   0.47145989    1.5882783    2.0808178    1.0754589 
 7575000     1.077291 1.8025816e-05   0.47658338  0.011924484            0    0.4646589    1.5957373    2.0723207    2.9952424 
 7580000     0.954835 0.00010855534   0.67200281  0.052026819            0   0.61997599    1.4143494    2.0863522    7.6443855 
 7585000    1.0528418 -7.1512034e-05   0.52848502  0.015717787            0   0.51276723    1.5595219    2.0880069   -1.5734092 
 7590000    1.0618079 -3.7954009e-05   0.53939061  0.025503295            0   0.51388731    1.5728029    2.1121935   0.16894828 
 7595000    1.0635067 5.235569e-05    0.5592674  0.027704529            0   0.53156287    1.5753193    2.1345867     4.815198 
 7600000   0.98355364 -0.00010118414   0.67170528   0.04170315            0   0.63000213    1.4568888    2.1285941   -3.0520337 
 7605000    1.0431023 -7.9921539e-05   0.57733335  0.023080844            0    0.5542525    1.5450953    2.1224286   -1.9695542 
 7610000   0.97869518 4.3294921e-05   0.65523161 0.0057346814            0   0.64949693    1.4496922    2.1049238    4.3216238 
 7615000   0.99611824 3.632998e-05    0.6162176  0.018376732            0   0.59784087    1.4755001    2.0917177    3.9518127 
 7620000    1.0161189 -3.8253427e-05    0.5716622  0.045053065            0   0.52660913    1.5051261    2.0767883    0.1182128 
 7625000   0.98810695 -9.7462346e-05   0.60827912  0.035113531            0   0.57316559    1.4636334    2.0719125   -2.9181596 
 7630000   0.97110483 7.7039853e-06   0.61626303  0.022147606            0   0.59411543     1.438449    2.0547121    2.4491561 
 7635000    0.9451605 8.2903344e-05   0.68211003  0.029094564            0   0.65301547     1.400019     2.082129    6.3267802 
 7640000    1.0263946 -1.9383147e-05   0.56629816  0.035406421            0   0.53089174     1.520347    2.0866451     1.094228 
 7645000    1.1199803 -6.1089666e-05   0.44849595  0.026434698            0   0.42206125    1.6589708    2.1074668   -1.0203242 
 7650000   0.96803118 -3.3541321e-05   0.63820414  0.036693534            0    0.6015106    1.4338962    2.0721003    0.3547847 
 7655000   0.98248461 -1.8007503e-05   0.61533231  0.026080053            0   0.58925225    1.4553053    2.0706376    1.1486535 
 7660000   0.94930949 1.4337658e-05   0.64882817  0.025114926            0   0.62371325    1.4061647    2.0549929     2.789081 
 7665000   0.97063399 2.9907309e-06   0.61398971   0.04032997            0   0.57365974    1.4377516    2.0517413    2.2048667 
 7670000   0.93191013 -9.2362562e-05   0.65909247   0.00909226            0   0.65000021    1.3803919    2.0394844   -2.6894788 
 7675000   0.99534993 -6.7906362e-06   0.58180103  0.023250834            0   0.55855019    1.4743621    2.0561631    1.7084825 
 7680000    0.9353789 -3.5118762e-05   0.65636386  0.062165657            0    0.5941982      1.38553    2.0418939   0.24381324 
 7685000   0.99626272 -5.7024347e-05   0.56515884  0.024135723            0   0.54102312    1.4757142     2.040873  -0.87877355 
 7690000    1.0463341 8.7652643e-05   0.51018001 0.0025139149            0    0.5076661    1.5498823    2.0600623    6.5478776 
 7695000    0.9687457 -3.0835428e-05   0.62386712  0.032659761            0   0.59120736    1.4349546    2.0588217   0.48004777 
 7700000   0.86235087 9.9734076e-06   0.78772543  0.088693857            0   0.69903158    1.2773572    2.0650827    2.5757211 
 7705000     1.058962 4.2627836e-05   0.49669067  0.022627525            0   0.47406314    1.5685875    2.0652782    4.2478234 
 7710000   0.99019283 -0.00010905549   0.58526381  0.005246471            0   0.58001734    1.4667231    2.0519869    -3.531654 
 7715000   0.93251048 -8.293854e-05   0.67764089  0.017271078            0   0.66036982    1.3812811     2.058922   -2.1875312 
 7720000    1.0262583 2.307943e-05   0.54787756  0.021192257            0   0.52668531    1.5201452    2.0680227    3.2496895 
 7725000    1.0169712 3.1245514e-05   0.53217901  0.014234891            0   0.51794412    1.5063886    2.0385676     3.638338 
 7730000   0.92176357 -1.2618182e-05   0.66852186 0.0081964475            0   0.66032541    1.3653623    2.0338841    1.3878332 
 7735000    1.0343025 -6.9313064e-05   0.51934033  0.025633177            0   0.49370715    1.5320605    2.0514008    -1.497428 
 7740000     0.962206 5.1644003e-05   0.64751355  0.034275825            0   0.61323772    1.4252676    2.0727812    4.7169541 
 7745000    0.9955972 0.00010511604   0.59823353  0.031905901            0   0.56632763    1.4747284    2.0729619    7.4549032 
 7750000    1.0149645 5.3705228e-05   0.54799711  0.014137831            0   0.53385928    1.5034161    2.0514132    4.8011209 
 7755000    1.0058193 1.8416677e-05   0.57004886  0.020856478            0   0.54919238    1.4898698    2.0599187    3.0028525 
 7760000    1.0210816 1.7538131e-05   0.55075273  0.027420876            0   0.52333186    1.5124772    2.0632299    2.9611822 
 7765000   0.92764056 0.00013176011   0.71569674  0.044028285            0   0.67166846    1.3740676    2.0897643    8.8358821 
 7770000     1.048265 2.0220733e-05   0.54437767  0.056947639            0   0.48743003    1.5527426    2.0971203    3.1324218 
 7775000    1.0584785 -3.8257527e-05   0.54450206  0.033340344            0   0.51116172    1.5678712    2.1123733   0.15358791 
 7780000   0.93753971 -0.00013027975   0.71869906  0.013254497            0   0.70544456    1.3887307    2.1074298   -4.5628937 
 7785000    1.0689518 -4.9233572e-05   0.54508912 0.0021086225            0    0.5429805    1.5833849     2.128474  -0.39228485 
 7790000    1.0341038 1.340308e-05    0.5962199  0.020018507            0   0.57620139    1.5317663    2.1279862    2.8142239 
 7795000    1.0465404 0.00011164396   0.58158885  0.020819648            0    0.5607692     1.550188    2.1317768    7.8479475 
 7800000    1.0222895 3.2815334e-05   0.63394342 0.0063034423            0   0.62763998    1.5142663    2.1482097    3.8283548 
 7805000    1.0389609 -3.9644889e-05   0.63176291  0.015793524            0   0.61596939    1.5389608    2.1707237   0.14090541 
 7810000    1.0463147 -1.9759494e-05   0.62257184  0.022257922            0   0.60031391    1.5498536    2.1724255    1.1607394 
 7815000    1.0086346 -6.0154988e-05   0.66969365  0.020617205            0   0.64907644    1.4940401    2.1637337  -0.91620169 
 7820000   0.93408425 -6.3610136e-05   0.77506057  0.021364321            0   0.75369625    1.3836123    2.1586729   -1.0981661 
 7825000   0.98445783 -2.7389899e-05   0.68723641  0.032963816            0    0.6542726    1.4582282    2.1454646   0.74310174 
 7830000   0.97065978 8.6886559e-05   0.69863191   0.01355706            0   0.68507485    1.4377898    2.1364217    6.5850135 
 7835000   0.97666291 1.9794286e-06   0.67469497 0.0037669377            0   0.67092803    1.4466819    2.1213769    2.2227237 
 7840000    1.0148739 -0.00012836245   0.62659878 0.0066969489            0   0.61990183    1.5032819    2.1298807   -4.4422766 
 7845000    1.0231234 1.2772046e-05   0.62207524 0.0086886331            0    0.6133866    1.5155015    2.1375768    2.7915055 
 7850000    1.0364484 9.7516132e-05   0.57703842  0.011684168            0   0.56535425    1.5352392    2.1122776    7.1051036 
 7855000    1.0159408 2.7517115e-05    0.6101873 0.0071171542            0   0.60307015    1.5048623    2.1150496    3.5239259 
 7860000    1.0648525 2.8698383e-05   0.56511085 0.00046299317            0   0.56464785    1.5773128    2.1424237    3.6117809 
 7865000    1.0249713 7.3242032e-06    0.6256443 0.00035854642            0   0.62528576    1.5182387     2.143883    2.5188822 
 7870000    1.0551882 2.4512003e-05   0.60123869 0.0077465802            0   0.59349211    1.5629975    2.1642361    3.4192507 
 7875000    1.0722672 1.4936284e-05   0.61379495  0.017211552            0    0.5965834    1.5882958    2.2020908    2.9668285 
 7880000    1.0034094 5.5274659e-05   0.71126883  0.025783524            0   0.68548531    1.4863002     2.197569    5.0276315 
 7885000    1.0361844 0.00012353216   0.63465025  0.048384421            0   0.58626582    1.5348482    2.1694984    8.4943451 
 7890000    1.0529835 2.4956357e-05   0.57976685  0.020022113            0   0.55974473    1.5597317    2.1394986    3.4172641 
 7895000     1.005939 -6.6811245e-05   0.63754405  0.043780472            0   0.59376357    1.4900472    2.1275912   -1.2931446 
 7900000   0.97494156 -0.00015024887   0.66864423  0.018265607            0   0.65037862    1.4441322    2.1127764   -5.5799659 
 7905000    1.1193175 -7.4845104e-05   0.48368818  0.015155964            0   0.46853221    1.6579891    2.1416772   -1.6903921 
 7910000    1.1278089 -2.981473e-05   0.45850896  0.021857912            0   0.43665105     1.670567    2.1290759   0.60256173 
 7915000    1.0679368 2.964072e-05   0.57219885   0.03608647            0   0.53611238    1.5818813    2.1540802     3.671685 
 7920000    1.0793203 3.6321421e-05   0.57769672  0.027983463            0   0.54971326    1.5987432    2.1764399    4.0360966 
 7925000    1.0697443 -8.1405801e-05   0.57516682  0.033064635            0   0.54210219    1.5845588    2.1597256   -2.0082514 
 7930000    1.1443104 -1.6119884e-05   0.48418366  0.005612641            0   0.47857102    1.6950097    2.1791934    1.3538553 
 7935000     1.090475 -1.002793e-05   0.55443173  0.028059615            0   0.52637211    1.6152662    2.1696979    1.6562679 
 7940000   0.98219096 -0.0001688975   0.73817756  0.047202742            0   0.69097482    1.4548704    2.1930479   -6.4545041 
 7945000    1.1174913 9.5364089e-06   0.54691104  0.046948952            0   0.49996208    1.6552839     2.202195    2.6904591 
 7950000    1.1080539 0.00014449285   0.56807679  0.048537741            0   0.51953905    1.6413048    2.2093816    9.6074153 
 7955000    1.1112057 -3.7272524e-05   0.54203998  0.013554159            0   0.52848582    1.6459735    2.1880135   0.27966024 
 7960000    1.0096699 -0.00026029814   0.68296886 0.0074509309            0   0.67551793    1.4955736    2.1785425   -11.148723 
 7965000    1.0354516 -0.00019846069   0.64368174  0.025628582            0   0.61805316    1.5337627    2.1774445   -7.9837427 
 7970000    1.0555631 6.6131926e-05   0.58094547  0.026596045            0   0.55434943    1.5635529    2.1444983     5.530453 
 7975000   0.96727527  0.000188892   0.68440431  0.026582614            0   0.65782169    1.4327765    2.1171808    11.788451 
 7980000    1.1421366 1.6194518e-05   0.41764389  0.034743217            0   0.38290068    1.6917898    2.1094337    2.9385931 
 7985000    0.9641392 -0.0001345072   0.67189478  0.053077161            0   0.61881762    1.4281312     2.100026   -4.7867425 
 7990000   0.93158831 -8.1343331e-05   0.69537285  0.064819904            0   0.63055294    1.3799152     2.075288   -2.0894905 
 7995000    1.0485054 -5.9404532e-05   0.54401592   0.02201129            0   0.52200463    1.5530986    2.0971146  -0.94439749 
 8000000    1.1119475 3.2986542e-05   0.49206021 0.0038346433            0   0.48822557    1.6470723    2.1391325    3.8280434 
 8005000   0.94050297 0.00010142809    0.7198616 0.0044614758            0   0.71540013      1.39312    2.1129816    7.3060999 
 8010000   0.93254216 -6.2260563e-06   0.76084695  0.025508311            0   0.73533864    1.3813281     2.142175    1.8234009 
 8015000   0.99871603 -0.00010180232   0.66063907  0.037594402            0   0.62304467    1.4793481    2.1399872   -3.0722915 
 8020000    1.1150942 -6.6852919e-05    0.4671798  0.016553698            0    0.4506261    1.6517332    2.1189131   -1.3039564 
 8025000    1.1260407 -4.7592853e-05   0.46980338  0.010807772            0   0.45899561    1.6679477    2.1377511  -0.29900296 
 8030000    1.0256068 -6.2915264e-05   0.61545594 0.0013723905            0   0.61408355      1.51918     2.134636   -1.0866256 
 8035000    1.0290288 -2.2136083e-05   0.62683173 0.00062112831            0   0.62621061    1.5242489    2.1510807    1.0177132 
 8040000    1.0967966 0.00012256683   0.54405476 0.0011830482            0   0.54287171    1.6246299    2.1686847    8.4441061 
 8045000    1.0628769 0.00010348604   0.60130929 0.0056417664            0   0.59566752    1.5743865    2.1756958    7.4741812 
 8050000   0.99998827 -4.5845627e-05   0.69487753  0.020989492            0   0.67388803    1.4812326    2.1761101  -0.17118594 
 8055000   0.98336588 6.8627122e-05   0.72584905  0.033663916            0   0.69218514    1.4566107    2.1824598    5.6961684 
 8060000    1.0627372 0.00020727753   0.56358783  0.037764372            0   0.52582346    1.5741795    2.1377673    12.750377 
 8065000    1.0574241 3.4278095e-05   0.59186955  0.033843768            0   0.55802578    1.5663094    2.1581789    3.9132174 
 8070000   0.94008264 -0.00017135323   0.78540432   0.02829566            0   0.75710866    1.3924974    2.1779017   -6.5953838 
 8075000    1.1340645 -9.058813e-05   0.48726932  0.025278695            0   0.46199062     1.679833    2.1671023   -2.4710099 
 8080000    1.1007509 0.00014506944   0.58713418  0.013119448            0   0.57401474    1.6304873    2.2176215     9.645177 
 8085000    1.0401508 0.00015498243   0.67206054  0.026565451            0   0.64549509    1.5407234    2.2127839    10.147884 
 8090000    1.0782729  7.57535e-05   0.59885353   0.02687644            0   0.57197709    1.5971918    2.1960453    6.0746245 
 8095000    1.0827917 -6.6363697e-05   0.58645628  0.036849638            0   0.54960664    1.6038852    2.1903414   -1.2074799 
 8100000    1.1199545 -0.00019869421   0.57248301  0.022631603            0   0.54985141    1.6589326    2.2314156    -7.941728 
 8105000    1.1202492 4.9007175e-05   0.59116059  0.039235428            0   0.55192516    1.6593691    2.2505297    4.7596971 
 8110000    1.1014506 6.3882634e-05   0.62777774  0.048440727            0   0.57933701    1.6315236    2.2593014    5.5300922 
 8115000    1.1000226 -6.1158805e-05   0.61182111  0.021013085            0   0.59080803    1.6294084    2.2412296  -0.89010123 
 8120000    1.0613549 3.5498988e-05   0.66165235  0.006113161            0   0.65553919     1.572132    2.2337843    4.0513325 
 8125000    1.1900453 1.4042688e-05   0.45064274  0.013063334            0    0.4375794    1.7627546    2.2133974     2.932383 
 8130000    1.0757484 4.1961334e-05   0.59105746   0.02721105            0   0.56384641    1.5934523    2.1845098    4.3329301 
 8135000    1.0547475 -5.5484683e-06   0.59261781 0.0078344373            0   0.58478338    1.5623448    2.1549626     1.870881 
 8140000    1.0666558 -8.2880414e-05   0.56705608  0.001149283            0    0.5659068    1.5799839      2.14704   -2.0964372 
 8145000     1.048094 4.840476e-05   0.56526269  0.041661021            0   0.52360167    1.5524892    2.1177519    4.5960756 
 8150000    1.0256609 0.00010147353   0.62346535  0.096005115            0   0.52746024    1.5192602    2.1427255    7.3381702 
 8155000     1.104219 6.4065784e-06   0.53293638  0.017597099            0   0.51533928    1.6356244    2.1685608    2.4965776 
 8160000   0.95189347 -0.00017006538   0.76856488 0.0022181595            0   0.76634672    1.4099922    2.1785571   -6.5287901 
 8165000    1.1823942 -9.9776786e-05   0.43709166 0.0060143113            0   0.43107735    1.7514213     2.188513   -2.9200585 
 8170000    1.1299938 5.5544223e-05    0.5053107  0.017062659            0   0.48824804    1.6738033     2.179114    5.0229783 
 8175000   0.97528439 1.7557983e-05   0.73690146  0.049092322            0   0.68780914      1.44464    2.1815415    3.0805102 
 8180000     1.040238 5.5021228e-05   0.63147086  0.053793271            0   0.57767759    1.5408526    2.1723234    4.9894103 
 8185000    1.0912497 1.4803348e-05   0.53531184  0.028551005            0   0.50676084    1.6164136    2.1517254    2.9096568 
 8190000    1.1230589 1.1489485e-06   0.49514967  0.011078529            0   0.48407114     1.663531    2.1586806    2.2175068 
 8195000    1.0174082 -1.6228089e-05   0.63633489  0.014485756            0   0.62184913    1.5070359    2.1433708    1.3124926 
 8200000     1.058779 -9.1966271e-05   0.59633386  0.010096246            0   0.58623761    1.5683164    2.1646503   -2.5440228 
 8205000    1.1527837 -1.8620408e-05   0.49167235  0.012474489            0   0.47919786    1.7075609    2.1992332    1.2458683 
 8210000     1.198733 0.00014192411   0.38505212  0.017752158            0   0.36729996    1.7756233    2.1606754    9.4271898 
 8215000     1.006715 7.8359667e-05   0.69233792  0.016377888            0   0.67596004    1.4911966    2.1835345    6.1955495 
 8220000    1.0570776 0.0001234624   0.59022782  0.090734813            0   0.49949301    1.5657962     2.156024    8.4772991 
 8225000    1.0163838 2.8029597e-05   0.65488776  0.024374315            0   0.63051344    1.5055185    2.1604063    3.5955216 
 8230000    1.1021537 -0.00015074883   0.53405043  0.017997006            0   0.51605342    1.6325651    2.1666155   -5.5517245 
 8235000    1.0769205 -0.00013428893   0.56509294  0.035894772            0   0.52919817    1.5951884    2.1602814    -4.715312 
 8240000    1.0787395 -1.786338e-05   0.57942657  0.064099493            0   0.51532708    1.5978829    2.1773095    1.2627044 
 8245000   0.97706545 -4.6656757e-05   0.70272964  0.063474564            0   0.63925508    1.4472782    2.1500078  -0.23881811 
 8250000    1.0198542 -4.1896383e-05   0.66304978  0.034298985            0   0.62875079     1.510659    2.1737088  0.028613982 
 8255000     1.135296 -9.1896183e-05   0.48157962 0.0042557685            0   0.47732385    1.6816571    2.1632367   -2.5418478 
 8260000    1.0340095 -5.0272227e-05   0.64849192 0.0043812958            0   0.64411062    1.5316266    2.1801185  -0.39381953 
 8265000     1.103123 7.8072639e-05   0.55540884 0.0083766978            0   0.54703215    1.6340009    2.1894097    6.1867288 
 8270000    1.1306576 0.00014548281   0.49837337  0.013532328            0   0.48484104    1.6747866    2.1731599    9.6218799 
 8275000    1.0998747  8.07838e-05    0.5430585  0.021110422            0   0.52194808    1.6291893    2.1722478    6.3083784 
 8280000    1.0359672 8.159016e-05   0.65127525  0.011631908            0   0.63964334    1.5345264    2.1858016    6.3632178 
 8285000    1.1319409 3.8240591e-05   0.50218023  0.011532138            0   0.49064809    1.6766875    2.1788677     4.136786 
 8290000     1.113098 -2.2287065e-06   0.51018904   0.02330403            0   0.48688501    1.6487764    2.1589655    2.0448557 
 8295000    1.0711657 -9.0040116e-05   0.56719061  0.025904718            0    0.5412859    1.5866641    2.1538548   -2.4561992 
 8300000    1.0865634 -7.4445807e-05   0.57766072  0.023432669            0   0.55422805    1.6094721    2.1871328   -1.6244925 
 8305000    1.0532429 9.538535e-05   0.61651584 0.0051440253            0   0.61137182     1.560116    2.1766319    7.0603618 
 8310000    1.0722001 1.1219136e-05   0.59070484 0.00013281746            0   0.59057202    1.5881964    2.1789012     2.753321 
 8315000    1.1311349 -5.1086737e-06   0.49583961 0.00030531866            0   0.49553429    1.6754936    2.1713332    1.9097691 
 8320000    1.1041732 3.8962056e-05   0.54488201  0.012307547            0   0.53257446    1.6355566    2.1804386    4.1752959 
 8325000    1.0986764 6.6840538e-05    0.5494924  0.014867199            0    0.5346252    1.6274144    2.1769068    5.5991424 
 8330000    1.1111782 0.00014007147   0.54464931  0.016129877            0   0.52851943    1.6459327     2.190582    9.3622413 
 8335000    1.1355334 4.2407151e-05   0.51004433  0.042526602            0   0.46751773    1.6820089    2.1920532    4.3632993 
 8340000    1.0308594 -3.7313799e-05   0.67571441  0.028263004            0   0.64745141    1.5269605    2.2026749    0.2922084 
 8345000    1.0879641 -9.1720665e-05   0.59729344 0.0043195916            0   0.59297385    1.6115468    2.2088403   -2.4872578 
 8350000    1.1426716 -4.4091536e-05   0.52498939 0.0017740935            0    0.5232153    1.6925823    2.2175717 -0.039914946 
 8355000    1.1110273 -5.330943e-05   0.57057519  0.063499876            0   0.50707531    1.6457092    2.2162844  -0.51315847 
 8360000    1.0447201 0.00012015182     0.627905   0.02218817            0   0.60571683    1.5474917    2.1753967    8.3271699 
 8365000    1.0194761 0.00023927226   0.62704226 0.0036741531            0   0.62336811     1.510099    2.1371412    14.387881 
 8370000    1.0624104 3.8637059e-05   0.53421167 0.0081087283            0   0.52610294    1.5736954    2.1079071    4.0861245 
 8375000    1.0681301 -8.7711703e-05   0.51364334 0.0076604262            0   0.50598292    1.5821677     2.095811   -2.3950282 
 8380000    1.0506531 2.0788751e-05   0.54512345 0.0092964571            0   0.53582699    1.5562799    2.1014034    3.1657874 
 8385000    1.1049663 3.6920785e-05    0.4520447  0.032785138            0   0.41925956    1.6367313     2.088776    3.9791202 
 8390000    1.0620121 1.5980972e-05   0.49766082  0.027667563            0   0.46999325    1.5731054    2.0707662    2.8889919 
 8395000    1.0108878 -5.1296305e-05   0.55279208  0.023899642            0   0.52889243    1.4973776    2.0501696  -0.57620115 
 8400000   0.95209479 8.995711e-06   0.63636695    0.0184293            0   0.61793764    1.4102904    2.0466574    2.5072378 
 8405000    1.0042239 -1.7220531e-05   0.56164638 0.0019170967            0   0.55972928    1.4875066     2.049153    1.1674618 
 8410000     1.051881 -9.0005639e-05    0.4889633 0.00030670011            0    0.4886566    1.5580987     2.047062   -2.5612267 
 8415000    1.0392223 6.8590021e-05   0.48172061 0.0016137609            0   0.48010685    1.5393481    2.0210687    5.5328778 
 8420000   0.99865243 3.0614461e-05   0.51613999  0.001941286            0    0.5141987    1.4792539    1.9953939    3.5628543 
 8425000   0.96459841 -5.5912089e-05   0.56352332 0.0034340314            0   0.56008929    1.4288114    1.9923347  -0.87036422 
 8430000     1.050852 7.0924144e-05   0.45426431  0.012742303            0   0.44152201    1.5565746    2.0108389    5.6421551 
 8435000   0.95527811 4.010907e-05   0.61116209  0.016347715            0   0.59481437    1.4150057    2.0261678    4.0797522 
 8440000   0.93595958 -0.0001521931   0.64247071  0.018182173            0   0.62428854    1.3863901    2.0288608   -5.7634261 
 8445000    1.0489944 -0.00011160646   0.46909401 0.0058778164            0    0.4632162    1.5538229    2.0229169   -3.6913336 
 8450000   0.97350031 -7.3813559e-05   0.57792837 0.00035550962            0   0.57757286    1.4419973    2.0199257   -1.7593285 
 8455000    1.0187817 -7.3479812e-05    0.4948888  0.019664936            0   0.47522386    1.5090704    2.0039592   -1.7582072 
 8460000    1.0126558 2.5506472e-05   0.51570759  0.034637979            0   0.48106961    1.4999964     2.015704    3.3216353 
 8465000   0.88268055 4.719906e-05   0.67048367  0.011822654            0   0.65866102    1.3074706    1.9779542    4.3945461 
 8470000   0.99475676 8.3420834e-05   0.53996892  0.021872836            0   0.51809608    1.4734835    2.0134524    6.2845991 
 8475000   0.99692162 7.1272942e-06   0.51153855  0.014601649            0    0.4969369    1.4766901    1.9882287    2.3531462 
 8480000   0.94909561 -9.3407127e-05   0.60183923 0.0082833123            0   0.59355591    1.4058479    2.0076871   -2.7747578 
 8485000    1.0299395 2.0753305e-05   0.47688331 0.0092037652            0   0.46767954    1.5255979    2.0024812    3.0650504 
 8490000   0.95241097 0.00010395751   0.60618627  0.049138407            0   0.55704786    1.4107588     2.016945    7.3395693 
 8495000   0.95717069 -0.00010442198    0.5951698  0.049144232            0   0.54602557    1.4178091    2.0129789   -3.3334263 
 8500000   0.90909265 -0.00017795324   0.62947561  0.079254115            0    0.5502215    1.3465935    1.9760691    -7.135137 
 8505000   0.94024573 -5.5362793e-05   0.58496191  0.036232042            0   0.54872987     1.392739    1.9777009  -0.85687409 
 8510000   0.95062873 -3.854322e-05    0.5522606  0.011140532            0   0.54112007    1.4081188    1.9603794 -0.013033439 
 8515000   0.93849018 -1.673231e-05   0.57774019   0.02423864            0   0.55350155    1.3901386    1.9678788    1.1111845 
 8520000    1.0306299 3.441398e-05   0.45544276  0.024116377            0   0.43132638    1.5266206    1.9820633    3.7440591 
 8525000   0.93628284 2.0318665e-05   0.57024341  0.034083628            0   0.53615979     1.386869    1.9571124     2.997428 
 8530000   0.96801747 2.5435386e-05   0.53089907  0.022690594            0   0.50820848    1.4338759    1.9647749    3.2670667 
 8535000    1.0055117 8.8270292e-05   0.50081929  0.022070999            0   0.47874829    1.4894142    1.9902335    6.5096725 
 8540000   0.99971679 0.00015458765   0.51669411  0.049759651            0   0.46693446    1.4808305    1.9975246    9.9124123 
 8545000   0.90302575 -3.6648532e-06   0.66376448  0.045069489            0   0.61869499    1.3376069    2.0013714    1.8137309 
 8550000    1.0062124 1.0761316e-05   0.51275249  0.047900205            0   0.46485228    1.4904521    2.0032045    2.5541839 
 8555000   0.97179962 3.4507394e-05   0.55450641  0.032642224            0   0.52186418    1.4394782    1.9939846    3.7607632 
 8560000   0.92454822 -1.089047e-05   0.62230404  0.028581612            0   0.59372243     1.369487    1.9917911     1.434199 
 8565000    1.0021805 5.574422e-05   0.53142252  0.030815748            0   0.50060678    1.4844799    2.0159024    4.8700065 
 8570000   0.97837905 2.1244601e-05   0.58179181 0.0077052118            0    0.5740866     1.449224    2.0310158    3.1187393 
 8575000    1.0132576 -1.2636218e-05   0.55011189  0.015201405            0   0.53491048    1.5008878    2.0509997    1.4040253 
 8580000    1.0285996 6.3473431e-05   0.50067669  0.075223519            0   0.42545317    1.5236132    2.0242899    5.2741295 
 8585000    1.0082583 2.5708219e-05   0.52812388   0.01528334            0   0.51284054    1.4934826    2.0216065    3.3378673 
 8590000    1.0688831 -6.652397e-05   0.44910761  0.022141468            0   0.42696614    1.5832832    2.0323908   -1.3736365 
 8595000   0.95547382 -4.9293162e-05   0.59944421   0.03050196            0   0.56894225    1.4152956    2.0147398  -0.50907009 
 8600000   0.96911925 3.5408243e-05   0.56027421  0.034241002            0   0.52603321    1.4355079    1.9957821    3.8086842 
 8605000   0.99470692 5.8542987e-05   0.52256466  0.013092981            0   0.50947168    1.4734096    1.9959743    4.9933752 
 8610000   0.99923686 6.5919635e-05   0.52351535 0.0032816086            0   0.52023374    1.4801196     2.003635    5.3787203 
 8615000   0.96374948 -4.2910341e-05   0.56272989  0.006790462            0   0.55593943    1.4275539    1.9902838  -0.20672566 
 8620000    1.0180792 1.1077354e-05   0.52862295  0.015999328            0   0.51262362    1.5080298    2.0366528    2.6038133 
 8625000    1.0198868 6.9396085e-05   0.50410522  0.013494252            0   0.49061097    1.5107073    2.0148125    5.5678921 
 8630000    1.0173155 -9.7853002e-05   0.49937719  0.026476367            0   0.47290082    1.5068985    2.0062757    -3.003798 
 8635000    0.9891421 -6.0207357e-05   0.55302342  0.013022757            0   0.54000067    1.4651667    2.0181902   -1.0644265 
 8640000   0.97341438 3.4446878e-05    0.5805525  0.012962761            0   0.56758974      1.44187    2.0224225    3.7861027 
 8645000   0.96470681 -8.7747896e-06   0.59064035   0.02083467            0   0.56980568     1.428972    2.0196123    1.5703431 
 8650000    1.0534274 -8.4556407e-05   0.46876178 0.0094104719            0   0.45935131    1.5603893    2.0291511    -2.300137 
 8655000    1.0429582 -0.00010530141   0.50042519  0.012081111            0   0.48834408    1.5448818     2.045307   -3.3461252 
 8660000     1.011835 6.5268006e-06    0.5259728  0.012279984            0   0.51369282    1.4987806    2.0247534    2.3589255 
 8665000    1.0403969 2.521414e-05   0.50381328  0.014270512            0   0.48954277     1.541088    2.0449013    3.3358652 
 8670000   0.93924899 -0.00014613433   0.63805463  0.026850525            0    0.6112041    1.3912626    2.0293172   -5.4527603 
 8675000    1.0207178 -9.7545213e-05   0.52851438  0.050749676            0    0.4777647    1.5119382    2.0404526   -2.9538623 
 8680000    1.0515677 -6.5188659e-05   0.47771206  0.045132965            0   0.43257909    1.5576346    2.0353467   -1.3023127 
 8685000    1.0236442 -1.0062039e-05   0.55486225  0.022809153            0    0.5320531     1.516273    2.0711352    1.5559588 
 8690000    1.0446785 2.9698709e-05   0.53374102  0.059783622            0   0.47395739    1.5474301    2.0811711     3.601745 
 8695000    1.0068882 -1.2108464e-05   0.59590265  0.026379939            0   0.56952271    1.4914531    2.0873558    1.4674024 
 8700000   0.98884996 -3.1025704e-05   0.64434477  0.034385081            0   0.60995969     1.464734    2.1090788   0.52056274 
 8705000    1.0419505 -0.00023172142   0.54297275  0.034326699            0   0.50864606    1.5433892    2.0863619   -9.7777748 
 8710000   0.97458354 -0.00020214878   0.62893188  0.049319209            0   0.57961267    1.4436019    2.0725338   -8.2774837 
 8715000    1.0313277 -5.3769454e-05   0.55101614  0.060939712            0   0.49007642    1.5276542    2.0786703  -0.67432577 
 8720000    1.0052875 0.00011195643   0.59800783  0.031339408            0   0.56666842    1.4890821    2.0870899    7.8192591 
 8725000    1.1009244 3.4791956e-05    0.4752679  0.012059271            0   0.46320863    1.6307443    2.1060122    3.8873603 
 8730000   0.99557154 -2.9519711e-05   0.63043275  0.064659331            0   0.56577342    1.4746903    2.1051231   0.59371388 
 8735000   0.99450612 7.0658774e-05   0.61561854  0.061514349            0   0.55410419    1.4731122    2.0887307    5.7064599 
 8740000    1.0390569 8.0189429e-05   0.56161452  0.027348448            0   0.53426608    1.5391031    2.1007176    6.2064164 
 8745000    1.0729987 5.9094655e-05   0.48580463  0.036367464            0   0.44943716    1.5893793    2.0751839    5.1008303 
 8750000    1.0351063 -2.211329e-05   0.52630749  0.020829864            0   0.50547762    1.5332512    2.0595587   0.92735826 
 8755000    1.0566592 -0.00014761704   0.48297295   0.02717615            0    0.4557968    1.5651765    2.0481494   -5.5098431 
 8760000    1.0718113 -0.00010645351     0.444874  0.016285664            0   0.42858833    1.5876205    2.0324945   -3.4179252 
 8765000    1.0333885 0.00012946626   0.52665832  0.016613677            0   0.51004465    1.5307067     2.057365    8.6860374 
 8770000    1.0230417 0.00017260191   0.50879594  0.014137892            0   0.49465805    1.5153806    2.0241765    10.861394 
 8775000   0.98680768 1.8386641e-05   0.58016524  0.012895313            0   0.56726993    1.4617089    2.0418741    2.9832701 
 8780000   0.99740768 -4.8178839e-06   0.55560445  0.020181971            0   0.53542248    1.4774101    2.0330146    1.7863389 
 8785000   0.95402433 9.2386772e-05    0.5874412  0.019645636            0   0.56779557    1.4131485    2.0005897    6.7307925 
 8790000    1.0238459 6.1265153e-05   0.49160723  0.018002879            0   0.47360435    1.5165718     2.008179    5.1449548 
 8795000    1.0096913 -5.2052419e-05   0.53201343 0.0087404687            0   0.52327296    1.4956053    2.0276187   -0.6374651 
 8800000    1.0884051 -1.5859595e-05   0.44740819  0.012639556            0   0.43476864       1.6122    2.0596082     1.247597 
 8805000   0.93032628 9.502999e-06   0.66942783  0.022203072            0   0.64722475    1.3780458    2.0474736    2.5340272 
 8810000    1.0457577 -3.8372507e-05   0.52998219  0.030436305            0   0.49954588    1.5490285    2.0790107   0.11433839 
 8815000   0.86567289 -1.9547787e-05   0.75803399  0.037732532            0   0.72030146     1.282278     2.040312    1.0394653 
 8820000   0.99629709 0.00012340836   0.57328019  0.027400114            0   0.54588007    1.4757651    2.0490453    8.3675534 
 8825000    1.0704057 8.5786264e-06   0.47887489 0.0030914275            0   0.47578346    1.5855385    2.0644133     2.503639 
 8830000   0.98528822 -7.0579031e-05   0.55329802 0.0040845767            0   0.54921345    1.4594582    2.0127562   -1.6008902 
 8835000   0.93290054 4.8194546e-06   0.63941201  0.047564177            0   0.59184783    1.3818589    2.0212709     2.268027 
 8840000    1.0499062 9.4936126e-05   0.47663876  0.023053089            0   0.45358567    1.5551735    2.0318123    6.8925419 
 8845000     1.054087 5.2665945e-05   0.48471869  0.030681101            0   0.45403759    1.5613663     2.046085    4.7425814 
 8850000   0.97327281 -9.5776266e-05   0.58292757 0.0095214667            0    0.5734061    1.4416603    2.0245879   -2.8791569 
 8855000    1.0004354 -5.3157389e-05   0.50074359 0.00072431286            0   0.50001927     1.481895    1.9826386  -0.73901973 
 8860000   0.99817923 2.3729763e-05   0.51693493  0.043361679            0   0.47357326     1.478553    1.9954879    3.2104518 
 8865000   0.98355615 4.6377041e-05   0.58593788  0.076703568            0   0.50923431    1.4568925    2.0428304    4.4173349 
 8870000    1.0680766 1.2015692e-05   0.44453106  0.067736876            0   0.37679419    1.5820885    2.0266195     2.641823 
 8875000    1.0504779 -5.4730576e-05   0.48829532  0.016370652            0   0.47192466    1.5560204    2.0443158  -0.75788973 
 8880000    1.0302093 -2.4459842e-05   0.50210011  0.015703429            0   0.48639668    1.5259975    2.0280977   0.77575373 
 8885000    1.0366176 5.6072054e-05   0.50324003  0.010805112            0   0.49243492    1.5354899    2.0387299    4.9096191 
 8890000   0.99382433 9.044786e-05    0.5810319  0.006483478            0   0.57454842    1.4721023    2.0531342    6.6840646 
 8895000   0.95603369 0.00010131096   0.60443076  0.026544971            0   0.57788579    1.4161249    2.0205557    7.2076768 
 8900000    1.0376078 3.1049264e-05   0.47153645   0.04927854            0   0.42225791    1.5369565    2.0084929    3.5982153 
 8905000    1.0033303 -4.1009412e-05   0.54287931  0.044334977            0   0.49854433     1.486183    2.0290623 -0.070619601 
 8910000   0.96030214 -8.7075663e-06   0.62130326  0.080189078            0   0.54111418    1.4224475    2.0437508    1.5979234 
 8915000    1.0275677 1.0612798e-05   0.52193193  0.011746706            0   0.51018523    1.5220847    2.0440166    2.5873919 
 8920000   0.98633943 -7.0760471e-05   0.55776849  0.027687606            0   0.53008088    1.4610153    2.0187838   -1.6041524 
 8925000   0.99693287 -0.00011244788   0.53104069  0.018262682            0   0.51277801    1.4767068    2.0077475   -3.7495838 
 8930000   0.98391917 2.7744095e-05   0.56196618 0.0018657458            0   0.56010044    1.4574303    2.0193965    3.4398941 
 8935000    1.0502138 8.0528839e-05   0.48468481 0.00052357571            0   0.48416123    1.5556292     2.040314    6.1633906 
 8940000    1.0660944 3.6867717e-05   0.42242037 0.0032468569            0   0.41917352    1.5791523    2.0015726    3.8891998 
 8945000    1.0248913 -0.00010719402   0.50010089  0.017076178            0   0.48302471    1.5181202    2.0182211   -3.4701128 
 8950000   0.98246229 -0.0001223903     0.558756    0.1478244            0   0.41093159    1.4552723    2.0140283   -4.2523552 
 8955000   0.90754684 -9.5959093e-05    0.6561203  0.071874615            0   0.58424569    1.3443037    2.0004241   -2.9126815 
 8960000   0.99999502 3.3016796e-06   0.54427213  0.017661092            0   0.52661104    1.4812426    2.0255148    2.1945607 
 8965000   0.99149493 4.9314893e-05   0.56792661  0.019647052            0   0.54827956    1.4686519    2.0365785     4.561501 
 8970000   0.98987069 6.1617534e-06   0.61610023  0.017705493            0   0.59839473     1.466246    2.0823462     2.397828 
 8975000    1.0734222 -2.2272238e-05   0.50104529 0.0078991525            0   0.49314614    1.5900067     2.091052   0.95071338 
 8980000    1.0579146 6.5856042e-06   0.52768779 0.00070411843            0   0.52698367     1.567036    2.0947238    2.4319068 
 8985000    1.0358293 -3.4143777e-05   0.59659306 0.0047042562            0    0.5918888    1.5343221    2.1309151   0.38275379 
 8990000    1.0141071 -8.5558849e-05   0.62984647   0.02376625            0   0.60608022    1.5021462    2.1319926   -2.2486204 
 8995000    0.9922803 6.2848887e-05   0.66812548  0.062568106            0   0.60555737    1.4698152    2.1379407    5.3558037 
 9000000    1.0558459 6.1391826e-05   0.58190038  0.013943344            0   0.56795703    1.5639718    2.1458722    5.2891337 
 9005000    1.1194484 0.00012534898   0.50445097  0.008658968            0   0.49579201     1.658183    2.1626339    8.5805016 
 9010000      1.02564 4.4140392e-05   0.62631482   0.03163913            0   0.59467569    1.5192293    2.1455441    4.4055322 
 9015000    1.0187198 -8.2619383e-05   0.62563018   0.04412092            0   0.58150926    1.5089787    2.1346089   -2.0955035 
 9020000    1.0298962 4.6780053e-05   0.60164089  0.039822766            0   0.56181812    1.5255338    2.1271746    4.5223134 
 9025000    1.0476477 8.007605e-05   0.56771177  0.038792822            0   0.52891895    1.5518281    2.1195399    6.2194337 
 9030000    1.0163507 0.00017098636   0.61798067   0.01070756            0   0.60727311    1.5054695    2.1234502    10.877952 
 9035000    1.0585588 0.0001384939   0.52842759 0.0093592131            0   0.51906838    1.5679902    2.0964178    9.1873054 
 9040000     1.057842 8.563919e-05   0.50494416 0.0093707365            0   0.49557343    1.5669285    2.0718726    6.4565991 
 9045000    1.0878997 3.6421889e-05   0.44687265 0.0094539356            0   0.43741872    1.6114515    2.0583241    3.9231249 
 9050000    1.0488701 -2.7039598e-05   0.51583605 0.0065086664            0   0.50932739    1.5536388    2.0694749   0.68504747 
 9055000    1.0289426 -1.6878483e-05   0.53701209  0.021569135            0   0.51544296    1.5241212    2.0611333     1.196955 
 9060000    1.0328497 -0.00010606507   0.52589987  0.011323743            0   0.51457612    1.5299086    2.0558084   -3.3747233 
 9065000    1.0330565 -0.00010115424   0.54068556  0.019846721            0   0.52083884     1.530215    2.0709005   -3.1081963 
 9070000    1.0936074 0.00014705779   0.43639568  0.031502456            0   0.40489322    1.6199059    2.0563016    9.5856602 
 9075000    1.0654064 0.00011330641   0.47514188  0.019955596            0   0.45518628    1.5781332    2.0532751    7.8545634 
 9080000   0.98973191 -9.213624e-05   0.56102599  0.014493868            0   0.54653212    1.4660404    2.0270664   -2.6903091 
 9085000   0.98832721 -2.224067e-05   0.53216166  0.029066609            0   0.50309506    1.4639597    1.9961213   0.85739906 
 9090000    1.0080956 9.3348917e-05   0.52097194  0.031156241            0   0.48981569    1.4932417    2.0142136    6.7936782 
 9095000   0.93367704 3.0594291e-05   0.63103278    0.0156134            0   0.61541938    1.3830091    2.0140419    3.5804696 
 9100000    1.0457758 -5.4095544e-05   0.47887377  0.023797365            0    0.4550764    1.5490554    2.0279292  -0.74176266 
 9105000   0.97511602 2.8464614e-05   0.55794134  0.029122452            0   0.52881889    1.4443906    2.0023319    3.4597202 
 9110000    1.0085082 3.7535033e-05   0.48989253  0.029290358            0   0.46060217    1.4938527    1.9837452    3.9055389 
 9115000   0.99574505 4.1250706e-05   0.50450327  0.025060377            0   0.47944289    1.4749474    1.9794506    4.0914868 
 9120000    1.0095173 -4.3650735e-05   0.47064407  0.015942611            0   0.45470146    1.4953474    1.9659915   -0.2689261 
 9125000    1.0502066 -0.00026508131   0.42951807  0.008765477            0    0.4207526    1.5556186    1.9851367   -11.587026 
 9130000   0.97268313 -0.00016038777   0.50197874 0.0094746911            0   0.49250405    1.4407869    1.9427656   -6.2690883 
 9135000   0.98778506 4.9112211e-05   0.44742459 0.0039199746            0   0.44350461    1.4631566    1.9105812    4.4251264 
 9140000   0.97816398 6.1236114e-05     0.470953 0.0090522279            0   0.46190077    1.4489054    1.9198584    5.0551474 
 9145000    0.9387977 3.0720594e-05     0.513919  0.020718567            0   0.49320044    1.3905941    1.9045131    3.4774075 
 9150000   0.89497287 -1.0669671e-05   0.57566307  0.015608933            0   0.56005414    1.3256786    1.9013416    1.3550545 
 9155000   0.94373237 8.0194444e-05   0.50141642   0.01555429            0   0.48586213    1.3979036      1.89932    6.0052756 
 9160000   0.89883957 0.0001465033   0.58087369  0.008077235            0   0.57279646    1.3314061    1.9122798     9.413249 
 9165000   0.94662187 4.2571423e-05   0.52525997   0.02492573            0   0.50033424    1.4021836    1.9274436    4.1071005 
 9170000    0.9497791 -2.204571e-05   0.53967685  0.052441713            0   0.48723514    1.4068603    1.9465371   0.81779678 
 9175000   0.95868197 3.2298512e-05   0.54273022  0.054350154            0   0.48838007    1.4200477    1.9627779    3.6164617 
 9180000   0.92133982 2.1779759e-05   0.56909135  0.056241768            0   0.51284958    1.3647346     1.933826    3.0489496 
 9185000   0.95951556 8.0593578e-05   0.46252215  0.030040181            0   0.43248197    1.4212824    1.8838046    6.0101958 
 9190000   0.88974891 0.00010115686   0.55391849 0.0057949009            0   0.54812359    1.3179406    1.8718591    7.0510903 
 9195000   0.97500628 2.612132e-05   0.44579673 0.0088991783            0   0.43689755     1.444228    1.8900248    3.2274363 
 9200000   0.90583961 -4.8861422e-05   0.57010667  0.009576797            0   0.56052987    1.3417749    1.9118816   -0.5898232 
 9205000   0.92384337 -0.00015061487   0.54849383 0.0074096988            0   0.54108413     1.368443    1.9169368   -5.7945444 
 9210000   0.95568963 -4.824649e-05    0.5220565  0.016563847            0   0.50549265    1.4156153    1.9376718  -0.53254851 
 9215000   0.98818772 0.00015736578   0.49482703  0.033599923            0    0.4612271    1.4637531    1.9585801    10.015708 
 9220000   0.93724814 0.00010352291   0.57029939  0.052994178            0   0.51730522    1.3882988    1.9585982    7.2589712 
 9225000   0.97737253 -6.9527984e-05   0.49235284  0.053912309            0   0.43844053    1.4477331    1.9400859   -1.6197469 
 9230000   0.96351599 -0.00013616273   0.50442264  0.041460411            0   0.46296223    1.4272081    1.9316307    -5.039901 
 9235000   0.91070736 2.7676981e-06   0.58123521  0.037457102            0   0.54377811    1.3489853    1.9302205    2.0719266 
 9240000   0.91904829 2.4047471e-05   0.60181272   0.03070188            0   0.57111084    1.3613403     1.963153    3.1943835 
 9245000   0.97256202 -2.6104633e-05    0.4738049   0.01335712            0   0.46044779    1.4406075    1.9144124   0.57785521 
 9250000    1.0360767 -8.4013057e-05   0.42767161  0.012530293            0   0.41514131    1.5346885    1.9623602   -2.3391083 
 9255000   0.91149984 -8.2980441e-05   0.62292134  0.016350099            0   0.60657124    1.3501591    1.9730805   -2.2755181 
 9260000   0.98193068 -4.0420715e-05   0.50098508  0.014088931            0   0.48689615    1.4544848    1.9554699  -0.11407069 
 9265000   0.97657574 4.0218182e-05    0.4921795  0.017989032            0   0.47419046    1.4465528    1.9387323    3.9979032 
 9270000    1.0304487 4.8860492e-05   0.42782049  0.013555082            0   0.41426541    1.5263521    1.9541726    4.4558298 
 9275000    1.0336975 5.5768398e-05     0.438422  0.022820866            0   0.41560113    1.5311645    1.9695865    4.8249285 
 9280000    1.0350317 9.6964153e-05   0.44421805  0.028423621            0   0.41579442    1.5331408    1.9773588    6.9419234 
 9285000    1.0104056 -6.5832173e-05   0.48801726  0.011509307            0   0.47650796    1.4966633    1.9846805   -1.3859267 
 9290000    0.9140143 -0.00019382514   0.62811477 0.0031337668            0   0.62498101    1.3538837    1.9819985   -7.9418487 
 9295000   0.94046487 -5.5565679e-05   0.56886639  0.012022779            0   0.55684361    1.3930636      1.96193  -0.88303278 
 9300000   0.96569091 -2.4419023e-05   0.49550773  0.018411996            0   0.47709574    1.4304297    1.9259374    0.6756834 
 9305000   0.89326972 9.396269e-05   0.59812479  0.032125845            0   0.56599895    1.3231558    1.9212806    6.7321703 
 9310000   0.86995686 0.00010826912   0.62750709  0.053187636            0   0.57431945    1.2886236    1.9161307    7.4595097 
 9315000   0.90532039 -4.8592705e-05   0.53176041  0.041417194            0   0.49034321    1.3410058    1.8727662  -0.61518024 
 9320000   0.92211399 -3.2305942e-05   0.49192161  0.017771308            0   0.47415031    1.3658813     1.857803   0.20373875 
 9325000   0.93209148 6.0033222e-05   0.48708971  0.005069757            0   0.48201995    1.3806605    1.8677502    4.9414512 
 9330000   0.88068327 3.4567382e-05   0.54597864   0.01422352            0   0.53175512    1.3045121    1.8504907    3.6203407 
 9335000   0.91992363 2.6164519e-05   0.50007528  0.026138445            0   0.47393683    1.3626369    1.8627122    3.2023355 
 9340000   0.93456493 -7.3743437e-05   0.46794707  0.025673298            0   0.44227377    1.3843243    1.8522714   -1.9233926 
 9345000   0.90214563 -6.7637758e-05   0.49032126  0.013114492            0   0.47720676    1.3363032    1.8266245   -1.6364287 
 9350000   0.81812396 -6.4600328e-06    0.6141158  0.019591522            0   0.59452428    1.2118461    1.8259619    1.4952082 
 9355000    0.8313899 3.4005831e-05   0.54708119  0.023193913            0   0.52388728    1.2314963    1.7785775     3.519676 
 9360000   0.83374295 5.5457582e-05   0.56299619  0.019641494            0   0.54335469    1.2349817    1.7979779    4.6374061 
 9365000   0.86648043 8.1229183e-05   0.50364337 0.0082995935            0   0.49534377    1.2834741    1.7871175    5.9460517 
 9370000   0.83273731 7.4562155e-05   0.56106198  0.017183964            0   0.54387802    1.2334921    1.7945541    5.6121365 
 9375000   0.88224842 9.6780547e-05   0.48383716  0.010158415            0   0.47367875    1.3068305    1.7906676    6.7458316 
 9380000   0.84486322 -2.6227764e-06   0.55397439  0.024645946            0   0.52932844    1.2514536     1.805428    1.6711419 
 9385000   0.84295192 -0.00015236006   0.54197129  0.020587679            0   0.52138361    1.2486225    1.7905938   -6.0102415 
 9390000   0.87037305 -0.00016735379   0.51725105 0.0089694428            0    0.5082816    1.2892401    1.8064911   -6.7620227 
 9395000   0.84846915 -6.0941123e-05   0.56673623  0.021750918            0   0.54498531    1.2567949    1.8235312   -1.2966543 
 9400000   0.86431214 2.3427872e-05   0.54901336  0.033655176            0   0.51535819    1.2802624    1.8292757    3.0287828 
 9405000    0.8578817 2.9380171e-05   0.56226907  0.035818634            0   0.52645043    1.2707373    1.8330063    3.3372711 
 9410000   0.92713106 8.9640268e-06   0.47206772  0.024645294            0   0.44742243    1.3733129    1.8453806    2.3043388 
 9415000   0.91794636 -3.0034123e-05   0.47682857 0.0050927873            0   0.47173578     1.359708    1.8365366    0.2987895 
 9420000   0.93261757 1.3513657e-05   0.45295975 0.0015378472            0    0.4514219    1.3814398    1.8343995    2.5262987 
 9425000   0.96426406 4.3918855e-05   0.43013031 0.0015293565            0   0.42860096    1.4283161    1.8584465    4.1070918 
 9430000    0.9120391 1.3820779e-05   0.51058344  0.029055782            0   0.48152766    1.3509579    1.8615414    2.5691652 
 9435000   0.92678661 -1.0343567e-05   0.50175672   0.05291209            0   0.44884463    1.3728027    1.8745594    1.3449687 
 9440000   0.95171102 9.1984823e-05   0.45539793   0.03440052            0   0.42099741     1.409722    1.8651199    6.5747428 
 9445000   0.91695963 6.8079966e-05   0.48573159  0.028268163            0   0.45746343    1.3582464     1.843978    5.3296723 
 9450000   0.90244923 -3.8518589e-05   0.50042054  0.041055547            0     0.459365    1.3367529    1.8371735   -0.1349783 
 9455000    0.9317354 4.355917e-05   0.46830286  0.048198236            0   0.42010462    1.3801331    1.8484359    4.0786654 
 9460000    0.9321708 -2.6083103e-05   0.46347747  0.015428171            0    0.4480493     1.380778    1.8442555   0.50880062 
 9465000   0.93305636 -8.2068503e-05   0.48561855  0.012087923            0   0.47353062    1.3820897    1.8677083   -2.3341991 
 9470000   0.98485128 -2.3449883e-07   0.41314525 0.0039223478            0    0.4092229     1.458811    1.8719562    1.8599499 
 9475000   0.87492778 2.0285504e-05    0.5765339 0.0011697388            0   0.57536416    1.2959868    1.8725207    2.9111385 
 9480000   0.90994904  4.28415e-05   0.54119093 0.0015623448            0   0.53962858     1.347862    1.8890529    4.0825378 
 9485000    0.9307534 2.0537597e-06   0.48638028 0.0021119882            0   0.48426829    1.3786785    1.8650588    1.9702113 
 9490000    0.9015478 -9.2309105e-05   0.51250982  0.019392559            0   0.49311726    1.3354177    1.8479275   -2.8782987 
 9495000   0.86966781 -0.00012169143   0.53973734  0.020737061            0   0.51900028    1.2881954    1.8279328   -4.4026683 
 9500000   0.92720718 -7.4524076e-05   0.44688155 0.0073831551            0   0.43949839    1.3734256    1.8203072   -1.9953255 
 9505000   0.94307083 -2.6629675e-05    0.4174255  0.027175338            0   0.39025016    1.3969237    1.8143492   0.45090978 
 9510000   0.90369086 -2.3006081e-05   0.47236876  0.043672047            0   0.42869671    1.3385921    1.8109608   0.63304949 
 9515000   0.88137959 -0.0001377638   0.50845047 0.0087994401            0   0.49965103    1.3055435     1.813994   -5.2395126 
 9520000   0.91403142 -9.8720663e-05   0.45592804 0.0024655126            0   0.45346252     1.353909    1.8098371   -3.2446609 
 9525000   0.96831505 6.4792573e-05   0.39974824 0.0037745127            0   0.39597373    1.4343167    1.8340649    5.1514446 
 9530000   0.90121119 8.8395409e-06    0.4903742  0.024623664            0   0.46575054    1.3349191    1.8252933    2.2778778 
 9535000   0.86473448 -0.00010465259   0.51788365  0.022343523            0   0.49554013    1.2808879    1.7987716   -3.5594408 
 9540000   0.89879402 -8.3835252e-05   0.44609615 0.0023059993            0   0.44379015    1.3313386    1.7774348   -2.5149301 
 9545000   0.90312614 2.9920046e-05   0.42280337 0.0055706273            0   0.41723274    1.3377556     1.760559    3.2924653 
 9550000   0.86598816 5.6110145e-06   0.49691662  0.013367312            0    0.4835493     1.282745    1.7796616    2.0669455 
 9555000    0.9002424 2.9840777e-05   0.44583424 0.0077315346            0   0.43810271     1.333484    1.7793183    3.3071661 
 9560000   0.87106514 7.0739314e-05   0.46545547  0.013286876            0   0.45216859    1.2902652    1.7557207    5.3775736 
 9565000   0.86365533 -7.0435264e-05   0.49482177  0.026177346            0   0.46864442    1.2792895    1.7741112   -1.8321743 
 9570000   0.87847682 -0.00010632127   0.48758146  0.020897521            0   0.46668394    1.3012438    1.7888253    -3.654824 
 9575000   0.86646917 6.2649159e-07    0.4929608 0.0022988983            0    0.4906619    1.2834575    1.7764183    1.8084946 
 9580000   0.87030554 4.3754351e-05   0.46620603 0.0041163274            0    0.4620897    1.2891401    1.7553461    3.9955689 
 9585000   0.86243002 -6.473849e-05   0.48541657   0.01112902            0   0.47428755    1.2774745     1.762891   -1.5517196 
 9590000    0.9130655 -0.00010890831   0.39461046 0.0071331813            0   0.38747728    1.3524783    1.7470887   -3.8290168 
 9595000   0.82601176 9.5062206e-05   0.51511952  0.024189733            0   0.49092978    1.2235299    1.7386494    6.6058344 
 9600000   0.88696952 0.00021578621   0.44902424  0.028990598            0   0.42003364    1.3138236    1.7628478    12.811102 
 9605000   0.88990094 4.6923616e-05   0.44965435 0.0086363436            0   0.44101801    1.3181658    1.7678201    4.1703092 
 9610000   0.87112907 -7.4215613e-05   0.49409913  0.016518019            0   0.47758111    1.2903599    1.7844591   -2.0153803 
 9615000    0.9942136 -4.5386276e-05   0.31813676  0.011720651            0   0.30641611    1.4726789    1.7908157  -0.53296168 
 9620000   0.88166006 7.6318188e-05   0.43807605  0.007334179            0   0.43074187     1.305959     1.744035    5.6515262 
 9625000   0.88595712 3.5778056e-05   0.44751156  0.015419718            0   0.43209184     1.312324    1.7598355     3.591672 
 9630000   0.81931688 -3.7843877e-05   0.53966573  0.018584777            0   0.52108096    1.2136131    1.7532789  -0.18432765 
 9635000   0.96038449 4.585393e-05   0.32964122  0.017545039            0   0.31209619    1.4225695    1.7522108     4.099932 
 9640000   0.82650331 -3.4339936e-05   0.55022585  0.046311244            0    0.5039146     1.224258    1.7744839  0.016279138 
 9645000   0.90281383 2.2831794e-05   0.42706708  0.016724417            0   0.41034266     1.337293    1.7643601    2.9333479 
 9650000   0.85021931 7.8264742e-05   0.50885288  0.013360008            0   0.49549287    1.2593874    1.7682402     5.775395 
 9655000   0.88139444 -3.465034e-05   0.48002314  0.023692701            0   0.45633044    1.3055655    1.7855886  0.011491252 
 9660000   0.92258206 0.00011357569   0.41555886  0.032085252            0   0.38347361    1.3665747    1.7821335     7.597209 
 9665000   0.85895014 7.8687431e-05   0.51514851  0.019575111            0    0.4955734    1.2723199    1.7874684    5.8162649 
 9670000    0.9060158 -0.00010419717   0.41650376 0.0048739871            0   0.41162978    1.3420359    1.7585397   -3.5763555 
 9675000   0.84959689 -3.7432525e-05   0.47387978 0.00026391609            0   0.47361586    1.2584654    1.7323452   -0.1842001 
 9680000   0.84091865 -0.00010343653   0.47119934 0.0012101658            0   0.46998918    1.2456108    1.7168101     -3.57914 
 9685000    0.8318154 2.6603116e-05   0.47451765 0.0040018941            0   0.47051576    1.2321266    1.7066442    3.0687238 
 9690000   0.84300606 9.9868204e-05   0.49643106 0.0038931461            0   0.49253792    1.2487027    1.7451338    6.8583858 
 9695000   0.86859528 -3.1123664e-05   0.44260573 0.0014203805            0   0.44118535    1.2866068    1.7292125   0.13568089 
 9700000   0.83566267 -7.8859839e-05   0.50361668 0.0024826583            0   0.50113402    1.2378253     1.741442   -2.2961817 
 9705000   0.90516107 -0.00012321108   0.41286945  0.018070682            0   0.39479876    1.3407698    1.7536393   -4.5547679 
 9710000   0.81996763 3.9510603e-05   0.50151316  0.021738732            0   0.47977442     1.214577    1.7160902    3.7390331 
 9715000   0.85247971 0.00018860055   0.44563876 0.0058356492            0   0.43980311    1.2627356    1.7083743    11.364722 
 9720000   0.85507774 9.6046232e-05   0.46754713 0.0038681264            0     0.463679    1.2665839     1.734131    6.6516981 
 9725000     0.854559 -2.1466091e-05   0.44247403  0.011517475            0   0.43095655    1.2658155    1.7082895   0.60922569 
 9730000   0.81386718 -0.00012526298   0.50439787  0.013490451            0   0.49090742    1.2055408    1.7099386   -4.7035262 
 9735000   0.84740944 4.284193e-05   0.45147812 0.0094742166            0    0.4420039    1.2552252    1.7067033    3.9002102 
 9740000   0.82044074 9.8494123e-05   0.49352724  0.015332465            0   0.47819477    1.2152778    1.7088051    6.7517042 
 9745000   0.83980354 -6.1757653e-05   0.48343823  0.021192409            0   0.46224582     1.243959    1.7273972   -1.4345946 
 9750000   0.84588807 8.6447405e-05   0.46976583  0.027772097            0   0.44199373    1.2529717    1.7227375    6.1488447 
 9755000   0.88957826 5.5166818e-05   0.41379803  0.017411485            0   0.39638654    1.3176878    1.7314858    4.5560269 
 9760000   0.82213127 -8.8132985e-05   0.52402303   0.03196323            0    0.4920598    1.2177819     1.741805   -2.7706038 
 9765000   0.89343977 2.8561846e-05    0.4543092 0.0059112968            0    0.4483979    1.3234077    1.7777169    3.2400834 
 9770000   0.91475624 1.8200622e-05   0.43234081 0.00010199983            0   0.43223881    1.3549827    1.7873235    2.7191953 
 9775000   0.82186827 2.0857854e-05    0.5540554            0            0    0.5540554    1.2173924    1.7714478    2.8393699 
 9780000   0.94621927 -3.6349948e-05   0.36039939 0.00032872654            0   0.36007066    1.4015873    1.7619867 -0.099130675 
 9785000   0.95036633 -3.7493844e-05   0.40306525 0.0015061142            0   0.40155914    1.4077301    1.8107954  -0.10888941 
 9790000   0.91320316 9.0190381e-05   0.47028896 0.0016420077            0   0.46864695    1.3526822    1.8229711    6.4407187 
 9795000     0.854249 2.5648264e-05   0.56192857 0.0059136666            0    0.5560149    1.2653563    1.8272849     3.140476 
 9800000   0.92152083 2.9533565e-05   0.46916467     0.023241            0   0.44592367    1.3650027    1.8341674    3.3462859 
 9805000   0.91591937 2.349034e-05   0.46498267 0.0077041892            0   0.45727848    1.3567056    1.8216882    3.0243936 
 9810000   0.91696674 -3.7024526e-06   0.46445012  0.036891492            0   0.42755863     1.358257    1.8227071    1.6331415 
 9815000   0.85652769 6.5212248e-05   0.53978202  0.043647916            0    0.4961341    1.2687316    1.8085137    5.1473808 
 9820000   0.89300785 4.4172985e-05   0.50049948  0.018301491            0   0.48219798    1.3227679    1.8232674    4.0849242 
 9825000   0.92975523 -4.7394417e-05    0.4350724  0.019010554            0   0.41606184    1.3771999    1.8122723  -0.61432182 
 9830000   0.84792642 -0.00014061222   0.55711225  0.036908959            0   0.52020329     1.255991    1.8131033   -5.3862424 
 9835000   0.86642934 -0.00011010957    0.5253879  0.017714949            0   0.50767295    1.2833985    1.8087864   -3.8288239 
 9840000   0.93779399 -3.2407852e-05    0.4040122 0.0050413797            0   0.39897082    1.3891074    1.7931196   0.13383752 
 9845000   0.89354257 8.5610234e-05   0.49669444 0.0060816052            0   0.49061284    1.3235599    1.8202544    6.2034983 
 9850000   0.93269236 0.00012893775   0.45011747  0.025498467            0     0.424619    1.3815506     1.831668    8.4332807 
 9855000   0.85516109 -3.3079915e-05   0.55599737  0.014352143            0   0.54164523    1.2667074    1.8227047   0.12901308 
 9860000   0.87830247 -6.2957697e-05   0.54993957 0.0044552142            0   0.54548436    1.3009855    1.8509251    -1.372509 
 9865000   0.92638279 -4.2608018e-05   0.46284634  0.016106536            0   0.44673981    1.3722045    1.8350509  -0.34647968 
 9870000   0.94960099 1.4185447e-05   0.43438006  0.014033007            0   0.42034705    1.4065965    1.8409765    2.5672714 
 9875000   0.92537981 5.2156855e-05    0.4667283 0.0031695917            0   0.46355871    1.3707188    1.8374471    4.5078781 
 9880000   0.94466661 -2.7009212e-05   0.47928808 0.0063208739            0    0.4729672    1.3992874    1.8785755   0.49570385 
 9885000   0.95426806 3.344931e-05   0.46178761   0.01299089            0   0.44879672    1.4135096    1.8752972    3.5879018 
 9890000   0.94449868 0.00010266044   0.46946202  0.017122961            0   0.45233906    1.3990387    1.8685007    7.1247151 
 9895000   0.88016643 4.4437654e-05   0.57328049 0.0044937894            0    0.5687867    1.3037465     1.877027    4.1522349 
 9900000   0.90495643 4.0082078e-05   0.52817961 0.0054991976            0   0.52268041    1.3404667    1.8686463    3.9208487 
 9905000   0.95773608 5.2788136e-05   0.41543808  0.010763928            0   0.40467415    1.4186466    1.8340847    4.5368372 
 9910000   0.85718814 8.0054728e-05   0.57969963 0.0039204322            0    0.5757792    1.2697099    1.8494096    5.9482116 
 9915000    0.8794723 2.8099317e-05   0.57025337 0.00058874037            0   0.56966463    1.3027183    1.8729717    3.3116568 
 9920000     0.892177 1.0461199e-05   0.53082924  0.010549026            0   0.52028021    1.3215372    1.8523664    2.3879798 
 9925000   0.90194237 -9.3137806e-06   0.50593188  0.024437921            0   0.48149396    1.3360021     1.841934    1.3650685 
 9930000   0.87800011 4.5311722e-05     0.538376  0.013171639            0   0.52520436    1.3005377    1.8389137    4.1588738 
 9935000    0.9049083 6.9645381e-05    0.4693549 0.0073238078            0    0.4620311    1.3403954    1.8097503    5.3755938 
 9940000   0.85956956 -2.6137186e-05    0.5278007  0.014412098            0    0.5133886    1.2732374    1.8010381   0.46281422 
 9945000   0.87355999 -7.645352e-05   0.52398694 0.0099255991            0   0.51406134    1.2939607    1.8179477   -2.0964726 
 9950000   0.95965747 -9.4948291e-05   0.41221329 0.0036460958            0   0.40856719    1.4214926    1.8337059   -3.0276466 
 9955000   0.86255915 1.9598793e-06   0.54905907  0.023289334            0   0.52576974    1.2776657    1.8267248    1.9270706 
 9960000   0.89741771 0.00010435185   0.49528702  0.034240159            0   0.46104686       1.3293     1.824587    7.1674015 
 9965000   0.90518543 7.5326713e-05   0.50518486  0.026344802            0   0.47884005    1.3408059    1.8459908    5.7027185 
 9970000   0.94809662 3.5564678e-05   0.46466237  0.011721379            0   0.45294099    1.4043681    1.8690305     3.689942 
 9975000   0.98863291 -5.6023721e-05   0.41638393 0.0018474601            0   0.41453647    1.4644125    1.8807964  -0.98761811 
 9980000   0.96754411 -0.0001462141   0.43742287            0            0   0.43742287    1.4331747    1.8705976   -5.6155643 
 9985000   0.98166708 -9.3702263e-05   0.42794107            0            0   0.42794107    1.4540944    1.8820354   -2.9155204 
 9990000   0.98424104 -2.8424533e-05   0.44249403 0.00032067811            0   0.44217335     1.457907    1.9004011   0.44506501 
 9995000   0.96928827 1.5310646e-07    0.4855848 0.0092012664            0   0.47638353    1.4357582     1.921343    1.9291821 
10000000   0.96308262 -3.607869e-05   0.51312004  0.011528908            0   0.50159113    1.4265661    1.9396862  0.092457241 
10005000    0.9913644 -4.8483039e-05   0.47595827 0.00079355903            0   0.47516471    1.4684585    1.9444168  -0.53791482 
10010000    1.0103147 7.6890528e-05   0.44297612 0.00052839874            0   0.44244772    1.4965286    1.9395048    5.8762998 
10015000    1.0445312 3.4047314e-05   0.41553781 0.0019121071            0    0.4136257    1.5472119    1.9627497    3.7059722 
10020000   0.98099499 -0.00011672063   0.51437616 0.0022522778            0   0.51212388    1.4530988     1.967475   -4.0086211 
10025000   0.99126565 -0.00014069833   0.49827654 0.0020214858            0   0.49625505    1.4683122    1.9665888   -5.2371657 
10030000   0.99381741 -0.00010421145   0.47221055 0.0009990148            0   0.47121154     1.472092    1.9443026   -3.3913238 
10035000    1.0254719 1.9987934e-05   0.41200469 0.0042569214            0   0.40774777    1.5189803     1.930985    2.9543672 
10040000   0.92262825 7.0033844e-05   0.56358831  0.033433516            0   0.53015479    1.3666431    1.9302314    5.5159642 
10045000    1.0133548 7.4571554e-05   0.42331699  0.024173264            0   0.39914373    1.5010319    1.9243489    5.7424124 
10050000   0.94717339 -9.9770034e-05   0.53286502  0.012809756            0   0.52005526    1.4030006    1.9358656   -3.1723602 
10055000   0.99259538 -0.00019904926   0.46676875  0.011126955            0   0.45564179    1.4702819    1.9370507   -8.2542717 
10060000    1.0545572 6.9351075e-05   0.38120478  0.015893075            0   0.36531171    1.5620629    1.9432677    5.4940427 
10065000   0.99278481 0.00012882808   0.46192887  0.015666364            0   0.44626251    1.4705625    1.9324914     8.528489 
10070000   0.91399771 -6.9551939e-06    0.5595658 0.0054728119            0   0.55409299    1.3538591    1.9134249     1.557319 
10075000    0.9773717 9.7907902e-05   0.47429646 0.0094767938            0   0.46481967    1.4477318    1.9220283    6.9349129 
10080000   0.93533149 3.2578813e-05   0.51483252  0.032824442            0   0.48200807    1.3854598    1.9002923    3.5683275 
10085000    1.0156906 -0.00010937938   0.36973694   0.01763552            0   0.35210142    1.5044917    1.8742287   -3.7259956 
10090000   0.92095968 -7.7326767e-05   0.50988568  0.015944257            0   0.49394142    1.3641715    1.8740572   -2.0850733 
10095000   0.94401859 -9.4585559e-05   0.44604098  0.014837994            0   0.43120299    1.3983275    1.8443685   -2.9984121 
10100000   0.90266877 -6.3823094e-05   0.49719872  0.011547325            0    0.4856514    1.3370781    1.8342768   -1.4334656 
10105000   0.95422141 3.8597213e-05   0.42374297  0.019395811            0   0.40434716    1.4134405    1.8371834    3.8133607 
10110000   0.93271112 5.1675804e-05    0.4699786  0.018074299            0    0.4519043    1.3815784    1.8515569    4.4973581 
10115000   0.83448514 -9.0792427e-05    0.6119264 0.0049619728            0   0.60696443    1.2360811    1.8480075   -2.8005648 
10120000    0.9401369 4.9093915e-06   0.46883681 0.0087195516            0   0.46011725    1.3925778    1.8614146    2.1127754 
10125000   0.95503684 3.8907917e-05   0.44430589 0.0069765833            0    0.4373293    1.4146483    1.8589542    3.8510396 
10130000   0.91935779 -2.6921276e-05    0.5133374 0.0050302972            0   0.50830711    1.3617987    1.8751361    0.4967668 
10135000   0.97745409 8.2681997e-05   0.44703988  0.001701597            0   0.44533828    1.4478539    1.8948937     6.128212 
10140000    1.0036428 4.0118824e-06   0.38901147 7.0636177e-05            0   0.38894083    1.4866458    1.8756573    2.0810657 
10145000   0.96265594 -0.00012802056   0.43532436 0.0022846355            0   0.43303972    1.4259341    1.8612585   -4.6933944 
10150000   0.96146794 -4.4222918e-05   0.42180091 0.0054641722            0   0.41633674    1.4241744    1.8459753  -0.41823811 
10155000   0.95106644 4.3906938e-05   0.45541653 0.0053195007            0   0.45009702    1.4087672    1.8641837    4.1122189 
10160000   0.89659189 2.4150195e-05   0.53132551  0.017488591            0   0.51383692    1.3280767    1.8594022    3.0958922 
10165000   0.96609108 -0.00010678936   0.44525018 0.0081635564            0   0.43708662    1.4310224    1.8762726   -3.5913425 
10170000    0.9847694 -0.00010037608   0.40278859 0.0073752336            0   0.39541336    1.4586897    1.8614783   -3.2777769 
10175000   0.91466988 4.0425082e-05   0.47759206 0.0078468577            0    0.4697452    1.3548548    1.8324468     3.902211 
10180000    0.9429111 -2.8494118e-05   0.40716998 0.0052508364            0   0.40191915    1.3966871     1.803857   0.34495821 
10185000    0.9579116 -5.3375635e-05   0.42059317 0.0048764104            0   0.41571676    1.4189066    1.8394997  -0.89333279 
10190000   0.94144454 -4.4489757e-05   0.41640952  0.010035767            0   0.40637376    1.3945147    1.8109242  -0.46695134 
10195000   0.90631407 2.2312169e-05   0.47325895 0.0038771737            0   0.46938178    1.3424777    1.8157367    2.9581197 
10200000   0.97406842 4.4807336e-05   0.33287553 0.0040662484            0   0.32880928    1.4428388    1.7757144      4.06985 
10205000   0.86178008 -3.3997226e-05   0.51083413  0.011094772            0   0.49973936    1.2765117    1.7873459  0.046687895 
10210000   0.91961453 7.2804116e-06   0.42414096  0.015098792            0   0.40904217     1.362179      1.78632    2.1590771 
10215000   0.95114593 7.1155866e-05   0.42072501  0.035675379            0   0.38504963    1.4088849    1.8296099    5.4727902 
10220000   0.92665102 6.4745304e-05   0.45930867  0.024652388            0   0.43465629    1.3726018    1.8319105    5.1468701 
10225000   0.94031765 -5.132586e-05   0.43081877  0.018683275            0    0.4121355    1.3928455    1.8236643  -0.80421974 
10230000   0.91376284 -5.268532e-05   0.49454017  0.027346252            0   0.46719392    1.3535112    1.8480514  -0.84943701 
10235000   0.95636769 4.4250833e-05   0.44162137  0.009833467            0   0.43178791    1.4166196     1.858241    4.1238837 
10240000   0.96631979 1.6192447e-05   0.44709391  0.008844257            0   0.43824965    1.4313612    1.8784551    2.7075084 
10245000    0.9933179 -8.3357279e-06    0.4216465  0.016165134            0   0.40548136    1.4713521    1.8929986    1.4662094 
10250000   0.99277111 1.7263684e-05   0.45763139  0.010005056            0   0.44762633    1.4705422    1.9281736    2.8120742 
10255000   0.97761856 7.6313725e-05   0.50166427 0.0016865294            0   0.49997774    1.4480975    1.9497618    5.8570245 
10260000    1.0400236 -2.8468746e-05   0.38962707 0.0052333668            0    0.3843937     1.540535     1.930162   0.47256223 
10265000   0.95067615 -5.2932685e-06   0.54239214    0.0276993            0   0.51469284     1.408189    1.9505812    1.6795658 
10270000     1.045318 0.0001054473   0.38918761  0.017061358            0   0.37212626    1.5483774     1.937565    7.3364667 
10275000   0.96029679 6.3863171e-05   0.50927194  0.017171174            0   0.49210077    1.4224396    1.9317116    5.2015059 
10280000    1.0516923 -3.5516481e-06   0.38544894  0.011466475            0   0.37398247    1.5578192    1.9432682    1.7614238 
10285000    1.0225436 -7.5990705e-05   0.39314425  0.011096981            0   0.38204727    1.5146428     1.907787   -1.9829371 
10290000   0.97356334 -6.6085748e-06   0.47426695  0.024649365            0   0.44961758    1.4420907    1.9163576    1.5779986 
10295000   0.94036494 3.2809925e-05   0.49633109  0.012690224            0   0.48364086    1.3929156    1.8892467    3.5691148 
10300000   0.96552672 9.6802476e-05   0.43315998 0.0070731866            0   0.42608679    1.4301865    1.8633464    6.8196332 
10305000   0.92869517 4.3190376e-05   0.47004449 0.0089391964            0    0.4611053    1.3756297    1.8456742    4.0570215 
10310000   0.93773417 2.4550397e-05   0.47606853  0.014794762            0   0.46127377    1.3890187    1.8650873    3.1220676 
10315000   0.96882856 6.4171389e-05    0.4371691 0.0045808899            0   0.43258821    1.4350773    1.8722464    5.1578215 
10320000   0.99871565 -4.2634074e-05   0.40183667 0.0012790035            0   0.40055766    1.4793476    1.8811842  -0.30168038 
10325000   0.97618964 -5.997978e-05    0.4284423 0.0039280471            0   0.42451425    1.4459809    1.8744232   -1.1965415 
10330000    0.9953157 5.3321135e-06   0.41674251  0.010253522            0   0.40648898    1.4743114    1.8910539    2.1640581 
10335000   0.99002592 6.9889321e-05   0.39729167  0.013642999            0   0.38364867    1.4664759    1.8637676    5.4421008 
10340000   0.93478402 5.494411e-05   0.47892859  0.012298966            0   0.46662962    1.3846488    1.8635774    4.6767158 
10345000   0.94722811 8.1245728e-05   0.48688465  0.012506188            0   0.47437847    1.4030816    1.8899663    6.0497476 
10350000   0.99214133 4.2098541e-05   0.42798347 0.0085548713            0    0.4194286    1.4696093    1.8975928    4.0530381 
10355000    1.0091605 -3.1043216e-05    0.3871164 0.0098760064            0   0.37724039     1.494819    1.8819354   0.29252277 
10360000   0.98610319 -1.6906329e-05   0.42856518 0.0033213436            0   0.42524383    1.4606653    1.8892305    1.0236265 
10365000   0.98297731 -5.1865902e-05   0.45448323 0.00063278478            0   0.45385045    1.4560351    1.9105184  -0.74501578 
10370000    1.0154088 -0.00010200189   0.43321565 0.0031487653            0   0.43006688    1.5040743      1.93729    -3.285207 
10375000   0.99288268 2.0388142e-06   0.45798167  0.011115758            0   0.44686591    1.4707075    1.9286891    2.0330764 
10380000    1.0301154 0.00011025629   0.41204601  0.028720003            0     0.383326    1.5258584    1.9379044    7.5830267 
10385000    1.0454775 5.7016737e-05   0.41190201  0.048215004            0     0.363687    1.5486135    1.9605155    4.8797724 
10390000    1.0053696 1.6500052e-05   0.44978869   0.03439476            0   0.41539393    1.4892037    1.9389924     2.783795 
10395000     0.991762 5.9144409e-05   0.48581716   0.05336563            0   0.43245153    1.4690475    1.9548646    4.9830584 
10400000    1.0170647 -1.7954056e-05   0.42819157  0.034485898            0   0.39370567    1.5065271    1.9347187     1.015471 
10405000   0.99235359 -0.00010068097   0.43256895  0.034895336            0   0.39767361    1.4699238    1.9024927   -3.2523731 
10410000    1.0365147 -7.013653e-05   0.36560774  0.022035184            0   0.34357256    1.5353374    1.9009451   -1.6900452 
10415000   0.99350553 -3.2198824e-05   0.44522465  0.021650312            0   0.42357434    1.4716301    1.9168547   0.26827493 
10420000   0.99900463 -6.5917587e-05   0.41635953 0.0025256312            0    0.4138339    1.4797756    1.8961351   -1.4788453 
10425000   0.99767778 -4.4194099e-05   0.40694678 0.0019615394            0   0.40498524    1.4778102     1.884757  -0.37798089 
10430000    1.0191225 7.5968474e-05   0.38805051  0.021219954            0   0.36683056    1.5095752    1.8976257    5.7872116 
10435000    1.0389918 5.3266414e-05   0.36378394  0.011782769            0   0.35200117    1.5390067    1.9027906     4.630031 
10440000   0.94280555 -8.9202392e-05   0.48730384  0.012998177            0   0.47430566    1.3965307    1.8838346   -2.6833279 
10445000   0.91401731 -9.137283e-05   0.50755381  0.083509035            0   0.42404478    1.3538881     1.861442    -2.816847 
10450000    0.9706164 -4.0973198e-05   0.39568435  0.021782969            0   0.37390139    1.4377255    1.8334099  -0.26441785 
10455000    0.9385744 -5.1621798e-05     0.417524    0.0123757            0    0.4051483    1.3902633    1.8077873  -0.83524872 
10460000   0.96763816 -4.6085585e-05   0.37766394  0.018067552            0   0.35959638     1.433314     1.810978    -0.548604 
10465000   0.99233563 2.9720831e-05   0.37925053  0.025510538            0   0.35373999    1.4698971    1.8491477    3.3708542 
10470000   0.96201398 8.9444577e-05   0.41435669  0.032330334            0   0.38202636    1.4249832    1.8393399    6.4189023 
10475000   0.94395875 -3.481497e-05   0.42996429  0.007368815            0   0.42259548    1.3982389    1.8282032  0.045676739 
10480000   0.94161603 -8.7566594e-05   0.38602491  0.022695049            0   0.36332986    1.3947688    1.7807937    -2.702616 
10485000   0.89016035 3.5735619e-05   0.45906525  0.029198069            0   0.42986718      1.31855    1.7776153     3.607279 
10490000   0.93363008 7.7692787e-06   0.37721018  0.023333423            0   0.35387675    1.3829396    1.7601497    2.1579368 
10495000   0.86598099 0.00015227082    0.4658782  0.039246081            0   0.42663212    1.2827343    1.7486125    9.5448784 
10500000   0.89200416 2.6639538e-05   0.38634999  0.026528063            0   0.35982193    1.3212812    1.7076312    3.0715755 
10505000   0.82758622 -0.00016110215   0.48800448  0.025360464            0   0.46264402    1.2258621    1.7138666   -6.5345635 
10510000   0.86235893 -8.0653655e-05   0.43503673  0.018644925            0    0.4163918    1.2773692    1.7124059   -2.4170612 
10515000   0.88502075 -1.0530499e-05   0.37727278  0.021938999            0   0.35533378     1.310937    1.6882098    1.1490482 
10520000   0.84915905 -5.3945693e-06   0.43937526  0.022185026            0   0.41719023    1.2578168    1.6971921    1.4209902 
10525000   0.81593207 1.715182e-05   0.48245612  0.040478323            0    0.4419778    1.2085994    1.6910555    2.5692287 
10530000   0.83832768 7.7424703e-05   0.47213062   0.03104909            0   0.44108153    1.2417729    1.7139035    5.6780483 
10535000    0.8785086 4.1301217e-05   0.41559226  0.021560301            0   0.39403196    1.3012909    1.7168831    3.8315054 
10540000   0.89545627 -0.00010504047   0.40091705  0.040171877            0   0.36074517    1.3263946    1.7273116   -3.6507606 
10545000   0.86993079 -0.0001576778   0.43568086  0.023268789            0   0.41241207     1.288585    1.7242658   -6.3488376 
10550000   0.84252627 -3.9812519e-05    0.4881504 0.0089548948            0   0.47919551     1.247992    1.7361424  -0.30225853 
10555000   0.85775661 -4.4345074e-06   0.44742289  0.024663949            0   0.42275894     1.270552    1.7179749    1.4909281 
10560000   0.88180908 -8.1997796e-06   0.40727154  0.032145935            0    0.3751256    1.3061797    1.7134512    1.2936225 
10565000   0.84839382 -3.3532113e-05   0.46764938  0.015081266            0   0.45256812    1.2566833    1.7243327 0.0074885479 
10570000   0.86436173  -4.8717e-05   0.45767771  0.017980432            0   0.43969728    1.2803358    1.7380135  -0.75629689 
10575000   0.86097049 5.4692719e-05   0.46510169  0.025465784            0   0.43963591    1.2753125    1.7404142    4.5406814 
10580000   0.90162749 3.1788844e-05   0.40460708  0.026660446            0   0.37794664    1.3355357    1.7401428    3.3677316 
10585000   0.86647007 -3.9879354e-05   0.41808145  0.012161366            0   0.40592008    1.2834588    1.7015402  -0.34028271 
10590000   0.88107342 9.135025e-05   0.35594813 0.0075642159            0   0.34838391      1.30509    1.6610381    6.3381709 
10595000    0.8279653 0.00013823324   0.45924596  0.021016419            0   0.43822954    1.2264236    1.6856696    8.7632113 
10600000   0.85741902 6.7544447e-05   0.39917179  0.030061736            0   0.36911006    1.2700519    1.6692237    5.1274994 
10605000   0.83547844 -5.6216621e-05   0.40106504  0.012474358            0   0.38859068    1.2375524    1.6386175   -1.2396735 
10610000   0.80394256 -0.00012189001   0.44147844   0.01447304            0    0.4270054    1.1908399    1.6323184   -4.6084504 
10615000   0.76638551 -1.3351336e-05   0.47157305   0.01677459            0   0.45479846    1.1352085    1.6067816    0.9231932 
10620000    0.7676645 -3.6718561e-06   0.47988752  0.011009914            0   0.46887761     1.137103    1.6169906    1.4289915 
10625000    0.7319064 -0.00010147394   0.52066864 0.0058968964            0   0.51477175    1.0841364     1.604805   -3.5906607 
10630000   0.81377824 -6.2863201e-05   0.38585985 0.0026384548            0   0.38322139     1.205409    1.5912689    -1.627327 
10635000     0.792358 -0.00012775318     0.377681    0.0233309            0    0.3543501    1.1736803    1.5513613   -4.9896015 
10640000   0.77306696 -0.0001292703   0.41455879 0.0045884978            0   0.40997029    1.1451054    1.5596642   -5.0589751 
10645000   0.73989192 -4.1494438e-05   0.44177857 0.0093580192            0   0.43242055    1.0959649    1.5377435  -0.58677172 
10650000   0.78220416 -1.1083918e-05   0.39562311  0.016377962            0   0.37924514    1.1586399     1.554263   0.98676644 
10655000   0.81253523 8.4300273e-05   0.36153154 0.0043545994            0   0.35717694    1.2035678    1.5650994    5.8812733 
10660000   0.81134825 0.00012011138   0.35176588 0.0049492602            0   0.34681662    1.2018096    1.5535755    7.7032782 
10665000   0.79516994 -5.9246477e-05   0.38286642 0.0064783364            0   0.37638809    1.1778455    1.5607119   -1.4727077 
10670000   0.75142109 -0.00015654199   0.44685551 0.0022075455            0   0.44464796    1.1130425     1.559898    -6.455052 
10675000   0.71491036 -1.8687867e-05   0.50687831 0.00014449418            0   0.50673382     1.058961    1.5658393   0.60902048 
10680000   0.72386072 -5.8584682e-05   0.49183299 0.00041249882            0   0.49142049    1.0722187    1.5640517    -1.435484 
10685000   0.74467218 7.6636554e-05   0.47814723 0.0008498685            0   0.47729736    1.1030457    1.5811929    5.5049845 
10690000   0.82935027 0.00010671534   0.34735521 0.0050569231            0   0.34229829    1.2284751    1.5758303    7.0396558 
10695000   0.77303669 -2.1791491e-05   0.42015878 0.0093232335            0   0.41083554    1.1450606    1.5652194   0.44949502 
10700000   0.82376747 -2.5256919e-05   0.33474761  0.014165244            0   0.32058236    1.2202056    1.5549532    0.2617989 
10705000   0.78095099 -7.9008396e-05   0.40834221 0.0075276181            0    0.4008146    1.1567836    1.5651259    -2.480104 
10710000   0.80855352 9.0696522e-06   0.36546313   0.00313249            0   0.36233064    1.1976699     1.563133    2.0274992 
10715000   0.76032019 -2.4786588e-05   0.43085015 0.0096435281            0   0.42120663    1.1262243    1.5570744   0.28800114 
10720000   0.79009466 -2.6240951e-05   0.38123543  0.029279585            0   0.35195584    1.1703277    1.5515631   0.20802647 
10725000   0.78637348 -2.4961529e-05   0.37374334  0.042684285            0   0.33105905    1.1648157     1.538559   0.26052875 
10730000   0.70210822 -5.1527223e-05   0.49343897  0.026076756            0   0.46736222    1.0399978    1.5334368    -1.104757 
10735000   0.77561509 4.7724398e-05   0.40107181  0.016497067            0   0.38457475    1.1488798    1.5499517    3.9934408 
10740000   0.81052959 -1.6237736e-06   0.34468378  0.015499525            0   0.32918426     1.200597    1.5452807    1.4621435 
10745000   0.71926322 -3.0143101e-05   0.46174266  0.047512885            0   0.41422978    1.0654086    1.5271513 -0.016175458 
10750000   0.78900742 4.4685607e-05   0.37310171   0.03096321            0    0.3421385    1.1687172     1.541819     3.829722 
10755000   0.73417659 1.9777478e-05   0.43355204  0.013083594            0   0.42046844    1.0874991    1.5210511     2.533658 
10760000   0.74164414 -3.5504805e-05   0.42273932 0.0091199828            0   0.41361934    1.0985604    1.5212997  -0.29654631 
10765000   0.77328083 -0.00010324063   0.39704219   0.01705125            0   0.37999094    1.1454222    1.5424644    -3.743456 
10770000   0.73972825 -5.5380806e-06   0.45933975  0.016048558            0   0.44329119    1.0957225    1.5550622    1.2715125 
10775000    0.8317352 -2.5058394e-05   0.35974125 0.0021783188            0   0.35756293    1.2320078     1.591749   0.30875925 
10780000   0.84840786 -1.4147825e-05   0.33000234 0.0006525656            0   0.32934977    1.2567041    1.5867065   0.86233784 
10785000   0.81278228 1.1498095e-05   0.38364349 0.0022020744            0   0.38144142    1.2039337    1.5875772    2.1762797 
10790000   0.80825504 1.6096976e-05   0.37807694 0.0042283786            0   0.37384856    1.1972278    1.5753047    2.3994699 
10795000   0.77073837 4.4131956e-05    0.4560114 0.0037253559            0   0.45228604    1.1416562    1.5976676    3.8572237 
10800000   0.81826937 -3.868808e-05   0.39821339  0.002162853            0   0.39605054    1.2120615    1.6102749  -0.37055478 
10805000   0.81519914 -5.2409905e-05   0.42729088 0.00025568543            0    0.4270352    1.2075137    1.6348046   -1.0485825 
10810000    0.8003008 6.9927072e-05   0.41003285 0.0026194626            0   0.40741339    1.1854456    1.5954784    5.1757445 
10815000   0.82274873 9.5309449e-05   0.38291374 0.0068817443            0   0.37603199    1.2186966    1.6016103    6.4814541 
10820000   0.81640206 0.00012576428   0.40312656 0.0035368202            0   0.39958974    1.2092956    1.6124221    8.0515534 
10825000   0.82442723 5.6468296e-05   0.40642352 0.0001803862            0   0.40624314    1.2211828    1.6276064    4.5187831 
10830000   0.84073347 1.7192641e-05   0.41834843  0.010072883            0   0.40827555    1.2453365    1.6636849    2.5439481 
10835000   0.84105983 1.6710628e-05   0.43535392  0.027461733            0   0.40789219    1.2458199    1.6811738    2.5367579 
10840000   0.91745845 -4.2955927e-05   0.33725525  0.014977442            0   0.32227781    1.3589853    1.6962406  -0.50310289 
10845000   0.87630018 -0.00010192215   0.43140549 0.0022752616            0   0.42913022    1.2980196    1.7294251   -3.4889889 
10850000    0.9046607 -6.0743394e-05   0.40320743 0.0032979593            0   0.39990947    1.3400287    1.7432361   -1.3668257 
10855000   0.92818171 1.5283736e-05    0.3874192 0.0023185368            0   0.38510066    1.3748692    1.7622884    2.5448157 
10860000    0.8544404 6.7029179e-05   0.50739381 0.00018709443            0   0.50720672    1.2656398    1.7730336    5.2049276 
10865000   0.95728045 0.00010120404   0.38378361 0.00033004328            0   0.38345357    1.4179717    1.8017553    6.9834021 
10870000   0.84722765 0.0001105942   0.52305278 0.0012027975            0   0.52184998     1.254956    1.7780087    7.4404319 
10875000   0.93350432 7.171544e-06   0.41413453 0.0065186295            0    0.4076159    1.3827533    1.7968878    2.1640709 
10880000   0.91656992 -9.5609238e-05   0.44963528 0.0085819003            0   0.44105338    1.3576692    1.8073045   -3.0878885 
10885000   0.91050759 -1.4272067e-05   0.44161951 0.0075839443            0   0.43403556    1.3486894    1.7903089     1.059579 
10890000   0.90179756 9.0385518e-05   0.49399482 0.0029370591            0   0.49105777    1.3357876    1.8297825     6.457521 
10895000   0.92544994 6.2715074e-05   0.46407968 0.0020071974            0   0.46207248    1.3708227    1.8349024    5.0459142 
10900000   0.90088095 -5.6917732e-05   0.48284548 0.0084426545            0   0.47440283    1.3344299    1.8172754   -1.0969125 
10905000   0.90787837 -7.1748278e-05   0.46811096  0.018195445            0   0.44991552    1.3447948    1.8129058    -1.860606 
10910000   0.98453258 -7.7496024e-06   0.32518772  0.022725708            0   0.30246202    1.4583389    1.7835266     1.386747 
10915000   0.83288815 0.00011687924   0.53015706  0.024654092            0   0.50550297    1.2337156    1.7638726      7.74809 
10920000   0.89085437 9.9994942e-05   0.46598842  0.027858528            0   0.43812989     1.319578    1.7855664    6.9053075 
10925000   0.92372612  -5.0344e-05   0.38678752   0.02775635            0   0.35903117    1.3682693    1.7550568  -0.82255599 
10930000   0.85777059 -1.0327838e-05   0.47887448 0.0064243621            0   0.47245012    1.2705727    1.7494472    1.2206618 
10935000   0.84812979 3.2571763e-05   0.47515133 0.0079043664            0   0.46724696    1.2562923    1.7314436    3.3991179 
10940000   0.88876296 -4.795064e-05   0.43492571  0.015440062            0   0.41948564    1.3164801    1.7514058  -0.70366694 
10945000   0.87396405 -1.8010544e-05   0.46188177  0.015038127            0   0.44684364    1.2945593     1.756441   0.83430119 
10950000   0.91019213 0.00011845186   0.40311823 0.0021523231            0   0.40096591    1.3482221    1.7513403    7.8160755 
10955000   0.85783354 7.0958682e-05   0.47434968            0            0   0.47434968    1.2706659    1.7450156    5.3781001 
10960000    0.8342368 -8.902395e-05   0.48782154 0.00042306792            0   0.48739847    1.2357133    1.7235348   -2.8344915 
10965000   0.83349064 -7.5749096e-05   0.48332933 0.0085445978            0   0.47478473     1.234608    1.7179373   -2.1604164 
10970000   0.84689588 -1.714755e-05   0.44918105  0.012586323            0   0.43659473    1.2544645    1.7036456     0.825691 
10975000   0.87876751 -2.4842248e-05   0.42889653  0.023524065            0   0.40537246    1.3016744    1.7305709   0.45864779 
10980000   0.91650693 5.2899661e-06   0.39243517  0.017153171            0     0.375282    1.3575759    1.7500111    2.0208573 
10985000   0.83945844 -4.2879636e-05   0.50095759 0.0071270676            0   0.49383053    1.2434478    1.7444054  -0.45103198 
10990000   0.83705272 -2.1351883e-05   0.52322675 0.0043844041            0   0.51884235    1.2398843    1.7631111   0.66989467 
10995000   0.91512823 3.6371779e-05   0.42698115 0.0052967915            0   0.42168436    1.3555337    1.7825149      3.64475 
11000000   0.92838402 -5.0745694e-05   0.37279126  0.010784015            0   0.36200725    1.3751688    1.7479601  -0.85021945 
11005000   0.91577941 1.3613808e-06   0.41709092  0.010923949            0   0.40616697    1.3564983    1.7735892    1.8432919 
11010000   0.85077794 9.5950301e-05   0.49728246   0.01425233            0   0.48303013    1.2602148    1.7574973    6.6701527 
11015000   0.92918913 2.4525634e-05    0.3756372   0.02100377            0   0.35463343    1.3763614    1.7519986    3.0077111 
11020000   0.86304468 4.4518024e-05   0.47341685 0.0046972854            0   0.46871956    1.2783849    1.7518018    4.0311246 
11025000   0.86768791 2.6731896e-05    0.4841829 0.0010581494            0   0.48312476    1.2852627    1.7694456    3.1381187 
11030000   0.91683752 -3.21469e-05   0.42156644  0.001278092            0   0.42028835    1.3580656     1.779632   0.13371076 
11035000   0.88387522 6.2532532e-05   0.49269637  0.033619625            0   0.45907674    1.3092402    1.8019365    5.0036022 
11040000   0.93147673 -4.8993265e-05   0.42281267   0.00853669            0   0.41427598    1.3797499    1.8025626  -0.70589258 
11045000   0.87036134 -6.8785202e-05   0.49442693 0.0071446986            0   0.48728223    1.2892227    1.7836497   -1.7381527 
11050000   0.88379973 2.1648047e-05   0.48317023  0.014708763            0   0.46846147    1.3091283    1.7922986    2.9006786 
11055000   0.86395889 4.8202502e-05   0.51166336  0.014602535            0   0.49706082    1.2797391    1.7914025    4.2593706 
11060000   0.82740486 -6.4864334e-05   0.55184728 0.0050572636            0   0.54679001    1.2255934    1.7774407   -1.5436132 
11065000     0.887151 -0.00011129717   0.48121432 0.00039273842            0   0.48082159    1.3140924    1.7953067   -3.9031083 
11070000   0.95394189 4.9830372e-05    0.3684607 0.0024733325            0   0.36598736    1.4130264    1.7814871    4.3328021 
11075000   0.87236806 7.9999544e-05   0.48793832  0.007748151            0   0.48019017    1.2921952    1.7801335    5.8761102 
11080000   0.85196001 -3.891931e-06   0.50791604 0.0066683012            0   0.50124774    1.2619658    1.7698818    1.5706149 
11085000   0.90559246 -0.00011270036   0.41859592 0.0064248377            0   0.41217108    1.3414088    1.7600048   -4.0102536 
11090000   0.93985343 0.00011591091   0.41182754 0.0074574677            0   0.40437007    1.3921579    1.8039854     7.738624 
11095000   0.90943174 8.5496228e-05   0.43050138 0.0066901882            0   0.42381119    1.3470958    1.7775971     6.155004 
11100000    0.8885525 -3.55958e-05   0.47034724  0.014181944            0    0.4561653    1.3161684    1.7865156 -0.035989353 
11105000   0.89547746 -2.0968163e-06   0.46879546 0.0093370609            0    0.4594584     1.326426    1.7952215    1.6878645 
11110000   0.85233796 -3.1988339e-05   0.53261443  0.014861737            0   0.51775269    1.2625256      1.79514   0.15733706 
11115000   0.92539096 -6.0159034e-05   0.44377159  0.019660893            0    0.4241107    1.3707354    1.8145069   -1.2656356 
11120000   0.87058872 -0.00011166587   0.50763128 0.0089201351            0   0.49871114    1.2895595    1.7971908   -3.9201018 
11125000   0.92007866 -2.963459e-05   0.45518131  0.011936069            0   0.44324524    1.3628665    1.8180478   0.30075683 
11130000   0.89608211 4.1421678e-05   0.50613163  0.028387557            0   0.47774407    1.3273216    1.8334532    3.9542432 
11135000   0.89103241 -3.0990461e-05   0.54787246  0.011692214            0   0.53618024    1.3198418    1.8677142   0.28100262 
11140000    0.9121121 -0.00012583648   0.51426662  0.022413888            0   0.49185273     1.351066    1.8653327   -4.5774952 
11145000   0.97631111 -3.7717902e-05   0.45395064   0.03879334            0    0.4151573    1.4461608    1.9001115 -0.031045133 
11150000   0.85523681 -4.6634996e-06   0.63962955  0.041144797            0   0.59848475    1.2668195    1.9064491    1.6676779 
11155000   0.89234836 -8.2047552e-05    0.5561126  0.022089108            0   0.53402349     1.321791    1.8779036   -2.3229311 
11160000   0.96989642 -8.1242113e-05   0.46507715  0.013964744            0    0.4511124    1.4366591    1.9017362     -2.25786 
11165000   0.96432411 6.897132e-05   0.46844377  0.015948325            0   0.45249545    1.4284051    1.8968489    5.4281805 
11170000   0.93555233 7.4492174e-05   0.50893793 0.0070742287            0    0.5018637    1.3857869    1.8947248    5.7087241 
11175000   0.87250807 -5.512246e-05    0.5884961  0.011399592            0   0.57709651    1.2924026    1.8808987  -0.94137125 
11180000   0.90027461 9.0525636e-05   0.52920358  0.023575971            0   0.50562761    1.3335318    1.8627353    6.4976479 
11185000   0.85809235 1.6020956e-05   0.58111375   0.06024595            0    0.5208678    1.2710493     1.852163     2.672436 
11190000   0.86497864 -0.00012813108   0.57248436  0.023097383            0   0.54938697    1.2812496     1.853734   -4.7065772 
11195000   0.96787564 -4.423478e-05   0.45662909  0.016990291            0    0.4396388    1.4336658    1.8902949  -0.37452587 
11200000   0.92079432 -2.0170963e-05   0.51957688 0.0087388117            0   0.51083807    1.3639266    1.8835035   0.85075017 
11205000   0.88930993 -3.4432656e-05   0.54407499  0.011676139            0   0.53239885    1.3172903    1.8613653  0.098413338 
11210000   0.85837653 -2.2679223e-05   0.58518263  0.015692925            0    0.5694897    1.2714702    1.8566529   0.69547666 
11215000   0.87810227 -2.199251e-05   0.52816529   0.01421779            0    0.5139475     1.300689    1.8288543   0.70283779 
11220000   0.86615208 2.8688409e-05   0.53762901  0.055979776            0   0.48164924    1.2829878    1.8206168    3.2894633 
11225000   0.82141697 7.8634707e-05   0.60050263  0.018301041            0   0.58220159    1.2167239    1.8172265    5.8433235 
11230000   0.93593192 4.9767411e-05   0.44842867 0.0077106264            0   0.44071805    1.3863492    1.8347778    4.3828693 
11235000   0.92770898 -1.3385544e-05   0.42977176 0.0084737555            0     0.421298    1.3741689    1.8039407    1.1186008 
11240000   0.89007118 -3.976218e-05    0.4719188 0.0053907369            0   0.46652806    1.3184179    1.7903367  -0.24548687 
11245000   0.85849867 -9.4062037e-05   0.50594703 0.0035918059            0   0.50235523    1.2716512    1.7775982   -3.0383781 
11250000   0.82590551 -0.0001050824   0.55519178  0.020963213            0   0.53422857    1.2233725    1.7785643   -3.6016546 
11255000   0.84057067 -2.6722421e-05   0.52183532  0.030142848            0   0.49169247    1.2450953    1.7669306   0.39874266 
11260000   0.83237069 -1.5796256e-05   0.54873984  0.023948294            0   0.52479154    1.2329491    1.7816889   0.97292064 
11265000   0.91662114 -6.1071786e-05   0.44946034  0.024319418            0   0.42514092    1.3577451    1.8072054     -1.31967 
11270000   0.93903811 -2.5500002e-05   0.42821621   0.00835234            0   0.41986387    1.3909502    1.8191664    0.5135663 
11275000    0.8347851 5.1012254e-05   0.57564421   0.01164105            0   0.56400316    1.2365254    1.8121696    4.4239971 
11280000   0.83112052 7.1805817e-05   0.59406901 0.0040640566            0   0.59000496    1.2310973    1.8251663    5.5016241 
11285000    0.9596442 6.7230995e-05    0.4597747 0.0022698801            0   0.45750482     1.421473    1.8812477    5.3234746 
11290000    0.8933654 8.4149169e-05   0.55903062 0.0078081082            0   0.55122251    1.3232975    1.8823281    6.1907656 
11295000   0.96004823 6.0357297e-05   0.46732147  0.013632953            0   0.45368852    1.4220714    1.8893929    4.9796865 
11300000      0.87954 7.1054735e-06   0.58733677  0.055218525            0   0.53211824    1.3028186    1.8901554    2.2539556 
11305000   0.96739854 -5.709374e-05   0.44246854  0.040351906            0   0.40211663    1.4329591    1.8754276   -1.0477718 
11310000   0.86724492 -0.00011168185   0.57070853  0.015213901            0   0.55549463    1.2846065    1.8553151   -3.8627957 
11315000   0.84125419 -3.7673556e-05   0.64188482  0.029482003            0   0.61240281    1.2461078    1.8879926 -0.040893479 
11320000   0.91861333  4.11484e-05   0.51889855  0.012470922            0   0.50642763     1.360696    1.8795945    3.9863926 
11325000   0.95273124 -7.195854e-05   0.47125769  0.008607902            0   0.46264979    1.4112331    1.8824908   -1.8017864 
11330000   0.89087467 -2.4615193e-05    0.5531237  0.020181094            0   0.53294261    1.3196081    1.8727318   0.61243391 
11335000   0.91344014 0.00016747909   0.54362987  0.011456538            0   0.53217333    1.3530332    1.8966631    10.471593 
11340000   0.96126331 -8.5025237e-07   0.47671316 0.0086178682            0   0.46809529    1.4238713    1.9005844    1.8570515 
11345000   0.92992066 -0.00021204361   0.53690342 0.0093367241            0   0.52756669     1.377445    1.9143484   -8.9422842 
11350000   0.92465031 -5.8630509e-05   0.57035622  0.011790784            0   0.55856544    1.3696383    1.9399945   -1.0618876 
11355000   0.84565642 5.7988259e-05   0.65738782  0.010854441            0   0.64653338    1.2526286    1.9100164    4.8790152 
11360000   0.94936768 -0.00011780668   0.49577333  0.017442345            0   0.47833098    1.4062509    1.9020242   -4.1296776 
11365000   0.90286463 -5.6629395e-05   0.56519509  0.021450319            0   0.54374477    1.3373682    1.9025633   -0.9968617 
11370000   0.99468293 7.5040006e-05   0.43123207 0.0092382495            0   0.42199382    1.4733741    1.9046062    5.7466545 
11375000   0.90174571 -5.944364e-05   0.56842772  0.002847085            0   0.56558064    1.3357108    1.9041386   -1.1393758 
11380000   0.88757173 -5.9368759e-05   0.55973895 0.0015024376            0   0.55823651    1.3147156    1.8744546   -1.1652259 
11385000   0.94647987 5.4154026e-05   0.47550051 8.2864755e-05            0   0.47541764    1.4019733    1.8774738    4.6501599 
11390000   0.90518803 6.779274e-05   0.50705222 0.0042230518            0   0.50282916    1.3408098     1.847862    5.3188503 
11395000   0.90757589 -9.0242489e-05   0.52312224  0.029037672            0   0.49408457    1.3443468     1.867469   -2.7529464 
11400000   0.96264671 0.0001131846   0.46727426  0.038601189            0   0.42867307    1.4259204    1.8931947    7.6882463 
11405000   0.82098294 -4.7041622e-05   0.69136622  0.022320101            0   0.66904611     1.216081    1.9074472  -0.50108385 
11410000    0.9403657 6.4401757e-07   0.47923263  0.023826514            0   0.45540612    1.3929167    1.8721493     1.905123 
11415000   0.87522876 -8.0089472e-08   0.59060469  0.031005488            0    0.5595992    1.2964326    1.8870373    1.8829367 
11420000   0.89196099  8.21641e-05   0.56022536  0.060593129            0   0.49963224    1.3212172    1.8814426    6.0882445 
11425000   0.88430217 -7.1573013e-05   0.57963804  0.064414204            0   0.51522383    1.3098726    1.8895106   -1.7750276 
11430000   0.93660509 2.9476316e-05   0.49056041  0.026881504            0   0.46367891    1.3873463    1.8779067    3.3870941 
11435000   0.87027064 3.6767134e-05   0.61129348 0.0031340816            0    0.6081594    1.2890884    1.9003819    3.7828591 
11440000   0.94573583 -0.00012891386    0.4900091 0.00015878375            0   0.48985032    1.4008712    1.8908803   -4.7095095 
11445000   0.99666757 2.2424699e-05   0.41092093            0            0   0.41092093    1.4763138    1.8872348    3.0353794 
11450000   0.89665023 7.4048512e-05   0.54209679            0            0   0.54209679    1.3281632    1.8702599    5.6615438 
11455000   0.99891118 -8.5532366e-05   0.38900014            0            0   0.38900014    1.4796372    1.8686373   -2.5106198 
11460000   0.94747143 -3.9534608e-05    0.4924968            0            0    0.4924968    1.4034421    1.8959389  -0.12823307 
11465000   0.91006931 9.6712411e-05   0.59292563 0.00042775325            0   0.59249787    1.3480402    1.9409658    6.8926412 
11470000   0.94135008 5.6196926e-05   0.53949523  0.032777667            0   0.50671756    1.3943748      1.93387    4.8111527 
11475000   0.92452365 -4.5361727e-05   0.56315164  0.032891182            0   0.53026046    1.3694507    1.9326023   -0.3899181 
11480000    1.0007858 -0.00011415107     0.476442  0.012875433            0   0.46356657    1.4824139    1.9588559    -3.885679 
11485000   0.95630976 -0.00014141381   0.52284532 0.0018784891            0   0.52096683    1.4165338    1.9393792   -5.3010078 
11490000   0.90022797 5.1612799e-05   0.60459238  0.002810544            0   0.60178183    1.3334627    1.9380551    4.5806303 
11495000   0.98023576 1.4684203e-05   0.45998466  0.019240468            0   0.44074419    1.4519742    1.9119589      2.66379 
11500000   0.91206098 -3.9846881e-05   0.57431721  0.061689614            0    0.5126276    1.3509903    1.9253075   -0.1148528 
11505000   0.94366885 3.2106749e-05   0.53755598  0.021182744            0   0.51637323    1.3978095    1.9353655     3.579231 
11510000   0.95741204 -0.0001379954   0.51220386  0.021024381            0   0.49117948    1.4181666    1.9303704   -5.1349943 
11515000   0.96664093 -2.8886806e-07    0.5322518  0.050480474            0   0.48177133    1.4318369    1.9640887    1.9492986 
11520000   0.96021596 0.00013356636   0.53495819  0.030189066            0   0.50476913    1.4223199    1.9572781    8.7958758 
11525000   0.97773954 -0.00015662404    0.4995079 0.0023699596            0   0.49713794    1.4482767    1.9477846    -6.071366 
11530000   0.96790008 -6.2023387e-05   0.50657418 1.9510011e-06            0   0.50657223     1.433702    1.9402762   -1.2353212 
11535000   0.96360688 8.200652e-05   0.51113291 0.00053926328            0   0.51059364    1.4273427    1.9384756    6.1372094 
11540000   0.94228582 1.7315015e-05   0.53490865 0.00084951096            0   0.53405914    1.3957609    1.9306695    2.8171983 
11545000    1.0087892 -3.3866549e-05   0.39135939 0.0013605519            0   0.38999884     1.494269    1.8856284   0.15166102 
11550000   0.87660781 4.2561104e-05   0.58920433  0.019894993            0   0.56930934    1.2984753    1.8876797    4.0668082 
11555000    0.9655775 8.111159e-05   0.47109616  0.028639302            0   0.44245686    1.4302617    1.9013578    6.0542713 
11560000   0.96168934 -6.8677222e-05   0.43048431  0.013545048            0   0.41693926    1.4245023    1.8549866   -1.6612871 
11565000   0.88342442 -0.00015994467   0.54059924   0.01675882            0   0.52384042    1.3085724    1.8491717   -6.3399954 
11570000   0.91473725 -0.0001031104    0.5187288  0.011983505            0   0.50674529    1.3549546    1.8736834    -3.405569 
11575000   0.86007959 -1.0359584e-05   0.62315183   0.04466341            0   0.57848842    1.2739929    1.8971447     1.366734 
11580000   0.91812964 9.6734334e-05     0.550412  0.039613845            0   0.51079816    1.3599795    1.9103915    6.8631894 
11585000   0.98357322 -1.6936038e-05   0.45365668  0.013101152            0   0.44055552    1.4569178    1.9105745    1.0434494 
11590000    0.9346765 -3.2868379e-05   0.52424232 0.0087311312            0   0.51551119    1.3844896    1.9087319   0.22587088 
11595000   0.92076861 4.9382257e-05   0.57007834  0.030204752            0   0.53987358    1.3638885    1.9339668    4.4623384 
11600000   0.97553168 -6.3191528e-05   0.47585304  0.049592582            0   0.42626045    1.4450063    1.9208593   -1.3145469 
11605000   0.91760879 -0.00013911869   0.55569185   0.04456836            0   0.51112349     1.359208    1.9148999   -5.2079768 
11610000   0.90200659 -1.228635e-05   0.55164856  0.073316205            0   0.47833236    1.3360973    1.8877458    1.2586847 
11615000   0.91085222 6.5378986e-05   0.52925531  0.027062255            0   0.50219305    1.3491999    1.8784552    5.2258592 
11620000   0.85928249 7.2854179e-05   0.59265408 0.0073046999            0   0.58534938    1.2728122    1.8654663    5.5956002 
11625000   0.97968749 7.2913053e-06   0.42137885 0.0049902139            0   0.41638864    1.4511621     1.872541    2.2458558 
11630000   0.91087117 -0.00013658906   0.53054346 0.0035274289            0   0.52701603    1.3492279    1.8797714   -5.1135887 
11635000    0.9183704 -0.00010517251   0.50724609  0.002375885            0    0.5048702    1.3603362    1.8675822   -3.5172504 
11640000   0.89868172 5.6333816e-05   0.51648923   0.00443517            0   0.51205406    1.3311723    1.8476615    4.7319529 
11645000   0.89925921 4.6703939e-05   0.51965786 0.0020869137            0   0.51757095    1.3320277    1.8516856    4.2429272 
11650000   0.85613724 -6.3519154e-07   0.56932579 0.0036214212            0   0.56570437    1.2681533    1.8374791    1.8049573 
11655000   0.87491033 6.1269204e-05   0.52115722  0.013801351            0   0.50735587    1.2959609    1.8171182    4.9541014 
11660000   0.91148762 1.7621325e-05   0.48677463 0.0092882637            0   0.47748636     1.350141    1.8369157    2.7391275 
11665000   0.93720564 -7.6290482e-06    0.4240542 0.0015306099            0   0.42252359    1.3882359    1.8122901    1.4216828 
11670000   0.91764855 7.5742208e-05   0.42380619  0.001273196            0   0.42253299    1.3592669    1.7830731    5.6610741 
11675000   0.84800548 0.00014416972   0.54220282 0.0098716615            0   0.53233116    1.2561081    1.7983109    9.1798004 
11680000   0.85324686 6.7986823e-05   0.50848596  0.018112213            0   0.49037374    1.2638719    1.7723579    5.2532832 
11685000    0.8967455 -6.1984911e-05   0.45051779 0.0051435914            0    0.4453742    1.3283043    1.7788221   -1.3948054 
11690000   0.90349528 2.8008738e-05   0.44723471  0.014116672            0   0.43311804    1.3383024    1.7855371    3.2195845 
11695000   0.97706438 8.1260964e-05   0.34682524 0.0090398172            0   0.33778542    1.4472766    1.7941019    5.9546632 
11700000   0.90300561 -7.9411757e-05   0.48513716 0.0055945955            0   0.47954257    1.3375771    1.8227142   -2.2431678 
11705000   0.90984239 -4.6140942e-05   0.45350596 0.0084254607            0    0.4450805     1.347704      1.80121  -0.56120623 
11710000   0.83833876 9.7768316e-05   0.54939538 0.0033833126            0   0.54601207    1.2417893    1.7911847    6.7969225 
11715000   0.90948073 0.00012451421    0.4488363 0.0011802097            0   0.44765609    1.3471683    1.7960046    8.1711322 
11720000   0.87857795 -2.8824449e-05   0.48276411   0.00481336            0   0.47795075    1.3013936    1.7841577   0.30834589 
11725000    0.9245539 -4.1169926e-05   0.38563468 0.0054728476            0   0.38016183    1.3694955    1.7551301  -0.35277009 
11730000   0.84604147 3.3068273e-05    0.4979698  0.010483309            0   0.48748649    1.2531989    1.7511687    3.4442643 
11735000   0.87716995 -2.7003671e-05   0.45505132  0.026160726            0   0.42889059     1.299308    1.7543593   0.37177135 
11740000   0.87321508 -2.7486528e-05   0.46319496  0.026021761            0    0.4371732    1.2934498    1.7566448   0.34933456 
11745000   0.91466684 7.1617504e-05   0.37722721 0.0036214305            0   0.37360577    1.3548503    1.7320775    5.3988937 
11750000    0.8041321 -4.0225444e-05   0.54843845    0.0148608            0   0.53357765    1.1911207    1.7395591  -0.31998361 
11755000   0.79940341 -0.00010345742   0.56347573  0.028002681            0   0.53547304    1.1841163     1.747592   -3.5494281 
11760000   0.88031509 -5.7806966e-06   0.44617231   0.01916911            0   0.42700321    1.3039667     1.750139    1.4541674 
11765000   0.85274921 -3.2948839e-05    0.4824668  0.015463061            0   0.46700374    1.2631348    1.7456016  0.058621023 
11770000   0.82615703 5.4219851e-06   0.52257039  0.003649021            0   0.51892136    1.2237451    1.7463155    2.0239211 
11775000   0.83052002 -2.6364132e-05   0.51974323 0.0019586178            0   0.51778461    1.2302078     1.749951   0.40010743 
11780000   0.88918827 -7.4613059e-06   0.42981986 0.0036042531            0   0.42621561    1.3171101      1.74693    1.3649111 
11785000   0.84824938 -5.8329526e-06   0.49968582  0.026511767            0   0.47317405    1.2564694    1.7561552     1.457508 
11790000   0.87436565 3.3874649e-05   0.46943288  0.016063988            0   0.45336889    1.2951541     1.764587    3.4989691 
11795000   0.84154725 -0.00012026694   0.46760625  0.014808221            0   0.45279802    1.2465419    1.7141481   -4.4435193 
11800000   0.81502926 -2.2914633e-05   0.47489387  0.020746202            0   0.45414767    1.2072621     1.682156   0.50892675 
11805000   0.78494529 8.9246597e-05   0.52969085   0.04067807            0   0.48901278    1.1627002    1.6923911    6.2618168 
11810000   0.86425594 9.6870223e-05   0.39202752  0.016828127            0   0.37519939    1.2801791    1.6722066    6.6319621 
11815000   0.80279663 0.0001013405   0.49630714  0.016586083            0   0.47972105    1.1891425    1.6854497    6.8740834 
11820000   0.79756121 3.0818704e-05   0.50970681  0.016043045            0   0.49366377    1.1813875    1.6910944     3.269012 
11825000   0.92157667 3.1316436e-05   0.32221962  0.007162529            0   0.31505709    1.3650854    1.6873051    3.2907066 
11830000   0.83755112 4.9203097e-05   0.45412153   0.01684223            0    0.4372793    1.2406226    1.6947441    4.2139427 
11835000   0.83435605 6.272517e-05   0.44280525  0.017877039            0   0.42492821    1.2358899    1.6786952    4.8902238 
11840000   0.84757822 8.2369818e-05    0.4155063 0.0074757052            0   0.40803059    1.2554752    1.6709815    5.8883162 
11845000   0.83500263 4.4140854e-05   0.43644492 0.0099129716            0   0.42653195    1.2368476    1.6732926    3.9333043 
11850000   0.89519736 -9.5483183e-06   0.36252865 0.0076132014            0   0.35491545    1.3260111    1.6885397    1.1996658 
11855000    0.8185249 -8.0481198e-05   0.48214004   0.01984347            0   0.46229657      1.21244      1.69458   -2.4260573 
11860000   0.83989842 -8.4839254e-05   0.43968769 0.0095592864            0    0.4301284    1.2440995    1.6837872   -2.6599826 
11865000   0.79091762 -1.1747443e-05   0.52042144  0.013177723            0   0.50724372    1.1715467    1.6919682    1.0904991 
11870000   0.86781824 3.2778848e-05   0.39564153  0.023396352            0   0.37224518    1.2854558    1.6810973    3.3593743 
11875000   0.78820026 -3.0620031e-05   0.48443494  0.018879434            0   0.46555551    1.1675216    1.6519566  0.084211003 
11880000    0.7805811 -6.760356e-05   0.49970522  0.015716112            0   0.48398911    1.1562358     1.655941   -1.8053613 
11885000   0.86457931 -6.911664e-05   0.37417198  0.015352089            0   0.35881989    1.2806581    1.6548301   -1.8839419 
11890000   0.76492208 2.7397015e-05   0.50941927  0.018352512            0   0.49106676    1.1330408    1.6424601    3.0451873 
11895000    0.7934112 -3.258782e-05   0.46327466  0.033317768            0   0.42995689    1.1752403     1.638515 -0.029981407 
11900000    0.7846331 -0.00013089178   0.45928564  0.051771048            0    0.4075146    1.1622378    1.6215234   -5.0801356 
11905000   0.76322342 -4.1919617e-05   0.47019945  0.018648336            0   0.45155111    1.1305247    1.6007241  -0.54556026 
11910000   0.78356652 2.0371598e-05    0.4286892 0.0075131436            0   0.42117606    1.1606579    1.5893471    2.6323729 
11915000   0.80842875 -4.2768461e-06   0.39291485 0.0061914041            0   0.38672345    1.1974851    1.5903999    1.3714254 
11920000   0.78843101 -2.1187397e-05   0.38649417 0.0056137604            0   0.38088041    1.1678634    1.5543576   0.46956286 
11925000   0.76124746 3.7299345e-05   0.42092862  0.014661246            0   0.40626737    1.1275978    1.5485264    3.4582529 
11930000   0.74572602 6.7258665e-05    0.4433407  0.014534905            0    0.4288058    1.1046067    1.5479474     4.991591 
11935000   0.77127499 -9.191667e-06   0.42891771 0.0081120877            0   0.42080562    1.1424511    1.5713688    1.1007554 
11940000   0.73388026 -8.9298698e-05   0.50928677 0.0012682257            0   0.50801854    1.0870601    1.5963469   -2.9757464 
11945000   0.79797918 -0.00010412216   0.43745408 0.0017529587            0   0.43570112    1.1820067    1.6194607   -3.7115936 
11950000    0.7173668 -1.1225181e-05   0.53727202  0.025870154            0   0.51140187    1.0625996    1.5998716    1.0251423 
11955000   0.77382926 9.114312e-05   0.47470223  0.072422668            0   0.40227957    1.1462346    1.6209368    6.2874646 
11960000   0.82819798 1.2411021e-05   0.39123211  0.017890128            0   0.37334199    1.2267683    1.6180004    2.2534446 
11965000   0.84591323 5.3415754e-05   0.37021027 0.0048809402            0   0.36532933     1.253009    1.6232192    4.3581059 
11970000   0.73946685 0.00010696082   0.53310128  0.011156547            0   0.52194474    1.0953353    1.6284366    7.1048306 
11975000   0.74178465 -1.8566348e-05   0.52434232  0.018315619            0    0.5060267    1.0987685    1.6231108   0.67251383 
11980000   0.81917787 -3.3601608e-05   0.39566373  0.022413254            0   0.37325048    1.2134072     1.609071  -0.11133138 
11985000   0.82792141 -1.8416443e-05   0.38057435  0.026167875            0   0.35440647    1.2263586    1.6069329   0.66401106 
11990000   0.79514416 -9.4861646e-06    0.4593557  0.014794453            0   0.44456125    1.1778073     1.637163    1.1514714 
11995000   0.88074184 2.0357161e-05   0.35770974  0.019515679            0   0.33819406    1.3045989    1.6623086    2.7045952 
12000000   0.81772339 8.5618581e-05   0.44993069  0.019610913            0   0.43031977    1.2112528    1.6611835    6.0448548 
12005000   0.82056026 5.970741e-05   0.42776264  0.012155638            0     0.415607    1.2154549    1.6432175    4.7002369 
12010000   0.78755925 8.3265951e-05   0.47042414  0.016600574            0   0.45382357    1.1665721    1.6369963     5.900213 
12015000   0.85069534 -3.6865336e-06   0.41217339  0.010977346            0   0.40119604    1.2600925    1.6722659    1.4835153 
12020000   0.82020309 -0.00015997214   0.45461502  0.013815276            0   0.44079974    1.2149258    1.6695408   -6.5210328 
12025000   0.88210775 -4.3040933e-05   0.34764427  0.025573327            0   0.32207094    1.3066221    1.6542664  -0.54942939 
12030000   0.82264973 6.733479e-05   0.45850871 0.0085559839            0   0.44995273    1.2185499    1.6770586    5.1245999 
12035000   0.80712601 2.6389389e-05   0.46372359  0.021541794            0    0.4421818    1.1955554     1.659279    3.0104157 
12040000   0.84319636 2.278667e-05   0.42510187   0.01865685            0   0.40644502    1.2489846    1.6740865     2.840764 
12045000   0.85477703 -2.4941696e-05    0.4173924  0.023535508            0    0.3938569    1.2661385    1.6835309   0.40651603 
12050000   0.80358358 -9.0512067e-05   0.45792367  0.028857613            0   0.42906605    1.1903082    1.6482318    -2.985986 
12055000   0.86258857 3.9812916e-05     0.384657  0.018643337            0   0.36601367    1.2777093    1.6623663    3.7007876 
12060000   0.80015419 0.00012800297   0.46963097  0.033460542            0   0.43617043    1.1852284    1.6548594    8.2086113 
12065000   0.75169202 5.0312644e-05    0.5427293  0.073267132            0   0.46946217    1.1134438    1.6561731    4.2321805 
12070000   0.87091268 -9.581229e-05   0.39464206  0.041805526            0   0.35283654    1.2900394    1.6846815   -3.2209078 
12075000   0.81429526 -7.3347092e-05   0.46723783  0.048416233            0   0.41882159    1.2061748    1.6734127   -2.0819584 
12080000   0.82808515 -1.9761258e-05   0.43553888   0.01865648            0    0.4168824    1.2266011      1.66214   0.65036358 
12085000   0.82978475 1.7927271e-05   0.43357858   0.03208678            0    0.4014918    1.2291187    1.6626972    2.5805735 
12090000   0.83512695 7.0264864e-05   0.41003105    0.0326877            0   0.37734335    1.2370318    1.6470628    5.2446239 
12095000   0.80212588 1.5836916e-05    0.4488729  0.017065205            0    0.4318077     1.188149    1.6370219     2.447872 
12100000    0.8398699 2.288811e-05   0.37722793  0.015756331            0    0.3614716    1.2440573    1.6212852    2.7931565 
12105000   0.78334338 2.0032563e-05   0.44372005 0.0098387694            0   0.43388128    1.1603274    1.6040474    2.6297147 
12110000   0.75695066 -2.1405245e-05   0.49686862  0.011273412            0    0.4855952    1.1212332    1.6181018   0.52215323 
12115000   0.82842294 -3.8004062e-05   0.40269059  0.015348006            0   0.38734259    1.2271015    1.6297921  -0.31601593 
12120000   0.83088938 9.9239012e-06    0.4048695  0.013856841            0   0.39101266    1.2307549    1.6356244    2.1437281 
12125000   0.88405666 1.4256724e-05   0.31844905  0.010152033            0   0.30829701    1.3095089     1.627958    2.3579023 
12130000   0.78035077 1.0258831e-05   0.47649866  0.018574298            0   0.45792436    1.1558946    1.6323932    2.1576454 
12135000   0.84396385 -6.3817065e-05   0.37763956   0.02807691            0   0.34956265    1.2501215     1.627761   -1.6396727 
12140000   0.74939395 -0.00014272178   0.49444699  0.016973397            0   0.47747359    1.1100398    1.6044868   -5.7028685 
12145000   0.79706303 -4.5545722e-05   0.43380681  0.011298425            0   0.42250838    1.1806496    1.6144564  -0.71748454 
12150000   0.80511017 2.9890149e-05   0.42029441  0.020983229            0   0.39931118    1.1925694    1.6128638    3.1432395 
12155000   0.76428291 -1.6800291e-06   0.46008875  0.035553422            0   0.42453533    1.1320941    1.5921828    1.5061653 
12160000   0.81268473 -9.0942943e-05   0.36579181  0.017021808            0   0.34877001    1.2037893    1.5695811   -3.0866976 
12165000   0.83677155 1.0842613e-05   0.33381129  0.011220746            0   0.32259055    1.2394679    1.5732791    2.1284209 
12170000   0.79703356 5.1728741e-05   0.41124585  0.011034527            0   0.40021132     1.180606    1.5918518    4.2403633 
12175000   0.81100715 -4.2652867e-05   0.39507549 0.0083754164            0   0.38670007    1.2013043    1.5963798  -0.58744697 
12180000   0.76803777 1.6232913e-05   0.46468097   0.01003091            0   0.45465006    1.1376559    1.6023369    2.4334621 
12185000    0.8301753 9.0406089e-05    0.3580573   0.00691458            0   0.35114272    1.2296972    1.5877545    6.2165462 
12190000   0.81013263 6.2843415e-05   0.41248267  0.012714982            0   0.39976769     1.200009    1.6124916    4.8300745 
12195000   0.83586879 -2.7162479e-05   0.34699198  0.043620767            0   0.30337121    1.2381306    1.5851226   0.19440369 
12200000   0.83643898 -2.1725484e-05    0.3742585  0.032815397            0    0.3414431    1.2389752    1.6132337   0.50088893 
12205000   0.84355967 4.4136186e-05   0.38752794  0.047599762            0   0.33992818    1.2495228    1.6370507    3.8968234 
12210000   0.77950534 2.7949944e-05   0.48926531  0.055812289            0   0.43345302    1.1546423    1.6439076    3.0749447 
12215000   0.80674593 1.9866104e-05   0.46617035  0.039487272            0   0.42668308    1.1949924    1.6611628    2.6783073 
12220000   0.84119031 4.5755471e-05   0.40189378  0.025619982            0    0.3762738    1.2460132    1.6479069    3.9905871 
12225000   0.85857584 -1.7256845e-06   0.36761803 0.0037995103            0   0.36381852    1.2717655    1.6393835    1.5510284 
12230000   0.83718284 -0.00010912003   0.39497639 0.0020645526            0   0.39291184    1.2400771    1.6350535   -3.9518922 
12235000   0.83159911 -9.0832216e-05   0.40435868 0.0099995223            0   0.39435916    1.2318062    1.6361649   -3.0144446 
12240000   0.78734541 0.00013724708   0.49129016  0.013834161            0     0.477456    1.1662554    1.6575456     8.684596 
12245000   0.86702255 0.00014714717   0.39663153  0.010352253            0   0.38627928    1.2842771    1.6809087    9.2148439 
12250000    0.9210634 -4.5157657e-05   0.34546044  0.013020005            0   0.33244044    1.3643252    1.7097856  -0.60228644 
12255000   0.88956701 4.4323841e-07   0.39335139  0.015469772            0   0.37788162    1.3176711    1.7110225    1.7337163 
12260000   0.86550381 6.6108722e-05   0.40252946  0.021801617            0   0.38072784    1.2820275     1.684557    5.0693236 
12265000   0.81213071 1.192349e-05   0.48795839  0.073144375            0   0.41481402    1.2029686     1.690927    2.3014097 
12270000   0.84652231 -1.716613e-06   0.42463484  0.057918019            0   0.36671682    1.2539112     1.678546    1.5906554 
12275000   0.89083159 -1.557542e-05    0.3630388  0.031393628            0   0.33164517    1.3195443    1.6825831   0.88512157 
12280000   0.86985209 -1.9974857e-05   0.41015359 0.0097860592            0   0.40036753    1.2884684     1.698622   0.67590934 
12285000    0.8899352 -9.651672e-06   0.36708908 0.0045705389            0   0.36251854    1.3182165    1.6853056      1.19114 
12290000   0.86817259 1.9110272e-05   0.39205349 0.0039065623            0   0.38814692    1.2859806    1.6780341    2.6564801 
12295000   0.89171076 9.9326314e-05   0.35629176 0.0014445045            0   0.35484726    1.3208466    1.6771383    6.7626456 
12300000   0.88192788 -2.8918243e-05   0.35763089 0.0021871235            0   0.35544376    1.3063557    1.6639866    0.1833725 
12305000   0.81838336 -8.0795615e-05   0.42496334 0.0059223495            0   0.41904099    1.2122304    1.6371937   -2.4995418 
12310000   0.85685968 3.0856494e-05   0.36111195  0.015124752            0    0.3459872    1.2692234    1.6303354    3.2101878 
12315000   0.89189692 2.6306294e-05   0.30478062  0.023177971            0   0.28160265    1.3211223    1.6259029    2.9727852 
12320000   0.83104608 -4.6099306e-05   0.40889663  0.011168057            0   0.39772857     1.230987    1.6398836  -0.72040083 
12325000   0.86559652 8.0637454e-06    0.3611619  0.010987831            0   0.35017407    1.2821648    1.6433267    2.0561905 
12330000   0.85387697 5.6319387e-05   0.37524433 0.0081444423            0   0.36709989    1.2648053    1.6400496    4.5236022 
12335000   0.85720081 -3.9094802e-05   0.34927929 0.0032839173            0   0.34599537    1.2697287     1.619008  -0.38264588 
12340000   0.86389516 -5.1529554e-06   0.34532512 0.0057484895            0   0.33957663    1.2796447    1.6249698    1.3611385 
12345000   0.82218188 -3.0089628e-05   0.40531808 0.0068262603            0   0.39849182    1.2178569     1.623175  0.082586051 
12350000   0.79976878 -0.00012530945   0.43070544  0.014319623            0   0.41638581    1.1846575    1.6153629    -4.800481 
12355000   0.88462598 -6.3384735e-05   0.33916411  0.026222399            0   0.31294171    1.3103522    1.6495163   -1.5957821 
12360000   0.87857052 -1.9278302e-05   0.33979369  0.017795236            0   0.32199846    1.3013826    1.6411763   0.65412719 
12365000   0.84303287 -5.3717301e-05   0.39749316  0.013923371            0   0.38356979    1.2487424    1.6462356   -1.1040902 
12370000   0.86618957 -8.8625424e-06   0.36982364  0.022051858            0   0.34777178    1.2830433    1.6528669    1.1991048 
12375000   0.84719956 0.00010096634   0.40285236  0.019968378            0   0.38288398    1.2549143    1.6577667    6.8272432 
12380000   0.87610798 -1.2158951e-05   0.34764894 0.0065705769            0   0.34107837    1.2977349    1.6453839    1.0228456 
12385000   0.85147992 5.9931058e-05   0.38777447   0.02130565            0   0.36646882    1.2612546    1.6490291    4.7174993 
12390000   0.79452273 8.3376882e-05   0.43343401   0.01749009            0   0.41594392    1.1768868    1.6103208    5.8792172 
12395000   0.80930176 6.1114591e-05   0.40836028  0.014241712            0   0.39411857    1.1987782    1.6071385    4.7362056 
12400000   0.75946818 -5.21076e-05   0.49982874   0.03100744            0    0.4688213    1.1249622     1.624791   -1.0431182 
12405000    0.8377535 3.4298809e-05   0.36681681   0.02207854            0   0.34473827    1.2409224    1.6077392    3.3638382 
12410000   0.77957463  8.38574e-05     0.439195 0.0031780807            0   0.43601692    1.1547449    1.5939399    5.8874388 
12415000    0.7949279 -5.600052e-05   0.44152564 0.0046491282            0   0.43687652     1.177487    1.6190126    -1.248214 
12420000   0.80023185 -6.1517308e-05   0.42445562  0.023140034            0   0.40131559    1.1853434     1.609799   -1.5398871 
12425000   0.86224639 -7.8492924e-05   0.35364076   0.02692397            0   0.32671679    1.2772025    1.6308432   -2.3879945 
12430000   0.82762528 2.5723092e-05   0.39513837 0.0062135876            0   0.38892479    1.2259199    1.6210583    2.9380806 
12435000    0.7675925 0.00021513311   0.48113121 0.0033783026            0    0.4777529    1.1369964    1.6181276    12.632943 
12440000   0.82494622 4.6817979e-05   0.40350555 0.0045334459            0    0.3989721    1.2219516    1.6254571    4.0225377 
12445000   0.80911685 -0.00012799718   0.44659425  0.020996494            0   0.42559776    1.1985043    1.6450986   -4.9083569 
12450000   0.83457098 3.0023328e-05   0.45966556  0.042464376            0   0.41720118    1.2362083    1.6958738    3.2330682 
12455000   0.88169936 1.4060154e-05   0.40193936  0.048322836            0   0.35361652    1.3060172    1.7079565    2.4278364 
12460000   0.81684297 3.4020387e-05   0.50609362  0.021362241            0   0.48473138    1.2099487    1.7160423    3.4578861 
12465000   0.88261511 8.7711006e-05   0.43888429  0.047223029            0   0.39166126    1.3073736    1.7462579    6.2370614 
12470000   0.87392009 7.8692351e-05   0.41770918  0.020544146            0   0.39716504    1.2944941    1.7122033    5.7412517 
12475000   0.90321346 -1.5214765e-05   0.39580847  0.014165329            0   0.38164314    1.3378849    1.7336934   0.95469741 
12480000   0.87043172 8.9243814e-06   0.43966396  0.037950577            0   0.40171338     1.289327    1.7289909    2.1859193 
12485000   0.88527158 4.8952062e-06   0.40560269   0.02672569            0     0.378877    1.3113085    1.7169112    1.9675458 
12490000   0.84660678 7.6732619e-05   0.44694147 0.0031585282            0   0.44378294    1.2540363    1.7009778    5.6296879 
12495000   0.85266084 -3.8152266e-05   0.44095074  0.017754289            0   0.42319645    1.2630039    1.7039546  -0.24944142 
12500000   0.91421573 -2.2512089e-06   0.36970544  0.011545919            0   0.35815952    1.3541821    1.7238875    1.6086256 
12505000   0.91301093 8.9350559e-06   0.39377886  0.014152636            0   0.37962622    1.3523974    1.7461763    2.2036512 
12510000   0.88179459 4.5724599e-05   0.43981453 0.0081923058            0   0.43162223    1.3061582    1.7459728    4.0870722 
12515000   0.94319283 -3.9045376e-05   0.33445448 0.0014711683            0   0.33298332    1.3971044    1.7315589  -0.26756437 
12520000   0.89180335 -7.8920928e-05   0.42801283 0.00044677595            0   0.42756605    1.3209837    1.7489965    -2.291755 
12525000   0.89173891 1.4138101e-05   0.41781523 0.0052578876            0   0.41255734    1.3208883    1.7387035    2.4625743 
12530000   0.89493347 -5.7747598e-06   0.39288978    0.0169631            0   0.37592668    1.3256202      1.71851    1.4228423 
12535000     0.848443 -8.1492166e-05   0.46484842  0.050203629            0   0.41464479    1.2567562    1.7216046   -2.4507943 
12540000   0.83486378 3.6491492e-05   0.46304057  0.031598862            0   0.43144171     1.236642    1.6996825    3.5680469 
12545000   0.85830634 -1.6010381e-05   0.43747043  0.039446781            0   0.39802364    1.2713663    1.7088367   0.88910519 
12550000   0.85839345 3.6460781e-05   0.45091435  0.053338141            0   0.39757621    1.2714953    1.7224096    3.5892016 
12555000   0.81620233 0.00013935935   0.52402859 0.0074450863            0   0.51658351    1.2089997    1.7330283    8.8682269 
12560000   0.89135329 3.4213993e-05   0.40842554  0.011213181            0   0.39721236    1.3203171    1.7287426     3.480499 
12565000   0.81992545 1.7420829e-05    0.5236856 0.0086747599            0   0.51501084    1.2145146    1.7382002    2.6301466 
12570000   0.83955182 -7.3681603e-06   0.49296572 0.0036481415            0   0.48931757    1.2435861    1.7365518     1.359302 
12575000   0.84209194 -7.0071994e-05   0.48627148 0.0021502929            0   0.48412118    1.2473487    1.7336202   -1.8540659 
12580000   0.81190011 8.4017552e-06    0.5222378 0.0097627981            0     0.512475     1.202627    1.7248648    2.1550347 
12585000   0.92972187 4.0241879e-05   0.32569661  0.012093444            0   0.31360317    1.3771505    1.7028471    3.7632313 
12590000   0.80039008 -5.6673909e-05   0.52259935  0.012242317            0   0.51035704    1.1855778    1.7081772    -1.193527 
12595000   0.88462004 8.8826391e-06   0.41431867  0.040602322            0   0.37371635    1.3103434    1.7246621    2.1794532 
12600000   0.89238123 0.00018417802   0.42097733  0.038466058            0   0.38251127    1.3218397     1.742817    11.172732 
12605000   0.84240398 7.4614288e-05   0.47480906  0.013709365            0    0.4610997    1.2478109      1.72262    5.5428715 
12610000   0.87753588 -5.517061e-05   0.40551952  0.016896478            0   0.38862304      1.29985    1.7053695   -1.1193657 
12615000   0.83109441 -3.1693778e-05   0.47468751  0.019916677            0   0.45477083    1.2310586    1.7057461  0.083024674 
12620000   0.82446858 -7.3313613e-06   0.48378427   0.02678588            0   0.45699839    1.2212441    1.7050283    1.3296627 
12625000   0.86791664 0.0001293708   0.41542496  0.016180059            0   0.39924491    1.2856015    1.7010265    8.3248114 
12630000   0.82187049 4.9431281e-05   0.48755443  0.017005848            0   0.47054858    1.2173957    1.7049501    4.2358317 
12635000   0.88223542 5.6754679e-05   0.39981018  0.025067957            0   0.37474222    1.3068112    1.7066214     4.612461 
12640000   0.86479196 5.629134e-05   0.43912376  0.030523848            0   0.40859991    1.2809731    1.7200969    4.6022134 
12645000   0.81892231 -6.340625e-05   0.51764927  0.025459138            0   0.49219014    1.2130287    1.7306779   -1.5157221 
12650000   0.80702862 -3.8465728e-05   0.51626998  0.019519218            0   0.49675076    1.1954112    1.7116811  -0.25776416 
12655000   0.86209608 1.6479245e-05   0.43155513  0.013489908            0   0.41806522    1.2769798    1.7085349    2.5522723 
12660000   0.84231984 1.3283315e-05   0.47718049 0.0093135789            0   0.46786691    1.2476863    1.7248668    2.4049725 
12665000   0.84393766 8.2680901e-05   0.48052467  0.012571621            0   0.46795305    1.2500827    1.7306073    5.9638695 
12670000   0.87605223 8.614186e-05   0.42969353  0.041325074            0   0.38836846    1.2976524    1.7273459    6.1378091 
12675000   0.79554352 -3.3297051e-05   0.52293262  0.024172642            0   0.49875998    1.1783988    1.7013315 -0.0034775568 
12680000   0.85568447 5.3349289e-05   0.42572139  0.012377172            0   0.41334422    1.2674826     1.693204    4.4246876 
12685000   0.78601182 8.6036178e-05   0.52873775  0.030675061            0   0.49806269      1.16428    1.6930178    6.0980701 
12690000   0.86115048 5.1909284e-06   0.45344659  0.033673868            0   0.41977272    1.2755791    1.7290257    1.9948013 
12695000   0.80047567 2.2143549e-05   0.57193372  0.014328465            0   0.55760525    1.1857046    1.7576383     2.891388 
12700000   0.93182191 -4.714062e-05   0.38437815 0.0029896842            0   0.38138847    1.3802612    1.7646394  -0.64896038 
12705000   0.82686072 -0.00010572616    0.5560829 0.0024371471            0   0.55364576    1.2247874    1.7808703   -3.6323092 
12710000   0.94393642 -2.5014128e-05   0.36874306 0.0019885554            0    0.3667545    1.3982058    1.7669489   0.48622553 
12715000   0.89223834 6.0014903e-06   0.46320155  0.014195537            0   0.44900601     1.321628    1.7848296    2.0921059 
12720000   0.91074917 1.9334042e-05   0.46088937  0.028437724            0   0.43245165    1.3490472    1.8099366    2.7998395 
12725000   0.90064537 -2.6949322e-05   0.45571171  0.032322227            0   0.42338949     1.334081    1.7897927   0.40998738 
12730000   0.91844118 -2.3634354e-06   0.43095296  0.011897277            0   0.41905568     1.360441    1.7913939    1.6703861 
12735000    0.9748654 6.1847656e-05   0.36021299 0.0070032315            0   0.35320976    1.4440194    1.8042324    4.9708323 
12740000   0.94240368 -1.4865168e-06   0.41677506 0.0040413629            0    0.4127337    1.3959355    1.8127105    1.7366009 
12745000    0.8753354 -3.0931494e-05   0.49100429  0.021217098            0   0.46978719    1.2965906    1.7875949   0.20390235 
12750000   0.89555202 -2.9305528e-05    0.4753239  0.042828882            0   0.43249502    1.3265364    1.8018603   0.30141732 
12755000   0.89755007 4.6170945e-05   0.46636677  0.022578515            0   0.44378826     1.329496    1.7958628    4.1598152 
12760000   0.88780599 9.2156006e-05   0.47531219  0.017013798            0   0.45829839    1.3150626    1.7903748    6.5087623 
12765000   0.88314953 -2.6715342e-05   0.45044463  0.028979829            0    0.4214648    1.3081652    1.7586099   0.39078437 
12770000    0.9456344 -1.6530067e-05    0.3661074  0.015578657            0   0.35052875     1.400721    1.7668284   0.92048894 
12775000   0.82884432 -5.7970347e-05   0.51943241  0.017569309            0    0.5018631    1.2277256    1.7471581   -1.2209237 
12780000   0.84544683 -5.7696174e-05   0.51453029  0.016163808            0   0.49836648    1.2523181    1.7668484   -1.1871957 
12785000   0.91952903 6.0534078e-05   0.38293984  0.017175438            0    0.3657644    1.3620524    1.7449922     4.844337 
12790000   0.85181104 0.00011170724   0.46707818  0.012598962            0   0.45447922    1.2617451    1.7288233    7.4482338 
12795000   0.86254923 3.0360708e-05   0.43237889   0.01561179            0    0.4167671     1.277651    1.7100299    3.2644982 
12800000    0.9106698 -4.5375694e-05   0.36867269  0.015206734            0   0.35346595    1.3489296    1.7176023  -0.60563322 
12805000   0.80886036 -6.1815682e-05   0.51423766 0.0011052524            0   0.51313241    1.1981244    1.7123621   -1.4526009 
12810000   0.84936662 1.6997043e-05   0.45538504 0.0035212969            0   0.45186374    1.2581243    1.7135094     2.583758 
12815000   0.85973344 5.1908939e-05   0.44282696 0.0068004957            0   0.43602647    1.2734802    1.7163071    4.3740448 
12820000   0.82510542 -5.3248445e-05   0.51012498  0.013683548            0   0.49644144    1.2221874    1.7323124  -0.99400801 
12825000   0.90339416 -2.4297878e-05   0.39855322   0.03882184            0   0.35973138    1.3381526    1.7367058   0.49265447 
12830000   0.88941665 8.8569175e-05   0.42019168  0.029471345            0   0.39072034    1.3174484    1.7376401    6.2723818 
12835000   0.87844875 4.3282535e-06   0.43693497   0.03764626            0   0.39928871    1.3012022    1.7381372    1.9597438 
12840000   0.84183034 -1.5292796e-05   0.48483095  0.046537988            0   0.43829296    1.2469612    1.7317921     0.948801 
12845000   0.87718271 5.2831727e-05   0.43125866 0.0091446259            0   0.42211403    1.2993269    1.7305855      4.43557 
12850000   0.85843468 6.4559671e-05   0.47171793  0.010895063            0   0.46082287    1.2715564    1.7432743    5.0487295 
12855000   0.90836869 8.4180533e-05   0.43857245   0.02168452            0   0.41688793    1.3455211    1.7840936    6.0941369 
12860000   0.95447439 7.6862822e-06   0.37021062  0.018982302            0   0.35122832    1.4138152    1.7840258    2.1775635 
12865000   0.86914441 -6.3191301e-05    0.5057477  0.013197743            0   0.49254996    1.2874202    1.7931679   -1.4422267 
12870000   0.90947987 9.5765212e-05   0.45473899 0.0037562059            0   0.45098278    1.3471671     1.801906    6.7050849 
12875000    0.9202436 6.2626123e-05   0.41413482  0.003955177            0   0.41017964    1.3631108    1.7772456    4.9837031 
12880000   0.88718678 5.4142773e-05   0.44376254 0.0078834391            0    0.4358791    1.3141454     1.757908    4.5300179 
12885000    0.8944716 -1.2464265e-05   0.43351621  0.013665351            0   0.41985086    1.3249361    1.7584523    1.1202819 
12890000   0.89177157 -6.3622736e-05   0.44710971  0.017851394            0   0.42925831    1.3209366    1.7680463   -1.4894377 
12895000   0.89772457 4.6846273e-05   0.41335407 0.0056110265            0   0.40774304    1.3297545    1.7431086    4.1416377 
12900000   0.86016558 0.00013772047   0.48317182 0.00094945224            0   0.48222237    1.2741203    1.7572921    8.8085801 
12905000   0.95673479 2.5263208e-05   0.36755373 0.0022599769            0   0.36529376    1.4171634    1.7847171    3.0781934 
12910000   0.92528387 -6.9542975e-05    0.3992376  0.032506367            0   0.36673123    1.3705767    1.7698143    -1.790786 
12915000   0.89198069 -0.00011410483    0.4323007  0.061633718            0   0.37066698    1.3212464    1.7535471   -4.0886202 
12920000   0.88980712 -3.9092526e-05   0.48085362   0.04876026            0   0.43209336    1.3180268    1.7988804  -0.20265692 
12925000   0.84355617 4.2785502e-05   0.55074807  0.098052761            0    0.4526953    1.2495176    1.8002656    3.9908834 
12930000   0.84851972 -1.2960381e-05   0.53452968  0.038856138            0   0.49567354    1.2568698    1.7913995     1.127828 
12935000   0.93518384 -8.3035105e-05   0.42335975  0.015211861            0   0.40814789    1.3852411    1.8086008   -2.4427965 
12940000   0.93071687 -7.3556208e-05   0.47648065 0.0047343372            0   0.47174631    1.3786244     1.855105   -1.9109728 
12945000   0.97397727 -3.5623863e-06   0.42940207  0.012918745            0   0.41648332    1.4427038    1.8721059    1.6897117 
12950000   0.94535358 9.4899693e-05   0.48313823  0.025299555            0   0.45783868     1.400305    1.8834432    6.7423075 
12955000   0.93296073 7.5198863e-05   0.52207118  0.020725636            0   0.50134554    1.3819481    1.9040193    5.7542011 
12960000   0.90918553 -7.9406823e-05   0.56554128  0.057024402            0   0.50851688    1.3467311    1.9122723    -2.153357 
12965000   0.92855866 -0.00010375428   0.50508776  0.044501539            0   0.46058622    1.3754275    1.8805153   -3.4317037 
12970000   0.99780797 3.0962032e-05   0.43293597  0.025822381            0   0.40711359    1.4780031     1.910939    3.4961951 
12975000   0.98320353 5.0166938e-05   0.43840172 0.0092421131            0   0.42915961    1.4563702    1.8947719    4.4633192 
12980000   0.93306718 5.2964863e-06   0.50469917  0.014534762            0    0.4901644    1.3821058    1.8868049     2.157985 
12985000   0.95783294 7.8526623e-05   0.44652909  0.016828597            0    0.4297005      1.41879    1.8653191    5.8858822 
12990000   0.91758888 9.9030391e-06   0.49912334 0.0075302672            0   0.49159308    1.3591785    1.8583019    2.3653375 
12995000   0.94173384 -9.5026736e-05   0.49704389 0.0055198562            0   0.49152404    1.3949433    1.8919871   -2.9733818 
13000000    1.0012143 -7.8471707e-06   0.43645535 0.0037160096            0   0.43273934    1.4830487    1.9195041     1.517729 
13005000   0.92608512 0.00015201825   0.57522614 0.0030528109            0   0.57217333    1.3717636    1.9469897    9.7303242 
13010000   0.95180765  5.22958e-05   0.53684095 0.0086252676            0   0.52821568    1.4098651     1.946706     4.624251 
13015000   0.96711596 -4.2946975e-05   0.52774703  0.011130513            0   0.51661652    1.4325405    1.9602876  -0.23859756 
13020000    1.0445489 2.4600168e-05   0.40477186  0.012830838            0   0.39194102     1.547238    1.9520099    3.2115385 
13025000   0.95905479 -8.9574327e-05   0.53687844  0.031744212            0   0.50513422    1.4205999    1.9574783   -2.6287272 
13030000   0.97738147 -3.0367144e-05    0.4967296  0.015768496            0    0.4809611    1.4477463    1.9444759   0.38967815 
13035000    1.0071038 2.0105975e-05   0.44031583 0.0033228456            0   0.43699298    1.4917726    1.9320884    2.9615143 
13040000    1.0025133 -4.5537041e-06   0.46782079 0.0028816298            0   0.46493916    1.4849728    1.9527936    1.7196439 
13045000    1.0299808 -1.7482596e-05   0.41589238  0.016841755            0   0.39905063     1.525659    1.9415514    1.0464425 
13050000   0.97419968 -8.7527987e-05   0.49416448   0.01787533            0   0.47628915    1.4430333    1.9371977   -2.5442352 
13055000   0.92682636 -3.2112442e-05    0.5556165 0.0029257186            0   0.55269078    1.3728615     1.928478     0.284321 
13060000    1.0645718 -0.00010166566   0.34677492 0.0006750108            0   0.34609991     1.576897    1.9236719   -3.2816097 
13065000    1.0511578 -0.00013672593    0.3878556 0.0037253127            0   0.38413028    1.5570275    1.9448831   -5.0554843 
13070000   0.91944836 3.9704471e-05   0.60102114  0.011839145            0   0.58918199    1.3619329     1.962954    3.9958229 
13075000   0.98240313 0.00010080045   0.52425356  0.013261232            0   0.51099233    1.4551846    1.9794382    7.1404212 
13080000    1.0464498 -9.5094951e-07   0.44423186  0.028101715            0   0.41613014    1.5500537    1.9942856     1.945597 
13085000   0.95189989 -6.4149181e-05   0.55627337 0.0016301595            0   0.55464321    1.4100017    1.9662751    -1.318163 
13090000   0.92482064 -4.6288454e-06   0.58790993 0.0011729163            0   0.58673701    1.3698906    1.9578005    1.7208036 
13095000   0.98406834 2.7797636e-05    0.5059571 0.0082959888            0   0.49766111    1.4576512    1.9636083    3.3868473 
13100000    1.0140877 -9.0028625e-05   0.45615491  0.012900552            0   0.44325435    1.5021173    1.9582722   -2.6511934 
13105000    1.0270155 -4.8888217e-05   0.43356944  0.047355885            0   0.38621355    1.5212667    1.9548362  -0.54824056 
13110000   0.95073461 7.5227358e-05   0.54047011  0.014658713            0   0.52581139    1.4082756    1.9487457    5.8003865 
13115000    1.0024829 2.6735805e-05    0.4375897  0.010868719            0   0.42672098    1.4849277    1.9225174    3.2913907 
13120000   0.96127856 -7.8865012e-05   0.49993846   0.03317919            0   0.46675927    1.4238939    1.9238323   -2.1140563 
13125000    0.9921222 9.1221274e-05   0.45496482  0.032271537            0   0.42269328     1.469581    1.9245458    6.5950751 
13130000    0.9675092 0.00012843658   0.46390347 0.0053760307            0   0.45852744     1.433123    1.8970265    8.4729793 
13135000   0.98451085 -3.4440483e-05   0.47993667 0.0062819346            0   0.47365474    1.4583067    1.9382434   0.17489065 
13140000   0.96581432 -6.0580622e-05   0.50162485 0.0091681334            0   0.49245672    1.4306125    1.9322373   -1.1694905 
13145000    1.0081651 3.4579186e-06   0.42331565 0.0047758523            0    0.4185398    1.4933445    1.9166602    2.0937056 
13150000   0.98128722 3.1295004e-05   0.43764204 0.0083511977            0   0.42929084    1.4535317    1.8911737    3.4934779 
13155000   0.90885261 5.9312823e-05   0.52673115  0.043897737            0   0.48283341    1.3462379    1.8729691    4.9097856 
13160000    0.9522437 8.4021503e-05   0.44561429  0.030425722            0   0.41518856     1.410511    1.8561253    6.1580262 
13165000   0.92627047 6.4627343e-06   0.46589716   0.02333746            0    0.4425597    1.3720381    1.8379353    2.1688273 
13170000   0.95774603 -0.00012460433   0.43625361  0.031543392            0   0.40471022    1.4186613    1.8549149    -4.524827 
13175000    0.9914083 -7.013674e-05   0.37745603  0.034948105            0   0.34250792    1.4685235    1.8459796   -1.7450215 
13180000   0.93215153 -3.5364501e-05   0.43930157  0.024929803            0   0.41437177    1.3807494     1.820051 0.0093885686 
13185000   0.91480793 3.8461979e-05   0.49064531  0.014430095            0   0.47621522    1.3550593    1.8457046    3.8149579 
13190000   0.94245661 0.00011556205   0.46454972  0.025690969            0   0.43885875    1.3960138    1.8605636    7.7773405 
13195000   0.97487984 -7.9038609e-06   0.42699899  0.011868052            0   0.41513094    1.4440408    1.8710398    1.4663621 
13200000   0.96607084 -9.6577866e-06   0.43669815  0.014035396            0   0.42266275    1.4309924    1.8676906    1.3732119 
13205000   0.96938407 2.2171662e-05   0.42824695 0.0093558814            0   0.41889107    1.4359002    1.8641471    2.9993362 
13210000   0.90943514 -2.0464046e-05   0.51864307  0.021655006            0   0.49698807    1.3471008    1.8657439   0.81798472 
13215000    0.9413117 -4.4019463e-05    0.4833952  0.013744627            0   0.46965058     1.394318    1.8777132  -0.37608333 
13220000   0.98927462 -0.00013366273    0.4090874 0.0045134746            0   0.40457393     1.465363    1.8744504   -4.9690812 
13225000   0.94703885 -0.00010644386   0.46745846  0.011199337            0   0.45625913    1.4028013    1.8702598   -3.5796658 
13230000   0.97027776 -9.3141617e-05   0.47040997 0.0099552465            0   0.46045473    1.4372239    1.9076339   -2.8612169 
13235000    1.0018488 -6.5189974e-05   0.39813001 0.0021043011            0   0.39602571    1.4839885    1.8821185   -1.4556082 
13240000   0.99845227 1.8569981e-05   0.40472218   0.01643147            0   0.38829071    1.4789574    1.8836796    2.8344626 
13245000   0.90792669 -2.1293274e-05   0.55373992  0.013955464            0   0.53978446    1.3448664    1.8986063   0.80839071 
13250000    1.0246304 4.7752511e-05   0.39721874  0.012430583            0   0.38478816    1.5177338    1.9149525    4.3598811 
13255000   0.97993826 1.6406888e-06   0.44917481  0.032349986            0   0.41682482    1.4515336    1.9007084    1.9847116 
13260000   0.92193408 -1.1095691e-06   0.51218425  0.012814179            0   0.49937007    1.3656149    1.8777991    1.8209892 
13265000   0.90280503 6.5695133e-05   0.54161327   0.02590673            0   0.51570654      1.33728    1.8788932     5.242484 
13270000   0.92548583 -6.3047854e-06   0.50238776  0.017865849            0   0.48452191    1.3708759    1.8732636    1.5504586 
13275000   0.94293155 -2.295244e-06   0.43248031  0.012970302            0   0.41951001    1.3967174    1.8291977    1.7116812 
13280000   0.89446865 0.00012714871   0.51760706 0.0089776825            0   0.50862937    1.3249317    1.8425387    8.3525527 
13285000   0.91208937 3.3992317e-05   0.48745805  0.025189831            0   0.46226822    1.3510324    1.8384904    3.5788971 
13290000   0.94149416 -0.00010093675   0.47478715  0.029859502            0   0.44492765    1.3945882    1.8693754    -3.298586 
13295000   0.97763615 5.7057508e-05   0.41852059  0.031318432            0   0.38720216    1.4481235    1.8666441    4.7879885 
13300000   0.84353203 -2.9571602e-05   0.61171168  0.047401468            0   0.56431021    1.2494818    1.8611935   0.34712746 
13305000   0.90801873 -0.00014418361   0.52701531  0.024435607            0    0.5025797    1.3450027     1.872018   -5.5101828 
13310000    0.9121248 -1.9960679e-05   0.51982125  0.011987334            0   0.50783391    1.3510849    1.8709061   0.84891936 
13315000     1.029315 -1.605462e-05   0.37453074  0.014513003            0   0.36001774    1.5246728    1.8992036     1.077207 
13320000   0.91583805 7.5994003e-05   0.52429752  0.068255578            0   0.45604194    1.3565851    1.8808826    5.7717756 
13325000   0.89082244 7.9681297e-05   0.55905925  0.047204426            0   0.51185483    1.3195307      1.87859    5.9582724 
13330000   0.96900325 2.0043079e-05   0.42690272  0.015760239            0   0.41114248    1.4353361    1.8622388    2.8884444 
13335000    0.9471172 -4.9137481e-06   0.45608056 0.0026902277            0   0.45339033    1.4029174    1.8589979     1.607414 
13340000    1.0089283 -9.1090315e-05   0.37793727 0.0024769151            0   0.37546036    1.4944751    1.8724124   -2.7914118 
13345000   0.94996372 3.3010808e-05   0.46090076 0.0053101025            0   0.45559065    1.4071338    1.8680345    3.5581879 
13350000   0.92525283 7.5414887e-05    0.4807714  0.026219266            0   0.45455214    1.3705308    1.8513022    5.7125444 
13355000   0.90177909 -8.8632341e-05   0.47878248  0.039988069            0   0.43879442    1.3357603    1.8145428   -2.7234331 
13360000   0.90543886 -9.2240553e-05   0.43630195  0.016908482            0   0.41939347    1.3411813    1.7774833   -2.9452331 
13365000   0.90896704 2.487473e-06   0.43489497  0.016793682            0   0.41810128    1.3464074    1.7813024     1.908661 
13370000   0.85462694 8.3857868e-05   0.50616169  0.019700946            0   0.48646075    1.2659162    1.7720778    6.0656007 
13375000   0.83230649 4.8526149e-05   0.51965826  0.010691308            0   0.50896695     1.232854    1.7525122    4.2370511 
13380000   0.86105368 3.0682281e-05   0.47196988  0.021480865            0   0.45048902    1.2754358    1.7474057    3.3183384 
13385000   0.89562798 7.4899282e-05    0.4218597  0.040438349            0   0.38142135    1.3266489    1.7485086    5.5833519 
13390000    0.9057894 4.1522153e-05   0.41646334  0.037418809            0   0.37904454    1.3417006    1.7581639    3.8840981 
13395000   0.84108044 -8.0433537e-05    0.5506561 0.0099202908            0   0.54073581    1.2458504    1.7965065   -2.3216906 
13400000   0.92633316 -1.5566892e-05   0.41063369 0.0076693077            0   0.40296438     1.372131    1.7827647   0.98573981 
13405000   0.89046504 7.711781e-05   0.47383497  0.025902945            0   0.44793203    1.3190013    1.7928363    5.7412682 
13410000   0.87157185 -8.0113046e-05    0.5158954  0.015102897            0    0.5007925    1.2910158    1.8069112   -2.2948768 
13415000   0.95014999 -8.6386798e-06   0.38569551  0.010861903            0   0.37483361    1.4074097    1.7931052    1.3508048 
13420000   0.94126405 0.00017621648   0.43835735  0.017315134            0   0.42104221    1.3942474    1.8326047    10.854889 
13425000    0.9078462 -2.2329741e-05   0.48799603  0.031230963            0   0.45676507    1.3447472    1.8327432   0.68946048 
13430000   0.88672629 -7.8244623e-05   0.51583331  0.055372146            0   0.46046116    1.3134633    1.8292966   -2.1768281 
13435000   0.92068459 0.00015487086   0.45739758  0.013200162            0   0.44419742     1.363764    1.8211616    9.7505499 
13440000   0.92120585 3.8869458e-05   0.44898302  0.020907476            0   0.42807555    1.3645362    1.8135192    3.8036354 
13445000   0.88192815 -5.8838872e-05    0.4844854  0.015713671            0   0.46877173    1.3063561    1.7908415   -1.2217088 
13450000   0.90246785 -2.3001093e-06   0.43574516  0.025184371            0   0.41056079    1.3367805    1.7725257    1.6547601 
13455000   0.85647666 6.3585242e-05   0.50331499 0.0039657608            0   0.49934923    1.2686561     1.771971    5.0275354 
13460000   0.87740809 -5.4170129e-05   0.45456389 0.0034615595            0   0.45110233    1.2996607    1.7542246    -1.019286 
13465000   0.84904148 -2.1227622e-06   0.53112519   0.01560057            0   0.51552462    1.2576427    1.7887679    1.6800825 
13470000   0.89775406 7.6059544e-05   0.46053124  0.030879993            0   0.42965125    1.3297982    1.7903294    5.6845781 
13475000   0.85027583 -3.2667823e-05   0.55182575  0.022509794            0   0.52931595    1.2594711    1.8112968   0.13870431 
13480000   0.93411014 2.506217e-05   0.43799208 0.0095768628            0   0.42841522    1.3836506    1.8216427    3.1048258 
13485000   0.89676444 0.00016323746   0.48145239 0.0093916578            0   0.47206074    1.3283323    1.8097847    10.167543 
13490000   0.92573755 1.7189185e-05    0.4405461  0.030445086            0   0.41010101    1.3712487    1.8117948    2.6918811 
13495000   0.94010228 -2.531711e-05   0.40390997  0.041774753            0   0.36213521    1.3925265    1.7964365   0.50020042 
13500000   0.91085935 1.2185712e-05   0.43305239 0.0065935623            0   0.42645883    1.3492104    1.7822628    2.4061712 
13505000   0.90002733 -3.3442347e-05   0.44953583 0.00042625627            0   0.44910957    1.3331655    1.7827013  0.070453136 
13510000   0.90581482 -5.2255263e-05   0.41132302  0.019174293            0   0.39214873    1.3417382    1.7530612  -0.92240822 
13515000   0.86010225 8.0126491e-05   0.49278312  0.049709651            0   0.44307346    1.2740265    1.7668096    5.8692859 
13520000   0.87709531 0.00016325416   0.47956138  0.034720188            0   0.44484119    1.2991974    1.7787588    10.137372 
13525000    0.9284237  0.000172616   0.39602665  0.006722993            0   0.38930366    1.3752276    1.7712543    10.609194 
13530000   0.91135921 6.6258042e-05   0.44360707 0.0038216458            0   0.43978542    1.3499508    1.7935579    5.1859697 
13535000   0.88725836 -9.3787969e-05   0.47495227 0.0047897875            0   0.47016248    1.3142514    1.7892037   -3.0127403 
13540000   0.93927831 -2.4961346e-05   0.42834272 0.0053027031            0   0.42304002     1.391306    1.8196487   0.54162778 
13545000   0.97154507 5.4520383e-05   0.41742938 0.0052853298            0   0.41214406    1.4391011    1.8565305    4.6479742 
13550000   0.92690966 2.3724656e-05   0.47821739 0.0037692488            0   0.47444814    1.3729849    1.8512023    3.0659047 
13555000   0.94361735 2.687918e-05   0.46410167 0.0082275138            0   0.45587416    1.3977332    1.8618349    3.2380489 
13560000   0.96619436 -0.00014054281   0.48721492  0.012153444            0   0.47506148    1.4311754    1.9183903   -5.2774018 
13565000    1.0115622 -0.00010328069   0.43173438 0.0091637758            0    0.4225706    1.4983765    1.9301109   -3.3578604 
13570000   0.90108514 0.00015382623   0.59834928   0.06220858            0    0.5361407    1.3347324    1.9330816    9.8089849 
13575000   0.99997867 0.00011974645   0.44597526  0.010583343            0   0.43539192    1.4812184    1.9271937     8.058212 
13580000    1.0191974 6.187925e-06   0.38439225 0.00069740975            0   0.38369484    1.5096861    1.8940784    2.2109001 
13585000   0.90874979 -6.7512378e-05   0.53582408 0.0033853631            0   0.53243872    1.3460856    1.8819097   -1.5747241 
13590000   0.96912551 -4.6084115e-05   0.43452422  0.011388739            0   0.42313548    1.4355172    1.8700414  -0.48946533 
13595000   0.93990696 -2.2297211e-05   0.47943183  0.050368321            0   0.42906351    1.3922372     1.871669   0.73005183 
13600000   0.91159795 -0.000103216   0.52912926  0.054616832            0   0.47451243    1.3503045    1.8794337   -3.4052255 
13605000   0.94884602 2.0127791e-06   0.44341493  0.021263486            0   0.42215144    1.4054782    1.8488931    1.9519474 
13610000   0.90473875 6.635279e-05   0.51148692   0.03934822            0    0.4721387    1.3401443    1.8516312    5.2488941 
13615000    0.9720573 -2.4209976e-06   0.41059784  0.033625505            0   0.37697234    1.4398599    1.8504577    1.7265026 
13620000   0.93504861 -1.9918096e-05   0.46808917  0.005549956            0   0.46253922    1.3850408    1.8531299   0.83332343 
13625000   0.93138047 -4.0639992e-05   0.42678493 0.00034364953            0   0.42644128    1.3796073    1.8063923  -0.27437534 
13630000   0.92380222 -0.00010114139   0.46692661 0.0031174451            0   0.46380917     1.368382    1.8353087   -3.3431307 
13635000   0.92440865 2.5963961e-05   0.45243644  0.019402939            0    0.4330335    1.3692803    1.8217167    3.1510715 
13640000   0.96311823 -6.6071093e-05   0.40909723  0.021048307            0   0.38804892    1.4266189    1.8357161   -1.5471239 
13645000   0.92636103 -0.00015360481   0.46077619  0.034190267            0   0.42658592    1.3721723    1.8329485    -6.031618 
13650000   0.92326672 -3.0685787e-05   0.47844916  0.021092715            0   0.45735644    1.3675888     1.846038    0.2749257 
13655000   0.93514679 1.5198024e-05   0.46724084  0.022213101            0   0.44502774    1.3851862     1.852427    2.6305658 
13660000   0.94556585 4.5197136e-05   0.45809971  0.043222638            0   0.41487708    1.4006194    1.8587191    4.1728125 
13665000   0.90857514 -6.5894389e-05    0.4874583  0.024516961            0   0.46294134    1.3458269    1.8332852   -1.5405075 
13670000   0.90123617 -0.00011341598   0.48555545   0.01250238            0   0.47305307    1.3349561    1.8205115   -3.9863866 
13675000   0.95946111 -8.8091202e-05   0.41357753 0.0046336709            0   0.40894386    1.4212018    1.8347793   -2.6754903 
13680000   0.96218127 0.00012167087   0.40612246 0.0049400356            0   0.40118243     1.425231    1.8313535    8.0609022 
13685000   0.90393907 2.4156841e-05   0.46288506  0.016702285            0   0.44618278    1.3389597    1.8018448    3.0386751 
13690000   0.93514498 4.4611865e-05    0.4199468  0.015133159            0   0.40481364    1.3851835    1.8051303    4.0892578 
13695000     1.005331 6.2641657e-05   0.33045186  0.010814548            0   0.31963731    1.4891466    1.8195984    5.0268513 
13700000   0.94043041 2.9870004e-05   0.44100269 0.0085652425            0   0.43243744    1.3930125    1.8340152    3.3633594 
13705000   0.95542809 7.2799842e-05    0.4366623  0.014323663            0   0.42233864    1.4152279    1.8518902    5.5792421 
13710000   0.89987989 2.7215845e-05   0.47282894  0.025737095            0   0.44709184    1.3329471     1.805776    3.1992273 
13715000   0.92246303 3.4679184e-06   0.44242644  0.074854955            0   0.36757149    1.3663984    1.8088248    1.9863822 
13720000    0.9733023 4.9871528e-05    0.3882123  0.013458785            0   0.37475352     1.441704    1.8299163    4.3833386 
13725000   0.90614407 0.00017777076   0.48871822 0.0061438812            0   0.48257434    1.3422259    1.8309441    10.932807 
13730000   0.98415972 8.3591395e-05   0.40843493  0.020521827            0    0.3879131    1.4577866    1.8662215    6.1461009 
13735000   0.94844093 -0.00011569806   0.44183073  0.021796501            0   0.42003422    1.4048781    1.8467089   -4.0770321 
13740000   0.93181399 -5.2806135e-05   0.48312418 0.0047289389            0   0.47839524    1.3802495    1.8633737  -0.84030048 
13745000   0.88531853 4.1811396e-07   0.52276381 0.0041782825            0   0.51858553    1.3113781    1.8341419    1.8555493 
13750000   0.91766872 -4.2698472e-05   0.47018596  0.014798024            0   0.45538793    1.3592968    1.8294827  -0.35667901 
13755000   0.97753105 0.00010534128   0.39984287 0.0086088343            0   0.39123404    1.4479679    1.8478107    7.2412842 
13760000   0.94396836 1.0651035e-05   0.46740593 0.0066962688            0   0.46070966    1.3982531    1.8656591     2.410992 
13765000   0.91487392 2.5592578e-05   0.51367786 0.0063697723            0   0.50730809     1.355157    1.8688348    3.1791748 
13770000   0.90972801 2.8760081e-05   0.49474927  0.020975923            0   0.47377335    1.3475346    1.8422839       3.3148 
13775000   0.94390938 -0.00010472112   0.43781025  0.030140308            0   0.40766994    1.3981658     1.835976   -3.5257453 
13780000   0.88722875 -0.0001510309   0.51560403   0.01576198            0   0.49984205    1.3142076    1.8298116   -5.9029706 
13785000   0.96428005 -0.00013737912    0.4205864   0.01858607            0   0.40200033    1.4283398    1.8489262   -5.1848847 
13790000   0.95477891 0.00012551983    0.4402436 0.0076416238            0   0.43260198    1.4142663    1.8545099     8.281125 
13795000   0.89750359 0.00010947559   0.55691963  0.001610653            0   0.55530897    1.3294272    1.8863468    7.4914971 
13800000   0.94137674 -1.0729289e-05   0.50085726  0.004114028            0   0.49674323    1.3944143    1.8952716     1.345932 
13805000    0.9672128 -2.0830797e-05   0.45052076 0.0047363766            0   0.44578439     1.432684    1.8832047   0.81666792 
13810000   0.96250106 -9.3025824e-05   0.45468008 0.0038572366            0   0.45082285    1.4257047    1.8803848   -2.8825374 
13815000   0.95043277 6.3942322e-06   0.49374027  0.006350321            0   0.48738995    1.4078285    1.9015688    2.2289535 
13820000    1.0234021 6.740616e-06   0.39826061 0.0081098013            0   0.39015081    1.5159143     1.914175    2.2592945 
13825000   0.90666783 -0.00010603463   0.58440559 0.0056688998            0   0.57873669    1.3430017    1.9274073   -3.5015657 
13830000   0.92978508 3.8072855e-05   0.58102178 0.0017871166            0   0.57923466    1.3772441    1.9582659    3.9075961 
13835000   0.98483616 -4.1358531e-05   0.52657189 0.00080705052            0   0.52576484    1.4587886    1.9853605  -0.13219635 
13840000   0.98960061 -5.1734934e-05   0.52324094 0.0042591325            0   0.51898181    1.4658459    1.9890868  -0.65974176 
13845000    1.0266064 4.0350133e-05    0.4477292 0.0076710967            0   0.44005811    1.5206608      1.96839    4.0343168 
13850000    1.0415027 -4.922272e-05   0.45212606 0.0024503074            0   0.44967575    1.5427259     1.994852  -0.52535131 
13855000    1.0122354 3.2549484e-05   0.51378254 0.0033749551            0   0.51040758    1.4993737    2.0131562    3.6796898 
13860000    1.0188923 -1.7705729e-05   0.51620583  0.016369532            0    0.4998363    1.5092342      2.02544    1.1189067 
13865000    1.0251383 -2.0312547e-05   0.50813932 0.0070938828            0   0.50104544    1.5184861    2.0266254   0.98662299 
13870000   0.88625226 -4.760086e-05   0.68618665  0.049654346            0    0.6365323    1.3127612    1.9989478   -0.4382162 
13875000    0.9428934 -1.1395638e-05   0.60609955  0.023829802            0   0.58226975    1.3966608    2.0027604    1.4193037 
13880000    1.0532321 -0.00012816021   0.46817933 0.0097065361            0   0.45847279    1.5601001    2.0282794   -4.5335233 
13885000   0.99503831 -8.9995943e-05   0.53787783 0.0016067896            0   0.53627104    1.4739005    2.0117783   -2.5960139 
13890000    0.9929009 9.6346236e-05   0.53804886 0.0061673197            0   0.53188154    1.4707345    2.0087833    6.9417106 
13895000   0.97921259 6.3946453e-05   0.57308756  0.030181983            0   0.54290557    1.4504586    2.0235462    5.2976046 
13900000   0.98330745 -1.0177504e-07   0.55740048  0.012363729            0   0.54503675    1.4565242    2.0139246    2.0087138 
13905000    1.0383916 -8.7918851e-05   0.47360499 0.0084152318            0   0.46518976    1.5381176    2.0117226   -2.4897225 
13910000   0.97538167 -3.8898554e-05   0.57677442  0.032380828            0   0.54439359    1.4447841    2.0215585  0.029952544 
13915000    1.0183959 0.00017881788   0.54778743 0.0052233172            0   0.54256411    1.5084989    2.0562863    11.211762 
13920000    1.0255099 7.9507266e-05   0.52455478 0.0055035113            0   0.51905127    1.5190366    2.0435914    6.1143634 
13925000   0.99135603 4.2727742e-05   0.57593521  0.032556202            0   0.54337901    1.4684461    2.0443813    4.2320417 
13930000    1.0521577 4.1828153e-05   0.48248531  0.032532209            0    0.4499531    1.5585086    2.0409939    4.1825953 
13935000    1.0015094 -4.3956232e-06   0.54177102  0.009633892            0   0.53213713    1.4834857    2.0252568    1.8002008 
13940000   0.98010074 5.2401648e-05   0.58981009  0.018608533            0   0.57120156    1.4517742    2.0415843    4.7245487 
13945000   0.96069082 -3.276523e-05   0.59985411  0.094525973            0   0.50532814    1.4230233    2.0228774   0.34529763 
13950000    1.0286716 6.132808e-05   0.50141046  0.019172053            0   0.48223841    1.5237198    2.0251303     5.165128 
13955000    1.0205927 0.00011727992   0.50966423  0.010687517            0   0.49897671    1.5117529    2.0214172    8.0261491 
13960000   0.98550405 -0.00010205408   0.57448765  0.024358639            0   0.55012901    1.4597779    2.0342655   -3.1909032 
13965000   0.97022145 -5.5865917e-05   0.55328968  0.013214196            0   0.54007548    1.4371405    1.9904302  -0.86990478 
13970000    1.0295568 -5.7665247e-05   0.47556177 0.0019319379            0   0.47362983     1.525031    2.0005928  -0.95186787 
13975000    1.0363529 -2.6206641e-05   0.49479113 0.0025041181            0   0.49228701    1.5350977    2.0298888   0.68810882 
13980000     1.016352 0.00017208029   0.54043069 0.0064678454            0   0.53396284    1.5054715    2.0459021    10.856413 
13985000   0.94706469 1.6909131e-05   0.63151699  0.014233702            0   0.61728329    1.4028396    2.0343566    2.9001041 
13990000   0.97587752 0.00011582145   0.57010488  0.011815537            0   0.55828934    1.4455186    2.0156235    7.9456817 
13995000    1.0377912 0.0001283476   0.51122068  0.006169608            0   0.50505107    1.5372282    2.0484489    8.6198461 
14000000   0.90967148 -1.0014575e-05   0.67541968   0.02433055            0   0.65108913    1.3474509    2.0228706    1.5101243 
14005000    1.0336759 4.9871725e-05   0.52846432  0.039840424            0    0.4886239    1.5311324    2.0595968    4.6130291 
14010000   0.96302055 -5.0287756e-05   0.64637384  0.024760266            0   0.62161357    1.4264742     2.072848  -0.50188509 
14015000   0.95202283 -7.8810342e-05   0.66031589  0.023072557            0   0.63724333    1.4101838    2.0704997   -1.9645898 
14020000   0.97101183 -6.5542955e-06    0.6163901  0.012255278            0   0.60413482    1.4383113    2.0547014    1.7191214 
14025000    1.0338006 -3.4346374e-05   0.53015264  0.023950061            0   0.50620258    1.5313171    2.0614697    0.3029354 
14030000   0.97756815 -0.00014777057   0.61841729  0.029924198            0   0.58849309    1.4480228    2.0664401    -5.499413 
14035000    1.0813517 -0.00011026221   0.43027576  0.020372171            0   0.40990359    1.6017522     2.032028   -3.6133974 
14040000   0.98092136 8.3111498e-05   0.59487322  0.053933102            0   0.54094012    1.4529898     2.047863    6.3031717 
14045000    1.0154043 6.1565244e-05   0.51775047  0.072430319            0   0.44532015    1.5040676    2.0218181    5.1739586 
14050000   0.89094343 -0.00017894454   0.71835447   0.01911511            0   0.69923936    1.3197099    2.0380644   -7.1238958 
14055000    1.0184181 1.6191252e-05   0.51945453 0.0094188601            0   0.51003567    1.5085318    2.0279863    2.8569784 
14060000    1.0010518 -8.4887192e-05   0.51794329 0.0037984115            0   0.51414488     1.482808    2.0007513   -2.3454729 
14065000   0.96368818 -0.0001603334   0.57746967  0.041769487            0   0.53570018    1.4274631    2.0049328   -6.2041371 
14070000    1.0058228 7.4617331e-05   0.53766445  0.045715443            0   0.49194901    1.4898751    2.0275395    5.8479468 
14075000   0.86472806 0.00014939057   0.71348078  0.039264696            0   0.67421608    1.2808784    1.9943592    9.6431565 
14080000   0.99222936 1.1318623e-06   0.51916782  0.031606894            0   0.48756092    1.4697397    1.9889076    2.0468589 
14085000   0.95565734 -3.5855942e-05    0.6047913  0.037417232            0   0.56737407    1.4155674    2.0203587   0.18453451 
14090000    1.0378817 -6.7658988e-05   0.49809688  0.020795143            0   0.47730174    1.5373623    2.0354591    -1.428681 
14095000    1.0356146 3.6927268e-05   0.52786989 0.00035695753            0   0.52751294    1.5340041     2.061874    3.9525501 
14100000    1.0594009 0.00019769362   0.48904238 0.00060889537            0   0.48843349    1.5692375    2.0582799    12.180193 
14105000    1.0045123 -0.00010829711   0.56849693 0.0050118296            0    0.5634851    1.4879339    2.0564308   -3.4883811 
14110000    1.0384645 -0.00012813449   0.53605066  0.015035506            0   0.52101515    1.5382256    2.0742763   -4.4862095 
14115000    1.0163297 -3.7549977e-05   0.56985237  0.010103929            0   0.55974844    1.5054384    2.0752908   0.15273197 
14120000    1.0187998 -2.3313333e-05   0.54421466  0.016109335            0   0.52810532    1.5090972    2.0533119   0.85966921 
14125000   0.99385685 0.00010257987   0.59401765   0.03486563            0   0.55915202    1.4721505    2.0661681    7.3182572 
14130000   0.98759331 -7.8013717e-05   0.60372508  0.051323309            0   0.55240177    1.4628726    2.0665977   -1.9277046 
14135000    1.0353795 -0.00014438545   0.53253929  0.039394809            0   0.49314449    1.5336559    2.0661952     -5.32634 
14140000    1.0176859 -8.6811241e-05   0.55968805    0.0337087            0   0.52597935    1.5074472    2.0671352   -2.3776003 
14145000    1.0161524 1.9761635e-05   0.59696088  0.018192748            0   0.57876813    1.5051758    2.1021367    3.1139324 
14150000    1.0700793 9.1754042e-05   0.51855953 0.0040234773            0   0.51453606     1.585055    2.1036145    6.8014215 
14155000    1.0572809 -9.1554663e-06   0.56226332  0.010037306            0   0.55222602    1.5660974    2.1283607    1.6596008 
14160000    1.0186917 8.2164756e-05   0.63264473 0.0084603267            0    0.6241844    1.5089371    2.1415818    6.3484174 
14165000    1.1177062 4.540504e-05   0.51355248  0.013134265            0   0.50041822    1.6556023    2.1691547    4.4938928 
14170000     1.107933 -2.9555827e-05   0.54373826   0.02817508            0   0.51556318    1.6411258    2.1848641   0.67160574 
14175000    1.0871008 -8.881734e-05    0.5727404  0.015405951            0   0.55733445     1.610268    2.1830084   -2.3644394 
14180000   0.97181096 -0.00012973136   0.73779787  0.046706289            0   0.69109158     1.439495    2.1772929   -4.4649526 
14185000    1.1323562 -0.00017688085   0.53618296  0.019636292            0   0.51654667    1.6773026    2.2134856   -6.8428137 
14190000    1.2042859 -9.1723124e-05   0.43686746 0.0045411668            0    0.4323263    1.7838485     2.220716    -2.475508 
14195000    1.1515916 7.0579911e-05   0.52966108 0.0060741856            0    0.5235869    1.7057951    2.2354562    5.8491476 
14200000    1.0797634 6.8524649e-05   0.61898539 0.0067488864            0    0.6122365    1.5993995    2.2183849    5.7268469 
14205000    1.0643995 0.00013330069   0.63202234  0.023422182            0   0.60860016    1.5766418    2.2086641    9.0336595 
14210000    1.1332005 1.6156956e-05   0.50874841  0.019218893            0   0.48952952    1.6785533    2.1873017    3.0145378 
14215000    1.1839339 -3.3489706e-05    0.4223351 0.0040623532            0   0.41827275    1.7537021    2.1760372   0.46136424 
14220000    1.0077873 -3.1401587e-05   0.66511194  0.023812072            0   0.64129987    1.4927849    2.1578968   0.55013555 
14225000   0.98384943 -2.7309507e-05   0.67085746  0.031833136            0   0.63902432     1.457327    2.1281844   0.72993768 
14230000    1.0316073 4.4012658e-05   0.61695437  0.032846363            0   0.58410801    1.5280683    2.1450226    4.3984707 
14235000    1.1210678 6.6099186e-05   0.50869458  0.026272826            0   0.48242175    1.6605817    2.1692762    5.5535546 
14240000    1.1476848 -2.4433422e-05   0.48624121   0.01650191            0    0.4697393    1.7000081    2.1862493   0.93525814 
14245000    1.0444625 -4.8086872e-05   0.67061994  0.028035348            0    0.6425846    1.5471101    2.2177301  -0.24431778 
14250000    1.0969715 -0.00010784375   0.59059739  0.033451922            0   0.55714547     1.624889    2.2154864   -3.3061137 
14255000    1.1237608 -0.00010559342   0.59120137  0.018122903            0   0.57307847    1.6645707    2.2557721   -3.1506111 
14260000    1.1238393 5.5200108e-05   0.57530117     0.011497            0   0.56380417    1.6646869    2.2399881    5.0662336 
14265000    1.0759738 0.00011497996   0.63995768  0.019618832            0   0.62033884    1.5937862    2.2337438    8.1207178 
14270000     1.152272 4.5800696e-05   0.53899941  0.038135918            0   0.50086349    1.7068029    2.2458023    4.5907979 
14275000    1.1796717 -4.3680373e-06    0.5008798  0.042909883            0   0.45796991    1.7473886    2.2482684    2.0246249 
14280000    1.0522329 1.698374e-05   0.68674979  0.040224403            0   0.64652539    1.5586199    2.2453697    3.1149372 
14285000    1.1106771 -5.9639062e-05   0.57090566  0.030453767            0    0.5404519    1.6451904    2.2160961   -0.8374239 
14290000    1.1554961 -7.3280662e-05   0.51279652 0.0073720471            0   0.50542448    1.7115786    2.2243751   -1.5275948 
14295000     1.121295 -2.5699703e-06   0.56735079 0.0076528538            0   0.55969794    1.6609182     2.228269    2.0966865 
14300000    1.1135406 -6.8792355e-05   0.58647507 0.0074595361            0   0.57901553     1.649432     2.235907   -1.2862616 
14305000    1.1445532 -7.2217511e-05   0.53945767  0.001224222            0   0.53823345    1.6953694    2.2348271   -1.4627095 
14310000    1.0782238 -5.6949518e-06   0.60463295 9.3582446e-05            0   0.60453937    1.5971191     2.201752    1.9101705 
14315000    1.1442863 0.00011302592   0.51361591  0.002287178            0   0.51132874    1.6949741    2.2085901     7.995517 
14320000    1.0639103 0.00013000026   0.64506606  0.040683125            0   0.60438294    1.5759172    2.2209833    8.8769966 
14325000    1.0845602 0.00012239695   0.60343061  0.021677537            0   0.58175308    1.6065048    2.2099354    8.4766594 
14330000     1.068977 0.00011522921   0.59376188 0.0088212393            0   0.58494064    1.5834222    2.1771841    8.0769198 
14335000    1.0739262 -0.0001151838   0.60067172 0.0038256074            0   0.59684611    1.5907531    2.1914248   -3.7059856 
14340000    1.1087599 8.7481924e-05   0.55563125 0.0025854344            0   0.55304581    1.6423505    2.1979818    6.6770563 
14345000    1.0579187 0.00010443289    0.6256426 0.0053533576            0   0.62028924     1.567042    2.1926846    7.5396484 
14350000    1.0742626 -0.00017353421   0.60088346 0.0071531827            0   0.59373028    1.5912515     2.192135   -6.6928165 
14355000    1.1589133 2.2789866e-06   0.48223046 0.0041259461            0   0.47810451    1.7166403    2.1988708    2.3155549 
14360000    1.0750607 1.4694803e-05   0.63486467  0.012451914            0   0.62241275    1.5924337    2.2272984    2.9796722 
14365000    1.1445533 4.6412593e-05   0.50064579  0.036988347            0   0.46365744    1.6953696    2.1960154    4.5723402 
14370000    1.0988852 -3.0583759e-05   0.56991575  0.024973435            0   0.54494231    1.6277236    2.1976394   0.63175094 
14375000    1.1377038 1.3172605e-05   0.49403333  0.003108308            0   0.49092502    1.6852237    2.1792571    2.8536944 
14380000    1.0863649 0.00013866964   0.53546088  0.013202227            0   0.52225865     1.609178    2.1446389    9.2445245 
14385000    1.0720671 8.2894187e-05   0.56617772 0.0015820624            0   0.56459566    1.5879994    2.1541771    6.3983595 
14390000    1.1577071 3.7697909e-05   0.42803655 0.00084711217            0   0.42718944    1.7148537    2.1428903    4.0730232 
14395000    1.1121463 -0.00012435444   0.48221476  0.016422442            0   0.46579232    1.6473666    2.1295814   -4.2373659 
14400000    1.0560283 -2.3370314e-05   0.57535001  0.026486843            0   0.54886316     1.564242     2.139592   0.94303191 
14405000    1.0786829 0.00011889062   0.56155153    0.0273502            0   0.53420133     1.597799    2.1593505    8.2465505 
14410000     1.097227 0.00011981569   0.55091057  0.021707553            0   0.52920301    1.6252675     2.176178    8.3107411 
14415000    1.1270983 1.0955891e-05    0.5221637  0.059854636            0   0.46230906    1.6695144    2.1916781    2.7526197 
14420000    1.1296493 -6.8274143e-05   0.52596895  0.031242268            0   0.49472668     1.673293     2.199262   -1.2963741 
14425000    1.1155934 2.2343746e-05   0.56530895 0.0080367253            0   0.55727223    1.6524728    2.2177817    3.3617815 
14430000    1.1420503 0.00017955131   0.53932255  0.023754886            0   0.51556767     1.691662    2.2309845    11.424012 
14435000    1.1184558 0.00012154016   0.56727161   0.01490519            0   0.55236642    1.6567127    2.2239843    8.4468403 
14440000    1.1347434 3.4244884e-05    0.5556952  0.011312687            0   0.54438251    1.6808386    2.2365338    3.9898719 
14445000    1.1047467 -0.00012000622   0.62254406 0.0061728718            0   0.61637119     1.636406    2.2589501   -3.8853684 
14450000    1.1264162 -0.00011551294   0.56941121 0.0043161852            0   0.56509502     1.668504    2.2379152   -3.6763473 
14455000    1.1105717 9.0371844e-05   0.59749572  0.021066004            0   0.57642971    1.6450343      2.24253    6.8695684 
14460000    1.1482881 4.1583949e-05   0.54410157 0.0029157963            0   0.54118577    1.7009018    2.2450034    4.3741015 
14465000    1.1409056 -2.3086311e-05   0.55237283  0.018027596            0   0.53434523    1.6899665    2.2423393    1.0603202 
14470000    1.0806816 3.7182607e-05   0.67475138   0.03351156            0   0.64123982    1.6007596     2.275511    4.1792605 
14475000    1.1977049 5.1564732e-05   0.53037471   0.02179834            0   0.50857637    1.7741004    2.3044751    4.9445894 
14480000    1.1570337 -5.9841698e-05   0.56896567  0.031097524            0   0.53786814    1.7138561    2.2828218  -0.78107313 
14485000    1.1581451 -0.00015260227   0.56446877  0.019276051            0   0.54519272    1.7155024    2.2799712   -5.5332652 
14490000    1.1306365 -7.9338298e-05   0.54678054  0.012356898            0   0.53442364    1.6747553    2.2215358    -1.840585 
14495000    1.1325331 8.2066088e-05   0.52385729   0.03224002            0   0.49161727    1.6775646    2.2014219    6.4032056 
14500000    1.0777271 7.6290308e-05   0.60268529  0.013688152            0   0.58899714    1.5963832    2.1990685    6.1051323 
14505000    1.0106296 3.6935998e-05   0.69059947  0.023175462            0   0.66742401    1.4969951    2.1875946    4.0787177 
14510000    1.0874447 5.6261036e-05   0.57810499  0.018487158            0   0.55961784    1.6107774    2.1888824    5.0694475 
14515000    1.1105296 2.3546946e-05   0.55857589 0.0082874203            0   0.55028847     1.644972    2.2035478    3.4091515 
14520000    1.1860445 1.1962528e-05   0.44569701 0.0083307642            0   0.43736625    1.7568284    2.2025254    2.8150068 
14525000    1.0492902 -4.5405068e-05   0.64170968 0.0022863984            0   0.63942328    1.5542611    2.1959707  -0.12876876 
14530000    1.0023659 -1.3995014e-05   0.72656908  0.006939424            0   0.71962966    1.4847544    2.2113235    1.4947788 
14535000    1.0062637 0.00010989319   0.72447777  0.040117091            0   0.68436068    1.4905281    2.2150059    7.8415372 
14540000     1.095315 0.00010710635   0.62256853  0.025572459            0   0.59699607    1.6224353    2.2450038    7.7288489 
14545000    1.1306007 -5.0939906e-05   0.57054458 0.0031287314            0   0.56741585    1.6747023    2.2452469  -0.36287634 
14550000    1.0112394 -0.00017480153   0.74180932 0.00078739303            0   0.74102192    1.4978983    2.2397076   -6.7101308 
14555000    1.0378646 -0.00010214615   0.65739347 0.0041692732            0   0.65322419    1.5373369    2.1947304   -3.0351525 
14560000    1.1859839 -2.6184876e-05   0.44295136  0.019256991            0   0.42369437    1.7567387      2.19969   0.85902437 
14565000    1.1161982 2.8000354e-05   0.55803447  0.010344315            0   0.54769015    1.6533686     2.211403    3.6450211 
14570000       1.1354 0.00011394113   0.50652368 0.0045189606            0   0.50200472    1.6818113     2.188335    8.0221208 
14575000    1.0797753 8.3484181e-05   0.59302186 0.0037999498            0   0.58922191    1.5994171     2.192439     6.466829 
14580000    1.2385149 2.5893063e-05   0.36163878 0.0051476909            0   0.35649109    1.8345502     2.196189    3.5219138 
14585000    1.1442872 -6.782303e-05   0.50222284 0.0069760504            0   0.49524679    1.6949754    2.1971983   -1.2753409 
14590000     1.093559 -7.8993226e-05   0.58302699  0.016396299            0   0.56663069    1.6198343    2.2028613   -1.8415919 
14595000    1.0851534 9.9258713e-06   0.55353708  0.020672947            0   0.53286413    1.6073835    2.1609206    2.6691252 
14600000    1.1477084 -1.5937106e-05   0.47374609  0.012596716            0   0.46114937     1.700043    2.1737891    1.3578093 
14605000    1.0915965 -6.9127866e-05    0.5509148  0.018084761            0   0.53283004    1.6169273    2.1678421   -1.3715047 
14610000    1.0281371 -3.9306481e-06   0.63051088  0.043945973            0   0.58656491     1.522928    2.1534389    1.9521897 
14615000    1.0802093 4.8659386e-05   0.59042441  0.040698066            0   0.54972635      1.60006    2.1904844     4.681845 
14620000    1.1124723 6.9218945e-05   0.52079081 0.0096052672            0   0.51118555    1.6478496    2.1686404    5.7126504 
14625000    1.0888226 1.4013008e-05   0.57200785  0.041948732            0   0.53005912    1.6128184    2.1848263    2.9022923 
14630000    1.1234503 -6.2187896e-05   0.50926722 0.0023819677            0   0.50688525    1.6641107    2.1733779   -1.0106424 
14635000    1.0845848 -3.3873606e-05   0.56688571  0.029198874            0   0.53768684    1.6065412    2.1734269   0.43909829 
14640000    1.0797361 3.9009752e-05   0.54194468  0.022788011            0   0.51915667     1.599359    2.1413037     4.138603 
14645000   0.99795984 5.2689483e-05   0.62573521  0.016420369            0   0.60931484     1.478228    2.1039632    4.8016648 
14650000    1.0037387 -0.00011149274    0.6292465  0.021703765            0   0.60754274     1.486788    2.1160345   -3.5923936 
14655000   0.98236091 -0.00012115263   0.64403227  0.012832634            0   0.63119963    1.4551221    2.0991544   -4.1038601 
14660000    1.1002871 -7.9255969e-05   0.46674495  0.010925141            0   0.45581981    1.6298003    2.0965452   -1.9613604 
14665000   0.99331288 -9.9436212e-05   0.61509735  0.017063585            0   0.59803377    1.4713447    2.0864421    -3.004692 
14670000    1.1208186 -7.6447659e-05   0.43452094  0.048485115            0   0.38603582    1.6602125    2.0947334   -1.8193867 
14675000   0.94085537 -5.6405015e-05    0.7155242  0.049946902            0   0.66557729     1.393642    2.1091662  -0.77877054 
14680000    1.0825688 6.1332896e-05   0.49884233  0.011652629            0    0.4871897    1.6035551    2.1023974    5.2426417 
14685000    1.0478666 3.3033809e-05   0.54354851 0.0092130726            0   0.53433544    1.5521524    2.0957009    3.7870319 
14690000    1.0339964 -0.00013128684   0.58881569  0.015063599            0    0.5737521    1.5316072    2.1204229   -4.6014633 
14695000    1.0243354 -2.8992346e-05   0.61200093  0.022716527            0   0.58928441    1.5172967    2.1292977   0.64488955 
14700000    1.0088974 0.00014111575   0.62992735  0.022767052            0    0.6071603    1.4944293    2.1243566    9.3494832 
14705000    1.0925304 4.5416608e-05   0.46460214   0.06541717            0   0.39918497    1.6183106    2.0829127     4.408243 
14710000   0.99263369 -0.00018738217   0.59806684  0.040288119            0   0.55777872    1.4703387    2.0684055   -7.5255614 
14715000    1.0996014 -7.1546001e-05   0.44100378 0.0068814345            0   0.43412234    1.6287845    2.0697883    -1.593367 
14720000   0.98832766 -4.4293715e-06   0.61491489  0.036439352            0   0.57847553    1.4639604    2.0788752    1.8520914 
14725000    1.0108267 -5.6805049e-05   0.57226994  0.024083974            0   0.54818597     1.497287     2.069557  -0.83886154 
14730000    1.0332882 -0.00010290685   0.51909507  0.009650417            0   0.50944465    1.5305582    2.0496532   -3.2191776 
14735000    1.0235505 -0.0002520624   0.56097998 0.0014984902            0   0.55948149    1.5161342    2.0771142    -10.82848 
14740000    1.0876449 -3.0985979e-05   0.44078653  0.049231209            0   0.39155532     1.611074    2.0518605    0.4653784 
14745000   0.97648244 -1.4329642e-05   0.59800869  0.026224058            0   0.57178464    1.4464146    2.0444233    1.3107456 
14750000    1.0365126 8.4729609e-06   0.50956994  0.011050467            0   0.49851948    1.5353343    2.0449043    2.4787199 
14755000    1.0511966 7.6336965e-05   0.48610767  0.027334148            0   0.45877352     1.557085    2.0431927    5.9516453 
14760000   0.98679677 -5.3737265e-05   0.62553618  0.044416581            0   0.58111959    1.4616927    2.0872289  -0.66411906 
14765000    1.0749757 -0.0001007767    0.4890044  0.030465463            0   0.45853894    1.5923078    2.0813122   -3.0784548 
14770000    1.0628029 -3.6517816e-05   0.51032407  0.028331088            0   0.48199298    1.5742769    2.0846009   0.21488874 
14775000    1.0019129 0.00010747952   0.58127976  0.032551075            0   0.54872869    1.4840835    2.0653633    7.5683147 
14780000    1.0853095 -7.8867058e-05   0.47101651  0.031538684            0   0.43947783    1.6076147    2.0786312   -1.9593622 
14785000     1.010898 -0.00011690985   0.60048192  0.028608741            0   0.57187318    1.4973927    2.0978746   -3.8879095 
14790000    1.0405056 0.0001153152   0.52698152  0.016250696            0   0.51073083     1.541249    2.0682305    7.9723686 
14795000    1.0925715 5.1075954e-05   0.49219606  0.007718414            0   0.48447764    1.6183715    2.1105676    4.7256564 
14800000    1.0640963 -2.7054208e-05   0.53637562  0.012453438            0   0.52392218    1.5761927    2.1125683   0.72739285 
14805000    1.0237307 4.691413e-05   0.61129399  0.011703246            0   0.59959075     1.516401     2.127695    4.5296985 
14810000    1.0992014 -5.6333103e-05   0.49276055  0.014059115            0   0.47870144    1.6281921    2.1209527  -0.76330218 
14815000    1.0664399 -4.8817311e-05   0.54498885  0.013759444            0   0.53122941    1.5796641     2.124653  -0.37479334 
14820000    1.0315467 3.3635955e-05   0.62706265 0.0096837248            0   0.61737893    1.5279785    2.1550412    3.8772021 
14825000    1.1080385 -2.5361667e-05   0.52435372  0.010728148            0   0.51362557     1.641282    2.1656357   0.86711834 
14830000     1.091951 0.00021289394   0.56229801  0.045304222            0   0.51699379    1.6174525    2.1797505     13.07992 
14835000    1.0890218 0.00011543098   0.55269562  0.013189518            0    0.5395061    1.6131136    2.1658092    8.0758754 
14840000    1.1077571 -5.3027964e-05   0.49813087  0.043098673            0    0.4550322    1.6408653    2.1389961  -0.57603564 
14845000    1.0695421 -0.0001006653   0.54018874  0.020057859            0   0.52013088    1.5842592    2.1244479   -3.0296155 
14850000    1.1452271 -5.1512855e-05   0.45814157 0.0090520825            0   0.44908949    1.6963677    2.1545093  -0.48294892 
14855000    1.0977277 -6.9172907e-05   0.52033144  0.027347196            0   0.49298425    1.6260092    2.1463406   -1.3953122 
14860000    1.0127255 -4.763458e-05   0.63698244  0.025016255            0   0.61196618    1.5000997    2.1370821   -0.3018084 
14865000    1.1625772 0.00016046222   0.41752772  0.029528397            0   0.38799932    1.7220674    2.1395951    10.355261 
14870000    1.0998072 3.031752e-05   0.50593974  0.046341897            0   0.45959784    1.6290894    2.1350292    3.6872862 
14875000    1.0304025 -3.5416904e-05   0.62343715  0.045463976            0   0.57797318    1.5262836    2.1497208   0.33637533 
14880000    1.1504457 0.00010279217   0.40813473  0.012213342            0   0.39592138    1.7040977    2.1122325    7.3751913 
14885000    1.1194739 7.0828307e-05   0.45067707 0.0085558707            0    0.4421212    1.6582207    2.1088978    5.7353071 
14890000    1.0622252 -5.3761334e-05   0.53226217  0.039755388            0   0.49250678     1.573421    2.1056832   -0.6468971 
14895000    1.0126687 -8.9067249e-05   0.56706533  0.079002864            0   0.48806247    1.5000155    2.0670808   -2.4931623 
14900000    1.0061231 -1.8696181e-05    0.5875471  0.043211621            0   0.54433548    1.4903198    2.0778669    1.1206224 
14905000    1.0393259 1.5840884e-06   0.54603975  0.027173798            0   0.51886595    1.5395014    2.0855412    2.1666465 
14910000    1.1137665 6.8120332e-06   0.45291972  0.041800065            0   0.41111965    1.6497666    2.1026864    2.4514625 
14915000    1.0711271 -1.5800977e-05   0.50454747  0.020822613            0   0.48372486     1.586607    2.0911545    1.2821445 
14920000   0.99192433 -4.5739136e-05   0.63184118 0.0074015853            0   0.62443959    1.4692879    2.1011291  -0.24071468 
14925000    1.0026216 -4.2071968e-05   0.58507453  0.034972319            0   0.55010221    1.4851332    2.0702078 -0.083876989 
14930000    1.0683455 -5.0639536e-05   0.47248643  0.029723417            0   0.44276302    1.5824868    2.0549732  -0.53777108 
14935000    1.0069385 -2.6101922e-05   0.55965829  0.021160739            0   0.53849755    1.4915277     2.051186   0.71476757 
14940000    1.0285824 -4.4491088e-05   0.53408596  0.031283735            0   0.50280222    1.5235877    2.0576736  -0.22027007 
14945000    1.0587632 -7.7896885e-05   0.50506391 0.0098296039            0    0.4952343    1.5682929    2.0733568   -1.9149637 
14950000    1.0431387 -0.00011397804   0.50493219  0.015864653            0   0.48906753    1.5451492    2.0500814   -3.7855944 
14955000    1.0561484 -8.1806944e-05   0.47284245  0.042126018            0   0.43071643    1.5644198    2.0372622   -2.1512533 
14960000    1.0236983 5.5449921e-05    0.5363545    0.1164551            0    0.4198994    1.5163531    2.0527075    4.8917435 
14965000    1.0602188 -3.9491757e-05   0.50559955  0.015361863            0   0.49023769    1.5704491    2.0760487   0.05407069 
14970000    1.0675764 -8.4430912e-05   0.50938787 0.0026926832            0   0.50669519    1.5813475    2.0907354   -2.2321273 
14975000    1.0774422 -6.8169392e-05   0.47488469 0.0021800844            0    0.4727046    1.5959613     2.070846   -1.4194269 
14980000    1.0088015 -0.00013043142   0.56727097 0.0053687179            0   0.56190225    1.4942873    2.0615583   -4.6165305 
14985000    1.0929224 -0.0001486696   0.46497068 0.0042345691            0   0.46073612    1.6188913     2.083862   -5.5280214 
14990000    1.0238076 -4.6556259e-05   0.57653128 0.00086294655            0   0.57566834     1.516515    2.0930463  -0.29063413 
14995000    1.0557537 -5.3124772e-05   0.51729546 0.0025055182            0   0.51478994    1.5638352    2.0811307  -0.63885768 
15000000    1.1477725 -8.6504423e-05   0.35729316 0.0086940813            0   0.34859908     1.700138    2.0574312   -2.3715952 
15005000    1.1172458 2.1032148e-05    0.3965579  0.012083543            0   0.38447436    1.6549203    2.0514782    3.1283242 
15010000    1.0272014 0.00010872196   0.54283678  0.042556615            0   0.50028016    1.5215421    2.0643789     7.630943 
15015000    1.0708733 3.5790359e-05   0.48252275  0.004429173            0   0.47809358    1.5862311    2.0687538    3.9012202 
15020000    1.0744452 -4.452456e-05   0.48964337 0.0099293013            0   0.47971407     1.591522    2.0811653  -0.19849214 
15025000    1.1099369 7.177821e-05   0.46898707  0.031560028            0   0.43742705     1.644094    2.1130811    5.7881254 
15030000    1.1109204 -1.6267982e-05   0.48652864  0.030004109            0   0.45652454    1.6455509    2.1320795    1.2991588 
15035000    1.1299732 -2.4957753e-05   0.42853622  0.014034492            0   0.41450173    1.6737728     2.102309   0.82447201 
15040000    1.0983832 7.7946036e-06   0.49523357  0.024139564            0   0.47109401    1.6269801    2.1222137    2.5212974 
15045000    1.0743244 1.5888847e-07   0.54851923  0.028179765            0   0.52033946     1.591343    2.1398622    2.1479973 
15050000    1.1118023 8.0831645e-05   0.47219895  0.012260959            0   0.45993799    1.6468572    2.1190561    6.2576364 
15055000    1.0767082 6.3451293e-05   0.53813628   0.01560911            0   0.52252717    1.5948739    2.1330102    5.3817164 
15060000    1.0779646 1.3694395e-05   0.53003839   0.02391062            0   0.50612777     1.596735    2.1267734    2.8279264 
15065000    1.0972466 1.5887179e-05   0.51350754  0.019371263            0   0.49413628    1.6252966    2.1388041    2.9522277 
15070000    1.0987729 9.0739504e-05   0.51115446  0.014238016            0   0.49691644    1.6275573    2.1387118    6.7845744 
15075000    1.1221049 5.4922068e-05   0.48630082  0.014357188            0   0.47194364    1.6621179    2.1484187    4.9604286 
15080000     1.156196 -9.614613e-06   0.46569184   0.04158524            0    0.4241066    1.7126153    2.1783071    1.6860389 
15085000    1.1633963 4.9072375e-05   0.48779449  0.019049125            0   0.46874536    1.7232808    2.2110753    4.7235809 
15090000     1.141501 4.3261422e-05   0.49057948  0.004419117            0   0.48616036    1.6908484    2.1814279    4.3964127 
15095000    1.1828932 -2.5879589e-05   0.42382133  0.015980267            0   0.40784106    1.7521605    2.1759818   0.85094689 
15100000    1.0895043 -7.8288572e-06   0.54509133  0.062193489            0   0.48289784    1.6138282    2.1589195    1.7580821 
15105000    1.0370056 -3.4454746e-05   0.59432108   0.08151271            0   0.51280837    1.5360646    2.1303856   0.36630268 
15110000    1.0171975 7.8006966e-05   0.59128592   0.07407266            0   0.51721326    1.5067238    2.0980097    6.0919663 
15115000    1.0835691 -5.2718832e-06   0.47869196  0.022728533            0   0.45596343    1.6050367    2.0837287    1.8138083 
15120000     1.054383 3.9975175e-05   0.49725625 0.0052505763            0   0.49200567    1.5618049    2.0590611    4.1057901 
15125000    1.0848446 -1.0485196e-05   0.43170159 0.0061674821            0   0.42553411    1.6069261    2.0386277    1.5017856 
15130000    1.0640223 -8.934596e-05   0.48208874   0.00246783            0   0.47962091     1.576083    2.0581717   -2.5163415 
15135000    1.0614682 -4.5338875e-05   0.49129105  0.000694656            0   0.49059639    1.5722998    2.0635909   -0.2577595 
15140000    1.0824427 -1.2657097e-05   0.42271592 0.00069165316            0   0.42202426    1.6033682    2.0260841    1.3780407 
15145000    1.0629783 -9.7753887e-06   0.45275506 0.0045937139            0   0.44816134    1.5745366    2.0272917    1.5267918 
15150000    1.0513278 6.8981766e-05   0.46439669   0.00868029            0    0.4557164    1.5572794    2.0216761    5.5535425 
15155000   0.98193416 0.00020397665   0.52821073   0.01920873            0     0.509002      1.45449    1.9827007    12.426305 
15160000    1.0322112 0.00015258427   0.44619635  0.022477316            0   0.42371904    1.5289629    1.9751592    9.7874736 
15165000    1.0281476 -2.237424e-05   0.46962862  0.015820015            0   0.45380861    1.5229436    1.9925723    0.8470112 
15170000   0.97421456 -3.9850046e-05   0.57621113  0.068758689            0   0.50745244    1.4430553    2.0192664  -0.02105591 
15175000    1.0465175 -1.7193369e-05    0.4704108   0.02641525            0   0.44399555    1.5501541    2.0205649    1.1402644 
15180000    1.0921174 1.9348192e-05   0.36438248  0.012957825            0   0.35142465    1.6176989    1.9820814    2.9727088 
15185000    1.0399818 1.4373267e-05    0.4185441 0.0079337125            0   0.41061039     1.540473    1.9590171    2.6949283 
15190000   0.98075206 6.1033191e-05   0.46847774 0.0072641744            0   0.46121357     1.452739    1.9212167    5.0461161 
15195000    1.0169824 4.9234613e-05   0.42219522  0.013258812            0   0.40893641    1.5064051    1.9286003    4.4494125 
15200000    1.0440729 -0.00017272408   0.42112096  0.016183716            0   0.40493725     1.546533    1.9676539   -6.8758188 
15205000    1.0177905 -0.00012951802   0.43400731  0.032884588            0   0.40112272    1.5076021    1.9416094   -4.6897134 
15210000    1.0490455 6.2103463e-05   0.39882035  0.028340857            0    0.3704795    1.5538987     1.952719    5.1324163 
15215000    1.0496412 5.6233629e-05   0.39907291  0.032179441            0   0.36689347     1.554781    1.9538539    4.8330158 
15220000   0.93582151 -0.00013012258   0.56495835  0.044538059            0   0.52042029    1.3861856     1.951144   -4.7111322 
15225000    1.0457692 -1.8942653e-05   0.42353816  0.028803866            0   0.39473429    1.5490457    1.9725839      1.00272 
15230000    1.0030091 7.0875795e-05   0.46763949  0.014816918            0   0.45282258    1.4857072    1.9533467    5.5821874 
15235000    1.0708116 5.2304748e-05   0.38606815  0.010597232            0   0.37547092    1.5861397    1.9722078    4.6502109 
15240000    1.0223503 1.3800182e-05   0.46567496  0.034147375            0   0.43152758    1.5143564    1.9800314    2.6866007 
15245000    1.0095004 8.7085763e-05   0.47159818  0.063094315            0   0.40850387    1.4953225    1.9669207    6.4257118 
15250000    1.0196003 1.8208584e-05   0.45180007  0.021990137            0   0.42980994    1.5102829     1.962083    2.8943625 
15255000   0.99674359 -3.3206401e-05   0.46239115  0.010847964            0   0.45154319    1.4764264    1.9388176   0.23864988 
15260000    1.0440471 -5.300527e-05   0.37650916  0.020560856            0    0.3559483    1.5464948     1.923004  -0.79086583 
15265000    1.0250068 1.9440306e-05   0.41674282  0.031137114            0    0.3856057    1.5182913    1.9350341    2.9303778 
15270000   0.96896182 8.1606696e-05   0.51028354  0.063316686            0   0.44696685    1.4352747    1.9455582    6.1238211 
15275000   0.99597529 0.00010036351   0.48090727  0.047376135            0   0.43353113    1.4752884    1.9561957    7.0948072 
15280000    1.0323786 -5.2450421e-05   0.43363626  0.026688482            0   0.40694777    1.5292108    1.9628471  -0.72261445 
15285000    1.0083648 -9.9842589e-05   0.48156248  0.024772264            0   0.45679021    1.4936404    1.9752029   -3.1367377 
15290000    1.0328308 -8.4069352e-06   0.44082095    0.0184661            0   0.42235485    1.5298807    1.9707016    1.5402665 
15295000    1.0155423 -3.3543847e-05   0.44325859  0.013965953            0   0.42929263     1.504272    1.9475306   0.23008565 
15300000    1.0032287 -9.6649799e-05   0.47022533  0.009651805            0   0.46057352    1.4860324    1.9562578   -2.9922119 
15305000   0.96596765 -0.00011267569   0.55514379  0.025958151            0   0.52918564    1.4308396    1.9859834   -3.7830118 
15310000     1.020082 3.8136346e-05   0.47121128   0.05011497            0   0.42109631    1.5109965    1.9822077    3.9347887 
15315000   0.98852109 0.00010868618   0.50772512  0.032589328            0   0.47513579    1.4642469     1.971972    7.5367045 
15320000    1.0322364 0.00011388021   0.45556146 0.0070420774            0   0.44851939    1.5290002    1.9845616    7.8152283 
15325000     1.020331 5.9903311e-05   0.47696625 0.0019936464            0   0.47497261    1.5113653    1.9883316    5.0553811 
15330000    1.0222368 -9.6723831e-07   0.51066977 0.0026966932            0   0.50797308    1.5141882     2.024858    1.9753354 
15335000    1.0576381 -3.2321139e-05   0.46001614  0.014142793            0   0.44587334    1.5666265    2.0266426   0.37180027 
15340000    1.0133141 -0.00017659226   0.51690372  0.032908752            0   0.48399497    1.5009715    2.0178752   -7.0236486 
15345000    1.0203398 -0.00014754215   0.52355541  0.044360445            0   0.47919497    1.5113784    2.0349338   -5.5192244 
15350000    1.0668449 2.2630436e-05   0.46064151  0.019577253            0   0.44106425     1.580264    2.0409055    3.1995839 
15355000    1.0579571 1.032209e-05   0.45980877  0.049441756            0   0.41036701    1.5670989    2.0269077    2.5553987 
15360000    1.0446991 -4.4116341e-05   0.48598962  0.015348016            0   0.47064161    1.5474605    2.0334502   -0.2253065 
15365000    1.0422156 -3.871752e-05   0.46624878  0.010464981            0    0.4557838    1.5437818    2.0100306  0.027693586 
15370000    1.0558474 -3.2075295e-05   0.46704541  0.031523395            0   0.43552201     1.563974    2.0310194   0.38876434 
15375000    1.0378635 -8.9569933e-05   0.50363612  0.072269619            0    0.4313665    1.5373353    2.0409714   -2.5450091 
15380000   0.99256616 -4.1423704e-05   0.57543416  0.068218187            0   0.50721597    1.4702386    2.0456728 -0.075220874 
15385000   0.99632625 5.6313821e-05   0.57454036   0.08197847            0   0.49256189    1.4758083    2.0503486    4.9336162 
15390000    1.0484396 8.7881144e-05   0.47065276    0.1171045            0   0.35354826    1.5530011    2.0236539    6.5231684 
15395000     1.059566  2.74498e-05   0.43734882  0.025505355            0   0.41184347    1.5694822     2.006831    3.4122608 
15400000    1.0583996 5.5708584e-05   0.41716671  0.010536989            0   0.40662972    1.5677544    1.9849211    4.8372006 
15405000   0.99992017 3.651376e-05   0.50992794 0.0087134098            0   0.50121453    1.4811317    1.9910597    3.8605642 
15410000    1.0592505 -4.9450197e-05   0.46361595  0.033003671            0   0.43061228    1.5690148    2.0326307  -0.49921935 
15415000    1.0726081 -3.8810278e-05   0.40637197  0.058060004            0   0.34831196    1.5888008    1.9951727 0.0080865247 
15420000    1.0631413 -2.8188254e-05   0.41804074  0.036026252            0   0.38201449     1.574778    1.9928188   0.54958017 
15425000    1.0306105 2.7715388e-06   0.48580374  0.048349212            0   0.43745452    1.5265918    2.0123955    2.1542983 
15430000    1.0569832 4.6660664e-05   0.46247725  0.020066689            0   0.44241056    1.5656563    2.0281336    4.4171596 
15435000    1.0751631 7.0330051e-05   0.43798232 0.0074800168            0    0.4305023    1.5925853    2.0305676    5.6314662 
15440000    1.1508911 -6.9611485e-05   0.34992167 0.0024700029            0   0.34745167    1.7047575    2.0546791   -1.5094289 
15445000    1.0844292 -8.2548729e-05   0.44571351  0.019821391            0   0.42589212    1.6063108    2.0520243   -2.1744707 
15450000    1.0693011 1.2248966e-05   0.45779098  0.015787497            0   0.44200348    1.5839022    2.0416932    2.6688402 
15455000    1.1009166 -4.6077387e-05    0.4148401  0.013260051            0   0.40158005    1.6307327    2.0455728  -0.31358943 
15460000      1.09151 -6.0569492e-05   0.41852545  0.015962822            0   0.40256262    1.6167993    2.0353247   -1.0658333 
15465000    1.0897743 -8.3054867e-05   0.44703772  0.012163125            0    0.4348746    1.6142282    2.0612659   -2.1911433 
15470000    1.0750145 -1.6385673e-05    0.4214988  0.010409159            0   0.41108964    1.5923653    2.0138641    1.1749176 
15475000    1.0899803 8.5395242e-05   0.40821842  0.027533827            0    0.3806846    1.6145333    2.0227517    6.3949881 
15480000    1.0749701 -1.0804273e-05   0.46818326  0.043681361            0    0.4245019    1.5922994    2.0604827    1.5073039 
15485000    1.0767786 -0.00010038811   0.47146464  0.026841936            0    0.4446227    1.5949783     2.066443   -3.0734284 
15490000    1.1297573 -7.7834136e-05   0.37545324  0.006594109            0   0.36885913     1.673453    2.0489062   -1.9362016 
15495000    1.0664417 6.2521305e-06   0.42096886  0.019374921            0   0.40159394    1.5796668    2.0006357    2.3207448 
15500000    1.0701836 6.4532604e-05   0.44039139  0.040320717            0   0.40007068    1.5852095    2.0256009    5.3296702 
15505000    1.0967963 9.3540843e-05   0.41196162  0.027435909            0   0.38452571    1.6246295    2.0365911    6.8258823 
15510000    1.0836978 -6.7647759e-07   0.44544424  0.035551681            0   0.40989256    1.6052274    2.0506716     2.016036 
15515000    1.0991164 -8.7591411e-06    0.4255046  0.060978654            0   0.36452595    1.6280662    2.0535708    1.6051028 
15520000     1.021926 0.0001009138    0.5267632  0.029576584            0   0.49718662    1.5137279    2.0404911    7.2072779 
15525000    1.1446208 8.5374078e-05   0.37207137 0.0039740594            0   0.36809731    1.6954696     2.067541    6.4386938 
15530000    1.1675658 -4.7965811e-05   0.34522561  0.010104266            0   0.33512134    1.7294569    2.0746825  -0.38116701 
15535000    1.1274586 1.0609684e-05   0.41282775  0.019452842            0    0.3933749    1.6700481    2.0828759    2.6260917 
15540000    1.1398445 -9.610006e-06   0.38770079 0.0076362476            0   0.38006454    1.6883947    2.0760955    1.5840632 
15545000    1.0616115 -0.00012416016   0.48544334  0.004382908            0   0.48106043     1.572512    2.0579553   -4.2990449 
15550000    1.0760728 8.0421795e-05   0.44448528 0.0032707465            0   0.44121453    1.5939329    2.0384181     6.156014 
15555000    1.1336122 2.8751151e-06   0.38668713  0.037275461            0   0.34941167     1.679163    2.0658501     2.213056 
15560000    1.0562982 -0.00011935772   0.47770965  0.058916591            0   0.41879306    1.5646416    2.0423513    -4.068764 
15565000     1.012627 -6.7853677e-05    0.5572838  0.046695785            0   0.51058802    1.4999537    2.0572375   -1.4168708 
15570000    1.0690196 -5.3326365e-05   0.48290246  0.032010621            0   0.45089184    1.5834853    2.0663877  -0.66392219 
15575000    1.1248367 -2.912258e-05   0.42101062 0.0083139907            0   0.41269663    1.6661644     2.087175   0.59609885 
15580000    1.0925698 -7.2107788e-05   0.46520403  0.018640436            0   0.44656359    1.6183691    2.0835731   -1.6083457 
15585000    1.0531194 -8.9102896e-05   0.53612135  0.045607164            0   0.49051419    1.5599331    2.0960545   -2.4660138 
15590000    1.0358246 -4.5683303e-05   0.55035633  0.063393884            0   0.48696244    1.5343151    2.0846715  -0.25431366 
15595000    1.1404813 6.7016027e-05   0.41558595  0.025975627            0   0.38961032    1.6893379    2.1049238    5.5361444 
15600000    1.1192972 8.6024648e-05   0.43915219  0.022866992            0    0.4162852    1.6579589    2.0971111    6.5015731 
15605000    1.1426521 6.2005398e-05   0.42972009  0.020785522            0   0.40893457    1.6925534    2.1222735    5.2969499 
15610000    1.1706231 -4.8110393e-05   0.37373104 0.0063628709            0   0.36736816    1.7339854    2.1077165  -0.35553566 
15615000    1.1115155 -8.0734217e-05   0.44596418 0.0085503569            0   0.43741383    1.6464323    2.0923965   -2.0411954 
15620000    1.1363037 1.2020967e-05   0.42858426  0.016849921            0   0.41173434    1.6831498    2.1117341    2.7272076 
15625000    1.1350158 -5.08064e-05   0.45799863  0.024285677            0   0.43371295    1.6812421    2.1392408   -0.4620469 
15630000    1.1166843 -5.2351104e-05   0.45373198  0.033330323            0   0.42040166    1.6540886    2.1078206  -0.57255595 
15635000    1.0717526 6.166449e-06   0.51668807  0.066637565            0    0.4500505    1.5875336    2.1042216    2.4199438 
15640000    1.0751078 2.6146464e-05   0.48432717  0.055775081            0   0.42855209    1.5925034    2.0768306    3.4155295 
15645000    1.1177338 3.0591764e-05   0.43119668  0.021638589            0   0.40955809    1.6556433    2.0868399    3.6531382 
15650000    1.1332564 7.8041076e-05   0.41531976 0.0089100314            0   0.40640973    1.6786361    2.0939558    6.0896589 
15655000    1.1424628 4.4371674e-05   0.38100442  0.015544801            0   0.36545962     1.692273    2.0732775    4.3451072 
15660000    1.0468504 6.8519203e-06   0.50406361  0.035513551            0   0.46855006    1.5506471    2.0547107    2.4055291 
15665000    1.0647623 -4.5961515e-05   0.48611894  0.048470122            0   0.43764881    1.5771791    2.0632981  -0.28993148 
15670000     1.140076 -2.4728712e-05    0.3586492  0.022016822            0   0.33663238    1.6887376    2.0473868   0.78127675 
15675000     1.051913 1.9664959e-05   0.49482078  0.014077524            0   0.48074326    1.5581461    2.0529669    3.0598128 
15680000    1.0529759 8.4531812e-05   0.51197216  0.030151447            0   0.48182072    1.5597206    2.0716928    6.3997216 
15685000    1.0559604 7.7745317e-05   0.50102405  0.044741959            0   0.45628209    1.5641414    2.0651655    6.0457257 
15690000    1.0527054 6.6863779e-05   0.52853859  0.022458378            0   0.50608021    1.5593198    2.0878584    5.5112839 
15695000    1.0887889 7.7766775e-05   0.49205134 0.0065446396            0    0.4855067    1.6127686    2.1048199    6.0864788 
15700000    1.2110238 0.00010183148   0.30924927  0.014413994            0   0.29483527     1.793829    2.1030783      7.31685 
15705000    1.0591413 9.2170525e-05   0.52322204  0.030417007            0   0.49280504    1.5688531    2.0920751     6.811206 
15710000    1.1271071 6.7980208e-06   0.44715671 0.0078045056            0    0.4393522    1.6695274    2.1166841    2.4647428 
15715000    1.1087741 -5.0021578e-06   0.45995258  0.010540939            0   0.44941164    1.6423716    2.1023242    1.8462137 
15720000    1.1083406 6.3924132e-06   0.44208846   0.02752693            0   0.41456154    1.6417296     2.083818    2.4111096 
15725000    1.1068494 -3.5826088e-05   0.43896463  0.020142716            0   0.41882192    1.6395207    2.0784853   0.24418962 
15730000    1.0641204 3.9014939e-05   0.47390223 0.0030513404            0   0.47085089    1.5762284    2.0501306    4.0476955 
15735000    1.1475498 0.00010155464   0.39377397 0.0016528517            0   0.39212112    1.6998082    2.0935822    7.2931798 
15740000    1.1781359 1.9329665e-05   0.36225821  0.016965796            0   0.34529241    1.7451138     2.107372    3.0970509 
15745000     1.067828 -6.8091522e-05   0.51587791  0.057957198            0   0.45792071    1.5817202    2.0975981   -1.3886878 
15750000    1.0428413 1.0024469e-05   0.56429879  0.069687981            0   0.49461081    1.5447086    2.1090074    2.6222602 
15755000    1.0764494 1.6835534e-05   0.50145819  0.052680029            0   0.44877816    1.5944906    2.0959488    2.9579282 
15760000    1.0860913 -2.0010609e-05   0.49290033  0.018212625            0   0.47468771    1.6087728    2.1016731    1.0771299 
15765000    1.0753168 -4.7190938e-05    0.5493117 0.0080329349            0   0.54127876     1.592813    2.1421247  -0.27405132 
15770000    1.0947394 1.1652204e-05   0.49741988 0.0082174953            0   0.48920239    1.6215828    2.1190026    2.7155955 
15775000    1.0799632 7.5456929e-05   0.54186658  0.039978027            0   0.50188855    1.5996955    2.1415621    6.0049569 
15780000    1.0863874 5.9802966e-05   0.53587419  0.085568054            0   0.45030613    1.6092113    2.1450855    5.2069973 
15785000    1.1727356 -6.2800855e-05   0.38921422  0.037442202            0   0.35177201    1.7371146    2.1263288    -1.089075 
15790000    1.1049136 -0.00013836262   0.48417543 0.0069872302            0    0.4771882    1.6366533    2.1208288   -4.9633372 
15795000    1.0687768 -2.0828868e-05   0.50550866  0.038747901            0   0.46676076    1.5831257    2.0886344    1.0221963 
15800000    1.0740647 -5.3429633e-05    0.5218958  0.030415766            0   0.49148003    1.5909583    2.1128541  -0.62274309 
15805000    1.1584699 4.2434427e-05   0.37180484  0.029092959            0   0.34271188    1.7159835    2.0877883     4.260431 
15810000    1.0881761 5.3547956e-05   0.48968202  0.025690991            0   0.46399103    1.6118609    2.1015429    4.8431983 
15815000    1.0857888 0.00010933657   0.48833943  0.043883129            0   0.44445631    1.6083246    2.0966641    7.6946962 
15820000    1.0090761 0.00010421941   0.56796012  0.050206615            0   0.51775351    1.4946939    2.0626541    7.3986879 
15825000    1.0286297 -3.8229404e-05    0.5522131  0.026497398            0   0.52571571    1.5236578    2.0758709   0.11852537 
15830000    1.1107566 -2.5094582e-05   0.47508397  0.027935598            0   0.44714837    1.6453082    2.1203922   0.83554956 
15835000     1.013087 1.286661e-05   0.58606775  0.032855638            0   0.55321211    1.5006351    2.0867028    2.7454733 
15840000    1.1276517 3.610835e-05    0.3897662  0.034592917            0   0.35517328    1.6703341    2.0601003    3.9088479 
15845000    1.1303158 1.991842e-05   0.39548218  0.031177816            0   0.36430436    1.6742803    2.0697625    3.0895855 
15850000    1.0847318 7.1138772e-06   0.45998638 0.0090257875            0    0.4509606     1.606759    2.0667454    2.4309759 
15855000    1.1112332 1.0863535e-05    0.4119163 0.0075148209            0   0.40440147    1.6460142    2.0579305    2.6141435 
15860000    1.1206073 -7.952171e-05   0.41189716 0.0088178266            0   0.40307933    1.6598995    2.0717967   -1.9997149 
15865000     1.059818 -0.00014851241   0.51217341  0.033826776            0   0.47834663    1.5698554    2.0820288   -5.5218064 
15870000    1.0070122 -5.3408399e-05   0.59912561  0.053836353            0   0.54528926    1.4916369    2.0907625  -0.64374752 
15875000    1.1017903 5.2289679e-05   0.43311204  0.029602351            0   0.40350969    1.6320268    2.0651389    4.7423704 
15880000    1.0899925 6.9664131e-05   0.44796104  0.017849517            0   0.43011153    1.6145514    2.0625125     5.629316 
15885000    1.0674577 7.0117903e-05   0.46895555 0.0073345853            0   0.46162097    1.5811718    2.0501273    5.6401639 
15890000    1.0438223 4.4774272e-05   0.50677791  0.050711447            0   0.45606647    1.5461617    2.0529396    4.3453824 
15895000    1.0848493 -2.0791238e-05   0.45194801  0.038131019            0   0.41381699    1.6069331    2.0588811   0.99436967 
15900000    1.0378566 -7.1881209e-06   0.52200009  0.045060346            0   0.47693974    1.5373251    2.0593252    1.6912934 
15905000   0.99732174 5.9274648e-05   0.58082856  0.037544733            0   0.54328382    1.4772828    2.0581114    5.0929734 
15910000    1.0788649 2.8227424e-05    0.4589697  0.038094757            0   0.42087494    1.5980686    2.0570383    3.5022824 
15915000    1.0654224 -3.4129611e-05   0.48981157  0.022348445            0   0.46746312    1.5781569    2.0679685   0.32053242 
15920000    1.0395711 3.6361957e-06   0.50974092  0.040318139            0   0.46942278    1.5398647    2.0496056    2.2357789 
15925000    1.0815699 3.9921307e-05   0.46368642    0.0351637            0   0.42852272    1.6020754    2.0657618    4.1097327 
15930000    1.0593086 6.0657487e-05   0.52656582  0.046898618            0    0.4796672    1.5691009    2.0956667      5.20133 
15935000    1.1221441 0.00011257867   0.42379015   0.04395634            0   0.37983381     1.662176    2.0859662     7.849994 
15940000     1.074358 5.8197068e-05   0.48549992  0.030965765            0   0.45453416    1.5913928    2.0768928    5.0565827 
15945000    1.0513734 -8.3917411e-05   0.54611879  0.036278303            0   0.50984048    1.5573468    2.1034656   -2.1931059 
15950000    1.0551783 1.628165e-05   0.52258356  0.015738046            0   0.50684551    1.5629829    2.0855664    2.9191869 
15955000    1.1443002 0.00011804154   0.39532263 0.0096691178            0   0.38565351    1.6949946    2.0903173     8.134044 
15960000    1.0636333 7.892111e-05   0.53588423  0.010984787            0   0.52489944    1.5755069    2.1113911    6.1521519 
15965000    1.1052099 9.0952873e-05   0.45992187  0.014842426            0   0.44507944    1.6370921     2.097014     6.753801 
15970000    1.0298859 4.0593422e-05    0.5521716  0.019978573            0   0.53219302    1.5255185    2.0776901    4.1560733 
15975000    1.0820352 -4.0988435e-05   0.46048354  0.028710566            0   0.43177297    1.6027647    2.0632482 -0.035359649 
15980000    1.0855966 9.509589e-07   0.45802433  0.025489252            0   0.43253508    1.6080399    2.0660642    2.1147533 
15985000    1.0441554 1.3833385e-05   0.53447399  0.013549249            0   0.52092474    1.5466552    2.0811292    2.7893985 
15990000    1.0514812 -1.4415659e-05   0.53136498   0.02994425            0   0.50142073    1.5575066    2.0888716    1.3507898 
15995000    1.1035766 1.460078e-05   0.47221557  0.014885811            0   0.45732976    1.6346728    2.1068883    2.8544483 
16000000    1.0414458  6.47279e-06   0.55837406 0.0082334611            0    0.5501406    1.5426415    2.1010156    2.4324225 
16005000    1.0492688 -4.3837833e-05   0.53921815  0.010497258            0    0.5287209    1.5542294    2.0934476  -0.15104949 
16010000    1.0280565 -0.00010809688   0.56635975  0.030162182            0   0.53619757    1.5228087    2.0891684    -3.445392 
16015000    1.0628878 -0.00010145296   0.52130667  0.038316158            0   0.48299052    1.5744025    2.0957092   -3.0986826 
16020000    1.0221372 0.00010032546   0.53870378  0.052557978            0    0.4861458    1.5140407    2.0527445    7.1894082 
16025000    1.1296255 0.00014422153   0.40235672  0.032206281            0   0.37015043    1.6732578    2.0756146    9.4597567 
16030000    1.0642819 0.00013202507   0.51483746  0.011584293            0   0.50325317    1.5764676     2.091305    8.8509885 
16035000    1.0209725 0.00012495999   0.55381248   0.02072892            0   0.53308356    1.5123155     2.066128    8.4640796 
16040000    1.0439398 -7.5037311e-05   0.51396995  0.035848252            0    0.4781217    1.5463358    2.0603058   -1.7816046 
16045000     1.017232 -0.00012034446   0.53127356  0.018357235            0   0.51291632    1.5067749    2.0380484    -4.123588 
16050000   0.99636043 2.7296868e-07    0.5244279  0.015115835            0   0.50931206    1.4758589    2.0002868    2.0142628 
16055000    1.0104266 5.1721456e-05   0.48341661  0.024347112            0   0.45906949    1.4966944     1.980111    4.6282495 
16060000    1.0082367 4.5815119e-05   0.46995696   0.01582559            0   0.45413137    1.4934506    1.9634076    4.3091417 
16065000   0.96091472 -2.5989628e-05   0.52275668  0.012376985            0    0.5103797    1.4233549    1.9461116   0.61544264 
16070000    1.0219532 3.350782e-05   0.43150089 0.0066731649            0   0.42482772    1.5137682    1.9452691    3.6608695 
16075000     1.015851 -2.5584406e-05   0.43324823 0.0006967165            0   0.43255152    1.5047292    1.9379775    0.6280559 
16080000   0.86553395 -0.00013538837    0.6742357            0            0    0.6742357    1.2820722    1.9563079   -4.9755768 
16085000   0.99045007 -6.6598087e-05   0.49278849 2.133478e-06            0   0.49278636    1.4671042    1.9598927   -1.4499294 
16090000   0.99334567 4.5581695e-05   0.47829085 0.0056396528            0    0.4726512    1.4713933    1.9496841    4.2834669 
16095000   0.94903969 2.9623631e-06   0.54968541  0.081073283            0   0.46861213     1.405765    1.9554505    2.1071234 
16100000   0.95801975 5.5051596e-05   0.54429683   0.03733342            0   0.50696341    1.4190668    1.9633636    4.7820053 
16105000   0.98983258 2.1144297e-05   0.52921907  0.021789233            0   0.50742984    1.4661895    1.9954086    3.0779966 
16110000    1.0274403 -7.8292425e-05   0.48592904  0.016836598            0   0.46909245     1.521896     2.007825   -2.0007472 
16115000   0.98457663 -4.597615e-05   0.55025181  0.014161095            0   0.53609072    1.4584041    2.0086559  -0.34532292 
16120000   0.99238576 -8.9884082e-06   0.52950479 0.0069714536            0   0.52253333    1.4699714    1.9994762    1.5392697 
16125000   0.96974234 1.1565234e-05   0.54935332 0.0077675532            0   0.54158577    1.4364308    1.9857842    2.5779241 
16130000   0.99946817 -0.00012066669   0.51628567 0.0051083806            0   0.51117729    1.4804622    1.9967479   -4.1813868 
16135000   0.91404011 -0.00021186881   0.61959626  0.021778335            0   0.59781792    1.3539219    1.9735182   -8.8741651 
16140000    1.0290799 -7.8475085e-05   0.46163348   0.01829545            0   0.44333803    1.5243246     1.985958   -2.0319663 
16145000    1.0021158 3.6295809e-05   0.48367712 0.0032825104            0   0.48039461     1.484384    1.9680611    3.8264065 
16150000   0.99990407 4.3305464e-05   0.48793627 0.0013985327            0   0.48653774    1.4811079    1.9690442    4.1862839 
16155000    0.9829489 9.6006014e-06   0.50846434 0.0050343355            0      0.50343    1.4559931    1.9644574    2.4560082 
16160000    1.0802624 -2.0994469e-05   0.36588784 0.0098804839            0   0.35600736    1.6001387    1.9660265   0.89110967 
16165000   0.94350711 -3.4991386e-06   0.55896286  0.031846896            0   0.52711597    1.3975699    1.9565328    1.7773769 
16170000   0.91511334 1.3599947e-05   0.61236244  0.026850064            0   0.58551238    1.3555116    1.9678741    2.6641914 
16175000    0.9888582 3.6055521e-05   0.50798797  0.028824722            0   0.47916325    1.4647462    1.9727342    3.8187769 
16180000   0.99093853 -4.4153676e-05   0.51458595  0.042140791            0   0.47244516    1.4678277    1.9824136  -0.27825458 
16185000    1.0313845 3.2032431e-05   0.47802081   0.01717393            0   0.46084688    1.5277383    2.0057591    3.6458196 
16190000   0.98792216 5.2478122e-05   0.55517273  0.016766539            0   0.53840619    1.4633597    2.0185324    4.7054123 
16195000   0.95752904 -4.0849478e-05   0.60601572  0.042233143            0   0.56378257    1.4183399    2.0243556 -0.067137673 
16200000   0.98841707 -2.2190033e-05   0.60624684  0.014295846            0     0.591951    1.4640928    2.0703396   0.93420996 
16205000    1.0252601 7.1684492e-05   0.54113795  0.018458327            0   0.52267962    1.5186666    2.0598045    5.7300505 
16210000    1.0334761 0.00014435823   0.57452984  0.014633267            0   0.55989657    1.5308365    2.1053663    9.4965078 
16215000    1.0286496 8.4821777e-05   0.60993172  0.012083012            0   0.59784871    1.5236872    2.1336189    6.4764939 
16220000    1.0786061 8.072663e-05   0.55058397  0.031743838            0   0.51884013    1.5976852    2.1482692    6.2814727 
16225000    1.0536617 1.8845706e-05   0.58498284  0.020389771            0   0.56459306    1.5607364    2.1457192    3.1106194 
16230000    1.1413384 8.9881458e-07   0.48028063  0.025195065            0   0.45508556    1.6906075    2.1708881    2.2169074 
16235000    1.0934439 -7.1238865e-05   0.54065945  0.032839647            0   0.50781981    1.6196638    2.1603233   -1.4871066 
16240000    1.0173699 -0.00017260346   0.65787731  0.034219801            0   0.62365751    1.5069791    2.1648564   -6.6724406 
16245000    1.0901562 -5.0407155e-05   0.56671268  0.031019939            0   0.53569274    1.6147938    2.1815065  -0.39933981 
16250000    1.0189202 2.1381961e-05   0.63153848 0.0052338004            0   0.62630468    1.5092756     2.140814    3.2355704 
16255000    1.0395031 4.2996851e-05   0.59149892 0.0099166238            0    0.5815823    1.5397639    2.1312628    4.3327016 
16260000    1.0539193 -2.1797135e-05   0.56260171  0.028702312            0    0.5338994     1.561118    2.1237197    1.0077064 
16265000    1.0338936 -7.7540021e-05   0.59867449  0.031472842            0   0.56720165    1.5314549    2.1301294   -1.8399197 
16270000   0.98764293 -1.8911078e-05   0.68148778  0.037136898            0   0.64435088    1.4629461    2.1444339    1.1761867 
16275000    1.0010572 2.0864061e-05   0.65715244  0.012808758            0   0.64434368    1.4828159    2.1399684    3.2082083 
16280000    1.0368704 -5.4648382e-05   0.60250534  0.011272475            0   0.59123286    1.5358643    2.1383697  -0.65962746 
16285000    1.0215468 7.650455e-05   0.63024374  0.042612536            0   0.58763121    1.5131663      2.14341     6.060443 
16290000     1.006311 1.6446139e-05   0.65524949  0.029090373            0   0.62615912    1.4905981    2.1458476      2.98789 
16295000    1.0524158 -2.0522987e-05   0.61478834  0.013685554            0   0.60110279    1.5588909    2.1736792    1.1229023 
16300000    1.1492269 3.5817865e-05    0.4641089 0.0067175614            0   0.45739134    1.7022923    2.1664012    4.0002759 
16305000    1.0732823 3.7458559e-05   0.58352872  0.006506997            0   0.57702172    1.5897993    2.1733281    4.0912063 
16310000    1.0511286 5.0067063e-05   0.62698679   0.01078547            0   0.61620132    1.5569842     2.183971    4.7474046 
16315000    1.0303607 5.4963587e-06   0.66490397 0.0054674649            0    0.6594365    1.5262218    2.1911257    2.4725393 
16320000    0.9804064 1.7105466e-05   0.73998147  0.003982722            0   0.73599875     1.452227    2.1922085    3.0680083 
16325000    1.0071133 2.7932902e-05   0.68878698 0.0039729487            0   0.68481403    1.4917866    2.1805736    3.6107382 
16330000     1.076091 3.6807199e-05   0.60888487 0.0094665035            0   0.59941837    1.5939598    2.2028447    4.0873733 
16335000    1.0912821 -6.8330907e-05    0.6101462  0.017711887            0   0.59243431    1.6164616    2.2266078   -1.2719346 
16340000     1.041122 -5.5253443e-05   0.68901294  0.027057299            0   0.66195565     1.542162    2.2311749  -0.59780135 
16345000    1.1210541 2.2315476e-05   0.56147393 0.0050292658            0   0.55644466    1.6605613    2.2220352    3.3645876 
16350000    1.0526545 6.3303432e-05   0.66216045 0.0027902008            0   0.65937025    1.5592445    2.2214049    5.4625406 
16355000    1.1105672 8.5562053e-05   0.58884711  0.020075808            0    0.5687713    1.6450277    2.2338748    6.6146519 
16360000    1.0576175 -8.6178889e-05   0.67239755  0.021290511            0   0.65110704    1.5665959    2.2389934   -2.1733657 
16365000    1.1304007 -0.00011617108   0.57408523  0.014834768            0   0.55925047     1.674406    2.2484912   -3.6994678 
16370000    1.0312898 -5.7437878e-05   0.71875112  0.032044897            0   0.68670623    1.5275981    2.2463492  -0.69447015 
16375000    1.1202251 -0.00016822547   0.58421334   0.01517485            0   0.56903849    1.6593334    2.2435468   -6.3695973 
16380000    1.0973303 -0.0001652641   0.58021317  0.012777275            0   0.56743589    1.6254205    2.2056337   -6.2558882 
16385000   0.94810697 -4.1972991e-05   0.79643025  0.053212866            0   0.74321739    1.4043834    2.2008137  0.051796584 
16390000    1.0309193 -7.2056713e-05   0.68475707  0.067776233            0   0.61698083    1.5270492    2.2118063   -1.4774974 
16395000    1.0243335 -8.8961405e-05   0.68155539  0.024471913            0   0.65708347     1.517294    2.1988494   -2.3559745 
16400000    1.0674004 -0.00012087681   0.60245228  0.040042571            0    0.5624097    1.5810869    2.1835392   -4.0053533 
16405000      1.02194 3.2806277e-05   0.69841106  0.034961401            0   0.66344966    1.5137486    2.2121596     3.891841 
16410000    1.1300094 8.4771756e-05   0.55353105   0.01260791            0   0.54092314    1.6738264    2.2273574    6.5676714 
16415000     1.081446 7.7151995e-05   0.63388441 0.0066371781            0   0.62724723    1.6018919    2.2357763    6.1859584 
16420000    1.0809889 6.4469661e-05   0.65814069 0.0094198402            0   0.64872085    1.6012148    2.2593555    5.5602021 
16425000    1.0671761 -8.2346892e-06   0.64750777   0.01454829            0   0.63295948    1.5807546    2.2282624    1.8066463 
16430000    1.1135295 -1.4134649e-05   0.58740364    0.0136729            0   0.57373074    1.6494155    2.2368192    1.5131251 
16435000    1.0416517 3.4444588e-05   0.69381137  0.087934623            0   0.60587675    1.5429465    2.2367579    4.0003208 
16440000    1.1276138 5.9201117e-05   0.60677894  0.021088897            0   0.58569005     1.670278    2.2770569    5.3081541 
16445000    1.0881806 0.00011735483   0.64277128 0.00032782416            0   0.64244346    1.6118675    2.2546388    8.2632063 
16450000     1.121333 -1.801249e-05    0.5875032 0.0094399792            0   0.57806322    1.6609745    2.2484777    1.3262382 
16455000    1.1302143 -0.00018632628   0.61697033  0.017593871            0   0.59937646    1.6741299    2.2911002   -7.2488054 
16460000    1.1294902 -2.7671471e-05   0.63099564  0.022991703            0   0.60800394    1.6730573     2.304053   0.88727367 
16465000    1.1500761 -8.723863e-06   0.61885074  0.010851674            0   0.60799906    1.7035503     2.322401    1.8757392 
16470000    1.1615309 -2.7598294e-05   0.58158077  0.018476151            0   0.56310462    1.7205177    2.3020985   0.88906583 
16475000    1.1067844 -9.078141e-05   0.68095976  0.019673479            0   0.66128628    1.6394244    2.3203842    -2.327624 
16480000    1.1387658 -1.5498956e-05   0.60420431 0.0094595803            0   0.59474473    1.6867968    2.2910011    1.4974546 
16485000    1.0764787 -7.4385832e-05   0.71051729  0.016369956            0   0.69414733    1.5945341    2.3050514   -1.5035032 
16490000    1.0993723 -7.4276849e-05   0.70928792  0.051577131            0   0.65771078    1.6284452    2.3377331   -1.4652416 
16495000     1.130408 0.00010472239   0.64750002  0.016088547            0   0.63141148    1.6744168    2.3219168    7.6837031 
16500000    1.1826384 4.9260859e-06   0.59713907  0.030047384            0   0.56709169    1.7517831    2.3489222    2.6011378 
16505000    1.0183057 -0.00014495814   0.85844651  0.068844252            0   0.78960226    1.5083653    2.3668118   -5.0550451 
16510000    1.2139733 7.1646862e-05   0.55546134  0.030291648            0   0.52516969    1.7981979    2.3536592    6.0219786 
16515000    1.0893722  0.000176363   0.74965666  0.017297319            0   0.73235934    1.6136325    2.3632892    11.393075 
16520000     1.103639 3.0470222e-05   0.71673561   0.01836645            0   0.69836916    1.6347652    2.3515008    3.9115762 
16525000    1.1786497 -7.6686306e-05   0.61765871    0.0438907            0   0.57376801    1.7458748    2.3635335   -1.5628053 
16530000    1.0694203 -4.3484401e-05   0.76101807  0.024811604            0   0.73620647    1.5840788    2.3450969   0.11869556 
16535000    1.1836578 1.6340271e-05   0.57542759 0.0018639863            0    0.5735636    1.7532931    2.3287207    3.1653426 
16540000    1.2461617 -1.9407884e-05   0.43072866  0.029679392            0   0.40104927     1.845877    2.2766056     1.282922 
16545000     1.093452 -2.427251e-05   0.64837793  0.018805551            0   0.62957238    1.6196758    2.2680537    1.0253012 
16550000    1.0958989 0.0001287417   0.65998108  0.014423279            0    0.6455578    1.6233003    2.2832814    8.8748566 
16555000    1.1174294 7.8673798e-05   0.61363779  0.039764712            0   0.57387308    1.6551924    2.2688301    6.2969286 
16560000    1.1355728 -7.6594778e-05   0.61633849  0.035854496            0   0.58048399    1.6820673    2.2984057   -1.6232469 
16565000    1.0295051 -8.4227236e-05   0.77080881  0.020865274            0   0.74994353    1.5249544    2.2957632   -2.0166713 
16570000    1.1549755 -3.7011786e-05   0.57630087  0.013436548            0   0.56286432    1.7108075    2.2871083   0.39210487 
16575000     1.115243 3.908944e-05   0.65271513  0.012542449            0   0.64017268    1.6519536    2.3046688    4.3060481 
16580000    1.1199629 7.7199163e-05   0.63147698  0.004676115            0   0.62680087     1.658945     2.290422    6.2430191 
16585000    1.1332822 0.00010688105   0.60431067 0.0035733877            0   0.60073728    1.6786742    2.2829849    7.7552945 
16590000    1.0970417 0.0001123441   0.68876313  0.012370945            0   0.67639218     1.624993    2.3137561    8.0657739 
16595000    1.0719358 5.4982018e-05   0.70250097  0.051530166            0    0.6509708    1.5878049    2.2903059    5.1053852 
16600000    1.0017064 0.00010498446   0.78725399  0.052086989            0     0.735167    1.4837776    2.2710316    7.6462358 
16605000    1.0587846 -3.0644014e-05   0.69159561  0.034490615            0   0.65710499    1.5683246    2.2599202   0.69094672 
16610000    1.1047561 -3.3847713e-05   0.63424381  0.030279484            0   0.60396433    1.6364199    2.2706638   0.53766085 
16615000    1.1118093 -7.9433351e-05   0.65117578  0.021022494            0   0.63015328    1.6468675    2.2980432   -1.7689443 
16620000    1.0158625 -0.00014674901   0.77700578  0.035140319            0   0.74186546    1.5047464    2.2817521   -5.2317972 
16625000   0.97336332 -0.00016106286   0.83709121  0.019801571            0   0.81728964    1.4417944    2.2788856   -5.9675328 
16630000    1.1438268 -5.994196e-05   0.56538946  0.030456031            0   0.53493343    1.6942935     2.259683  -0.80934537 
16635000    1.1703908 -2.8083947e-05   0.55113739  0.029109595            0    0.5220278    1.7336413    2.2847787   0.84688065 
16640000    1.0572238 3.0512301e-05   0.72978128  0.044434885            0   0.68534639    1.5660128    2.2957941    3.8580239 
16645000    1.1421744 2.1742147e-05   0.63035868 0.0097154669            0   0.62064322    1.6918459    2.3222046    3.4354025 
16650000    1.1131034 -0.00014670943   0.64247933 0.0013794819            0   0.64109985    1.6487844    2.2912637   -5.2202589 
16655000    1.0841471 -9.8607227e-05   0.68561099 0.00075837519            0   0.68485261    1.6058929    2.2915039   -2.7571862 
16660000    1.0849113 -0.00017155002   0.67456365 0.0054266545            0   0.66913699    1.6070249    2.2815886   -6.5017724 
16665000    1.1506558 -7.2242755e-05   0.59662932 0.0054482623            0   0.59118105    1.7044089    2.3010382   -1.3977908 
16670000    1.1713827 9.0457138e-05   0.56259673  0.001729144            0   0.56086759    1.7351107    2.2977074    6.9291129 
16675000    1.1356904 -4.7862179e-05   0.58605546 0.0008641637            0    0.5851913    1.6822414    2.2682969  -0.18224672 
16680000   0.94590961 1.6511881e-05     0.851371 0.0027715746            0   0.84859942    1.4011286    2.2524996    3.0979079 
16685000    1.0757266 4.5636148e-06   0.67472177 0.0099461915            0   0.66477557      1.59342    2.2681418    2.5017988 
16690000    1.1035631 7.8548043e-05    0.6368665 0.0082400917            0   0.62862641    1.6346529    2.2715194    6.2931792 
16695000    1.1144588 -2.4095355e-05   0.62754696 0.0027986835            0   0.62474828    1.6507921    2.2783391    1.0446569 
16700000    1.1431139 -4.6065127e-05   0.59563135 0.0046636505            0    0.5909677    1.6932375    2.2888688 -0.069665709 
16705000    1.0950434 -7.8379717e-05   0.67181402  0.024577332            0   0.64723669     1.622033     2.293847   -1.7191945 
16710000    1.0488972 -1.8170129e-05   0.70883657 0.0058053121            0   0.70303126    1.5536789    2.2625155    1.3322049 
16715000    1.1301435 7.5957134e-05   0.59884217 0.0060544068            0   0.59278777    1.6740251    2.2728673    6.1618725 
16720000    1.0775806 -3.424664e-05   0.67979629  0.006202812            0   0.67359348    1.5961663    2.2759626   0.52253461 
16725000    1.1692776 6.5451295e-05   0.55839976  0.004296312            0   0.55410344    1.7319924    2.2903922    5.6414985 
16730000    1.0660169 4.2346291e-05    0.7007762  0.023756577            0   0.67701962    1.5790376    2.2798138    4.4479439 
16735000    1.1930604 -5.3302605e-05   0.49715404  0.016326988            0   0.48082705    1.7672206    2.2643747  -0.46471867 
16740000    1.1268558 -2.5111071e-05   0.61062175 4.1583546e-05            0   0.61058016    1.6691552    2.2797769   0.99409008 
16745000    1.1194259 -4.9765476e-05   0.61896995 0.0079343676            0   0.61103558    1.6581496    2.2771196  -0.27087279 
16750000    1.1521142 6.3458934e-05   0.57924851 0.0064053748            0   0.57284314    1.7065692    2.2858177    5.5349151 
16755000    1.1840592 -3.6883339e-05   0.53171228 0.0067265841            0    0.5249857    1.7538877       2.2856   0.39717307 
16760000    1.1152378 -6.0764184e-05   0.61735758  0.053959655            0   0.56339792     1.651946    2.2693036  -0.84182264 
16765000    1.1204642 -9.5213131e-05    0.6066477  0.019840309            0   0.58680739    1.6596876    2.2663353   -2.6085771 
16770000    1.1312484 -8.5960377e-07   0.59058504 0.0077147809            0   0.58287026    1.6756616    2.2662467     2.222235 
16775000     1.108519 0.00015607871   0.59900545 0.0078809469            0    0.5911245    1.6419938    2.2409993    10.232229 
16780000    1.1215857 -2.6098783e-05   0.56888669  0.018330819            0   0.55055587    1.6613488    2.2302355   0.89397776 
16785000    1.0586688 0.00017040331   0.67261186  0.035175303            0   0.63743656    1.5681531     2.240765    10.965415 
16790000    1.0666545 9.6346635e-05   0.62323911  0.017917471            0   0.60532164    1.5799819     2.203221    7.1361687 
16795000    1.0614991 -3.7600018e-05   0.58978079  0.013857325            0   0.57592346    1.5723456    2.1621264   0.23700542 
16800000    1.0906082 3.4077752e-05   0.55394979  0.029913871            0   0.52403592    1.6154633    2.1694131    3.9141941 
16805000    1.0434699 -5.345876e-05   0.62346337  0.027939514            0   0.59552386    1.5456397    2.1691031   -0.5679854 
16810000    1.1174013 3.3686229e-05   0.53668638  0.009829945            0   0.52685643    1.6551507    2.1918371     3.916572 
16815000    1.0891984 -4.665803e-05    0.6157011 0.0015210455            0   0.61418005    1.6133752    2.2290763  -0.15981486 
16820000    1.0610577 3.4004857e-05   0.67269838 0.0035478882            0   0.66915049    1.5716918    2.2443902    3.9854388 
16825000    1.1378908 -4.9715043e-05   0.54321703 0.0095865354            0    0.5336305    1.6855008    2.2287178   -0.3166924 
16830000    1.0763459 -0.00011575565   0.66365398  0.023626049            0   0.64002794    1.5943373    2.2579913   -3.6686979 
16835000    1.0451777 -0.00011307627   0.70547423  0.023438507            0   0.68203572    1.5481694    2.2536437   -3.5358616 
16840000   0.97261336 -7.0590641e-05   0.82168645   0.11032818            0   0.71135826    1.4406835      2.26237   -1.3518708 
16845000    1.1298915 4.5205716e-05   0.61042021  0.046845082            0   0.56357513    1.6736517    2.2840719    4.5986046 
16850000    1.0888914 -2.0875497e-05   0.63025278  0.031308047            0   0.59894473    1.6129204    2.2431732    1.1743478 
16855000    1.0522789 -3.5422475e-05     0.697461  0.034330418            0   0.66313058    1.5586881    2.2561491    0.4425184 
16860000    1.1662417 -4.0937458e-05   0.52064854  0.032167766            0   0.48848077    1.7274955     2.248144   0.15214616 
16865000    1.1385772 0.00010351691    0.5342657  0.030121145            0   0.50414455    1.6865174    2.2207831    7.5208487 
16870000     1.087271 7.1165275e-05   0.63076776  0.019471816            0   0.61129594    1.6105201    2.2412879      5.88495 
16875000     1.039899 -1.9773893e-05   0.69385715  0.022736728            0   0.67112043    1.5403503    2.2342075    1.2217841 
16880000    1.1458443 3.3797872e-05   0.50903376  0.022422381            0   0.48661138    1.6972819    2.2063157    3.9367667 
16885000    1.0427996 -7.226737e-05   0.64348763  0.058964001            0   0.58452363    1.5446469    2.1881346   -1.5119548 
16890000   0.99819405 -3.3794518e-05   0.69556438  0.038358611            0   0.65720577    1.4785749    2.1741393      0.44386 
16895000    1.0668209 -8.2242747e-05   0.58498085 0.0072349208            0   0.57774593    1.5802285    2.1652093   -2.0456193 
16900000    1.1424893 -2.0912472e-05    0.4834242  0.017391595            0    0.4660326    1.6923123    2.1757365     1.105018 
16905000    1.0951029 -4.297946e-05   0.53314372  0.015732425            0   0.51741129    1.6221211    2.1552648 -0.045283497 
16910000    1.0370403 -6.0408381e-05   0.62932609 0.0049116287            0   0.62441446     1.536116    2.1654421  -0.92746706 
16915000    1.0963109 6.1178335e-05   0.58349237 0.0066245406            0   0.57686783    1.6239105    2.2074028    5.3397336 
16920000    1.0349296 6.1980238e-05   0.69970597  0.022188391            0   0.67751758    1.5329894    2.2326954    5.4060836 
16925000    1.1193307 -9.939575e-05   0.56707887  0.019109357            0   0.54796952    1.6580085    2.2250874    -2.863975 
16930000    1.0467287 -3.6716948e-05   0.66839506  0.031691347            0   0.63670372    1.5504669    2.2188619    0.3389542 
16935000    1.0861186 0.00012146195   0.58419651  0.018443864            0   0.56575265    1.6088132    2.1930097    8.4118617 
16940000    1.0603541 -1.5514169e-05   0.64399973  0.014706509            0   0.62929322    1.5706495    2.2146492    1.4203237 
16945000    1.0333962 -3.5605453e-06   0.68138067  0.029059511            0   0.65232116    1.5307181    2.2120987    2.0297988 
16950000    1.0464683 0.00013379276   0.65917588  0.037815123            0   0.62136075    1.5500811     2.209257    9.0594461 
16955000    1.0268417 -1.184795e-05   0.70146539  0.016775931            0   0.68468945    1.5210093    2.2224747    1.6158596 
16960000    1.0484715 -2.3361838e-05   0.67339936   0.02540545            0   0.64799391    1.5530484    2.2264477    1.0303216 
16965000    1.0458824 0.00010163773   0.67822768  0.086694861            0   0.59153282    1.5492133     2.227441    7.4312928 
16970000    1.0658081 0.00010117349   0.64094697  0.038356944            0   0.60259002    1.5787283    2.2196752    7.3997581 
16975000    1.0832042 1.5345936e-06   0.57538746  0.015865037            0   0.55952242    1.6044963    2.1798837    2.2584549 
16980000    1.0061276 -9.2416101e-05   0.69915799  0.045663741            0   0.65349425    1.4903265    2.1894845   -2.5422198 
16985000    1.0122653 -8.0103027e-05   0.69978233  0.050508494            0   0.64927384     1.499418    2.1992003   -1.9020747 
16990000     1.079322 6.4940629e-05   0.61559053  0.019770804            0   0.59581973    1.5987457    2.2143362    5.5392964 
16995000    1.0687398 5.3143927e-05   0.62364893 0.0078141651            0   0.61583476    1.5830708    2.2067197    4.9276888 
17000000    1.0759437 -0.00010916766   0.60450767 0.0051874734            0    0.5993202    1.5937416    2.1982492   -3.3911348 
17005000    1.0765275 -4.2448917e-05   0.63269979  0.011257165            0   0.62144262    1.5946063    2.2273061  0.053921575 
17010000    1.0647336 5.3120717e-05   0.67597152   0.02517412            0    0.6507974    1.5771366    2.2531082    4.9728889 
17015000    1.0145027 1.6785074e-05   0.72601169  0.028420665            0   0.69759103    1.5027322    2.2287438    3.0881396 
17020000    1.0913578 -8.3662287e-05   0.62090951  0.021910379            0   0.59899913    1.6165737    2.2374833   -2.0460259 
17025000    1.0930637 -0.00019703128   0.60042065  0.035776156            0    0.5646445    1.6191007    2.2195213   -7.8684804 
17030000    1.1501074 -8.2899224e-05    0.5450308  0.021386533            0   0.52364427    1.7035965    2.2486273    -1.995813 
17035000    1.1099436 -3.6999905e-05   0.62246355  0.028592315            0   0.59387123    1.6441039    2.2665675   0.37217236 
17040000   0.99622184 -2.3959528e-05   0.77703254  0.085070419            0   0.69196212    1.4756536    2.2526861    1.0259583 
17045000    1.0555893 0.00012695758    0.6812054  0.022398818            0   0.65880659    1.5635917    2.2447971    8.7450252 
17050000    1.1288051 0.00010925107   0.54150461  0.015186571            0   0.52631804    1.6720426    2.2135472    7.8072019 
17055000   0.99622643 -2.3737261e-05    0.7124139  0.019415162            0   0.69299873    1.4756604    2.1880743   0.97272651 
17060000    1.0134537 -2.1177594e-05     0.700504 0.0056778063            0    0.6948262    1.5011784    2.2016824    1.1173896 
17065000    1.0449656 2.5102184e-05   0.60707088 0.00091080507            0   0.60616008    1.5478554    2.1549262    3.4401581 
17070000    1.0988125 4.0462164e-05   0.52626612 0.0048090295            0   0.52145709    1.6276161    2.1538822     4.225545 
17075000    1.0160558 0.00010694394   0.63709368 0.0069368397            0   0.63015684    1.5050326    2.1421263    7.6176559 
17080000     1.007912 7.1836432e-05   0.64161937  0.010609951            0   0.63100942    1.4929697    2.1345891    5.8126144 
17085000    0.9508575 -5.2467022e-05   0.72826951  0.018666695            0   0.70960281    1.4084577    2.1367272  -0.54958435 
17090000   0.92965378 -5.5982845e-05   0.73482602  0.022493672            0   0.71233235    1.3770497    2.1118757  -0.75444601 
17095000   0.91401985 -0.00011263504   0.73700965   0.02563081            0   0.71137884    1.3538919    2.0909015   -3.6760127 
17100000    1.0216707 -0.00014789005   0.58347895 0.0061282892            0   0.57735066    1.5133498    2.0968287   -5.4751418 
17105000   0.94122765 -6.901135e-05   0.71842084 0.0062762431            0    0.7121446    1.3941935    2.1126143   -1.4207668 
17110000   0.95435463 -1.487703e-05   0.65024963 0.0037403052            0   0.64650933    1.4136378    2.0638874    1.3021835 
17115000   0.93627072 1.8795899e-05   0.67631873 0.0058262954            0   0.67049244     1.386851    2.0631697    3.0255198 
17120000    0.8180439 8.2922739e-05   0.82082403 0.0081271146            0   0.81269691    1.2117275    2.0325516    6.2781958 
17125000    0.9656124 0.00020555603   0.62113529  0.019404284            0     0.601731    1.4303134    2.0514487    12.575917 
17130000   0.95266124 0.00010617281   0.66950394  0.018407649            0   0.65109629    1.4111295    2.0806334    7.5166812 
17135000   0.99046324 -1.0031038e-05   0.60136886  0.037558218            0   0.56381064    1.4671237    2.0684925    1.5549034 
17140000    1.0378418 8.8562886e-05   0.54553729  0.021019726            0   0.52451756    1.5373031    2.0828404    6.6172602 
17145000   0.97506569 8.0725808e-05   0.63794117  0.011635958            0   0.62630521     1.444316    2.0822572    6.2154186 
17150000   0.98040238 4.3121647e-06   0.63372973  0.016055553            0   0.61767417     1.452221    2.0859507    2.3067336 
17155000   0.98629078 -6.2804108e-05   0.60610163  0.030545052            0   0.57555658    1.4609432    2.0670448   -1.1485255 
17160000    0.9067518 -8.5072259e-05   0.74263184  0.053837819            0   0.68879402    1.3431261    2.0857579   -2.2699417 
17165000    1.0144894 -4.4221474e-05    0.5788178  0.038915352            0   0.53990245    1.5027124    2.0815302  -0.18260923 
17170000   0.94957394 -2.8123578e-05   0.68498224  0.046136821            0   0.63884542    1.4065564    2.0915386   0.65161144 
17175000   0.92845472 5.4325447e-05   0.71424646  0.032485691            0   0.68176077    1.3752736      2.08952    4.8709829 
17180000   0.99596682 0.00015360203   0.63399059  0.017032473            0   0.61695812    1.4752759    2.1092664    9.9736905 
17185000    1.1068832 8.3687811e-05   0.45948021 0.0024380926            0   0.45704211    1.6395707     2.099051    6.3838669 
17190000    1.0098355 -0.000118743   0.55818284  0.010820477            0   0.54736236    1.4958188    2.0540017   -4.0256402 
17195000   0.89445152 -0.00019425226   0.74318676  0.037873619            0   0.70531314    1.3249063    2.0680931   -7.8776228 
17200000   0.99664931 -3.6148285e-05    0.5915425  0.013010704            0    0.5785318    1.4762868    2.0678293   0.21703712 
17205000   0.95726463 6.3828928e-05   0.61553864  0.011830253            0   0.60370838    1.4179482    2.0334869     5.301528 
17210000    1.0211537 -8.602092e-05   0.49086082  0.006872213            0   0.48398861    1.5125839    2.0034447   -2.4008263 
17215000    1.0069988 -8.3253578e-05   0.51268638  0.002219526            0   0.51046685     1.491617    2.0043034   -2.2582798 
17220000   0.93739178 0.00018864388    0.6477338 0.0093349516            0   0.63839885    1.3885116    2.0362454    11.694812 
17225000   0.98071329 -2.2618233e-06   0.59317304  0.027961876            0   0.56521117    1.4526816    2.0458546    1.9300493 
17230000    1.0372724 5.2210574e-05   0.54565016  0.035077559            0    0.5105726    1.5364597    2.0821099    4.7552913 
17235000   0.99399039 2.3151904e-06   0.64494267  0.025840674            0     0.619102    1.4723483    2.1172909    2.2358287 
17240000   0.99498316 1.9799571e-05   0.63758967  0.026120092            0   0.61146957    1.4738188    2.1114085    3.1251465 
17245000   0.98496253 9.9077147e-05   0.65160103  0.022237187            0   0.62936384    1.4589758    2.1105768    7.1833267 
17250000   0.98319265 -8.4189878e-05     0.654703  0.011136692            0   0.64356631    1.4563541    2.1110571   -2.1994647 
17255000   0.96618811 -2.1400766e-05   0.68902323  0.047141146            0   0.64188208    1.4311661    2.1201894    1.0244701 
17260000    1.0166598 5.3868199e-05   0.63601642  0.029105612            0   0.60691081    1.5059274    2.1419438    4.8999956 
17265000    1.1135363 7.598196e-05   0.54852998  0.011408612            0   0.53712137    1.6494257    2.1979557     6.088232 
17270000    1.0029086 -3.2407202e-05   0.72384451   0.01145464            0   0.71238987    1.4855584    2.2094029   0.55015418 
17275000   0.99510954 -6.2670978e-05   0.72757508 0.0090244445            0   0.71855063     1.474006    2.2015811    -1.007173 
17280000    1.0233998 0.00017602529   0.69121581 0.0011906888            0   0.69002512    1.5159109    2.2071267    11.219622 
17285000    1.0296285 7.3870252e-05   0.69893748  0.070461849            0   0.62847563    1.5251372    2.2240747    6.0062316 
17290000    1.1474967 -6.7330918e-05   0.52650766 0.0057026357            0   0.52080502    1.6997295    2.2262372   -1.2211058 
17295000    1.1434754 5.1051035e-06    0.5130278  0.017043278            0   0.49598452    1.6937729    2.2068007     2.468182 
17300000    1.0265953 0.00014834887   0.70893323  0.033079263            0   0.67585397    1.5206443    2.2295775    9.8250395 
17305000     1.146692 9.3174935e-05   0.51240366  0.031675819            0   0.48072784    1.6985376    2.2109412    6.9814979 
17310000    1.1541327 -0.0001373251    0.4896167  0.026717662            0   0.46289904    1.7095591    2.1991758   -4.8318692 
17315000    1.0400606 5.6619319e-05   0.66823883 0.0096244463            0   0.65861438    1.5405898    2.2088287    5.1077378 
17320000   0.99325531 0.00021537301    0.7421663 0.0039136065            0   0.73825269    1.4712594    2.2134257    13.240524 
17325000    1.2085154 2.0566908e-05   0.43140109 0.0038423686            0   0.42755873    1.7901134    2.2215145    3.2745402 
17330000    1.1342568 -5.2342136e-05    0.5670994   0.02904102            0   0.53805838    1.6801178    2.2472172   -0.4327001 
17335000    1.0643607 -9.8611989e-06   0.63314476  0.012677091            0   0.62046767    1.5765842     2.209729    1.7048356 
17340000    1.1612783 6.696897e-05   0.47489495  0.012492693            0   0.46240226    1.7201436    2.1950385    5.6238498 
17345000     1.052333 -0.00010486924   0.60011661 0.0095336692            0   0.59058294    1.5587682    2.1588848   -3.2104205 
17350000     1.018025 6.6974271e-05   0.65401881  0.014633209            0    0.6393856    1.5079496    2.1619684    5.5910511 
17355000    1.0777273 -7.4069341e-05   0.56107719  0.012006958            0   0.54907023    1.5963835    2.1574607   -1.6348895 
17360000    1.0720227 -3.7128019e-05   0.55141344  0.028421733            0   0.52299171    1.5879337    2.1393471   0.23839256 
17365000    1.0439761 -0.00011215157    0.6075882   0.03172361            0   0.57586459    1.5463896    2.1539778   -3.5881824 
17370000    1.0928137 2.7115379e-05   0.54205396  0.048557869            0   0.49349609    1.6187303    2.1607842    3.5490916 
17375000    1.0925499 -6.4091216e-06   0.54635449  0.015495262            0   0.53085922    1.6183395     2.164694     1.836547 
17380000    1.1338605 6.7601811e-05   0.50296436  0.025983095            0   0.47698126    1.6795308    2.1824952    5.6437079 
17385000    1.0318622 -6.2343166e-05   0.67226851  0.010046692            0   0.66222182    1.5284459    2.2007144  -0.99125571 
17390000    1.0547728 2.3248378e-05   0.65396964  0.010094187            0   0.64387546    1.5623822    2.2163518    3.4066688 
17395000    1.0469038 7.7948643e-05   0.65909497  0.025353016            0   0.63374196    1.5507263    2.2098212    6.2007918 
17400000    1.0565581 -2.7880146e-05   0.65753699   0.11183517            0   0.54570182    1.5650267    2.2225637   0.79510021 
17405000     1.091085 -1.4631339e-05   0.60442251  0.016239083            0   0.58818343    1.6161696    2.2205921    1.4714676 
17410000    1.1800412 -1.6267596e-05   0.49160209  0.037647488            0   0.45395461    1.7479361    2.2395382    1.4066372 
17415000    1.1108085 4.1688035e-05   0.61062081  0.043639713            0    0.5669811    1.6453851     2.256006    4.3904333 
17420000    1.0817348 7.4635312e-05   0.62742904   0.01692099            0   0.61050805    1.6023197    2.2297487    6.0510767 
17425000    1.0997749 5.6571488e-05   0.58605516  0.027381657            0    0.5586735    1.6290416    2.2150967    5.1115569 
17430000   0.99787209 0.00019283371   0.73954079  0.041425506            0   0.69811529     1.478098    2.2176388    12.090725 
17435000    1.0926434 6.3607889e-05   0.59653729 0.0090499369            0   0.58748735     1.618478    2.2150153    5.4717392 
17440000    1.1488298 -2.8616838e-05   0.51006632  0.011369665            0   0.49869665    1.7017042    2.2117705   0.74658838 
17445000    1.0724359 -8.6060158e-05   0.60281041   0.02700709            0   0.57580332    1.5885457    2.1913561    -2.214924 
17450000     1.165835 1.0142507e-05   0.43280123 0.0033684631            0   0.42943276    1.7268931    2.1596944    2.6789907 
17455000    1.0697054 4.9734702e-05   0.58247559 0.0087173672            0   0.57375822    1.5845012    2.1669768    4.7133935 
17460000    1.0926877 -0.00012455741   0.55405904  0.028632125            0   0.52542691    1.6185436    2.1726026   -4.2047367 
17465000    1.0226308 -3.5318319e-05   0.68912078  0.046056275            0   0.64306451    1.5147718    2.2038926    0.3955947 
17470000    1.0919015 -1.5349548e-07   0.56802978  0.022257543            0   0.54577223    1.6173791    2.1854089    2.1775499 
17475000    1.1640743 -1.56393e-05   0.48334502 0.0010433861            0   0.48230163     1.724285      2.20763    1.4068979 
17480000    1.0440489 -1.785591e-05   0.63013636  0.054961716            0   0.57517464    1.5464975    2.1766339    1.2624113 
17485000    1.0876753 -4.2469634e-05   0.59706457  0.067245553            0   0.52981902    1.6111191    2.2081837  0.033738376 
17490000    1.0764776 -6.0949468e-05   0.60147648  0.019737887            0    0.5817386    1.5945325     2.196009  -0.92460378 
17495000    1.1099119 6.3264112e-05   0.55138865 0.0042572669            0   0.54713138    1.6440571    2.1954457    5.4345682 
17500000    1.1541845 6.1980135e-05   0.52077508 0.0065505114            0   0.51422457    1.7096358    2.2304109    5.4037938 
17505000     1.105596 -5.4959515e-06   0.61708026  0.010949677            0   0.60613058     1.637664    2.2547443    1.9733516 
17510000     1.193351 -3.383301e-05   0.52255281  0.012672453            0   0.50988035    1.7676512     2.290204    0.5579539 
17515000     1.148637 -4.3633554e-05   0.58555161 0.0085321758            0   0.57701944    1.7014186    2.2869702  0.052932251 
17520000    1.0876659 -1.427032e-05   0.67008973 0.0036729182            0   0.66641682    1.6111051    2.2811948    1.5505545 
17525000    1.1422749 -4.0541561e-05   0.52950847   0.01644629            0   0.51306218    1.6919947    2.2215031   0.14577521 
17530000    1.0448396 0.0001407225    0.6907226  0.010552663            0   0.68016994    1.5476687    2.2383913    9.4433834 
17535000    1.0558108 9.797408e-05   0.67994628   0.04560144            0   0.63434484    1.5639198    2.2438661     7.260139 
17540000     1.121678 1.8610725e-05   0.55467771  0.024599337            0   0.53007837    1.6614855    2.2161632    3.1690323 
17545000    1.1064367 -1.0026503e-05   0.56069499  0.016004365            0   0.54469063    1.6389093    2.1996043    1.6862474 
17550000    1.0837425 -6.39634e-05   0.57922462  0.018775156            0   0.56044946    1.6052936    2.1845182   -1.0904078 
17555000    1.0794736 9.5572357e-05   0.57651246 0.0072411267            0   0.56927133    1.5989702    2.1754827    7.0687874 
17560000    1.0807283 0.00010375492   0.53870088   0.01920839            0   0.51949249    1.6008288    2.1395296    7.4517818 
17565000    1.0488228 -0.00015421488   0.60960637  0.027377197            0   0.58222918    1.5535687    2.1631751   -5.7326267 
17570000    1.0470213 -8.2287875e-05   0.61634611  0.040704747            0   0.57564136    1.5509004    2.1672465   -2.0458927 
17575000    1.0481513 0.00014769203   0.61479053  0.014205607            0   0.60058493    1.5525741    2.1673646    9.7291964 
17580000    1.0708416 0.00013889481   0.57137326 0.0026654394            0   0.56870782    1.5861841    2.1575573    9.2689716 
17585000    1.0375217 -5.6001803e-05   0.60765739 0.0045048647            0   0.60315253     1.536829    2.1444864  -0.72280591 
17590000    1.1070938 -6.231723e-05   0.51105827  0.009364987            0   0.50169328    1.6398827     2.150941   -1.0397012 
17595000   0.99851804 0.00010734716   0.65153758 0.0045308514            0   0.64700673    1.4790549    2.1305924    7.6267671 
17600000    1.0826837 0.00010368333   0.52506587  0.008166675            0   0.51689919    1.6037253    2.1287912    7.4373779 
17605000    1.0408589 -4.65321e-05   0.60530274  0.005120646            0   0.60018209    1.5417723     2.147075   -0.2353685 
17610000    1.0725797 4.7289797e-06   0.55112643 0.0023446217            0   0.54878181    1.5887587    2.1398851    2.3820089 
17615000    1.0598615 5.0981518e-05   0.55487873  0.015759195            0   0.53911953    1.5699198    2.1247985    4.7350522 
17620000    1.1196136 1.817703e-05   0.48338007  0.019668164            0   0.46371191    1.6584276    2.1418077    3.0724717 
17625000    1.0082912 4.0786947e-05   0.64393625  0.017794409            0   0.62614184    1.4935314    2.1374676    4.2257593 
17630000     1.046637 6.3153636e-05     0.594132  0.015242004            0   0.57888999    1.5503311    2.1444631    5.3779293 
17635000    1.0413042 -2.2980737e-05   0.58778226  0.010624456            0    0.5771578    1.5424319    2.1302142   0.95360042 
17640000    1.0493044 -3.9649916e-05   0.58002269  0.017421113            0   0.56260157    1.5542821    2.1343048   0.10422915 
17645000     1.024799 8.7859806e-05   0.61769876  0.015605794            0   0.60209297    1.5179836    2.1356823    6.6341044 
17650000    1.1187209 0.00015589454     0.494765  0.029871273            0   0.46489372    1.6571053    2.1518703    10.133671 
17655000    1.0470877 6.2933788e-05   0.58672449  0.015955696            0    0.5707688    1.5509987    2.1377232    5.3599331 
17660000   0.99405934 -8.2673424e-05   0.66951655  0.016482384            0   0.65303417    1.4724504    2.1419669   -2.0909124 
17665000    1.0834714 -5.3019696e-05   0.55747389  0.040035115            0   0.51743877    1.6048921    2.1623659   -0.5522425 
17670000    1.0642067 -2.6645636e-05   0.56325055   0.04010896            0   0.52314159    1.5763562    2.1396068   0.77535023 
17675000    1.0729171 3.694972e-06   0.54369905  0.036742875            0   0.50695618    1.5892585    2.1329575    2.3221401 
17680000     1.148503  1.99097e-05   0.47374172  0.029500173            0   0.44424155    1.7012201    2.1749618    3.1943384 
17685000    1.0146347 2.852463e-05   0.66746121  0.037724928            0   0.62973629    1.5029277    2.1703889      3.63085 
17690000    1.1003897 9.7651622e-05   0.56897631  0.025604753            0   0.54337156    1.6299523    2.1989286    7.1986916 
17695000     1.208663 3.5867272e-05   0.39102412 0.0058194242            0   0.38520469     1.790332    2.1813561    4.0177605 
17700000   0.98296176 -1.7998628e-05   0.68703255  0.020892405            0   0.66614015    1.4560121    2.1430447    1.2215149 
17705000    1.0261103 -1.0808849e-05   0.61148151  0.028850696            0   0.58263082     1.519926    2.1314075    1.5779944 
17710000   0.96174595 9.6545631e-05   0.69476957  0.024067908            0   0.67070166    1.4245862    2.1193558    7.0624921 
17715000    1.0541275 0.00012873896   0.57459882  0.030648607            0   0.54395022    1.5614264    2.1360252    8.7274597 
17720000    1.0186966 3.699827e-05    0.6231573  0.059206758            0   0.56395054    1.5089443    2.1321016     4.026413 
17725000    1.0627341 -1.3199659e-05   0.56671335  0.056721467            0   0.50999189    1.5741749    2.1408883    1.4650657 
17730000    1.0773759 1.928872e-05    0.5517437  0.013979467            0   0.53776424     1.595863    2.1476067    3.1351892 
17735000    1.0438145 3.7388206e-05   0.57315244   0.02094162            0   0.55221082    1.5461503    2.1193027    4.0335788 
17740000    1.0069431 -3.9848982e-05    0.6346623  0.034821102            0    0.5998412    1.4915345    2.1261968  0.085928901 
17745000   0.95908922 0.00010896738    0.7309522  0.015593861            0   0.71535834    1.4206509    2.1516031    7.7307329 
17750000   0.98664976 -4.6499373e-05    0.6868529  0.073356571            0   0.61349633     1.461475    2.1483279  -0.23244004 
17755000    1.1120261 -8.1257355e-05   0.54053729  0.024488743            0   0.51604855    1.6471886    2.1877259   -1.9726507 
17760000    1.0797609 9.0848666e-05   0.59805401 0.0057888616            0   0.59226515    1.5993959    2.1974499    6.8489016 
17765000    1.0482327 -2.8700997e-05   0.66351825  0.020588863            0   0.64292939    1.5526946    2.2162129    0.7467218 
17770000    1.0992498 7.7864499e-06   0.62782877 0.0094270826            0   0.61840169    1.6282638    2.2560926    2.6547588 
17775000    1.0579458 3.4695478e-05    0.6958123  0.013387246            0   0.68242505    1.5670823    2.2628946    4.0393031 
17780000    1.1995691 -1.6983753e-05   0.45694487 0.0048820155            0   0.45206285    1.7768618    2.2338067    1.3642385 
17785000    1.0951433 -1.6942042e-06   0.63002851  0.015213596            0   0.61481491    1.6221811    2.2522096    2.1654663 
17790000    1.0606088 -5.4401079e-05   0.66463087  0.028239177            0    0.6363917    1.5710268    2.2356577  -0.54967752 
17795000    1.0893864 3.857393e-05    0.6074256  0.024185228            0   0.58324037    1.6136536    2.2210792    4.1960644 
17800000    1.0603977 9.4632471e-05   0.63749363  0.052675595            0   0.58481804    1.5707141    2.2082077    7.0533902 
17805000    1.1341273 1.3079304e-05    0.5621389  0.025309056            0   0.53682985     1.679926    2.2420649    2.9117253 
17810000     1.057714 1.2222454e-05   0.63406981 0.0067398938            0   0.62732992    1.5667389    2.2008087    2.8265984 
17815000    1.0565659 -0.00011591003   0.61771887 0.0045492536            0   0.61316961    1.5650382    2.1827571   -3.7518362 
17820000    1.0977544 -1.0153791e-05   0.56563465 0.0069022432            0   0.55873241    1.6260488    2.1916834    1.6718093 
17825000    1.0850268 0.0001049559   0.60085881  0.010556981            0   0.59030183     1.607196    2.2080548    7.5817971 
17830000    1.1293744 -4.3427517e-05   0.51307994  0.019744618            0   0.49333532    1.6728858    2.1859658 -0.037523119 
17835000    1.0603414 -0.00015366198   0.63991074  0.020716174            0   0.61919457    1.5706306    2.2105414   -5.6569522 
17840000    1.0588118 -4.2232037e-05   0.61441063 0.0075347804            0   0.60687585     1.568365    2.1827757  0.020495371 
17845000     1.018735 -3.4198957e-05   0.69936072 0.0070523901            0   0.69230833    1.5090013     2.208362   0.45737542 
17850000    1.0513648 -6.4401869e-07   0.60900268 0.0049186659            0   0.60408402    1.5573342    2.1663369    2.1333631 
17855000   0.95641412 -4.4569409e-05   0.72771037   0.01784717            0    0.7098632    1.4166884    2.1443988  -0.13755497 
17860000    1.0395353 -5.0437574e-06   0.57962361  0.021761717            0   0.55786189    1.5398116    2.1194353    1.8611949 
17865000    1.0517495 1.0644378e-05   0.56410996  0.017251795            0   0.54685817    1.5579039    2.1220138     2.667006 
17870000   0.95913999 -5.6757294e-05   0.68605687  0.012164407            0   0.67389246    1.4207261     2.106783  -0.79919049 
17875000   0.95911096  -4.9573e-05   0.67465101  0.018535555            0   0.65611545    1.4206831    2.0953341  -0.44280349 
17880000    1.0404854 -2.802628e-06   0.58272056   0.02124577            0   0.56147479     1.541219    2.1239396     1.980445 
17885000    1.0327291 2.9231169e-05   0.60159187 0.0069306605            0   0.59466121    1.5297299    2.1313218    3.6279576 
17890000    1.0229346 1.2085031e-05   0.64493507  0.006567511            0   0.63836756    1.5152219     2.160157    2.7789106 
17895000    1.0945791 3.0857206e-06   0.53587967  0.035458292            0   0.50042137    1.6213453    2.1572249    2.3152138 
17900000    1.0274994 -0.00013641141   0.64608025  0.032484929            0   0.61359532    1.5219834    2.1680637   -4.8162007 
17905000   0.95508552 -1.0498164e-05   0.72398964  0.015367914            0   0.70862173    1.4147204    2.1387101    1.6012041 
17910000    1.0659186 0.00014635157   0.57831301  0.016631453            0   0.56168156    1.5788919    2.1572049    9.6504055 
17915000    1.0187805 0.00012868367   0.65962369 0.0090009377            0   0.65062275    1.5090687    2.1686924    8.7572962 
17920000    1.0529465 4.1724256e-05   0.58401331  0.026665524            0   0.55734778    1.5596769    2.1436902    4.2799721 
17925000   0.91172735 -0.00017202862   0.78648729  0.042790106            0   0.74369719    1.3504961    2.1369834   -6.6708818 
17930000     1.057926 6.4455658e-05   0.56359926  0.018000316            0   0.54559895    1.5670528    2.1306521    5.4307818 
17935000    1.0421362 2.5179402e-05   0.60817244 0.0065214807            0   0.60165096    1.5436642    2.1518366     3.441022 
17940000    1.0277939 -0.00011296327   0.65499786  0.014351435            0   0.64064642    1.5224196    2.1774175   -3.6063021 
17945000   0.97252094 6.1705015e-05    0.7744056  0.012613654            0   0.76179195    1.4405466    2.2149522     5.374249 
17950000    1.0876919 3.2593839e-05    0.6487905  0.038696766            0   0.61009373    1.6111437    2.2599342    3.9287387 
17955000     1.077206 2.6632786e-05   0.66120462  0.026457905            0   0.63474671    1.5956115    2.2568161    3.6204147 
17960000    1.0655927 4.0255778e-05    0.6671292  0.059277759            0   0.60785144    1.5784093    2.2455385    4.3066343 
17965000    1.1506067 -2.3454775e-05   0.54074253  0.041638963            0   0.49910357    1.7043361    2.2450786    1.0441941 
17970000    1.1225248 2.1714999e-05   0.61371306  0.025799657            0    0.5879134    1.6627398    2.2764529    3.3882608 
17975000    1.0225275 6.0202291e-05     0.726918  0.041226504            0   0.68569149    1.5146189    2.2415369    5.3238942 
17980000    1.0321557 -0.00012839358   0.69597232   0.01751087            0   0.67846145    1.5288806    2.2248529   -4.3488987 
17985000    1.0801825 -2.3507125e-05   0.65018482  0.024235856            0   0.62594897    1.6000203    2.2502051    1.0466403 
17990000    1.0171241 0.0001456795   0.73203997  0.027042494            0   0.70499747    1.5066151     2.238655    9.6974452 
17995000    1.0791979 -3.8505294e-05   0.64863305  0.019044196            0   0.62958885    1.5985619     2.247195    0.2757239 
18000000    1.1512581 7.0203958e-06   0.56619696  0.023727751            0   0.54246921    1.7053011     2.271498    2.6309423 
18005000    1.0987854 -5.2840191e-05   0.62921096  0.015947012            0   0.61326395    1.6275759    2.2567868  -0.44863094 
18010000    1.1140737 0.00013393739   0.59120318  0.004498023            0   0.58670515    1.6502216    2.2414248     9.099019 
18015000    1.1143519 0.00017049644   0.59725239 0.0024724324            0   0.59477995    1.6506338    2.2478862    10.977304 
18020000    1.1215493 -3.0389021e-05   0.58330173 0.0036375649            0   0.57966416    1.6612949    2.2445966    0.6886787 
18025000    1.1977983 5.5842016e-05   0.48618489 0.0022819669            0   0.48390292    1.7742387    2.2604236    5.1195348 
18030000    1.0906573 9.562929e-05    0.6542976 0.0041442327            0   0.65015336    1.6155362    2.2698338    7.1660534 
18035000    1.1281294 0.00013416606   0.58737066  0.011112706            0   0.57625795    1.6710417    2.2584124    9.1277147 
18040000    1.1412804 -8.6688434e-05   0.58677597  0.015699087            0   0.57107688    1.6905216    2.2772976   -2.1611502 
18045000    1.0843176 -2.7466573e-05   0.69061179  0.039506148            0   0.65110564    1.6061454    2.2967572   0.89046864 
18050000    1.0687899 3.4605046e-05   0.69694092  0.014072455            0   0.68286846    1.5831451     2.280086    4.0518644 
18055000    1.1583008 -4.5286001e-05    0.5737824  0.026776378            0   0.54700602     1.715733    2.2895154 -0.029127856 
18060000    1.0912478 2.9154321e-05   0.67037892    0.0284454            0   0.64193352    1.6164109    2.2867898     3.779491 
18065000    1.1053286 2.4920843e-06    0.6496377  0.017392438            0   0.63224526     1.637268    2.2869057    2.4145004 
18070000    1.1092361 -4.5213177e-05   0.64352008 0.0083519789            0    0.6351681     1.643056    2.2865761 -0.028338593 
18075000    1.0989403 -4.3639574e-06   0.67533596  0.017667619            0   0.65766834    1.6278054    2.3031413    2.0797067 
18080000    1.1438526 0.0001009251    0.6046435 0.0098808104            0   0.59476269    1.6943317    2.2989752    7.4663404 
18085000    1.1545586 0.00013606651   0.57682166  0.029529562            0    0.5472921    1.7101899    2.2870116    9.2536167 
18090000   0.97678273 7.2011747e-05   0.84937418  0.015254382            0   0.83411979    1.4468594    2.2962336    5.9832351 
18095000    1.1103557 0.00010313226   0.65079038 0.0054609461            0   0.64532943    1.6447144    2.2955048    7.5758765 
18100000    1.1743488 3.5794307e-05    0.5941406  0.024106454            0   0.57003415    1.7395041    2.3336447    4.1663132 
18105000    1.0930952 -6.2509994e-06   0.68243317  0.034464693            0   0.64796847    1.6191473    2.3015805    1.9815293 
18110000    1.1435407 4.6291272e-05   0.58232974  0.023968433            0    0.5583613    1.6938696    2.2761994    4.6463125 
18115000     1.031937 5.2120697e-05    0.7369536  0.021434082            0   0.71551952    1.5285567    2.2655103      4.93409 
18120000    1.1167271 -2.9192117e-05     0.587549   0.01740596            0   0.57014304     1.654152     2.241701   0.74706466 
18125000     1.095618 -0.0001377585   0.63814591 0.0032124542            0   0.63493346    1.6228841      2.26103   -4.7922053 
18130000    1.0032336 -5.7913552e-05   0.78778579 0.00011331313            0   0.78767248    1.4860398    2.2738256  -0.69134831 
18135000    1.1423503 2.1169178e-05   0.56367385 0.0033862985            0   0.56028755    1.6921064    2.2557803    3.3396422 
18140000    1.0571117 5.2998512e-05   0.68850124 0.0099608704            0   0.67854037    1.5658467    2.2543479    4.9678717 
18145000    1.0570256 3.6292148e-05   0.67714233 0.0078892898            0   0.66925304    1.5657192    2.2428615    4.1010195 
18150000    1.1162551 -6.5336883e-05   0.57358007 0.0062763936            0   0.56730367    1.6534528    2.2270329   -1.1182156 
18155000    1.1008606 6.0620247e-06   0.56880862  0.010718237            0   0.55809038    1.6306497    2.1994583     2.509834 
18160000   0.95847548 -2.4702885e-05   0.77621477 0.0057661983            0   0.77044857    1.4197418    2.1959566   0.93116885 
18165000    1.0767042 0.00011113933   0.62665017 0.0013661327            0   0.62528404     1.594868    2.2215182     7.911852 
18170000   0.93394852 5.4413996e-05   0.81275846 0.0068319422            0   0.80592652    1.3834112    2.1961697    4.9821663 
18175000    1.0690842 1.9377903e-05   0.62611361  0.027856507            0    0.5982571     1.583581    2.2096946    3.2018433 
18180000    1.0627271 0.00011193888   0.63435092 0.0058302908            0   0.62852063    1.5741645    2.2085154     7.939786 
18185000    1.0889594 4.1532446e-05   0.63074551  0.017496039            0   0.61324948    1.6130211    2.2437666    4.3702278 
18190000    1.0754911 3.0025271e-05   0.65553776  0.088940454            0   0.56659731    1.5930712     2.248609    3.7859029 
18195000    1.0623053 -2.5891931e-05     0.672843  0.049771507            0    0.6230715    1.5735397    2.2463827   0.92071584 
18200000    1.0493012 -4.6860183e-05   0.69392806  0.018148737            0   0.67577933    1.5542774    2.2482054  -0.15103591 
18205000    1.0169395 2.7590985e-05   0.75411192  0.043389328            0   0.71072259    1.5063417    2.2604536     3.673112 
18210000    1.1386957 -4.2506474e-05   0.59257919  0.037101183            0   0.55547801     1.686693    2.2792722   0.10294075 
18215000    1.2674648 -0.00011725413   0.42118316  0.027664225            0   0.39351893    1.8774323    2.2986154   -3.7047962 
18220000    1.2055285 5.303376e-05   0.52216895  0.047843298            0   0.47432565     1.785689     2.307858    5.0231865 
18225000    1.1400394 0.00015447876       0.6035  0.013085979            0   0.59041402    1.6886833    2.2921833    10.201496 
18230000    1.1228701 1.4379506e-05   0.65550076  0.034064512            0   0.62143625    1.6632513    2.3187521    3.0549828 
18235000    1.0537062 -0.00012859467   0.72803093  0.038463161            0   0.68956777    1.5608023    2.2888332   -4.2952141 
18240000    1.0778546 1.4415821e-05   0.64117568  0.027092646            0   0.61408303    1.5965722    2.2377479    2.9758379 
18245000    1.1755592 0.00014820561   0.52620311  0.033843084            0   0.49236003    1.7412971    2.2675002    9.8556274 
18250000    1.1036597 7.4735539e-05   0.61520043 0.0026850856            0   0.61251534    1.6347959    2.2499964     6.076456 
18255000    1.1448606 5.2893719e-05   0.56176003  0.013103197            0   0.54865683    1.6958248    2.2575849    4.9657433 
18260000    1.1151884 -7.7355222e-06   0.60629961   0.03794962            0   0.56834999    1.6518729    2.2581725    1.8621137 
18265000    1.1312005 -0.00019280905   0.59593933  0.052851889            0   0.54308744    1.6755907    2.2715301   -7.6002934 
18270000    1.1431443 -0.00013863315   0.58121536 0.0094338264            0   0.57178153    1.6932825    2.2744979   -4.8235193 
18275000    1.0926466 -3.8279598e-05   0.65416985  0.042707394            0   0.61146246    1.6184828    2.2726527   0.31273724 
18280000    1.0540631 -6.4961504e-05   0.70312392  0.093224352            0   0.60989957     1.561331    2.2644549   -1.0615741 
18285000    1.1071794 -0.00010607581   0.63138441  0.095914103            0   0.53547031    1.6400095    2.2713939   -3.1596878 
18290000    1.1909514 -7.5346351e-05   0.50283444  0.022020398            0   0.48081404    1.7640968    2.2669312   -1.5908019 
18295000    1.0859394 -6.9285144e-05   0.63842665  0.026950253            0    0.6114764    1.6085477    2.2469743   -1.3004251 
18300000    1.0852178 0.00010906081   0.63268102  0.071458705            0   0.56122232    1.6074789    2.2401599    7.8240731 
18305000     1.085541 4.781308e-06   0.61516918  0.026169897            0   0.58899929    1.6079576    2.2231268    2.4679298 
18310000    1.0859682 -0.00014365802   0.62106833  0.028356821            0   0.59271151    1.6085904    2.2296587   -5.1256319 
18315000    1.0648635 -0.0001723829   0.62908801  0.019291256            0   0.60979675     1.577329     2.206417   -6.6195873 
18320000    1.0774215 -3.3180829e-05   0.59979967  0.048315454            0   0.55148422    1.5959307    2.1957303   0.49687191 
18325000    1.1367796 -5.5564409e-05   0.47775718  0.050934291            0   0.42682289    1.6838548     2.161612  -0.68328574 
18330000     1.079506 -0.00012159059    0.5503183   0.01478826            0   0.53553004    1.5990183    2.1493366   -4.0761017 
18335000    1.0767325 -2.8793153e-05   0.55714543 0.0091902213            0   0.54795521      1.59491    2.1520554   0.67784598 
18340000    1.0196158 1.7996968e-05   0.61494055  0.022655443            0    0.5922851    1.5103058    2.1252464    3.0466911 
18345000    1.0235503 -2.5049216e-05   0.58568582  0.061800476            0   0.52388534    1.5161339    2.1018197    0.8192998 
18350000   0.98273985 -1.3801554e-05   0.65664961  0.035801149            0   0.62084846    1.4556834     2.112333    1.4056934 
18355000    1.0096934 5.6761073e-05   0.63014995  0.022975043            0   0.60717491    1.4956083    2.1257583    5.0319252 
18360000    1.0207975 3.6728622e-05   0.60361527  0.052598445            0   0.55101682    1.5120563    2.1156716     3.996177 
18365000    1.0971525 -2.3696265e-05   0.47594924  0.030823343            0    0.4451259    1.6251571    2.1011064   0.88785761 
18370000    1.0706287 -5.5445915e-06   0.52061518  0.014705327            0   0.50590985    1.5858688    2.1064839    1.8226009 
18375000   0.99816673 4.6443036e-05   0.61751057 0.0013380832            0   0.61617249    1.4785345     2.096045    4.4739285 
18380000    1.0791413 3.2779036e-05   0.51214563  0.017110993            0   0.49503464    1.5984781    2.1106237    3.7889103 
18385000    1.0507562 -3.9214804e-05   0.57440987  0.031170413            0   0.54323946    1.5564326    2.1308424   0.12304447 
18390000    1.1024518 -3.3915544e-05   0.51583209  0.014681578            0   0.50115051    1.6330068    2.1488389   0.41236302 
18395000    1.0813199 -1.1788105e-05   0.57149273  0.028478714            0   0.54301401    1.6017051    2.1731978    1.5696468 
18400000    1.0376716 -2.2259135e-05   0.63543354  0.023893093            0   0.61154045     1.537051    2.1724845    1.0328168 
18405000    1.1243209 -3.430869e-06   0.51428522  0.023742587            0   0.49054264    1.6654004    2.1796856    2.0040251 
18410000    1.0507915 0.00012924926    0.6090834   0.04105506            0   0.56802834    1.5564848    2.1655682    8.7831304 
18415000    1.1005036 0.00014081784   0.52008071  0.069035184            0   0.45104553     1.630121    2.1502017    9.3600753 
18420000     1.040887 6.1892039e-05   0.62961262  0.051761898            0   0.57785072    1.5418139    2.1714266     5.340299 
18425000    1.0423508 0.00013242818   0.63961865  0.052697998            0   0.58692065    1.5439821    2.1836008    8.9639237 
18430000    1.0842818 -2.0047828e-05   0.56150371  0.012697657            0   0.54880606    1.6060924    2.1675961    1.1411473 
18435000    1.0945469 -0.00012158585   0.56479103  0.005558242            0   0.55923279    1.6212977    2.1860887    -4.039107 
18440000    1.0878558 1.8202676e-06   0.55528362 0.0081380305            0   0.54714559    1.6113864      2.16667    2.2598677 
18445000    1.0553606 0.00010463453   0.57980657  0.011618084            0   0.56818848    1.5632529    2.1430595    7.5003472 
18450000    1.1276736 0.00011102359   0.47446704  0.017461918            0   0.45700512    1.6703665    2.1448335    7.8292412 
18455000    1.0322502 -2.634857e-06   0.55738436   0.07504176            0    0.4823426    1.5290207     2.086405    1.9515003 
18460000    1.0081281 -3.8666988e-05   0.56450797   0.04772559            0   0.51678238    1.4932898    2.0577978  0.078047986 
18465000    1.0367943 2.3933553e-05   0.53906704 0.0089466592            0   0.53012038    1.5357515    2.0748186    3.3002165 
18470000    1.0490248 1.5041545e-05   0.54182763  0.031956946            0   0.50987069     1.553868    2.0956956    2.8658228 
18475000    1.0098305 -5.4677744e-05   0.61417233  0.076472649            0   0.53769968    1.4958114    2.1099838   -0.6895167 
18480000   0.97625134 -3.2548541e-05   0.64103014  0.048553974            0   0.59247617    1.4460723    2.0871024   0.42061712 
18485000   0.99106858 -1.8546154e-05   0.65350255  0.046207199            0   0.60729536    1.4680203    2.1215229    1.1719598 
18490000    1.0845338 -9.4865929e-05   0.52988216   0.01768802            0   0.51219414    1.6064657    2.1363479   -2.7207877 
18495000    1.0668215 -7.4231427e-05   0.55032064 0.0042364539            0   0.54608419    1.5802293      2.13055   -1.6700991 
18500000    1.0789411 7.1487793e-05   0.53639273 0.0037392009            0   0.53265353    1.5981815    2.1345742    5.7947492 
18505000    1.1363617 4.3291822e-05   0.43852042  0.013205134            0   0.42531529    1.6832358    2.1217563    4.3382976 
18510000    1.1182747 6.5254933e-05   0.46967576  0.017320846            0   0.45235491    1.6564443    2.1261201    5.4671727 
18515000     1.028048 5.6042255e-05   0.60255016  0.020982986            0   0.58156717    1.5227962    2.1253463    4.9947098 
18520000    1.0504364 -4.1092392e-06   0.55264162 0.0095749427            0   0.54306668     1.555959    2.1086006    1.8982076 
18525000    1.0672008 1.9065075e-05   0.51441972  0.012492385            0   0.50192734    1.5807912     2.095211    3.0713428 
18530000     1.063589 -1.9180533e-05   0.55208274  0.029496194            0   0.52258655    1.5754412     2.127524    1.1454806 
18535000    1.0711195 -0.00013015098   0.55695568  0.027267172            0   0.52968851    1.5865958    2.1435515   -4.5201784 
18540000     1.018669 -9.102584e-05   0.61465629  0.014911107            0   0.59974518    1.5089035    2.1235597   -2.5369633 
18545000    1.0541647 1.6480899e-05   0.54417268  0.039403915            0   0.50476877    1.5614814    2.1056541    2.9494761 
18550000   0.92427077 5.497384e-05   0.73556793  0.068680712            0   0.66688722    1.3690761     2.104644    4.9193046 
18555000    1.0782493 6.7709892e-05   0.48397257  0.039681741            0   0.44429083    1.5971568    2.0811294    5.5478758 
18560000    1.0717178 -1.9037009e-05   0.51475253  0.047466712            0   0.46728582     1.587482    2.1022345    1.1275397 
18565000     1.080308 -7.7211787e-05   0.50123737   0.05714513            0   0.44409224    1.6002062    2.1014436   -1.8517999 
18570000    1.0111122 4.0900442e-05   0.57864908  0.027298936            0   0.55135014      1.49771    2.0763591    4.1704617 
18575000    1.0483049 0.00011560164   0.52627143 0.0015392069            0   0.52473222    1.5528016    2.0790731    7.9978769 
18580000    1.0453151 -2.5833837e-05   0.52605788 0.00028776548            0   0.52577011    1.5483731    2.0744309   0.75173849 
18585000    1.1084196 -8.0334453e-05   0.44883011 0.0036377759            0   0.44519234    1.6418465    2.0906767   -2.0224473 
18590000    1.0878528 1.5456582e-05   0.51924905 0.0090502705            0   0.51019878    1.6113819    2.1306309    2.9220079 
18595000   0.93362066 0.00012227178   0.72909358  0.039477316            0   0.68961626    1.3829256    2.1120192    8.3723344 
18600000    1.0585946 -1.6339385e-06   0.51625721   0.03510217            0   0.48115504    1.5680432    2.0843004    2.0006428 
18605000     1.126484 -4.4171949e-05   0.40375543 0.0087836958            0   0.39497173    1.6686044    2.0723598  -0.18924399 
18610000    1.0295839 3.5961474e-05   0.59395914  0.071302381            0   0.52265676    1.5250711    2.1190302    3.9602577 
18615000    1.0878224 3.3436183e-06   0.50088314  0.031831146            0   0.46905199    1.6113369    2.1122201    2.2834133 
18620000    1.0398583 5.1964918e-05   0.59484661  0.018182349            0   0.57666426    1.5402901    2.1351367    4.7957405 
18625000    1.0412996 3.297348e-05     0.626891   0.03889492            0   0.58799608    1.5424251    2.1693161    3.8575582 
18630000    1.0390392 -0.00013686433   0.63111514  0.046392727            0   0.58472241    1.5390769     2.170192   -4.8372618 
18635000    1.2049607 -1.9839475e-05   0.39561084  0.034233098            0   0.36137775    1.7848481    2.1804589    1.1646778 
18640000    1.1157639 7.6752876e-05   0.51405291  0.038619707            0    0.4754332    1.6527253    2.1667782    6.0965254 
18645000    1.0350593 -9.3738953e-05   0.65832589  0.060564013            0   0.59776187    1.5331816    2.1915074   -2.6079269 
18650000    1.1509231 -5.3977917e-05   0.47761829   0.03361726            0   0.44400103    1.7048049    2.1824232  -0.58124617 
18655000    1.1436979 5.5068322e-05   0.49474886  0.030522469            0   0.46422639    1.6941026    2.1888514    5.0083495 
18660000    1.1354057 4.5974433e-05   0.51446812 0.0052947282            0   0.50917339    1.6818198    2.1962879    4.5501789 
18665000    1.1025805 -9.2393411e-06    0.5477334 0.0018587691            0   0.54587463    1.6331974    2.1809308    1.7078765 
18670000    1.1008407 0.0001666406   0.53677332  0.017987131            0   0.51878619    1.6306204    2.1673937    10.699392 
18675000    1.0998673 0.00011131166   0.54257615  0.032769287            0   0.50980686    1.6291784    2.1717546    7.8709118 
18680000    1.0242525 -0.0001442076   0.63637564  0.043835435            0    0.5925402     1.517174    2.1535496   -5.2298793 
18685000    1.1154075 -0.00011055724   0.48989621  0.026754044            0   0.46314217    1.6521974    2.1420936   -3.5184368 
18690000    1.1424848 8.9104178e-05   0.46636037 0.0078821535            0   0.45847822    1.6923056     2.158666    6.7207999 
18695000    1.1669418 3.9319102e-05   0.42626652 0.00050272024            0    0.4257638    1.7285325     2.154799    4.1679371 
18700000    1.1739539 -4.0636301e-05   0.43497274 0.0002132771            0   0.43475947    1.7389192    2.1738919  0.093313313 
18705000    1.1276979 -2.2443885e-05   0.51281114  0.014356114            0   0.49845502    1.6704025    2.1832136    1.0340867 
18710000    1.0642102 -6.188951e-05    0.5863896  0.057872868            0   0.52851673    1.5763613    2.1627509    -1.005992 
18715000    1.0735011 -9.0394856e-05   0.56575761  0.062024609            0     0.503733    1.5901236    2.1558812   -2.4723355 
18720000    1.0682445 4.5281842e-05   0.57185796  0.036840786            0   0.53501717    1.5823371    2.1541951    4.4726254 
18725000    1.0562095 2.1716062e-05   0.56640645  0.038665589            0   0.52774086    1.5645104    2.1309168    3.2427792 
18730000    1.1685537 -6.4752272e-05   0.41667288   0.02611928            0    0.3905536    1.7309201     2.147593   -1.1677233 
18735000    1.1046931 2.3193325e-05   0.54516308  0.039602888            0   0.50556019    1.6363267    2.1814897     3.368988 
18740000    1.0324273 8.9058474e-05   0.66179023   0.13208121            0   0.52970902    1.5292829    2.1910732     6.750867 
18745000    1.0257029 -1.5596721e-06    0.6348344  0.013959915            0   0.62087449    1.5193224    2.1541568    2.0743015 
18750000    1.1429776 6.1705349e-05   0.47194913  0.019302473            0   0.45264666    1.6930356    2.1649847    5.3242986 
18755000    1.0473662 5.392309e-05    0.5722597  0.015351025            0   0.55690868    1.5514112    2.1236709    4.8845331 
18760000    1.0704291 5.7365813e-05   0.53923944  0.035947975            0   0.50329147    1.5855731    2.1248126    5.0619422 
18765000    1.0314353 4.6395694e-05   0.62705669  0.043513391            0    0.5835433    1.5278135    2.1548702    4.5303297 
18770000     1.125398 -0.00015433883   0.47932843  0.034210353            0   0.44511808    1.6669958    2.1463242    -5.755824 
18775000    1.0725924 -1.2869536e-05   0.54740149  0.024400178            0   0.52300131    1.5887775     2.136179    1.4772588 
18780000    1.0556289 3.3339375e-05   0.53084718  0.060997782            0    0.4698494    1.5636502    2.0944974    3.8014734 
18785000    1.0083912 -2.1720047e-05   0.58266716   0.06253704            0   0.52013012    1.4936795    2.0763466   0.96428024 
18790000    1.1005592 -2.3337682e-05    0.4734659  0.033119146            0   0.44034675    1.6302033    2.1036692   0.90877989 
18795000    1.1167248 -0.00015452906   0.46581255 0.0013590376            0   0.46445351    1.6541485    2.1199611   -5.7919267 
18800000    1.0498516 -1.0090829e-06   0.53354583 0.00090986506            0   0.53263597    1.5550928    2.0886386    2.0369735 
18805000    1.0278949 8.3604907e-05   0.54677564 0.0079669634            0   0.53880868    1.5225694     2.069345    6.3499163 
18810000    1.0169199 0.00010369865   0.56498115  0.033046587            0   0.53193456    1.5063126    2.0712938    7.3806647 
18815000    1.0950604 0.00013885136   0.47681276  0.016632062            0    0.4601807    1.6220583     2.098871    9.2080609 
18820000    1.0275335 0.0001023492   0.58884914 0.0061138131            0   0.58273532     1.522034    2.1108831    7.3511621 
18825000    1.0277345 2.0022772e-05   0.61343347  0.017284268            0    0.5961492    1.5223318    2.1357653    3.1609312 
18830000     1.114109 2.1066518e-05   0.48773206  0.011789874            0   0.47594219     1.650274     2.138006    3.2166117 
18835000    1.1145711 5.8836339e-05   0.50854884  0.033444523            0   0.47510432    1.6509584    2.1595072    5.1719278 
18840000    1.0703651 6.9500136e-06   0.58874258   0.02146858            0     0.567274    1.5854784    2.1742209    2.5300616 
18845000    1.0669444 -2.0862454e-05     0.584949 0.0042410033            0     0.580708    1.5804113    2.1653603    1.0972027 
18850000    1.0894445 -2.3629807e-05   0.55232753 0.0028767288            0    0.5494508    1.6137397    2.1660672   0.95622105 
18855000    1.0788951 -6.049417e-06   0.53657885  0.013919316            0   0.52265953    1.5981134    2.1346922    1.8249621 
18860000    1.0754751 0.00014151892   0.57397164 0.0050810395            0    0.5688906    1.5930475    2.1670192    9.4127877 
18865000     1.079239 0.00012519065   0.54720999 0.0029614889            0    0.5442485    1.5986228    2.1458328    8.5555939 
18870000    1.1089819 -7.1851563e-05   0.50202235  0.017057156            0   0.48496519    1.6426794    2.1447017   -1.5340983 
18875000    1.0566538 -0.00018067367   0.57500711  0.019750007            0    0.5552571    1.5651684    2.1401755   -7.1103163 
18880000    1.0358642 -0.00012857074   0.60969914  0.089069512            0   0.52062963    1.5343739     2.144073    -4.438749 
18885000    1.1090937 -7.1202209e-06   0.51192947  0.018310566            0    0.4936189    1.6428451    2.1547745    1.7902192 
18890000    1.0203922 0.00011867279   0.63386761  0.014985962            0   0.61888165     1.511456    2.1453236    8.2213706 
18895000    1.0730898 8.5031831e-05   0.56407989  0.010566981            0   0.55351291    1.5895143    2.1535942     6.507224 
18900000    1.1808729 -0.00010243658   0.42359421 0.0054587131            0    0.4181355    1.7491679    2.1727622   -3.0719908 
18905000     1.105834 -2.6074959e-05   0.54078433 0.0034831752            0   0.53730115    1.6380167     2.178801   0.84376309 
18910000    1.0977903 0.00013944865   0.55684908   0.01964075            0   0.53720833    1.6261018    2.1829509    9.3227218 
18915000    1.1032564 0.00013056898   0.56632292  0.025081699            0   0.54124122    1.6341985    2.2005215    8.8856535 
18920000    1.0751072 4.7026511e-06   0.58161454 0.0046077811            0   0.57700676    1.5925026    2.1741171    2.4148928 
18925000    1.1209627 -1.2972232e-05   0.51122219 0.0024331766            0   0.50878901     1.660426    2.1716482    1.5074699 
18930000    1.1728426 0.00016491938   0.45267583 0.0037960156            0   0.44887982    1.7372731    2.1899489    10.633821 
18935000    1.0753248 2.3058891e-05   0.57231674  0.021698777            0   0.55061797    1.5928249    2.1651416    3.3457568 
18940000    1.0565772 1.5788036e-05   0.61882606  0.034761388            0   0.58406467     1.565055     2.183881    2.9922285 
18945000    1.0582028 0.00012116374   0.61623908  0.015864173            0   0.60037491     1.567463     2.183702    8.3872855 
18950000    1.0748576 6.9755212e-05    0.5892661  0.010072323            0   0.57919378    1.5921328    2.1813989    5.7528658 
18955000    1.0941998 0.00011535612   0.56801559  0.015407739            0   0.55260785    1.6207835    2.1887991    8.0950324 
18960000    1.1133205 0.00012700036   0.53420462  0.050817782            0   0.48338683     1.649106    2.1833107    8.6857294 
18965000    1.1236109 -6.5131912e-05   0.53846196  0.035186385            0   0.50327557    1.6643486    2.2028106   -1.1319433 
18970000    1.1908335 1.4962993e-05   0.41127267 0.0098033072            0   0.40146936    1.7639221    2.1751948       2.9413 
18975000    1.0810944 0.00011750794    0.5638105 0.0031108399            0   0.56069966    1.6013711    2.1651816    8.1815882 
18980000    1.0424424 -9.8840736e-05   0.59646765 0.0039347064            0   0.59253294    1.5441177    2.1405854   -2.9200603 
18985000    1.0914455 -0.0001064457   0.54375112 0.0039315098            0   0.53981961    1.6167036    2.1604548   -3.2895649 
18990000    1.0586459 1.8520522e-05   0.58787462 0.0050186795            0   0.58285594    1.5681192    2.1559938    3.1042446 
18995000    1.1871901 -2.6367195e-06   0.44120414  0.015494964            0   0.42570917    1.7585254    2.1997295    2.0647295 
19000000    1.0993778 -1.5767392e-06   0.58528209  0.021961753            0   0.56332033    1.6284533    2.2137354    2.1330064 
19005000     1.022685 -2.9919566e-05    0.6584143  0.006652993            0    0.6517613    1.5148521    2.1732664   0.64138466 
19010000    1.0581675 0.00010402975   0.59547391 0.0017448755            0   0.59372903    1.5674107    2.1628846    7.4892077 
19015000    1.0426566 5.0088891e-05   0.63367539  0.032258433            0   0.60141696    1.5444351    2.1781105    4.7426617 
19020000    1.1330922 -5.4188337e-05   0.49769625  0.025756633            0   0.47193962    1.6783928    2.1760891  -0.59835376 
19025000    1.0570454 1.9212781e-06   0.60654646  0.003836049            0   0.60271041    1.5657485     2.172295    2.2706644 
19030000    1.1389989 2.5083171e-05   0.48818624  0.011549243            0     0.476637    1.6871421    2.1753284    3.4595867 
19035000    1.0993457 1.1134768e-05   0.53223751  0.029982591            0   0.50225492    1.6284059    2.1606434    2.7307435 
19040000     1.063861 5.2167424e-05   0.60174991  0.054129414            0    0.5476205     1.575844     2.177594    4.8485661 
19045000     1.083457 2.0859628e-05   0.56214834  0.017504597            0   0.54464374    1.6048707    2.1670191     3.235032 
19050000    1.0777039 -1.7182341e-06   0.56096766 0.0076478804            0   0.55331978    1.5963489    2.1573165     2.069343 
19055000    1.0611093 -1.0256037e-06    0.5882248 0.00035607254            0   0.58786873    1.5717681    2.1599929     2.107482 
19060000    1.1200419 -2.7398689e-05    0.4941748  0.046094778            0   0.44808003    1.6590621    2.1532369   0.75042402 
19065000    1.1049439 -8.606372e-05    0.5087932  0.056040016            0   0.45275318    1.6366982    2.1454914   -2.2609711 
19070000    1.0558996 -5.7405879e-05   0.57604076 0.0079324533            0   0.56810831    1.5640513     2.140092  -0.79908895 
19075000    1.0460471 1.5007387e-05   0.56938509  0.006937655            0   0.56244744    1.5494573    2.1188424    2.8872206 
19080000    1.0733559 4.3155421e-05   0.54461808  0.024622454            0   0.51999562    1.5899084    2.1345265     4.344084 
19085000    1.0606275 8.6966659e-06   0.56457637  0.031824729            0   0.53275165    1.5710545    2.1356309    2.5809002 
19090000   0.99372314 1.8168156e-05   0.69221163  0.066852346            0   0.62535928    1.4719524     2.164164    3.0943736 
19095000    0.9996511 -9.457705e-06   0.66712626  0.015730255            0     0.651396    1.4807332    2.1478594     1.663625 
19100000      1.13224 -0.00011301116   0.48641471   0.00326522            0   0.48314949    1.6771305    2.1635452    -3.622626 
19105000    1.1082968 -2.8330523e-05    0.5481028 0.0044728903            0   0.54362991    1.6416647    2.1897675   0.73924474 
19110000    1.1089109 2.9778234e-05   0.52920588 0.0083549253            0   0.52085095    1.6425742    2.1717801    3.6964257 
19115000    1.0313942 -4.4191914e-05   0.60719852 0.0063592724            0   0.60083924    1.5277527    2.1349512  -0.12767479 
19120000    1.1508569 -7.1494272e-06    0.4520027  0.020056928            0   0.43194577    1.7047068    2.1567095    1.7906589 
19125000    1.1500933 2.8404395e-05   0.44751823  0.031484328            0   0.41603391    1.7035757     2.151094     3.605399 
19130000    1.0622908 -5.7481358e-05   0.58261143  0.012440367            0   0.57017106    1.5735182    2.1561297  -0.78691588 
19135000    1.0517755 -8.4677599e-05   0.60100796 0.00089640898            0   0.60011155    1.5579425    2.1589504   -2.1765426 
19140000    1.1231228 4.9127701e-05   0.49971551 0.0068281842            0   0.49288733    1.6636256    2.1633412    4.6786794 
19145000    1.0608769 0.00014460186   0.60810288  0.015923494            0   0.59217938    1.5714238    2.1795267     9.583142 
19150000    1.0769313 2.9748237e-05   0.58279253 0.0064584428            0   0.57633409    1.5952046    2.1779971    3.7011068 
19155000    1.0952604 -4.9020722e-06   0.55960966 0.0025716933            0   0.55703796    1.6223544    2.1819641     1.930978 
19160000    1.1559718 5.8724167e-05   0.45564561  0.034888198            0   0.42075741    1.7122832    2.1679288    5.1746062 
19165000    1.0157078 1.3525412e-05    0.6700463  0.061598543            0   0.60844776    1.5045172    2.1745635    2.8670646 
19170000    1.1603728 5.5455028e-05   0.43354993  0.034455831            0    0.3990941    1.7188022    2.1523521    4.9916495 
19175000   0.94560845 -0.0001071034   0.71469385  0.023988855            0   0.69070499    1.4006825    2.1153764   -3.3683179 
19180000    1.0639908 2.1253506e-05   0.53990638  0.014229477            0    0.5256769    1.5760363    2.1159427    3.2041222 
19185000    1.0422906 9.7115477e-05   0.60269603  0.014300303            0   0.58839573     1.543893     2.146589    7.1189014 
19190000    1.0771848 -1.2352305e-06   0.54869838 0.0091933014            0   0.53950508    1.5955799    2.1442783    2.0810345 
19195000    1.0852772 9.6217856e-05   0.54163395  0.035517038            0   0.50611691    1.6075669    2.1492008     7.075555 
19200000    1.1106786 1.6532855e-05   0.53044905  0.045894027            0   0.48455503    1.6451927    2.1756418    3.0221239 
19205000   0.98385232 -3.3773268e-05   0.70253578  0.059850558            0   0.64268522    1.4573312     2.159867    0.4306757 
19210000    1.0987496 -3.8520162e-05   0.53303338 0.0027206886            0   0.53031269    1.6275229    2.1605562   0.18832395 
19215000    1.0768464 -1.2706943e-05   0.58240235 0.00047349953            0   0.58192885    1.5950788    2.1774811    1.5268856 
19220000    1.0598318 -2.6742843e-05   0.59057572 0.0010217089            0   0.58955401    1.5698758    2.1604515   0.79121796 
19225000    1.0280576 -5.5469755e-05   0.64319816 0.0019606418            0   0.64123752    1.5228104    2.1660085  -0.67404293 
19230000    1.0665694 3.3101171e-05   0.60145247  0.020365306            0   0.58108716    1.5798559    2.1813084    3.8760883 
19235000    1.0933027 -0.00014282937   0.54715801 0.0064530796            0   0.54070493    1.6194547    2.1666127   -5.1462509 
19240000    1.1408899 -1.8038717e-05    0.4838893 0.0048682564            0   0.47902104    1.6899432    2.1738325    1.2502501 
19245000    1.0800761 4.7809968e-05   0.58097805 0.0038119862            0   0.57716606    1.5998627    2.1808407    4.6287111 
19250000    1.1426591 3.6558852e-05   0.48283034 0.0065708887            0   0.47625945    1.6925637    2.1753941    4.0472073 
19255000    1.0455599 -9.8464014e-05   0.60493163  0.011761608            0   0.59317002    1.5487356    2.1536673   -2.8876903 
19260000    1.1220986 2.373511e-05   0.46244057  0.025786608            0   0.43665397    1.6621086    2.1245492    3.3397868 
19265000     1.034343 -3.5419037e-05   0.59324525  0.028403905            0   0.56484134    1.5321206    2.1253659   0.31191115 
19270000     1.047995 -1.038594e-05   0.58059815 0.0066273614            0   0.57397079    1.5523426    2.1329408    1.6011807 
19275000    1.1758193 8.5180761e-05   0.40378962 0.0030056665            0   0.40078395    1.7416824     2.145472     6.506727 
19280000    1.0935197 -1.962697e-05    0.5361746 0.0050416366            0   0.53113297    1.6197761    2.1559507    1.1510499 
19285000    1.1174094 2.3606201e-05   0.50281294  0.018440011            0   0.48437292    1.6551627    2.1579757    3.3666132 
19290000    1.1468058 4.4434376e-05   0.48347774   0.02157826            0   0.46189948     1.698706    2.1821838    4.4572238 
19295000    1.0690835 -2.804948e-05   0.62804212  0.001944985            0   0.62609713      1.58358    2.2116221   0.77548875 
19300000     1.040341 -2.8966824e-05    0.6827561 0.0030075413            0   0.67974856    1.5410051    2.2237612   0.74065978 
19305000    1.0560311 5.5622335e-06   0.64014634   0.01734253            0   0.62280381    1.5642461    2.2043924    2.4891788 
19310000    1.1793896 -2.6352249e-05   0.47080708  0.018188416            0   0.45261867    1.7469708    2.2177779   0.86854273 
19315000    1.0759692 -0.00012132243   0.60311377  0.020692784            0   0.58242099    1.5937793    2.1968931   -4.0148151 
19320000    1.0354371 -5.499868e-05   0.67429458  0.029298588            0   0.64499599    1.5337413    2.2080359  -0.60789657 
19325000    1.1419664 2.894489e-06   0.57743563  0.043524122            0    0.5339115    1.6915377    2.2689734    2.4171712 
19330000    1.0874191 -4.5450951e-06   0.66264086  0.023055151            0   0.63958571    1.6107396    2.2733804    2.0406716 
19335000    1.1546296 6.3853091e-05   0.58271363  0.013186346            0   0.56952729    1.7102951    2.2930087     5.562287 
19340000      1.12203 6.7490365e-06   0.62214336 0.0068552644            0    0.6152881    1.6620069    2.2841503     2.629701 
19345000    1.0920734 -0.00012055402   0.63850531 0.0021174437            0   0.63638786    1.6176337     2.256139   -3.9162266 
19350000    1.1242844 -7.3507904e-05   0.52008889   0.01922976            0   0.50085913    1.6653462    2.1854351   -1.5781696 
19355000    1.0885474 3.3971251e-05   0.56605205  0.048221357            0   0.51783069    1.6124109     2.178463     3.917791 
19360000    1.0817384 -3.8869852e-06   0.59399797  0.047541452            0   0.54645652     1.602325     2.196323    1.9973094 
19365000    1.1364274 -1.8480609e-06   0.50606188  0.015834122            0   0.49022776    1.6833331     2.189395    2.0947743 
19370000    1.0839419 0.00014712092   0.56491059   0.01619098            0   0.54871961     1.605589    2.1704996    9.7030905 
19375000    1.0234771 0.00015676532   0.67316977  0.033427435            0   0.63974233    1.5160254    2.1891952     10.21558 
19380000    1.0280576 4.099526e-05   0.65505176  0.021971896            0   0.63307986    1.5228103    2.1778621    4.2768194 
19385000    1.1108834 5.2180627e-07   0.56102933  0.011231736            0   0.54979759     1.645496    2.2065253    2.2332418 
19390000    1.0826446 1.7503449e-06   0.60544847 0.0070660067            0   0.59838246    1.6036673    2.2091157    2.2987334 
19395000     1.067921 -5.5143051e-05   0.60777568 0.0049615639            0   0.60281412     1.581858    2.1896337  -0.63369049 
19400000    1.0375628 -3.258669e-05    0.6057691  0.011077966            0   0.59469114    1.5368899     2.142659   0.47422045 
19405000   0.96328447 4.394452e-05   0.71502751  0.068552523            0   0.64647499    1.4268651    2.1418926    4.3918521 
19410000    1.0440635 3.2180122e-05   0.63214189  0.041854484            0   0.59028741     1.546519    2.1786609    3.8262831 
19415000    1.0586174 0.00010532931    0.6361545  0.031860134            0   0.60429437     1.568077    2.2042315    7.5970919 
19420000    1.1169037 1.4281869e-05   0.55515282   0.03848007            0   0.51667275    1.6544136    2.2095664    2.9407981 
19425000    1.0785406 -7.6204384e-05   0.59921749   0.01805456            0   0.58116293    1.5975882    2.1968057   -1.7048588 
19430000    1.1355316 1.7172567e-05   0.55021637  0.021616036            0   0.52860034    1.6820061    2.2322225    3.1114579 
19435000    1.1384019 0.0001225386   0.52535361 0.0060954212            0   0.51925819    1.6862578    2.2116114    8.4855876 
19440000    1.1428462 -1.3283543e-05   0.50351857 0.0078595209            0   0.49565905    1.6928409    2.1963594     1.516242 
19445000    1.1177213 -7.9246578e-05    0.5535533  0.040527373            0   0.51302593    1.6556246    2.2091779   -1.8482469 
19450000    1.1180372 4.0284179e-05   0.52979255  0.021504809            0   0.50828774    1.6560926    2.1858852    4.2484351 
19455000    1.1296492 1.2446383e-05   0.52584371  0.020660397            0   0.50518331    1.6732929    2.1991366    2.8363914 
19460000    1.0525585 -2.3048304e-05   0.64097651 0.0097681557            0   0.63120835    1.5591023    2.2000789    1.0200057 
19465000    1.0796565 7.0879155e-05   0.61320953 0.0080457702            0   0.60516376    1.5992412    2.2124507    5.8414634 
19470000    1.1474177 0.00012858899   0.47489194  0.018741956            0   0.45614999    1.6996125    2.1745044    8.7582608 
19475000    1.1150325 4.599803e-05   0.55901462  0.020723044            0   0.53829158    1.6516419    2.2106565    4.5657557 
19480000    1.1297632 -0.00010289867   0.54000248 0.0066819486            0   0.53332053    1.6734618    2.2134642   -3.0549478 
19485000    1.0334916 -6.9149455e-05   0.68249913  0.016959324            0    0.6655398    1.5308595    2.2133586   -1.3270935 
19490000    1.1454683 0.00013555558   0.49649769  0.020494323            0   0.47600336    1.6967249    2.1932226    9.1336683 
19495000    1.0957878 0.00012172914   0.57870223  0.044112227            0      0.53459    1.6231358     2.201838    8.4343701 
19500000    1.0640793 1.8087909e-05   0.66109345  0.027247398            0   0.63384605    1.5761675     2.237261    3.1633619 
19505000    1.0644067 0.00014276221   0.65610749   0.04289757            0   0.61320992    1.5766524    2.2327599    9.5421848 
19510000    1.1441001 0.00013726414   0.57762529  0.049968002            0   0.52765729    1.6946982    2.2723235    9.3002475 
19515000    1.1228315 -1.952355e-05   0.60028666    0.0289788            0   0.57130786    1.6631941    2.2634808     1.263875 
19520000    1.1205126 -7.6708865e-05   0.57022257  0.039137438            0   0.53108513    1.6597593    2.2299819    -1.697512 
19525000    1.0924519 -7.4321797e-05   0.61209839  0.038274911            0   0.57382347    1.6181943    2.2302927   -1.5749833 
19530000    1.0936002 -7.3477656e-05   0.58979399  0.053533745            0   0.53626024    1.6198952    2.2096892   -1.5523668 
19535000    1.0726152 -4.9975861e-05   0.63085197  0.051700662            0    0.5791513    1.5888113    2.2196633  -0.33910083 
19540000    1.1179239 3.9899421e-06     0.578756  0.040949998            0     0.537806    1.6559248    2.2346808    2.4389658 
19545000    1.1692244 6.7903176e-06   0.51579098  0.016139076            0    0.4996519    1.7319137    2.2477047    2.5953689 
19550000    1.1355911 -4.5959142e-08   0.57718002 0.0082140809            0   0.56896594    1.6820944    2.2592744    2.2569213 
19555000    1.1455502 4.959979e-05   0.55478136  0.023570332            0   0.53121103    1.6968463    2.2516276    4.7911369 
19560000    1.1292953 0.00011898927   0.57229705  0.044911512            0   0.52738554    1.6727687    2.2450657    8.3373164 
19565000    1.1154222 0.00012378324   0.59436825 0.0078478972            0   0.58652035    1.6522191    2.2465874    8.5842894 
19570000    1.1265964 -7.3015727e-05   0.59739397  0.015209263            0   0.58218471    1.6687709    2.2661649   -1.4722403 
19575000    1.1893956 -7.5230442e-05   0.50863983  0.026653847            0   0.48198599    1.7617923    2.2704321   -1.5813665 
19580000    1.1607562 9.2628405e-05   0.51753286  0.011050481            0   0.50648238    1.7193701     2.236903    6.9794773 
19585000    1.2072912 3.038221e-05   0.46215903 0.0098673122            0   0.45229172    1.7883001    2.2504591    3.8060283 
19590000    1.1004207 7.0062192e-07   0.64132977  0.013799193            0   0.62753057    1.6299981    2.2713279    2.3071997 
19595000    1.1090556 -4.755059e-05   0.65280646 0.0081343383            0   0.64467212    1.6427886    2.2955951  -0.13899514 
19600000    1.0764727 -0.00019272103   0.64597682  0.013071207            0   0.63290562    1.5945253    2.2405021   -7.6268149 
19605000    1.0822371 -2.8237546e-05   0.61108287  0.011192549            0   0.59989032    1.6030636    2.2141465   0.76838419 
19610000    1.1193733 0.00012604826   0.59175809    0.0368649            0   0.55489319    1.6580716    2.2498297    8.7035008 
19615000    1.1493802 1.052262e-06   0.55003393  0.018764782            0   0.53126914    1.7025195    2.2525534    2.3064292 
19620000    1.1507538 9.2610344e-05   0.51477876 0.0024814496            0   0.51229731    1.7045541    2.2193328    6.9609825 
19625000     1.174233 0.00021278647    0.4747416 0.0030081004            0    0.4717335    1.7393326    2.2140742    13.108742 
19630000    1.1242895 -1.2931004e-05   0.51902822 0.0065111176            0    0.5125171    1.6653538     2.184382    1.5223146 
19635000    1.1170697 -0.00025814827   0.51531626  0.012322233            0   0.50299403    1.6546595    2.1699758   -11.047216 
19640000    1.0845723 -6.8470702e-05   0.53400827 0.0086494556            0   0.52535882    1.6065227    2.1405309    -1.365169 
19645000    1.1314886 0.00010344048   0.44359286 0.0031642428            0   0.44042862    1.6760174    2.1196103    7.4157631 
19650000    1.0597758 5.2394362e-06   0.54814186 0.0029376358            0   0.54520422    1.5697928    2.1179347    2.3861938 
19655000    1.0609732 -1.9753543e-05   0.54127445  0.027836404            0   0.51343805    1.5715666     2.112841    1.1014596 
19660000    1.0178469 3.8398521e-05   0.62745616  0.047486131            0   0.57997002    1.5076858    2.1351419    4.1011462 
19665000    1.0546565 -0.00011716889   0.55711576  0.016827455            0   0.54028831      1.56221    2.1193258   -3.8797216 
19670000    1.1324939 -9.4336412e-05   0.43923232 0.0020905779            0   0.43714174    1.6775066    2.1167389   -2.7132854 
19675000    1.0771072 6.0296341e-05   0.49453113 0.0062801187            0   0.48825101    1.5954651    2.0899962    5.1771688 
19680000    1.0129862 6.0437183e-06   0.60221088 0.0094712741            0    0.5927396    1.5004858    2.1026967    2.4121351 
19685000   0.94990746 -2.5913214e-05   0.65156234 0.0084479832            0   0.64311436    1.4070504    2.0586128   0.73185622 
19690000    1.0540099 0.00011146493   0.49187093  0.015595923            0   0.47627501    1.5612521     2.053123    7.7601277 
19695000    1.1197544 1.6430833e-05   0.40914248  0.013960728            0   0.39518176    1.6586361    2.0677786    2.9090373 
19700000    1.0798614 -6.2928336e-05    0.4523371  0.025675208            0   0.42666189    1.5995447    2.0518818    -1.170049 
19705000     1.013307 -7.9051642e-05   0.52197674  0.049102364            0   0.47287438     1.500961    2.0229377   -2.0245063 
19710000    1.0565879 -5.460101e-05   0.44179026  0.026861623            0   0.41492864    1.5650708    2.0068611  -0.78871062 
19715000   0.99002657 0.00012081868    0.5312119  0.047388129            0   0.48382377    1.4664769    1.9976888    8.1836051 
19720000   0.99952175 -1.1058106e-05   0.49223197 0.0079107819            0   0.48432119    1.4805416    1.9727736    1.4065985 
19725000   0.99593543 -9.477838e-05    0.4839523  0.030476186            0   0.45347611    1.4752294    1.9591816   -2.8934714 
19730000   0.97555487 4.1121943e-05    0.5257674   0.10200784            0   0.42375956    1.4450407    1.9708081    4.0762515 
19735000   0.91249252 0.00010450813   0.64447164  0.040631718            0   0.60383992    1.3516296    1.9961012    7.3469173 
19740000    1.0389306 7.7381544e-05   0.44556305  0.011541713            0   0.43402134     1.538916     1.984479     5.946414 
19745000   0.93889451 -6.9142149e-05   0.58826812  0.033253154            0   0.55501497    1.3907375    1.9790056   -1.5610724 
19750000    1.0349546 6.3690722e-05   0.45876208  0.023421078            0     0.435341    1.5330265    1.9917886    5.2527535 
19755000    0.9462685 6.1334108e-05   0.57092738 0.0083569623            0   0.56257041    1.4016602    1.9725876    5.1128939 
19760000   0.96369977 -0.00012321563   0.53824011  0.012508574            0   0.52573154    1.4274803    1.9657204   -4.3429199 
19765000    1.0131274 5.4523673e-06   0.47266075  0.039132124            0   0.43352862     1.500695    1.9733558     2.252517 
19770000     1.032657 0.00022585704   0.47411921  0.021340261            0   0.45277895    1.5296232    2.0037424    13.567623 
19775000    0.9895966 -5.4147262e-05   0.51626508  0.014860562            0   0.50140452      1.46584     1.982105  -0.79023477 
19780000   0.96739805 2.6116281e-07   0.55899857 0.0099018867            0   0.54909669    1.4329584    1.9919569    2.0053285 
19785000    1.0118944 9.0636317e-05   0.50666438  0.035331494            0   0.47133288    1.4988685    2.0055329    6.6461123 
19790000    1.0214045 -4.4814991e-05     0.485328 0.0038821757            0   0.48144583    1.5129554    1.9982834  -0.29624411 
19795000    1.0759761 7.4016297e-06    0.4226322 0.00094029614            0   0.42169191    1.5937896    2.0164218    2.3953853 
19800000    1.0368273 7.3289449e-05   0.45952691  0.014904651            0   0.44462226    1.5358004    1.9953274    5.7477471 
19805000   0.99590665 3.4131567e-06   0.52083206  0.012645568            0   0.50818649    1.4751867    1.9960188    2.1707724 
19810000    1.0142012 -5.0488717e-05   0.48508761 0.0075567594            0   0.47753085    1.5022856    1.9873732  -0.59764909 
19815000    1.0031836 -3.7028231e-06   0.48127219  0.033154788            0    0.4481174    1.4859658     1.967238    1.7776534 
19820000   0.97161902 -2.7254614e-05    0.5209264   0.04591248            0   0.47501392    1.4392107    1.9601371   0.56470083 
19825000   0.93571086 -1.0507536e-05   0.57383965  0.009705122            0   0.56413453    1.3860217    1.9598614    1.4218755 
19830000    1.0274887 6.7476135e-05   0.46316845  0.016228812            0   0.44693964    1.5219677    1.9851361    5.4399142 
19835000   0.90973356 -5.8680081e-05   0.64890777  0.089030335            0   0.55987743    1.3475428    1.9964506   -1.0079696 
19840000   0.98310349 -6.5187284e-05   0.53801604  0.051067315            0   0.48694872     1.456222    1.9942381   -1.3433509 
19845000   0.97168376 3.011681e-05   0.53282205  0.013397833            0   0.51942422    1.4393066    1.9721286    3.5141093 
19850000    1.0682764 -5.7297811e-05   0.40446287 0.0060981968            0   0.39836468    1.5823844    1.9868473   -0.9468006 
19855000   0.92780356 -2.5227108e-06   0.61174926   0.04690938            0   0.56483988     1.374309    1.9860583    1.8568955 
19860000     1.079749 2.9319354e-05   0.40062847  0.027583818            0   0.37304465    1.5993782    2.0000066    3.5011576 
19865000   0.95660576 -4.3100242e-05   0.54020262  0.053107947            0   0.48709468    1.4169723    1.9571749  -0.24955747 
19870000   0.99190102 -1.0523696e-05   0.49077072  0.006358508            0   0.48441221    1.4692534    1.9600241    1.4212109 
19875000   0.98759912 -5.6563783e-05   0.51772462 0.0026992002            0   0.51502542    1.4628812    1.9806058  -0.91545987 
19880000   0.96165449 -2.8119896e-05   0.53583727 0.0034069097            0   0.53243036    1.4244507     1.960288   0.52054932 
19885000   0.99686093 4.2599557e-05   0.49252223  0.024289907            0   0.46823233    1.4766003    1.9691225    4.1502198 
19890000    1.0192539 -3.8850537e-05   0.48447124  0.025080416            0   0.45939083    1.5097698     1.994241 0.0050935493 
19895000    1.0233664 4.9961869e-05   0.44716323 0.0056211392            0   0.44154209    1.5158615    1.9630247    4.5210724 
19900000   0.95668591 9.0988579e-05   0.53696058    0.0166749            0   0.52028568     1.417091    1.9540516    6.6126668 
19905000   0.92825539 -6.8115991e-05   0.56383571  0.040677663            0   0.52315805    1.3749783     1.938814   -1.5487247 
19910000   0.91301065 -0.00012806821   0.58903833  0.061157159            0   0.52788117     1.352397    1.9414354   -4.6156568 
19915000   0.98078219 -6.6043626e-05   0.50792642  0.026759685            0   0.48116673    1.4527836      1.96071   -1.4207236 
19920000    1.0067699 5.3703887e-05   0.49503671  0.041173657            0   0.45386305     1.491278    1.9863147    4.7359537 
19925000    1.0475195 0.00011914729   0.46953118 0.0093209601            0   0.46021022    1.5516383    2.0211694    8.1215109 
19930000    1.0091049 7.7363079e-05   0.55416562  0.020230666            0   0.53393495    1.4947366    2.0489022    6.0098918 
19935000    1.0210088 -6.1997131e-05   0.52144929  0.015756509            0   0.50569278    1.5123693    2.0338186   -1.1404345 
19940000     1.063925 -3.9940771e-05   0.45262164  0.011834561            0   0.44078708    1.5759389    2.0285605 -0.016406991 
19945000    1.0176019 -1.7588152e-05   0.50613907  0.018825992            0   0.48731308    1.5073229    2.0134619    1.1129486 
19950000    1.0782317 2.3198629e-05   0.43840179  0.037218526            0   0.40118326    1.5971306    2.0355324    3.2233022 
19955000    1.0252755 -1.24841e-05   0.53927019  0.023713471            0   0.51555671    1.5186893    2.0579595    1.4187736 
19960000    1.0562903 -2.7213891e-05   0.47109267  0.014572434            0   0.45652024      1.56463    2.0357227   0.64237144 
19965000   0.97978612 4.6871774e-05   0.60812212 0.0073645317            0   0.60075759    1.4513082    2.0594303    4.4592652 
19970000    1.0886859 -2.9815199e-05   0.44086571  0.021254887            0   0.41961083     1.612616    2.0534817   0.52694346 
19975000    1.0294244 -1.8274819e-05   0.53509036  0.017473103            0   0.51761725     1.524835    2.0599253    1.1242546 
19980000   0.99093354 -4.7669657e-05   0.57843215  0.021710428            0   0.55672172    1.4678203    2.0462524  -0.39443397 
19985000    1.0869544 2.1574412e-05   0.41063497  0.015812815            0   0.39482216    1.6100512    2.0206861     3.125296 
19990000    0.9842213 -4.6282865e-05   0.55587511  0.029677335            0   0.52619778    1.4578778    2.0137529  -0.35592979 
19995000   0.97944181 7.4974108e-05    0.5650674  0.046219577            0   0.51884782    1.4507982    2.0158656    5.8545399 
20000000    1.0532711 2.860484e-06   0.45891406  0.043369092            0   0.41554497    1.5601578    2.0190719    2.1655287 
Loop time of 202.399 on 1 procs for 20000000 steps with 80 atoms

Performance: 85375.917 tau/day, 98814.718 timesteps/s
99.1% CPU use with 1 MPI tasks x no OpenMP threads

MPI task timing breakdown:
Section |  min time  |  avg time  |  max time  |%varavg| %total
---------------------------------------------------------------
Pair    | 9.8617     | 9.8617     | 9.8617     |   0.0 |  4.87
Bond    | 28.195     | 28.195     | 28.195     |   0.0 | 13.93
Neigh   | 21.432     | 21.432     | 21.432     |   0.0 | 10.59
Comm    | 53.204     | 53.204     | 53.204     |   0.0 | 26.29
Output  | 0.50703    | 0.50703    | 0.50703    |   0.0 |  0.25
Modify  | 82.216     | 82.216     | 82.216     |   0.0 | 40.62
Other   |            | 6.983      |            |       |  3.45

Nlocal:        80.0000 ave          80 max          80 min
Histogram: 1 0 0 0 0 0 0 0 0 0
Nghost:        0.00000 ave           0 max           0 min
Histogram: 1 0 0 0 0 0 0 0 0 0
Neighs:        26.0000 ave          26 max          26 min
Histogram: 1 0 0 0 0 0 0 0 0 0

Total # of neighbors = 26
Ave neighs/atom = 0.325
Ave special neighs/atom = 5.8500000
Neighbor list builds = 3907
Dangerous builds = 0
write_restart restart.equil
System init for write_restart ...
WARNING: Communication cutoff 1.4200000000000002 is shorter than a bond length based estimate of 1.8. This may lead to errors. (../comm.cpp:667)
#--------------End of Input file ------------------
Total wall time: 0:03:22
