LAMMPS (29 Oct 2020)
###################### polyelectrolyte complexation ######################
clear

#Initialization
#------------------------------------
units				lj
dimension			3
atom_style			full
boundary			p p p

#Atom Definition
#-------------------------------------
read_restart			restart.equil
Reading restart file ...
  restart file = 29 Oct 2020, LAMMPS = 29 Oct 2020
  restoring atom style full from restart
  orthogonal box = (-80.000000 -80.000000 -80.000000) to (80.000000 80.000000 80.000000)
  1 by 1 by 1 MPI processor grid
  restoring pair style lj/cut from restart
  restoring bond style harmonic from restart
  60 atoms
  59 bonds
Finding 1-2 1-3 1-4 neighbors ...
  special bond factors lj:    0.0      1.0      1.0     
  special bond factors coul:  0.0      0.0      0.0     
     2 = max # of 1-2 neighbors
     2 = max # of 1-3 neighbors
     4 = max # of 1-4 neighbors
     6 = max # of special neighbors
  special bonds CPU = 0.000 seconds
  read_restart CPU = 0.007 seconds

#Force definition
#----------------------------------------------
#Bond definition
bond_style			harmonic
bond_coeff			1 5000 1
#Pair definition
special_bonds	lj 0 1 1
dielectric		80
pair_style		 lj/cut 1.12
pair_modify 		 shift yes
pair_coeff	1 1 1 1 1.12

#Timestep etc
#--------------------------------------------
timestep		0.001
run_style		verlet
velocity		all	create	1	5

#Fix
#---------------------------------------
group polymers type 1
60 atoms in group polymers
fix 1 all nve
fix 2 all langevin 1	1	1	5

#Dump
#------------------------------------------------
compute  1 all gyration
variable  myRg2 equal c_1
variable  i equal step
fix  mythermofile all print 5000 "$i ${myRg2}" file radius_of_gyration.dat screen no

thermo_style		 custom step temp press pe evdwl ecoul ebond ke etotal enthalpy
thermo 	5000
dump	3 all custom 5000 dump.lammpstrj id mol type xu yu zu
run		2000000
Neighbor list info ...
  update every 1 steps, delay 10 steps, check yes
  max neighbors/atom: 2000, page size: 100000
  master list distance cutoff = 1.42
  ghost atom cutoff = 1.42
  binsize = 0.71, bins = 226 226 226
  1 neighbor lists, perpetual/occasional/extra = 1 0 0
  (1) pair lj/cut, perpetual
      attributes: half, newton on
      pair build: half/bin/newton
      stencil: half/bin/3d/newton
      bin: standard
WARNING: Communication cutoff 1.4200000000000002 is shorter than a bond length based estimate of 1.8. This may lead to errors. (../comm.cpp:667)
Per MPI rank memory allocation (min/avg/max) = 54.71 | 54.71 | 54.71 Mbytes
Step Temp Press PotEng E_vdwl E_coul E_bond KinEng TotEng Enthalpy 
 2000000            1 -0.00012130765   0.43871753 0.0060657727            0   0.43265176        1.475    1.9137175   -6.3675516 
 2005000    1.1870006 7.286282e-05   0.44057267            0            0   0.44057267    1.7508259    2.1913986    7.1655004 
 2010000    1.1887401 -3.5273254e-05   0.55097514  0.026919595            0   0.52405554    1.7533917    2.3043668  -0.10362065 
 2015000   0.71882072 5.0739672e-05   0.40280095  0.012331399            0   0.39046955    1.0602606    1.4630615    4.9268898 
 2020000   0.95228325 3.5716994e-05    0.4542193 0.0032060244            0   0.45101328    1.4046178    1.8588371    4.2971172 
 2025000   0.93887119 5.2998978e-05   0.56566713 0.0098285004            0   0.55583863     1.384835    1.9505021    5.5685657 
 2030000   0.82498254 1.6697511e-05   0.46915868 0.0082157922            0   0.46094289    1.2168492    1.6860079    2.8258914 
 2035000    1.1083004 9.3172352e-05   0.53407933  0.074794646            0   0.45928469    1.6347431    2.1688224    8.5293883 
 2040000    1.0199731 2.0284493e-05   0.58009079 0.0085381969            0    0.5715526    1.5044603    2.0845511    3.4693058 
 2045000   0.99049111 -3.819999e-05   0.35071274 0.0016109137            0   0.34910182    1.4609744    1.8116871  -0.79609885 
 2050000    1.0912595 -3.9534861e-05   0.43303052  0.019443927            0   0.41358659    1.6096078    2.0426384  -0.65627485 
 2055000     1.030034 5.2070266e-05   0.43096189  0.012614161            0   0.41834773    1.5193001     1.950262    5.5049255 
 2060000   0.92277723 -6.4077022e-05   0.42748655  0.017377054            0   0.41010949    1.3610964     1.788583   -2.5857418 
 2065000    0.9399602 0.00012271384   0.53268776   0.00519701            0   0.52749075    1.3864413    1.9191291    10.296394 
 2070000    1.0053142 2.3525718e-05   0.35212019 8.1532889e-05            0   0.35203866    1.4828385    1.8349587     3.440981 
 2075000   0.94949878 0.00013548695   0.50764127 0.00056639221            0   0.50707487    1.4005107     1.908152    11.157394 
 2080000    1.1494218 2.6260025e-05   0.67106034 0.0050971511            0   0.66596319    1.6953972    2.3664575    4.1591419 
 2085000    1.0395928 -6.0229417e-05   0.59886367  0.012964013            0   0.58589965    1.5333994    2.1322631   -1.9793985 
 2090000    1.0572769 -9.9465229e-06   0.53797596  0.002920484            0   0.53505547    1.5594835    2.0974594    1.4184434 
 2095000    1.0690414 -4.4782195e-05   0.41745619 0.0008005576            0   0.41665563    1.5768361    1.9942922   -1.0628389 
 2100000    1.0373436 -3.0036482e-05   0.34260363  0.018093087            0   0.32451054    1.5300818    1.8726854  -0.17780508 
 2105000    1.0694669 -1.4664943e-05   0.45784826 0.00086276348            0   0.45698549    1.5774637     2.035312    1.0341852 
 2110000    1.0343256 2.0031839e-05   0.64103133  0.060349064            0   0.58068227    1.5256302    2.1666616    3.5341685 
 2115000    1.0938836 3.8491496e-05    0.5361462  0.025067984            0   0.51107822    1.6134784    2.1496246    4.7773107 
 2120000   0.94553083 4.6655268e-05   0.35460856  0.022423211            0   0.33218535     1.394658    1.7492665    4.9342662 
 2125000   0.93125416 9.8608501e-06   0.55227438 0.0022757435            0   0.54999864    1.3735999    1.9258743    2.5990416 
 2130000    1.0983564 2.5499755e-05   0.58038352  0.037240598            0   0.54314292    1.6200757    2.2004593    3.9412426 
 2135000    1.1088408 1.6676057e-05    0.5609037 5.0935737e-05            0   0.56085277    1.6355402    2.1964439    3.3348628 
 2140000    1.0226251 6.148528e-05    0.5494381  0.041639752            0   0.50779835     1.508372    2.0578101    6.2552052 
 2145000    0.9933753 3.5559686e-05   0.53950076 0.00098679282            0   0.53851397    1.4652286    2.0047293    4.4322705 
 2150000   0.94473734 3.8488796e-05   0.51280903 0.0029303935            0   0.50987863    1.3934876    1.9062966    4.5337984 
 2155000    1.0721417 5.1469052e-06   0.57543333  0.056666644            0   0.51876668    1.5814089    2.1568423    2.5082043 
 2160000   0.94784624 -4.1111935e-05   0.49441213  0.010102074            0   0.48431005    1.3980732    1.8924853  -0.91408944 
 2165000     1.118602 -4.9034059e-05   0.49611058 5.2876554e-05            0   0.49605771    1.6499379    2.1460485   -1.2013433 
 2170000   0.76628751 -2.8966296e-05    0.3669194 0.0017019458            0   0.36521746    1.1302741    1.4971935  -0.48023901 
 2175000    1.0430504 1.1132831e-05   0.52266644  0.020452996            0   0.50221344    1.5384993    2.0611657     2.821167 
 2180000     1.010728 4.4191127e-06   0.35802931  0.028728889            0   0.32930042    1.4908239    1.8488532    2.1505313 
 2185000    1.0530069 3.5665277e-05   0.45713796  0.015962576            0   0.44117538    1.5531852    2.0103232    4.4450728 
 2190000    1.0783766 -7.6123389e-05   0.45882658  0.040528981            0    0.4182976    1.5906055     2.049432    -3.147258 
 2195000   0.98037533 -4.568656e-05   0.41323987 0.0026573902            0   0.41058248    1.4460536    1.8592935   -1.2595757 
 2200000    1.0916784 -0.00011609404   0.52614882  0.019704519            0    0.5064443    1.6102257    2.1363745   -5.7889789 
 2205000     1.118468 0.00013266946   0.53480015 0.0086474215            0   0.52615273    1.6497403    2.1845404    11.241442 
 2210000    1.0052255 -5.4332514e-05   0.58040111  0.018624177            0   0.56177694    1.4827076    2.0631087   -1.6459909 
 2215000    1.0258703 6.6857317e-05   0.37872575 0.0048130357            0   0.37391272    1.5131586    1.8918844    6.4560106 
 2220000   0.85440544 6.9810044e-06    0.4786362 0.0079727368            0   0.47066347     1.260248    1.7388842    2.2154541 
 2225000    1.0049539 2.0430822e-06   0.57067722 0.0019097182            0    0.5687675     1.482307    2.0529842    2.1924587 
 2230000   0.99781853 -6.2165978e-06   0.54094023  0.028348462            0   0.51259177    1.4717823    2.0127226    1.5883361 
 2235000    1.1218829 2.3130322e-05   0.47437419 0.0014320369            0   0.47294215    1.6547773    2.1291515    3.7081815 
 2240000   0.86813238 -2.1349258e-05   0.65913837   0.01728999            0   0.64184838    1.2804953    1.9396336   0.48219093 
 2245000    1.1264964 -6.5054789e-05   0.57603934  0.058182467            0   0.51785687    1.6615822    2.2376215   -2.2034521 
 2250000    1.0594131 0.00022801922   0.72851174  0.012048089            0   0.71646365    1.5626343    2.2911461    17.857258 
 2255000   0.95167438 -3.228369e-05   0.57470129  0.043601928            0   0.53109936    1.4037197     1.978421  -0.22547889 
 2260000    1.0034259 6.9085781e-05   0.53009979  0.018899902            0   0.51119989    1.4800532     2.010153    6.7264089 
 2265000    1.0504094 5.4604544e-05   0.64388676 0.0089404639            0    0.6349463    1.5493539    2.1932406    5.9209109 
 2270000    1.0243715 -4.1035347e-05   0.46428593  0.026463473            0   0.43782246     1.510948    1.9752339  -0.82611244 
 2275000    0.9465499 7.376652e-05   0.50437739  0.006226942            0   0.49815045    1.3961611    1.9005385     6.936333 
 2280000   0.88135892 4.2453144e-05   0.56977629   0.05634661            0   0.51342968    1.3000044    1.8697807    4.7679154 
 2285000   0.98575332 -3.8507547e-05   0.52253567  0.022376649            0   0.50015902    1.4539861    1.9765218  -0.65226005 
 2290000    1.1872134 5.2340846e-05   0.45212688  0.051837527            0   0.40028935    1.7511397    2.2032666    5.7764017 
 2295000    1.0590163 -3.6877551e-05   0.44396546  0.066890793            0   0.37707467    1.5620491    2.0060145  -0.51149292 
 2300000    1.0043035 -8.4327914e-05   0.60017993  0.055351324            0   0.54482861    1.4813476    2.0815276   -3.6752581 
 2305000   0.88872712 6.868798e-05   0.61447956  0.026513748            0   0.58796581    1.3108725    1.9253521    6.6144515 
 2310000   0.93613082 -2.2496016e-05   0.46097941  0.010742373            0   0.45023704     1.380793    1.8417724   0.30604438 
 2315000    1.0451882 2.2154168e-05   0.33663666  0.022786839            0   0.31384982    1.5416526    1.8782893    3.3906805 
 2320000     1.179206 3.660656e-05   0.46148009   0.02189279            0    0.4395873    1.7393288    2.2008089    4.6998167 
 2325000    1.2939937 -0.00012485046   0.42917523  0.013270296            0   0.41590493    1.9086407     2.337816   -6.1853088 
 2330000   0.99958316 -1.3305687e-05   0.64115531  0.026233434            0   0.61492188    1.4743852    2.1155405    1.2072056 
 2335000   0.92775717 -1.6742294e-05    0.4920992  0.053044906            0    0.4390543    1.3684418     1.860541   0.71760046 
 2340000    1.0020691 -2.3247865e-05   0.44926323 0.00032140285            0   0.44894183    1.4780519    1.9273151   0.34026083 
 2345000    1.0428939 -9.7140441e-05   0.53797341   0.07763551            0    0.4603379    1.5382685    2.0762419   -4.5552122 
 2350000    1.1158269 1.5447704e-05    0.5501429  0.030903426            0   0.51923947    1.6458446    2.1959875    3.2505508 
 2355000    1.1149437 -8.1730766e-05    0.4309982  0.018567344            0   0.41243086     1.644542    2.0755402   -3.5039468 
 2360000    1.1595369 2.9651676e-05   0.41705154 0.0068117029            0   0.41023983     1.710317    2.1273685    4.1515896 
 2365000    1.1368403 4.7794509e-05   0.42718473 0.0077481675            0   0.41943656    1.6768394    2.1040241    5.3667959 
 2370000   0.85363081 -0.0001109912   0.46320317  0.032673832            0   0.43052934    1.2591054    1.7223086   -5.8546904 
 2375000    0.9093508 -5.5638519e-06    0.5292127            0            0    0.5292127    1.3412924    1.8705051    1.4906795 
 2380000    1.0137555 -7.5367336e-05   0.41059354 0.0055378225            0   0.40505572    1.4952893    1.9058828   -3.2391939 
 2385000     1.175362 -0.00012156439   0.68376036  0.010416416            0   0.67334395     1.733659    2.4174193   -5.8813766 
 2390000    1.3568948 -9.1277937e-06   0.58427994   0.11670047            0   0.46757947    2.0014198    2.5856997    1.9625757 
 2395000    1.0026926 -4.7219058e-05   0.42794319  0.013487254            0   0.41445593    1.4789716    1.9069148   -1.3165729 
 2400000    0.9818669 6.012079e-05   0.44355892  0.005888376            0   0.43767055    1.4482537    1.8918126    5.9960585 
 2405000   0.84669861 6.1561955e-05   0.58133346  0.017748845            0   0.56358462    1.2488804    1.8302139    6.0328434 
 2410000    1.0651616 5.6836331e-05   0.52544195  0.062614067            0   0.46282788    1.5711133    2.0965553    5.9765821 
 2415000    1.0354954 0.00010793524   0.51108927   0.04402429            0   0.46706498    1.5273557     2.038445     9.406824 
 2420000    1.0594739 9.4503082e-05   0.72189074  0.018673982            0   0.70321676     1.562724    2.2846147    8.7360251 
 2425000    1.0341101 3.1936577e-06   0.54070039 0.00087615026            0   0.53982424    1.5253124    2.0660127    2.2840331 
 2430000   0.81139734 8.399178e-05   0.57314747  0.011884077            0   0.56126339    1.1968111    1.7699585    7.5037974 
 2435000    1.0289878 3.3440894e-05   0.30360377 0.0084320324            0   0.29517173     1.517757    1.8213608    4.1042591 
 2440000    1.2856886 7.0198895e-05    0.5158512  0.002549167            0   0.51330203    1.8963906    2.4122418    7.2044864 
 2445000   0.85149979 -4.2139329e-05   0.36417343  0.015786343            0   0.34838708    1.2559622    1.6201356   -1.2565759 
 2450000    1.2209143 4.2847568e-05   0.49084767  0.039292039            0   0.45155563    1.8008486    2.2916963     5.216757 
 2455000     1.052023 4.0569276e-05    0.5693003 0.00034159598            0   0.56895871    1.5517339    2.1210342    4.8905634 
 2460000    1.0668776 -1.626679e-05   0.28269469 5.3963533e-06            0    0.2826893    1.5736444    1.8563391   0.74585956 
 2465000      1.05224 -1.3632763e-05   0.60431616  0.017143144            0   0.58717301     1.552054    2.1563702    1.2257069 
 2470000    1.0591043 4.8234913e-05   0.55170941  0.014795518            0   0.53691389    1.5621789    2.1138883     5.406725 
 2475000   0.96579994 1.5117647e-05   0.51947354  0.049394775            0   0.47007877    1.4245549    1.9440285    2.9760598 
 2480000   0.93038444 6.9268662e-06   0.48816505  0.050543205            0   0.43762184    1.3723171    1.8604821    2.3333562 
 2485000    1.1644974 -0.00014101646   0.47532027 0.0048201439            0   0.47050012    1.7176337     2.192954   -7.4337698 
 2490000    1.0655583 -9.3838062e-05   0.60180681  0.020130578            0   0.58167623    1.5716985    2.1735053   -4.2325064 
 2495000   0.90306254 -0.00012294607   0.47587354   0.01262694            0    0.4632466    1.3320172    1.8078908   -6.5852276 
 2500000    0.9436184 -2.8213812e-05   0.50796003 0.0019971927            0   0.50596284    1.3918371    1.8997972 -0.026265713 
 2505000    1.0024155 2.3751202e-05   0.61053813  0.073937727            0    0.5366004    1.4785628     2.089101    3.7105163 
 2510000    1.1204595 -0.00013407305   0.59534241 0.0058243812            0   0.58951803    1.6526778    2.2480202   -6.9046997 
 2515000    1.0886508 3.6927278e-06     0.380577 0.0025709016            0    0.3780061      1.60576     1.986337    2.2384272 
 2520000    1.0235524 -8.4078192e-05   0.46276895  0.001865897            0   0.46090306    1.5097397    1.9725087   -3.7672292 
 2525000   0.98992653 -5.8613658e-05    0.6756813 0.0029633397            0   0.67271796    1.4601416    2.1358229   -1.8655361 
 2530000    1.1673584 -4.0608969e-06   0.65491664  0.014616892            0   0.64029975    1.7218536    2.3767702    2.0995463 
 2535000    1.0798948 -7.340414e-06   0.44540237 0.0029920102            0   0.44241036    1.5928449    2.0382472    1.5371416 
 2540000    1.0579262 -5.0256197e-05   0.42895868 0.0053070326            0   0.42365164    1.5604412    1.9893999   -1.4414231 
 2545000   0.78000693 1.9401316e-05   0.44172706  0.020499755            0    0.4212273    1.1505102    1.5922373    2.9167005 
 2550000    1.0212899 2.0955434e-05   0.53180776 0.00010792076            0   0.53169984    1.5064026    2.0382104     3.468768 
 2555000   0.89980628 0.00012220808      0.58348 0.0013879079            0   0.58209209    1.3272143    1.9106943    10.253432 
 2560000   0.75192445 -5.7897523e-05   0.32457422 4.204409e-05            0   0.32453217    1.1090886    1.4336628   -2.5188082 
 2565000    1.0350398 -1.1519717e-05   0.62837383  0.028132544            0   0.60024129    1.5266837    2.1550575    1.3686449 
 2570000    1.1117931 -4.927277e-05   0.58071946  0.011121154            0    0.5695983    1.6398948    2.2206143   -1.1430735 
 2575000   0.90224737 -1.2879171e-05   0.49243714            0            0   0.49243714    1.3308149     1.823252   0.94403394 
 2580000    1.1180026 1.4019801e-06   0.56842797  0.020971074            0   0.54745689    1.6490538    2.2174818    2.3131903 
 2585000   0.91783884 1.2319708e-05   0.40360736 0.0027342596            0    0.4008731    1.3538123    1.7574196    2.5984451 
 2590000    1.0689834 -5.7177406e-05   0.45964669  0.010553102            0   0.44909359    1.5767505    2.0363972   -1.8669137 
 2595000     1.151853 -1.8053631e-05   0.58353176  0.020640138            0   0.56289162    1.6989831    2.2825149    1.0500537 
 2600000   0.97345286 3.4759031e-05   0.41971435  0.025335952            0    0.3943784     1.435843    1.8555573    4.2284405 
 2605000    0.9458722 1.9559432e-05    0.4426794  0.043279761            0   0.39939964    1.3951615    1.8378409    3.1730981 
 2610000    1.0545054 0.00010968563   0.52651925  0.013754464            0   0.51276479    1.5553955    2.0819147    9.5697872 
 2615000    1.2581816 4.0393717e-05   0.52004795  0.014455574            0   0.50559238    1.8558178    2.3758658    5.1334102 
 2620000   0.98445661 -2.1260712e-05   0.51619339 0.0035714517            0   0.51262194    1.4520735    1.9682669   0.51686892 
 2625000    1.0712327 9.0687093e-05   0.47238082  0.018366301            0   0.45401452    1.5800682     2.052449    8.2433546 
 2630000    0.8120894 -2.8298576e-05   0.36651163  0.014219636            0   0.35229199    1.1978319    1.5643435  -0.36750595 
 2635000   0.83437876 4.9747632e-05   0.37115207  0.031945317            0   0.33920676    1.2307087    1.6018607    4.9979658 
 2640000   0.81365282 -0.00011066559   0.68057794  0.032030333            0   0.64854761    1.2001379    1.8807158   -5.6740552 
 2645000    1.0726185 -7.4999578e-05   0.48294059  0.017383488            0    0.4655571    1.5821123    2.0650528   -3.0549183 
 2650000    1.0687441 -3.8158403e-05   0.43028098  0.013239394            0   0.41704158    1.5763976    2.0066785  -0.59826846 
 2655000   0.77212887 -3.9064493e-05   0.61760981  0.024278729            0   0.59333108    1.1388901    1.7564999  -0.91030284 
 2660000    1.1403945 1.9496908e-05   0.42916922  0.058497441            0   0.37067178    1.6820819    2.1112511      3.44224 
 2665000    0.8545446 2.3480231e-05   0.53547808 0.0084867256            0   0.52699136    1.2604533    1.7959314    3.3988485 
 2670000    1.1070811 2.434916e-05   0.40411408  0.045294468            0   0.35881961    1.6329447    2.0370588    3.6992947 
 2675000   0.82608628 5.728465e-05   0.38911469 0.0005603664            0   0.38855432    1.2184773     1.607592     5.518224 
 2680000   0.97916197 5.1914084e-05   0.50141464  0.041702755            0   0.45971188    1.4442639    1.9456785      5.48968 
 2685000    1.0827423 3.809035e-05   0.51286197 0.0047267124            0   0.50813526     1.597045    2.1099069    4.7102082 
 2690000   0.95586667 -6.3062204e-05   0.54826086 0.0036001508            0    0.5446607    1.4099033    1.9581642   -2.3468823 
 2695000      1.06585 -5.7799135e-07   0.38041828  0.023556799            0   0.35686148    1.5721287     1.952547    1.9130895 
 2700000    1.0495734 4.4621548e-05   0.58346459  0.027542929            0   0.55592166    1.5481208    2.1315854    5.1777497 
 2705000    1.4083119 -3.888392e-06   0.64006545  0.045716937            0   0.59434851      2.07726    2.7173255    2.4518779 
 2710000   0.95095143 -0.00013650525    0.5561365  0.057832832            0   0.49830367    1.4026534    1.9587899   -7.3599685 
 2715000   0.91022036 -6.2377566e-06   0.47109342  0.038039538            0   0.43305389     1.342575    1.8136685    1.3878376 
 2720000   0.90096791 2.2375663e-06   0.52599097  0.046680569            0    0.4793104    1.3289277    1.8549186    2.0076698 
 2725000    0.9782567 -7.9096222e-05   0.51865578 0.0081317077            0   0.51052408    1.4429286    1.9615844    -3.438051 
 2730000    1.0960486 0.0001257983   0.63616881  0.022977683            0   0.61319113    1.6166717    2.2528405    10.840671 
 2735000    1.0933681 4.4071906e-05   0.48586144            0            0   0.48586144    1.6127179    2.0985794    5.1072215 
 2740000   0.83722626 0.00011242101   0.50675003  0.022170541            0   0.48457949    1.2349087    1.7416588    9.4162662 
 2745000    1.0192992 -0.00012172243   0.51006953  0.028314193            0   0.48175534    1.5034663    2.0135358    -6.296049 
 2750000   0.84124158 -6.6777666e-05   0.46587924 0.0054838514            0   0.46039539    1.2408313    1.7067106   -2.8519781 
 2755000    0.9400564 5.9790422e-05   0.48462637 0.0014925273            0   0.48313384    1.3865832    1.8712096    5.9529023 
 2760000    1.0022514 0.00015452777   0.46938449  0.012652429            0   0.45673206    1.4783209    1.9477054    12.496801 
 2765000   0.96243093 -1.553963e-05   0.61233826   0.01661726            0     0.595721    1.4195856    2.0319239   0.97108513 
 2770000   0.96361065 -3.5867545e-05    0.3988484  0.012946856            0   0.38590155    1.4213257    1.8201741  -0.62838365 
 2775000   0.84539247 1.3425519e-05   0.35381403 0.0044047345            0   0.34940929    1.2469539    1.6007679    2.5172834 
 2780000   0.84058249 5.0288311e-05    0.4906867  0.024207644            0   0.46647905    1.2398592    1.7305459    5.1635612 
 2785000    1.0012505 -0.00011300117   0.54202082  0.045054714            0   0.49696611    1.4768445    2.0188653   -5.6953477 
 2790000   0.94801347 3.9154477e-05    0.5890897  0.048316238            0   0.54077346    1.3983199    1.9874096    4.6603552 
 2795000    1.0324898 -4.3915685e-05   0.49389535 0.0096425525            0    0.4842528    1.5229225    2.0168178  -0.98115957 
 2800000   0.97844506 0.00014893329   0.52435937  0.026677799            0   0.49768157    1.4432065    1.9675658    12.134745 
 2805000    1.0987441 -4.4950931e-05   0.45972613  0.014966833            0    0.4447593    1.6206475    2.0803737  -0.98827655 
 2810000    1.0076251 -4.8409523e-05   0.60588003 0.0051886075            0   0.60069142     1.486247     2.092127   -1.2126297 
 2815000    1.0216712 4.8903026e-05   0.41510336 0.0012828659            0   0.41382049     1.506965    1.9220684     5.260515 
 2820000    1.0971897 -2.8898346e-05   0.42431546   0.02689418            0   0.39742128    1.6183549    2.0426703  0.069876577 
 2825000    1.0484886 7.5789634e-05   0.62036658   0.05838905            0   0.56197753    1.5465207    2.1668873    7.3407929 
 2830000    1.0905775 -0.00011070913   0.42286337 0.0040754651            0   0.41878791    1.6086019    2.0314652   -5.5262781 
 2835000    1.0205474 1.9187211e-06    0.6877546  0.040870839            0   0.64688376    1.5053074     2.193062    2.3240467 
 2840000   0.97287286 3.6417282e-05   0.50529818  0.056840621            0   0.44845756    1.4349875    1.9402856    4.4263721 
 2845000    1.0988576 -8.0485545e-05   0.40060304  0.016138937            0    0.3844641    1.6208149     2.021418   -3.4730619 
 2850000    1.0333669 -2.1898221e-05   0.34566468  0.015440479            0    0.3302242    1.5242162    1.8698809   0.37496239 
 2855000   0.87621649 -8.3525028e-06   0.36578666            0            0   0.36578666    1.2924193     1.658206    1.0880085 
 2860000    1.1148191 2.0267429e-05   0.50684805  0.015330556            0    0.4915175    1.6443582    2.1512063    3.5347961 
 2865000   0.89888601 -4.3146332e-05   0.42059419  0.051245218            0   0.36934898    1.3258569    1.7464511   -1.1990052 
 2870000   0.98978961 8.3213657e-05   0.54782644  0.011083888            0   0.53674255    1.4599397    2.0077661    7.6884851 
 2875000    1.0877866 0.00014935547   0.41615498 0.00055815293            0   0.41559683    1.6044852    2.0206402     12.21664 
 2880000   0.90899473 -6.1781039e-06   0.55463867            0            0   0.55463867    1.3407672    1.8954059    1.4736473 
 2885000   0.93002742 3.7241021e-05   0.55750927  0.020317706            0   0.53719156    1.3717904    1.9292997    4.4716201 
 2890000   0.92232867 0.00013814194   0.47349272 0.0020836235            0    0.4714091    1.3604348    1.8339275    11.264418 
 2895000     1.161636 -4.770216e-05   0.41394041 0.0084404453            0   0.40549996    1.7134131    2.1273535   -1.1291139 
 2900000    1.1773604 -3.8595036e-05   0.61833181  0.069389149            0   0.54894267    1.7366066    2.3549385  -0.27981601 
 2905000   0.84092496 -1.9321399e-05   0.37889029 0.00094415914            0   0.37794613    1.2403643    1.6192546    0.3002471 
 2910000    1.1236302 9.6882518e-05   0.47406684  0.009531681            0   0.46453516    1.6573546    2.1314214     8.745268 
 2915000    1.1121006 9.2694016e-06   0.57216312   0.02459423            0   0.54756889    1.6403485    2.2125116    2.8453027 
 2920000    1.1114263 -1.9166042e-05   0.56287054  0.027762626            0   0.53510792    1.6393538    2.2022244   0.89382259 
 2925000   0.94816896 -4.4966973e-05   0.51276113  0.030044857            0   0.48271627    1.3985492    1.9113103    -1.158435 
 2930000     1.019044 -1.7312215e-05    0.6242282  0.059016051            0   0.56521215    1.5030899    2.1273181   0.94547086 
 2935000   0.92666243 1.7617887e-05   0.67121237  0.035599308            0   0.63561306    1.3668271    2.0380394    3.2407538 
 2940000    1.1231606 4.9570595e-05   0.46153787  0.016639372            0    0.4448985    1.6566619    2.1181998    5.5022191 
 2945000   0.95175635 4.8926498e-05   0.44821038 0.0092713316            0   0.43893905    1.4038406     1.852051       5.1921 
 2950000    1.0668244 7.3838066e-05   0.50480531  0.041478605            0   0.46332671    1.5735659    2.0783713    7.1190499 
 2955000    1.1043783 -5.7292764e-06   0.62554948   0.02443723            0   0.60111225     1.628958    2.2545075    1.8633889 
 2960000    1.0889493 2.6937142e-05   0.27617009 0.0039183769            0   0.27225171    1.6062002    1.8823703    3.7212791 
 2965000   0.97278511 3.0772356e-05   0.55885726   0.01165668            0   0.54720058     1.434858    1.9937153    4.0944415 
 2970000    1.2160116 3.1852328e-05   0.51587779  0.081291835            0   0.43458596    1.7936172     2.309495    4.4839472 
 2975000    1.0254533 6.6709139e-05   0.58896293 0.0090340064            0   0.57992893    1.5125436    2.1015065    6.6555171 
 2980000   0.95490536 -6.0579682e-05   0.54437257   0.01188306            0   0.53248951    1.4084854     1.952858    -2.182715 
 2985000   0.95981317 2.9004355e-05   0.41119111 0.0071522592            0   0.40403885    1.4157244    1.8269155    3.8069461 
 2990000    1.0954568 -3.5921987e-05    0.4840098  0.056739177            0   0.42727062    1.6157987    2.0998085  -0.35246574 
 2995000    1.0801639 -6.4140676e-06   0.45799572    0.1010719            0   0.35692382    1.5932418    2.0512375    1.6133705 
 3000000   0.94168566 6.384053e-05   0.47688462 0.0049950093            0   0.47188962    1.3889864     1.865871    6.2240512 
 3005000   0.97476702 -3.0482937e-05   0.66795198  0.019333661            0   0.64861832    1.4377814    2.1057333  0.024764853 
 3010000    1.1598758 3.6556276e-05   0.42420691  0.024784102            0   0.39942281    1.7108169    2.1350238    4.6305989 
 3015000    1.0122138 4.7681527e-05   0.55453419  0.051096996            0   0.50343719    1.4930154    2.0475496    5.3026085 
 3020000    1.1932416 0.0001431692   0.59270914  0.040414644            0   0.55229449    1.7600313    2.3527404    12.126424 
 3025000    1.0541953 3.2204885e-07   0.51342803  0.034258053            0   0.47916998    1.5549381    2.0683662    2.0903514 
 3030000    1.1465292 4.0192243e-05   0.54644862  0.041475665            0   0.50497296    1.6911305    2.2375791    4.9813696 
 3035000    1.0027883 7.6628281e-06   0.35696023 0.0092799776            0   0.34768025    1.4791128     1.836073    2.3591887 
 3040000    1.0045702 -2.0948009e-05   0.57724909 0.0096039713            0   0.56764511    1.4817411    2.0589902    0.6289394 
 3045000   0.86481597 -8.2181646e-05   0.51151195   0.04478683            0   0.46672512    1.2756036    1.7871155   -3.8231515 
 3050000    1.0401608 8.5857958e-06   0.52083192 5.0428417e-05            0   0.52078149    1.5342372    2.0550691    2.6411927 
 3055000     0.976402 5.453152e-05   0.52038496 0.0092454598            0    0.5111395    1.4401929    1.9605779     5.683263 
 3060000   0.88846169 -3.6780971e-05   0.53201416  0.023834085            0   0.50818007     1.310481    1.8424952  -0.66841917 
 3065000   0.90334053 -6.1944563e-05   0.58625351  0.027449445            0   0.55880407    1.3324273    1.9186808    -2.310068 
 3070000   0.81123148 5.463634e-06   0.52532198   0.04615587            0   0.47916611    1.1965664    1.7218884    2.0948725 
 3075000   0.90274501 0.00011096857   0.43731189  0.021611238            0   0.41570065    1.3315489    1.7688608    9.3443149 
 3080000   0.88739557 7.6155474e-05   0.49586932  0.014504116            0   0.48136521    1.3089085    1.8047778    7.0036581 
 3085000    0.9917418 6.7658912e-05   0.59557604 0.0050509888            0   0.59052505    1.4628192    2.0583952    6.6772436 
 3090000    1.0988864 7.9985728e-05    0.4568813  0.018606434            0   0.43827487    1.6208574    2.0777387    7.5380977 
 3095000     1.037473 -5.3212496e-05   0.43159727  0.014739909            0   0.41685736    1.5302726    1.9618699   -1.6707698 
 3100000   0.94303093 6.840343e-05   0.53329542  0.016469129            0   0.51682629    1.3909706     1.924266    6.5939402 
 3105000    0.9027402 5.2129563e-05   0.48110125  0.032732797            0   0.44836846    1.3315418     1.812643    5.3713546 
 3110000   0.88504885 -5.8698585e-05   0.58105498  0.023239999            0   0.55781498    1.3054471     1.886502   -2.1206547 
 3115000    1.1231325 8.6243398e-05   0.48397692  0.040062662            0   0.44391426    1.6566204    2.1405973    8.0281466 
 3120000    1.1484831 9.1843353e-05   0.52753092            0            0   0.52753092    1.6940126    2.2215435    8.4913831 
 3125000   0.88554419 4.5066643e-05   0.52368674  0.051725168            0   0.47196157    1.3061777    1.8298644    4.9064139 
 3130000   0.97581325 -0.00010459236   0.60748254  0.040798661            0   0.56668388    1.4393245    2.0468071   -5.0933645 
 3135000   0.99091073 0.00010963763   0.36382214  0.011799576            0   0.35202256    1.4615933    1.8254155    9.3100113 
 3140000    1.0926829 0.00011221606   0.73324086  0.096598228            0   0.63664263    1.6117073    2.3449482    10.005565 
 3145000    1.1110689 2.5372101e-05   0.66628378 0.0039440871            0    0.6623397    1.6388266    2.3051104    4.0371791 
 3150000    1.1339333 -0.00011693434   0.56729051  0.018908774            0   0.54838174    1.6725516    2.2398421   -5.7428754 
 3155000     1.031912 9.844955e-06     0.606148  0.072463475            0   0.53368452    1.5220702    2.1282182    2.8003004 
 3160000   0.85849631 -0.00010289025    0.6293624 0.0019314243            0   0.62743098    1.2662821    1.8956445   -5.1283298 
 3165000   0.99440995 -5.5590106e-05   0.51473835  0.012726973            0   0.50201138    1.4667547     1.981493   -1.8134582 
 3170000   0.91866828 7.6657134e-05   0.51849158 0.0079616033            0   0.51052997    1.3550357    1.8735273    7.1066543 
 3175000    1.0695761 -7.175744e-05   0.49465474  0.014065639            0    0.4805891    1.5776248    2.0722795   -2.8263617 
 3180000   0.93634845 0.00021111643   0.51531676 0.0097730513            0   0.50554371     1.381114    1.8964307    16.308645 
 3185000   0.98593697 3.7490108e-05   0.39722158  0.020781552            0   0.37644003     1.454257    1.8514786    4.4108033 
 3190000   0.96443616 -2.9279352e-05   0.50218512 0.0018904403            0   0.50029468    1.4225433    1.9247284 -0.074075284 
 3195000    1.0587854 -2.8872484e-05   0.43962205  0.024302549            0    0.4153195    1.5617085    2.0013305  0.030302252 
 3200000    1.3401918 0.0001558465    0.5455677   0.05613774            0   0.48942996    1.9767829    2.5223506    13.161471 
 3205000     1.000938 1.4915575e-05   0.40203067  0.081851625            0   0.32017905    1.4763835    1.8784142    2.8966508 
 3210000   0.98052209 5.2305495e-05   0.78888629  0.028755159            0   0.76013113    1.4462701    2.2351564    5.8058782 
 3215000     1.055172 -1.081927e-05    0.5235956  0.024328575            0   0.49926702    1.5563787    2.0799743    1.3413788 
 3220000    1.0021178 3.4698936e-05   0.51649526  0.018591545            0   0.49790372    1.4781237     1.994619    4.3633996 
 3225000    1.0879721 2.190648e-05   0.42391289  0.050660253            0   0.37325264    1.6047588    2.0286717    3.5241541 
 3230000    1.1130989 5.9716619e-05   0.67818827  0.015789492            0   0.66239878    1.6418208    2.3200091    6.3966636 
 3235000   0.80342071 -7.750152e-05   0.50349727  0.054783688            0   0.44871359    1.1850455    1.6885428   -3.6022276 
 3240000     1.021823 5.585288e-05   0.60004607 0.00084258174            0   0.59920349    1.5071889     2.107235     5.920125 
 3245000    1.0358381 5.1092377e-06   0.37642599  0.002297479            0   0.37412851    1.5278613    1.9042872    2.2530779 
 3250000    1.0006309 2.7310288e-05   0.51597011  0.027236132            0   0.48873398    1.4759306    1.9919007     3.856283 
 3255000    1.0924267 -8.1606621e-06   0.42064098  0.030247134            0   0.39039385    1.6113294    2.0319704    1.4748692 
 3260000   0.97698381 6.2401698e-05   0.49073797  0.027845799            0   0.46289217    1.4410511    1.9317891     6.191745 
 3265000   0.82315265 -1.7294262e-05   0.51112266 0.0098826597            0      0.50124    1.2141502    1.7252728   0.54465118 
 3270000    1.0327378 4.5029291e-05   0.36672696  0.050293365            0    0.3164336    1.5232882    1.8900152    4.9640148 
 3275000    1.2021048 -2.3917685e-06   0.55616464  0.001573486            0   0.55459116    1.7731046    2.3292693    2.1659912 
 3280000    1.1549411 2.372202e-05   0.49913624   0.03256704            0    0.4665692    1.7035381    2.2026744    3.8220976 
 3285000    1.0067943 -5.5292708e-05   0.56958284  0.030220141            0    0.5393627    1.4850216    2.0546044   -1.7200445 
 3290000    1.0879655 -5.5534428e-06   0.43004968 0.00070029775            0   0.42934938    1.6047491    2.0347987    1.6556837 
 3295000    1.1008312 4.8734518e-05   0.37490023 0.0098195956            0   0.36508064     1.623726    1.9986263    5.3255694 
 3300000   0.93140848 -9.7642136e-05   0.61213511  0.033914599            0   0.57822051    1.3738275    1.9859626   -4.6797405 
 3305000    1.0025901 -3.0954766e-05   0.49586994   0.00393376            0   0.49193618    1.4788204    1.9746904  -0.13848833 
 3310000    1.0386544 -9.7200912e-05   0.46863449  0.027072701            0   0.44156179    1.5320152    2.0006497   -4.6349326 
 3315000   0.94880034 7.1625554e-05    0.6178963  0.038994088            0   0.57890221    1.3994805    2.0173768    6.9070146 
 3320000   0.98811562 5.9682723e-05   0.44208845  0.013837671            0   0.42825078    1.4574705     1.899559    5.9738995 
 3325000   0.92035519 -6.819481e-05   0.70285451   0.04670734            0   0.65614717    1.3575239    2.0603784    -2.595054 
 3330000      1.00363 -3.0465681e-06   0.71791958 0.0097500894            0   0.70816949    1.4803542    2.1982738    1.9902947 
 3335000    1.0563809 9.435305e-05   0.35935353 0.0056272047            0   0.35372632    1.5581619    1.9175154    8.3586836 
 3340000    1.0857847 0.00017543343   0.72201733  0.010171528            0    0.7118458    1.6015324    2.3235497    14.299805 
 3345000   0.97032389 0.00023191511   0.62797622 0.00090973805            0   0.62706649    1.4312277     2.059204    17.891276 
 3350000    1.0615208 -1.11423e-05   0.52428618 0.0045281345            0   0.51975805    1.5657431    2.0900293    1.3293816 
 3355000    1.2045976 5.0161091e-05   0.54361088  0.025487569            0   0.51812331    1.7767814    2.3203923    5.7447228 
 3360000    1.1556589 3.6736741e-06   0.51769928   0.02323465            0   0.49446463    1.7045969    2.2222962    2.4730856 
 3365000    1.0248205 -4.7883135e-05     0.562383  0.017268761            0   0.54511424    1.5116102    2.0739932   -1.1948289 
 3370000    1.1713193 2.7037267e-05   0.52584575  0.024951574            0   0.50089418    1.7276959    2.2535417    4.0992857 
 3375000   0.92026466 -5.3310967e-05   0.50015268  0.011332095            0   0.48882058    1.3573904    1.8575431    -1.781819 
 3380000   0.91993214 0.00013293421   0.67657254  0.037580344            0    0.6389922    1.3568999    2.0334725    11.108448 
 3385000   0.91446421 2.1464446e-05    0.6108752  0.032155164            0   0.57872004    1.3488347    1.9597099    3.4250161 
 3390000     1.093901 0.00010246879   0.54267669  0.054844995            0    0.4878317     1.613504    2.1561807    9.1513832 
 3395000    1.0681699 6.7305031e-06   0.64517316  0.021512513            0   0.62366065    1.5755505    2.2207237    2.6801927 
 3400000   0.90898398 -0.00013890928   0.60233013   0.01638732            0   0.58594281    1.3407514    1.9430815   -7.5397922 
 3405000   0.98948999 2.3346169e-05   0.48033817  0.042229403            0   0.43810876    1.4594977    1.9398359     3.533601 
 3410000    1.0646085 4.2932671e-05   0.31488857 0.0023591394            0   0.31252943    1.5702976    1.8851862    4.8160565 
 3415000     1.008478 6.2783471e-05    0.5357689  0.010102416            0   0.52566648     1.487505    2.0232739    6.3092922 
 3420000    1.0278536 5.944226e-05    0.4150245  0.038428765            0   0.37659574    1.5160841    1.9311086    5.9890336 
 3425000    0.8771071 -8.8632134e-06   0.46588894  0.047795148            0    0.4180938     1.293733    1.7596219    1.1545599 
 3430000   0.86265369 -2.3365887e-05   0.38590359 0.0011491175            0   0.38475447    1.2724142    1.6583178    0.0632066 
 3435000   0.97285436 0.00011025867   0.61145424  0.025286831            0   0.58616741    1.4349602    2.0464144    9.5734063 
 3440000    1.1853629 3.0939757e-05   0.35106274  0.018306977            0   0.33275576    1.7484102     2.099473     4.211627 
 3445000    1.0856473  2.11488e-05   0.50349837  0.032547176            0   0.47095119    1.6013298    2.1048282    3.5485863 
 3450000    1.0060384 2.3769332e-05   0.63943336 0.0088568793            0   0.63057648    1.4839066      2.12334    3.7459931 
 3455000    1.0753023 3.4610863e-05   0.59167666 0.0015525199            0   0.59012414    1.5860709    2.1777476    4.5405159 
 3460000    1.0285512 -7.9788016e-06   0.51847156  0.010204078            0   0.50826748     1.517113    2.0355846    1.4908984 
 3465000    1.0303939 8.4308462e-05   0.50066034  0.033105535            0   0.46755481    1.5198311    2.0204914    7.7759491 
 3470000    1.0281678 -9.1044969e-05   0.48251498  0.011213707            0   0.47130128    1.5165476    1.9990625    -4.216274 
 3475000   0.96732658 8.2197895e-06   0.41574518  0.026223615            0   0.38952156    1.4268067    1.8425519    2.4036895 
 3480000    1.0955957 -4.3296477e-05   0.50756125  0.047141496            0   0.46041975    1.6160037     2.123565  -0.83214123 
 3485000    1.1644418 -7.2989456e-05   0.46463342 0.0023949252            0   0.46223849    1.7175517    2.1821851   -2.8005617 
 3490000    1.0305666 -4.0939385e-05   0.60003483 0.0061651603            0   0.59386967    1.5200858    2.1201206  -0.67467472 
 3495000    1.0349747 -8.5108633e-05   0.47088918  0.034491024            0   0.43639816    1.5265877    1.9974769   -3.8126058 
 3500000    1.0022948 0.00010048396   0.40666781 0.0057898937            0   0.40087792    1.4783848    1.8850526    8.7447578 
 3505000    1.0920752 4.0691077e-05   0.53535023 0.00067077984            0   0.53467945     1.610811    2.1461612    4.9240054 
 3510000    1.0154541 1.9889245e-05   0.40056008  0.013374453            0   0.38718562    1.4977949    1.8983549    3.2561274 
 3515000   0.94758885 4.3207713e-05   0.53403232  0.027061796            0   0.50697053    1.3976936    1.9317259    4.8813724 
 3520000    1.0110461 -8.3426321e-05   0.36242084 0.0026160132            0   0.35980483     1.491293    1.8537138    -3.841523 
 3525000    1.0370523 -3.2730623e-05   0.58911333  0.010008711            0   0.57910462    1.5296522    2.1187655  -0.11564502 
 3530000    1.0630991 -0.00010566114   0.65875309 0.0012970078            0   0.65745608    1.5680712    2.2268243   -4.9863098 
 3535000    1.1371687 -0.00017320556   0.69772652            0            0   0.69772652    1.6773238    2.3750503   -9.4491161 
 3540000   0.85813129 8.6060346e-06    0.5987192  0.048326504            0    0.5503927    1.2657436    1.8644628    2.4519681 
 3545000    0.9142691 9.4186951e-05   0.69808988  0.028732211            0   0.66935766    1.3485469    2.0466368     8.476466 
 3550000   0.80604583 0.00011657844   0.47357699  0.041962865            0   0.43161412    1.1889176    1.6624946    9.6209158 
 3555000    1.0352398 -1.7728542e-05   0.48691481  0.032076867            0   0.45483794    1.5269787    2.0138935   0.80362504 
 3560000    1.0494659 -3.0743078e-05   0.34500799 0.0097374518            0   0.33527054    1.5479621    1.8929701  -0.20575734 
 3565000    1.3250407 3.9339494e-05   0.41419533 0.0020143279            0   0.41218101     1.954435    2.3686303    5.0542064 
 3570000   0.97154744 6.7844373e-06   0.41677507 0.0076317044            0   0.40914337    1.4330325    1.8498075    2.3129585 
 3575000   0.85597857 -1.964815e-05   0.42960016 0.0055412302            0   0.42405893    1.2625684    1.6921685   0.35085487 
 3580000     1.021002 -2.8933837e-05    0.5221476 0.0008043298            0   0.52134327    1.5059779    2.0281255  0.052908932 
 3585000    1.1247482 7.1502052e-05   0.68839011    0.0546568            0   0.63373331    1.6590036    2.3473937    7.2286004 
 3590000    0.8879342 2.980836e-06   0.38414572  0.010757939            0   0.37338778    1.3097029    1.6938487    1.8973404 
 3595000    1.0908728 3.9033702e-06   0.44185485 0.0038766539            0    0.4379782    1.6090373    2.0508922    2.3173623 
 3600000   0.87382479 -0.00010424266   0.73436293  0.027779783            0   0.70658315    1.2888916    2.0232545   -5.0930443 
 3605000    0.9672632 -5.7111474e-06   0.46979701 0.0042292385            0   0.46556777    1.4267132    1.8965102    1.5066292 
 3610000    1.0145352 -3.6758114e-05    0.4670136 0.0075350591            0   0.45947855    1.4964394     1.963453  -0.54590092 
 3615000   0.92532308 -7.5854138e-05   0.49847106            0            0   0.49847106    1.3648515    1.8633226   -3.3149866 
 3620000   0.98237299 -9.1106798e-05   0.49228011  0.016801423            0   0.47547869    1.4490002    1.9412803   -4.2782771 
 3625000    1.0325318 7.9646258e-05   0.52886679  0.045021012            0   0.48384578    1.5229844    2.0518512    7.4890357 
 3630000   0.99425567 -3.0651103e-05   0.66873301  0.032321505            0   0.63641151    1.4665271    2.1352601  0.042811494 
 3635000   0.99767792 -4.1925979e-05   0.38486928 0.0019110292            0   0.38295825    1.4715749    1.8564442   -1.0057026 
 3640000   0.91985968 -1.0880261e-05   0.55784067  0.057638452            0   0.50020222     1.356793    1.9146337    1.1718745 
 3645000    1.0863104 -1.6376332e-05   0.47079806  0.030670624            0   0.44012744    1.6023079     2.073106   0.95514838 
 3650000   0.98070342 4.3553646e-05   0.63111642  0.013880385            0   0.61723603    1.4465375     2.077654    5.0509162 
 3655000   0.96475213 -9.7210171e-05   0.50437201  0.015596637            0   0.48877538    1.4230094    1.9273814   -4.7088329 
 3660000    1.1274975 5.4088773e-05   0.36184762  0.026402631            0   0.33544498    1.6630588    2.0249064    5.7173666 
 3665000    0.9678303 4.6170006e-05   0.61265392   0.02757906            0   0.58507486    1.4275497    2.0402036    5.1920761 
 3670000   0.94748025 8.1224574e-06   0.48226827  0.021493216            0   0.46077505    1.3975334    1.8798016    2.4342947 
 3675000    1.1152958 6.8751333e-06   0.48345877    0.0103509            0   0.47310787    1.6450613    2.1285201    2.5978626 
 3680000   0.92093525 -1.7500524e-06   0.50361874 0.0027441259            0   0.50087461    1.3583795    1.8619982     1.742528 
 3685000   0.99012872 5.2468135e-06   0.54005453  0.012421556            0   0.52763297    1.4604399    2.0004944    2.3586769 
 3690000     1.043271 -2.9622394e-05   0.54983714 0.0036321072            0   0.54620503    1.5388248    2.0886619  0.066439817 
 3695000   0.93833196 5.9931434e-05   0.68562939  0.010990432            0   0.67463895    1.3840396     2.069669    6.1609883 
 3700000    1.0709185 0.00015498691   0.81161683  0.041701082            0   0.76991574    1.5796048    2.3912216    12.971661 
 3705000   0.92422022 4.526702e-06   0.41616271  0.019407108            0    0.3967556    1.3632248    1.7793875    2.0884104 
 3710000    1.0984045 -3.3482152e-05   0.55137523  0.004401651            0   0.54697358    1.6201467    2.1715219  -0.11419297 
 3715000    1.1345909 1.9498542e-05   0.42775123  0.007366329            0   0.42038491    1.6735216    2.1012728    3.4323733 
 3720000     1.030758 7.7546195e-06   0.43312984 0.00071681585            0   0.43241302    1.5203681    1.9534979    2.4828799 
 3725000    1.0253592 -5.6066024e-05   0.50809951 1.7769629e-05            0   0.50808174    1.5124048    2.0205043   -1.8069363 
 3730000   0.88194605 9.0117108e-06   0.38084109  0.006658519            0   0.37418257    1.3008704    1.6817115     2.296911 
 3735000   0.85944662 3.9516729e-05   0.58827038  0.059430985            0   0.52883939    1.2676838    1.8559541    4.5536295 
 3740000    1.0578635 5.9397255e-05   0.38595789  0.025861253            0   0.36009664    1.5603487    1.9463066    6.0011592 
 3745000    1.1856164 -5.8739874e-06   0.38646001  0.022461518            0   0.36399849    1.7487841    2.1352442    1.7342466 
 3750000    1.0206016 3.8845783e-06   0.46921451  0.011503013            0    0.4577115    1.5053873    1.9746018    2.2397891 
 3755000   0.93446591 -6.0202592e-05   0.41213122   0.02281344            0   0.38931778    1.3783372    1.7904684   -2.3193619 
 3760000   0.98934618 -5.7139034e-05   0.36623208  0.021754676            0   0.34447741    1.4592856    1.8255177   -2.0751737 
 3765000    1.0074277 -1.8902537e-05   0.49212145  0.030214206            0   0.46190725    1.4859558    1.9780772   0.68766407 
 3770000    1.2663034 1.3438993e-05   0.44270197  0.013431016            0   0.42927095    1.8677976    2.3104995    3.2279348 
 3775000    1.1163167 0.00011564744   0.61600125   0.02855413            0   0.58744712    1.6465672    2.2625684    10.157434 
 3780000   0.98345591 3.2578318e-05   0.42210715  0.066961908            0   0.35514525    1.4505975    1.8727046    4.0967178 
 3785000   0.91411701 -7.7526836e-05   0.55739322  0.054609126            0   0.50278409    1.3483226    1.9057158   -3.3867829 
 3790000    1.2366481 1.8444665e-05   0.54150853 0.0029998033            0   0.53850873     1.824056    2.3655645    3.6247203 
 3795000   0.99725043 -5.702521e-05   0.41822737 0.00011474437            0   0.41811263    1.4709444    1.8891718   -2.0037493 
 3800000    1.1571242 -5.9534119e-05    0.4490253 0.0025685862            0   0.44645671    1.7067582    2.1557835   -1.9084124 
 3805000   0.92070329 -3.0177717e-05   0.42979634 0.0031455077            0   0.42665084    1.3580374    1.7878337  -0.27229847 
 3810000   0.88792848 9.8574606e-06   0.49004989 0.0019240352            0   0.48812586    1.3096945    1.7997444    2.4726804 
 3815000   0.91506057 -3.7382709e-05   0.58389151  0.027170151            0   0.55672136    1.3497143    1.9336059  -0.61838705 
 3820000   0.88630318 5.6830346e-05   0.44107663  0.008710182            0   0.43236644    1.3072972    1.7483738    5.6279921 
 3825000    1.1139643 7.2422492e-05   0.79397745  0.012287929            0   0.78168952    1.6430973    2.4370748    7.3811169 
 3830000    1.0444005 2.5127411e-05     0.486723 0.00045729455            0    0.4862657    1.5404908    2.0272138    3.7425784 
 3835000   0.95997551 -3.4326015e-05   0.56805637  0.012943115            0   0.55511325    1.4159639    1.9840203   -0.3593024 
 3840000    1.1468234 7.1193105e-05   0.54757772  0.024906446            0   0.52267127    1.6915645    2.2391422    7.0992581 
 3845000   0.87532945 5.0845213e-05   0.48364867  0.030501876            0   0.45314679    1.2911109    1.7747596    5.2457928 
 3850000   0.93073255 -4.0705421e-05   0.43411668 0.0074776827            0     0.426639    1.3728305    1.8069472  -0.97187623 
 3855000   0.99000745 -6.8237825e-05   0.41750944 0.0059461371            0    0.4115633     1.460261    1.8777704   -2.7805984 
 3860000    1.2208245 3.8733523e-05   0.37284967 0.0075586576            0   0.36529101    1.8007162    2.1735659    4.8177743 
 3865000    1.0162419 3.865778e-06   0.54463991  0.054023715            0    0.4906162    1.4989568    2.0435967    2.3075005 
 3870000   0.95894634 7.2711706e-05   0.46578438 0.0036773667            0   0.46210701    1.4144459    1.8802302     6.844016 
 3875000    1.1099203 3.3520543e-05   0.48054149  0.013280672            0   0.46726082    1.6371324    2.1176739    4.4060096 
 3880000    0.9784317 0.00011771136   0.52098116 0.0025993355            0   0.51838183    1.4431868    1.9641679    9.9999299 
 3885000    1.0884671 1.0714475e-05   0.36296011 0.0075272062            0    0.3554329     1.605489    1.9684491    2.6998906 
 3890000   0.81583522 5.1550075e-05   0.51663602  0.003888156            0   0.51274786     1.203357     1.719993    5.2391448 
 3895000    1.0182181 -3.0530119e-05   0.51056472 0.0049811731            0   0.50558355    1.5018716    2.0124364 -0.071753089 
 3900000    1.1281965 0.00011321653   0.49985199  0.023612901            0   0.47623909    1.6640898    2.1639418    9.8928572 
 3905000   0.95041497 -7.4996686e-05    0.4282417  0.015960379            0   0.41228132    1.4018621    1.8301038     -3.28967 
 3910000    1.2606649 -5.1943219e-05   0.49780981 0.0070515321            0   0.49075828    1.8594807    2.3572905   -1.1886999 
 3915000    0.9995603 -0.00015175047   0.60229324  0.014579649            0   0.58771359    1.4743514    2.0766447   -8.2828539 
 3920000   0.88519303 7.0768014e-05   0.44376824 0.0026051277            0   0.44116311    1.3056597     1.749428    6.5805244 
 3925000    1.0577355 -3.4761438e-05   0.57714202 0.0062952304            0   0.57084679    1.5601598    2.1373018  -0.23574566 
 3930000    1.0832698 2.5698932e-06   0.56703691 0.0012951567            0   0.56574175     1.597823    2.1648599     2.340298 
 3935000   0.89340424 -5.3058379e-05   0.54548711  0.037596888            0   0.50789022    1.3177712    1.8632584   -1.7588603 
 3940000   0.97025257 -1.86156e-05   0.45273685 0.0075442278            0   0.44519262    1.4311225    1.8838594    0.6130344 
 3945000    1.0945618 6.3588741e-05   0.38571729  0.010487574            0   0.37522972    1.6144786    2.0001959    6.3411873 
 3950000    1.0125896 0.00010060838   0.36804836   0.02126777            0   0.34678059    1.4935697    1.8616181    8.7298167 
 3955000    1.0458333 -7.9901169e-05   0.50294257  0.022444514            0   0.48049805    1.5426041    2.0455467   -3.4090398 
 3960000   0.80522811 -0.00011050328   0.51811459 0.0023609251            0   0.51575366    1.1877115     1.705826   -5.8378645 
 3965000   0.90851303 -2.6616821e-05   0.49277805 0.0068490939            0   0.48592896    1.3400567    1.8328348  0.015793121 
 3970000   0.97741179 -3.5751388e-05   0.48720134  0.033840697            0   0.45336065    1.4416824    1.9288837  -0.51174439 
 3975000    0.9080715 2.8323265e-05    0.4487672 0.0025872881            0   0.44617991    1.3394055    1.7881727    3.7217075 
 3980000    1.0916686 -2.8180197e-05   0.50325452 0.0072622196            0    0.4959923    1.6102112    2.1134657   0.18969756 
 3985000     1.109207 7.5884916e-05   0.46007079  0.071126163            0   0.38894463    1.6360803    2.0961511    7.2765614 
 3990000     1.015467 -9.5077411e-05   0.57646351  0.019574372            0   0.55688914    1.4978138    2.0742773   -4.4163406 
 3995000    1.0350797 0.00010672333   0.55993755  0.013499904            0   0.54643764    1.5267425    2.0866801    9.3723262 
 4000000    1.0302087 7.7095063e-05   0.47442777  0.016265845            0   0.45816192    1.5195578    1.9939856    7.2570086 
Loop time of 239.271 on 1 procs for 2000000 steps with 60 atoms

Performance: 722194.541 tau/day, 8358.733 timesteps/s
97.4% CPU use with 1 MPI tasks x no OpenMP threads

MPI task timing breakdown:
Section |  min time  |  avg time  |  max time  |%varavg| %total
---------------------------------------------------------------
Pair    | 0.82332    | 0.82332    | 0.82332    |   0.0 |  0.34
Bond    | 1.9918     | 1.9918     | 1.9918     |   0.0 |  0.83
Neigh   | 202.5      | 202.5      | 202.5      |   0.0 | 84.63
Comm    | 28.494     | 28.494     | 28.494     |   0.0 | 11.91
Output  | 0.048042   | 0.048042   | 0.048042   |   0.0 |  0.02
Modify  | 4.6939     | 4.6939     | 4.6939     |   0.0 |  1.96
Other   |            | 0.7187     |            |       |  0.30

Nlocal:        60.0000 ave          60 max          60 min
Histogram: 1 0 0 0 0 0 0 0 0 0
Nghost:        0.00000 ave           0 max           0 min
Histogram: 1 0 0 0 0 0 0 0 0 0
Neighs:        34.0000 ave          34 max          34 min
Histogram: 1 0 0 0 0 0 0 0 0 0

Total # of neighbors = 34
Ave neighs/atom = 0.56666667
Ave special neighs/atom = 5.8000000
Neighbor list builds = 38029
Dangerous builds = 0
write_restart restart.rerun.1
System init for write_restart ...
WARNING: Communication cutoff 1.4200000000000002 is shorter than a bond length based estimate of 1.8. This may lead to errors. (../comm.cpp:667)
#--------------End of Input file ------------------
Total wall time: 0:03:59
