LAMMPS (29 Oct 2020)
###################### polyelectrolyte complexation ######################
clear

#Initialization
#------------------------------------
units				lj
dimension			3
atom_style			full
boundary			p p p

#Atom Definition
#-------------------------------------
read_restart			restart.equil
Reading restart file ...
  restart file = 29 Oct 2020, LAMMPS = 29 Oct 2020
  restoring atom style full from restart
  orthogonal box = (-80.000000 -80.000000 -80.000000) to (80.000000 80.000000 80.000000)
  1 by 1 by 1 MPI processor grid
  restoring pair style lj/cut from restart
  restoring bond style harmonic from restart
  60 atoms
  59 bonds
Finding 1-2 1-3 1-4 neighbors ...
  special bond factors lj:    0.0      1.0      1.0     
  special bond factors coul:  0.0      0.0      0.0     
     2 = max # of 1-2 neighbors
     2 = max # of 1-3 neighbors
     4 = max # of 1-4 neighbors
     6 = max # of special neighbors
  special bonds CPU = 0.000 seconds
  read_restart CPU = 0.003 seconds

#Force definition
#----------------------------------------------
#Bond definition
bond_style			harmonic
bond_coeff			1 5000 1
#Pair definition
special_bonds	lj 0 1 1
dielectric		80
pair_style		 lj/cut 1.12
pair_modify 		 shift yes
pair_coeff	1 1 1 1 1.12

#Timestep etc
#--------------------------------------------
timestep		0.001
run_style		verlet
velocity		all	create	1	2

#Fix
#---------------------------------------
group polymers type 1
60 atoms in group polymers
fix 1 all nve
fix 2 all langevin 1	1	100	2

#Dump
#------------------------------------------------
compute  1 all gyration
variable  myRg2 equal c_1
variable  i equal step
fix  mythermofile all print 5000 "$i ${myRg2}" file radius_of_gyration.dat screen no

thermo_style		 custom step temp press pe evdwl ecoul ebond ke etotal enthalpy
thermo 	5000
dump	3 all custom 5000 dump.lammpstrj id mol type xu yu zu
run		2000000
Neighbor list info ...
  update every 1 steps, delay 10 steps, check yes
  max neighbors/atom: 2000, page size: 100000
  master list distance cutoff = 1.42
  ghost atom cutoff = 1.42
  binsize = 0.71, bins = 226 226 226
  1 neighbor lists, perpetual/occasional/extra = 1 0 0
  (1) pair lj/cut, perpetual
      attributes: half, newton on
      pair build: half/bin/newton
      stencil: half/bin/3d/newton
      bin: standard
WARNING: Communication cutoff 1.4200000000000002 is shorter than a bond length based estimate of 1.8. This may lead to errors. (../comm.cpp:667)
Per MPI rank memory allocation (min/avg/max) = 54.71 | 54.71 | 54.71 Mbytes
Step Temp Press PotEng E_vdwl E_coul E_bond KinEng TotEng Enthalpy 
 2000000            1 -0.00012130765   0.43871753 0.0060657727            0   0.43265176        1.475    1.9137175   -6.3675516 
 2005000   0.90168263 5.2729069e-05   0.59469311  0.029318956            0   0.56537416    1.3299819     1.924675    5.5243127 
 2010000   0.88619542 -2.8262136e-05   0.54685587  0.018550889            0   0.52830498    1.3071383    1.8539941 -0.075367733 
 2015000   0.91880616 4.4906595e-05   0.48465303            0            0   0.48465303    1.3552391    1.8398921    4.9055157 
 2020000     0.913236 7.7152325e-05   0.50031582  0.010181918            0    0.4901339    1.3470231    1.8473389     7.114271 
 2025000   0.89713454 -3.5143222e-05   0.46073948  0.039523126            0   0.42121635    1.3232735    1.7840129  -0.61509767 
 2030000    0.9197029 -4.3382703e-05   0.47024086 3.9834618e-07            0   0.47024047    1.3565618    1.8268026   -1.1347899 
 2035000   0.94722648 -3.9908327e-05   0.46012044  0.012684313            0   0.44743613    1.3971591    1.8572795  -0.86712897 
 2040000    1.0506607  9.06313e-07    0.4131729 0.0063525984            0    0.4068203    1.5497245    1.9628974    2.0247684 
 2045000      0.98397 -5.7179308e-05   0.46076814  0.010576831            0    0.4501913    1.4513558    1.9121239   -1.9913169 
 2050000   0.97678047 -3.5832792e-05   0.35961825 0.0046011293            0   0.35501712    1.4407512    1.8003694  -0.64581579 
 2055000   0.86662943 3.607046e-05   0.45410711  0.019543407            0   0.43456371    1.2782784    1.7323855    4.1947956 
 2060000   0.90898766 3.1962587e-05   0.49602792  0.012663775            0   0.48336415    1.3407568    1.8367847     4.018764 
 2065000   0.94871363 -4.3936758e-05   0.45916248 0.0036408093            0   0.45552167    1.3993526    1.8585151   -1.1409009 
 2070000   0.93718108 -1.1393138e-05   0.47309868 0.0017393924            0   0.47135929    1.3823421    1.8554408    1.0776692 
 2075000    0.9550447 -9.3639009e-06   0.41276161 0.0038841403            0   0.40887747    1.4086909    1.8214525    1.1822103 
 2080000   0.88544004 0.00010190162   0.50588568 0.0068863091            0   0.49899937    1.3060241    1.8119097     8.768394 
 2085000   0.83875277 -2.0762457e-05   0.46849955  0.010095097            0   0.45840446    1.2371603    1.7056599   0.28827616 
 2090000   0.81723536 -5.3650656e-06    0.4642328  0.005146912            0   0.45908588    1.2054222     1.669655    1.3033998 
 2095000   0.97458183 4.7026559e-05   0.35538544 0.0004685509            0   0.35491689    1.4375082    1.7928936    5.0032401 
 2100000   0.91357929 1.6622028e-05   0.49083062  0.061344687            0   0.42948593    1.3475295    1.8383601    2.9730905 
 2105000   0.93906399 -0.00011357413   0.43555243  0.014464834            0   0.42108759    1.3851194    1.8206718   -5.9326555 
 2110000     0.964691 -4.4502388e-05    0.4207981  0.033219128            0   0.38757897    1.4229192    1.8437173   -1.1943124 
 2115000    1.0656701 -4.5560883e-06   0.40963164 0.00045219261            0   0.40917945    1.5718635    1.9814951    1.6704661 
 2120000    1.0518126 -3.1952692e-05   0.40222528 0.0091542912            0   0.39307099    1.5514235    1.9536488  -0.22765498 
 2125000    1.0166283 -6.6682452e-05    0.4019705 0.0030713327            0   0.39889917    1.4995268    1.9014973   -2.6506914 
 2130000    1.0376389 6.5984789e-05   0.39958786  0.018071704            0   0.38151616    1.5305173    1.9301052    6.4346668 
 2135000   0.98049804 -5.4210716e-05    0.4531145  0.043619567            0   0.40949493    1.4462346    1.8993491   -1.8014358 
 2140000   0.99782145 1.4441255e-05    0.4702521  0.057674513            0   0.41257758    1.4717866    1.9420387    2.9278951 
 2145000   0.96186244 -3.3991823e-05   0.43290759  0.015061805            0   0.41784578    1.4187471    1.8516547  -0.46885374 
 2150000    0.9901323 -2.5710026e-05   0.34452204   0.01315955            0   0.33136249    1.4604451    1.8049672  0.049829408 
 2155000   0.95855207 9.1250306e-05   0.43684597  0.012394788            0   0.42445118    1.4138643    1.8507103    8.0800645 
 2160000     1.005757 1.1753051e-05   0.34387009  0.020005376            0   0.32386472    1.4834916    1.8273617    2.6297033 
 2165000     0.950406 8.7008721e-05   0.45647688  0.039058307            0   0.41741857    1.4018488    1.8583257    7.7981211 
 2170000    1.0040635 -1.0377944e-06   0.44351333 0.0087818993            0   0.43473143    1.4809937     1.924507    1.8536602 
 2175000    1.0555905 8.0557925e-06   0.47450647  0.045010581            0   0.42949589     1.556996    2.0315025    2.5814446 
 2180000   0.96038889  5.69545e-05   0.44896172 0.0028762348            0   0.44608548    1.4165736    1.8655353    5.7536292 
 2185000   0.89462494 9.3764032e-05   0.43265131 0.0037056536            0   0.42894565    1.3195718    1.7522231     8.153181 
 2190000   0.84550204 0.0001277522   0.53564406  0.030164055            0      0.50548    1.2471155    1.7827596    10.503977 
 2195000   0.87304947 -4.1053503e-05   0.43849843 0.0026302362            0   0.43586819     1.287748    1.7262464   -1.0763394 
 2200000   0.85596376 8.7248107e-05     0.434414  0.014746381            0   0.41966762    1.2625465    1.6969605     7.653098 
 2205000   0.79627171 -3.1107121e-05   0.36532869  0.026824126            0   0.33850457    1.1745008    1.5398295  -0.58374999 
 2210000   0.83633774 -7.67614e-05   0.35727314  0.032922001            0   0.32435113    1.2335982    1.5908713   -3.6493736 
 2215000   0.79700363 1.4015648e-05   0.45026111  0.047407127            0   0.40285399    1.1755804    1.6258415     2.582643 
 2220000   0.87969841 -2.2656277e-05   0.33989754  0.012573452            0   0.32732409    1.2975552    1.6374527  0.090784166 
 2225000   0.83914011 -3.9922724e-05    0.3448194  0.011112603            0   0.33370679    1.2377317    1.5825511   -1.1428402 
 2230000   0.86704332 3.9493758e-05   0.34269117 0.00082815853            0   0.34186301    1.2788889    1.6215801    4.3176873 
 2235000   0.85012448 -2.1221407e-05   0.38193461  0.010820302            0   0.37111431    1.2539336    1.6358682   0.18715347 
 2240000   0.83339038 7.8740895e-06   0.48678329 7.3798688e-05            0   0.48670949    1.2292508    1.7160341    2.2535719 
 2245000   0.75396613 1.0791106e-05   0.46415452 0.0086326035            0   0.45552191       1.1121    1.5762546    2.3129274 
 2250000   0.81965042 0.00010441317   0.42295285   0.01470718            0   0.40824567    1.2089844    1.6319372    8.7598761 
 2255000   0.90875595 -3.5760455e-05    0.3747052 0.0022223899            0   0.37248281     1.340415    1.7151202  -0.72612686 
 2260000    0.8267912 2.1637878e-05   0.53960436  0.045755334            0   0.49384903     1.219517    1.7591214    3.2362672 
 2265000   0.85493295 2.1398736e-05   0.61498397  0.029845077            0   0.58513889    1.2610261    1.8760101    3.3368304 
 2270000   0.90421605 -6.8692936e-06   0.65424249  0.058994485            0   0.59524801    1.3337187    1.9879612    1.5190174 
 2275000   0.95149358 7.0857097e-06   0.53206601  0.010600415            0    0.5214656     1.403453     1.935519    2.4192368 
 2280000    1.0057469 3.3951956e-05    0.4784858 0.0015036065            0    0.4769822    1.4834766    1.9619624    4.2797493 
 2285000    1.1010744 1.4085066e-05   0.46744121  0.012599743            0   0.45484147    1.6240848     2.091526    3.0530665 
 2290000    1.0488596 8.9842369e-05   0.48123696 0.0076219895            0   0.47361497    1.5470679    2.0283049     8.161544 
 2295000    1.0680027 9.6067428e-05   0.45108245  0.012188049            0    0.4388944    1.5753039    2.0263864    8.5845895 
 2300000    1.0997855 9.0602173e-06   0.42281687  0.042575954            0   0.38024091    1.6221835    2.0450004    2.6635112 
 2305000    1.0602336 -7.4281587e-05   0.56908184  0.019963958            0   0.54911788    1.5638445    2.1329263     -2.93803 
 2310000    1.0165162 5.3445557e-05   0.65260733 0.0052533762            0   0.64735395    1.4993614    2.1519687    5.8005187 
 2315000    1.1040442 -1.970387e-05   0.45903872  0.045702695            0   0.41333602    1.6284651    2.0875039   0.74238635 
 2320000    1.0693306 -0.00013355958   0.55933336  0.034413937            0   0.52491942    1.5772626    2.1365959   -6.9810712 
 2325000    1.0625517 -1.8475379e-05   0.47908275  0.023070786            0   0.45601196    1.5672637    2.0463464   0.78509388 
 2330000    0.9706674 -4.5331181e-05   0.65054185  0.042603423            0   0.60793843    1.4317344    2.0822763   -1.0123323 
 2335000   0.96817561 5.2389656e-05   0.54457046 1.6339818e-06            0   0.54456883     1.428059    1.9726295    5.5490966 
 2340000     0.951998 -8.3361444e-05   0.68875011  0.017843302            0   0.67090681    1.4041971    2.0929472   -3.5978608 
 2345000   0.94432467 3.5289691e-06   0.65090058  0.032044926            0   0.61885565    1.3928789    2.0437795    2.2846904 
 2350000    1.0268713 5.5947266e-05   0.50810897  0.057438939            0   0.45067003    1.5146352    2.0227441    5.8420775 
 2355000    1.0563378 1.5843803e-05   0.51815123  0.016788482            0   0.50136275    1.5580983    2.0762495    3.1578532 
 2360000   0.95757582 -1.1284099e-06    0.5013243 0.0046614271            0   0.49666288    1.4124243    1.9137486    1.8367158 
 2365000   0.87201751 -4.4962752e-05   0.59459263  0.080459699            0   0.51413293    1.2862258    1.8808185   -1.1886388 
 2370000   0.99791589 -0.00012725913   0.53221039  0.028607247            0   0.50360315    1.4719259    2.0041363   -6.6834201 
 2375000    1.1280724 -4.6369453e-05   0.35969603  0.012373834            0    0.3473222    1.6639067    2.0236028   -1.1418853 
 2380000    1.0839617 -2.6201652e-05   0.41352482  0.027216256            0   0.38630857    1.5988435    2.0123683   0.22366885 
 2385000    1.1277638 7.2496772e-05   0.34368187  0.018629509            0   0.32505236    1.6634516    2.0071335    6.9562464 
 2390000    1.0571412 -9.0147916e-05   0.41259995 0.0031780964            0   0.40942185    1.5592833    1.9718832   -4.1822145 
 2395000   0.95715412 -5.9763741e-05   0.49249716  0.010215429            0   0.48228173    1.4118023    1.9042995   -2.1755719 
 2400000    0.9344318 -2.2735975e-05   0.69942795  0.022811731            0   0.67661622    1.3782869    2.0777149    0.5256056 
 2405000    1.0431749 1.3158439e-05   0.55704968  0.004235135            0   0.55281455    1.5386829    2.0957326    2.9940154 
 2410000    1.0713211 -4.007937e-05   0.50723181  0.022585948            0   0.48464586    1.5801987    2.0874305  -0.64865449 
 2415000    1.1215091 -2.0051065e-05   0.48191211  0.021564667            0   0.46034745     1.654226    2.1361381   0.76731872 
 2420000    1.0759944 -8.7113595e-05   0.51528978 0.0018995154            0   0.51339026    1.5870918    2.1023816   -3.8445731 
 2425000   0.97308465 0.00011275381   0.65642403 6.1851609e-05            0   0.65636217    1.4352999    2.0917239    9.7890508 
 2430000    1.1223099 5.5918722e-05   0.39260886 0.0050198671            0   0.38758899    1.6554071    2.0480159    5.8654007 
 2435000    1.0063819 0.00015302204   0.57281816 0.0072843917            0   0.56553377    1.4844133    2.0572315    12.503536 
 2440000    1.0703089 -4.5360557e-05   0.51646417  0.013242383            0   0.50322178    1.5787057    2.0951698   -1.0014442 
 2445000    1.0843949 -3.3322112e-05   0.52740249 0.0048573499            0   0.52254514    1.5994824    2.1268849  -0.14790461 
 2450000    1.0586883 -0.00011003101   0.57843606  0.029466145            0   0.54896991    1.5615652    2.1400012   -5.3714487 
 2455000    1.0637327 -5.4609134e-05   0.63698863 0.0041433753            0   0.63284525    1.5690057    2.2059943   -1.5219892 
 2460000    1.2124221 3.9583572e-05   0.51300394    0.0357691            0   0.47723484    1.7883226    2.3013265    5.0035651 
 2465000    1.0765894 -2.7697369e-05    0.6657616  0.023408583            0   0.64235302    1.5879694     2.253731   0.36292392 
 2470000    1.1237784 -0.00017995835   0.63354567  0.022588125            0   0.61095755    1.6575732    2.2911188    -9.994038 
 2475000    1.1291209 3.6248288e-05   0.60065443  0.052653141            0   0.54800129    1.6654533    2.2661078    4.7406576 
 2480000    1.0998212 -1.0303703e-05    0.6592061  0.013117925            0   0.64608818    1.6222363    2.2814424    1.5780429 
 2485000    1.0787487 3.8131325e-07   0.65836885   0.01296312            0   0.64540573    1.5911543    2.2495231    2.2755541 
 2490000    1.2415385 1.1361709e-05    0.3920996  0.045696629            0   0.34640297    1.8312693    2.2233689    2.9989949 
 2495000    1.0738215 -7.1495691e-05   0.61142525  0.057965845            0    0.5534594    1.5838868     2.195312   -2.6854605 
 2500000    1.1473485 2.9045644e-05   0.56293989   0.02302352            0   0.53991637     1.692339    2.2552789    4.2381282 
 2505000    1.1483008 2.0048093e-05   0.54545781 0.0067473526            0   0.53871046    1.6937436    2.2392015     3.607818 
 2510000    1.1495308 -1.0152956e-05    0.6249312 0.0057837163            0   0.61914748     1.695558    2.3204892    1.6273807 
 2515000    1.3234476 5.4170336e-05   0.46512784 0.0049390147            0   0.46018883    1.9520852     2.417213    6.1152413 
 2520000    1.2686761 -0.00012128707   0.56262148 0.0018339888            0    0.5607875    1.8712972    2.4339187   -5.8459455 
 2525000     1.287143 7.1053569e-05   0.50973977   0.02648151            0   0.48325826    1.8985359    2.4082757     7.258866 
 2530000    1.2159824 -3.6195519e-05   0.60258054  0.025100622            0   0.57747992    1.7935741    2.3961546 -0.074792798 
 2535000    1.2397882 -6.9084791e-05    0.5569315 0.0043112559            0   0.55262024    1.8286875     2.385619   -2.3305694 
 2540000    1.0739109 5.3778129e-05   0.70853032   0.07951942            0    0.6290109    1.5840186    2.2925489    5.9638025 
 2545000    1.0614604 4.7970492e-05   0.65498342  0.039907113            0   0.61507631    1.5656541    2.2206375    5.4954231 
 2550000    1.1072141 2.6951084e-05   0.53882181 1.9994921e-05            0   0.53880182    1.6331408    2.1719626    4.0118232 
 2555000    1.0923366 1.8461273e-05   0.61996467  0.040554562            0   0.57941011    1.6111965    2.2311612    3.4914507 
 2560000    1.1276753 9.440711e-06    0.5617291  0.013412823            0   0.54831628     1.663321    2.2250501     2.869536 
 2565000    1.0692944 5.4937469e-05   0.53663756   0.01260548            0   0.52403208    1.5772092    2.1138468    5.8642447 
 2570000    1.1699681 -0.00011091572   0.50579454  0.019905141            0    0.4858894    1.7257029    2.2314974   -5.3403487 
 2575000    1.0827971 2.6310763e-05   0.68647689  0.018121453            0   0.66835543    1.5971257    2.2836026    4.0797507 
 2580000    1.1315177 -3.9104199e-05   0.60832605  0.042707252            0   0.56561879    1.6689886    2.2773147  -0.39219864 
 2585000    1.2189886 -4.4744178e-05    0.5665697 0.0028793719            0   0.56369032    1.7980082    2.3645779  -0.68995796 
 2590000    1.2081005 2.8056955e-05   0.61287341  0.015704526            0   0.59716888    1.7819482    2.3948216    4.3101764 
 2595000    1.0751431 5.4018112e-05   0.81798216  0.055516191            0   0.76246597    1.5858361    2.4038183    6.0914547 
 2600000    1.0677603 -1.8530161e-05   0.77295377  0.014228374            0    0.7587254    1.5749465    2.3479003     1.082908 
 2605000    1.1741065 6.9671267e-05   0.60455079  0.021062028            0   0.58348876     1.731807    2.3363578     7.092583 
 2610000    1.1056838 -0.0001118014   0.75086633  0.068327626            0    0.6825387    1.6308836      2.38175   -5.2505593 
 2615000    1.1611481 -4.0472496e-05   0.67498827   0.02510796            0   0.64988031    1.7126934    2.3876817  -0.37524072 
 2620000    1.1065094 -6.1309693e-05   0.65050067  0.021707337            0   0.62879333    1.6321013     2.282602   -1.9028064 
 2625000    1.0819262 -0.00012164557   0.62495173  0.022196069            0   0.60275566    1.5958412    2.2207929   -6.0835447 
 2630000    1.1033574 3.8578784e-05   0.59531336   0.01166976            0    0.5836436    1.6274522    2.2227655    4.8564105 
 2635000    1.1744794 6.9337821e-05    0.3908939  0.011926649            0   0.37896725    1.7323571     2.123251    6.8567129 
 2640000     1.057768 -7.5477872e-05   0.50604454 0.0052934976            0   0.50075104    1.5602078    2.0662524   -3.0863704 
 2645000    1.0343673 -1.8143915e-05   0.66954486  0.023192025            0   0.64635283    1.5256917    2.1952366   0.95661201 
 2650000    1.1062122 -5.2212918e-05   0.56495081  0.079260357            0   0.48569045    1.6316631    2.1966139    -1.367788 
 2655000    1.0929891 6.0048333e-05   0.52550787 0.00068990238            0   0.52481797    1.6121589    2.1376668    6.2369664 
 2660000     1.042461 -2.8050509e-06   0.59718835 0.0035454372            0   0.59364291    1.5376299    2.1348183    1.9433268 
 2665000    1.1346342 -9.8803101e-07   0.53529782  0.024701844            0   0.51059598    1.6735854    2.2088833    2.1414337 
 2670000    1.0415289 -1.7137269e-05   0.63453285   0.07583631            0   0.55869654    1.5362551    2.1707879    1.0008837 
 2675000    1.0344706 -9.5008767e-05   0.61863749  0.056533081            0   0.56210441    1.5258441    2.1444816   -4.3414502 
 2680000    1.1452801 -7.69264e-05    0.4516623 0.0099001076            0   0.44176219    1.6892882    2.1409505   -3.1105584 
 2685000    1.0527862 7.6858467e-05   0.64028896  0.029601809            0   0.61068715    1.5528597    2.1931487      7.44002 
 2690000    1.1623327 -4.8190825e-05   0.53945968  0.040570987            0    0.4988887    1.7144408    2.2539005   -1.0359265 
 2695000    1.0905436 6.0840688e-05   0.49573268  0.034911514            0   0.46082116    1.6085518    2.1042845    6.2576754 
 2700000    1.1694755 -3.0002104e-05   0.39418841 0.0066823731            0   0.38750604    1.7249763    2.1191647  0.071021089 
 2705000    1.0598417 6.1854474e-05   0.52157538 0.0075134479            0   0.51406193    1.5632665    2.0848418    6.3074406 
 2710000    1.1544791 -7.6299692e-05    0.5385229 0.0085471513            0   0.52997575    1.7028567    2.2413796   -2.9673461 
 2715000    1.1331001 1.2497815e-05   0.48135325 0.0077823421            0   0.47357091    1.6713226    2.1526759    3.0058601 
 2720000    1.1700241 5.3509834e-05    0.6233049  0.019170835            0   0.60413407    1.7257855    2.3490904    6.0020284 
 2725000    1.2010342 -1.5537554e-05   0.66266909  0.017569426            0   0.64509966    1.7715254    2.4341945    1.3734974 
 2730000    1.1912705 -5.7041535e-05   0.64941955   0.06842466            0   0.58099489    1.7571239    2.4065435    -1.487492 
 2735000    1.2007759 1.8978062e-05   0.54441064 0.0042683834            0   0.54014225    1.7711445    2.3155551    3.6111241 
 2740000    1.1185236 -0.00011085308     0.518027            0            0     0.518027    1.6498222    2.1678492   -5.3997212 
 2745000    1.0553718 5.0123478e-05   0.51490757    0.0181219            0   0.49678567    1.5566733    2.0715809    5.4933436 
 2750000   0.92146324 -2.0513657e-05   0.59841482 0.0090707063            0   0.58934411    1.3591583    1.9575731   0.55717415 
 2755000   0.98112436 1.0333824e-06   0.53085048 0.0039993284            0   0.52685115    1.4471584    1.9780089    2.0485545 
 2760000    0.9625092 6.9767507e-05   0.59207343  0.055246838            0   0.53682659    1.4197011    2.0117745    6.7745696 
 2765000    1.0433891 4.1061848e-05   0.47643204            0            0   0.47643204    1.5389989     2.015431    4.8185865 
 2770000    0.9743124 -6.0748863e-05   0.52373759  0.023779468            0   0.49995812    1.4371108    1.9608484    -2.186274 
 2775000    1.0552696 3.4585422e-05   0.42664094  0.045636148            0   0.38100479    1.5565226    1.9831636    4.3441951 
 2780000    1.0180612 9.6024889e-06   0.47635953  0.006343313            0   0.47001621    1.5016403    1.9779999    2.6335298 
 2785000    1.0650475 -3.4727349e-07   0.45389885  0.012363496            0   0.44153536    1.5709451    2.0248439    2.0011367 
 2790000   0.95996521 5.7412829e-05   0.54272926  0.037338027            0   0.50539124    1.4159487    1.9586779    5.8780604 
 2795000   0.81180577 -2.6642682e-05   0.56536507  0.027796699            0   0.53756837    1.1974135    1.7627786 -0.056028495 
 2800000   0.82699542 5.1334519e-05   0.60478283 1.7222755e-05            0    0.6047656    1.2198182    1.8246011    5.3290376 
 2805000   0.83418238 -9.0122941e-05   0.52117909 0.0043185605            0   0.51686053     1.230419    1.7515981   -4.4007947 
 2810000   0.85604017 -6.7695473e-05   0.55851811  0.010090518            0   0.54842759    1.2626592    1.8211774   -2.8001669 
 2815000   0.81645044 4.1521362e-05   0.66016098  0.040216181            0    0.6199448    1.2042644    1.8644254    4.6989504 
 2820000   0.83152931 5.4318712e-05   0.62589036  0.015574975            0   0.61031539    1.2265057    1.8523961    5.5605535 
 2825000   0.91114482 -8.3517843e-05    0.4770879  0.022230195            0   0.45485771    1.3439386    1.8210265   -3.8804582 
 2830000   0.92015273 -2.2969642e-06   0.49889396 0.0059712319            0   0.49292272    1.3572253    1.8561192    1.6993131 
 2835000   0.92565112 -0.00010886341   0.51635698  0.011024056            0   0.50533292    1.3653354    1.8816924   -5.5500494 
 2840000    1.0180468 8.0582182e-05   0.53004882  0.031157044            0   0.49889178    1.5016191    2.0316679    7.5327448 
 2845000   0.93329844 -1.6423571e-05   0.60889462  0.016021706            0   0.59287291    1.3766152    1.9855098   0.86432738 
 2850000   0.94786009 2.2233559e-05   0.62020212 0.0042489814            0   0.61595314    1.3980936    2.0182958    3.5361067 
 2855000   0.95049256 3.9840569e-05   0.65699792 7.7013592e-06            0   0.65699021    1.4019765    2.0589744    4.7787573 
 2860000   0.95676818 -0.00011493036   0.66013384 0.00045062298            0   0.65968322    1.4112331    2.0713669   -5.7745458 
 2865000    1.0188736 2.1369244e-05    0.6314163            0            0    0.6314163    1.5028386    2.1342549     3.593062 
 2870000    1.0010442 -6.0010137e-05    0.7107585  0.014544951            0   0.69621355    1.4765401    2.1872986   -1.9093934 
 2875000    1.0231141 -3.8331905e-05   0.70622849 0.00019636494            0   0.70603212    1.5090933    2.2153218  -0.40146959 
 2880000    1.1686858 -0.00013714875   0.46590066  0.019103301            0   0.44679736    1.7238115    2.1897122   -7.1729759 
 2885000    1.1120021 1.439871e-05   0.59400261  0.012305164            0   0.58169745    1.6402031    2.2342057    3.2171576 
 2890000     1.238477 -5.6114267e-06   0.52495259  0.092780621            0   0.43217197    1.8267536    2.3517062    1.9686328 
 2895000      1.22267 -0.00010205434   0.60227035 0.0015628579            0   0.60070749    1.8034383    2.4057087   -4.5612011 
 2900000    1.1697842 -4.0970883e-06   0.66288608 0.00075215148            0   0.66213393    1.7254316    2.3883177    2.1086232 
 2905000    1.2536085 8.8845855e-05   0.56016673 0.0015359037            0   0.55863083    1.8490726    2.4092393    8.4744497 
 2910000     1.302367 -0.00010876105   0.52088989  0.049238822            0   0.47165107    1.9209913    2.4418812   -4.9828733 
 2915000    1.2300616 -5.726152e-05   0.58604698 0.00076587155            0   0.58528111    1.8143409    2.4003879   -1.5086653 
 2920000    1.1691581 -5.8101681e-06   0.64624224 0.0075760586            0   0.63866618    1.7245083    2.3707505    1.9741097 
 2925000    1.1056574 1.232182e-05    0.8217751  0.012073856            0   0.80970125    1.6308446    2.4526197    3.2937893 
 2930000    1.2254781 7.6015251e-06   0.52500717            0            0   0.52500717    1.8075802    2.3325873    2.8515181 
 2935000   0.93584051 1.0484543e-05   0.70068578  0.028292205            0   0.67239358    1.3803648    2.0810505    2.7967953 
 2940000    1.0942432 -0.00014240431   0.64929558  0.027595391            0   0.62170019    1.6140087    2.2633043   -7.4581632 
 2945000    1.0783076 -7.4508967e-06   0.63731141 0.0043977877            0   0.63291362    1.5905036    2.2278151    1.7191672 
 2950000    1.0437015 -0.00012839955   0.63671544 0.0018873806            0   0.63482806    1.5394597    2.1761751   -6.5892345 
 2955000   0.97862205 -3.6161622e-05   0.65802036   0.01858202            0   0.63943834    1.4434675    2.1014879  -0.36714551 
 2960000    1.0085861 6.5864125e-05   0.50852653 0.0042401859            0   0.50428635    1.4876644     1.996191    6.4925153 
 2965000   0.98485704 -1.2201842e-05   0.53892529  0.023272196            0    0.5156531    1.4526641    1.9915894    1.1586103 
 2970000   0.93916755 3.1149826e-05   0.69859569 0.0073418679            0   0.69125382    1.3852721    2.0838678    4.2103626 
 2975000     1.072582 -8.299674e-06    0.6130243  0.021330138            0   0.59169416    1.5820584    2.1950827    1.6284916 
 2980000   0.99909274 6.4055251e-05   0.67312303  0.037128053            0   0.63599497    1.4736618    2.1467848    6.5196233 
 2985000   0.97002527 -2.5550268e-05   0.79995074            0            0   0.79995074    1.4307873     2.230738   0.48650637 
 2990000    1.0044887 -0.00011699928   0.72006655  0.015001303            0   0.70506525    1.4816208    2.2016874   -5.7854636 
 2995000    1.1029368 -0.00017455866   0.59400745  0.007727129            0   0.58628032    1.6268318    2.2208392    -9.695699 
 3000000    0.9343936 -7.0799172e-05   0.73527713  0.060620657            0   0.67465647    1.3782306    2.1135077   -2.7197158 
 3005000    1.1025471 8.1343461e-05   0.52075324  0.030387456            0   0.49036578     1.626257    2.1470102    7.7000571 
 3010000    1.0764046 -7.5180993e-05   0.60741446 4.0612767e-06            0    0.6074104    1.5876967    2.1951112   -2.9372446 
 3015000    1.0768707 -6.7376075e-05   0.50717921 0.0047249209            0   0.50245429    1.5883842    2.0955635   -2.5039766 
 3020000    1.0013487 7.9418552e-05   0.60703057  0.014349099            0   0.59268147    1.4769894      2.08402    7.5056598 
 3025000    0.9403984 -4.0857514e-05   0.61946105 0.0044223045            0   0.61503874    1.3870876    2.0065487  -0.78265761 
 3030000     1.014639 -2.5001726e-05   0.53749869 0.0093118941            0    0.5281868    1.4965926    2.0340913    0.3273068 
 3035000   0.92548786 7.9045416e-05   0.64526389  0.044397608            0   0.60086628    1.3650946    2.0103585    7.4065256 
 3040000   0.98177707 3.216269e-05    0.5370044 0.00031803678            0   0.53668636    1.4481212    1.9851256    4.1807652 
 3045000   0.87819559 -0.00010515219   0.69813605  0.035351011            0   0.66278504    1.2953385    1.9934746   -5.1849147 
 3050000    0.9272654 -0.00010183478   0.58455594 0.0098962413            0   0.57465969    1.3677165    1.9522724   -4.9996483 
 3055000   0.89424177 -6.3334897e-05   0.52684456 0.0040347911            0   0.52280977    1.3190066    1.8458512   -2.4778111 
 3060000    1.0005913 6.6852139e-05   0.49819315 0.0018789019            0   0.49631424    1.4758722    1.9740654    6.5378381 
 3065000    0.9958018 -2.1781143e-05   0.52484222  0.013536361            0   0.51130586    1.4688077    1.9936499   0.50672383 
 3070000   0.90723735 -5.9788549e-05   0.62986926  0.020902143            0   0.60896712    1.3381751    1.9680444   -2.1135206 
 3075000    0.9931369 3.5165367e-05    0.5167869  0.069807151            0   0.44697975    1.4648769    1.9816638    4.3822862 
 3080000    1.0678187 4.2511711e-05   0.53303185  0.033164026            0   0.49986783    1.5750326    2.1080645    5.0101973 
 3085000    1.1120081 5.9275668e-05   0.37926478  0.017502893            0   0.36176189    1.6402119    2.0194767    6.0660289 
 3090000    1.0384605 5.8825773e-05   0.46063273  0.012353387            0   0.44827934    1.5317292    1.9923619    6.0082014 
 3095000    1.0274763 -1.1632603e-05   0.48230939  0.036005906            0   0.44630348    1.5155275    1.9978369    1.2037179 
 3100000    1.1115557 -5.2782506e-05   0.48419152   0.01311037            0   0.47108115    1.6395446    2.1237361   -1.4795496 
 3105000   0.95862465 6.0369767e-06   0.60384335 0.0056185431            0   0.59822481    1.4139714    2.0178147     2.429939 
 3110000   0.97095365 5.8143745e-05   0.56413473  0.043262435            0   0.52087229    1.4321566    1.9962914    5.9655711 
 3115000   0.99687231 1.3007986e-05   0.49471203 0.00075762784            0    0.4939544    1.4703867    1.9650987    2.8531105 
 3120000    1.0427474 -9.4492758e-06   0.42332731  0.018364822            0   0.40496249    1.5380523    1.9613797    1.3163091 
 3125000   0.96155916 4.2528612e-05   0.55762385  0.007234998            0   0.55038885    1.4182998    1.9759236    4.8792102 
 3130000    1.0572439 -8.1969761e-05    0.5137652  0.029441775            0   0.48432343    1.5594348       2.0732   -3.5226023 
 3135000    1.0185295 -2.10116e-05   0.44589083 0.0036291737            0   0.44226166    1.5023311    1.9482219   0.51383003 
 3140000   0.96629687 -4.1581943e-05   0.54486026    0.0120105            0   0.53284976    1.4252879    1.9701481  -0.86851251 
 3145000   0.96014518 9.0102397e-05   0.48475701  0.023604313            0   0.46115269    1.4162141    1.9009711    8.0519614 
 3150000   0.94710096 -4.2333289e-05   0.54577977 8.2012001e-05            0   0.54569776    1.3969739    1.9427537  -0.94719887 
 3155000   0.94900912 -9.9086587e-06   0.49107717  0.024668987            0   0.46640818    1.3997884    1.8908656    1.2144345 
 3160000   0.97457491 -5.4662797e-05    0.4496629  0.039803718            0   0.40985918     1.437498    1.8871609   -1.8444861 
 3165000    1.0641527 -2.8630933e-05   0.37551838 0.0029960242            0   0.37252236    1.5696252    1.9451436 -0.0093947636 
 3170000    0.8941604 -8.2059972e-05   0.56589503 0.0036698053            0   0.56222522    1.3188866    1.8847816   -3.7171792 
 3175000   0.95693179 3.4709912e-05   0.45231314 0.0074867548            0   0.44482638    1.4114744    1.8637875    4.2333175 
 3180000   0.92778595 -6.6363497e-05   0.45015835 0.0014118333            0   0.44874652    1.3684843    1.8186426   -2.7117721 
 3185000    0.8830639 -5.1171857e-05    0.5155098            0            0    0.5155098    1.3025192    1.8180291   -1.6753031 
 3190000   0.90106175 9.8109482e-06   0.52339014  0.031958533            0   0.49143161    1.3290661    1.8524562     2.522217 
 3195000   0.96719912 -1.1535043e-05    0.4634958  0.014737427            0   0.44875837    1.4266187    1.8901145    1.1026556 
 3200000   0.94291489 8.0108908e-05   0.36414991 0.0082999131            0      0.35585    1.3907995    1.7549494    7.2237175 
 3205000   0.88745796 9.3601222e-05   0.35807465   0.01143283            0   0.34664182    1.3090005    1.6670751    8.0569186 
 3210000    0.8250425 1.9629878e-05   0.49450622  0.071860188            0   0.42264603    1.2169377    1.7114439    3.0515102 
 3215000   0.78215645 2.7636808e-06   0.48000381 0.0053478309            0   0.47465598    1.1536808    1.6336846    1.8223519 
 3220000   0.79469176 -7.2482652e-05   0.48648471  0.046388079            0   0.44009663    1.1721703    1.6586551    -3.289494 
 3225000    0.7954126 -2.2410673e-05   0.39431572 0.0068518625            0   0.38746386    1.1732336    1.5675493  0.037647354 
 3230000   0.75155233 -5.5178316e-05   0.43861535  0.029812083            0   0.40880326    1.1085397     1.547155   -2.2196847 
 3235000   0.81534321 -7.6420673e-05   0.39031407 0.0010049798            0   0.38930909    1.2026312    1.5929453   -3.6240393 
 3240000   0.82252795 8.9953864e-06   0.47661383  0.014693884            0   0.46191995    1.2132287    1.6898426    2.3039276 
 3245000   0.95536616 5.8664741e-05    0.3502176 0.0042072544            0   0.34601034    1.4091651    1.7593827     5.764229 
 3250000   0.86119545 -8.5810031e-06   0.50694266            0            0   0.50694266    1.2702633     1.777206    1.1914095 
 3255000   0.99463327 2.3723338e-05   0.43290937  0.011114485            0   0.42179488    1.4670841    1.8999934    3.5195066 
 3260000   0.84844559 -0.00011672646   0.52785119  0.025191086            0    0.5026601    1.2514572    1.7793084   -6.1892178 
 3265000   0.91424462 -4.6542914e-05   0.44613594 0.0009484797            0   0.44518746    1.3485108    1.7946468   -1.3826828 
 3270000   0.90789793 1.7910602e-05   0.40731685   0.01860518            0   0.38871167    1.3391494    1.7464663    2.9691634 
 3275000   0.86636302 -2.8570824e-06   0.48353534  0.011168425            0   0.47236692    1.2778855    1.7614208    1.5663773 
 3280000    0.7868756 1.6841447e-06   0.55535798  0.021471974            0     0.533886    1.1606415    1.7159995    1.8309704 
 3285000   0.86326825 -2.7267361e-05   0.41521987  0.028883697            0   0.38633617    1.2733207    1.6885405  -0.17291132 
 3290000   0.76699993 4.1495331e-05   0.44153255 0.0037004075            0   0.43783214    1.1313249    1.5728575    4.4056054 
 3295000   0.80022411 -4.3896557e-06   0.41306812 0.0061509253            0   0.40691719    1.1803306    1.5933987    1.2937315 
 3300000   0.83064414 -2.347801e-05   0.42224521 0.00015915188            0   0.42208606    1.2252001    1.6474453  0.044679811 
 3305000   0.83241739 -9.3043092e-05   0.47916286  0.028975999            0   0.45018686    1.2278156    1.7069785   -4.6447632 
 3310000    0.9548256 -3.7668047e-05   0.36142968  0.002903288            0   0.35852639    1.4083678    1.7697974  -0.80167457 
 3315000   0.93770028 -6.4815526e-05   0.42822905  0.021936094            0   0.40629296    1.3831079     1.811337   -2.6134029 
 3320000   0.99106355 -1.8907219e-05   0.40754882  0.024996734            0   0.38255209    1.4618187    1.8693676   0.57863471 
 3325000    1.0039559 -4.5645862e-05   0.36387041  0.026370424            0   0.33749999     1.480835    1.8447054   -1.2713855 
 3330000   0.96097903 -2.9301138e-05   0.45938288  0.059954551            0   0.39942833    1.4174441     1.876827  -0.12346406 
 3335000    0.9669056 -3.1080643e-05    0.3803716 0.0078812138            0   0.37249039    1.4261858    1.8065574  -0.31521452 
 3340000    1.0328043 -1.2375927e-05   0.34258481            0            0   0.34258481    1.5233864    1.8659712    1.0211079 
 3345000   0.98764525 4.1572121e-06   0.51149509  0.029733047            0   0.48176204    1.4567767    1.9682718    2.2520709 
 3350000    1.0535387 0.00010952421    0.4537452  0.058369899            0    0.3953753    1.5539695    2.0077147    9.4845674 
 3355000    1.0213138 2.8880415e-05   0.58292307   0.01153377            0    0.5713893    1.5064378    2.0893609    4.0609305 
 3360000    1.0671909 0.00011237764   0.43016848 0.0062557057            0   0.42391277    1.5741066    2.0042751    9.6759221 
 3365000    1.1190133 -6.534392e-05   0.34864776 0.0030861064            0   0.34556166    1.6505446    1.9991923   -2.4616192 
 3370000    1.0525088 -5.6767173e-05   0.47371072 0.0012133388            0   0.47249738    1.5524505    2.0261613   -1.8491444 
 3375000      1.04538 0.00011321292   0.45096995  0.011221673            0   0.43974827    1.5419355    1.9929054    9.7215739 
 3380000    1.0648707 3.9235366e-05   0.47613049  0.017176686            0    0.4589538    1.5706843    2.0468148    4.7252824 
 3385000   0.98983569 -2.3741734e-05   0.56094321  0.055680661            0   0.50526255    1.4600076    2.0209509   0.40018184 
 3390000    1.0222122 -9.5915414e-05   0.59157431  0.031838431            0   0.55973588     1.507763    2.0993374   -4.4484882 
 3395000     1.049851 -0.00011608189   0.43027215   0.01714564            0   0.41312651    1.5485303    1.9788024   -5.9457213 
 3400000    1.0903454 -2.4097472e-05   0.40711987  0.015464459            0   0.39165541    1.6082595    2.0153794   0.37032527 
 3405000     1.054808 8.4009315e-05   0.47028939  0.011866161            0   0.45842323    1.5558418    2.0261312    7.7611671 
 3410000    1.0523225 -4.8013875e-05   0.43815979   0.03978182            0   0.39837797    1.5521756    1.9903354   -1.2874118 
 3415000    1.0814146 8.2810626e-06   0.49372686   0.04087045            0   0.45285641    1.5950866    2.0888135     2.654134 
 3420000   0.99031189 -2.8945204e-06   0.54241928 0.0063231909            0   0.53609609      1.46071    2.0031293    1.8055301 
 3425000    1.0766325 -4.0124421e-05   0.37992043  0.010993203            0   0.36892723    1.5880329    1.9679533  -0.77120715 
 3430000    1.0501236  9.64529e-07   0.50764521 0.0074307995            0   0.50021441    1.5489323    2.0565775    2.1224227 
 3435000    1.1305671 -2.8923115e-05   0.49540806  0.017485937            0   0.47792212    1.6675864    2.1629945    0.1885098 
 3440000    1.0823045 -2.9119047e-05    0.5140046 0.0033250841            0   0.51067951    1.5963991    2.1104037   0.12254338 
 3445000    1.0179209 -8.8490399e-05    0.5461272 0.0028637695            0   0.54326343    1.5014333    2.0475605   -3.9933841 
 3450000    1.1252346 -3.724852e-05   0.44063982 0.0006728699            0   0.43996695     1.659721    2.1003608  -0.44247143 
 3455000   0.97101617 -3.5393722e-05   0.49989257  0.029416885            0   0.47047568    1.4322489    1.9321414  -0.48407002 
 3460000    1.0045635 -0.00015022828    0.5578194 0.0089797476            0   0.54883965    1.4817312    2.0395506   -8.2160331 
 3465000   0.97450004 -1.1087521e-05   0.46058124  0.018207723            0   0.44237352    1.4373876    1.8979688    1.1410607 
 3470000   0.88418022 -6.5425425e-05   0.65659364  0.017890161            0   0.63870348    1.3041658    1.9607595   -2.5056162 
 3475000   0.91391982 1.4933228e-05   0.50420885  0.012322782            0   0.49188606    1.3480317    1.8522406    2.8716823 
 3480000    1.0259948 9.6457585e-05    0.3541822  0.010373408            0   0.34380879    1.5133424    1.8675246    8.4523624 
 3485000   0.91424084 3.2295889e-05   0.48164528 0.0055870956            0   0.47605819    1.3485052    1.8301505    4.0348832 
 3490000   0.93032054 -3.8204533e-05    0.5335715  0.001772025            0   0.53179948    1.3722228    1.9057943  -0.70230184 
 3495000    1.0375752 7.0483566e-05   0.47326255  0.012813072            0   0.46044948    1.5304235     2.003686    6.8153641 
 3500000   0.98332648 1.6909471e-05   0.52799963            0            0   0.52799963    1.4504066    1.9784062    3.1327594 
 3505000   0.93362402 -2.3400621e-05   0.52520443 0.00065669706            0   0.52454774    1.3770954    1.9022999   0.30481751 
 3510000    0.9348442 3.9765693e-05   0.52132992            0            0   0.52132992    1.3788952    1.9002251    4.6148964 
 3515000    1.0212706 -4.0545025e-06   0.50255984  0.026345114            0   0.47621473    1.5063742     2.008934    1.7321466 
 3520000    1.0398475 -1.3707214e-05   0.45050646  0.006220673            0   0.44428579     1.533775    1.9842815    1.0485357 
 3525000   0.98434799 -0.00017752055   0.54895347  0.039095273            0   0.50985819    1.4519133    2.0008667    -10.11787 
 3530000   0.99893072 3.6055326e-06   0.43659339  0.010276261            0   0.42631713    1.4734228    1.9100162    2.1561539 
 3535000   0.90522004 -0.0001093284   0.55094332  0.002981589            0   0.54796173    1.3351996    1.8861429   -5.5773429 
 3540000   0.93202096  2.67152e-05   0.44584426 0.00060012016            0   0.44524414    1.3747309    1.8205752    3.6443328 
 3545000   0.93364852 8.3300445e-05   0.49790436  0.043134305            0   0.45477005    1.3771316    1.8750359    7.5616796 
 3550000   0.99774825 -2.4731737e-06   0.45799899  0.018331068            0   0.43966792    1.4716787    1.9296777    1.7608423 
 3555000    1.0224026 -5.6819152e-05   0.42692289  0.021489703            0   0.40543318    1.5080438    1.9349667   -1.9438874 
 3560000    1.0078885 5.9446926e-05   0.48911514  0.017198715            0   0.47191642    1.4866355    1.9757506    6.0339941 
 3565000     0.980759 9.9253704e-05   0.49299012     0.005653            0   0.48733712    1.4466195    1.9396096    8.7153292 
 3570000   0.90053363 -5.7884029e-05   0.59264504  0.012338313            0   0.58030673    1.3282871    1.9209322   -2.0306176 
 3575000   0.98256895 2.6879531e-05   0.50054388  0.018957614            0   0.48158627    1.4492892    1.9498331    3.7848091 
 3580000   0.86495552 -8.1084277e-05   0.71328475  0.023655402            0   0.68962935    1.2758094    1.9890941   -3.5462591 
 3585000   0.85857637 -6.1662371e-06   0.73356814  0.018218574            0   0.71534957    1.2664001    1.9999683    1.5790198 
 3590000     1.036239 0.00012226099   0.49532576  0.025009327            0   0.47031644    1.5284526    2.0237783    10.370129 
 3595000    1.0433342 -2.001276e-05   0.57913463 0.0006272851            0   0.57850734    1.5389179    2.1180526   0.75184816 
 3600000    1.1514572 1.1609094e-05   0.33613601 0.0017399856            0   0.33439602    1.6983993    2.0345354    2.8270495 
 3605000     1.069564 9.1248511e-05   0.48971296 0.0093080221            0   0.48040494    1.5776069    2.0673199    8.2965516 
 3610000    1.1137512 -3.1285547e-05   0.43238943  0.023236568            0   0.40915286    1.6427831    2.0751725 -0.060587479 
 3615000   0.97885901 -4.7692496e-05   0.49380805  0.010761883            0   0.48304617     1.443817    1.9376251   -1.3181826 
 3620000    1.0462589 -4.9851078e-05   0.47227477  0.017225636            0   0.45504914    1.5432318    2.0155066   -1.3876603 
 3625000   0.78991286 4.9924967e-05   0.72977257  0.040855971            0    0.6889166    1.1651215     1.894894    5.3031051 
 3630000   0.87323775 -1.5016134e-05   0.58189198  0.003762935            0   0.57812905    1.2880257    1.8699177   0.84481627 
 3635000   0.95575762 2.9766048e-05   0.41604192 0.0030534053            0   0.41298852    1.4097425    1.8257844    3.8578133 
 3640000   0.86120433 6.1197961e-05   0.54854364 0.0040362634            0   0.54450738    1.2702764      1.81882    5.9966008 
 3645000    0.9257366 -2.5293328e-05   0.44588485 0.0066971406            0   0.43918771    1.3654615    1.8113463  0.084655147 
 3650000   0.85509926 -6.0719911e-06   0.52063072   0.02605838            0   0.49457234    1.2612714    1.7819021    1.3673875 
 3655000   0.92666317 7.3310786e-05    0.4638638 0.0085872872            0   0.45527651    1.3668282     1.830692    6.8353749 
 3660000   0.96978065 4.1299947e-05   0.41365862 0.0051799822            0   0.40847863    1.4304265    1.8440851    4.6634948 
 3665000   0.92783606 9.0839932e-05   0.49111066  0.011513379            0   0.47959728    1.3685582    1.8596688    8.0610082 
 3670000   0.94124396 -0.00012839228   0.56764651 0.00046911185            0    0.5671774    1.3883348    1.9559814   -6.8089315 
 3675000     1.039164 6.7907558e-05   0.51631013  0.029313351            0   0.48699678    1.5327668     2.049077    6.6848996 
 3680000    0.9144881 2.632675e-05   0.51905809 0.0034357517            0   0.51562234    1.3488699     1.867928    3.6651675 
 3685000    0.9952379 4.8413104e-06    0.4128975  0.027951824            0   0.38494567    1.4679759    1.8808734    2.2113735 
 3690000   0.93063978 -0.00015978755    0.4600998 0.0055726099            0   0.45452719    1.3726937    1.8327935   -9.0753703 
 3695000   0.91065508 -8.9583212e-05   0.47881313  0.010726565            0   0.46808656    1.3432163    1.8220294   -4.2935179 
 3700000   0.99254168 0.00011598677   0.42585782  0.018556557            0   0.40730126     1.463999    1.8898568    9.8078868 
 3705000   0.93825495 -5.8087375e-05   0.58384353   0.04937691            0   0.53446662    1.3839261    1.9677696   -1.9976619 
 3710000    1.0337118 4.6595159e-05   0.55029187  0.019138337            0   0.53115354     1.524725    2.0750168     5.255913 
 3715000    1.0016319 -1.3344196e-05   0.60621494 0.0050921548            0   0.60112278     1.477407    2.0836219    1.1726582 
 3720000    1.1412745 -2.3348968e-05   0.47393691 0.0014075807            0   0.47252933    1.6833799    2.1573168   0.56336055 
 3725000     1.169591 3.9687703e-06   0.41407945   0.00481607            0   0.40926338    1.7251468    2.1392262    2.4101609 
 3730000    1.0162622 -0.00011495922   0.63665804   0.12881677            0   0.50784127    1.4989867    2.1356447   -5.7122383 
 3735000    1.0764288 -1.1437429e-05   0.55861271  0.005136956            0   0.55347575    1.5877326    2.1463453    1.3655501 
 3740000    1.0651306 -6.3683986e-05     0.556017  0.028307343            0   0.52770966    1.5710676    2.1270846   -2.2204088 
 3745000   0.97694303 -0.00019966046   0.53654153  0.031876177            0   0.50466536     1.440991    1.9775325   -11.652622 
 3750000    1.0088536 1.7075806e-05   0.50516045  0.020745369            0   0.48441508    1.4880591    1.9932196    3.1589279 
 3755000    1.0893839 -7.6979783e-05    0.4980989  0.032289876            0   0.46580903    1.6068412    2.1049401    -3.150213 
 3760000    1.0264641 4.015887e-06   0.68515981  0.036288219            0   0.64887159    1.5140346    2.1991944    2.4733456 
 3765000    1.1063634 -4.9034534e-05   0.61213948  0.089285273            0   0.52285421    1.6318861    2.2440255   -1.1033987 
 3770000    1.0350624 6.6594491e-05   0.66204954  0.035182022            0   0.62686752     1.526717    2.1887665    6.7349504 
 3775000    1.0120885 3.3941103e-05    0.6734752  0.033675916            0   0.63979929    1.4928305    2.1663057    4.4833517 
 3780000    1.1093222 -3.4047345e-05   0.54360464  0.012889143            0    0.5307155    1.6362502    2.1798548   -0.1444439 
 3785000    1.0619565 1.2690475e-05   0.60496722  0.096963884            0   0.50800334    1.5663859    2.1713531    3.0376895 
 3790000     1.159167 -4.7784036e-05   0.50138283  0.013349257            0   0.48803358    1.7097713    2.2111541   -1.0509027 
 3795000    1.1813949 6.5495365e-05   0.53397218  0.049928346            0   0.48404384    1.7425574    2.2765296    6.7476798 
 3800000     1.195477 -4.1934212e-06   0.57601252 0.0039329858            0   0.57207953    1.7633286    2.3393411    2.0530703 
 3805000    1.2340755 0.00015219264   0.51868338 0.0095444045            0   0.50913898    1.8202614    2.3389448    12.728629 
 3810000    1.1484089 6.0053023e-05   0.40919999  0.011445474            0   0.39775452    1.6939031    2.1031031    6.2027228 
 3815000    1.0873958 1.644949e-05   0.47290811 0.0030986832            0   0.46980942    1.6039088    2.0768169    3.1997687 
 3820000     1.091573 0.00011368725   0.49160799  0.012558151            0   0.47904984    1.6100702    2.1016782    9.8627279 
 3825000   0.97116861 2.0116987e-05   0.66369949 0.0044322708            0   0.65926722    1.4324737    2.0961732    3.4694929 
 3830000    0.9262687 -5.9901849e-05   0.61984699 0.0057053068            0   0.61414168    1.3662463    1.9860933   -2.1032062 
 3835000   0.97268415 6.0757766e-05   0.47379896   0.01690987            0   0.45688909    1.4347091    1.9085081    6.0562382 
 3840000    1.1056307 -4.3182695e-05    0.4593365 0.00049434188            0   0.45884215    1.6308052    2.0901417  -0.85779694 
 3845000   0.93936169 3.0397753e-05   0.68173382            0            0   0.68173382    1.3855585    2.0672923    4.1424456 
 3850000    1.1068936 6.2225057e-06   0.51272155 0.0006703826            0   0.51205117    1.6326681    2.1453896    2.5701793 
 3855000    1.1740463 -9.5241193e-05   0.41872541  0.010037794            0   0.40868762    1.7317183    2.1504437    -4.351355 
 3860000    1.0656771 -0.00016151839   0.47730514 0.0032259378            0    0.4740792    1.5718737    2.0491788    -8.977143 
 3865000      1.05008 -2.4869817e-05   0.49448948   0.05046294            0   0.44402654    1.5488681    2.0433576   0.34557803 
 3870000    1.0303003 1.7333376e-05    0.5154233  0.029344523            0   0.48607878     1.519693    2.0351163    3.2184081 
 3875000    1.0998418 4.5101587e-05   0.42032956 0.0060362426            0   0.41429332    1.6222667    2.0425962    5.1215312 
 3880000    1.1201771 8.7191857e-05   0.38211811 0.0069473901            0   0.37517072    1.6522613    2.0343794    7.9866768 
 3885000    1.0960338 -6.6342746e-05   0.50287727  0.032918487            0   0.46995879    1.6166498    2.1195271    -2.409471 
 3890000    1.0733124 1.123628e-05   0.44857495 0.0031193421            0   0.44545561    1.5831358    2.0317107    2.7987741 
 3895000    1.0998261 -9.2418309e-05   0.44109962            0            0   0.44109962    1.6222435    2.0633432   -4.2457467 
 3900000    1.0724869 9.5537377e-06   0.49979673 0.0046721889            0   0.49512454    1.5819181    2.0817148    2.7339167 
 3905000    1.0075929 -3.2022126e-05   0.54602622  0.021077077            0   0.52494915    1.4861995    2.0322257  -0.15381807 
 3910000    1.0882015 3.3265063e-05   0.42252037  0.016458689            0   0.40606168    1.6050972    2.0276175    4.2985125 
 3915000    1.1158912 1.1272348e-05   0.37716945 0.0053684871            0   0.37180096    1.6459395     2.023109    2.7926346 
 3920000   0.99298026 -1.5540294e-05   0.45983118  0.019665158            0   0.44016602    1.4646459    1.9244771   0.86359303 
 3925000    1.0165777 7.8752922e-06   0.45764202 2.2589538e-05            0   0.45761943    1.4994521    1.9570941    2.4947141 
 3930000    1.0708323 2.9983055e-05   0.39286758            0            0   0.39286758    1.5794776    1.9723452    4.0191884 
 3935000   0.94071186 -1.9770728e-05   0.54671841  0.044617052            0   0.50210136      1.38755    1.9342684   0.58458671 
 3940000   0.98378513 6.469939e-05   0.36730793 0.0015584235            0    0.3657495    1.4510831     1.818391    6.2352027 
 3945000   0.85318952 0.00012544919   0.50861258  0.025228668            0   0.48338391    1.2584545    1.7670671    10.331065 
 3950000   0.88766078 -2.4353775e-05   0.42868975 0.0048930374            0   0.42379671    1.3092997    1.7379894  0.075438399 
 3955000   0.78163663 1.4857783e-05   0.56735692  0.015013557            0   0.55234336     1.152914     1.720271    2.7345623 
 3960000     0.882796 -8.3932089e-05   0.52753413  0.067148268            0   0.46038586    1.3021241    1.8296582   -3.9001057 
 3965000   0.99393659 -3.5656398e-05    0.4279321   0.00902727            0   0.41890483    1.4660565    1.8939886  -0.54015486 
 3970000   0.96079128 0.00010100683   0.55149219  0.002005367            0   0.54948683    1.4171671    1.9686593     8.864059 
 3975000    1.0292833 -3.4420844e-05   0.55370896  0.047654127            0   0.50605483    1.5181928    2.0719018  -0.27789452 
 3980000    1.1602685 4.8597384e-05    0.3045365 0.0065434033            0    0.2979931     1.711396    2.0159325    5.3335139 
 3985000   0.92822864 7.0808625e-05   0.56277474  0.012362999            0   0.55041175    1.3691372     1.931912    6.7657808 
 3990000   0.98379715 5.4096425e-05   0.51970912  0.020608672            0   0.49910045    1.4511008    1.9708099    5.6637925 
 3995000    1.0831881 3.5604491e-05   0.48337192  0.022144343            0   0.46122757    1.5977025    2.0810744    4.5116743 
 4000000    1.0784417 -3.2099382e-06   0.51925672  0.010055109            0   0.50920161    1.5907016    2.1099583    1.8908265 
Loop time of 211.78 on 1 procs for 2000000 steps with 60 atoms

Performance: 815942.362 tau/day, 9443.777 timesteps/s
99.0% CPU use with 1 MPI tasks x no OpenMP threads

MPI task timing breakdown:
Section |  min time  |  avg time  |  max time  |%varavg| %total
---------------------------------------------------------------
Pair    | 0.77154    | 0.77154    | 0.77154    |   0.0 |  0.36
Bond    | 2.0177     | 2.0177     | 2.0177     |   0.0 |  0.95
Neigh   | 179.2      | 179.2      | 179.2      |   0.0 | 84.62
Comm    | 25.057     | 25.057     | 25.057     |   0.0 | 11.83
Output  | 0.04965    | 0.04965    | 0.04965    |   0.0 |  0.02
Modify  | 4.05       | 4.05       | 4.05       |   0.0 |  1.91
Other   |            | 0.6351     |            |       |  0.30

Nlocal:        60.0000 ave          60 max          60 min
Histogram: 1 0 0 0 0 0 0 0 0 0
Nghost:        0.00000 ave           0 max           0 min
Histogram: 1 0 0 0 0 0 0 0 0 0
Neighs:        26.0000 ave          26 max          26 min
Histogram: 1 0 0 0 0 0 0 0 0 0

Total # of neighbors = 26
Ave neighs/atom = 0.43333333
Ave special neighs/atom = 5.8000000
Neighbor list builds = 37749
Dangerous builds = 0
write_restart restart.rerun.1
System init for write_restart ...
WARNING: Communication cutoff 1.4200000000000002 is shorter than a bond length based estimate of 1.8. This may lead to errors. (../comm.cpp:667)
#--------------End of Input file ------------------
Total wall time: 0:03:31
