LAMMPS (29 Oct 2020)
###################### polyelectrolyte complexation ######################
clear

#Initialization
#------------------------------------
units				lj
dimension			3
atom_style			full
boundary			p p p

#Atom Definition
#-------------------------------------
read_data			data.complexation
Reading data file ...
  orthogonal box = (-80.000000 -80.000000 -80.000000) to (80.000000 80.000000 80.000000)
  1 by 1 by 1 MPI processor grid
  reading atoms ...
  40 atoms
  scanning bonds ...
  1 = max bonds/atom
  reading bonds ...
  39 bonds
Finding 1-2 1-3 1-4 neighbors ...
  special bond factors lj:    0.0      0.0      0.0     
  special bond factors coul:  0.0      0.0      0.0     
     2 = max # of 1-2 neighbors
     2 = max # of 1-3 neighbors
     4 = max # of 1-4 neighbors
     6 = max # of special neighbors
  special bonds CPU = 0.000 seconds
  read_data CPU = 0.002 seconds

#Force definition
#----------------------------------------------
#Bond definition
bond_style			harmonic
bond_coeff			1 5000 1
#Pair definition
special_bonds	lj 0 1 1
Finding 1-2 1-3 1-4 neighbors ...
  special bond factors lj:    0.0      1.0      1.0     
  special bond factors coul:  0.0      0.0      0.0     
     2 = max # of 1-2 neighbors
     2 = max # of 1-3 neighbors
     4 = max # of 1-4 neighbors
     6 = max # of special neighbors
  special bonds CPU = 0.000 seconds
pair_style		 lj/cut 1.12
pair_modify 		 shift yes
pair_coeff	1 1 1 1 1.12

#Timestep etc
#--------------------------------------------
timestep		1e-05
run_style		verlet
velocity		all	create	1	14

#Fix
#---------------------------------------
group polymers type 1
40 atoms in group polymers
fix 1 all nve
fix 2 all langevin 1	1	10	14
fix 3 polymers recenter INIT INIT INIT units box

#Dump
#------------------------------------------------
compute  1 all gyration
variable  myRg2 equal c_1
variable  i equal step
fix  mythermofile all print 5000 "$i ${myRg2}" file radius_of_gyration.dat screen no

thermo_style		 custom step temp press pe evdwl ecoul ebond ke etotal enthalpy
thermo 	5000
dump	3 all custom 5000 dump.lammpstrj id mol type xu yu zu
run		20000000
Neighbor list info ...
  update every 1 steps, delay 10 steps, check yes
  max neighbors/atom: 2000, page size: 100000
  master list distance cutoff = 1.42
  ghost atom cutoff = 1.42
  binsize = 0.71, bins = 226 226 226
  1 neighbor lists, perpetual/occasional/extra = 1 0 0
  (1) pair lj/cut, perpetual
      attributes: half, newton on
      pair build: half/bin/newton
      stencil: half/bin/3d/newton
      bin: standard
WARNING: Communication cutoff 1.4200000000000002 is shorter than a bond length based estimate of 1.8. This may lead to errors. (../comm.cpp:667)
Per MPI rank memory allocation (min/avg/max) = 54.71 | 54.71 | 54.71 Mbytes
Step Temp Press PotEng E_vdwl E_coul E_bond KinEng TotEng Enthalpy 
       0            1 9.5214844e-06            0            0            0            0       1.4625       1.4625       2.4375 
    5000   0.79430677 -0.00015427687   0.32280664            0            0   0.32280664    1.1616736    1.4844803   -14.313471 
   10000    0.4807955 -0.0003132391   0.77383764            0            0   0.77383764   0.70316341    1.4770011   -30.598682 
   15000   0.86572889 -6.8660938e-05   0.20025111            0            0   0.20025111    1.2661285    1.4663796   -5.5645004 
   20000   0.76838497 3.8100484e-05   0.34810057            0            0   0.34810057     1.123763    1.4718636    5.3733531 
   25000   0.81331643 -9.8419992e-05   0.29944404            0            0   0.29944404    1.1894753    1.4889193   -8.5892878 
   30000   0.71898835 -0.00016129419   0.43858749            0            0   0.43858749    1.0515205    1.4901079   -15.026417 
   35000   0.83268776 0.00010279556   0.29660935            0            0   0.29660935    1.2178058    1.5144152    12.040681 
   40000   0.79133041 0.00014317234   0.36328957            0            0   0.36328957    1.1573207    1.5206103    16.181458 
   45000   0.79537552 -0.00013987207   0.40007689            0            0   0.40007689    1.1632367    1.5633136   -12.759587 
   50000    0.8270886 -0.00011342741   0.33667965            0            0   0.33667965    1.2096171    1.5462967    -10.06867 
   55000   0.80163369 0.00014627719   0.40285999            0            0   0.40285999    1.1723893    1.5752493    16.554034 
   60000   0.84641035 2.8770695e-05   0.34021256            0            0   0.34021256    1.2378751    1.5780877    4.5242069 
   65000   0.84565239 -4.685194e-05   0.30515452            0            0   0.30515452    1.2367666    1.5419211   -3.2557175 
   70000   0.73434962 -4.0337492e-05   0.49346612            0            0   0.49346612    1.0739863    1.5674524   -2.5631068 
   75000   0.90570265 6.7867199e-05   0.25693356            0            0   0.25693356    1.3245901    1.5815237    8.5311249 
   80000   0.85826778 -1.9052183e-05   0.34026982            0            0   0.34026982    1.2552166    1.5954864  -0.35545713 
   85000   0.79957873 5.3142392e-05   0.45433085            0            0   0.45433085    1.1693839    1.6237147    7.0654957 
   90000   0.85821131 -0.00013514023   0.32589379            0            0   0.32589379     1.255134    1.5810278   -12.257331 
   95000   0.75718768 9.444061e-05   0.46208097            0            0   0.46208097     1.107387     1.569468    11.240186 
  100000   0.77992169 3.9666115e-05    0.4384149            0            0    0.4384149    1.1406355    1.5790504    5.6408606 
  105000   0.71534453 -9.4464344e-05   0.49213995            0            0   0.49213995    1.0461914    1.5383313   -8.1348175 
  110000   0.82579006 -2.9376695e-05   0.34155763            0            0   0.34155763     1.207718    1.5492756   -1.4588979 
  115000   0.71890833 0.00018360624   0.49127923            0            0   0.49127923    1.0514034    1.5426827    20.343962 
  120000   0.78570841 -0.00013161175   0.40871268            0            0   0.40871268    1.1490986    1.5578112   -11.919232 
  125000   0.82683323 3.652453e-07   0.34096291            0            0   0.34096291    1.2092436    1.5502065    1.5876076 
  130000   0.75181689 9.5658568e-05   0.43737768            0            0   0.43737768    1.0995322    1.5369099    11.332347 
  135000   0.78529476 -3.4712306e-05   0.38769869            0            0   0.38769869    1.1484936    1.5361923   -2.0183479 
  140000   0.81273905 -0.00014830577    0.3822471            0            0    0.3822471    1.1886309     1.570878   -13.615633 
  145000   0.82361044 6.3291362e-05   0.34817383            0            0   0.34817383    1.2045303    1.5527041    8.0337395 
  150000   0.79418359 2.1223514e-05   0.36942588            0            0   0.36942588    1.1614935    1.5309194    3.7042072 
  155000   0.86414128 -4.7093899e-05   0.22655206            0            0   0.22655206    1.2638066    1.4903587   -3.3320566 
  160000   0.72951288 4.4471273e-05   0.44801356            0            0   0.44801356    1.0669126    1.5149261    6.0687845 
  165000   0.75659671 7.4834897e-06   0.37340702            0            0   0.37340702    1.1065227    1.4799297     2.246239 
  170000   0.82332952 -8.788702e-06    0.2821017            0            0    0.2821017    1.2041194    1.4862211   0.58625804 
  175000   0.78554414 -4.5214727e-05   0.36856004            0            0   0.36856004    1.1488583    1.5174183   -3.1125697 
  180000   0.84059119 3.7990001e-05   0.33236826            0            0   0.33236826    1.2293646    1.5617329     5.451909 
  185000   0.91111284 -8.4272447e-06   0.22169515            0            0   0.22169515    1.3325025    1.5541977   0.69124782 
  190000   0.79829826 3.9611718e-05   0.39688488            0            0   0.39688488    1.1675112    1.5643961    5.6206361 
  195000   0.80517606 -3.1982782e-05   0.40311979            0            0   0.40311979      1.17757    1.5806898   -1.6943471 
  200000   0.80388155 6.1775366e-05   0.43431831            0            0   0.43431831    1.1756768    1.6099951    7.9357925 
  205000   0.85221703 -4.4926704e-05   0.35513804            0            0   0.35513804    1.2463674    1.6015054    -2.998989 
  210000   0.83186029 4.0051446e-05   0.38645027            0            0   0.38645027    1.2165957    1.6030459     5.704314 
  215000   0.90136531 -9.1985785e-06   0.30409917            0            0   0.30409917    1.3182468    1.6223459   0.68041151 
  220000   0.95874939 -6.4853842e-05   0.23561113            0            0   0.23561113     1.402171    1.6377821   -5.0032513 
  225000   0.95350749 8.623079e-05   0.26421087 0.00045609564            0   0.26375477    1.3945047    1.6587156    10.488748 
  230000   0.89670825 -4.517952e-05   0.38108571 0.0039251222            0   0.37716059    1.3114358    1.6925215   -2.9338613 
  235000   0.80266156 9.3702803e-05   0.52135843 0.0052059908            0   0.51615243    1.1738925     1.695251    11.290418 
  240000   0.76038578 -2.4509508e-05   0.55611345 0.0015958704            0   0.55451758    1.1120642    1.6681777  -0.84159597 
  245000   0.82521857 2.1158853e-05    0.4422035            0            0    0.4422035    1.2068822    1.6490857    3.8157522 
  250000   0.89926497 -2.4796205e-05   0.30408513            0            0   0.30408513     1.315175    1.6192601  -0.91987122 
  255000   0.90412713 5.4314044e-05   0.31775999 0.00013311355            0   0.31762687    1.3222859    1.6400459     7.201804 
  260000   0.91822048 4.8031618e-05   0.32859061 0.00027636975            0   0.32831424    1.3428974    1.6714881    6.5899258 
  265000   0.92400779 -5.889409e-05   0.32634875 0.00057795457            0   0.32577079    1.3513614    1.6777101   -4.3530446 
  270000   0.88015907 9.077966e-05   0.39681917 0.00070215695            0   0.39611701    1.2872326    1.6840518    10.979889 
  275000   0.89552945 -8.0482079e-05   0.33743211 0.00035227269            0   0.33707984    1.3097118    1.6471439   -6.5942209 
  280000   0.92528825 9.546288e-05    0.3102658            0            0    0.3102658    1.3532341    1.6634999    11.438899 
  285000   0.91433221 -4.4355392e-05   0.30572863            0            0   0.30572863    1.3372109    1.6429395   -2.8990526 
  290000   0.92858035 3.3345061e-05   0.29013321 0.0001377364            0   0.28999547    1.3580488     1.648182    5.0627162 
  295000    0.9655156 -1.0609722e-05   0.24110224 0.00012969547            0   0.24097255    1.4120666    1.6531688   0.56673327 
  300000   0.94159083 1.6812179e-06   0.26766498 0.00012620064            0   0.26753878    1.3770766    1.6447416    1.8168983 
  305000   0.96772525 9.8049043e-06   0.23353016 0.0012683004            0   0.23226186    1.4152982    1.6488283    2.6528505 
  310000   0.88005986 -4.7846055e-05   0.35258819   0.01099683            0   0.34159136    1.2870876    1.6396757   -3.2597603 
  315000    0.8267505 9.2054207e-05   0.41764732  0.013707145            0   0.40394018    1.2091226    1.6267699    11.053121 
  320000   0.82081297 -2.0740267e-05   0.43684655  0.021329525            0   0.41551702     1.200439    1.6372855  -0.48651785 
  325000     0.874958 5.7176196e-05   0.36638119 0.0015570346            0   0.36482416    1.2796261    1.6460073    7.5008497 
  330000   0.90040074 -6.3472583e-05   0.33165756 0.00052890611            0   0.33112865    1.3168361    1.6484936   -4.8510989 
  335000   0.91200358 8.4369488e-06   0.34198591 0.0013851079            0    0.3406008    1.3338052    1.6757911    2.5397347 
  340000   0.95918831 -4.2038601e-05   0.27314477 0.0053548521            0   0.26778992    1.4028129    1.6759577   -2.6287951 
  345000   0.89951798 6.4076145e-05   0.35797061 0.0052699806            0   0.35270063     1.315545    1.6735157    8.2349129 
  350000   0.79247485 3.4454388e-05   0.48120984 0.0016648787            0   0.47954496    1.1589945    1.6402043    5.1683337 
  355000   0.78853855 -1.7267311e-06   0.47455031 0.00014854358            0   0.47440177    1.1532376    1.6277879    1.4509707 
  360000   0.77593501 -4.3863336e-05   0.51463619            0            0   0.51463619     1.134805    1.6494411   -2.8421644 
  365000   0.81841904 -8.5539093e-05   0.42358037            0            0   0.42358037    1.1969378    1.6205182   -7.1386849 
  370000   0.78178556 1.9394909e-05   0.45745036            0            0   0.45745036    1.1433614    1.6008117    3.5868504 
  375000   0.78267106 -8.8668711e-05   0.45081825            0            0   0.45081825    1.1446564    1.5954747   -7.4842013 
  380000    0.7779902 8.8566039e-05   0.48104149            0            0   0.48104149    1.1378107    1.6188522    10.688015 
  385000   0.82664607 -6.4998908e-05   0.45957852            0            0   0.45957852    1.2089699    1.6685484   -4.9873398 
  390000   0.86648467 4.5395376e-05   0.40818331            0            0   0.40818331    1.2672338    1.6754171    6.3239037 
  395000   0.90489574 -7.5008694e-05   0.34749336            0            0   0.34749336      1.32341    1.6709034   -6.0099869 
  400000   0.86676078 -1.3658716e-05   0.39545675            0            0   0.39545675    1.2676376    1.6630944   0.26444188 
  405000   0.86826727 -2.1476853e-05   0.36152963            0            0   0.36152963    1.2698409    1.6313705  -0.56785926 
  410000   0.84518578 4.1522246e-05   0.37340774            0            0   0.37340774    1.2360842    1.6094919    5.8613699 
  415000   0.83325179 -6.1760714e-06   0.38463287            0            0   0.38463287    1.2186307    1.6032636   0.97083389 
  420000    0.8057699 4.9979175e-05    0.4289155            0            0    0.4289155    1.1784385     1.607354    6.7252215 
  425000   0.78826454 -9.430674e-05   0.40603154            0            0   0.40603154    1.1528369    1.5588684   -8.0981418 
  430000   0.79186219 1.8986242e-05   0.41482734            0            0   0.41482734    1.1580985    1.5729258     3.517117 
  435000   0.85416092 -8.115342e-05   0.35948639            0            0   0.35948639    1.2492103    1.6086967   -6.7014134 
  440000   0.83761859 6.9493092e-05   0.36718681            0            0   0.36718681    1.2250172     1.592204    8.7082966 
  445000   0.73972338 2.9755812e-05   0.49433447            0            0   0.49433447    1.0818454    1.5761799     4.623175 
  450000   0.78538063 4.3752783e-05   0.43424222            0            0   0.43424222    1.1486192    1.5828614    6.0631463 
  455000   0.88649582 -3.9354115e-05   0.32038539 0.00080603418            0   0.31957936    1.2965001    1.6168855   -2.4129758 
  460000   0.92260312 6.3119053e-05   0.28744162  0.010800769            0   0.27664085    1.3493071    1.6367487    8.1001397 
  465000   0.87513128 -1.8850103e-05   0.37613178  0.023992499            0   0.35213929    1.2798795    1.6560113  -0.27423926 
  470000   0.84357515 7.0484199e-06   0.42255273  0.024414111            0   0.39813862    1.2337287    1.6562814    2.3780396 
  475000   0.77256952 -1.1580225e-05   0.47324639  0.014282136            0   0.45896426    1.1298829    1.6031293   0.41731426 
  480000   0.85911137 -0.00011388894    0.3204416  0.011162574            0   0.30927903    1.2564504     1.576892   -10.085336 
  485000   0.85056685 5.4079346e-05   0.34184697  0.001347242            0   0.34049973     1.243954     1.585801     7.123526 
  490000   0.80069553 -4.2150087e-05   0.41824213 0.00063333549            0    0.4176088    1.1710172    1.5892593   -2.7269096 
  495000   0.72850048 5.6648726e-05   0.50973247 0.0025777476            0   0.50715473     1.065432    1.5751644     7.375994 
  500000   0.69451969 -1.5533409e-05   0.53116779 0.0039092649            0   0.52725853     1.015735    1.5469028  -0.04371829 
  505000    0.8283564 4.6830269e-05    0.3366206 0.00066633715            0   0.33595426    1.2114712    1.5480918    6.3435113 
  510000   0.73427919 -5.5912624e-05   0.41458243 3.9304182e-06            0    0.4145785    1.0738833    1.4884657   -4.2369869 
  515000   0.70840663 1.5955501e-05   0.48351206            0            0   0.48351206    1.0360447    1.5195568    3.1534001 
  520000   0.79029714 1.9476207e-05   0.37328431            0            0   0.37328431    1.1558096    1.5290939    3.5234574 
  525000   0.80528478 -6.1879062e-05    0.3356638            0            0    0.3356638     1.177729    1.5133928   -4.8230231 
  530000    0.7706705 2.4535582e-05   0.41213123 0.00010520381            0   0.41202603    1.1271056    1.5392368    4.0516804 
  535000   0.73767629 -2.336213e-05   0.46197223 0.00064177365            0   0.46133045    1.0788516    1.5408238  -0.85145831 
  540000   0.83126656 7.375528e-05     0.289627 0.0038413752            0   0.28578563    1.2157273    1.5053543    9.0578951 
  545000   0.84013671 3.1461076e-05   0.28116243  0.020508403            0   0.26065402    1.2286999    1.5098624    4.7314765 
  550000   0.74138127 3.8123634e-05   0.45272965  0.024717532            0   0.42801212    1.0842701    1.5369998    5.4408599 
  555000   0.77092488 2.3377044e-05   0.42482912  0.013062553            0   0.41176656    1.1274776    1.5523067     3.946116 
  560000    0.8092723 -0.00010767635   0.38446821 4.7504136e-05            0    0.3844207    1.1835607    1.5680289   -9.4580289 
  565000   0.85710009 -9.5729606e-06   0.33599438            0            0   0.33599438    1.2535089    1.5895033    0.6092321 
  570000   0.71493915 5.0527176e-05     0.534233            0            0     0.534233    1.0455985    1.5798315    6.7538143 
  575000   0.77190974 2.9209556e-05    0.4586422 0.00088131074            0   0.45776089     1.128918    1.5875602    4.5786188 
  580000   0.83586979 -6.1274932e-05   0.40412849   0.01093868            0   0.39318981    1.2224596    1.6265881    -4.647965 
  585000   0.80918166 5.4350556e-05   0.45506559  0.014345069            0   0.44072053    1.1834282    1.6384938    7.2039907 
  590000   0.76590617 5.8394682e-05   0.52366298 0.0070393816            0    0.5166236    1.1201378    1.6438008    7.6234162 
  595000   0.80023039 -6.1153037e-05   0.44459952  0.015497263            0   0.42910226    1.1703369    1.6149365   -4.6471345 
  600000   0.82101722 -5.5569496e-06   0.39835277  0.017276512            0   0.38107626    1.2007377    1.5990905    1.0300588 
  605000    0.8532362 -5.0309728e-05   0.33683444  0.014092985            0   0.32274146    1.2478579    1.5846924   -3.5670237 
  610000   0.79333501 4.6871329e-05   0.45663388  0.011859844            0   0.44477404    1.1602525    1.6168863    6.4165104 
  615000   0.87185483 5.8616021e-05   0.37163927  0.022933394            0   0.34870587    1.2750877    1.6467269    7.6490075 
  620000   0.73223673 6.7391695e-05   0.57646841  0.022072674            0   0.55439574    1.0708962    1.6473646    8.5482742 
  625000   0.90863749 5.3729539e-05   0.31915335  0.003720984            0   0.31543237    1.3288823    1.6480357    7.1499405 
  630000   0.76817754 -4.7581371e-05   0.55303454 0.00092366322            0   0.55211088    1.1234596    1.6764942   -3.1958383 
  635000   0.97231157 2.4965194e-05   0.23552737 0.00015546984            0    0.2353719    1.4220057     1.657533    4.2139689 
  640000     0.722764 -3.6459541e-05   0.59627547 0.0034227583            0   0.59285271    1.0570423    1.6533178   -2.0801392 
  645000   0.89557224 -3.64476e-05   0.33397989  0.013213324            0   0.32076656    1.3097744    1.6437543     -2.08848 
  650000   0.79976266 4.1254059e-05    0.4974466   0.01566563            0   0.48178097    1.1696529    1.6670995    5.8915152 
  655000   0.82113959 2.3468004e-05   0.48950846 0.0073522148            0   0.48215625    1.2009166    1.6904251    4.0935487 
  660000   0.77784183 -0.00011839727   0.53404205 0.0053404294            0   0.52870162    1.1375937    1.6716357   -10.452245 
  665000   0.92865782 -7.4199172e-06   0.35608341 0.0065658382            0   0.34951757    1.3581621    1.7142455   0.95444595 
  670000   0.86645287 8.4136461e-05   0.46706073  0.011251927            0    0.4558088    1.2671873    1.7342481    10.349822 
  675000   0.86880068 -6.480065e-05   0.44762119 0.0075529837            0   0.44006821     1.270621    1.7182422   -4.9173444 
  680000   0.88372162 -2.4246276e-05   0.40378241 0.0010281535            0   0.40275426    1.2924429    1.6962253  -0.78659341 
  685000   0.88138233 6.9211064e-06     0.350341 0.0029774259            0   0.34736358    1.2890217    1.6393627     2.348084 
  690000     0.771487 -0.00012375822   0.52814238 0.0033080819            0   0.52483429    1.1282997    1.6564421     -11.0164 
  695000   0.93298522 -3.9527854e-05   0.29855336  0.001242344            0   0.29731101    1.3644909    1.6630442    -2.384608 
  700000   0.83610588 5.7146263e-05   0.44584384 0.0002980303            0   0.44554581    1.2228048    1.6686487     7.520426 
  705000   0.86485664 -1.7161235e-05   0.41050079 0.00026976125            0   0.41023103    1.2648528    1.6753536  -0.08195682 
  710000   0.80483826 2.9289723e-05   0.50314539  6.79371e-05            0   0.50307745     1.177076    1.6802214     4.679489 
  715000   0.92533475 9.7577893e-06   0.31033483 0.00086550407            0   0.30946933    1.3533021    1.6636369    2.6628345 
  720000    0.9516434 3.8920013e-05   0.31420583   0.01427577            0   0.29993006    1.3917785    1.7059843    5.6913936 
  725000   0.88722137 6.8083929e-06   0.38129331  0.010443654            0   0.37084965    1.2975613    1.6788546     2.376034 
  730000   0.81624653 -0.00010691761   0.44775274  0.021157586            0   0.42659515    1.1937606    1.6415133   -9.3068503 
  735000   0.86111879 7.0925816e-05   0.41515416  0.034799743            0   0.38035442    1.2593862    1.6745404     8.937344 
  740000   0.92590972 8.7208279e-05   0.29849348  0.011428176            0   0.28706531     1.354143    1.6526364    10.582764 
  745000   0.74478063 2.0663824e-05   0.54163125   0.02059508            0   0.52103617    1.0892417    1.6308729    3.7468485 
  750000   0.81032287 4.9962915e-05   0.43296793  0.015151451            0   0.41781648    1.1850972    1.6180651    6.7342676 
  755000   0.86428543 -6.3657954e-06   0.37073451  0.010668153            0   0.36006636    1.2640174    1.6347519    0.9828945 
  760000   0.83140077 -6.4381608e-05   0.46053723  0.011290567            0   0.44924666    1.2159236    1.6764609   -4.9162158 
  765000   0.82365307 -4.2457859e-06   0.46324269  0.011982752            0   0.45125994    1.2045926    1.6678353    1.2330668 
  770000   0.93819258 -1.7648024e-05   0.32374643 0.0041503748            0   0.31959606    1.3721066    1.6958531  -0.11130454 
  775000   0.92251896 -2.8706687e-05   0.34233713 0.0011900665            0   0.34114706     1.349184    1.6915211   -1.2480436 
  780000   0.89342458 -3.050052e-05   0.37912428  0.004053955            0   0.37507033    1.3066335    1.6857577   -1.4374956 
  785000   0.88413349 6.0365585e-06   0.39674273  0.028284748            0   0.36845798    1.2930452     1.689788    2.3079315 
  790000   0.89052363 2.3786028e-05   0.38630349  0.018365881            0   0.36793761    1.3023908    1.6886943    4.1243836 
  795000   0.75980666 -5.9963467e-05   0.53829526  0.020011578            0   0.51828368    1.1112172    1.6495125   -4.4907465 
  800000   0.95097759 2.7176485e-05   0.27678636  0.028312836            0   0.24847353    1.3908047    1.6675911    4.4504631 
  805000   0.90934311 3.6457207e-05   0.32167886  0.019455703            0   0.30222316    1.3299143    1.6515932    5.3848111 
  810000   0.86644173 -4.5574699e-05   0.40777314 0.0079503108            0   0.39982283     1.267171    1.6749442    -2.991905 
  815000    0.8276011 8.7620718e-05    0.5050033  0.038242615            0   0.46676069    1.2103666    1.7153699    10.687731 
  820000   0.88512642 9.7012434e-05   0.42039305  0.053292297            0   0.36710075    1.2944974    1.7148904    11.648964 
  825000   0.96820489 6.8687104e-05   0.28676339  0.019660188            0    0.2671032    1.4159996     1.702763    8.7363224 
  830000   0.81581409 -8.7722757e-07   0.46978314 0.0025743552            0   0.46720879    1.1931281    1.6629113    1.5730832 
  835000   0.85057338 -4.5992781e-05   0.40863633 0.0013550839            0   0.40728125    1.2439636    1.6525999   -3.0570608 
  840000   0.89604197 6.9930273e-05   0.37279657 0.0011416397            0   0.37165493    1.3104614    1.6832579    8.8441179 
  845000   0.89312627 -3.4043527e-05    0.3980861 0.0014062937            0    0.3966798    1.3061972    1.7042833   -1.7817739 
  850000    0.8775696 -1.5762089e-05    0.4298058 0.0029632547            0   0.42684255    1.2834455    1.7132513  0.099213434 
  855000   0.91276476 7.5802475e-05   0.40445533 0.0062040515            0   0.39825128    1.3349185    1.7393738    9.5015472 
  860000   0.86970611 -1.787677e-05   0.50625308  0.027669829            0   0.47858325    1.2719452    1.7781983 -0.052383018 
  865000   0.94485487 -3.0954422e-05   0.40176718  0.030103211            0   0.37166396    1.3818503    1.7836174   -1.3861153 
  870000   0.98593909 6.1063039e-05   0.38404151  0.005623626            0   0.37841788    1.4419359    1.8259774    8.0788326 
  875000   0.99097785 -1.9182318e-06   0.41263421 0.0081738979            0   0.40446031    1.4493051    1.8619393    1.6655124 
  880000   0.95943957 -7.7649174e-05   0.50922447  0.034980362            0   0.47424411    1.4031804    1.9124048   -6.0388706 
  885000   0.97635266 1.2764505e-05   0.50814262  0.011304141            0   0.49683848    1.4279158    1.9360584    3.2431437 
  890000   0.99841534 4.8653372e-05   0.49978195 0.0042583433            0   0.49552361    1.4601824    1.9599644    6.9420697 
  895000    1.0736244 -3.4872688e-05   0.34378421  0.022846821            0   0.32093738    1.5701756    1.9139598   -1.6570034 
  900000   0.86013719 -4.5459248e-05   0.65308913  0.073615995            0   0.57947314    1.2579506    1.9110398   -2.7439873 
  905000   0.97534281 -5.7949455e-06   0.49774867  0.095886789            0   0.40186188    1.4264389    1.9241875    1.3307851 
  910000   0.92825111 -2.5156415e-05   0.56777746  0.027600662            0    0.5401768    1.3575672    1.9253447  -0.65067215 
  915000     1.020225 9.8596961e-06   0.43191674  0.021723471            0   0.41019327    1.4920791    1.9239958    2.9336287 
  920000    1.0483816 6.3939674e-05   0.38217885 0.0067685706            0   0.37541028    1.5332581    1.9154369    8.4628596 
  925000   0.92524924 6.8296835e-05     0.579051  0.039804309            0   0.53924669     1.353177     1.932228    8.9258239 
  930000    1.0008514 -4.1829508e-06   0.46567548  0.034688249            0   0.43098723    1.4637452    1.9294207    1.5010866 
  935000   0.96965047 -3.0739641e-05   0.47077936 0.0002648793            0   0.47051448    1.4181138    1.8888932   -1.2588461 
  940000    1.0464048 -3.888572e-05   0.35798043 0.00067409099            0   0.35730634    1.5303671    1.8883475   -2.0935502 
  945000    0.9589113 -5.3033826e-05   0.51629544 0.0039942109            0   0.51230123    1.4024078    1.9187032   -3.5119605 
  950000    1.1191344 -9.4781256e-06   0.32041882 0.0085261799            0   0.31189264    1.6367341    1.9571529   0.98659287 
  955000   0.96963017 5.3032516e-05   0.56423741 0.0058542607            0   0.55838315    1.4180841    1.9823215    7.4128511 
  960000     1.016958 -3.6865004e-05   0.48335861  0.026819855            0   0.45653875    1.4873011    1.9706597   -1.8043167 
  965000     1.061694 -5.3203151e-05   0.43311776 0.0060386844            0   0.42707908    1.5527275    1.9858452   -3.4621575 
  970000    1.0539036 8.7626502e-06   0.49542561 0.0053129672            0   0.49011265     1.541334    2.0367597     2.934055 
  975000   0.99537385 -5.4182208e-05   0.57071945  0.018816035            0   0.55190341    1.4557343    2.0264537   -3.5218044 
  980000    1.1185581 -1.8213565e-05   0.39114713  0.011400949            0   0.37974618    1.6358912    2.0270383   0.16196922 
  985000    1.0764034 3.5203239e-05   0.46105868  0.012281604            0   0.44877707      1.57424    2.0352986    5.6401103 
  990000   0.94780723 -3.3638959e-05   0.61931997  0.050527258            0   0.56879271    1.3861681     2.005488   -1.4391413 
  995000    1.1214253 -2.4429241e-05   0.39020987  0.020629552            0   0.36958031    1.6400845    2.0302944  -0.47125988 
 1000000    1.0452706 4.9670438e-05   0.49409351 0.0077464676            0   0.48634704    1.5287082    2.0228017    7.1090545 
 1005000   0.98086393 7.7317054e-05   0.61747087  0.033974173            0   0.58349669    1.4345135    2.0519844    9.9692507 
 1010000      1.09066 1.9362969e-05   0.44261687  0.011926036            0   0.43069083    1.5950902    2.0377071    4.0204751 
 1015000    1.1562908 -5.979635e-05   0.31890237            0            0   0.31890237    1.6910753    2.0099776   -4.1131686 
 1020000    1.0154495 -3.0535358e-05   0.49085555            0            0   0.49085555    1.4850948    1.9759504   -1.1508703 
 1025000     1.076568 2.4995165e-05   0.34053228  0.048953265            0   0.29157902    1.5744806    1.9150129    4.4745178 
 1030000   0.99959665 -1.2893019e-05   0.46712327    0.0785606            0   0.38856267    1.4619101    1.9290334    0.6087882 
 1035000    1.0911767 2.0295167e-05   0.36782628  0.016090596            0   0.35173569     1.595846    1.9636722    4.0418973 
 1040000    1.0360158 4.8132654e-05   0.41841419  0.054771739            0   0.36364245    1.5151731    1.9335873     6.862371 
 1045000   0.98811421 -2.8630798e-05    0.4748395  0.080350152            0   0.39448934     1.445117    1.9199565   -1.0118372 
 1050000     1.038602 -4.6874254e-05   0.40522408  0.024324842            0   0.38089923    1.5189555    1.9241795   -2.8757441 
 1055000    0.9675516 5.4838284e-05   0.54265594 0.0074196971            0   0.53523624    1.4150442    1.9577002    7.5731404 
 1060000    1.0569539 2.3953978e-05   0.40896619 0.0091323179            0   0.39983387    1.5457951    1.9547613    4.4076486 
 1065000    1.1366081 -5.6951662e-05   0.28529322 0.0087033692            0   0.27658985    1.6622893    1.9475825   -3.8842677 
 1070000   0.89703229 -5.4240689e-05   0.62195454  0.056931449            0   0.56502309    1.3119097    1.9338643   -3.6203823 
 1075000   0.90671269 1.2789023e-05   0.59287559  0.053519165            0   0.53935643    1.3260673    1.9189429    3.2285389 
 1080000   0.96165041 7.8693819e-05   0.50943957  0.014406324            0   0.49503325    1.4064137    1.9158533    9.9741004 
 1085000    1.0331691 1.0887824e-05   0.39620044 0.00086043387            0      0.39534    1.5110098    1.9072102    3.0221234 
 1090000    1.0170259 -4.032667e-05   0.45034844  0.020309964            0   0.43003847    1.4874004    1.9377489   -2.1917021 
 1095000   0.98968329 7.3638874e-05   0.47089064  0.076767849            0   0.39412279    1.4474118    1.9183024    9.4589232 
 1100000    1.0784613 -3.5709855e-06   0.30837039  0.048756802            0   0.25961358    1.5772496      1.88562    1.5199511 
 1105000   0.91961786 -0.0001369856   0.53654355 0.0062992216            0   0.53024433    1.3449411    1.8814847   -12.145841 
 1110000   0.99562963 -1.0398759e-05   0.46001729            0            0   0.46001729    1.4561083    1.9161256    0.8512927 
 1115000    1.0092462 5.860645e-06   0.46207588 0.00092640845            0   0.46114947    1.4760225    1.9380984    2.5382284 
 1120000    1.0488678 6.725696e-05   0.42055801 0.0043571491            0   0.41620087    1.5339692    1.9545272    8.8416399 
 1125000    1.0148284 -4.3818934e-05   0.47986555  0.005195839            0   0.47466971    1.4841865    1.9640521   -2.5230068 
 1130000    1.0311817 -8.6904529e-05   0.39478313 0.00032988358            0   0.39445324    1.5081033    1.9028864   -6.9961373 
 1135000    1.0128729 -2.2337191e-06   0.40043239            0            0   0.40043239    1.4813266     1.881759    1.6530261 
 1140000   0.93433443 -3.5867871e-05   0.55021592 0.00061913531            0   0.54959678    1.3664641      1.91668     -1.75619 
 1145000    1.1008666 4.7456642e-05   0.31624516  0.039391322            0   0.27685384    1.6100173    1.9262625    6.7858226 
 1150000   0.99922038 -1.3220878e-05   0.50196324  0.058964254            0   0.44299899    1.4613598     1.963323   0.60950512 
 1155000    1.0909707 3.6230492e-05   0.38510586   0.04211876            0    0.3429871    1.5955446    1.9806505    5.6906529 
 1160000    1.0083335 5.0819695e-05   0.50182206  0.019733399            0   0.48208866    1.4746878    1.9765098    7.1804466 
 1165000    1.0379661 -9.1469865e-05   0.45717546  0.012385245            0   0.44479022    1.5180254    1.9752009   -7.3913133 
 1170000     1.054135 -9.0589876e-05   0.43229024 0.0046685272            0   0.42762171    1.5416724    1.9739626   -7.3024406 
 1175000    1.0836619 -1.2557788e-05   0.38868257  0.060013975            0   0.32866859    1.5848555    1.9735381   0.68762063 
 1180000   0.97017747 3.1358208e-05   0.53430286  0.043521796            0   0.49078106    1.4188846    1.9531874     5.164268 
 1185000    1.1036858 1.7532477e-05   0.34617032   0.03945235            0   0.30671797    1.6141404    1.9603108    3.7556364 
 1190000   0.93505327 -7.2238019e-05   0.58072622  0.099579882            0   0.48114634    1.3675154    1.9482416   -5.4489315 
 1195000    1.0485328 -5.3831357e-05     0.429859 0.0052575486            0   0.42460145    1.5334793    1.9633383   -3.5489927 
 1200000    1.1499439 9.0954748e-05   0.32343206 0.0038897179            0   0.31954234     1.681793    2.0052251    11.318991 
 1205000    1.1091953 9.529115e-05   0.40193159  0.017074053            0   0.38485754    1.6221981    2.0241297    11.781943 
 1210000    1.1199668 -6.6395689e-05   0.36241344  0.024342976            0   0.33807046    1.6379514    2.0003648   -4.7985537 
 1215000   0.91207453 -9.0066828e-05    0.6246573  0.016540936            0   0.60811636     1.333909    1.9585663   -7.2642769 
 1220000     1.091387 3.6325664e-05   0.38472349   0.02316933            0   0.36155416    1.5961535     1.980877     5.700625 
 1225000   0.96480851 0.0001193409   0.54166622  0.069000838            0   0.47266538    1.4110324    1.9526987    14.173206 
 1230000    1.0295635 4.4111452e-05   0.43221598  0.054360153            0   0.37785583    1.5057366    1.9379526    6.4549652 
 1235000   0.97932948 -2.4685882e-05   0.56390148   0.03889766            0   0.52500382    1.4322694    1.9961708   -0.5316635 
 1240000   0.93615309 1.0452985e-05   0.61186595  0.071392479            0   0.54047347    1.3691239    1.9809898    3.0513755 
 1245000      1.09519 -1.5767709e-05   0.40023736   0.02967184            0   0.37056552    1.6017154    2.0019528   0.38733941 
 1250000    1.0927106 -2.6887452e-05   0.44526985  0.015953014            0   0.42931684    1.5980893    2.0433591  -0.70991597 
 1255000    1.1025051 1.5218602e-05   0.46794552  0.042471943            0   0.42547358    1.6124137    2.0803592    3.6387441 
 1260000    1.0566639 -1.7612305e-05   0.49819561  0.095544299            0   0.40265131    1.5453709    2.0435665   0.24006647 
 1265000   0.94946299 -8.9457225e-06   0.61026346   0.06793482            0   0.54232864    1.3885896    1.9988531    1.0828111 
 1270000    0.9584181 -1.6718718e-05   0.59017999   0.16227934            0   0.42790065    1.4016865    1.9918665   0.27986977 
 1275000    1.0997857 4.8553095e-06    0.3810396 0.0058247257            0   0.37521488    1.6084365    1.9894761    2.4866598 
 1280000    1.0561701 2.758187e-05   0.43162535            0            0   0.43162535    1.5446488    1.9762741    4.8006576 
 1285000    1.0256203 -4.8977312e-05    0.4511048            0            0    0.4511048    1.4999697    1.9510745   -3.0642022 
 1290000    1.0917786 4.7422068e-05   0.40101841            0            0   0.40101841    1.5967262    1.9977446    6.8537644 
 1295000    1.0597403 5.412254e-05   0.43877836 0.0069678181            0   0.43181054    1.5498702    1.9886486    7.5307966 
 1300000   0.94559086 -2.3250006e-05   0.58663307  0.025921602            0   0.56071147    1.3829266    1.9695597  -0.41124091 
 1305000    1.1365576 3.0118903e-05   0.33742019  0.014661658            0   0.32275853    1.6622155    1.9996357    5.0838114 
 1310000   0.97974414 4.4647542e-05   0.55669419  0.010830553            0   0.54586363    1.4328758      1.98957    6.5614783 
 1315000    1.0854115 -4.0640014e-05   0.38254377   0.01428746            0   0.36825631    1.5874143     1.969958   -2.1915794 
 1320000    1.0332044 -1.8317597e-05   0.44790497  0.018773904            0   0.42913106    1.5110615    1.9589665  0.083244481 
 1325000   0.89727149 8.3848133e-05   0.62939391  0.053192025            0   0.57620188    1.3122595    1.9416535    10.527702 
 1330000   0.97647534 -1.3766721e-05   0.50024822  0.051870427            0   0.44837779    1.4280952    1.9283434   0.51863119 
 1335000    0.9782079  2.03408e-05   0.50227439  0.004198532            0   0.49807586    1.4306291    1.9329034    4.0158014 
 1340000    1.0332544 1.5491867e-05   0.42380657  0.016721407            0   0.40708517    1.5111346    1.9349411    3.5213083 
 1345000   0.94291079 -4.3936473e-05   0.56246886  0.021245311            0   0.54122355     1.379007    1.9414759    -2.557619 
 1350000    1.0308931 4.3825502e-05   0.40267235   0.03072472            0   0.37194763    1.5076812    1.9103535    6.3980849 
 1355000    1.0042055 7.3048323e-05   0.49935665  0.042428047            0    0.4569286    1.4686506    1.9680073    9.4481555 
 1360000   0.98093728 1.945237e-05    0.5121378  0.026757344            0   0.48538045    1.4346208    1.9467586    3.9386813 
 1365000    1.0239385 5.0633698e-05   0.41493219 0.0064065144            0   0.40852568      1.49751    1.9124422    7.0973329 
 1370000   0.94034564 -7.7580144e-07   0.51876476  0.004922622            0   0.51384214    1.3752555    1.8940203    1.8145782 
 1375000    1.0584048 -4.6861214e-05   0.36821139 0.0011490422            0   0.36706235     1.547917    1.9161284   -2.8824599 
 1380000     1.026272 -2.9597478e-06   0.42548249 2.3749887e-06            0   0.42548012    1.5009228    1.9264053    1.6233271 
 1385000    1.0212214 -6.6103078e-06   0.40692821  0.011694515            0   0.39523369    1.4935363    1.9004645    1.2235689 
 1390000   0.93063948 -5.8812333e-05   0.56129878  0.033783327            0   0.52751545    1.3610602     1.922359   -4.1000239 
 1395000    1.0048603 2.3303595e-05   0.43887411  0.005685511            0    0.4331886    1.4696083    1.9084824    4.2947705 
 1400000   0.97981041 9.842993e-05   0.44750554 0.0029913586            0   0.44451418    1.4329727    1.8804783    11.959703 
 1405000   0.96083499 -1.1559526e-05   0.45082188 0.0095832674            0   0.44123861    1.4052212    1.8560431   0.67234758 
 1410000   0.96732393 -4.0413793e-05   0.43506881  0.013895638            0   0.42117317    1.4147112    1.8497801   -2.2885923 
 1415000    0.9584334 3.0504617e-05   0.43055656  0.025436135            0   0.40512043    1.4017089    1.8322654    4.9559382 
 1420000   0.95576207  7.35912e-06   0.42995481  0.038807809            0     0.391147     1.397802    1.8277568    2.5813307 
 1425000    1.0252678 -8.3974861e-05   0.34253598  0.018549616            0   0.32398636    1.4994541    1.8419901   -6.7570357 
 1430000   0.90892968 -7.6860375e-05   0.51568715 0.0053226822            0   0.51036447    1.3293097    1.8449968   -6.0255056 
 1435000   0.97151785 1.8899988e-05   0.41716649 0.0061140925            0   0.41105239    1.4208448    1.8380113    3.7733702 
 1440000   0.90120307 9.7718458e-05   0.48269375  0.013398012            0   0.46929574    1.3180095    1.8007032    11.807073 
 1445000   0.94605604 5.1586761e-05   0.45127291   0.01833501            0    0.4329379     1.383607    1.8348799    7.1173642 
 1450000   0.97660003 -4.396548e-05   0.44429658  0.032693269            0   0.41160331    1.4282775    1.8725741    -2.629491 
 1455000   0.96437541 -3.590068e-05   0.53733791  0.027608531            0   0.50972938     1.410399     1.947737   -1.7284927 
 1460000   0.97457851 -1.6540655e-05   0.52464437  0.048805184            0   0.47583919    1.4253211    1.9499654   0.25620236 
 1465000    1.0327407 -3.4421713e-05   0.48918208  0.054338439            0   0.43484364    1.5103833    1.9995654    -1.525218 
 1470000    1.0855298 -9.5186815e-05   0.45085544  0.027292523            0   0.42356292    1.5875874    2.0384428    -7.708687 
 1475000    1.0411432 -7.063138e-05   0.54633183 0.0039969314            0    0.5423349     1.522672    2.0690038   -5.1636495 
 1480000     1.175781 9.5781689e-05   0.38898142 0.00013099499            0   0.38885042    1.7195798    2.1085612    11.916606 
 1485000    1.1033701 0.00011984302   0.51143301  0.002632339            0   0.50880067    1.6136788    2.1251118    14.397038 
 1490000    1.1087611 -5.6695001e-06   0.48272074    0.0205652            0   0.46215554    1.6215632    2.1042839    1.5237271 
 1495000    1.0958316 4.1882394e-05   0.50704248  0.016965355            0   0.49007713    1.6026538    2.1096962    6.3984534 
 1500000    1.1895639 3.410144e-05   0.39866643  0.016241183            0   0.38242524    1.7397372    2.1384036    5.6303911 
 1505000    1.1585342 3.5870421e-06   0.42612673  0.025679273            0   0.40044745    1.6943562    2.1204829     2.487796 
 1510000    1.0845396 3.2926394e-05     0.544036  0.030179767            0   0.51385623    1.5861392    2.1301752     5.501838 
 1515000    1.0802353 -0.00010485439   0.56728035  0.072248762            0   0.49503159    1.5798441    2.1471244   -8.5899652 
 1520000    1.1978435 -2.5473457e-05   0.44501973  0.031587951            0   0.41343177    1.7518461    2.1968659  -0.41161617 
 1525000    1.2436122 -5.6957459e-06    0.3369828 0.0057933801            0   0.33118942    1.8187828    2.1557656    1.5725212 
 1530000    1.0652846 -3.4736524e-05   0.63373996 0.0021268872            0   0.63161307    1.5579787    2.1917187   -1.3653014 
 1535000     1.192795 3.5613874e-05     0.471461  0.016041934            0   0.45541907    1.7444628    2.2159238    5.8627845 
 1540000    1.1671833 -3.6212055e-05   0.50236321  0.074846581            0   0.42751663    1.7070056    2.2093688   -1.4987456 
 1545000    1.1930973 -9.5858243e-05   0.45814929  0.036701844            0   0.42144744    1.7449047     2.203054     -7.61283 
 1550000    1.1820585 -4.4922952e-05   0.44042015  0.012002681            0   0.42841747    1.7287605    2.1691807   -2.4309296 
 1555000     1.158242 6.2251451e-05   0.46203352  0.022664084            0   0.43936944     1.693929    2.1559625    8.5305111 
 1560000    1.0528757 0.00015165292   0.62790151  0.054156076            0   0.57374544    1.5398308    2.1677323    17.696992 
 1565000    1.1544376 6.9675869e-05   0.48435623  0.030232184            0   0.45412405    1.6883651    2.1727213    9.3075303 
 1570000    1.1080862 4.4581046e-05   0.57253577  0.024887314            0   0.54764845    1.6205761    2.1931118     6.758211 
 1575000    1.1876947 9.8718407e-05   0.44089139   0.03205093            0   0.40884046    1.7370035    2.1778949     12.28666 
 1580000    1.2024825 0.00010775756   0.41994553  0.018979833            0    0.4009657    1.7586306    2.1785761     13.21295 
 1585000    1.2325637 -1.0618707e-05   0.37332881 0.0011082014            0    0.3722206    1.8026245    2.1759533    1.0885977 
 1590000     1.078426 -0.00015128059   0.54638815            0            0   0.54638815    1.5771981    2.1235862   -13.367546 
 1595000    1.0674594 -0.00016354768   0.59818105 0.0010274428            0   0.59715361    1.5611594    2.1593405   -14.587941 
 1600000    1.2036356 -2.9559336e-05   0.36302018  0.022806369            0   0.34021381    1.7603171    2.1233373  -0.90353875 
 1605000    1.0780064 8.6003861e-05   0.52391448  0.022484596            0   0.50142989    1.5765844    2.1004989    10.907294 
 1610000    1.1235993 3.2220096e-05   0.45669297 0.0012711602            0   0.45542181     1.643264     2.099957    5.3992948 
 1615000     1.175828 -3.6859543e-05   0.38304299 0.0068707321            0   0.37617226    1.7196484    2.1026914   -1.6717257 
 1620000    1.0902961 -6.8211068e-05   0.47760856  0.017455985            0   0.46015258     1.594558    2.0721666   -4.9126468 
 1625000    1.0508903 -4.6480148e-05   0.51258351  0.051922465            0   0.46066105    1.5369271    2.0495106   -2.7100566 
 1630000    1.0166044 2.9108909e-05   0.59505514   0.11862233            0   0.47643281     1.486784    2.0818391    5.0625914 
 1635000     1.083001 5.9498536e-06    0.4741311  0.062064855            0   0.41206624     1.583889    2.0580201    2.6672851 
 1640000   0.99104355 -4.3868218e-05   0.58900199  0.088815371            0   0.50018661    1.4494012    2.0384032   -2.4537024 
 1645000    1.0093887 -1.4355959e-05   0.58989473  0.050547958            0   0.53934677     1.476231    2.0661257   0.59607555 
 1650000    1.1267466 5.452382e-05   0.43554247  0.038581125            0   0.39696134     1.647867    2.0834094    7.6666486 
 1655000    1.0772291 2.2972901e-05    0.5132026  0.026336479            0   0.48686612    1.5754476    2.0886502    4.4410753 
 1660000   0.99842643 5.9536547e-05   0.61376689   0.02616583            0   0.58760106    1.4601987    2.0739655    8.1705079 
 1665000    1.1738235 -2.6577089e-05   0.42347885 0.0034705826            0   0.42000827    1.7167168    2.1401957  -0.58129827 
 1670000    1.1639537 5.0101689e-06   0.47372087 0.0099655961            0   0.46375527    1.7022823    2.1760032    2.6890444 
 1675000    1.0845592 6.6989503e-05   0.63443874  0.023565138            0    0.6108736    1.5861678    2.2206065    9.0803316 
 1680000    1.1639357 -4.6749842e-05   0.51501257   0.02318225            0   0.49183032     1.702256    2.2172686   -2.5699153 
 1685000    1.1736879 -4.2759499e-05    0.5249322  0.020230266            0   0.50470193    1.7165186    2.2414508    -2.137122 
 1690000    1.1031738 -3.4475349e-05   0.59349352 0.0087884553            0   0.58470506    1.6133916    2.2068852   -1.3233906 
 1695000    1.1689316 -9.7386892e-05   0.48869747 0.0052700184            0   0.48342746    1.7095624    2.1982599   -7.7741579 
 1700000    1.2209176 7.2272831e-05   0.37825889  0.019605101            0   0.35865379     1.785592    2.1638509    9.5645888 
 1705000    1.1015532 6.5804838e-05   0.59330538  0.045573614            0   0.54773177    1.6110215    2.2043269    8.9427423 
 1710000     1.141596 8.8204213e-05   0.53814161   0.03972635            0   0.49841526    1.6695842    2.2077258    11.239837 
 1715000    1.1588201 1.1722532e-05   0.45094921  0.016750877            0   0.43419833    1.6947744    2.1457236    3.3461108 
 1720000     1.164294 -9.8038956e-06   0.41937506 0.0014362506            0   0.41793881    1.7027799     2.122155    1.1182361 
 1725000    1.1595959 9.6642998e-06   0.44879912 0.0015357829            0   0.44726334    1.6959091    2.1447082    3.1343325 
 1730000    1.0409995 4.7469717e-05   0.62519466  0.032708505            0   0.59248616    1.5224618    2.1476565    7.0085555 
 1735000    1.1222277 -4.4935112e-05   0.49449541  0.079179264            0   0.41531614     1.641258    2.1357534    -2.465602 
 1740000    1.0321096 5.2566277e-05     0.637934  0.063206609            0   0.57472739    1.5094603    2.1473943    7.5301811 
 1745000     1.037959 2.8818272e-05   0.64047627   0.06481357            0    0.5756627    1.5180151    2.1584913    5.1094824 
 1750000    1.0972035 1.8961366e-05    0.5556456  0.037786586            0   0.51785901    1.6046602    2.1603058    4.1019496 
 1755000    1.1699851 -7.9253541e-05   0.46868316  0.019503306            0   0.44917985    1.7111032    2.1797864   -5.9357762 
 1760000    1.0977935 -0.00013007556   0.65324848   0.14481257            0   0.50843591     1.605523    2.2587715   -11.060966 
 1765000    1.0764102 -2.222674e-05   0.59600006  0.089012108            0   0.50698795    1.5742498    2.1702499  -0.10576823 
 1770000    1.0754162 9.8867968e-06   0.57588851  0.064058846            0   0.51182966    1.5727962    2.1486847    3.1610927 
 1775000    1.1126074 4.5260625e-05   0.48270013  0.025240954            0   0.45745917    1.6271883    2.1098885    6.7445765 
 1780000   0.93812173 6.2490852e-05   0.75308826  0.002936736            0   0.75015153     1.372003    2.1250913    8.5241546 
 1785000    1.0305695 7.6401133e-05   0.61063933 0.0032981828            0   0.60734114    1.5072079    2.1178472    9.9413232 
 1790000    1.1880758 6.493827e-05   0.36700336   0.01569928            0   0.35130408    1.7375609    2.1045642    8.7542431 
 1795000    1.1529301 -1.7423677e-05   0.42418001  0.055689398            0   0.36849061    1.6861603    2.1103403   0.32615578 
 1800000    1.0051848 -5.3548956e-05   0.61012463   0.09425771            0   0.51586692    1.4700828    2.0802075   -3.4032056 
 1805000    1.1080796 -7.0968472e-06   0.46824499   0.08007043            0   0.38817456    1.6205665    2.0888115    1.3620943 
 1810000     1.108024 2.4937562e-05   0.48699934  0.059667268            0   0.42733207    1.6204851    2.1074844    4.6610908 
 1815000    1.0995712 3.3905573e-06   0.49867967  0.028634243            0   0.47004542    1.6081229    2.1068026    2.4539956 
 1820000    1.2301485 4.254672e-05   0.33395243 0.0089282908            0   0.32502414    1.7990922    2.1330446    6.4898287 
 1825000    1.1142445 4.5918615e-05   0.43532741 0.0091899257            0   0.42613748    1.6295825      2.06491    6.7669761 
 1830000    1.1034474 -9.1626138e-06   0.43353866  0.023225246            0   0.41031341    1.6137918    2.0473305    1.1090788 
 1835000    1.0646678 -7.7810167e-05    0.4449088  0.037649278            0   0.40725952    1.5570767    2.0019855   -5.9657756 
 1840000   0.99702964 2.1082873e-05   0.54669508  0.081062486            0   0.46563259    1.4581558    2.0048509    4.1637371 
 1845000    1.0781296 7.3057665e-05   0.42354853  0.048914544            0   0.37463398    1.5767645    2.0003131     9.481418 
 1850000    1.0094963 -7.1098207e-05   0.55229216  0.013889861            0    0.5384023    1.4763883    2.0286805   -5.2517759 
 1855000    1.0607254 -5.3012099e-06   0.50249831 0.0083479215            0   0.49415039    1.5513109    2.0538092    1.5109653 
 1860000    0.9755762 -3.3966645e-05   0.63229061 0.0015050302            0   0.63078558    1.4267802    2.0590708   -1.4191137 
 1865000    1.1775582 -4.4913383e-05   0.32867813 0.00060195439            0   0.32807617    1.7221789     2.050857   -2.5482734 
 1870000    1.1474925 3.7006383e-05   0.39115207 0.0045121934            0   0.38663987    1.6782077    2.0693598    5.8588134 
 1875000    1.1077032 4.5045264e-05   0.47976098  0.033520885            0   0.44624009     1.620016     2.099777     6.712412 
 1880000    1.0665333 7.3056853e-05   0.48139567   0.04489101            0   0.43650466    1.5598049    2.0412006    9.5222223 
 1885000    1.1258361 6.5138143e-05   0.42131093  0.012938148            0   0.40837278    1.6465353    2.0678463    8.7379921 
 1890000    1.0667786 -1.0978545e-05   0.47507896  0.017382875            0   0.45769609    1.5601637    2.0352427   0.91103969 
 1895000   0.98244492 -2.3984212e-05   0.57489319  0.014827418            0   0.56006577    1.4368257    2.0117189   -0.4442644 
 1900000     1.015269 -3.0436842e-05   0.51019056  0.012373033            0   0.49781753    1.4848309    1.9950214   -1.1217112 
 1905000    1.0204231 3.216201e-05   0.51849741   0.07456755            0   0.44392986    1.4923687    2.0108662     5.304256 
 1910000   0.99704906 -6.5012373e-06    0.5673133  0.029123816            0   0.53818948    1.4581843    2.0254976    1.3597709 
 1915000    1.0522149 3.5313135e-05   0.45410761  0.014260194            0   0.43984742    1.5388643    1.9929719    5.6090369 
 1920000    1.0802472 3.0296103e-05   0.40093911  0.032456873            0   0.36848224    1.5798616    1.9808007    5.0831217 
 1925000     1.077699 2.9572427e-05   0.45110177   0.06752309            0   0.38357868    1.5761348    2.0272365     5.055453 
 1930000     1.037361 -2.0995803e-07   0.52175048  0.026845527            0   0.49490495    1.5171405    2.0388909    2.0173912 
 1935000    1.0189543 -6.5234588e-05   0.53996822            0            0   0.53996822    1.4902207    2.0301889   -4.6498329 
 1940000    1.0044414 -9.9578653e-06   0.54274201  0.030228384            0   0.51251362    1.4689955    2.0117375   0.99205212 
 1945000    1.0696669 1.3659486e-05   0.49127142    0.0507427            0   0.44052872    1.5643878    2.0556592    3.4543906 
 1950000    1.0910622 -7.9854366e-06   0.42433566  0.030022161            0    0.3943135    1.5956785    2.0200141    1.2023054 
 1955000     1.073833 -6.4720237e-05   0.46461867  0.044153795            0   0.42046488    1.5704808    2.0350994   -4.5922528 
 1960000   0.99103451 -7.5942968e-05   0.54644429  0.026817354            0   0.51962694     1.449388    1.9958323   -5.7807277 
 1965000    1.0071366 -2.0663534e-05   0.54432322 3.6020258e-05            0    0.5442872    1.4729373    2.0172606 -0.098685294 
 1970000    1.1155897 -6.9825391e-06   0.38772544 0.0080031674            0   0.37972228    1.6315499    2.0192754    1.3042634 
 1975000    1.0689033 -8.535963e-06   0.44812332  0.046049234            0   0.40207408    1.5632711    2.0113944    1.1373118 
 1980000    1.0813681 -2.0903142e-05   0.41288084   0.01420847            0   0.39867237    1.5815008    1.9943816  -0.14610012 
 1985000   0.93098681 -5.9913689e-05   0.57520605   0.01092002            0   0.56428603    1.3615682    1.9367743   -4.1983875 
 1990000    1.0709644 -7.6534634e-06   0.34767344 0.0052662048            0   0.34240724    1.5662854    1.9139589    1.1302442 
 1995000   0.97332488 3.8682846e-05   0.52671805 0.0013224904            0   0.52539556    1.4234876    1.9502057    5.9113291 
 2000000   0.93355454 -8.7260751e-06   0.57632598 0.0037251837            0   0.57260079    1.3653235    1.9416495    1.0480994 
 2005000   0.97015877 -4.8229294e-05   0.48762991  0.018741828            0   0.46888808    1.4188572    1.9064871   -3.0321926 
 2010000   0.82681182 -1.5118804e-05    0.7238787  0.056849208            0   0.66702949    1.2092123     1.933091   0.38492546 
 2015000    1.0625785 -3.2577666e-05   0.40437236  0.019490472            0   0.38488189    1.5540211    1.9583935   -1.3775596 
 2020000    1.0990682 -3.2629917e-06    0.3676681  0.016825591            0    0.3508425    1.6073872    1.9750553     1.640925 
 2025000     1.032318 2.3557867e-05   0.49238295   0.01381446            0   0.47856849     1.509765     2.002148    4.4144736 
 2030000   0.92028321 -3.0872042e-05   0.64410355  0.001260328            0   0.64284322    1.3459142    1.9900177   -1.1712794 
 2035000    1.0953148 -4.5686069e-05   0.39114164 0.0032578266            0   0.38788382    1.6018979    1.9930396   -2.6852139 
 2040000    1.0341697 -2.7885542e-06   0.45718969  0.024868237            0   0.43232146    1.5124731    1.9696628    1.6841149 
 2045000    0.9909268 3.8256466e-05   0.51920569  0.034669086            0    0.4845366    1.4492304    1.9684361    5.8858982 
 2050000    1.0246193 5.5634642e-05   0.51688844  0.013262654            0   0.50362578    1.4985057    2.0153941    7.7123814 
 2055000    1.1039082 -7.7633327e-06   0.43045887 0.0042983183            0   0.42616055    1.6144658    2.0449246    1.2499594 
 2060000    1.0636135 -3.736867e-05   0.51782605  0.025363841            0   0.49246221    1.5555347    2.0733608   -1.7531911 
 2065000    1.0329807 3.6755441e-05   0.57642229     0.046512            0   0.52991029    1.5107343    2.0871566    5.8509137 
 2070000   0.97090341 5.2980364e-05   0.65279351  0.046973911            0    0.6058196    1.4199462    2.0727397     7.497929 
 2075000    1.1298897 3.1973029e-05   0.39795093  0.022056888            0   0.37589405    1.6524637    2.0504147    5.3244528 
 2080000    1.0622066 1.8324754e-05     0.458195 0.0036623845            0   0.45453262    1.5534771    2.0116721    3.8881269 
 2085000    1.0275732 2.278871e-05   0.49840888 0.0032151907            0   0.49519369    1.5028259    2.0012347    4.3347986 
 2090000    1.0816924 4.5232886e-05   0.41278851    0.0086031            0   0.40418541    1.5819751    1.9947636    6.6266112 
 2095000   0.93935686 1.0186175e-05   0.63373443  0.018432199            0   0.61530224    1.3738094    2.0075438    3.0506082 
 2100000    1.1842256 5.5413378e-06   0.34174121  0.010612387            0   0.33112883    1.7319299    2.0736712    2.6411041 
 2105000    1.0457304 -4.2329608e-05   0.51872234 0.0060552422            0    0.5126671    1.5293807    2.0481031   -2.2864488 
 2110000    1.0032653 -5.1779054e-05   0.54613378  0.024623507            0   0.52151028    1.4672755    2.0134092   -3.2887658 
 2115000    1.0452524 -7.3898564e-05   0.50088873  0.012189145            0   0.48869958    1.5286817    2.0295704   -5.5376426 
 2120000    1.1087322 -3.6400705e-05   0.40030816 0.0030440134            0   0.39726414    1.6215208    2.0218289   -1.7056033 
 2125000    1.1224687 5.3292901e-05   0.37741731  0.034419604            0   0.34299771    1.6416105    2.0190279     7.476221 
 2130000   0.93908367 2.0605401e-05   0.64095246  0.043161307            0   0.59779115    1.3734099    2.0143623    4.1243554 
 2135000   0.94624028 9.4460344e-06   0.64481448  0.073101743            0   0.57171274    1.3838764    2.0286909    2.9959648 
 2140000    1.1117384 7.4335748e-06   0.35127757  0.025715751            0   0.32556182    1.6259174     1.977195    2.7383931 
 2145000   0.96236076 1.1553646e-05   0.53486843   0.06373726            0   0.47113117    1.4074526     1.942321    3.1254144 
 2150000    1.0453325 -3.9570596e-06   0.44568028   0.02373348            0    0.4219468    1.5287987     1.974479    1.5692761 
 2155000    1.0242137 -3.4598283e-05    0.4441226   0.03086082            0   0.41326178    1.4979125    1.9420351   -1.6008291 
 2160000   0.97480071 -2.3592973e-05   0.49157523   0.01727557            0   0.47429966     1.425646    1.9172213  -0.49869914 
 2165000   0.91940189 -1.3869938e-05     0.566378 0.0021105037            0   0.56426749    1.3446253    1.9110033   0.49072164 
 2170000    1.0205323 1.0167988e-05    0.4504037 0.0085080095            0   0.44189569    1.4925284    1.9429321    2.9841341 
 2175000    1.0916406 3.9037467e-05   0.38601337  0.018733569            0    0.3672798    1.5965243    1.9825377    5.9799743 
 2180000     1.081599 7.9697923e-05   0.40417421  0.020878968            0   0.38329524    1.5818386    1.9860128     10.14708 
 2185000   0.96535634 9.9087432e-05   0.59039678  0.012176566            0   0.57822021    1.4118336    2.0022304    12.148783 
 2190000     1.038081 0.00010004785   0.46043416   0.03409705            0   0.42633711    1.5181935    1.9786276    12.223527 
 2195000    1.0446597 5.4634113e-05   0.47360154  0.024127849            0   0.44947369    1.5278148    2.0014164    7.5959495 
 2200000    1.1648538 -2.2580374e-06   0.32515472  0.022627243            0   0.30252748    1.7035987    2.0287534    1.7975304 
 2205000    1.0005378 4.0078296e-05   0.60283237 0.0084957924            0   0.59433658    1.4632865    2.0661188    6.1701364 
 2210000    1.0772894 1.4806042e-05   0.45222176  0.032631953            0   0.41958981    1.5755358    2.0277576    3.5438963 
 2215000    1.0698637 -1.6179849e-05   0.49909537  0.034426801            0   0.46466856    1.5646757     2.063771    0.4069545 
 2220000    1.0639525 4.4732833e-05   0.49933032  0.052073725            0   0.44725659    1.5560306    2.0553609     6.636003 
 2225000   0.99174805 4.2582946e-05   0.57089586  0.065319959            0   0.50557591    1.4504315    2.0213274     6.381821 
 2230000    1.0291665 6.3167675e-05   0.45854313  0.037675333            0    0.4208678    1.5051559    1.9636991     8.432069 
 2235000    1.0725496 2.8914986e-05   0.41306734  0.042458694            0   0.37060865    1.5686038    1.9816712    4.9425658 
 2240000    1.0457554 7.416278e-05   0.43827929  0.017303327            0   0.42097596    1.5294173    1.9676965    9.5619652 
 2245000    1.0921523 -7.8612145e-07   0.38102565 0.0063763244            0   0.37464933    1.5972727    1.9782984    1.8977995 
 2250000     1.115397 -2.3206993e-05   0.35904458 0.00042740848            0   0.35861717    1.6312681    1.9903127  -0.38608338 
 2255000    1.1122054 -5.204041e-05     0.408431            0            0     0.408431    1.6266004    2.0350314   -3.2939066 
 2260000    1.1595682 -4.4055305e-05   0.38474734 0.00091665368            0   0.38383069    1.6958685    2.0806158   -2.4306475 
 2265000    1.1316274 1.4566103e-05   0.38356983  0.021901498            0   0.36166834    1.6550051     2.038575    3.5301439 
 2270000    1.0412115 7.6829171e-05   0.47926304  0.030695527            0   0.44856752    1.5227718    2.0020348    9.8693419 
 2275000     1.065454 7.9222142e-05   0.46719808  0.015107989            0    0.4520901    1.5582265    2.0254246    10.137772 
 2280000    1.0505354 6.1593209e-05    0.5058237  0.015542912            0   0.49028079    1.5364081    2.0422318    8.3493764 
 2285000    1.0859641 4.0997067e-05   0.47359184  0.058304563            0   0.41528728    1.5882224    2.0618143     6.259914 
 2290000    1.1197516 -8.5710535e-05   0.39311192  0.053441384            0   0.33967053    1.6376367    2.0307486   -6.7460102 
 2295000     1.061516 -8.1717647e-05   0.47101869  0.014397717            0   0.45662097    1.5524671    2.0234858   -6.3444012 
 2300000    1.0386556 -4.134154e-05   0.47836438 0.0022897409            0   0.47607464    1.5190338    1.9973982   -2.2359756 
 2305000   0.97451408 4.2099143e-05   0.51471319 0.00032529727            0    0.5143879    1.4252268      1.93994    6.2508922 
 2310000    1.0493197 6.6494751e-05   0.41846437 0.0009531519            0   0.41751121      1.53463    1.9530944    8.7621569 
 2315000    1.1420581 -1.4831373e-05    0.3112039 0.0038924712            0   0.30731143      1.67026    1.9814639   0.46273129 
 2320000    1.0405429 -7.1688593e-05   0.42589033  0.010851169            0   0.41503916     1.521794    1.9476843   -5.3932276 
 2325000    1.1022262 -5.8430284e-05   0.39115331   0.01014193            0   0.38101138    1.6120058    2.0031591    -3.980102 
 2330000    1.0845563 2.7003471e-05   0.43719966 0.0043151712            0   0.43288449    1.5861635    2.0233632    4.7885186 
 2335000    1.0967707 1.5869842e-05   0.42478843   0.11342391            0   0.31136452    1.6040271    2.0288156    3.6538874 
 2340000    1.1767997 8.8853291e-06   0.30763887 0.0028132095            0   0.30482566    1.7210696    2.0287084    2.9385661 
 2345000    1.1070702 3.2858462e-05   0.39787198            0            0   0.39787198    1.6190901    2.0169621    5.3816686 
 2350000    1.0604271 3.0750081e-05   0.46414009            0            0   0.46414009    1.5508747    2.0150148     5.163823 
 2355000    1.0614625 9.0569457e-06   0.48241919            0            0   0.48241919    1.5523889    2.0348081    2.9622393 
 2360000    1.1092161 1.088954e-05   0.38828791 1.0280675e-05            0   0.38827762    1.6222285    2.0105164    3.1256054 
 2365000    1.1298865 7.0831936e-05   0.35666966 0.0016541435            0   0.35501552     1.652459    2.0091287    9.2623189 
 2370000    1.0641841 4.1535674e-05   0.42724313  0.031051271            0   0.39619186    1.5563693    1.9836124    6.2368654 
 2375000   0.90257589 4.8772219e-05   0.68873198  0.077657531            0   0.61107445    1.3200172    2.0087492    7.0030245 
 2380000   0.96593853 0.00010770184   0.58032345  0.045999346            0    0.5343241    1.4126851    1.9930086    13.021677 
 2385000   0.95404282 5.0118935e-05   0.62787712  0.028288388            0   0.59958873    1.3952876    2.0231647    7.1553437 
 2390000   0.97117783 8.7693194e-05   0.57045572 0.0073695728            0   0.56308615    1.4203476    1.9908033    10.970586 
 2395000    1.0438831 4.8239727e-05   0.49532215 0.0044934315            0   0.49082872     1.526679    2.0220011    6.9617492 
 2400000    1.0530062 -3.3713563e-05   0.47697098  0.013714504            0   0.46325647    1.5400215    2.0169925   -1.4352763 
 2405000      1.00247 -3.9704016e-05   0.62292525  0.051909792            0   0.57101545    1.4661124    2.0890377   -1.9766536 
 2410000    1.0473978 -7.4597246e-05   0.55367755  0.062056187            0   0.49162136    1.5318193    2.0854969   -5.5532611 
 2415000    1.0189745 -4.4244637e-05   0.61566841  0.016896734            0   0.59877168    1.4902502    2.1059186   -2.4247322 
 2420000    1.1762631 7.4704321e-06   0.39406584    0.0163749            0   0.37769094    1.7202848    2.1143506    2.8793229 
 2425000    1.1252353 4.1184504e-05   0.49067932  0.038638463            0   0.45204086    1.6456566    2.1363359    6.3536291 
 2430000     1.081615 3.8678922e-05   0.56767215  0.017558593            0   0.55011355     1.581862    2.1495341    6.1102558 
 2435000    1.1667816 -3.0704853e-05   0.48668566 0.0020302875            0   0.48465537     1.706418    2.1931037  -0.95107322 
 2440000    1.0278204 -8.5432273e-05   0.70524462  0.015783513            0    0.6894611    1.5031873     2.208432   -6.5398328 
 2445000    1.1809002 -4.1901609e-06   0.42760368  0.044362478            0    0.3832412    1.7270665    2.1546702    1.7255977 
 2450000    1.1905431 6.7916828e-05   0.47139856    0.0684214            0   0.40297716    1.7411693    2.2125678     9.167251 
 2455000    1.2577293 3.6225378e-05   0.40277845  0.030700826            0   0.37207762    1.8394291    2.2422075    5.9516863 
 2460000     1.081213 -7.1943905e-05   0.64819074 0.0026968502            0   0.64549389     1.581274    2.2294647   -5.1375911 
 2465000    1.1053269 -0.00011409056   0.62366324  0.009907916            0   0.61375533    1.6165406    2.2402038   -9.4426698 
 2470000    1.1547556 1.0305397e-05   0.53118001  0.053658608            0    0.4775214    1.6888301    2.2200101    3.2752828 
 2475000    1.2894079  2.21118e-05   0.34235483  0.021727018            0   0.32062781     1.885759    2.2281138    4.4923621 
 2480000    1.1953304 4.0928557e-05   0.52876509 0.0068868766            0   0.52187821    1.7481707    2.2769358    6.4680201 
 2485000    1.0378989 0.00011515145   0.69452103  0.006514844            0   0.68800619    1.5179271    2.2124481    14.003956 
 2490000    1.2921035 4.1417805e-05   0.29074389  0.004848306            0   0.28589559    1.8897014    2.1804453    6.4216285 
 2495000     1.164223 -0.00010704558   0.49643206 0.0016349015            0   0.49479716    1.7026761    2.1991081   -8.7623594 
 2500000    1.0982811 -8.9766141e-05   0.55074068 0.00017262958            0   0.55056805    1.6062362    2.1569768    -7.035076 
 2505000     1.195089 6.1513225e-05   0.45317058   0.01004848            0    0.4431221    1.7478177    2.2009882    8.4999425 
 2510000     1.042754 0.00011992254    0.6581615  0.052239748            0   0.60592175    1.5250277    2.1831892    14.463257 
 2515000    1.1013424 2.0355735e-05   0.58599022  0.031051628            0   0.55493859    1.6107132    2.1967035    4.2811307 
 2520000    1.0232141 -3.7866065e-05   0.62736641  0.026899848            0   0.60046657    1.4964506     2.123817   -1.7536681 
 2525000     1.093748 0.00010107392   0.52605583  0.042349371            0   0.48370646    1.5996065    2.1256623    12.475631 
 2530000    1.0539048 0.00011259469   0.57550122 0.0082531796            0   0.56724804    1.5413358     2.116837    13.646533 
 2535000    1.0679057 4.7408313e-05   0.52488562 0.0043244929            0   0.52056113    1.5618122    2.0866978     6.941309 
 2540000    1.0520042 3.3853573e-05   0.54100285 0.00049747889            0   0.54050537    1.5385561    2.0795589    5.5461648 
 2545000    1.1277841 8.4744866e-05   0.39631162            0            0   0.39631162    1.6493842    2.0456958     10.72357 
 2550000   0.99890553 3.5591082e-05   0.56305511            0            0   0.56305511    1.4608993    2.0239544    5.6684812 
 2555000    1.0496693 -5.052382e-05   0.48957814            0            0   0.48957814    1.5351414    2.0247195   -3.1489196 
 2560000    1.1699714 -3.9133264e-06   0.34218172 0.0038852288            0   0.33829649    1.7110831    2.0532649    1.6525402 
 2565000    1.0204139 7.6320258e-05   0.57956294  0.018252996            0   0.56130994    1.4923553    2.0719183    9.8871127 
 2570000    1.1863517 -2.382124e-05   0.35526184  0.013462424            0   0.34179942    1.7350394    2.0903013  -0.34899371 
 2575000    1.1240359 -8.8509752e-05   0.42987152 0.0005175853            0   0.42935394    1.6439025     2.073774   -6.9896245 
 2580000    1.0490015 4.7921511e-05   0.59233321            0            0   0.59233321    1.5341647    2.1264979    7.0336606 
 2585000    1.1626819 -1.5341917e-05   0.42097199 0.00014049013            0    0.4208315    1.7004223    2.1213943   0.55038199 
 2590000    1.1513999 -2.8898655e-05   0.44506509 0.0099382716            0   0.43512682    1.6839224    2.1289874  -0.83023478 
 2595000    1.1063066 6.8316641e-05   0.47990216  0.046440293            0   0.43346187    1.6179734    2.0978756    9.0934996 
 2600000    1.0575477 1.6325131e-05   0.54429094  0.027606958            0   0.51668398    1.5466636    2.0909545    3.7626479 
 2605000    1.1765127 3.7011913e-05   0.39869109 0.0030481652            0   0.39564293    1.7206498    2.1193409    5.9093608 
 2610000    1.1556001 -6.2453012e-05    0.4577017  0.022974345            0   0.43472736    1.6900652    2.1477669   -4.2474215 
 2615000    1.1484761 -2.4628613e-05   0.55573595  0.029622031            0   0.52611392    1.6796463    2.2353823  -0.28658763 
 2620000    1.1962949 2.2966349e-05   0.45177666  0.021136446            0   0.43064021    1.7495813     2.201358    4.5531122 
 2625000    1.1506069 -1.0046863e-05    0.5468477  0.041296128            0   0.50555158    1.6827626    2.2296104    1.2008116 
 2630000    1.1583327 2.5984779e-05   0.60918077  0.027367705            0   0.58181307    1.6940616    2.3032424    4.9640837 
 2635000    1.1992573 -0.00012000981   0.60021115  0.050403718            0   0.54980743    1.7539138     2.354125   -9.9348797 
 2640000    1.1900028 -6.5466098e-05   0.58529811  0.024654768            0   0.56064334    1.7403791    2.3256772   -4.3780512 
 2645000    1.2085069 -4.6097679e-05   0.48499631   0.00473005            0   0.48026626    1.7674413    2.2524376   -2.4679647 
 2650000    1.2423377 6.7759677e-06   0.42314366 0.00031666724            0     0.422827    1.8169189    2.2400625    2.9339216 
 2655000    1.1933594 3.2923283e-05    0.4896556  0.011305416            0   0.47835019    1.7452881    2.2349438     5.606288 
 2660000     1.179989 4.9164072e-05   0.52467765  0.036375413            0   0.48830224     1.725734    2.2504116    7.2848125 
 2665000    1.1792474 0.00011886312   0.50277521  0.054411771            0   0.44836344    1.7246493    2.2274245    14.399008 
 2670000    1.1198646 3.8004003e-05   0.57601647  0.021854487            0   0.55416199    1.6378019    2.2138184    6.1054282 
 2675000     1.207461 8.2678649e-05   0.43901071 0.00041568902            0   0.43859502    1.7659118    2.2049225    10.671216 
 2680000    1.0955071 -2.2706594e-05   0.62743243  0.017266194            0   0.61016624    1.6021792    2.2296116 -0.095543596 
 2685000    1.2188046 -3.988295e-06   0.45478768   0.03376598            0    0.4210217    1.7825018    2.2372894     1.828888 
 2690000    1.2555321 1.5290854e-05   0.43185056  0.011112096            0   0.42073846    1.8362157    2.2680663    3.8338497 
 2695000    1.1318113 -7.9270696e-05   0.57820706 0.00097991642            0   0.57722714     1.655274    2.2334811   -5.8838382 
 2700000    1.2318667 -8.1925013e-05   0.44125467            0            0   0.44125467    1.8016051    2.2428598   -6.1462616 
 2705000    1.0884997 -1.5795717e-06    0.7014247            0            0    0.7014247    1.5919308    2.2933555    2.1316073 
 2710000    1.2423771 3.0480734e-06   0.44784707            0            0   0.44784707    1.8169766    2.2648236    2.5769463 
 2715000    1.0713799 -8.9799534e-05   0.68007949 0.0047444257            0   0.67533507     1.566893    2.2469725   -6.9484998 
 2720000    1.1058439 -0.000107515   0.64675694  0.024408978            0   0.62234796    1.6172967    2.2640536   -8.7454819 
 2725000      1.16343 -4.8444498e-05   0.57248823  0.030127553            0   0.54236067    1.7015164    2.2740046    -2.686712 
 2730000    1.0425403 -4.2085058e-05   0.73944351  0.031289861            0   0.70815365    1.5247152    2.2641587   -2.0453513 
 2735000    1.0937096 -4.437788e-05   0.67641603  0.020890535            0    0.6555255    1.5995503    2.2759664   -2.2683285 
 2740000    1.0372337 -4.1666045e-05   0.71066029  0.019990347            0   0.69066995    1.5169543    2.2276146   -2.0389884 
 2745000     1.095912 -5.4495864e-05   0.59606554 0.0028993076            0   0.59316623    1.6027712    2.1988368   -3.3815397 
 2750000    1.1666093 3.108289e-05   0.47176602 0.0024884617            0   0.46927756    1.7061661    2.1779321      5.36082 
 2755000    1.1144859 0.00013350262   0.51017785 0.0073350479            0    0.5028428    1.6299356    2.1401135    15.810782 
 2760000    1.0494397 5.2820392e-05   0.61110945 0.0037420435            0    0.6073674    1.5348056    2.1459151    7.5547233 
 2765000    1.0836331 -5.6440288e-05   0.56174257 0.0099467552            0   0.55179582    1.5848135     2.146556   -3.6329294 
 2770000     1.060672 -4.3767935e-05   0.58356076  0.038188304            0   0.54537246    1.5512327    2.1347935    -2.347043 
 2775000    1.1191926 2.3229475e-05   0.55107629  0.028765065            0   0.52231123    1.6368192    2.1878955    4.5665937 
 2780000    1.1354394 0.00010377037   0.50148772  0.037212251            0   0.46427547    1.6605801    2.1620679    12.788154 
 2785000    1.1496783 -1.9278852e-05   0.50074293  0.026686432            0    0.4740565    1.6814046    2.1821475    0.2079931 
 2790000    1.0846368 -0.00010941658   0.61167986 0.0062365704            0   0.60544329    1.5862814    2.1979613   -9.0062962 
 2795000    1.0148646 -4.8122448e-05   0.68233257  0.013604394            0   0.66872818    1.4842395    2.1665721   -2.7611665 
 2800000    1.0849115 -3.666251e-06   0.54739827   0.02508788            0   0.52231039     1.586683    2.1340813    1.7586572 
 2805000    1.0764782 5.3380646e-05    0.5536322 0.0037694943            0    0.5498627    1.5743493    2.1279815    7.5941597 
 2810000    1.0478273 9.3491563e-05   0.58945409 0.0018188791            0   0.58763522    1.5324475    2.1219015    11.695438 
 2815000    1.0628556 5.3776214e-05   0.55259694 0.0049342062            0   0.54766273    1.5544263    2.1070232    7.6137075 
 2820000    1.1697426 -1.8425532e-06    0.4033594 0.0079360251            0   0.39542337    1.7107485    2.1141079    1.9254304 
 2825000    1.0609725 -5.979868e-05    0.5656158 0.0057625213            0   0.55985327    1.5516723    2.1172881   -4.0060967 
 2830000    1.0018063 -4.1766815e-05   0.62947519 0.0020906371            0   0.62738455    1.4651417    2.0946169   -2.1823049 
 2835000    1.2080783 5.7784342e-05   0.34330268 0.00023363856            0   0.34306904    1.7668145    2.1101172    8.0272338 
 2840000     1.124589 2.0165396e-05   0.48862054 0.0031874885            0   0.48543305    1.6447114     2.133332    4.1982686 
 2845000    1.0943329 6.9440779e-06    0.5283468  0.010457898            0   0.51788891    1.6004619    2.1288087    2.8398822 
 2850000    1.1108357 4.6243395e-05   0.50792964 0.0058832571            0   0.50204638    1.6245971    2.1325268    6.8678504 
 2855000    1.1134165 3.9489031e-05   0.46694984 0.0071485926            0   0.45980125    1.6283716    2.0953215    6.1389982 
 2860000    1.1403215 2.0919713e-05   0.40422112 0.0054410276            0   0.39878009    1.6677202    2.0719414      4.21412 
 2865000    1.0287917 -5.4610636e-05   0.53923359 0.00040152486            0   0.53883206    1.5046079    2.0438415   -3.5482876 
 2870000   0.89822928 -6.1555369e-05   0.68898214            0            0   0.68898214    1.3136603    2.0026425   -4.3006273 
 2875000    1.0932634 -4.7362644e-05    0.4502915 0.00043288563            0   0.44985861    1.5988977    2.0491892   -2.8007456 
 2880000    1.1516921 -4.7018844e-05   0.35959814 0.0016731601            0   0.35792498    1.6843496    2.0439478   -2.7707819 
 2885000    1.0185895 2.4612972e-05   0.50215385 0.0060068895            0   0.49614696    1.4896872     1.991841    4.5122094 
 2890000   0.95988649 6.0933175e-06   0.60107875  0.013682549            0   0.58739621     1.403834    2.0049127    2.6288685 
 2895000    1.0246134 -4.3469212e-05   0.45689891  0.023884026            0   0.43301489    1.4984972    1.9553961   -2.4958513 
 2900000    1.0600896 -7.0222793e-06   0.38397316  0.017947598            0   0.36602557     1.550381    1.9343542    1.2152728 
 2905000    1.0100331 6.222978e-05   0.43996119 0.0036158928            0    0.4363453    1.4771733    1.9171345     8.289464 
 2910000   0.81362908 2.997195e-05   0.70332679 0.00014773544            0   0.70317905    1.1899325    1.8932593     4.962387 
 2915000   0.93302937 -4.7736508e-05   0.52166635            0            0   0.52166635    1.3645555    1.8862218   -3.0019966 
 2920000    1.0012908 -5.4151669e-05   0.42014827 0.0027500158            0   0.41739826    1.4643878     1.884536   -3.6605948 
 2925000   0.94292573 -6.0910465e-05   0.49586301  0.018132447            0   0.47773056    1.3790289    1.8748919   -4.3623397 
 2930000   0.87327703 -3.5505152e-05   0.59963188  0.019992891            0   0.57963899    1.2771676    1.8767995    -1.758928 
 2935000   0.98667362 -4.9327097e-05   0.49756607   0.01125198            0   0.48631409    1.4430102    1.9405762   -3.1105185 
 2940000     1.068217 -2.6024268e-05   0.35979643 0.0050085067            0   0.35478792    1.5622674    1.9220638  -0.74282121 
 2945000   0.93852951 5.9381828e-05    0.5477753 0.0084433726            0   0.53933193    1.3725994    1.9203747    8.0010739 
 2950000   0.97388313 2.4047176e-05   0.49355103  0.013110417            0   0.48044061    1.4243041    1.9178551    4.3802859 
 2955000    1.0191143 -3.5867021e-05   0.46871415  0.010636813            0   0.45807733    1.4904547    1.9591688   -1.7136142 
 2960000   0.99987634  -4.0851e-06   0.45884856  0.024282346            0   0.43456621    1.4623191    1.9211677    1.5028535 
 2965000   0.94642253 1.5993878e-05   0.52396843  0.034721253            0   0.48924717    1.3841429    1.9081114    3.5458845 
 2970000   0.97928775 -2.2136428e-05   0.48849367  0.028302307            0   0.46019137    1.4322083     1.920702  -0.34606819 
 2975000   0.92985538 -2.7181497e-05   0.59538437  0.022557661            0    0.5728267    1.3599135    1.9552979  -0.82808739 
 2980000    1.0323092 -8.9887019e-07   0.42250403   0.02954082            0   0.39296321    1.5097522    1.9322562    1.8402119 
 2985000    1.0256363 1.346246e-05   0.45770612  0.031845003            0   0.42586112     1.499993    1.9576992    3.3362551 
 2990000   0.95478191 -6.4595905e-06   0.57711102  0.020184393            0   0.55692662    1.3963685    1.9734796    1.3120175 
 2995000   0.89767282 -8.0795419e-05   0.67171382   0.10188805            0   0.56982577    1.3128465    1.9845603   -6.2888906 
 3000000    0.9747308 -9.5065865e-05   0.58937024 0.0097977358            0   0.57957251    1.4255438     2.014914   -7.7198306 
 3005000    1.0518321 -4.0755515e-05   0.46177693 0.0062360339            0    0.4555409    1.5383044    2.0000814   -2.1732834 
 3010000    1.0162228 -3.6335884e-05   0.50517009  0.014002128            0   0.49116796    1.4862259     1.991396   -1.7293986 
 3015000    1.0322333 -2.4850248e-07   0.45009156 0.0092476674            0   0.44084389    1.5096412    1.9597327    1.9342861 
 3020000   0.98897606 -2.4234885e-05   0.52438259 0.0010128521            0   0.52336974    1.4463775    1.9707601  -0.51089215 
 3025000    1.0078448 -3.9212691e-05   0.47155583 0.0097408584            0   0.46181497     1.473973    1.9455288   -2.0698508 
 3030000   0.99523461 1.7017887e-05   0.49480781   0.02940227            0   0.46540554    1.4555306    1.9503384    3.6929701 
 3035000   0.96819178 -7.4019127e-06    0.5334682  0.017743654            0   0.51572455    1.4159805    1.9494487    1.1914928 
 3040000    1.0737097 3.6322649e-06   0.38469025 0.0047873982            0   0.37990285    1.5703004    1.9549907    2.3269346 
 3045000   0.94036917 3.0462392e-06   0.59154547  0.036177695            0   0.55536778    1.3752899    1.9668354    2.2787703 
 3050000    1.0394174 -6.4546629e-05   0.47831759  0.035793745            0   0.44252384     1.520148    1.9984655   -4.6111093 
 3055000    1.0391201 -1.2467627e-05   0.49558493  0.017464677            0   0.47812025    1.5197132    2.0152981   0.73861312 
 3060000    1.1110558 2.3097262e-05   0.41962873  0.017608524            0    0.4020202    1.6249192    2.0445479    4.4097075 
 3065000    1.0472935 -2.9694539e-06   0.53885835  0.014270703            0   0.52458765    1.5316668    2.0705251     1.766453 
 3070000    1.0893758 -6.0846327e-06   0.45498785  0.029854531            0   0.42513332    1.5932122       2.0482    1.4251336 
 3075000    1.0601896 -9.1963579e-06   0.50351781  0.044060266            0   0.45945755    1.5505273    2.0540451    1.1123381 
 3080000    1.0558122 9.1327393e-06   0.54705589   0.02979279            0    0.5172631    1.5441254    2.0911813    3.0263738 
 3085000     1.119801 1.0079912e-05   0.48592061  0.012315144            0   0.47360547     1.637709    2.1236296    3.1558126 
 3090000    1.0603019 2.303901e-06   0.55937356  0.015844357            0    0.5435292    1.5506916    2.1100651    2.3459846 
 3095000    1.0838783 9.9761485e-06   0.51036418  0.072774552            0   0.43758963    1.5851721    2.0955362    3.1170939 
 3100000    1.0757306 -5.7100862e-05   0.51088931  0.030590473            0   0.48029884    1.5732559    2.0841453    -3.762983 
 3105000    1.0979083 -7.6511171e-05   0.46985619 0.0051830505            0   0.46467314    1.6056909    2.0755471   -5.7591968 
 3110000    1.2068972 -2.6670824e-05   0.31313401 0.00059443967            0   0.31253957    1.7650872    2.0782212   -0.6528712 
 3115000    1.1916952 -7.4504615e-06   0.38142373  0.016085905            0   0.36533782    1.7428543     2.124278    1.3613508 
 3120000    1.0980853 1.4785002e-05   0.49610786  0.059796684            0   0.43631118    1.6059497    2.1020576    3.6160418 
 3125000    1.0885091 2.1093373e-05   0.50639118   0.03894612            0   0.46744506    1.5919446    2.0983358    4.2582972 
 3130000     1.071213 1.5368913e-05   0.51614562  0.034227229            0   0.48191839     1.566649    2.0827946    3.6565713 
 3135000    1.1725032 -2.4321501e-06   0.38618036  0.010009074            0   0.37617128    1.7147859    2.1009663    1.8519141 
 3140000    1.1349189 -1.0973719e-05   0.48677071 0.0026605835            0   0.48411012    1.6598189    2.1465896    1.0228808 
 3145000    1.0664873 2.7303722e-05   0.57751577  0.019965537            0   0.55755024    1.5597377    2.1372535    4.9331546 
 3150000    1.1086119 1.2994357e-05   0.54438005   0.13206599            0   0.41231405    1.6213449     2.165725    3.4963471 
 3155000    1.1362635 -3.7000835e-05   0.48996923  0.040761533            0    0.4492077    1.6617853    2.1517546    -1.637131 
 3160000    1.1523821 -3.4030673e-05   0.50454243 0.0051182115            0   0.49942422    1.6853589    2.1899013   -1.2948396 
 3165000     1.150766 -1.6993682e-05   0.49588661 0.0041081536            0   0.49177846    1.6829953    2.1788819   0.43872887 
 3170000    1.2180961 -1.1873413e-06   0.39121542  0.040170114            0    0.3510453    1.7814655    2.1726809    2.0510972 
 3175000    1.1050194 -3.3903137e-05   0.51143722  0.058554198            0   0.45288302    1.6160908     2.127528   -1.3441532 
 3180000    1.1316582 -3.4473501e-05   0.44165839  0.012151217            0   0.42950718      1.65505    2.0967084   -1.4333781 
 3185000     1.056976 -1.4799272e-05   0.54138017  0.036557648            0   0.50482252    1.5458274    2.0872075   0.57176208 
 3190000    1.1518411 2.1069202e-05   0.39315615  0.045409406            0   0.34774675    1.6845676    2.0777238      4.23521 
 3195000    1.1139535 -6.847724e-06   0.41663868  0.027457695            0   0.38918099     1.629157    2.0457956    1.3445887 
 3200000    1.0697387 -5.4879699e-05   0.45762079 0.0091650275            0   0.44845576    1.5644928    2.0221136   -3.5975676 
 3205000    1.0704825 -3.9544759e-05   0.44347082 0.0012861346            0   0.44218469    1.5655806    2.0090514   -2.0403319 
 3210000    1.0532616 -8.5591459e-06   0.45458179 0.0009193424            0   0.45366244    1.5403951    1.9949768    1.1185203 
 3215000    1.0231238 -1.4107075e-05   0.46076593  0.035572982            0   0.42519295    1.4963186    1.9570845   0.51251997 
 3220000    1.0375108 -5.1717194e-05   0.38494603  0.075204818            0   0.30974121    1.5173596    1.9023056    -3.393535 
 3225000    1.0698594 3.2646156e-05    0.3420972  0.010329301            0    0.3317679    1.5646693    1.9067665    5.2497329 
 3230000     1.032245 8.8626831e-05    0.3870274   0.02205641            0   0.36497099    1.5096583    1.8966857    10.972073 
 3235000   0.99678097 5.1989672e-05   0.49179061   0.10381876            0   0.38797185    1.4577922    1.9495828    7.2733252 
 3240000   0.98312621 2.9325069e-06   0.52837102   0.16856847            0   0.35980255    1.4378221    1.9661931    2.2664818 
 3245000    1.0689649 -1.0671135e-05    0.4017805  0.012560224            0   0.38922028    1.5633611    1.9651416    0.8724174 
 3250000    1.0585768 2.1987199e-05   0.38348195  0.013100298            0   0.37038166    1.5481685    1.9316505    4.1831397 
 3255000    1.0871998 -6.995369e-05   0.33653923  0.013151892            0   0.32338734    1.5900297     1.926569   -5.2366889 
 3260000    1.0909672 5.1517068e-06   0.36419966 0.0061614567            0   0.35803821    1.5955395    1.9597392     2.487274 
 3265000     1.065584 6.6130675e-05   0.37303884 0.0099102628            0   0.36312858    1.5584165    1.9314554    8.7032365 
 3270000   0.97090826 1.0176952e-05   0.47021602  0.015877606            0   0.45433841    1.4199533    1.8901694    2.9322892 
 3275000    1.1051394 7.0082946e-05   0.29766799  0.010508099            0   0.28715989    1.6162664    1.9139344    9.0904281 
 3280000    1.0016568 -1.140099e-05   0.46073955 0.0049757518            0    0.4557638    1.4649231    1.9256627   0.75820126 
 3285000    1.0639995 -2.730093e-05   0.41190825 0.0029666113            0   0.40894164    1.5560993    1.9680075  -0.82760775 
 3290000    1.0293116 -2.3919259e-05    0.4531614 0.0079088057            0   0.44525259    1.5053682    1.9585296  -0.49080259 
 3295000   0.96299519 3.213855e-07   0.52186521  0.021968266            0   0.49989694    1.4083805    1.9302457    1.9631555 
 3300000    1.0122897 3.5753074e-05   0.45743196  0.045213954            0   0.41221801    1.4804737    1.9379057    5.5990205 
 3305000    1.0350255 -3.4605608e-08   0.39768328  0.043689079            0    0.3539942    1.5137248     1.911408    1.9078644 
 3310000   0.99793884 5.7519094e-05   0.48532124   0.02996394            0    0.4553573    1.4594856    1.9448068     7.834762 
 3315000    1.0550336 3.877504e-05   0.40566104 0.0060068655            0   0.39965418    1.5429866    1.9486476    5.9192117 
 3320000    1.0327992 1.0546033e-05   0.39402436 0.00022262579            0   0.39380174    1.5104688    1.9044932     2.984407 
 3325000   0.99082888 2.5043135e-05   0.47009221            0            0   0.47009221    1.4490872    1.9191794    4.4835965 
 3330000   0.99917411 -5.4943837e-05   0.45851877 0.0079617316            0   0.45055704    1.4612921    1.9198109    -3.706438 
 3335000     1.113749 -4.4868386e-05   0.29367258  0.050184413            0   0.24348817    1.6288578    1.9225304   -2.6719923 
 3340000   0.99421855 6.3856386e-06   0.48084563  0.048067491            0   0.43277814    1.4540446    1.9348903    2.5887797 
 3345000    1.0260131 1.3610739e-05   0.45446057  0.017139531            0   0.43732104    1.5005442    1.9550048    3.3487444 
 3350000    1.0940095 -2.9673821e-05   0.34694251 0.0034726881            0   0.34346982     1.599989    1.9469315   -1.0916678 
 3355000    1.0748979 -2.6524854e-05   0.39161208 0.00018575806            0   0.39142632    1.5720382    1.9636503  -0.75249479 
 3360000    1.1091094 2.8490323e-05   0.35259902 0.0089833054            0   0.34361572    1.6220726    1.9746716    4.8920807 
 3365000    1.0297411 4.7412896e-05   0.43782162  0.039005381            0   0.39881623    1.5059963    1.9438179    6.7988985 
 3370000    1.1105765 8.4589685e-06   0.39578493  0.037011963            0   0.35877297    1.6242181    2.0200031    2.8862014 
 3375000     1.080511 -3.8056653e-05   0.40623176 0.0033486549            0    0.4028831    1.5802474    1.9864791   -1.9105222 
 3380000     1.161593 -4.272875e-05    0.2720691            0            0    0.2720691    1.6988298    1.9708989   -2.4045251 
 3385000      1.06217 5.5733471e-07   0.42756204            0            0   0.42756204    1.5534237    1.9809857    2.0380568 
 3390000    1.0802142 -2.5478163e-05   0.37186008  0.016859675            0   0.35500041    1.5798133    1.9516734  -0.65729049 
 3395000   0.99425764 2.7468973e-05   0.48537735  0.072513646            0   0.41286371    1.4541018    1.9394791     4.752302 
 3400000    1.1062292 6.7706323e-05   0.29297355  0.020249204            0   0.27272435    1.6178603    1.9108338    8.8439613 
 3405000   0.93732614 6.4111334e-05   0.49456945  0.045557755            0   0.44901169    1.3708395    1.8654089    8.4304095 
 3410000    1.1070284 4.1412352e-05   0.30431939  0.015456506            0   0.28886288     1.619029    1.9233484    6.1639732 
 3415000    1.1429325 -3.1471122e-06   0.23137562 0.0027573217            0    0.2286183    1.6715388    1.9029144    1.5806501 
 3420000    1.1090674 -0.00011384803   0.33180742 0.0024431282            0    0.3293643    1.6220111    1.9538185   -9.7042201 
 3425000    1.0697153 -7.8376909e-05   0.37151357 0.0090106332            0   0.36250294    1.5644587    1.9359723   -6.0898232 
 3430000    1.0933379 1.6927374e-05   0.27364917  0.025135006            0   0.24851417    1.5990066    1.8726558    3.6060189 
 3435000    1.0842568 4.0989885e-07   0.33071879  0.025451279            0   0.30526751    1.5857256    1.9164444     1.958418 
 3440000    1.0379027 2.9686919e-05   0.39291832  0.079940899            0   0.31297742    1.5179327     1.910851    4.9507915 
 3445000    1.0645475 1.3056581e-05   0.37053496  0.043860587            0   0.32667437    1.5569007    1.9274356    3.2644295 
 3450000    1.0778214 -8.1749435e-06   0.32218785   0.02476747            0   0.29742038    1.5763138    1.8985016    1.0613874 
 3455000    1.0018867 1.3655899e-05   0.41350789  0.054423663            0   0.35908422    1.4652593    1.8787672    3.2771312 
 3460000    1.0218217 5.9612202e-05   0.37016621   0.05134614            0   0.31882007    1.4944142    1.8645804    7.9688698 
 3465000   0.99587849 4.774471e-05   0.37869315    0.1001072            0   0.27858595    1.4564723    1.8351654    6.7242237 
 3470000    1.0265179 -1.7899177e-05   0.32906506  0.038332061            0     0.290733    1.5012825    1.8303475 -0.0025281718 
 3475000   0.93007399 -7.1304993e-06   0.48439128  0.087704182            0    0.3966871    1.3602332    1.8446245    1.1144614 
 3480000    1.0130478 4.9194024e-05   0.35234978  0.043417026            0   0.30893275    1.4815824    1.8339322    6.8714003 
 3485000    1.0311381 2.2183018e-05   0.34701302  0.020504624            0    0.3265084    1.5080394    1.8550524    4.1265935 
 3490000   0.99373693 -2.259475e-05   0.40104146  0.086350458            0     0.314691    1.4533403    1.8543817   -0.4593207 
 3495000    1.0371303 -3.8739505e-05    0.3104812  0.021229095            0   0.28925211    1.5168031    1.8272843    -2.139641 
 3500000    1.0707899 -1.1491431e-05   0.27061824 0.00019864473            0    0.2704196    1.5660302    1.8366484   0.65992587 
 3505000     1.033247 6.0152129e-06   0.36391888 0.0030437851            0   0.36087509    1.5111237    1.8750426    2.4910004 
 3510000   0.99962374 -1.5099857e-05   0.43125696  0.026833079            0   0.40442388    1.4619497    1.8932067   0.34698133 
 3515000    1.0597908 1.961392e-05   0.35944884  0.041759586            0   0.31768925     1.549944    1.9093928    3.9178582 
 3520000    1.1189372 1.9907826e-05   0.29658523 0.0063581322            0    0.2902271    1.6364456    1.9330308    3.9715922 
 3525000    1.0551892 4.3540379e-06    0.3974207            0            0    0.3974207    1.5432142    1.9406349    2.3864883 
 3530000    1.0749684 1.2376165e-06   0.35635583            0            0   0.35635583    1.5721413    1.9284972    2.0552291 
 3535000    1.1187212 -3.2030406e-05   0.33988875  0.023785017            0   0.31610374    1.6361298    1.9760186    -1.303895 
 3540000     1.001982 -4.4374474e-05   0.48904326  0.049703185            0   0.43934008    1.4653987    1.9544419   -2.5895041 
 3545000    1.1155544 -3.7603604e-05   0.30839225  0.020185599            0   0.28820665    1.6314983    1.9398905   -1.9107185 
 3550000    1.1211976 -3.3494454e-05   0.30514888  0.016949869            0   0.28819901    1.6397514    1.9449003   -1.4849317 
 3555000    1.0582972 -9.0039838e-07   0.39153764 0.0024612364            0   0.38907641    1.5477596    1.9392973    1.8470965 
 3560000    1.0573646 4.4289078e-05   0.37208148  0.043593908            0   0.32848757    1.5463958    1.9184772    6.4536789 
 3565000    1.0464117 -1.3252678e-06   0.40668538  0.033185981            0   0.37349939    1.5303771    1.9370624     1.801355 
 3570000    1.0539772 1.2847901e-05   0.40937494 0.0034154909            0   0.40595945    1.5414417    1.9508167    3.2664417 
 3575000    1.0698704 -3.3960806e-05   0.35391692 0.0070396888            0   0.34687724    1.5646854    1.9186023   -1.5589842 
 3580000   0.97653279 -0.00010105459     0.429155 0.0082485143            0   0.42090648    1.4281792    1.8573342   -8.4906563 
 3585000    1.0571696 -5.3748944e-05   0.32041198  0.039884155            0   0.28052782    1.5461105    1.8665225   -3.6373694 
 3590000    1.0341843 -8.265679e-06   0.32635289  0.042283544            0   0.28406934    1.5124945    1.8388474   0.99244183 
 3595000   0.96648755 6.5208589e-05   0.42870595  0.039423469            0   0.38928248     1.413488     1.842194    8.5195535 
 3600000   0.97214992 0.00010043218   0.39039662  0.035865737            0   0.35453088    1.4217693    1.8121659    12.096421 
 3605000   0.99668566 -3.6932987e-05   0.34765529  0.042444312            0   0.30521097    1.4576528    1.8053081   -1.9766298 
 3610000   0.88081279 -7.9090152e-05   0.48242758  0.072473325            0   0.40995426    1.2881887    1.7706163   -6.3282153 
 3615000    1.0241341 3.2701759e-05   0.26948933  0.042314566            0   0.22717476    1.4977961    1.7672854    5.1159456 
 3620000   0.95174327  2.36094e-05   0.41895643  0.033699493            0   0.38525694    1.3919245     1.810881    4.2284836 
 3625000   0.90776808 -1.4597673e-05   0.45889913  0.018479326            0   0.44041981    1.3276108      1.78651   0.29170826 
 3630000   0.96623105 1.8073681e-05   0.37629806  0.035430468            0   0.34086759    1.4131129     1.789411    3.6401559 
 3635000   0.98801096 7.6151971e-06   0.37151649  0.048343101            0   0.32317339     1.444966    1.8164825    2.5962787 
 3640000   0.96422203 -7.5405149e-05   0.39984872  0.016402917            0    0.3834458    1.4101747    1.8100234   -5.9114639 
 3645000     1.060795 -7.1257986e-06   0.29074967 0.0069136536            0   0.28383602    1.5514127    1.8421624    1.1124806 
 3650000    1.0533736 6.4108268e-05   0.31853021  0.049594955            0   0.26893525    1.5405589    1.8590891    8.4237758 
 3655000   0.97841684 2.6648448e-05    0.4490607  0.099381676            0   0.34967902    1.4309346    1.8799953    4.6087964 
 3660000   0.93349247 1.3478747e-05   0.49497309   0.11743734            0   0.37753576    1.3652327    1.8602058    3.2404295 
 3665000   0.92703203 -6.8449248e-05   0.50967463  0.053840437            0   0.45583419    1.3557843     1.865459   -5.1437441 
 3670000   0.94425853 -4.5031851e-05   0.50183647  0.069284448            0   0.43255202    1.3809781    1.8828146    -2.728447 
 3675000    0.9692952 2.856228e-06   0.47642184  0.085244552            0   0.39117729    1.4175942    1.8940161    2.1864938 
 3680000   0.96061295 -2.8336859e-06   0.40886259   0.02221636            0   0.38664623    1.4048964     1.813759    1.5235896 
 3685000   0.93354558 2.3962827e-05   0.41648232  0.011424434            0   0.40505789    1.3653104    1.7817927    4.2355862 
 3690000   0.91816383 -2.7028765e-05   0.40114207  0.018883833            0   0.38225824    1.3428146    1.7439567   -1.0237888 
 3695000   0.84241476 -8.3701734e-05   0.51439042  0.034062225            0    0.4803282    1.2320316     1.746422   -6.8246355 
 3700000   0.97192882 -3.7559767e-05   0.34550756  0.023611057            0    0.3218965    1.4214459    1.7669535   -2.0791667 
 3705000    0.9622506 2.6001303e-06   0.36211098 0.0092197777            0    0.3528912    1.4072915    1.7694025    2.0356558 
 3710000   0.90517787 -1.0904378e-05    0.4468953  0.054164651            0   0.39273064    1.3238226    1.7707179   0.65410964 
 3715000   0.94892329 -4.343622e-05   0.39039652  0.051401153            0   0.33899537    1.3878003    1.7781968   -2.6696721 
 3720000   0.93488509 -2.2839151e-05   0.44719245 0.0034736522            0    0.4437188    1.3672694    1.8144619  -0.52426718 
 3725000    1.0054304 5.3607506e-05   0.36760646  0.017647414            0   0.34995905    1.4704419    1.8380484     7.327457 
 3730000   0.95261839 7.7427813e-05   0.41908196 0.0044860987            0   0.41459586    1.3932044    1.8122864    9.7408944 
 3735000   0.92363382 3.1543057e-05   0.43905701 0.0039297608            0   0.43512725    1.3508145    1.7898715    5.0198805 
 3740000   0.92759538 -1.5788127e-05   0.46265537  0.018475638            0   0.44417974    1.3566082    1.8192636   0.20255941 
 3745000   0.83292406 -3.275814e-05   0.58883443  0.010836178            0   0.57799825    1.2181514    1.8069859   -1.5474477 
 3750000   0.98306106 -3.5888802e-05   0.37298846 0.00020291619            0   0.37278554    1.4377268    1.8107153   -1.8642981 
 3755000    1.0412624 1.4328659e-07   0.29414691            0            0   0.29414691    1.5228462    1.8169931    1.8316657 
 3760000   0.90407419 2.672413e-05   0.49464368 0.0091681997            0   0.48547548    1.3222085    1.8168522     4.553403 
 3765000   0.86127098 1.5875097e-05   0.54027235  0.055517652            0    0.4847547    1.2596088    1.7998812    3.4254911 
 3770000   0.90976777 9.8833545e-06   0.45432197  0.030410108            0   0.42391186    1.3305354    1.7848573    2.7969128 
 3775000    1.0137954 -5.5861321e-05   0.32738431  0.037792911            0    0.2895914    1.4826758    1.8100601   -3.9101392 
 3780000   0.92088881 -7.5618931e-05   0.50235091  0.045131197            0   0.45721972    1.3467999    1.8491508   -5.8942277 
 3785000   0.92905747 -4.1183491e-05   0.46867146  0.018962016            0   0.44970944    1.3587466     1.827418   -2.3897714 
 3790000   0.90739597 -9.5904894e-06   0.49929966  0.014900777            0   0.48439888    1.3270666    1.8263663   0.84430015 
 3795000    0.9439791 2.3023517e-05   0.49180014  0.039317381            0   0.45248276    1.3805694    1.8723696    4.2299778 
 3800000   0.91403982 9.8235028e-06   0.52453428  0.027633212            0   0.49690107    1.3367832    1.8613175    2.8672442 
 3805000     1.000984 1.0649591e-05   0.44943576   0.06446593            0   0.38496983    1.4639391    1.9133749    3.0038929 
 3810000     0.965776 -1.6074632e-05   0.49297751  0.063804159            0   0.42917335    1.4124474    1.9054249   0.25938263 
 3815000    0.9533951 -5.4210296e-05   0.53090691  0.013991995            0   0.51691492    1.3943403    1.9252472   -3.6258871 
 3820000    1.0014257 8.2819287e-06   0.50394537  0.080146528            0   0.42379884    1.4645852    1.9685305       2.8166 
 3825000   0.97337224 4.397134e-05   0.50662625  0.038962949            0    0.4676633    1.4235569    1.9301832    6.4328483 
 3830000    1.0132857 -6.0332867e-05   0.44867001 0.0059396329            0   0.44273037    1.4819303    1.9306003   -4.2474853 
 3835000    1.0228872 -0.00010022064   0.42784613 0.0065245025            0   0.42132162    1.4959726    1.9238187    -8.338775 
 3840000   0.92929176 3.0128303e-05   0.51958788  0.023949063            0   0.49563881    1.3590892    1.8786771    4.9638153 
 3845000    1.0044068 5.0965243e-05   0.43860507  0.029736159            0   0.40886891     1.468945      1.90755    7.1263909 
 3850000    1.0788792 -3.2884592e-05   0.39005507  0.011664914            0   0.37839016    1.5778608    1.9679159   -1.3994664 
 3855000    1.0545464 -4.9378364e-05   0.45087557  0.014662935            0   0.43621264    1.5422741    1.9931497   -3.0631948 
 3860000   0.99280098 -3.2030095e-05   0.52606359 0.0072658585            0   0.51879773    1.4519714     1.978035   -1.3018467 
 3865000    1.0726719 -9.0998828e-06    0.3921707 0.0013310514            0   0.39083965    1.5687827    1.9609534    1.0291254 
 3870000   0.97689947 -4.9946431e-05   0.52982677 0.0048949069            0   0.52493186    1.4287155    1.9585422   -3.1559723 
 3875000    1.0343476 -3.3557783e-05   0.44945864  0.013835644            0     0.435623    1.5127334    1.9621921   -1.4741249 
 3880000   0.94377485 1.1049915e-05   0.56777395  0.048705868            0   0.51906808    1.3802707    1.9480447     3.079556 
 3885000   0.99238472 4.3997953e-05   0.44656074  0.020039671            0   0.42652107    1.4513627    1.8979234    6.4033138 
 3890000    1.0560468 9.0608964e-05   0.37664597            0            0   0.37664597    1.5444684    1.9211143    11.199472 
 3895000    1.0154866 -9.1133008e-06    0.4122749 5.4948909e-06            0    0.4122694    1.4851492    1.8974241   0.96422211 
 3900000    1.0190555 6.2508952e-06   0.39570138 0.0060542841            0    0.3896471    1.4903687    1.8860701    2.5261618 
 3905000   0.94885082 7.6730618e-05   0.50743332  0.033561061            0   0.47387226    1.3876943    1.8951276    9.7523429 
 3910000   0.99253127 3.7199106e-05   0.46949568  0.013821896            0   0.45567378     1.451577    1.9210727    5.7302611 
 3915000    1.0254478 -5.0136633e-06   0.40489609  0.011029981            0   0.39386611    1.4997175    1.9046136    1.3912144 
 3920000   0.97220744 -4.772241e-05   0.45787533 0.0070059594            0   0.45086937    1.4218534    1.8797287   -3.0070461 
 3925000    1.0078241 -8.182263e-05   0.39661794 4.1644165e-05            0    0.3965763    1.4739428    1.8705607   -6.5080767 
 3930000    1.0472317 -5.234172e-05   0.33243492  0.021089179            0   0.31134574    1.5315763    1.8640112   -3.4957809 
 3935000   0.95820209 4.6353739e-05   0.47206966   0.10302948            0   0.36904019    1.4013706    1.8734402    6.6200631 
 3940000     1.010546 9.9254654e-05   0.40881138  0.019940825            0   0.38887055    1.4779236     1.886735    12.050412 
 3945000    1.0479403 2.8016765e-05   0.39410159 0.00054805959            0   0.39355353    1.5326126    1.9267142    4.7956309 
 3950000   0.95418805 -3.6575838e-05   0.48905325 0.0028374812            0   0.48621577       1.3955    1.8845533   -1.8608125 
 3955000    1.0045169 1.8088939e-05   0.41469321  0.022736651            0   0.39195656    1.4691059    1.8837991    3.7361065 
 3960000    1.0429933 8.9455379e-05   0.40553275  0.025366313            0   0.38016644    1.5253777    1.9309104    11.091141 
 3965000   0.98282044 6.2786464e-05   0.51789129  0.074809295            0     0.443082    1.4373749    1.9552662    8.3846001 
 3970000    1.0448804 -2.572101e-05   0.39766782  0.043186993            0   0.35448083    1.5281376    1.9258055  -0.70802594 
 3975000   0.94613775 -5.0638251e-05   0.55388209  0.020486283            0   0.53339581    1.3837265    1.9376086   -3.2477484 
 3980000    1.0227642 -3.2311668e-05   0.42494182  0.072022166            0   0.35291965    1.4957926    1.9207344   -1.3879803 
 3985000    1.0343427 2.4173941e-05   0.38147479  0.044796411            0   0.33667838    1.5127262     1.894201    4.3696125 
 3990000   0.84580882 4.970059e-05   0.66837146   0.12058613            0   0.54778533    1.2369954    1.9053669    6.9947073 
 3995000   0.98721222 5.8358875e-05   0.46334256  0.046996891            0   0.41634567    1.4437979    1.9071404    7.8830892 
 4000000   0.99568906 2.825535e-06   0.49225428  0.057309473            0   0.43494481    1.4561953    1.9484495    2.2377843 
 4005000    1.0733105 -2.4328999e-05   0.39153085 0.0077651055            0   0.38376574    1.5697167    1.9612475  -0.53004202 
 4010000    1.0204136 -2.1733795e-05   0.45788473  0.044525997            0   0.41335873    1.4923549    1.9502397  -0.27530092 
 4015000   0.98950307 -3.2202856e-05    0.4970954  0.082002905            0   0.41509249    1.4471482    1.9442436   -1.3533288 
 4020000     1.061115 -2.6773373e-05   0.41291016  0.043474221            0   0.36943594    1.5518807    1.9647908  -0.77680257 
 4025000    1.0236386 -1.1227944e-05   0.43899417  0.019481404            0   0.41951277    1.4970715    1.9360657   0.78632427 
 4030000    1.0271532 6.9360941e-05   0.45818984  0.037354642            0    0.4208352    1.5022115    1.9604014    9.0629617 
 4035000   0.96846769 1.4118672e-05   0.58409526  0.062992131            0   0.52110313     1.416384    2.0004793    3.4462313 
 4040000    1.0769399 -2.1903007e-05   0.44825191  0.020168208            0    0.4280837    1.5750247    2.0232766  -0.21959138 
 4045000    1.1382184 2.4859088e-05   0.40948508  0.012264942            0   0.39722014    1.6646444    2.0741295    4.6197001 
 4050000    1.1535729 -1.2272248e-05   0.39282021  0.015580994            0   0.37723922    1.6871004    2.0799206    0.8232424 
 4055000     1.038833 1.3212656e-05   0.56071125  0.031286457            0    0.5294248    1.5192933    2.0800045    3.4329806 
 4060000    1.0271955 1.8872587e-05     0.510972  0.016581045            0   0.49439095    1.5022734    2.0132454    3.9457983 
 4065000    1.0332615 -3.6083693e-05   0.51419154 0.0066786163            0   0.50751292    1.5111449    2.0253364   -1.6696337 
 4070000    1.1193226 -4.5310488e-06   0.38110673  0.078831308            0   0.30227542    1.6370093     2.018116    1.5541366 
 4075000    1.0207455 4.4481084e-05    0.5535371  0.036688762            0   0.51684834    1.4928403    2.0463774    6.6012404 
 4080000     1.098067 1.7812812e-05   0.47089649  0.024118452            0   0.44677804    1.6059229    2.0768194    3.9008514 
 4085000    1.1047088 -3.6792823e-05   0.45873609  0.016715085            0   0.44202101    1.6156366    2.0743727   -1.6932124 
 4090000    1.1782303 5.4928854e-05   0.36430916            0            0   0.36430916    1.7231619     2.087471    7.7121857 
 4095000    1.0529415 7.8509099e-05   0.54954544            0            0   0.54954544     1.539927    2.0894724    10.128804 
 4100000    1.0641559 -4.1752365e-05     0.541126 0.00029523432            0   0.54083077    1.5563279    2.0974539   -2.1779883 
 4105000    1.2142652 1.0586182e-05   0.32168317 0.0011911599            0   0.32049201    1.7758629    2.0975461    3.1815711 
 4110000    1.1091259 6.921969e-05   0.49253261 1.5453652e-05            0   0.49251715    1.6220967    2.1146293    9.2027255 
 4115000    1.0586931 2.6103929e-05   0.54621317 0.0033624603            0   0.54285071    1.5483386    2.0945518    4.7675942 
 4120000    1.1247843 9.2621765e-05   0.48989036 0.0096481772            0   0.48024218    1.6449971    2.1348874    11.619356 
 4125000    1.0919552 3.7368518e-05   0.50498545  0.013090572            0   0.49189488    1.5969845    2.1019699    5.9285062 
 4130000    1.0952476 -5.0213511e-05   0.53758538  0.029885618            0   0.50769976    1.6017996     2.139385   -3.0024785 
 4135000    1.1062922 -3.2542237e-05   0.53352206 0.0055381953            0   0.52798386    1.6179523    2.1514744   -1.1808508 
 4140000    1.0929337 -6.7967879e-05   0.55096853 0.0047302993            0   0.54623823    1.5984156    2.1493841   -4.8105267 
 4145000    1.0887034 -9.0423587e-05   0.59088188  0.035288307            0   0.55559357    1.5922288    2.1831106   -7.0762646 
 4150000    1.0675476  8.07025e-05   0.65550902    0.1205873            0   0.53492172    1.5612883    2.2167974    10.480733 
 4155000    1.1858631 7.110579e-05   0.52427698  0.067280944            0   0.45699603    1.7343247    2.2586017    9.5398345 
 4160000    1.1744225 -5.7734281e-05   0.52769838  0.016890868            0   0.51080751    1.7175929    2.2452912   -3.6666992 
 4165000    1.0631644 -3.4214614e-05   0.70001188   0.04969129            0   0.65032059     1.554878    2.2548898   -1.2486866 
 4170000    1.1714297 4.6682014e-05   0.51746392  0.038700664            0   0.47876325     1.713216    2.2306799    7.0109182 
 4175000     1.154598 6.4818048e-05   0.53760085  0.020812336            0   0.51678851    1.6885996    2.2262004    8.8635685 
 4180000    1.1543932 -1.7555373e-07   0.47417355 0.0011776204            0   0.47299593       1.6883    2.1624735    2.1444968 
 4185000    1.1761425 -3.5506471e-05   0.46979809 0.0058128751            0   0.46398521    1.7201084    2.1899065   -1.4459562 
 4190000    1.1003722 -5.3990567e-05   0.50674887  0.010721103            0   0.49602777    1.6092944    2.1160432   -3.4125908 
 4195000    1.1221325 -1.6865637e-05   0.45080347 0.0039427416            0   0.44686073    1.6411188    2.0919223   0.36488107 
 4200000    1.1589806 -5.2491706e-05   0.37508605 0.00029271369            0   0.37479334    1.6950091    2.0700952   -3.3050555 
 4205000    1.1087398 -4.8224924e-05   0.49080725 0.0011294532            0    0.4896778     1.621532    2.1123393   -2.8258929 
 4210000    1.1838404 3.5090137e-05   0.40256236 0.0009518208            0   0.40161054    1.7313666    2.1339289     5.727159 
 4215000    1.2004859 6.5059503e-05   0.39493677            0            0   0.39493677    1.7557107    2.1506475    8.8127406 
 4220000    1.1879049 2.8075305e-05   0.44953849  0.014618263            0   0.43492023    1.7373109    2.1868494    5.0617606 
 4225000    1.1411974 -1.7638579e-05   0.52694056   0.12913131            0   0.39780925    1.6690012    2.1959418   0.38975127 
 4230000    1.1161626 -1.7057219e-05   0.58023644  0.061742918            0   0.51849352    1.6323878    2.2126242   0.46596496 
 4235000    1.0911931 -6.1711719e-05   0.60403734  0.030444344            0     0.573593      1.59587    2.1999073   -4.1193728 
 4240000    1.1464238 -1.5719346e-05   0.56404438  0.016014052            0   0.54803033    1.6766448    2.2406892   0.63102818 
 4245000     1.176752 2.3391318e-05   0.46218478  0.031650539            0   0.43053424    1.7209997    2.1831845    4.5784555 
 4250000     1.192339 3.9763291e-05   0.44854112  0.014575643            0   0.43396548    1.7437958    2.1923369    6.2640979 
 4255000    1.1774608 -7.338278e-06    0.5116547 0.0021984246            0   0.50945628    1.7220364    2.2336911    1.4822514 
 4260000    1.1863452 8.8450234e-05    0.4528844 0.0027532855            0   0.45013112    1.7350298    2.1879142    11.245218 
 4265000    1.1656357 4.2378578e-05   0.47023242 0.0025107139            0   0.46772171    1.7047422    2.1749746     6.514541 
 4270000    1.1576152 -4.7520517e-05   0.49187155 0.00081636321            0   0.49105519    1.6930122    2.1848837   -2.6812172 
 4275000    1.1435325 -2.2177839e-06   0.53760642 0.0030459638            0   0.53456046    1.6724162    2.2100226    1.9829216 
 4280000    1.1989632 -5.880981e-06   0.43556611 0.0059944127            0   0.42957169    1.7534837    2.1890498    1.5868374 
 4285000    1.1611915 -4.4969944e-05   0.48646691 0.0083219369            0   0.47814498    1.6982425    2.1847094   -2.4202128 
 4290000    1.0817798 4.1363183e-05   0.56607647   0.11339979            0   0.45267668    1.5821029    2.1481794    6.3837694 
 4295000    1.1255335 3.8825395e-05   0.51200645   0.10055542            0   0.41145103    1.6460928    2.1580992    6.1338197 
 4300000    1.1066036 -6.1499882e-05   0.49324196 0.0087990221            0   0.48444294    1.6184078    2.1116497   -4.1859381 
 4305000    1.1461261 -3.6438877e-05   0.44622689  0.014832889            0     0.431394    1.6762094    2.1224363   -1.6089047 
 4310000    1.1557287 -8.8003885e-07   0.43683619  0.038323099            0   0.39851309    1.6902532    2.1270894    2.0369735 
 4315000    1.1772196 -4.377527e-06   0.40586629  0.018128159            0   0.38773813    1.7216836    2.1275499    1.6792911 
 4320000    1.0424452 1.7472503e-05   0.63483282  0.061470342            0   0.57336248    1.5245761    2.1594089    3.9485933 
 4325000    1.1697414 7.7841989e-05    0.4004063  0.027480563            0   0.37292574    1.7107468    2.1111531    10.082173 
 4330000     1.123264 0.00010061602   0.47361259 0.00062280612            0   0.47298978    1.6427736    2.1163862    12.419467 
 4335000    1.1756378 1.8424872e-05   0.43447628 0.00044400756            0   0.43403227    1.7193703    2.1538466    4.0405535 
 4340000    1.0129182 -5.2589957e-05   0.65368048  0.045256455            0   0.60842403    1.4813929    2.1350734   -3.2501382 
 4345000    1.0857812 -5.8941181e-05   0.53644936   0.05023796            0    0.4862114     1.587955    2.1244043   -3.9111726 
 4350000    1.0407855 3.2367159e-06   0.56203007  0.045462915            0   0.51656715    1.5221487    2.0841788    2.4156185 
 4355000    1.1058689 3.8196107e-05   0.53969145  0.026696731            0   0.51299472    1.6173333    2.1570247    6.0683061 
 4360000    1.2475176 -6.9989777e-06   0.35791801 0.00072181392            0   0.35719619    1.8244944    2.1824125    1.4657171 
 4365000    1.2050693 -1.6494202e-05   0.43519042 0.0087205945            0   0.42646983    1.7624138    2.1976043   0.50859794 
 4370000    1.1718169 -4.8536688e-06   0.44078691 0.0031751865            0   0.43761172    1.7137822    2.1545691    1.6575535 
 4375000    1.2193047 1.7375078e-05   0.34288735 0.0013171666            0   0.34157019    1.7832331    2.1261204    3.9053284 
 4380000    1.0523178 2.7345026e-05    0.5528973  0.006496803            0    0.5464005    1.5390148    2.0919121    4.8920428 
 4385000    1.0525837 2.2322495e-05   0.55575869   0.14980752            0   0.40595116    1.5394037    2.0951624    4.3809859 
 4390000    1.1041143 5.2433792e-05   0.48168486  0.033125205            0   0.44855966    1.6147672     2.096452    7.4656724 
 4395000    1.1100731 -5.3410681e-05   0.47522691  0.026191143            0   0.44903577    1.6234819    2.0987088   -3.3705448 
 4400000   0.99388949 -0.00013270792   0.66181068  0.028398699            0   0.63341198    1.4535634    2.1153741   -11.473917 
 4405000     1.135328 -3.820952e-05    0.4598719  0.012542058            0   0.44732985    1.6604172    2.1202891   -1.7923658 
 4410000    1.1641305 1.149326e-05   0.46490301  0.048901199            0   0.41600181    1.7025409    2.1674439    3.3443537 
 4415000    1.1886151 6.8744507e-05   0.47918254  0.049539292            0   0.42964324    1.7383496    2.2175322    9.2569697 
 4420000    1.1575158 4.0950286e-05   0.50653781  0.029381909            0    0.4771559    1.6928669    2.1994047     6.392714 
 4425000    1.2201992 2.3033845e-05   0.43890266   0.10740547            0   0.33149718    1.7845414    2.2234441    4.5821097 
 4430000    1.1468621 5.7298217e-05   0.52950266   0.11196182            0   0.41754084    1.6772858    2.2067885     8.074126 
 4435000    1.1721546 -1.4134029e-05   0.48592741 0.0072965484            0   0.47863086    1.7142761    2.2002036   0.75287897 
 4440000    1.0931758 -0.00010217834   0.59135575  0.069223684            0   0.52213206    1.5987696    2.1901254   -8.2729368 
 4445000    1.1109714 -6.7087312e-05   0.52732988  0.068111234            0   0.45921865    1.6247957    2.1521256   -4.7176152 
 4450000    1.0768227 5.5610636e-06   0.56904694  0.046680325            0   0.52236662    1.5748532    2.1439002    2.7133531 
 4455000    1.1011085 -2.8754961e-06   0.53462955  0.054153812            0   0.48047574    1.6103711    2.1450007    1.8505499 
 4460000    1.0798209 -4.1614211e-05   0.54101401  0.054710574            0   0.48630343     1.579238     2.120252   -2.1410432 
 4465000    1.0987568 -0.00010599928   0.54240419  0.014676017            0   0.52772818    1.6069318     2.149336   -8.7049904 
 4470000    1.1294026 -5.9763128e-05   0.49429005  0.001430986            0   0.49285907    1.6517513    2.1460413    -3.973703 
 4475000    1.1629065 -3.6643621e-05   0.44240116            0            0   0.44240116    1.7007508    2.1431519   -1.6091549 
 4480000    1.2711619 -3.719969e-05   0.30416117            0            0   0.30416117    1.8590743    2.1632355   -1.6460128 
 4485000     1.133654 -6.4167241e-05    0.4608947            0            0    0.4608947     1.657969    2.1188637   -4.4518618 
 4490000    1.0236987 -8.9407948e-05   0.64860026 1.1961243e-05            0    0.6485883    1.4971594    2.1457596   -7.0096142 
 4495000    1.0895694 2.5568353e-05    0.4832509 0.0068142989            0    0.4764366    1.5934953    2.0767462    4.6949455 
 4500000    1.0345407 -5.6592344e-05   0.60306123  0.026150033            0   0.57691119    1.5130158     2.116077    -3.678979 
 4505000    1.0423913 -7.239494e-05   0.61560327   0.01650653            0   0.59909674    1.5244973    2.1401006   -5.2731413 
 4510000    1.1200078 -0.00012989285   0.48909919 0.0070673856            0   0.48203181    1.6380114    2.1271106   -11.173917 
 4515000    1.1289355 -8.573107e-05   0.44921599 0.00057110523            0   0.44864488    1.6510682    2.1002842   -6.6785775 
 4520000    1.0696873 2.8443852e-05   0.52673612 0.0018881187            0     0.524848    1.5644177    2.0911538    5.0038043 
 4525000   0.98471207 5.0771763e-05   0.64480714  0.067171964            0   0.57763517    1.4401414    2.0849485     7.283977 
 4530000    1.0289476 6.5999963e-05   0.58936056  0.065239249            0   0.52412131    1.5048359    2.0941964    8.8525926 
 4535000    1.0072176 -4.8299229e-05   0.59780525   0.15717593            0   0.44062932    1.4730558     2.070861     -2.87498 
 4540000    1.0669726 -0.00012286598    0.5030427 0.0061941404            0   0.49684856    1.5604474    2.0634901   -10.517986 
 4545000   0.99129828 1.6200128e-05   0.56235727  0.012688239            0   0.54966903    1.4497737     2.012131    3.6710241 
 4550000    1.0655291 -5.453948e-05   0.49234334  0.035638507            0   0.45670483    1.5583363    2.0506796   -3.5341631 
 4555000    0.9710163 3.0266639e-05   0.59097466  0.063677903            0   0.52729676    1.4201113     2.011086    5.1103898 
 4560000    1.0829618 3.3341335e-05   0.44579752  0.031914644            0   0.41388288    1.5838316    2.0296291    5.4437818 
 4565000     1.030816 -1.8793957e-05   0.47922555 0.0024328417            0    0.4767927    1.5075683    1.9867939  0.062292716 
 4570000    1.0566524 -1.3217049e-05   0.38669888  0.018663165            0   0.36803571    1.5453541     1.932053   0.57862717 
 4575000   0.82055907 -0.00011640088   0.68480463   0.01865268            0   0.66615195    1.2000676    1.8848723   -10.034578 
 4580000    1.0436668 2.3073588e-05    0.3654353   0.02776261            0   0.33767269    1.5263627     1.891798    4.2545335 
 4585000   0.94198598 3.4847827e-05   0.49422808  0.093814171            0   0.40041391    1.3776545    1.8718826       5.4403 
 4590000    1.0166219 4.3434594e-05   0.38024216 0.0049882282            0   0.37525393    1.4868095    1.8670517    6.3147542 
 4595000   0.93364385 -8.20466e-05   0.49597432  0.014890289            0   0.48108403    1.3654541    1.8614284   -6.5401434 
 4600000   0.92744403 6.7837558e-05   0.47748063   0.12651655            0   0.35096408    1.3563869    1.8338675    8.7804335 
 4605000   0.95259333 9.3794642e-05   0.42872986  0.023325274            0   0.40540458    1.3931678    1.8218976    11.426469 
 4610000     1.061391 -1.4977898e-05   0.31557044  0.011634849            0   0.30393559    1.5522844    1.8678548   0.33411803 
 4615000   0.98225607 -6.2215251e-05   0.41846409  0.012871611            0   0.40559248    1.4365495    1.8550136   -4.5158281 
 4620000   0.91426382 -0.00012937687   0.51062976   0.02630998            0   0.48431978    1.3371108    1.8477406    -11.40045 
 4625000   0.87388169 3.5441194e-06   0.53339969   0.11105951            0   0.42234018     1.278052    1.8114517    2.1743695 
 4630000   0.99385856 -7.7436246e-05   0.40137211  0.021717045            0   0.37965506    1.4535181    1.8548902   -6.0745813 
 4635000   0.96652678 -2.4638344e-05   0.47893662  0.059240656            0   0.41969597    1.4135454     1.892482  -0.63048439 
 4640000   0.94024335 4.1572869e-05   0.51613494  0.045185129            0   0.47094981    1.3751059    1.8912408    6.1483027 
 4645000   0.87910754 1.8992251e-05   0.59196052   0.10137826            0   0.49058226    1.2856948    1.8776553    3.8224618 
 4650000     1.048083 8.4375722e-05   0.38294435 0.0074552538            0    0.3754891    1.5328214    1.9157657     10.55584 
 4655000     1.102157 -5.8961483e-05   0.30618534  0.004464186            0   0.30172115    1.6119047      1.91809   -4.1195658 
 4660000    1.1547356 -4.3607675e-05   0.29031746  0.017034361            0    0.2732831    1.6888008    1.9791182   -2.4863076 
 4665000    1.0534012 -6.5274902e-05    0.4781922  0.013870388            0   0.46432181    1.5405992    2.0187914   -4.6653586 
 4670000    1.1064225 -1.2478492e-06   0.39355659 0.00029554959            0   0.39326104    1.6181429    2.0116995    1.8839197 
 4675000    1.1080354 4.8820158e-05   0.40331211 0.0033743242            0   0.39993779    1.6205018     2.023814    7.0229981 
 4680000    1.1442811 5.2145195e-06   0.36166771  0.028671028            0   0.33299668    1.6735111    2.0351788    2.5691456 
 4685000    1.0106079 3.0722247e-05   0.56239304   0.06652678            0   0.49586626     1.478014     2.040407    5.1863651 
 4690000    1.0263154 -7.4375906e-05   0.52507233  0.033715014            0   0.49135732    1.5009863    2.0260586   -5.5900342 
 4695000    1.0482879 -6.5562585e-05    0.5133372  0.066688828            0   0.44664837    1.5331211    2.0464583   -4.6671504 
 4700000    1.1375688 -2.6012466e-05   0.37681207 0.0031577878            0   0.37365429    1.6636943    2.0405064  -0.62317014 
 4705000    1.0803745 5.4794021e-05   0.43637266 0.00015774705            0   0.43621492    1.5800477    2.0164203    7.6273281 
 4710000    1.0584948 9.5110518e-05   0.44578562 0.0034476521            0   0.44233797    1.5480487    1.9938343    11.733151 
 4715000    1.1764646 -4.6707019e-05   0.37037901  0.013201203            0   0.35717781    1.7205795    2.0909585   -2.6918403 
 4720000    1.0853648 -0.00015115818   0.54711744  0.034393549            0   0.51272389    1.5873461    2.1344635   -13.344135 
 4725000    1.0965303 -9.9931126e-06   0.51382816  0.031273546            0   0.48255462    1.6036755    2.1175037     1.094209 
 4730000    1.1784191 9.0557198e-05   0.42685023  0.011242595            0   0.41560764    1.7234379    2.1502881    11.423345 
 4735000    1.1630863 6.3519539e-05   0.49903447  0.038930248            0   0.46010422    1.7010137    2.2000481     8.704449 
 4740000    1.0798457 1.3474544e-05   0.60139669  0.029812592            0   0.57158409    1.5792743     2.180671    3.5604644 
 4745000    1.0766094 -1.5455952e-05   0.53774512  0.076401127            0   0.46134399    1.5745412    2.1122863   0.52959684 
 4750000    1.1343582 -4.0865261e-05   0.44523708  0.023789879            0    0.4214472    1.6589989     2.104236   -2.0803667 
 4755000    1.0655177  -2.3021e-05   0.51832821 0.0098435207            0   0.50848469    1.5583196    2.0766478  -0.28070258 
 4760000    1.0559595 2.3990106e-05    0.5649968  0.035385555            0   0.52961125    1.5443408    2.1093376    4.5659245 
 4765000    1.1442432 3.8735589e-05   0.37333382  0.023906779            0   0.34942704    1.6734557    2.0467896    6.0133139 
 4770000    1.1209932 -2.0353321e-05    0.3880677  0.017344694            0   0.37072301    1.6394525    2.0275202 -0.056659795 
 4775000    1.0201298 -1.9784901e-05   0.54125192  0.021295683            0   0.51995624    1.4919399    2.0331918 0.0072179293 
 4780000    1.1018823 4.3669403e-05   0.46633282 0.0092239267            0   0.45710889    1.6115028    2.0778357    6.5495825 
 4785000    1.0566425 0.0001349282    0.5266379  0.011204729            0   0.51543317    1.5453397    2.0719776    15.888625 
 4790000    1.0718167 0.00010274196   0.49943467  0.019707116            0   0.47972755    1.5675319    2.0669666    12.587743 
 4795000    1.1307686 -1.7818244e-05   0.41707685 0.0025582689            0   0.41451858     1.653749    2.0708259   0.24623768 
 4800000   0.98405476 -6.4845131e-05   0.63979348  0.014013906            0   0.62577957    1.4391801    2.0789736   -4.5611678 
 4805000    0.9903171 -2.834325e-05   0.62036638  0.011733511            0   0.60863287    1.4483388    2.0687051  -0.83364361 
 4810000    1.1237253 2.6264258e-05   0.41953871 0.0053149085            0    0.4142238    1.6434482    2.0629869    4.7524469 
 4815000    1.0333401 -2.4020682e-05    0.5450102            0            0    0.5450102      1.51126    2.0562701  -0.40344769 
 4820000    1.1829429 -2.1509777e-05   0.32193747            0            0   0.32193747     1.730054    2.0519915  -0.15060962 
 4825000    1.1102641 1.8626631e-06    0.4011498            0            0    0.4011498    1.6237612     2.024911    2.2156477 
 4830000   0.95957622 -4.1655102e-05   0.60794044 0.0017048456            0   0.60623559    1.4033802    2.0113207   -2.2541618 
 4835000    1.0784872 1.5361144e-05   0.39191264 0.0091899809            0   0.38272266    1.5772875    1.9692002    3.5421814 
 4840000     1.030137 3.871145e-05   0.47899617 0.0070363111            0   0.47195986    1.5065753    1.9855715     5.949624 
 4845000    1.0492631 -2.1778504e-05   0.42579296 0.00011673907            0   0.42567622    1.5345473    1.9603403   -0.2697786 
 4850000   0.83283274 5.3128606e-05   0.69968361            0            0   0.69968361    1.2180179    1.9177015    7.3580708 
 4855000    1.0170836 1.3771405e-05    0.4283099            0            0    0.4283099    1.4874848    1.9157947    3.3259865 
 4860000    1.0046968 -7.0111064e-05   0.45299908 0.0002612746            0    0.4527378    1.4693691    1.9223681   -5.2570048 
 4865000   0.97095581 4.4357504e-07   0.51118891 0.0065274753            0   0.50466143    1.4200229    1.9312118    1.9766339 
 4870000   0.97641455 -9.5954121e-05   0.49875614  0.025674401            0   0.47308174    1.4280063    1.9267624   -7.8989396 
 4875000    1.0290856 9.9334075e-06   0.39957667  0.036574305            0   0.36300237    1.5050377    1.9046143    2.9217953 
 4880000   0.93867378 9.1886569e-05   0.50861945  0.023063188            0   0.48555626    1.3728104    1.8814298    11.290614 
 4885000   0.86836958 1.4101053e-05   0.59733873  0.027965972            0   0.56937276    1.2699905    1.8673292    3.3112771 
 4890000   0.99393848 5.6433521e-05   0.43205532   0.01786569            0   0.41418963     1.453635    1.8856903    7.6644829 
 4895000    1.0131684 -5.7989257e-05   0.39455135 0.0099083148            0   0.38464303    1.4817588    1.8763101   -4.0617898 
 4900000   0.89656659 -4.4696127e-05   0.57846395 0.0024180127            0   0.57604593    1.3112286    1.8896926   -2.6871908 
 4905000   0.87955124 -9.8506309e-05    0.5969718 0.0054060192            0   0.59156578    1.2863437    1.8833155   -8.2037305 
 4910000    1.0321916 5.9489344e-05   0.35860849 0.0039408122            0   0.35466767    1.5095802    1.8681887    7.9598975 
 4915000   0.95159936 1.0969859e-06   0.47626941 0.0014034374            0   0.47486598    1.3917141    1.8679835    1.9803148 
 4920000    0.9992584 8.8906151e-05   0.35908588  0.010409745            0   0.34867613    1.4614154    1.8205013    10.924491 
 4925000   0.90316608 5.3380901e-05   0.49231674  0.050226004            0   0.44209073    1.3208804    1.8131971    7.2794014 
 4930000    0.8965441 -4.9450418e-05   0.46820991  0.030214524            0   0.43799539    1.3111957    1.7794057   -3.2843172 
 4935000   0.94824063 -6.4409757e-05   0.39167259 0.00038563606            0   0.39128696    1.3868019    1.7784745   -4.8170846 
 4940000   0.88525901 3.1781206e-05   0.50437338 0.00029513595            0   0.50407824    1.2946913    1.7990647    5.0534602 
 4945000   0.92577972 2.7845523e-05   0.47862695 0.00012927584            0   0.47849768    1.3539528    1.8325798    4.6839613 
 4950000   0.92615144 -9.295279e-05   0.48876136            0            0   0.48876136    1.3544965    1.8432578   -7.6751078 
 4955000   0.96730805 5.9363593e-05   0.38781762 0.0043012094            0   0.38351641     1.414688    1.8025056    7.8813375 
 4960000    0.8776702 2.8878116e-05   0.52943398  0.030660435            0   0.49877354    1.2835927    1.8130266    4.7701457 
 4965000   0.92322791 2.3782761e-05   0.47629318  0.021480815            0   0.45481236    1.3502208     1.826514    4.2618688 
 4970000   0.97088768 -3.5297316e-05   0.40710789  0.011901512            0   0.39520638    1.4199232    1.8270311   -1.7874141 
 4975000   0.91691511 5.8216467e-06   0.47861257  0.054323167            0    0.4242894    1.3409883    1.8196009    2.4157375 
 4980000   0.92929635 4.6733514e-05   0.47666621   0.03433347            0   0.44233274    1.3590959    1.8357621    6.6212739 
 4985000   0.97481462 6.0119408e-05   0.44486711  0.017653992            0   0.42721312    1.4256664    1.8705335    8.0267609 
 4990000   0.85455165 2.5242837e-05   0.62824409  0.050710272            0   0.57753382    1.2497818    1.8780259    4.4628924 
 4995000   0.88906665 8.8412129e-05   0.54495261  0.038308028            0   0.50664458      1.30026    1.8452126    10.898615 
 5000000   0.88965949 4.1148672e-05   0.53391574  0.045953508            0   0.48796223     1.301127    1.8350427    6.0486668 
 5005000   0.97766138 6.0656064e-05   0.41303981  0.034654395            0   0.37838541    1.4298298    1.8428696    8.0540505 
 5010000    0.9086722 4.6047688e-05   0.55049765 0.0093217545            0   0.54117589    1.3289331    1.8794307     6.594714 
 5015000   0.97400252 -4.3004667e-05   0.53205092 0.00082011219            0   0.53123081    1.4244787    1.9565296   -2.4471483 
 5020000    1.0470096 4.6888624e-05   0.43187534 0.0055254069            0   0.42634993    1.5312515    1.9631268    6.7645219 
 5025000    1.0577442 -8.5161949e-06   0.40728001  0.020111375            0   0.38716863    1.5469509    1.9542309    1.0821725 
 5030000   0.93210803 -5.0383902e-05   0.59390027  0.049495312            0   0.54440496     1.363208    1.9571083   -3.2022033 
 5035000   0.96821904 4.0207758e-05   0.54441412  0.037310232            0   0.50710389    1.4160203    1.9604345    6.0777089 
 5040000    1.0260324 7.6301589e-05   0.44272326  0.017859759            0   0.42486351    1.5005723    1.9432956    9.7565783 
 5045000   0.96537452 -8.002933e-06   0.53752321 0.0015124622            0   0.53601075    1.4118602    1.9493834    1.1298831 
 5050000   0.96897093 -1.1763234e-06   0.56482825  0.012104338            0   0.55272391      1.41712    1.9819482    1.8614927 
 5055000    1.0556744 -2.294631e-05   0.41603703  0.035639308            0   0.38039772    1.5439238    1.9599608   -0.3897413 
 5060000   0.99588419 -0.00014076539   0.55173884  0.013753795            0   0.53798504    1.4564806    2.0082195   -12.406157 
 5065000    1.0829734 -5.2714568e-05   0.43358421   0.02923379            0   0.40435042    1.5838486    2.0174328    -3.380539 
 5070000   0.98056258 0.00012315405   0.56263798 0.0096019328            0   0.55303605    1.4340728    1.9967108    14.607685 
 5075000    0.9044081 0.00012715646   0.68813948  0.012418093            0   0.67572139    1.3226968    2.0108363    15.031658 
 5080000   0.98575368 -2.6460925e-05    0.5013103  0.004310471            0   0.49699983    1.4416648    1.9429751  -0.76662368 
 5085000    1.0029698 -5.2496766e-05   0.51281147 0.0011852298            0   0.51162624    1.4668433    1.9796547   -3.3960141 
 5090000    1.0214174 1.4798018e-05     0.448218 0.0046364634            0   0.44358154     1.493823     1.942041     3.457358 
 5095000   0.92363904 3.1943383e-05   0.60111242 0.0023347763            0   0.59877764    1.3508221    1.9519345     5.222937 
 5100000   0.90326602 -7.1473352e-05   0.64468098 0.0042993441            0   0.64038164    1.3210265    1.9657075   -5.3531637 
 5105000     1.017422 -6.2750845e-05   0.52716494 0.0094634103            0   0.51770153    1.4879797    2.0151446   -4.4105419 
 5110000    1.1187003 -4.1988724e-05   0.40997931  0.011796854            0   0.39818246    1.6360992    2.0460785   -2.2535668 
 5115000    1.0290487 -2.5174122e-05    0.5728839  0.010025639            0   0.56285826    1.5049837    2.0778676   -0.4999625 
 5120000    1.0108833 -3.8474993e-05   0.58105996 0.0014340797            0   0.57962588    1.4784168    2.0594767   -1.8803625 
 5125000    1.0506561 -0.00012997033   0.50664059 0.00097631898            0   0.50566427    1.5365845    2.0432251   -11.265737 
 5130000   0.92508987 0.00013305607   0.72125006  0.033619336            0   0.68763073    1.3529439     2.074194    15.699136 
 5135000     1.111029 -2.7474558e-05   0.46446042  0.023612499            0   0.44084792      1.62488    2.0893404  -0.72405433 
 5140000   0.97881294 4.0080222e-05   0.61175705  0.012037641            0   0.59971941    1.4315139     2.043271    6.1474858 
 5145000    1.1214297 1.329589e-05   0.46387419  0.019647877            0   0.44422631    1.6400909    2.1039651    3.4654642 
 5150000    1.1313655 -1.7540663e-05   0.46637902  0.017033159            0   0.44934586    1.6546221    2.1210011    0.3248372 
 5155000    1.0486155 -4.4360137e-05   0.58530593   0.02913897            0   0.55616696    1.5336002    2.1189061   -2.4235719 
 5160000    1.0969158 -3.5709335e-05   0.56831597  0.055692011            0   0.51262396    1.6042394    2.1725554   -1.4840805 
 5165000    1.0145462 2.8775496e-06   0.65515587  0.051931353            0   0.60322452    1.4837738    2.1389297    2.4335908 
 5170000    1.0793468 2.3403048e-05   0.53537038  0.013254205            0   0.52211617    1.5785446     2.113915    4.5103872 
 5175000    1.0164069 4.7068819e-05   0.62417391  0.034707645            0   0.58946626    1.4864951     2.110669    6.9305161 
 5180000    1.0805934 -1.9812492e-05   0.57444357  0.029453306            0   0.54499027    1.5803678    2.1548114   0.12601227 
 5185000    1.1440282 2.9589575e-05   0.49821086 0.0050819373            0   0.49312892    1.6731412    2.1713521    5.2013246 
 5190000    1.0253952 0.00010643118   0.64206948  0.012763494            0   0.62930599    1.4996405    2.1417099    13.040263 
 5195000    1.1131659 1.719522e-05   0.52028525   0.04445562            0   0.47582963    1.6280052    2.1482904    3.9090809 
 5200000    1.1493881 -3.0188633e-05   0.50130711 0.0062862142            0    0.4950209    1.6809801    2.1822872  -0.90902883 
 5205000    1.0486289 -7.943876e-05   0.64617889 0.0035588103            0   0.64262008    1.5336198    2.1797987   -5.9547304 
 5210000    1.1905511 -3.7262194e-05   0.43537198 0.00032026606            0   0.43505171     1.741181     2.176553   -1.6390957 
 5215000    1.0279462 0.00010461051   0.63709896  0.010508324            0   0.62659063    1.5033713    2.1404702    12.852586 
 5220000    1.0686429 -7.8864171e-06   0.55718401  0.031773946            0   0.52541006    1.5628903    2.1200743    1.3125052 
 5225000    1.0985708 2.7554132e-05   0.50932316  0.019561627            0   0.48976154    1.6066598     2.115983    4.9375261 
 5230000    1.1399089 1.4828398e-05   0.44786255 0.0012810843            0   0.44658147    1.6671168    2.1149793    3.6334073 
 5235000    1.1523002 2.0118059e-07   0.43642622 0.0010353995            0   0.43539082     1.685239    2.1216653    2.1422662 
 5240000    1.0993794 0.00010952699   0.48773622 0.0083442801            0   0.47939194    1.6078424    2.0955786    13.311142 
 5245000    1.0739241 -4.6785451e-05   0.52843626 0.0093522198            0   0.51908404     1.570614    2.0990503   -2.6917798 
 5250000    1.1177116 -1.4918915e-05   0.41302534 0.0019369906            0   0.41108835    1.6346532    2.0476785   0.51998158 
 5255000   0.96489736 5.4517383e-05   0.61304753  0.005585628            0    0.6074619    1.4111624    2.0242099    7.6067899 
 5260000   0.95731523 -3.6776638e-05   0.57810878  0.031051239            0   0.54705754    1.4000735    1.9781823   -1.7877454 
 5265000   0.97175871 -4.8213103e-05   0.60573058   0.12035396            0   0.48537662    1.4211971    2.0269277    -2.910094 
 5270000    1.0119445 -3.1110371e-05    0.5063464   0.03477885            0   0.47156755    1.4799688    1.9863152   -1.1993868 
 5275000    1.0003202 -2.7650988e-05   0.49828524  0.010000579            0   0.48828466    1.4629683    1.9612535  -0.87020767 
 5280000   0.95010356 -2.2739565e-05   0.53922485  0.014584234            0   0.52464061    1.3895265    1.9287513  -0.39978016 
 5285000   0.94846776 3.9653998e-05   0.52977511   0.02560721            0    0.5041679    1.3871341    1.9169092    5.9774786 
 5290000   0.96685445 -8.6265105e-06   0.50506782  0.033385465            0   0.47168236    1.4140246    1.9190925    1.0357378 
 5295000   0.98057111 -2.0013564e-05   0.50067517  0.020977316            0   0.47969786    1.4340853    1.9347604  -0.11462853 
 5300000   0.96975705 -7.6059791e-07   0.56050657  0.018185521            0   0.54232105    1.4182697    1.9787763     1.900891 
 5305000    0.8803083 -6.0569047e-05   0.72035748  0.043988317            0   0.67636916    1.2874509    2.0078084   -4.1944621 
 5310000   0.79060446 -3.0274878e-05   0.84620588   0.11799088            0     0.728215     1.156259    2.0024649   -1.0976826 
 5315000   0.97097605 9.1269466e-05   0.53592053  0.020284299            0   0.51563624    1.4200525     1.955973    11.301966 
 5320000    1.0341251 2.098828e-06   0.49376847  0.018988469            0      0.47478     1.512408    2.0061765    2.2210964 
 5325000    1.0428687 -7.9741271e-05    0.5339529   0.01739483            0   0.51655807    1.5251954    2.0591483   -6.1063578 
 5330000    1.1107512 4.8613493e-05   0.44419621 0.00068023214            0   0.44351598    1.6244736    2.0686699    7.0466916 
 5335000    1.0364106 1.352916e-05   0.60242522  0.023961669            0   0.57846355    1.5157505    2.1181757    3.5035617 
 5340000    1.0390025 2.4283604e-06   0.61143865  0.039825401            0   0.57161325    1.5195412    2.1309798    2.3796439 
 5345000    1.1259284 -3.256653e-05   0.49501521 0.0043248725            0   0.49069034    1.6466703    2.1416855   -1.1931272 
 5350000    1.0479393 -4.1018939e-05   0.59330797 0.0038420409            0   0.58946593    1.5326113    2.1259193   -2.0744201 
 5355000    1.1020065 3.5226624e-05   0.48831226  0.040257683            0   0.44805457    1.6116845    2.0999967     5.707203 
 5360000     1.118403 -3.883946e-06   0.51083679  0.039969659            0   0.47086713    1.6356643    2.1465011     1.748785 
 5365000    1.1239736 -5.9705828e-05   0.51800912 0.0084336722            0   0.50957545    1.6438114    2.1618205   -3.9520562 
 5370000    1.1720832 -5.956037e-05   0.40748128 0.0072304859            0   0.40025079    1.7141716    2.1216529   -3.9773289 
 5375000   0.99648098 1.3512594e-05   0.66176092  0.010158333            0   0.65160259    1.4573534    2.1191144     3.502804 
 5380000    1.0111574 3.2064601e-05   0.66110815  0.034785105            0   0.62632304    1.4788177    2.1399258    5.4233409 
 5385000   0.98020203 -9.1105316e-05   0.69203825  0.041696558            0    0.6503417    1.4335455    2.1255837   -7.2036007 
 5390000    1.0558338 -4.1561916e-05    0.6122736  0.027691898            0    0.5845817    1.5441569    2.1564305   -2.0995096 
 5395000    1.0102704 5.2953897e-05   0.67044525  0.048914642            0   0.62153061    1.4775205    2.1479657    7.5704448 
 5400000    1.0125511 3.2832661e-05   0.63257569   0.03595032            0   0.59662537     1.480856    2.1134317    5.4754962 
 5405000   0.98264723 1.2948385e-05   0.70894288   0.01540142            0   0.69354146    1.4371216    2.1460645    3.4719791 
 5410000    1.0866011 -1.6179678e-05    0.5663602  0.035076612            0   0.53128359    1.5891541    2.1555143   0.49871528 
 5415000    1.0026683 1.6732489e-05   0.63754966  0.051837939            0   0.58571172    1.4664024    2.1039521     3.817359 
 5420000    1.0234433 0.00012179638   0.60612397  0.028540941            0   0.57758303    1.4967858    2.1029098    14.574859 
 5425000    1.0494437 0.00011331215   0.58329952 0.0064082804            0   0.57689124    1.5348114     2.118111    13.721276 
 5430000    1.1570409 -3.757381e-05   0.44861525 0.0040857232            0   0.44452953    1.6921723    2.1407876   -1.7067706 
 5435000   0.95399152 -0.00015638708   0.75253018  0.024633977            0    0.7278962    1.3952126    2.1477428   -13.866295 
 5440000    1.1258163 -4.6676841e-05   0.49720887  0.027411379            0   0.46979749    1.6465063    2.1437152   -2.6359934 
 5445000    1.0712762 0.00011741495   0.52908927  0.022021518            0   0.50706775    1.5667415    2.0958308    14.119122 
 5450000    1.0932738 4.5010704e-05   0.51934204   0.03176231            0   0.48757973    1.5989129     2.118255    6.7273511 
 5455000   0.96784911 -6.5919494e-05   0.67345386  0.025543123            0   0.64791074    1.4154793    2.0889332    -4.661223 
 5460000    0.9843676 -1.5042037e-05   0.70118651  0.064362087            0   0.63682442    1.4396376    2.1408241    0.6005195 
 5465000     1.159988 1.243439e-05   0.45134434  0.031964398            0   0.41937994    1.6964824    2.1478268    3.4211083 
 5470000    1.0037082 -4.6948005e-05   0.68021848 0.0084111223            0   0.67180736    1.4679232    2.1481417    -2.659334 
 5475000      1.06973 4.7535707e-05   0.61047872 0.0018191835            0   0.60865953    1.5644801    2.1749588    7.0426152 
 5480000    1.1066004 4.8890758e-05   0.54849792 0.0010245871            0   0.54747333    1.6184031     2.166901    7.1733147 
 5485000    1.1080867 -0.00012242924   0.58774611 0.0036931127            0     0.584053    1.6205768    2.2083229   -10.328432 
 5490000    1.1557013 -5.5437408e-05   0.48253212  0.010393533            0   0.47213859    1.6902132    2.1727453   -3.5040453 
 5495000    1.0676512 5.6228416e-06   0.58974424   0.01407138            0   0.57567286    1.5614399    2.1511841    2.7269631 
 5500000    1.0233417 -6.4041399e-05   0.62789772 0.0093033173            0    0.6185944    1.4966372     2.124535   -4.4333043 
 5505000    1.1360025 1.4286932e-05    0.4835777 0.0011899893            0   0.48238771    1.6614037    2.1449814    3.6079633 
 5510000    1.0824082 9.437092e-05   0.58402481  0.021461773            0   0.56256304    1.5830219    2.1670468    11.830629 
 5515000    1.1649074 -1.757833e-06   0.44459845  0.032477743            0    0.4121207    1.7036771    2.1482755    1.9682734 
 5520000    1.0941343 -0.00010251847    0.5879331 0.0055311761            0   0.58240192    1.6001715    2.1881046   -8.3097867 
 5525000    1.1057608 -4.052915e-05   0.54877026 0.0032993777            0   0.54547088    1.6171752    2.1659455   -1.9842395 
 5530000    1.1258566 3.3908641e-05   0.52910307 0.0067199516            0   0.52238312    1.6465653    2.1756684    5.6479132 
 5535000    1.0872812 1.7894103e-05    0.5893024 0.0089152505            0   0.58038715    1.5901488    2.1794511    4.0118073 
 5540000    1.0446819 -5.741007e-05   0.68545467 0.0079391732            0    0.6775155    1.5278473     2.213302   -3.6654891 
 5545000    1.0329293 -6.5197557e-05   0.71337108 0.0093769903            0   0.70399409    1.5106591    2.2240301   -4.4521997 
 5550000    1.0120722 9.0048069e-06   0.73873243  0.018205667            0   0.72052676    1.4801556     2.218888    3.1409803 
 5555000    1.0319431 2.3069695e-05   0.71050492  0.085140392            0   0.62536453    1.5092168    2.2197217    4.5820584 
 5560000    1.1654247 -4.7997186e-05    0.5195382  0.022157921            0   0.49738028    1.7044337    2.2239719     -2.69094 
 5565000    1.0622307 -4.2748372e-05   0.66883369   0.01077256            0   0.65806113    1.5535124     2.222346   -2.1550872 
 5570000    1.0072286 -3.3191741e-05   0.73537985  0.023800237            0   0.71157961    1.4730718    2.2084517   -1.1903826 
 5575000     1.132792 -9.9592389e-06   0.49574517 0.0099564149            0   0.48578876    1.6567083    2.1524535    1.1326274 
 5580000      1.07974 3.7072463e-06   0.63578634 0.0011900614            0   0.63459628    1.5791197     2.214906    2.5945281 
 5585000    1.0233191 2.0573944e-05   0.70776393 0.0043248978            0   0.70343903    1.4966042    2.2043682      4.31114 
 5590000    1.1985864 -8.8969462e-06   0.48043094 0.0033691819            0   0.47706176    1.7529327    2.2333636    1.3223163 
 5595000    1.1448814 -2.2646404e-05    0.6017507 0.0015194172            0   0.60023128    1.6743891    2.2761398 -0.042851971 
 5600000    1.1132056 6.6126026e-05   0.63788625 0.0063451509            0    0.6315411    1.6280631    2.2659494    9.0372545 
 5605000    1.0603864 5.920304e-06   0.69593195   0.01790539            0   0.67802656    1.5508151    2.2467471    2.8529862 
 5610000    1.1221644 -5.3847774e-05   0.55131312  0.012805073            0   0.53850804    1.6411654    2.1924785   -3.3215336 
 5615000    1.1071114 -9.0600567e-05   0.54217201  0.051188035            0   0.49098397    1.6191505    2.1613225   -7.1161756 
 5620000    1.2197638 2.6486245e-06   0.35396393  0.040192544            0   0.31377138    1.7839046    2.1378685    2.4090877 
 5625000    0.9586941 -6.6137639e-06   0.75527591  0.010189663            0   0.74508625    1.4020901     2.157366    1.4801166 
 5630000    1.0984576 -1.7222472e-05   0.55061473 0.0013685008            0   0.54924623    1.6064942    2.1571089   0.39352782 
 5635000     1.049127 8.5616875e-05   0.67192163 0.0059329981            0   0.66598863    1.5343482    2.2062698    10.973438 
 5640000    1.0478578 -9.4055421e-05   0.62632101  0.005498115            0   0.62082289     1.532492     2.158813    -7.472462 
 5645000   0.94925854 -0.00011296604    0.7893264  0.001955355            0   0.78737105    1.3882906     2.177617   -9.3901053 
 5650000    1.0167076 1.6325618e-05   0.67522862 0.00027811942            0    0.6749505    1.4869348    2.1621634    3.8339067 
 5655000    1.1447891 -6.9382351e-05   0.48230596 0.0029998598            0    0.4793061     1.674254      2.15656   -4.9481927 
 5660000    1.0426013 -5.9194601e-06   0.62201397 0.0086211907            0   0.61339278    1.5248043    2.1468183    1.5406656 
 5665000    1.0163376 2.443568e-05    0.6925613   0.01511916            0   0.67744213    1.4863937     2.178955    4.6811686 
 5670000    1.0705228 2.0172674e-05   0.62201453   0.02276857            0   0.59924596    1.5656395    2.1876541    4.2533359 
 5675000    1.0840122 9.7143189e-06   0.59486854  0.027661338            0   0.56720721    1.5853678    2.1802364    3.1749826 
 5680000    1.0309017 4.0217948e-06   0.62958272  0.027494168            0   0.60208855    1.5076938    2.1372765    2.5491083 
 5685000   0.95493873 3.3744683e-05   0.79273621   0.01903804            0   0.77369817    1.3965979    2.1893341    5.6447897 
 5690000    1.0584646 7.7994279e-05   0.62910544 0.0067472167            0   0.62235822    1.5480044    2.1771099    10.163724 
 5695000    1.2063361 0.00010209788   0.42971686            0            0   0.42971686    1.7642666    2.1939834    12.648806 
 5700000    1.0691767 6.5001824e-05   0.65023749 1.8319962e-05            0   0.65021917    1.5636709    2.2139084    8.8700952 
 5705000    1.0820101 -1.046812e-05   0.68712347 0.0051994324            0   0.68192403    1.5824397    2.2695632    1.1976277 
 5710000    1.0273943 -8.9795415e-05   0.77223024  0.042168912            0   0.73006133    1.5025641    2.2747944   -6.9202561 
 5715000    1.0079934 -3.7005457e-05   0.80523325  0.024173818            0   0.78105943    1.4741903    2.2794236   -1.5099352 
 5720000    1.1011459 -2.4292603e-05    0.6503068  0.001859107            0   0.64844769    1.6104259    2.2607327  -0.22682979 
 5725000   0.97975545 -7.051701e-05   0.82365192 0.0054674819            0   0.81818444    1.4328923    2.2565443   -4.9643976 
 5730000     1.189868 -4.4791682e-05   0.55267587  0.014854583            0   0.53782128    1.7401819    2.2928578   -2.2938104 
 5735000    1.1647708 -8.6060366e-06   0.55050058  0.008523834            0   0.54197675    1.7034772    2.2539778    1.3727197 
 5740000    1.0865188 4.0246095e-05   0.65501657  0.002603269            0    0.6524133    1.5890337    2.2440503    6.3652504 
 5745000    1.0950208 9.759351e-05   0.66571485 0.0082722195            0   0.65744263    1.6014679    2.2671827    12.260758 
 5750000   0.99043984 3.3451951e-05   0.76597604  0.036453588            0   0.72952245    1.4485183    2.2144943    5.6399741 
 5755000    1.0785022 1.9878385e-05   0.67719637  0.045588628            0   0.63160774    1.5773094    2.2545058    4.2900524 
 5760000    1.0736523 -2.7565336e-05   0.71594118  0.033620577            0    0.6823206    1.5702164    2.2861576  -0.53653276 
 5765000    1.1313294 -4.464307e-05   0.64176228 0.0022912448            0   0.63947103    1.6545692    2.2963315   -2.2751189 
 5770000    1.1507327 3.2469311e-05   0.62051985 0.0053158424            0   0.61520401    1.6829465    2.3034664    5.6283238 
 5775000    1.0689032 2.5815672e-05    0.7226317  0.008290867            0   0.71434084     1.563271    2.2859027    4.9294275 
 5780000    1.0948162 9.6277939e-05   0.66343726 0.0024648885            0   0.66097237    1.6011687     2.264606    12.123467 
 5785000      1.13396 0.00011243121   0.60284479   0.01825457            0   0.58459022    1.6584165    2.2612613    13.774217 
 5790000    1.0560517 -1.0026149e-05     0.716465  0.078808456            0   0.63765655    1.5444756    2.2609406    1.2342629 
 5795000    1.1838147 5.3140545e-06   0.53368328  0.025494983            0    0.5081883    1.7313289    2.2650122    2.8091714 
 5800000    1.0288834 0.00011247278   0.74415988  0.006627468            0   0.73753242     1.504742    2.2489019    13.766115 
 5805000    1.1737252 5.7762707e-05   0.55162901 0.0054835466            0   0.54614546    1.7165731    2.2682021    8.1831033 
 5810000    1.1598147 1.9949368e-05   0.53232534 0.0018036902            0   0.53052165    1.6962289    2.2285543    4.2713696 
 5815000    1.0683423 2.5583801e-05   0.70538236 8.8991701e-05            0   0.70529336    1.5624506    2.2678329    4.8876141 
 5820000    1.0994216 -1.3087344e-06   0.69183177  0.010730508            0   0.68110126     1.607904    2.2997358    2.1657214 
 5825000    1.2260903 2.3357178e-05   0.50964818   0.04190578            0    0.4677424    1.7931571    2.3028053    4.6945804 
 5830000    1.2714295 -2.783745e-05   0.44214044  0.025488683            0   0.41665175    1.8594657    2.3016061  -0.54894875 
 5835000    1.0608917 -0.00011763715   0.76840921  0.010986726            0   0.75742248    1.5515541    2.3199633   -9.7260807 
 5840000    1.1203043 -1.8571494e-05   0.66216792 0.00074247281            0   0.66142545    1.6384451     2.300613     0.398892 
 5845000    1.0831673 -3.3371013e-05   0.72068811 0.0093100676            0   0.71137804    1.5841322    2.3048204   -1.1123713 
 5850000    1.1339095 -7.9699404e-05   0.62031825  0.022892528            0   0.59742572    1.6583427     2.278661    -5.882558 
 5855000    1.2371262 1.2686918e-06   0.48698081 0.0091429506            0   0.47783786    1.8092971    2.2962779    2.4261919 
 5860000    1.1690354 3.2960836e-05   0.64329602 0.0093575264            0   0.63393849    1.7097142    2.3530103    5.7281998 
 5865000     1.265832 -5.0674485e-05   0.53190869  0.026613819            0   0.50529487    1.8512792    2.3831879   -2.8058793 
 5870000    1.2440934 -6.1739318e-05   0.57353623  0.030319499            0   0.54321674    1.8194866    2.3930229   -3.9290833 
 5875000    1.1798494 5.8427081e-05   0.65086421  0.028274878            0   0.62258933    1.7255298     2.376394    8.3593271 
 5880000    1.1400777 2.1251389e-05   0.68028481  0.018143059            0   0.66214175    1.6673636    2.3476484    4.5237906 
 5885000    1.2472546 -3.3519169e-06   0.54167588  0.015644459            0   0.52603142    1.8241099    2.3657857    2.0225494 
 5890000     1.238791 6.1294764e-06   0.52700462 0.0078221844            0   0.51918244    1.8117318    2.3387365    2.9663948 
 5895000    1.2057219 3.3730603e-06   0.59227602  0.018139889            0   0.57413613    1.7633682    2.3556443    2.7010456 
 5900000    1.1657726 -1.6613045e-05   0.67070086  0.015361234            0   0.65533962    1.7049425    2.3756433   0.67446746 
 5905000     1.288355 -0.0001044209   0.50362743 0.0032173662            0   0.50041006    1.8842191    2.3878466    -8.304854 
 5910000    1.1365012 -6.1017432e-05   0.74296139   0.00200493            0   0.74095646     1.662133    2.4050943   -3.8430907 
 5915000    1.1764219 -5.8089059e-05   0.67029409 0.0026402099            0   0.66765388     1.720517    2.3908111   -3.5575085 
 5920000    1.1583511 -8.1854473e-05   0.69355722 0.0079967551            0   0.68556047    1.6940885    2.3876458   -5.9942523 
 5925000    1.2716429 1.7074186e-05   0.50897299 0.0059867474            0   0.50298624    1.8597777    2.3687507    4.1171474 
 5930000    1.2122981 7.6260853e-05    0.5875779  0.000431824            0   0.58714608     1.772986    2.3605639    10.169675 
 5935000    1.3086888 2.8035276e-05   0.44425565 0.00093161964            0   0.44332403    1.9139574     2.358213    5.2290253 
 5940000     1.159864 -4.6789106e-05   0.67505023  0.010418015            0   0.66463222    1.6963012    2.3713514    -2.419853 
 5945000    1.1491735 -4.1784048e-05   0.69590346 0.0065694138            0   0.68933405    1.6806662    2.3765697   -1.9021168 
 5950000    1.2552936 6.9188139e-05   0.50402598 0.0021702482            0   0.50185574     1.835867    2.3398929    9.4247584 
 5955000    1.2890452 8.059397e-05   0.44530067            0            0   0.44530067    1.8852286    2.3305292    10.583352 
 5960000    1.1674726 -3.7686871e-05   0.62946805  0.025599521            0   0.60386853    1.7074287    2.3368968   -1.5222388 
 5965000    1.0389052 -0.00014906894    0.7955689  0.067773316            0   0.72779558    1.5193989    2.3149678   -12.949692 
 5970000    1.1725566 -8.6749649e-05   0.66456207  0.046429095            0   0.61813298     1.714864    2.3794261   -6.5037379 
 5975000      1.31025 5.7696173e-05   0.41347484 0.0055640823            0   0.40791075    1.9162407    2.3297155    8.2378036 
 5980000    1.0949085 6.8918569e-05   0.72105346  0.012847031            0   0.70820643    1.6013037    2.3223572    9.3796187 
 5985000    1.1089033 -6.1955602e-06   0.67150698    0.0300672            0   0.64143978     1.621771     2.293278    1.6588526 
 5990000    1.1592801 -7.6749855e-05   0.61360122   0.01617135            0   0.59742987    1.6954472    2.3090484   -5.5501367 
 5995000    1.1263461 -6.3317783e-05   0.62878766 0.0046617103            0   0.62412595    1.6472811    2.2760688   -4.2076722 
 6000000    1.1611123 -8.8943102e-06   0.55861979  0.072801176            0   0.48581861    1.6981268    2.2567466    1.3459692 
 6005000      1.13108 1.9139465e-05   0.57119126   0.03105834            0   0.54013292    1.6542045    2.2253958     4.185277 
 6010000    1.0696867 -2.08408e-05   0.65504197            0            0   0.65504197    1.5644168    2.2194588  0.085360847 
 6015000    1.0754791 -5.1243093e-05   0.63499149            0            0   0.63499149    1.5728882    2.2078797    -3.039413 
 6020000    1.1141551 1.2326484e-05   0.55954537 0.0038366014            0   0.55570876    1.6294519    2.1889973    3.4512293 
 6025000    1.1687626 8.3875722e-05   0.45900175  0.019666249            0    0.4393355    1.7093153    2.1683171    10.757191 
 6030000    1.1553687 5.8807063e-05   0.49695487    0.0188159            0   0.47813897    1.6897268    2.1866816    8.2085249 
 6035000     1.073055 5.5090236e-06   0.62570388  0.045428843            0   0.58027504    1.5693429    2.1950468    2.7591708 
 6040000    1.2257835 -2.7037854e-07   0.43040163  0.022765543            0   0.40763609    1.7927084    2.2231101    2.1954233 
 6045000    1.2286571 -5.015595e-05   0.40526195 0.00049363453            0   0.40476831    1.7969111     2.202173   -2.9337962 
 6050000   0.98550669 -6.7864833e-05   0.74309095 0.0036645505            0    0.7394264    1.4413035    2.1843945   -4.7649644 
 6055000    1.2032475 3.8924859e-07   0.44633056  0.027640193            0   0.41869036    1.7597495    2.2060801    2.2459391 
 6060000    1.1368433 5.4880994e-05   0.58508321  0.018378062            0   0.56670515    1.6626334    2.2477166    7.8675304 
 6065000    1.1592588 6.5885085e-05   0.47779918  0.003360015            0   0.47443917    1.6954161    2.1732152     8.919848 
 6070000    1.1116089 2.0937351e-05   0.47758367 0.0032944315            0   0.47428923     1.625728    2.1033117    4.2472964 
 6075000    1.1065242 -5.0544242e-05   0.44250565  0.016152278            0   0.42635337    1.6182916    2.0607973   -3.1149331 
 6080000   0.99705587 -5.9516856e-05   0.61113836  0.030081282            0   0.58105708    1.4581942    2.0693326   -4.0251935 
 6085000   0.93408814 -1.8913583e-05   0.70831904  0.013673734            0   0.69464531    1.3661039     2.074423   0.13767205 
 6090000    1.0942295 -4.0449266e-05   0.47965245 0.0012339341            0   0.47841851    1.6003106    2.0799631   -2.0620417 
 6095000    1.1276704 -2.2012694e-05   0.43487671            0            0   0.43487671    1.6492179    2.0840946  -0.17000521 
 6100000    1.1284629 9.3904873e-06   0.38461878 5.7239349e-05            0   0.38456154     1.650377    2.0349958    2.9965817 
 6105000   0.92967228 -2.1480786e-05   0.69856802  0.013668671            0   0.68489935    1.3596457    2.0582137  -0.14141878 
 6110000   0.94986066 4.0674928e-05   0.61340359  0.028362808            0   0.58504078    1.3891712    2.0025748    6.1676874 
 6115000   0.99663998 8.2969682e-05   0.58381593  0.020593388            0   0.56322254     1.457586    2.0414019    10.537497 
 6120000    1.0690358 3.2084137e-05   0.49551063  0.014603501            0   0.48090713    1.5634648    2.0589754    5.3443911 
 6125000   0.95230494 -1.5805824e-05   0.61810636 0.00091378235            0   0.61719258     1.392746    2.0108523     0.392336 
 6130000   0.99065997 -6.1325731e-06   0.53336426 0.00056639427            0   0.53279787    1.4488402    1.9822045     1.354229 
 6135000   0.97750459 2.9146102e-06   0.53970328  0.035831979            0    0.5038713    1.4296005    1.9693038    2.2677598 
 6140000    1.0050664 -6.4127587e-05    0.5115435  0.066745303            0   0.44479819    1.4699095     1.981453   -4.5852119 
 6145000   0.99799735 -0.00010250367   0.54023379  0.010950254            0   0.52928353    1.4595711    1.9998049   -8.4965707 
 6150000   0.99899545 -3.6927729e-05   0.58463078 0.0013760192            0   0.58325476    1.4610308    2.0456616   -1.7357378 
 6155000    1.0039801 -9.9758393e-06   0.58979638 0.0028764678            0   0.58691991    1.4683209    2.0581173    1.0365913 
 6160000     1.101476 -1.2304279e-05   0.44937663  0.030892574            0   0.41848406    1.6109087    2.0602853   0.80032717 
 6165000    1.0217571 -2.0673151e-05   0.58591308  0.018073414            0   0.56783967    1.4943198    2.0802329 -0.036697713 
 6170000   0.90147418 -5.6290881e-05   0.75007524  0.011826012            0   0.73824923     1.318406    2.0684812   -3.6957049 
 6175000    1.1622529 -4.1678247e-06   0.36085466  0.016658454            0    0.3441962    1.6997949    2.0606496    1.6338643 
 6180000    1.0162712 3.5587675e-05   0.57631918 0.0059190555            0   0.57040013    1.4862967    2.0626159    5.7067938 
 6185000   0.96578103 4.6308833e-05   0.66392729 0.0013009672            0   0.66262633    1.4124548    2.0763821    6.8184066 
 6190000    1.0575509 5.5843665e-05   0.48761118 0.0023400495            0   0.48527113    1.5466682    2.0342794    7.7526707 
 6195000    1.0088491 -9.874254e-06   0.53388144 0.0022712959            0   0.53161014    1.4754418    2.0093233   0.99819965 
 6200000   0.98163682 -5.4420498e-05   0.53582748 0.0031692128            0   0.53265827    1.4356438    1.9714713   -3.6011877 
 6205000   0.90710125 -3.3725004e-05   0.60275577   0.01196997            0    0.5907858    1.3266356    1.9293913   -1.5240491 
 6210000    1.0579872 -2.0132074e-05   0.40596063  0.010780737            0   0.39517989    1.5473062    1.9532668  -0.10825759 
 6215000   0.99752371 -2.0757466e-05   0.52158058 0.0024199232            0   0.51916066    1.4588784     1.980459  -0.14510553 
 6220000   0.99361039 -2.6166681e-05   0.51647151 0.00094371386            0    0.5155278    1.4531552    1.9696267  -0.70984146 
 6225000     1.004037 -3.3777973e-05   0.52159421 0.00025421701            0      0.52134    1.4684041    1.9899983   -1.4688661 
 6230000   0.95553948 -2.5224575e-05   0.56829281 4.2932805e-05            0   0.56824988    1.3974765    1.9657693  -0.61722722 
 6235000    1.0578501 -1.4422624e-05   0.40392684 0.0011094948            0   0.40281735    1.5471058    1.9510326   0.47415588 
 6240000   0.99626589 -9.6812231e-08   0.49853331  0.014123367            0   0.48440994    1.4570389    1.9555722    1.9456586 
 6245000   0.92334065 2.6007432e-05   0.59164403  0.083243347            0   0.50840068    1.3503857    1.9420297    4.6051908 
 6250000   0.92917002 -7.3294153e-05   0.59965327  0.014690456            0   0.58496281    1.3589112    1.9585644   -5.5467569 
 6255000   0.93922988 1.0175641e-05   0.56505583 0.0009264494            0   0.56412938    1.3736237    1.9386795    2.9806652 
 6260000   0.98894773 1.1643429e-05   0.47835528            0            0   0.47835528    1.4463361    1.9246913    3.1169785 
 6265000    1.0047435 1.190529e-06   0.41652696            0            0   0.41652696    1.4694374    1.8859644    2.0078745 
 6270000    1.0428998 -7.2623148e-06   0.37525363 0.0085720885            0   0.36668154    1.5252409    1.9004945    1.1568335 
 6275000   0.96075797 -8.3874657e-05   0.52326845   0.05567819            0   0.46759026    1.4051085     1.928377   -6.6603879 
 6280000   0.97579107 5.0032939e-06   0.53004993  0.029448485            0   0.50060145    1.4270944    1.9571444    2.4694817 
 6285000   0.92988139 -3.4773562e-05   0.60662803 0.0076621097            0   0.59896592    1.3599515    1.9665796   -1.5942332 
 6290000    1.0228376 -9.0598646e-05   0.46544373 0.0098098884            0   0.45563384    1.4958999    1.9613437   -7.3159576 
 6295000    0.9797172 -6.2097347e-06   0.56984775  0.013991777            0   0.55585597    1.4328364    2.0026842    1.3668073 
 6300000    1.1425353 -4.9199792e-05   0.36083047  0.019621311            0   0.34120916    1.6709578    2.0317883   -3.0062704 
 6305000   0.93410378 7.0700114e-06   0.63957395  0.042794526            0   0.59677942    1.3661268    2.0057007    2.7296699 
 6310000   0.94170995 4.9908663e-05   0.62746246  0.025306663            0    0.6021558    1.3772508    2.0047133    7.1153603 
 6315000    1.0450031 -2.2720676e-05   0.45892048 0.0035939401            0   0.45532654    1.5283171    1.9872375   -0.3393597 
 6320000   0.96154152 -2.576987e-05   0.61380026 0.0014419662            0    0.6123583    1.4062545    2.0200547  -0.61877995 
 6325000    1.0157616 -1.177451e-05   0.52108286 0.0035359809            0   0.51754688    1.4855513    2.0066342   0.80092432 
 6330000    1.0699572 1.1159201e-06   0.45246697 0.0026309956            0   0.44983598    1.5648124    2.0172794    2.1315496 
 6335000    1.0192033 1.4005196e-05   0.52970237 0.0001833901            0   0.52951898    1.4905848    2.0202872    3.4544193 
 6340000   0.92074855 -1.8917353e-05   0.68620273            0            0   0.68620273    1.3465948    2.0327975  0.095660546 
 6345000    1.0710994 -2.103993e-05   0.45195325            0            0   0.45195325    1.5664828    2.0184361  -0.13605271 
 6350000    1.0023177 4.7202521e-05   0.51206412            0            0   0.51206412    1.4658897    1.9779538    6.8114919 
 6355000    1.0763036 8.5880176e-06   0.38894095            0            0   0.38894095    1.5740941     1.963035     2.842448 
 6360000   0.98221333 -5.4131091e-05   0.52074996            0            0   0.52074996     1.436487     1.957237   -3.5857868 
 6365000    1.0112881 -7.9682946e-06     0.521639            0            0     0.521639    1.4790088    2.0006478    1.1846944 
 6370000     1.039148 3.6129104e-05   0.49402154            0            0   0.49402154    1.5197539    2.0137755    5.7133957 
 6375000    1.0387988 3.0533652e-05   0.45103495            0            0   0.45103495    1.5192433    1.9702782    5.0969242 
 6380000   0.80291303 -6.3133253e-05   0.76395219            0            0   0.76395219    1.1742603    1.9382125   -4.5266326 
 6385000   0.96071226 -2.8774755e-05   0.53229608 3.3453129e-06            0   0.53229273    1.4050417    1.9373378   -1.0091972 
 6390000   0.89622102 6.1919009e-05   0.62631704 0.0082750005            0   0.61804204    1.3107232    1.9370403    8.2775468 
 6395000   0.95256621 6.2046101e-05   0.50722008  0.022512347            0   0.48470773    1.3931281    1.9003482    8.2538689 
 6400000   0.95704493 -3.7904659e-05   0.49612363  0.010280644            0   0.48584298    1.3996782    1.8958018   -1.9856353 
 6405000   0.89938268 -4.4835174e-05   0.59120598 0.0060271682            0   0.58517881    1.3153472    1.9065532   -2.6845687 
 6410000   0.90996446 -1.2257475e-05   0.57318519 0.0045180287            0   0.56866716     1.330823    1.9040082    0.6488428 
 6415000    1.0449676 -5.9383362e-05   0.33988075 0.0012893963            0   0.33859135    1.5282651    1.8681458   -4.2127104 
 6420000   0.92915092 -6.4133888e-05   0.53721713 0.0036625572            0   0.53355458    1.3588832    1.8961003   -4.6712097 
 6425000   0.98040863 -5.2116089e-05   0.48819194 0.0065381558            0   0.48165378    1.4338476    1.9220396    -3.414648 
 6430000   0.84790726 -1.1576674e-05   0.67791912  0.003460523            0    0.6744586    1.2400644    1.9179835   0.73253207 
 6435000    1.0155795 8.8109368e-05   0.49494986 2.5699518e-05            0   0.49492416     1.485285    1.9802348    11.002634 
 6440000    1.0308154 0.00013920817   0.48005958            0            0   0.48005958    1.5075676    1.9876271    16.242544 
 6445000   0.92457515 4.9435036e-05   0.61882258            0            0   0.61882258    1.3521912    1.9710137    7.0331615 
 6450000   0.87375729 1.1159289e-05   0.70137963            0            0   0.70137963      1.27787    1.9792497    3.1219609 
 6455000   0.97601375 1.6121128e-05   0.55940452            0            0   0.55940452    1.4274201    1.9868246    3.6376281 
 6460000    1.0151036 6.0756978e-05   0.47151885            0            0   0.47151885     1.484589    1.9561078    8.1776224 
 6465000   0.90554996 8.1838406e-05   0.67063259            0            0   0.67063259    1.3243668    1.9949994    10.375252 
 6470000    1.0598626 0.00010831711   0.46820437 2.2791274e-05            0   0.46818158    1.5500491    2.0182535    13.109925 
 6475000   0.95076893 2.1393409e-05   0.65536533  0.037608667            0   0.61775666    1.3904996    2.0458649      4.23655 
 6480000    1.0052347 -5.1042019e-05   0.59734641  0.031254638            0   0.56609177    1.4701558    2.0675022   -3.1592005 
 6485000    1.0008815 -7.6754243e-07    0.6467192 9.0427339e-05            0   0.64662877    1.4637891    2.1105083     2.031912 
 6490000    1.1291279 2.6322769e-05    0.5134153 0.00017752274            0   0.51323778    1.6513495    2.1647648    4.8602164 
 6495000    1.0788183 -2.9368369e-05    0.5922536 0.0026258157            0   0.58962778    1.5777718    2.1700254  -0.83729561 
 6500000    1.0643913 -4.6263935e-05   0.63244486  0.017051312            0   0.61539355    1.5566723    2.1891172   -2.5483098 
 6505000    1.0755554 3.8612475e-05   0.60029639  0.030409289            0    0.5698871    1.5729997    2.1732961    6.1272136 
 6510000    1.0529931 4.8687353e-05   0.59233662  0.019268342            0   0.57306828    1.5400024     2.132339     7.117924 
 6515000    1.0308434 -4.1845231e-05   0.62799638 0.0014967144            0   0.62649967    1.5076084    2.1356048   -2.1493469 
 6520000    1.1954324 1.7689639e-05   0.39586689            0            0   0.39586689    1.7483198    2.1441867    3.9556058 
 6525000    1.0460164 1.5252898e-05    0.6445309            0            0    0.6445309     1.529799    2.1743299    3.7362266 
 6530000    1.1130687 -5.4708856e-05   0.58229815 0.00010538268            0   0.58219276     1.627863    2.2101611   -3.3920258 
 6535000     1.186394 4.926115e-06    0.4995886 0.0030128769            0   0.49657573    1.7351013    2.2346899     2.739124 
 6540000    1.1416479 3.0009039e-06   0.53989894 0.0049465873            0   0.53495236    1.6696601     2.209559    2.5168516 
 6545000    1.1092094 -2.4942407e-05    0.5850604 0.0011408741            0   0.58391953    1.6222188    2.2072792  -0.34682326 
 6550000    1.0967215 -9.5816789e-05   0.55191142 0.00037214773            0   0.55153928    1.6039553    2.1558667   -7.6557726 
 6555000    1.1153909 -4.9296787e-05   0.55021792   0.00122707            0   0.54899085    1.6312592    2.1814772   -2.8665139 
 6560000    1.0544061 8.3052646e-06   0.62711993  0.015298415            0   0.61182152     1.542069    2.1691889     3.019648 
 6565000    1.0213612 -4.1622489e-05    0.6563958  0.039843719            0   0.61655208    1.4937407    2.1501365   -2.1120063 
 6570000     1.046384 -7.8207134e-05    0.6332263  0.029653281            0   0.60357302    1.5303366    2.1635629   -5.8448476 
 6575000    1.1237268 -2.4733847e-05   0.58477321 0.0064017178            0   0.57837149    1.6434504    2.2282236  -0.30452229 
 6580000    1.0877024 2.5868034e-05   0.59496888 0.0047588595            0   0.59021002    1.5907648    2.1857337    4.8346204 
 6585000    1.0701698 3.1940661e-05   0.60267341 0.0089288624            0   0.59374454    1.5651234    2.1677968    5.4385205 
 6590000    1.0837629 -2.588348e-05   0.56771878  0.012280502            0   0.55543828    1.5850033    2.1527221  -0.49774631 
 6595000    1.0458949 -4.4840236e-05   0.60268466   0.01789878            0   0.58478588    1.5296213    2.1323059   -2.4593342 
 6600000    1.1334958 2.0272703e-05   0.52656157   0.02004445            0   0.50651712    1.6577376    2.1842991    4.2602239 
 6605000    1.2343545 -1.1605519e-05   0.37494459 0.0097578828            0   0.36518671    1.8052435    2.1801881   0.99178296 
 6610000    1.0668669 -9.1967478e-05   0.62538537  0.012068213            0   0.61331716    1.5602929    2.1856783   -7.2317915 
 6615000    1.2146198 -2.099125e-05     0.403523  0.016147964            0   0.38737504    1.7763814    2.1799044   0.03040046 
 6620000    0.9304515 0.00015293031   0.80608625  0.045955714            0   0.76013054    1.3607853    2.1668716    17.826936 
 6625000    1.0472799 8.2166798e-05   0.65704976  0.029952672            0   0.62709709    1.5316468    2.1886966    10.602577 
 6630000     1.148106 -2.1600881e-05   0.49977568 0.0068814402            0   0.49289424     1.679105    2.1788807 -0.033049479 
 6635000    1.0761714 -0.0001094814   0.61559065 0.0026321542            0    0.6129585    1.5739006    2.1894913   -9.0214039 
 6640000    1.1235098 -2.1934325e-05   0.50247685 0.00051442155            0   0.50196242    1.6431331      2.14561  -0.10046497 
 6645000    1.1395807 4.3335428e-05   0.53764587 0.00045565361            0   0.53719022    1.6666367    2.2042826    6.6418304 
 6650000    1.0634343 -5.0967728e-05   0.61884553 0.00075581538            0   0.61808971    1.5552727    2.1741182   -3.0449771 
 6655000   0.95536209 -1.0836735e-05   0.79623216            0            0   0.79623216    1.3972171    2.1934492    1.0837675 
 6660000    1.1842426 -3.4867276e-05   0.49560909 0.00056526528            0   0.49504383    1.7319547    2.2275638   -1.3428452 
 6665000    1.1015825 -4.4986296e-05   0.59870609  0.013432568            0   0.58527352    1.6110644    2.2097705   -2.3968263 
 6670000    1.1060733 3.763301e-05   0.58834336 0.0089887295            0   0.57935463    1.6176322    2.2059755    6.0595957 
 6675000     1.015605 -5.9910372e-05   0.69615638  0.012487472            0   0.68366891    1.4853223    2.1814787   -3.9533434 
 6680000     1.028145 -2.2374253e-05   0.66014441  0.066604744            0   0.59353967     1.503662    2.1638064  -0.12731704 
 6685000   0.94248147 -3.323334e-05   0.76778021  0.018684668            0   0.74909554    1.3783792    2.1461594   -1.2569347 
 6690000    1.0192462 6.068292e-05   0.65617773  0.016207137            0    0.6399706    1.4906475    2.1468253    8.3607563 
 6695000   0.96893754 4.0478454e-05    0.7156238  0.040912327            0   0.67471147    1.4170711    2.1326949    6.2776886 
 6700000     1.134364 8.5277563e-05   0.46627939 0.0074845622            0   0.45879483    1.6590074    2.1252867    10.857709 
 6705000    1.0638923 4.8193169e-05   0.56802805 0.0039974962            0   0.56403055    1.5559425    2.1239706    7.0589511 
 6710000    1.0676404 -1.4754419e-05   0.54966956 0.0034734363            0   0.54619612    1.5614241    2.1110937   0.60024117 
 6715000   0.95891496 3.4391508e-05   0.71531289 0.00098612036            0   0.71432677    1.4024131     2.117726    5.6394165 
 6720000    1.0472345 3.0596093e-05   0.57930871            0            0   0.57930871    1.5315804    2.1108891    5.2439291 
 6725000    1.0155879 -6.1356507e-05   0.63129814 0.0039627207            0   0.62733542    1.4852973    2.1165954   -4.1663109 
 6730000    1.0655306 1.0320253e-06   0.58989304  0.069107192            0   0.52078585    1.5583385    2.1482315    2.2539109 
 6735000   0.99940673 0.00014686501   0.67287373  0.059459905            0   0.61341382    1.4616323    2.1345061    17.173483 
 6740000     1.051328 0.00010528681   0.55300982  0.029376306            0   0.52363352    1.5375672     2.090577    12.871946 
 6745000    1.0000342 -2.6478175e-05   0.64559125   0.02898528            0   0.61660597      1.46255    2.1081413  -0.60322385 
 6750000    1.0125005 -0.00010694382   0.60957766  0.034327989            0   0.57524967     1.480782    2.0903597   -8.8606873 
 6755000    1.0589697 -9.3522677e-05   0.51316874  0.022677645            0   0.49049109    1.5487432     2.061912   -7.5148102 
 6760000    1.0429671 5.4730449e-05   0.51890248  0.004049254            0   0.51485323    1.5253394    2.0442419    7.6486398 
 6765000   0.94472746 4.7120233e-05   0.66619572 0.00080932393            0    0.6653864    1.3816639    2.0478596    6.8729715 
 6770000    1.0702494 -3.3150972e-05   0.50959716 0.0083831964            0   0.50121396    1.5652398    2.0748369   -1.3198226 
 6775000    1.0455411 -3.8486642e-05   0.57025265  0.017689658            0   0.55256299    1.5291039    2.0993565   -1.8416756 
 6780000    1.0833266 -1.2700342e-05   0.47394069 0.0064156335            0   0.46752505    1.5843652    2.0583059   0.75779083 
 6785000   0.93831527 -3.6313537e-05   0.70350305  0.061656079            0   0.64184697    1.3722861    2.0757891   -1.6427171 
 6790000    1.0388666 1.518638e-05   0.58076316  0.015721771            0   0.56504139    1.5193424    2.1001056    3.6551909 
 6795000   0.96304168 2.3689758e-05   0.71262102  0.015460711            0   0.69716031    1.4084485    2.1210695    4.5469006 
 6800000    1.1337138 4.5061406e-07   0.46416835 0.0064009368            0   0.45776741    1.6580564    2.1222248    2.1683676 
 6805000     1.032034 6.2872125e-07   0.63622645   0.00702156            0   0.62920489    1.5093497    2.1455761    2.2099572 
 6810000    1.0656435 4.7881957e-05   0.55502935  0.040259411            0   0.51476994    1.5585037     2.113533    7.0166454 
 6815000   0.99864828 5.2100606e-05   0.64496713  0.026629779            0   0.61833735    1.4605231    2.1054902    7.4405923 
 6820000    1.0239949 -6.981041e-05   0.62932065 0.0024414779            0   0.62687917    1.4975925    2.1269132   -5.0216728 
 6825000    1.0050302 -0.00012039751   0.64399564 0.0086495613            0   0.63534608    1.4698566    2.1138523   -10.214853 
 6830000   0.98114504 -9.6366703e-05   0.64384516  0.031751432            0   0.61209372    1.4349246    2.0787698   -7.7891807 
 6835000    1.0118612 -7.5758397e-05   0.59920204  0.038045851            0   0.56115619     1.479847     2.079049   -5.6786108 
 6840000    1.0127096 1.4036407e-05   0.57555069  0.021115696            0   0.55443499    1.4810878    2.0566385    3.4939665 
 6845000    1.0475724 7.0209436e-05   0.49427159  0.029744819            0   0.46452677    1.5320746    2.0263462    9.2157925 
 6850000   0.98587055 -1.466154e-06   0.56861432  0.019263588            0   0.54935073    1.4418357      2.01045    1.8603158 
 6855000   0.94686534 -0.00011260617   0.61230972 6.1765441e-05            0   0.61224795    1.3847906    1.9971003   -9.5337718 
 6860000    1.1585437 -5.1564111e-05   0.36596246 0.00077394929            0   0.36518851    1.6943702    2.0603327   -3.2198323 
 6865000   0.95595015 4.9506899e-05   0.60953108  0.011602992            0   0.59792809    1.3980771    2.0076082    7.0771146 
 6870000   0.94109389 -2.0067399e-05   0.64148665  0.068346966            0   0.57313968    1.3763498    2.0178365 -0.037065216 
 6875000    1.0011496 -7.8920108e-05   0.54415032  0.081479948            0   0.46267037    1.4641813    2.0083317   -6.0730874 
 6880000   0.99266486 -8.6915267e-05   0.52602347  0.042405461            0   0.48361801    1.4517724    1.9777958   -6.9223275 
 6885000   0.93469498 4.4662246e-05    0.5716124   0.02944774            0   0.54216466    1.3669914    1.9386038    6.5120178 
 6890000   0.85810857 -7.3383309e-06   0.68609137  0.018305902            0   0.66778547    1.2549838    1.9410752    1.1896301 
 6895000   0.99492201 8.1881479e-05   0.49820451 0.0048427812            0   0.49336173    1.4550734     1.953278    10.337941 
 6900000    1.0155588 5.223727e-05   0.46547733 0.00097104373            0   0.46450629    1.4852548    1.9507321    7.2998285 
 6905000   0.87524307 4.1003807e-06   0.68113279  0.035465176            0   0.64566761     1.280043    1.9611758    2.3810548 
 6910000   0.89714342 -3.2918841e-05   0.66795636  0.035710772            0   0.63224559    1.3120722    1.9800286   -1.3908607 
 6915000   0.98029854 -5.8331302e-05   0.54540625 0.0087952508            0     0.536611    1.4336866    1.9790929   -3.9940325 
 6920000   0.92594365 4.942719e-05   0.57570607   0.01123041            0   0.56447566    1.3541926    1.9298986    6.9912429 
 6925000    0.9944774 2.8408528e-05   0.46829491 0.0059720424            0   0.46232286    1.4544232    1.9227181    4.8317514 
 6930000   0.93463885 -6.7917535e-05   0.53809255 0.0018357515            0    0.5362568    1.3669093    1.9050019   -5.0497537 
 6935000   0.86710513 -5.6022346e-05   0.66411504  0.015022183            0   0.64909285    1.2681412    1.9322563   -3.8044319 
 6940000   0.96103904 -5.4073003e-05   0.53892592  0.060497143            0   0.47842878    1.4055196    1.9444455     -3.59263 
 6945000    1.0126769 -3.2535984e-05   0.49485014  0.031883381            0   0.46296676    1.4810399      1.97589   -1.3557947 
 6950000   0.88370343 4.3807589e-05   0.67605163  0.061059984            0   0.61499165    1.2924163    1.9684679     6.454365 
 6955000    1.0103133 -4.1067199e-07   0.51034203  0.048842533            0    0.4614995    1.4775831    1.9879252    1.9458724 
 6960000     1.004736 -9.8853535e-05   0.53650915 0.0070433349            0   0.52946581    1.4694264    2.0059355   -8.1166664 
 6965000    1.0445554 -3.9431931e-05   0.46111611 0.0025952903            0   0.45852082    1.5276622    1.9887783   -2.0490514 
 6970000   0.94556645 3.9399584e-06   0.58527339  0.017146698            0    0.5681267    1.3828909    1.9681643    2.3716161 
 6975000   0.97254534 2.218173e-05   0.54066131  0.022337266            0   0.51832404    1.4223476    1.9630089     4.234418 
 6980000   0.88518019 2.0364272e-05   0.62295673 0.0048920367            0    0.6180647     1.294576    1.9175328    4.0028342 
 6985000   0.93104093 -2.7666421e-05   0.57121253 0.0005719676            0   0.57064056    1.3616474    1.9328599  -0.90018158 
 6990000    1.0550094 1.125086e-05   0.37257429 0.0068500412            0   0.36572425    1.5429513    1.9155256    3.0676137 
 6995000   0.83540735 7.4509595e-05   0.71070822 0.0098172087            0   0.70089102    1.2217832    1.9324915     9.562274 
 7000000   0.94495029 -1.5963286e-05   0.54788914 0.0049324661            0   0.54295668    1.3819898    1.9298789   0.29523842 
 7005000   0.92555391 -4.2043418e-05   0.57184456  0.009886389            0   0.56195817    1.3536226    1.9254671   -2.3797789 
 7010000   0.89564191 3.7242343e-05   0.58521347  0.013311167            0   0.57190231    1.3098763    1.8950898    5.7087057 
 7015000   0.93803706 1.7903514e-05    0.4848855  0.013975104            0   0.47091039    1.3718792    1.8567647    3.6900845 
 7020000   0.83426159 -3.5087001e-06   0.64369409  0.027520691            0    0.6161734    1.2201076    1.8638017    1.5045108 
 7025000   0.88577073 5.7118381e-05   0.58771574  0.035526837            0    0.5521889    1.2954397    1.8831554    7.7320777 
 7030000   0.95716032 5.6313227e-05    0.5057526  0.040445564            0   0.46530703     1.399847    1.9055996    7.6720741 
 7035000   0.90768876 4.5768438e-06   0.54131127   0.05817334            0   0.48313793    1.3274948    1.8688061    2.3374749 
 7040000   0.85355686 -3.1123659e-05   0.64788416  0.059927865            0   0.58795629    1.2483269    1.8962111   -1.2908516 
 7045000   0.99918472 -5.7574452e-06    0.3834293 0.0081592719            0   0.37527003    1.4613077     1.844737    1.2551746 
 7050000    0.8336493 -2.5292824e-05   0.60290396            0            0   0.60290396    1.2192121    1.8221161  -0.76786915 
 7055000   0.87581668 -8.1115763e-05   0.54396258            0            0   0.54396258    1.2808819    1.8248445   -6.4814097 
 7060000    1.0245088 4.3146439e-06   0.35080048            0            0   0.35080048    1.4983441    1.8491446    2.2909642 
 7065000   0.87408403 6.857724e-05   0.56314964            0            0   0.56314964    1.2783479    1.8414975    8.8638069 
 7070000   0.94485342 -4.0777233e-05   0.45616545 3.0951212e-06            0   0.45616235    1.3818481    1.8380136   -2.3375751 
 7075000   0.90083791 -0.00013749966   0.52963822 0.00038112801            0   0.52925709    1.3174755    1.8471137   -12.232851 
 7080000    0.9121855 -3.0670458e-05   0.52970544 0.0063644316            0   0.52334101    1.3340713    1.8637767   -1.2768782 
 7085000   0.90402977 6.3726191e-05    0.4971417 0.0092204561            0   0.48792125    1.3221435    1.8192852    8.3448472 
 7090000   0.80542285 1.9165119e-05   0.66564775 0.00079276387            0   0.66485499    1.1779309    1.8435787    3.8060868 
 7095000   0.96968264 -3.4542829e-05   0.45667945 0.0034234203            0   0.45325603    1.4181609    1.8748403   -1.6623454 
 7100000   0.80657859 -6.0447229e-05   0.68524474  0.026274489            0   0.65897025    1.1796212    1.8648659   -4.3249303 
 7105000    0.9687837 -5.7715917e-05   0.43329683  0.017815997            0   0.41548083    1.4168462     1.850143   -4.0599669 
 7110000   0.90289606 3.2712704e-05   0.55806465 0.0016707204            0   0.55639393    1.3204855    1.8785501    5.2283311 
 7115000    1.0347982 4.8128192e-05   0.41219253 0.0031138194            0   0.40907871    1.5133923    1.9255848    6.8539116 
 7120000    1.0070076 5.2253473e-06   0.47501692 0.0038118626            0   0.47120506    1.4727486    1.9477655    2.4828411 
 7125000   0.91102741 6.0905439e-05   0.56455882 0.0032075734            0   0.56135124    1.3323776    1.8969364    8.1336533 
 7130000   0.94455832 -1.9806242e-05   0.52436652  0.011048496            0   0.51331803    1.3814165    1.9057831  -0.12237609 
 7135000   0.95837012 1.8786968e-05   0.50548132  0.022835726            0   0.48264559    1.4016163    1.9070976    3.8308832 
 7140000   0.94146037  3.22486e-05   0.56253552  0.015252017            0    0.5472835    1.3768858    1.9394213    5.2416779 
 7145000    1.0032439 -6.1000544e-05   0.50418251 0.0086007475            0   0.49558176    1.4672443    1.9714268   -4.2750289 
 7150000   0.95163688 -2.3226721e-05     0.547542  0.019718506            0    0.5278235    1.3917689    1.9393109  -0.43910531 
 7155000   0.89715354 3.5277332e-05   0.61386182 0.0072532716            0   0.60660855    1.3120871    1.9259489    5.5383477 
 7160000   0.96198478 -2.3234064e-05   0.57279652 0.0086316607            0   0.56416486    1.4069027    1.9796993   -0.3994689 
 7165000   0.96649827 -1.5405984e-05   0.59380446 0.0018826572            0    0.5919218    1.4135037    2.0073082   0.42973541 
 7170000    1.0681096 9.3248581e-05   0.45872497            0            0   0.45872497    1.5621103    2.0208352     11.56949 
 7175000   0.95005881 3.2120322e-05   0.63240664            0            0   0.63240664     1.389461    2.0218676    5.3109886 
 7180000   0.94674817 5.197712e-05   0.64156006 4.7266685e-05            0   0.64151279    1.3846192    2.0261793    7.3486364 
 7185000    1.0862389 -9.1755586e-05   0.43944113  0.035202661            0   0.40423847    1.5886243    2.0280655   -7.3677066 
 7190000   0.87254961 -0.00011407895   0.78352533  0.061062208            0   0.72246312    1.2761038    2.0596291   -9.6220557 
 7195000    1.0798511 7.5079369e-06   0.48751647   0.03188394            0   0.45563253    1.5792823    2.0667988    2.8356115 
 7200000    1.0314771 -2.4088098e-05   0.59207113 0.0087987581            0   0.58327237    1.5085353    2.1006064  -0.36601481 
 7205000    1.0478316 6.867178e-05   0.60293408  0.030415407            0   0.57251867    1.5324537    2.1353878    9.1673781 
 7210000     1.119302 7.942151e-05   0.57907716   0.05113476            0   0.52794239    1.6369791    2.2160563    10.348819 
 7215000   0.96139669 -2.2208745e-05   0.77266301  0.032953284            0   0.73970973    1.4060427    2.1787057 -0.095469869 
 7220000    1.0138933 8.7935076e-05   0.70169705  0.024296501            0   0.67740054    1.4828189     2.184516    11.189068 
 7225000    1.0352727 0.00011676257   0.64928151  0.014407285            0   0.63487423    1.5140864    2.1633679    14.119856 
 7230000     1.012197 -1.0889922e-05   0.63374033 0.0078061602            0   0.62593417    1.4803381    2.1140784   0.99895042 
 7235000    1.0433741 -5.2666434e-05   0.59718768 0.0029404652            0   0.59424721    1.5259346    2.1231223   -3.2699206 
 7240000   0.99275073 -4.2925972e-06    0.6587659 0.0078554867            0   0.65091041    1.4518979    2.1106638    1.6711019 
 7245000   0.97885083 3.8352667e-05   0.66611082  0.021385752            0   0.64472506    1.4315693    2.0976802    6.0249933 
 7250000   0.97507447 1.7024968e-05   0.67756932  0.052841767            0   0.62472755    1.4260464    2.1036157    3.8469724 
 7255000    1.1214284 3.6573442e-05   0.49298832  0.028968848            0   0.46401947     1.640089    2.1330773    5.8781978 
 7260000    1.0664667 -6.458053e-05   0.56481948  0.033902283            0   0.53091719    1.5597076    2.1245271   -4.4885192 
 7265000    1.0873637 3.6110213e-05   0.48790564  0.018106586            0   0.46979905    1.5902695    2.0781751    5.7758609 
 7270000   0.89130122 5.7160569e-05    0.7858288  0.019804765            0   0.76602403     1.303528    2.0893568    7.9425991 
 7275000   0.97749543 -3.8059371e-05   0.64352915  0.074943564            0   0.56858558    1.4295871    2.0731162   -1.8241633 
 7280000    1.0910007 9.7767597e-07   0.48872107  0.049722973            0   0.43899809    1.5955885    2.0843096    2.1844236 
 7285000    1.0250367 -6.1518502e-05   0.62392938 0.0066745766            0   0.61725481    1.4991162    2.1230456    -4.176449 
 7290000    1.1671186 3.8409815e-05   0.42298865  7.88157e-05            0   0.42290983    1.7069109    2.1298996    6.0630646 
 7295000     1.231684 4.4324457e-05   0.34904832            0            0   0.34904832    1.8013379    2.1503862    6.6892106 
 7300000    1.0858549 -5.6732378e-05    0.5586942 0.00017308947            0   0.55852111    1.5880628     2.146757   -3.6626386 
 7305000    1.0490666 1.6566012e-05   0.56707618            0            0   0.56707618    1.5342599    2.1013361    3.7976957 
 7310000   0.98452008 -1.0321818e-05   0.70240899            0            0   0.70240899    1.4398606    2.1422696    1.0853155 
 7315000    1.0726765 -8.0424947e-05   0.57894855            0            0   0.57894855    1.5687894    2.1477379   -6.0877766 
 7320000    1.1208454 -8.4122873e-06   0.50253092 0.0045589285            0   0.49797199    1.6392363    2.1417673     1.280349 
 7325000    1.0870031 -4.0190051e-05   0.55116371  0.017408665            0   0.53375505    1.5897421    2.1409058   -1.9745554 
 7330000    1.0156906 2.3229821e-05   0.64240895  0.042598878            0   0.59981007    1.4854475    2.1278564    4.5065901 
 7335000    1.0719863 2.9393394e-05   0.57609094  0.028904697            0   0.54718625    1.5677799    2.1438709    5.1537544 
 7340000    1.1241824 -4.0742953e-05   0.46042682 0.0060835302            0   0.45434329    1.6441168    2.1045436   -2.0675347 
 7345000   0.95171079 4.2999027e-05   0.66444614 0.00089514742            0   0.66355099     1.391877    2.0563232    6.4594235 
 7350000    1.1203767 6.037647e-05   0.42758642 0.00066359989            0   0.42692282    1.6385509    2.0661373    8.2486878 
 7355000    1.0917562 7.8001575e-05    0.4864855 0.0023052438            0   0.48418025    1.5966934    2.0831789     10.07054 
 7360000    1.0857825 1.6411183e-06   0.48995172 0.0087127815            0   0.48123893    1.5879569    2.0779086    2.2459591 
 7365000     1.020945 -7.2707549e-05   0.60530189  0.082923539            0   0.52237835     1.493132    2.0984339   -5.3468191 
 7370000    1.0179247 2.3349074e-05   0.55977795  0.008123832            0   0.55165412    1.4887149    2.0484929     4.439438 
 7375000    1.1214575 4.5802141e-05   0.36930763 0.00030852589            0   0.36899911    1.6401317    2.0094393    6.6995785 
 7380000    1.0738236 1.9744964e-05   0.44820713            0            0   0.44820713    1.5704671    2.0186742    4.0405586 
 7385000    1.0888011 3.3196472e-05   0.41040196 0.00023169017            0   0.41017027    1.5923716    2.0027736    5.4020923 
 7390000   0.98037774 -0.00012588685   0.57424666 0.0024791221            0   0.57176754    1.4338024    2.0080491   -10.882764 
 7395000      1.03708 -2.3755945e-05   0.47432188 0.0021326799            0    0.4721892    1.5167295    1.9910514  -0.44155736 
 7400000   0.94439385 4.3610491e-05    0.6140185 0.00012626513            0   0.61389223     1.381176    1.9951945    6.4609088 
 7405000    1.0071425 -4.4411637e-05   0.48461979 0.0067050313            0   0.47791476    1.4729459    1.9575657   -2.5901859 
 7410000     1.076279 3.865504e-06   0.40010915  0.030297723            0   0.36981142    1.5740581    1.9741672    2.3699949 
 7415000   0.84809056 3.6262613e-05   0.72874924  0.054863679            0   0.67388556    1.2403324    1.9690817    5.6823732 
 7420000    0.9780887 -2.1804985e-05   0.52485159  0.032555837            0   0.49229576    1.4304547    1.9553063  -0.27752414 
 7425000    1.0876826 6.783982e-06   0.34945835 0.0039794714            0   0.34547887    1.5907358    1.9401941    2.6348739 
 7430000    1.0758302 -2.5285349e-05   0.35205205 3.8585937e-05            0   0.35201347    1.5734017    1.9254538    -0.663766 
 7435000   0.92294012 -3.1106908e-05   0.61021216 0.00086413761            0   0.60934803    1.3497999    1.9600121   -1.2253353 
 7440000   0.92738342 0.00010197585    0.6060485 0.0089391081            0   0.59710939    1.3562983    1.9623468    12.404674 
 7445000   0.93341073 -6.6467479e-05    0.6256865   0.11299987            0   0.51268663    1.3651132    1.9907997   -4.8154701 
 7450000    0.9647507 -1.722074e-05   0.57910389  0.078672495            0    0.5004314    1.4109479    1.9900518   0.22664801 
 7455000   0.98191168 -1.323585e-06   0.53693219  0.020527461            0   0.51640473    1.4360458     1.972978    1.8374429 
 7460000    1.0710149 6.9406519e-05   0.38916973 0.0066835808            0   0.38248615    1.5663592     1.955529    9.0627565 
 7465000    0.9555651 -4.4925539e-05   0.52860294 0.0006122358            0    0.5279907     1.397514    1.9261169   -2.6742583 
 7470000    1.0182205 9.8382721e-05   0.39290424 0.00049084512            0   0.39241339    1.4891475    1.8820517    11.956442 
 7475000   0.99653516 -4.8974019e-06   0.46172962 1.6638729e-05            0   0.46171298    1.4574327    1.9191623    1.4176683 
 7480000    1.0537146 2.1764133e-05   0.39463911 0.0061769012            0   0.38846221    1.5410576    1.9356967     4.164344 
 7485000   0.90926897 -0.00010991302   0.59757531    0.1026556            0   0.49491971    1.3298059    1.9273812   -9.3277116 
 7490000    1.0561308 -3.8870698e-05   0.35695066  0.004066857            0    0.3528838    1.5445914     1.901542   -2.0788175 
 7495000    1.0360921 3.5556053e-05   0.37905575 0.0011274871            0   0.37792826    1.5152848    1.8943405    5.5352803 
 7500000    1.0320625 -3.8008713e-05   0.40904016 0.0030238576            0    0.4060163    1.5093914    1.9184315   -1.9736607 
 7505000    0.9394134 2.6870196e-05   0.46086158 0.00063222727            0   0.46022935    1.3738921    1.8347537    4.5862617 
 7510000   0.91483503 -2.7410717e-05   0.56424547  0.002465668            0    0.5617798    1.3379462    1.9021917  -0.90466568 
 7515000   0.98803896 -2.5752269e-05   0.45583892 0.0063737002            0   0.44946522     1.445007    1.9008459  -0.73618649 
 7520000   0.91967625 -0.00014963847   0.54359635  0.028494922            0   0.51510143    1.3450265    1.8886229   -13.434357 
 7525000    1.0231977 1.5272943e-05   0.37547679  0.022669068            0   0.35280772    1.4964266    1.8719034    3.4358527 
 7530000   0.93509742 0.00011298276   0.53934838  0.080802814            0   0.45854557      1.36758    1.9069284    13.476363 
 7535000   0.94760109 -3.2653231e-06    0.5584497  0.021551668            0   0.53689803    1.3858666    1.9443163    1.6099472 
 7540000    1.0301041 3.7324246e-05   0.39988424  0.008898093            0   0.39098615    1.5065273    1.9064115    5.7284143 
 7545000   0.94813558 5.5321926e-05   0.51838107  0.033063302            0   0.48531776    1.3866483    1.9050293    7.5699945 
 7550000   0.94918258 -4.8277616e-05   0.50945895  0.015170912            0   0.49428804    1.3881795    1.8976385   -3.0459894 
 7555000    1.0768889 3.7590662e-05    0.3620555 0.0028116774            0   0.35924382    1.5749501    1.9370056    5.7862894 
 7560000    1.0478727 -2.2765962e-05   0.37528222            0            0   0.37528222    1.5325138    1.9077961  -0.42343839 
 7565000   0.88447368 -8.1010595e-05   0.63284125 0.00012836413            0   0.63271289    1.2935428     1.926384   -6.3691009 
 7570000    1.0049047 -7.0973524e-06   0.50248089 0.0019475615            0   0.50053333    1.4696731     1.972154    1.2453851 
 7575000   0.98051285 -5.7322325e-05   0.55686729 0.0055476744            0   0.55131961        1.434    1.9908673   -3.8789388 
 7580000    1.0565609 1.2523891e-05   0.43379241 0.0043730521            0   0.42941936    1.5452203    1.9790128    3.2614592 
 7585000    1.0044313 9.0273725e-05   0.49596152   0.03643148            0   0.45953004    1.4689808    1.9649423    11.208972 
 7590000   0.93688553 -1.5942642e-05   0.62555668  0.022521031            0   0.60303564    1.3701951    1.9957518   0.36322526 
 7595000    1.0129432 -7.5912382e-05   0.53493947 0.0006590492            0   0.53428042    1.4814295    2.0163689    -5.757059 
 7600000    1.0678421 -2.1895431e-05   0.44967812 0.00010077469            0   0.44957735    1.5617191    2.0113972  -0.23069491 
 7605000   0.99668282 -5.4805904e-05   0.56498113  0.019806986            0   0.54517414    1.4576486    2.0226298   -3.5894948 
 7610000   0.96956211 -0.00013902854   0.60282259  0.055074249            0   0.54774834    1.4179846    2.0208072   -12.215715 
 7615000    1.0627248 -9.6749719e-05   0.47179386 0.0071495699            0   0.46464429     1.554235    2.0260289   -7.8811424 
 7620000   0.98799975 5.7532041e-05   0.52016141            0            0   0.52016141    1.4449496     1.965111     7.856392 
 7625000   0.99200652 7.8194125e-05   0.54700784            0            0   0.54700784    1.4508095    1.9978174    10.004896 
 7630000        1.028 -4.1848927e-05   0.48470564            0            0   0.48470564    1.5034499    1.9881556   -2.2971746 
 7635000   0.98538442 -7.1043345e-05   0.54984252 0.0021449013            0   0.54769762    1.4411247    1.9909672   -5.2838713 
 7640000    1.0192537 -1.9004263e-05   0.46183229 0.0036204978            0    0.4582118    1.4906585    1.9524908 0.0064542813 
 7645000    1.0118122 -2.9355633e-05   0.51484468  0.019129071            0   0.49571561    1.4797753      1.99462   -1.0113969 
 7650000   0.93904231 2.1091633e-06   0.59659863  0.033533947            0   0.56306469    1.3733494     1.969948    2.1859263 
 7655000    1.1011667 2.2241707e-05   0.36668397 0.0065490345            0   0.36013493    1.6104562    1.9771402     4.254691 
 7660000    1.0188652 -6.1605592e-05   0.48219262 0.0088583719            0   0.47333425    1.4900904     1.972283   -4.3361297 
 7665000    0.9843786 -6.5316293e-05   0.52592079  0.011053771            0   0.51486702    1.4396537    1.9655745    -4.722814 
 7670000     0.975757 6.4471298e-05   0.51281325 0.0021743727            0   0.51063887    1.4270446    1.9398579    8.5417188 
 7675000    1.0207383 3.4685299e-05   0.47454937 0.0031060105            0   0.47144336    1.4928298    1.9673791    5.5191538 
 7680000   0.99966369 -0.00011077464   0.52843444 0.0018876786            0   0.52654676    1.4620081    1.9904426   -9.3528802 
 7685000   0.96278206 -6.1861095e-05   0.57108966  0.032227895            0   0.53886177    1.4080688    1.9791584   -4.3554177 
 7690000    1.0382487 4.0704689e-05   0.44358422  0.059848003            0   0.38373622    1.5184387    1.9620229    6.1301831 
 7695000   0.91175623 3.2960009e-05   0.59960708  0.017325162            0   0.58228191    1.3334435    1.9330506    5.3081555 
 7700000   0.88523882 1.6930859e-06   0.62781672 0.0069065406            0   0.62091017    1.2946618    1.9224785    2.0958505 
 7705000   0.96716872 3.5366139e-05   0.51417258 0.0042692956            0   0.50990328    1.4144843    1.9286568    5.5501495 
 7710000   0.98956949 1.9225579e-05   0.43898864  0.028765575            0   0.41022307    1.4472454     1.886234    3.8549333 
 7715000   0.87180952 -2.5848963e-05   0.62346986   0.05304722            0   0.57042264    1.2750214    1.8984913  -0.74844253 
 7720000     0.990267 3.4166012e-06   0.48269631  0.022744538            0   0.45995177    1.4482655    1.9309618    2.2808218 
 7725000   0.91997398 -3.6729996e-06   0.54986777  0.016115344            0   0.53375243    1.3454619    1.8953297    1.5192146 
 7730000   0.92225869 -8.0661305e-05   0.53676976 0.00080363851            0   0.53596612    1.3488033    1.8855731   -6.3741446 
 7735000   0.96952601 -0.00012738838    0.4715962 0.00085327744            0   0.47074292    1.4179318     1.889528   -11.155043 
 7740000   0.88968103 -7.0265257e-05   0.55111694   0.01740693            0   0.53371001    1.3011585    1.8522754   -5.3428868 
 7745000   0.82558642 -2.0062719e-05   0.64602899  0.017838912            0   0.62819008    1.2074201    1.8534491   -0.2009733 
 7750000    1.0240951 -2.8855012e-05    0.3598729 0.0020280769            0   0.35784483    1.4977391     1.857612   -1.0971412 
 7755000   0.97289656 -3.6473223e-05   0.43649685 0.0066653653            0   0.42983148    1.4228612    1.8593581      -1.8755 
 7760000    0.9412871 -9.4299626e-06   0.48098272   0.01031925            0   0.47066347    1.3766324    1.8576151   0.89198694 
 7765000   0.86693559 -9.1366198e-06   0.59090635 0.0072407779            0   0.58366557    1.2678933    1.8587996   0.92320978 
 7770000   0.97882745 -9.8929008e-06   0.41925342 0.0059106447            0   0.41334277    1.4315351    1.8507886   0.83775552 
 7775000   0.90176242 -2.5636849e-05   0.52437393  0.021582792            0   0.50279114    1.3188275    1.8432015   -0.7820119 
 7780000   0.89821205 -3.102122e-05   0.51944404  0.029641416            0   0.48980262    1.3136351    1.8330792   -1.3434937 
 7785000   0.89193493 3.5473642e-05   0.51689333 0.0072168254            0    0.5096765    1.3044548    1.8213482    5.4538491 
 7790000   0.88996582 3.9633494e-05   0.57711777  0.028082869            0    0.5490349     1.301575    1.8786928    5.9371626 
 7795000    1.0196568 -3.4857608e-05   0.37649815  0.028323532            0   0.34817462    1.4912481    1.8677463   -1.7016728 
 7800000   0.92088799 -4.4781944e-05   0.47550003  0.010864314            0   0.46463571    1.3467987    1.8222987   -2.7633724 
 7805000   0.94523971 4.9810418e-05   0.44456518   0.05097364            0   0.39359154    1.3824131    1.8269783    6.9275651 
 7810000   0.96454637 6.2591066e-05   0.39668416  0.018834935            0   0.37784922    1.4106491    1.8073332    8.2166583 
 7815000   0.85058826 -1.6648346e-05   0.54896241   0.02381225            0   0.52515016    1.2439853    1.7929477  0.088157116 
 7820000   0.90504361 1.5656942e-05   0.47837161  0.025578405            0    0.4527932    1.3236263    1.8019979    3.4052688 
 7825000   0.96289407 6.2870955e-05   0.38540417    0.0120002            0   0.37340397    1.4082326    1.7936368    8.2316225 
 7830000    0.8839229 7.1909108e-05   0.49142849 0.0042203032            0   0.48720818    1.2927372    1.7841657    9.1476584 
 7835000   0.81291358 0.00013224367   0.61263003  0.048994244            0   0.56363579    1.1888861    1.8015161    15.343268 
 7840000   0.97226004 2.014412e-05   0.38196608  0.020414915            0   0.36155116    1.4219303    1.8038964    3.8666543 
 7845000   0.83882566 -5.404149e-05   0.60435381 0.0015697878            0   0.60278402    1.2267825    1.8311363   -3.7027123 
 7850000   0.91117954 1.3762356e-05   0.47140365   0.01476467            0   0.45663898    1.3326001    1.8040037     3.213269 
 7855000   0.98134587 -7.8172009e-06   0.30621176   0.01785354            0   0.28835823    1.4352183    1.7414301   0.94094873 
 7860000   0.87258367 7.8700729e-06   0.44487697 0.0014572095            0   0.44341976    1.2761536    1.7210306     2.526926 
 7865000    0.8338183 6.8453994e-05   0.49336578 3.5465261e-05            0   0.49333032    1.2194593     1.712825     8.722514 
 7870000   0.85766525 1.4713941e-06   0.48258261 0.00021895367            0   0.48236365    1.2543354     1.736918    1.8875888 
 7875000    0.9397811 -3.319315e-05   0.34865329 0.0019756656            0   0.34667762    1.3744299    1.7230831   -1.6758954 
 7880000   0.76256298 -2.1133432e-05   0.60733293 0.0025072323            0    0.6048257    1.1152484    1.7225813   -0.4414822 
 7885000   0.92418877 -0.00010159477   0.36084645 0.00059101844            0   0.36025543    1.3516261    1.7124725   -8.6908318 
 7890000   0.76833236 -0.00012736492   0.62653178            0            0   0.62653178    1.1236861    1.7502179    -11.29195 
 7895000   0.97786145 -1.9396617e-05   0.32520549 0.00041562374            0   0.32478987    1.4301224    1.7553279  -0.23088573 
 7900000   0.78612819 1.4909097e-05   0.56685689  0.026145245            0   0.54071165    1.1497125    1.7165694    3.2432609 
 7905000   0.87819293 0.00010592771   0.41406212  0.035163646            0   0.37889847    1.2843572    1.6984193    12.545416 
 7910000   0.78232301 6.7162268e-05   0.52390693  0.047740788            0   0.47616614    1.1441474    1.6680543    8.5454706 
 7915000   0.80412505 -4.9783814e-05   0.52305444  0.051169172            0   0.47188527    1.1760329    1.6990873   -3.3987752 
 7920000   0.87872276 -4.1642224e-05   0.41825387  0.016968761            0   0.40128511     1.285132    1.7033859   -2.5607779 
 7925000   0.93342141 1.5007566e-05   0.31526608 0.0062167949            0   0.30904928    1.3651288    1.6803949    3.2171696 
 7930000   0.73984636 -3.6628179e-06   0.58661624 1.0475014e-06            0    0.5866152    1.0820253    1.6686415     1.293569 
 7935000   0.89122655 2.091619e-06   0.36662322 0.0098977127            0   0.35672551    1.3034188     1.670042    1.8842238 
 7940000   0.74673727 7.2774202e-06   0.58294794  0.033808057            0   0.54913989    1.0921033    1.6750512     2.420259 
 7945000   0.87284943 -1.9540961e-05   0.42405962 0.0078847448            0   0.41617487    1.2765423    1.7006019  -0.30039249 
 7950000   0.88972472 -2.3043931e-05   0.40137873  0.022101303            0   0.37927743    1.3012224    1.7026011  -0.65709737 
 7955000    0.8728003 -1.6829397e-05   0.42871626    0.1065488            0   0.32216746    1.2764704    1.7051867 -0.018143601 
 7960000   0.79945159 -4.3680562e-05   0.54774026 0.0019387294            0   0.54580153     1.169198    1.7169382   -2.7559513 
 7965000   0.95301221 5.6756826e-05   0.32506403  0.004868747            0   0.32019528    1.3937804    1.7188444    7.5307434 
 7970000   0.90610567 3.5324943e-05   0.45030111  0.068955853            0   0.38134526    1.3251795    1.7754807    5.3927549 
 7975000   0.93778514 -8.5800021e-06   0.38359391  0.034392557            0   0.34920135    1.3715108    1.7551047   0.87651246 
 7980000    0.9432461 3.9650711e-06   0.38384289            0            0   0.38384289    1.3794974    1.7633403    2.1693636 
 7985000   0.90902411 1.0643284e-05   0.47785344  0.013687266            0   0.46416617    1.3294478    1.8073012    2.8971735 
 7990000   0.92277793 1.0067792e-06    0.3971584  0.033040037            0   0.36411837    1.3495627    1.7467211    1.8498153 
 7995000   0.90732716 -4.8323835e-05   0.41525577 0.0035655796            0   0.41169019     1.326966    1.7422217    -3.206139 
 8000000   0.84743917 7.3454386e-05   0.47879061 0.0093283948            0   0.46946221    1.2393798    1.7181704    9.2398995 
 8005000   0.92989467 8.916549e-06    0.3687301  0.033159193            0   0.33557091    1.3599709    1.7287011    2.6417557 
 8010000   0.87123843 4.6063373e-05   0.47722976  0.023531161            0    0.4536986    1.2741862     1.751416    6.4683054 
 8015000   0.78627312 1.2444314e-06   0.62879719  0.081819342            0   0.54697785    1.1499244    1.7787216    1.9061514 
 8020000   0.92258114 2.2344066e-05   0.40999846 0.00031110537            0   0.40968736    1.3492749    1.7592734    4.0473057 
 8025000   0.99017695 3.2419686e-05   0.31880347 0.00047889215            0   0.31832458    1.4481338    1.7669373    5.0867131 
 8030000   0.98358515 -4.2721774e-05   0.35878204 0.0046209793            0   0.35416106    1.4384933    1.7972753   -2.5774343 
 8035000   0.98822581 6.9572339e-05   0.32797793 0.0095985968            0   0.31837933    1.4452802    1.7732582    8.8974657 
 8040000   0.89816358 6.2052651e-05    0.4630914 0.0037170604            0   0.45937434    1.3135642    1.7766556    8.1308471 
 8045000    0.9661938 -3.4249054e-06   0.39955429 0.0072024819            0    0.3923518    1.4130584    1.8126127    1.4619024 
 8050000   0.96150673 -2.3005676e-05   0.40392836  0.014007134            0   0.38992123    1.4062036     1.810132  -0.54564928 
 8055000   0.85525988 -8.4718889e-06   0.55033074  0.080468434            0   0.46986231    1.2508176    1.8011483   0.93362689 
 8060000   0.83305246 1.9837129e-05   0.55233026  0.090829552            0   0.46150071    1.2183392    1.7706695    3.8019915 
 8065000   0.83837662 -3.1892487e-05   0.55196179  0.059047576            0   0.49291421    1.2261258    1.7780876   -1.4877031 
 8070000   0.96909383 1.5068197e-05    0.3729026  0.023426464            0   0.34947614    1.4172997    1.7902023    3.3331857 
 8075000   0.99754026 -1.6802695e-05   0.39433692  0.038594446            0   0.35574247    1.4589026    1.8532396    0.1326436 
 8080000    0.9712456 2.351948e-05   0.41764996  0.043653509            0   0.37399645    1.4204467    1.8380966    4.2464914 
 8085000    1.0188349 2.4232422e-06   0.35614717 0.0096472791            0   0.34649989    1.4900461    1.8461932    2.0943332 
 8090000   0.97716781 -4.1203883e-05   0.44984186 2.790846e-05            0   0.44981395    1.4291079    1.8789498   -2.3403279 
 8095000   0.99056726 -1.1325187e-05   0.43216354 0.00083067227            0   0.43133287    1.4487046    1.8808682   0.72116906 
 8100000   0.97410511 -7.102017e-06   0.44577351  0.019081719            0   0.42669179    1.4246287    1.8704022    1.1431557 
 8105000   0.98286726 3.4045551e-05    0.4498086  0.030954501            0    0.4188541    1.4374434     1.887252    5.3735164 
 8110000   0.94838199 3.5351106e-05   0.49771392 0.0079257014            0   0.48978822    1.3870087    1.8847226    5.5046759 
 8115000   0.97510342 -5.5880233e-07    0.4561097  0.005913532            0   0.45019617    1.4260888    1.8821985    1.8249771 
 8120000   0.95374104 -6.5761469e-05   0.47842665  0.002663856            0   0.47576279    1.3948463    1.8732729   -4.8607015 
 8125000   0.90241801 -4.0937562e-05   0.51788298  0.022504586            0   0.49537839    1.3197863    1.8376693    -2.354337 
 8130000     0.957209 1.7048415e-05   0.41909456  0.072958913            0   0.34613565    1.3999182    1.8190127    3.5647704 
 8135000    0.9531617 6.7636772e-05   0.43215796  0.030746279            0   0.40141168     1.393999     1.826157    8.7521624 
 8140000     1.023324 1.5278427e-05   0.37871924 0.0063746385            0    0.3723446    1.4966114    1.8753306    3.4398415 
 8145000   0.99836492 -3.1690709e-05   0.46658861   0.01387675            0   0.45271186    1.4601087    1.9266973   -1.3184313 
 8150000   0.99401164 5.871081e-05   0.47332739  0.024240591            0    0.4490868     1.453742    1.9270694    7.9390563 
 8155000   0.96924966 9.8356495e-06   0.51657974 0.0063212424            0    0.5102585    1.4175276    1.9341074    2.9412779 
 8160000    1.0198469 -4.9090322e-05   0.46502631 2.7656026e-05            0   0.46499865    1.4915261    1.9565524   -3.0702966 
 8165000    1.1122165 -1.6485441e-07   0.33212693 0.00050703788            0    0.3316199    1.6266166    1.9587435    1.9418624 
 8170000   0.95545046 2.0830894e-06   0.51976802 0.0027225604            0   0.51704546    1.3973463    1.9171143    2.1304227 
 8175000    1.0220969 3.1798685e-05   0.40780397  0.014260897            0   0.39354307    1.4948168    1.9026208    5.1588061 
 8180000    1.0561935 6.3851047e-05   0.40105145  0.028617092            0   0.37243436     1.544683    1.9457345    8.4840817 
 8185000   0.97554925 2.1083189e-05   0.48632844  0.031943095            0   0.45438534    1.4267408    1.9130692    4.0719878 
 8190000    1.0695117 -2.3086261e-06   0.36173146 0.0082909247            0   0.35344054    1.5641609    1.9258923     1.689489 
 8195000    1.0296511 1.2212756e-05   0.40821698  0.016456446            0   0.39176054    1.5058648    1.9140817    3.1646679 
 8200000    1.0696972 -3.3237986e-05   0.35164675  0.041421271            0   0.31022547    1.5644322     1.916079   -1.4874908 
 8205000   0.93150288 -5.967147e-05   0.53841093  0.034347379            0   0.50406355     1.362323    1.9007339   -4.2096246 
 8210000    1.0324614 -1.0595497e-05   0.39168781 0.0079910999            0   0.38369671    1.5099748    1.9016626   0.81668369 
 8215000    1.0971448 2.2906521e-05    0.3102241 0.00068465714            0   0.30953944    1.6045743    1.9147983    4.2604261 
 8220000   0.95778894 1.3174564e-05   0.51657327  0.020344667            0    0.4962286    1.4007663    1.9173396     3.266415 
 8225000    1.0299018 1.9399288e-05   0.41025782  0.037518812            0   0.37273901    1.5062315    1.9164893    3.9029764 
 8230000   0.91161747 -2.8512946e-06   0.50847529  0.036436204            0   0.47203908    1.3332405    1.8417158    1.5497433 
 8235000    1.0127224 -6.6785542e-05   0.37033708 0.0065093931            0   0.36382768    1.4811065    1.8514436   -4.9873959 
 8240000    1.0260081 -3.0761048e-05   0.36764379 0.00041319463            0    0.3672306    1.5005368    1.8681806   -1.2817507 
 8245000    1.0146978 6.0971821e-05   0.41868687            0            0   0.41868687    1.4839955    1.9026824    8.1461969 
 8250000    1.0695029 2.2107478e-05   0.36586872            0            0   0.36586872    1.5641479    1.9300167    4.1938224 
 8255000    0.9806018 -8.5762005e-06   0.47870857 0.0024033539            0   0.47630521    1.4341301    1.9128387    1.0346358 
 8260000    1.0022676 2.0695915e-05   0.46477373 0.0078200573            0   0.45695368    1.4658164    1.9305901    4.0498518 
 8265000    1.0784841 7.3690814e-06   0.33336413 0.0082136981            0   0.32515043     1.577283    1.9106471     2.665241 
 8270000   0.98516168 -6.603229e-05   0.44295298  0.011425846            0   0.43152714     1.440799    1.8837519   -4.8779545 
 8275000    1.0216015 -2.6126926e-05   0.38311486  0.025961604            0   0.35715326    1.4940921     1.877207  -0.79819021 
 8280000   0.97334554 1.4720886e-05   0.47626771  0.024119705            0   0.45214801    1.4235179    1.8997856    3.4072043 
 8285000   0.94613694 3.1976598e-06   0.48313424  0.035299325            0   0.44783491    1.3837253    1.8668595    2.1942999 
 8290000   0.94820062 7.6684794e-05   0.47616114  0.033022552            0   0.44313859    1.3867434    1.8629046    9.7154275 
 8295000    1.0111232 4.7054081e-05   0.36879953  0.010471247            0   0.35832829    1.4787677    1.8475673    6.6659052 
 8300000   0.94560311 2.9396321e-06   0.45922885  0.001454742            0   0.45777411    1.3829445    1.8421734    2.1431917 
 8305000   0.96883986 3.3849233e-05   0.44043145 0.0025612382            0   0.43787021    1.4169283    1.8573598    5.3235212 
 8310000    1.0501301 5.5839815e-05   0.31829967  0.023950353            0   0.29434932    1.5358153     1.854115     7.572112 
 8315000   0.91788705 2.5136588e-05   0.44763165   0.01378213            0   0.43384952    1.3424098    1.7900415    4.3640281 
 8320000   0.91572993 -3.0348131e-05   0.46208737 0.0075833944            0   0.45450397     1.339255    1.8013424   -1.3063063 
 8325000   0.96391958 -3.998787e-05    0.3844328  0.016233416            0   0.36819939    1.4097324    1.7941652   -2.3005927 
 8330000   0.96284374 -6.4497017e-07   0.42058782  0.023591713            0    0.3969961     1.408159    1.8287468    1.7627018 
 8335000   0.89458293 -8.1023609e-07    0.5061341  0.016678563            0   0.48945554    1.3083275    1.8144616    1.7314935 
 8340000   0.94816054 2.4528665e-05   0.43347549 0.0048459098            0   0.42862958    1.3866848    1.8201603    4.3318956 
 8345000     1.124656 1.3608216e-05   0.23400213 1.8628649e-05            0    0.2339835    1.6448094    1.8788116    3.2722929 
 8350000   0.99194947 -2.3065527e-05   0.43654128 0.00040038076            0    0.4361409    1.4507261    1.8872674  -0.47464256 
 8355000    1.0333666 4.2633677e-06   0.40804934  0.001994917            0   0.40605442    1.5112986     1.919348    2.3559168 
 8360000    1.0299946 -1.4854361e-05   0.40957479 0.0050983098            0   0.40447648    1.5063671    1.9159419   0.39485529 
 8365000    0.9616486 -6.3305546e-05   0.47186705 0.0090721923            0   0.46279486    1.4064111    1.8782781   -4.6042098 
 8370000    1.0697504 -8.7087576e-05   0.32458791  0.016730229            0   0.30785768    1.5645099    1.8890978   -7.0286699 
 8375000    1.0276641 -6.6961225e-06   0.41001102  0.007930085            0   0.40208094    1.5029588    1.9129698    1.2272869 
 8380000    1.0268103 1.1741804e-05   0.38439131 0.00011174488            0   0.38427957      1.50171    1.8861013     3.088462 
 8385000   0.99383869 5.6927615e-06   0.44131641  0.003348469            0   0.43796794    1.4534891    1.8948055    2.4777443 
 8390000    1.0210762 1.9765426e-05   0.40781421  0.030881168            0   0.37693304     1.493324    1.9011382    3.9251178 
 8395000   0.99236331 -1.5588657e-05   0.41058416  0.018825015            0   0.39175914    1.4513313    1.8619155   0.26563697 
 8400000    1.0637565 -2.5834564e-05   0.30171072 0.00082305538            0   0.30088767    1.5557439    1.8574546  -0.78800478 
 8405000    1.0037906 5.1375715e-05   0.39665825 0.0052910305            0   0.39136722    1.4680437     1.864702    7.1255752 
 8410000    1.0239312 3.5922766e-05   0.29904751  0.011482209            0    0.2875653    1.4974993    1.7965468    5.4750381 
 8415000    0.9870907 -3.6960714e-05   0.31829241  0.020946616            0    0.2973458    1.4436202    1.7619126   -2.0228645 
 8420000    1.0144974 2.2407212e-05   0.29775557  0.018002054            0   0.27975352    1.4837025    1.7814581    4.0759565 
 8425000   0.99440143 -3.470609e-05   0.33978166  0.019854604            0   0.31992706    1.4543121    1.7940937   -1.7598099 
 8430000    1.0297398 2.2228045e-05   0.27366434  0.022523531            0   0.25114081    1.5059945    1.7796588    4.0558107 
 8435000    0.9602151 2.8841339e-06   0.37973904  0.038964091            0   0.34077494    1.4043146    1.7840536    2.0793889 
 8440000    1.0073273 6.7716825e-05   0.33817483  0.016952894            0   0.32122194    1.4732162     1.811391    8.7455939 
 8445000   0.95466858 6.0617507e-05   0.43615651 0.0088793821            0   0.42727713    1.3962028    1.8323593     8.039592 
 8450000    1.0417852 4.2761772e-05    0.2891371  0.017344217            0   0.27179289    1.5236109     1.812748    6.1915534 
 8455000    1.0770446 -2.0924393e-05   0.31259272  0.023352657            0   0.28924006    1.5751777    1.8877704  -0.25488745 
 8460000    1.0908287 -2.9706741e-05   0.34750756 0.0069506978            0   0.34055686     1.595337    1.9428445   -1.0991257 
 8465000    1.0618285 2.4111446e-05   0.41127879  0.013125127            0   0.39815366    1.5529242     1.964203     4.433215 
 8470000     1.139609 5.322134e-06   0.29939762  0.029044412            0   0.27035321    1.6666782    1.9660758    2.5110623 
 8475000    1.0206337 -5.7785961e-05    0.4614062   0.11629676            0   0.34510944    1.4926767    1.9540829   -3.9631994 
 8480000    1.1082174 -3.4967342e-05   0.32186236 0.0083079803            0   0.31355438     1.620768    1.9426303   -1.6380255 
 8485000    1.0796878 4.2788533e-05   0.35325268 0.0040948502            0   0.34915783    1.5790434     1.932296    6.3138418 
 8490000    1.0578365 -7.0450348e-07   0.33299123 0.0067437962            0   0.32624743    1.5470859    1.8800772     1.807936 
 8495000    1.0379374 -4.4720519e-05   0.37348512 0.0089845607            0   0.36450056    1.5179834    1.8914685   -2.6879127 
 8500000    1.0418577 -3.8939735e-05   0.36801956  0.021961856            0    0.3460577    1.5237169    1.8917364   -2.0956925 
 8505000    1.0223383 -2.227727e-05   0.40006394  0.040550998            0   0.35951295    1.4951698    1.8952337  -0.38595879 
 8510000   0.99131191 -1.0915436e-05   0.45519836  0.078855915            0   0.37634244    1.4497937     1.904992   0.78725141 
 8515000    1.0746788 -1.9523667e-05   0.38122468  0.050034723            0   0.33118996    1.5717178    1.9529424 -0.046281048 
 8520000    1.1281542 6.2858311e-05   0.29905424  0.014233416            0   0.28482083    1.6499255    1.9489798    8.3856708 
 8525000    1.0459282 0.00010015621   0.37985627   0.02134301            0   0.35851326    1.5296699    1.9095262    12.165522 
 8530000    1.0672001 -1.1025066e-05   0.36149943  0.014031098            0   0.34746833    1.5607801    1.9222796   0.79331281 
 8535000    1.0778186 -5.5762255e-05   0.35026219 0.0014920366            0   0.34877016    1.5763097    1.9265719    -3.783483 
 8540000    1.1279732 1.6755431e-05   0.31177271            0            0   0.31177271    1.6496608    1.9614335    3.6771896 
 8545000    1.1044953 4.9775848e-05   0.33966197            0            0   0.33966197    1.6153244    1.9549864    7.0520332 
 8550000    1.0690729 -1.497464e-05   0.40442261            0            0   0.40442261    1.5635192    1.9679418   0.43453869 
 8555000    1.1570565 -3.9023741e-05   0.25513525            0            0   0.25513525    1.6921952    1.9473304   -2.0487006 
 8560000    1.0509113 -2.1690823e-05    0.3686837 0.00025336068            0   0.36843034    1.5369577    1.9056414  -0.31549889 
 8565000    1.0825093 -3.8915663e-05   0.31792047  0.013425594            0   0.30449488    1.5831698    1.9010903   -2.0838736 
 8570000    1.0303519 -1.2789502e-05    0.3716302  0.020872454            0   0.35075775    1.5068897    1.8785199   0.56887487 
 8575000    1.0908981 -1.8760297e-05   0.30750255 0.0025735526            0   0.30492899    1.5954385     1.902941 -0.018113376 
 8580000     1.080157 1.1937569e-05   0.33595407 0.0032158107            0   0.33273826    1.5797296    1.9156837    3.1380908 
 8585000    1.0908902 3.1615853e-05   0.28078274  0.004717713            0   0.27606503    1.5954269    1.8762097     5.113673 
 8590000     1.099405 1.9287219e-06   0.32454313 0.0013217252            0    0.3232214    1.6078799     1.932423    2.1299241 
 8595000    1.0376559 4.8845515e-05   0.38323499 0.00020844721            0   0.38302654    1.5175717    1.9008067    6.9025875 
 8600000    1.0552295 3.8691927e-05   0.35483544 0.00022866913            0   0.35460677    1.5432731    1.8981086    5.8601619 
 8605000    1.1017506 -1.3012627e-05   0.31550373            0            0   0.31550373    1.6113103     1.926814   0.59432095 
 8610000    1.0583907 -7.9629779e-05    0.3628694            0            0    0.3628694    1.5478964    1.9107658   -6.2433236 
 8615000   0.98196222 -9.382614e-05   0.47279877            0            0   0.47279877    1.4361198    1.9089185   -7.6988782 
 8620000     1.115477 -3.1888115e-05   0.32327234            0            0   0.32327234     1.631385    1.9546574   -1.3106856 
 8625000    1.1189001 -5.1952105e-06   0.30028313            0            0   0.30028313    1.6363913    1.9366745    1.4046849 
 8630000    1.1516821 4.0444511e-06     0.228012            0            0     0.228012     1.684335     1.912347    2.3264988 
 8635000     1.045541 5.9301041e-06   0.36936657            0            0   0.36936657    1.5291037    1.8984703     2.505713 
 8640000    1.0674214 -5.2503916e-06   0.34404138 0.00011259111            0   0.34392879    1.5611038    1.9051452    1.3675051 
 8645000   0.98508533 -3.5348749e-05   0.46936465 0.0018078776            0   0.46755678    1.4406873     1.910052   -1.7096599 
 8650000    1.0324756 -4.8928917e-05   0.37959766 0.0011936955            0   0.37840397    1.5099956    1.8895932   -3.1207278 
 8655000   0.99151158 -6.8297346e-06   0.42805167 3.3488654e-05            0   0.42801818    1.4500857    1.8781374    1.1787725 
 8660000    1.0383171 3.9571285e-05   0.34774485            0            0   0.34774485    1.5185387    1.8662836    5.9183832 
 8665000    1.0867013 1.4107401e-05   0.29992794            0            0   0.29992794    1.5893007    1.8892286    3.3338264 
 8670000    1.0464196 5.0788796e-05    0.4173416  0.011457624            0   0.40588397    1.5303886    1.9477302    7.1485029 
 8675000    1.0130349 5.4151788e-05   0.45220719  0.020184675            0   0.43202252    1.4815636    1.9337708    7.4789139 
 8680000    1.1143998 -2.2261844e-05   0.26074858  0.002807029            0   0.25794155    1.6298097    1.8905583  -0.38905452 
 8685000    1.1117544 -5.2681362e-05   0.29913083  0.014896405            0   0.28423442    1.6259409    1.9250717   -3.4694998 
 8690000    1.0711305 -3.3348956e-05   0.34340973  0.036591029            0    0.3068187    1.5665283     1.909938   -1.5049951 
 8695000    0.9709241 -2.9830229e-05   0.44843155  0.040734296            0   0.40769725    1.4199765     1.868408   -1.1862074 
 8700000    1.0702685 -2.7955842e-05   0.32430799   0.03317858            0   0.29112941    1.5652677    1.8895757  -0.97310251 
 8705000    1.1251703 -5.1155936e-05   0.27121685  0.014789274            0   0.25642757    1.6455616    1.9167784   -3.3215894 
 8710000    1.0705466 -3.5636323e-05   0.38546573 0.0067236025            0   0.37874213    1.5656744    1.9511401   -1.6980194 
 8715000    1.0382689 -2.3725802e-05    0.4520874  0.018806183            0   0.43328122    1.5184683    1.9705557  -0.45896647 
 8720000    1.0128896 -5.1753411e-05   0.46066289  0.041497742            0   0.41916515     1.481351    1.9420139   -3.3575354 
 8725000    1.1590172 -7.7204953e-06   0.25213687  0.059349092            0   0.19278778    1.6950627    1.9471996    1.1566209 
 8730000    1.0276198 3.4679828e-05   0.44250369  0.072565887            0    0.3699378     1.502894    1.9453977    5.4966121 
 8735000    1.0238362 1.1627123e-05   0.42254849  0.015812681            0   0.40673581    1.4973604    1.9199089    3.1105264 
 8740000    1.0231765 -2.5522023e-05   0.41338115  0.013198483            0   0.40018267    1.4963956    1.9097768  -0.70367834 
 8745000    1.0492239 -1.3636947e-05   0.42459545  0.022982948            0   0.40161251      1.53449    1.9590855   0.56266213 
 8750000    1.0529116 1.568399e-05   0.38680577  0.030006704            0   0.35679907    1.5398832     1.926689    3.5327296 
 8755000   0.96886945 4.0472582e-07   0.51239856  0.017668685            0   0.49472988    1.4169716    1.9293701    1.9708141 
 8760000    1.0810909 -4.2267386e-05   0.38824849 0.0085686966            0    0.3796798    1.5810955     1.969344   -2.3588363 
 8765000    1.0204334 -6.6175254e-05   0.46293599  0.029755253            0   0.43318073    1.4923838    1.9553198   -4.8210261 
 8770000    1.0054392 -7.3265284e-06   0.48719433   0.03652639            0   0.45066794    1.4704549    1.9576492    1.2074127 
 8775000    1.0220646 9.9897832e-06   0.46540305  0.013778657            0   0.45162439    1.4947695    1.9601725    2.9831263 
 8780000    1.1074406 6.5107069e-05    0.3461079  0.022720259            0   0.32338764    1.6196319    1.9657398    8.6327037 
 8785000    1.0837948 -1.3839753e-05   0.41726698  0.011777182            0    0.4054898    1.5850499    2.0023168   0.58512617 
 8790000    1.0546135 -0.00011794852   0.46236001 0.0094844684            0   0.45287554    1.5423722    2.0047322   -10.073196 
 8795000    1.1068027 -2.2323718e-05   0.42166991  0.029310176            0   0.39235973     1.618699    2.0403689  -0.24557985 
 8800000    1.1190726 3.3039022e-05   0.39395885  0.020484645            0    0.3734742    1.6366437    2.0306025    5.4137984 
 8805000    1.0190933 -4.643386e-05   0.56197345  0.028111878            0   0.53386157     1.490424    2.0523975   -2.7024298 
 8810000    1.0979438 -4.6400963e-05   0.41999318  0.042684805            0   0.37730837    1.6057429     2.025736   -2.7257226 
 8815000    1.0524056 1.8871674e-05   0.48397652  0.086322916            0    0.3976536    1.5391432    2.0231197    3.9555791 
 8820000    1.0761089 -2.5706273e-05   0.48948073  0.036009705            0   0.45347103    1.5738092      2.06329  -0.56903242 
 8825000    1.1117968 -6.6842679e-05   0.39966978 0.0068980163            0   0.39277177    1.6260029    2.0256726   -4.8190177 
 8830000     1.074642 -2.777966e-05   0.49285589 0.0096566808            0   0.48319921    1.5716639    2.0645198  -0.78011737 
 8835000    1.0564759 1.6806473e-05   0.49459167  0.022398878            0   0.47219279     1.545096    2.0396876    3.7606704 
 8840000    1.1649376 6.7772523e-06   0.34159991  0.066961092            0   0.27463882    1.7037212    2.0453211    2.7393118 
 8845000    1.0314124 -2.032303e-05   0.51799587 0.0099691792            0   0.50802669    1.5084406    2.0264365 -0.054641802 
 8850000    1.1318678 2.8489278e-05   0.39932453 0.0073644803            0   0.39196005    1.6553566    2.0546812    4.9719832 
 8855000      1.01551 8.1028969e-05   0.53982381  0.040147433            0   0.49967638    1.4851834    2.0250072    10.322374 
 8860000     1.070107 3.5460375e-05   0.49680135  0.019912013            0   0.47688934    1.5650315    2.0618329    5.6929753 
 8865000    1.1429001 -1.2519626e-05    0.4114601  0.051395953            0   0.36006414    1.6714913    2.0829514   0.80094175 
 8870000    1.0863637 -1.4708014e-05   0.48774491  0.049835175            0   0.43790974    1.5888069    2.0765519   0.57045126 
 8875000   0.92906664 1.4079419e-05   0.68832481  0.020463403            0   0.66786141      1.35876    2.0470848    3.4888173 
 8880000     1.075172 5.3279569e-06   0.46777019  0.029115244            0   0.43865495    1.5724391    2.0402093    2.5857921 
 8885000    1.1961424 -1.1972578e-06   0.33926087  0.025675995            0   0.31358487    1.7493583    2.0886192      1.96602 
 8890000    1.0435328 -1.9205932e-05   0.51599483  0.018239887            0   0.49775494    1.5261667    2.0421615  0.075474088 
 8895000   0.95243304 -4.2958026e-05   0.66741536  0.044747088            0   0.62266827    1.3929333    2.0603487   -2.3385532 
 8900000     1.153383 -2.8676799e-05   0.40553898  0.036896396            0   0.36864259    1.6868226    2.0923616  -0.84414262 
 8905000     1.116793 -5.33054e-05   0.39567309  0.013796518            0   0.38187657    1.6333097    2.0289828   -3.4294901 
 8910000   0.95902492 -8.4395161e-05   0.58656218  0.014490244            0   0.57207193    1.4025739    1.9891361   -6.6529283 
 8915000    1.0430199 -7.4667487e-06   0.49454251  0.014319426            0   0.48022308    1.5254166    2.0199591     1.255364 
 8920000     1.073109 8.9887881e-05   0.48494024  0.022515275            0   0.46242496    1.5694219    2.0543621    11.258881 
 8925000    1.0795825 5.4921516e-05   0.49072887  0.042253385            0   0.44847548    1.5788894    2.0696182    7.6935814 
 8930000     1.069762 -2.0108721e-05   0.50776346 0.0066476258            0   0.50111584     1.564527    2.0722905  0.013157426 
 8935000    1.0794043 -1.7002503e-05   0.49327299 5.4675264e-05            0   0.49321832    1.5786289    2.0719018   0.33084555 
 8940000    1.0566863 4.0908308e-05   0.49295745 0.0024505669            0   0.49050688    1.5454037    2.0383611    6.2273719 
 8945000    1.0259401 8.9458739e-05   0.53753202  0.038441813            0   0.49909021    1.5004374    2.0379694    11.198544 
 8950000    1.0658075 5.7036036e-05   0.46651495  0.033744404            0   0.43277055    1.5587435    2.0252584    7.8657485 
 8955000     1.092232 -5.2808762e-05   0.43363287   0.04882962            0   0.38480325    1.5973893    2.0310222   -3.3765951 
 8960000    1.0677139 -9.4750066e-05   0.48423764  0.024183064            0   0.46005458    1.5615316    2.0457692   -7.6566375 
 8965000    1.1318739 -1.995853e-05   0.37813567 0.0033970242            0   0.37473865    1.6553655    2.0335012  -0.01025231 
 8970000    1.0521875 7.3288126e-05   0.49315697 0.0062331708            0    0.4869238    1.5388242    2.0319812    9.5366853 
 8975000     1.019848 7.1214827e-05   0.52475994  0.054493136            0   0.47026681    1.4915278    2.0162877     9.308686 
 8980000    1.0206938 -2.3238893e-06   0.53830098  0.053794685            0   0.48450629    1.4927646    2.0310656    1.7930994 
 8985000    0.9928957 1.038587e-05   0.58991579  0.012187775            0   0.57772802      1.45211    2.0420257    3.1055388 
 8990000    1.0332336 -2.934148e-05   0.51629505  0.041647255            0   0.47464779    1.5111041    2.0273991  -0.97716839 
 8995000    1.0175232 -4.517278e-05   0.52404484  0.046956922            0   0.47708792    1.4881276    2.0121725   -2.6135201 
 9000000    1.0537871 -7.6702309e-05   0.46457571   0.03842096            0   0.42615475    1.5411636    2.0057393   -5.8485772 
 9005000   0.92965465 -6.0235045e-05   0.68799992    0.1124139            0   0.57558602    1.3596199    2.0476198   -4.1204488 
 9010000    1.1409162 9.8806371e-05   0.33206832 0.0046963234            0     0.327372    1.6685899    2.0006583    12.118431 
 9015000    1.0783218 0.00012774184   0.43557757 0.0012877818            0   0.43428978    1.5770457    2.0126232    15.093388 
 9020000    1.1126335 9.633732e-05   0.45363989  0.013300432            0   0.44033946    1.6272264    2.0808663    11.945808 
 9025000    1.1303814 3.1195891e-05   0.43806184  0.061268289            0   0.37679355    1.6531827    2.0912446    5.2857038 
 9030000   0.98480184 -3.7595426e-05   0.64479018  0.060180556            0   0.58460962    1.4402727    2.0850629   -1.7647087 
 9035000    1.0237948 1.0182346e-05   0.58161994  0.018098439            0   0.56352151    1.4972999    2.0789199     3.121592 
 9040000    1.0759615 -4.0895023e-05   0.52852596  0.023558649            0   0.50496731    1.5735937    2.1021196   -2.0855307 
 9045000      1.04146 -1.1947458e-05   0.57897009  0.071676228            0   0.50729386    1.5231353    2.1021054   0.87868569 
 9050000    1.2053213 3.9552662e-05   0.33565123  0.012075804            0   0.32357543    1.7627824    2.0984336    6.1486262 
 9055000     1.131729 1.2945767e-06   0.44369723 0.0035336947            0   0.44016354    1.6551537     2.098851    2.2314156 
 9060000    1.1191123 -3.3485708e-06   0.43653458  0.013708526            0   0.42282606    1.6367018    2.0732364    1.7303427 
 9065000     1.099189 3.0823298e-05   0.45389683  0.017287438            0    0.4366094     1.607564    2.0614608    5.2177665 
 9070000   0.99982958 6.9746083e-05   0.59227709  0.056284033            0   0.53599306    1.4622508    2.0545279    9.1965268 
 9075000   0.97242439 3.2250607e-05   0.65563298   0.10360846            0   0.55202452    1.4221707    2.0778037    5.3802658 
 9080000    1.1227118 -3.5790787e-05   0.41753159  0.019607008            0   0.39792458     1.641966    2.0594976    -1.605479 
 9085000    1.0745673 -8.0170507e-05   0.53492279  0.006985233            0   0.52793756    1.5715547    2.1064775   -6.1029824 
 9090000    1.1611664 -6.3137438e-05   0.39355162  0.011041615            0   0.38251001    1.6982059    2.0917575   -4.3735161 
 9095000    1.0628644 -2.5927774e-05   0.56177555  0.011332494            0   0.55044305    1.5544393    2.1162148   -0.5387893 
 9100000    1.1058071 1.7652833e-05   0.53541503  0.042078422            0    0.4933366    1.6172429    2.1526579     3.960308 
 9105000    1.0408469 6.057838e-05   0.59661867  0.057161026            0   0.53945764    1.5222386    2.1188573    8.3220833 
 9110000    1.1939529 3.1127195e-05   0.38278822 0.0062405689            0   0.37654765    1.7461561    2.1289444    5.3163692 
 9115000    1.1309768 -2.9995328e-05    0.4356803 0.0035174824            0   0.43216282    1.6540536    2.0897339  -0.98178766 
 9120000    1.1345701 -1.9148105e-05   0.44989001   0.12809599            0   0.32179401    1.6593087    2.1091988   0.14843283 
 9125000    1.0959374 -3.527802e-05    0.4890086  0.029613978            0   0.45939462    1.6028085    2.0918171   -1.5206522 
 9130000    1.0919402 -6.5887504e-05   0.48989595 0.0040246353            0   0.48587132    1.5969626    2.0868586   -4.6600218 
 9135000    1.1435324 -4.9946757e-05   0.40058838 0.0082012971            0   0.39238708    1.6724161    2.0730045   -3.0415434 
 9140000   0.96985442 1.6835322e-05   0.61591159 0.0047990225            0   0.61111257    1.4184121    2.0343237    3.7582607 
 9145000    1.0419182 -9.1417694e-06   0.48586258 0.0060092314            0   0.47985335    1.5238054    2.0096679    1.0735508 
 9150000    1.0754191 -2.0418096e-05   0.41426868  0.011416288            0   0.40285239    1.5728005    1.9870691  -0.10374395 
 9155000   0.95672549 1.2988582e-06   0.62118534  0.068417763            0   0.55276758     1.399211    2.0203964    2.1533994 
 9160000     1.027943 -1.9616402e-05   0.53678697  0.027381967            0     0.509405    1.5033667    2.0401537  0.031434129 
 9165000     1.017208 2.2300284e-05   0.53770167  0.032294932            0   0.50540673    1.4876667    2.0253684    4.3089174 
 9170000    1.0230602 -1.8378967e-05   0.46526369  0.045877858            0   0.41938583    1.4962255    1.9614892  0.079482925 
 9175000    1.0737587 -1.4659157e-05   0.36570607  0.031729533            0   0.33397654    1.5703721    1.9360782   0.43498046 
 9180000    1.0293356 3.2108829e-05   0.39794275 0.0015472203            0   0.39639553    1.5054034    1.9033461    5.1912902 
 9185000   0.87623929 2.3422204e-05   0.60990562            0            0   0.60990562       1.2815    1.8914056    4.2898393 
 9190000   0.93334823 3.6017379e-05   0.53824661            0            0   0.53824661    1.3650218    1.9032684     5.591448 
 9195000   0.96294479 -1.3261546e-05   0.51679042            0            0   0.51679042    1.4083068    1.9250972   0.56711489 
 9200000   0.96913753 -1.0431392e-05   0.55079978 0.00036667507            0   0.55043311    1.4173636    1.9681634   0.89998885 
 9205000    1.0179868 1.7151843e-05    0.4799889    0.0253377            0    0.4546512    1.4888057    1.9687946    3.7251433 
 9210000    1.0425261 -2.3468472e-05   0.48187768  0.096923578            0   0.38495411    1.5246944    2.0065721  -0.39659941 
 9215000   0.97607012 3.8487991e-05   0.57657046 0.0091561066            0   0.56741435    1.4275025     2.004073    5.9452433 
 9220000    1.0625379 4.9937705e-05    0.3805011  0.019396879            0   0.36110423    1.5539617    1.9344628    7.0480839 
 9225000   0.98460074 -3.4732355e-06   0.45456061  0.047534548            0   0.40702607    1.4399786    1.8945392    1.5388799 
 9230000    1.0312681 4.5914941e-05   0.40356547  0.019568804            0   0.38399667    1.5082296     1.911795     6.613485 
 9235000    1.0381193 2.3562272e-05    0.4174073 0.0050667181            0   0.41234058    1.5182495    1.9356568    4.3484334 
 9240000    1.0406668 -2.1314104e-05   0.41783252 0.0086527175            0    0.4091798    1.5219752    1.9398077  -0.24275653 
 9245000   0.99471639 -4.9523166e-05    0.5446774 0.0022294791            0   0.54244792    1.4547727    1.9994501   -3.0717221 
 9250000    1.0236084 3.2331475e-05   0.48802149 0.00016165618            0   0.48785984    1.4970273    1.9850488    5.2957919 
 9255000    1.0596544 0.00013135322   0.43570686 8.0241196e-05            0   0.43562662    1.5497446    1.9854514    15.436021 
 9260000    1.0118862 -2.2675295e-06   0.48059671            0            0   0.48059671    1.4798836    1.9604803    1.7282853 
 9265000    0.9685389 -6.9877173e-05   0.55103612  0.010863888            0   0.54017223    1.4164881    1.9675243   -5.1878983 
 9270000    1.0116897 7.1144964e-05    0.5216502  0.029551724            0   0.49209848    1.4795962    2.0012464    9.2864907 
 9275000    1.0066253 5.2476859e-06   0.52657507 0.0056406528            0   0.52093442    1.4721895    1.9987646    2.5361276 
 9280000     1.084296 -0.00010094632   0.37177808 0.0017450988            0   0.37003298    1.5857828    1.9575609   -8.3793424 
 9285000    1.0650863 2.4956435e-05   0.46508418  0.032682068            0   0.43240211    1.5576888    2.0227729    4.5783119 
 9290000    1.1172868 4.021232e-05   0.36750351  0.035783937            0   0.33171958     1.634032    2.0015355    6.1192771 
 9295000   0.99650709 -0.00010340247   0.52167364 0.0027007527            0   0.51897289    1.4573916    1.9790653   -8.6093481 
 9300000   0.99907555 -5.7641575e-05   0.53799289 7.1541939e-06            0   0.53798574     1.461148    1.9991409   -3.9033563 
 9305000    1.0409111 -4.8543406e-05   0.43568463            0            0   0.43568463    1.5223325    1.9580171   -3.0128276 
 9310000   0.92804376 -5.226516e-05   0.61030177  0.001988505            0   0.60831326     1.357264    1.9675658   -3.3843866 
 9315000    0.9272218 6.3619046e-05   0.62032267 0.0077105424            0   0.61261212    1.3560619    1.9763845    8.4909748 
 9320000   0.89306219 -6.7497121e-05   0.66180493  0.098322718            0   0.56348221    1.3061035    1.9679084   -4.9437968 
 9325000   0.91117329 -6.9874622e-05   0.61261932  0.014190205            0   0.59842911    1.3325909    1.9452103   -5.2099511 
 9330000   0.99285227 4.2720632e-05   0.49610249  0.018173741            0   0.47792874    1.4520464    1.9481489    6.3227416 
 9335000   0.94103753 3.3701217e-05   0.56915782  0.047922167            0   0.52123565    1.3762674    1.9454252    5.3964298 
 9340000   0.88415319 9.5486116e-05   0.68666354  0.019529881            0   0.66713366     1.293074    1.9797376    11.757516 
 9345000    1.0372544 6.3989436e-05   0.40783293 0.00062634105            0   0.40720659    1.5169845    1.9248174    8.4773357 
 9350000    1.0655228 1.967641e-05   0.41838595  0.016473212            0   0.40191273     1.558327     1.976713    3.9915773 
 9355000   0.95099629 4.5185807e-05   0.60651218  0.041330624            0   0.56518156    1.3908321    1.9973443    6.6243709 
 9360000    1.0043046 3.0208773e-05    0.5237562  0.017068192            0   0.50668801    1.4687955    1.9925517    5.0859301 
 9365000   0.98938825 2.5704419e-05   0.55569714 0.0088083086            0   0.54688883    1.4469803    2.0026775      4.63481 
 9370000   0.91722923 -6.6023713e-05    0.6290612  0.059275129            0   0.56978607    1.3414477    1.9705089   -4.7903193 
 9375000   0.86712938 -0.00010685746   0.72238828  0.044810319            0   0.67757796    1.2681767     1.990565    -8.951639 
 9380000     1.005867 1.1323392e-06    0.5521945  0.014177687            0   0.53801681    1.4710805     2.023275    2.1392266 
 9385000   0.90152668 -1.2955483e-05   0.67357414  0.017368937            0    0.6562052    1.3184828    1.9920569   0.66541549 
 9390000   0.96176951 -6.4077548e-05    0.5984264   0.02014236            0   0.57828404    1.4065879    2.0050143   -4.5565266 
 9395000    1.0053887 3.9415294e-05   0.53892647  0.028797627            0   0.51012884    1.4703809    2.0093074    6.0454335 
 9400000    1.0260826 7.6943136e-05   0.52861606 0.0032932902            0   0.52532276    1.5006458    2.0292618    9.9082389 
 9405000    1.2145922 -2.8487193e-05   0.26558109            0            0   0.26558109    1.7763411    2.0419222  -0.87516635 
 9410000    1.0839304 -4.8035373e-05   0.47761726 0.00047298098            0   0.47714428    1.5852482    2.0628655   -2.8559567 
 9415000   0.97772694 2.5560327e-05   0.63194111  0.015911518            0   0.61602959    1.4299256    2.0618668    4.6792442 
 9420000    1.1087386 -4.5053728e-06   0.44887261  0.016830536            0   0.43204207    1.6215301    2.0704027    1.6090526 
 9425000    1.0412675 -3.7337815e-05   0.49943056 0.00063648534            0   0.49879408    1.5228538    2.0222844   -1.8011079 
 9430000    1.0118316 3.2641146e-05   0.51512754            0            0   0.51512754    1.4798038    1.9949313    5.3373847 
 9435000   0.92707467 6.4669755e-05   0.62431222 0.0025897407            0   0.62172248    1.3558467    1.9801589    8.6023419 
 9440000    1.0062026 7.7119714e-05   0.51423982 0.0098656631            0   0.50437415    1.4715712    1.9858111    9.8828698 
 9445000   0.99309377 -4.7497942e-05   0.53256385  0.006631388            0   0.52593246    1.4523996    1.9849635   -2.8788258 
 9450000     1.031367 -5.7068305e-05   0.49241861 0.0017910766            0   0.49062754    1.5083742    2.0007928   -3.8430016 
 9455000   0.97385045 3.0199589e-05   0.57865377   0.01378269            0   0.56487108    1.4242563    2.0029101     5.095348 
 9460000    0.9306767 8.6884992e-05   0.64924812   0.11137737            0   0.53787075    1.3611147    2.0103628    10.907386 
 9465000    1.0775889 0.00011005393   0.51490274  0.017513269            0   0.49738947    1.5759738    2.0908765    13.360399 
 9470000   0.94262377 -4.5263214e-06   0.68619815 0.00048390135            0   0.68571424    1.3785873    2.0647854    1.6012901 
 9475000    1.0812989 6.7134037e-05   0.54105414 0.0052583075            0   0.53579584    1.5813996    2.1224538    8.9969792 
 9480000    1.1520756 3.311179e-05   0.43226607  0.039667638            0   0.39259843    1.6849106    2.1171766     5.507824 
 9485000    1.0117819 -2.7105042e-05   0.67875915  0.080620436            0   0.59813871    1.4797311    2.1584902  -0.61706604 
 9490000    1.1121915 1.7654929e-05    0.5506011  0.021584192            0   0.52901691      1.62658    2.1771811    3.9850459 
 9495000    1.2033944 2.5951802e-05   0.39801086 0.0043736405            0   0.39363721    1.7599643    2.1579751    4.8154397 
 9500000    1.1435348 -3.0064072e-05   0.49013444 0.00074435853            0   0.48939008    1.6724196     2.162554  -0.91600695 
 9505000    1.0375038 -6.9409931e-05   0.64293615  0.017618921            0   0.62531723    1.5173493    2.1602854   -4.9472915 
 9510000     1.081448 7.836078e-06   0.59342046  0.030353361            0   0.56306709    1.5816177    2.1750381    2.9774525 
 9515000    1.0871993 -5.2317196e-05   0.54799746  0.007858506            0   0.54013895    1.5900289    2.1380264   -3.2192545 
 9520000    1.0219294 -3.1654645e-06    0.6049232 0.0020763704            0   0.60284683    1.4945717    2.0994949    1.7753513 
 9525000     1.034065 8.5098095e-05   0.56345285 0.0080945566            0    0.5553583    1.5123201     2.075773    10.789818 
 9530000    1.0532714 -3.2207227e-05   0.50765225 0.0095979481            0    0.4980543    1.5404095    2.0480617   -1.2499583 
 9535000    1.0699192 -7.8911992e-06   0.45983158 0.0045615596            0   0.45527002    1.5647568    2.0245884    1.2165296 
 9540000   0.96332543 -2.8599163e-05   0.59432144 7.2145492e-06            0   0.59431423    1.4088634    2.0031849  -0.92536941 
 9545000    1.0077266 -1.1757994e-05    0.5090273            0            0    0.5090273    1.4738001    1.9828274   0.77880884 
 9550000    0.9998458 8.2261575e-05   0.54993351 0.0092819508            0   0.54065156    1.4622745     2.012208    10.435793 
 9555000   0.87337736 7.0756097e-05   0.77615239  0.048721315            0   0.72743108    1.2773144    2.0534668    9.2988912 
 9560000   0.97032132 7.0440776e-05   0.60419056   0.03792513            0   0.56626543    1.4190949    2.0232855    9.2364209 
 9565000    1.0982288 6.8865241e-05    0.3883025  0.005062683            0   0.38323981    1.6061596    1.9944621    9.0462627 
 9570000     1.005127 6.3006358e-05   0.55344082   0.01049295            0   0.54294787    1.4699982     2.023439    8.4752901 
 9575000   0.96767748 2.2679418e-05     0.590457  0.027847556            0   0.56260945    1.4152283    2.0056853    4.3280577 
 9580000   0.98204223 -2.8225319e-05   0.57561023  0.013037858            0   0.56257237    1.4362368     2.011847  -0.87842564 
 9585000   0.91084796 -8.5901465e-05   0.66815509  0.014529431            0   0.65362566    1.3321151    2.0002702   -6.7960398 
 9590000    1.0580025 -6.9917762e-05   0.48878617  0.029340509            0   0.45944566    1.5473286    2.0361148   -5.1234641 
 9595000    1.0208947 -5.5117909e-05   0.54124259  0.024995492            0    0.5162471    1.4930584     2.034301   -3.6097728 
 9600000    1.0000373 -9.2683745e-05   0.55827709 0.0021508527            0   0.55612624    1.4625546    2.0208317   -7.4699838 
 9605000    1.1268496 1.2378983e-05    0.4353108 8.0808304e-05            0      0.43523    1.6480175    2.0833283    3.3509362 
 9610000    1.0428072 7.9249046e-05   0.55417747 0.0083601336            0   0.54581734    1.5251056     2.079283    10.194385 
 9615000    1.0011427 3.9347087e-05   0.63815624  0.026177053            0   0.61197918    1.4641712    2.1023275    6.1314692 
 9620000    1.0426866 7.8214887e-05   0.57491489  0.031685464            0   0.54322943    1.5249292    2.0998441    10.109049 
 9625000    1.0427426 4.231171e-05   0.56204345 0.0078443774            0   0.55419907    1.5250111    2.0870546    6.4197737 
 9630000    1.0535403 -0.00010528889   0.50586494  0.016604317            0   0.48926062    1.5408027    2.0466677    -8.734915 
 9635000   0.96014468 -4.8227775e-05   0.62845718  0.021619509            0   0.60683767    1.4042116    2.0326688   -2.9058554 
 9640000    1.0318458 6.2931812e-05   0.51381385 0.0095001275            0   0.50431372    1.5090744    2.0228883    8.4671058 
 9645000    1.1186145 5.037754e-05   0.38556108 0.00035845535            0   0.38520262    1.6359737    2.0215348     7.180195 
 9650000    1.0872119 -4.1844452e-06   0.46984548  0.010977834            0   0.45886764    1.5900474    2.0598929    1.6314057 
 9655000    1.0456986 2.2894072e-05   0.52120596  0.056320369            0   0.46488559    1.5293342    2.0505402    4.3948932 
 9660000   0.94337069 8.8760177e-05   0.61627724  0.026519052            0   0.58975819    1.3796796    1.9959569    11.084999 
 9665000   0.92143204 8.2681586e-05   0.64125474  0.045557679            0   0.59569706    1.3475944    1.9888491    10.455443 
 9670000   0.93427099 3.2634938e-05   0.60507675  0.014827494            0   0.59024926    1.3663713    1.9714481    5.3132657 
 9675000     0.999487 2.0916829e-05   0.49584423 0.0058311994            0   0.49001303    1.4617497     1.957594    4.0994773 
 9680000   0.89086685 -4.89662e-05   0.63841435 0.0023295221            0   0.63608483    1.3028928    1.9413071   -3.0728318 
 9685000   0.92043167 -8.636008e-06   0.62402413  0.010468588            0   0.61355554    1.3461313    1.9701554    1.0858282 
 9690000   0.99169045 3.3467414e-05   0.54197673  0.040134752            0   0.50184198    1.4503473     1.992324    5.4193872 
 9695000    1.0049783 4.1630573e-05   0.51910521 0.0037359989            0   0.51536921    1.4697807    1.9888859    6.2518566 
 9700000   0.92982151 4.1509894e-05   0.60216559            0            0   0.60216559     1.359864    1.9620296    6.2126427 
 9705000   0.85691703 -1.1963585e-05   0.68786578            0            0   0.68786578    1.2532412    1.9411069   0.71603587 
 9710000   0.94072002 1.3035557e-05   0.51771347            0            0   0.51771347     1.375803    1.8935165    3.2283575 
 9715000   0.92284474 1.324558e-05   0.52670076            0            0   0.52670076    1.3496604    1.8763612    3.2327086 
 9720000    1.0060315 1.3090139e-05   0.39151548 0.00045614367            0   0.39105934    1.4713211    1.8628366    3.2032669 
 9725000   0.90598147 3.4858054e-05   0.55017145  0.011801606            0   0.53836984    1.3249979    1.8751694    5.4446341 
 9730000   0.83831203 -1.981312e-05    0.5999792  0.030694903            0    0.5692843    1.2260313    1.8260105   -0.2028529 
 9735000   0.84506581 -1.943358e-05   0.59503767  0.019895599            0   0.57514207    1.2359087    1.8309464  -0.15905216 
 9740000   0.97787054 3.009051e-05   0.37243151 0.0038384973            0   0.36859302    1.4301357    1.8025672    4.8838354 
 9745000   0.81596283 5.2065672e-05   0.60856954 0.0024814785            0   0.60608807    1.1933456    1.8019152      7.13344 
 9750000   0.82787711 6.4229047e-07   0.59349445 0.0011760593            0    0.5923184    1.2107703    1.8042647    1.8700353 
 9755000   0.88928695 -4.1459423e-05   0.49448109            0            0   0.49448109    1.3005822    1.7950633   -2.4503817 
 9760000   0.93685311 -2.6826755e-05   0.42112708 0.00020629488            0   0.42092078    1.3701477    1.7912748  -0.95578493 
 9765000   0.86295968 -7.1787517e-05   0.52016607  0.038841767            0   0.48132431    1.2620785    1.7822446   -5.5687971 
 9770000   0.83996586 -5.4278599e-05   0.57152669  0.041847243            0   0.52967944    1.2284501    1.7999768   -3.7581517 
 9775000   0.82760444 -4.9932674e-05   0.56381368  0.010003162            0   0.55381051    1.2103715    1.7741852   -3.3389207 
 9780000   0.90644286 -8.6163757e-05   0.44809902 0.0099206819            0   0.43817834    1.3256727    1.7737717    -7.049397 
 9785000   0.93292108 2.0693467e-06   0.37271558 0.0017556383            0   0.37095994    1.3643971    1.7371127    1.9490138 
 9790000   0.87800017 2.3698314e-05   0.42924089 0.0047223445            0   0.42451855    1.2840752    1.7133161    4.1400235 
 9795000   0.79205458 0.00012252683   0.53516351 0.0025580158            0   0.53260549    1.1583798    1.6935433    14.240291 
 9800000   0.85271428 9.2781601e-05   0.45056657 0.0013187327            0   0.44924784    1.2470946    1.6976612    11.198497 
 9805000   0.91988564 0.00011650671   0.36396935 0.0067883428            0   0.35718101    1.3453327    1.7093021    13.639589 
 9810000   0.90442731 -1.8753399e-05   0.39259602 0.0050515809            0   0.38754444    1.3227249     1.715321  -0.20502707 
 9815000   0.88012129 -8.7336159e-05   0.46101388 0.0021291086            0   0.45888477    1.2871774    1.7481913   -7.1950314 
 9820000   0.91725769 -3.3257614e-05    0.4286234  0.024043639            0   0.40457977    1.3414894    1.7701128   -1.6354669 
 9825000   0.84783909 -8.9770244e-05   0.54384869  0.039197479            0   0.50465121    1.2399647    1.7838134   -7.4086596 
 9830000   0.88325682 -4.4087022e-05   0.48970655 0.0031036435            0   0.48660291    1.2917631    1.7814696   -2.7330414 
 9835000   0.88833818 5.1094254e-05   0.45616598            0            0   0.45616598    1.2991946    1.7553606    6.9874122 
 9840000   0.88798623 7.5867907e-05   0.47152931            0            0   0.47152931    1.2986799    1.7702092    9.5390828 
 9845000   0.89084789 -3.3176462e-05   0.48318292 0.0019973694            0   0.48118555     1.302865     1.786048   -1.6112217 
 9850000   0.91496905 -7.2224392e-05   0.41899318 0.0080821003            0   0.41091108    1.3381422    1.7571354   -5.6386423 
 9855000   0.78031569 -7.1672071e-05   0.57990795 0.0090343884            0   0.57087356    1.1412117    1.7211196   -5.6181004 
 9860000    0.8737408 -0.0001753431   0.46522445  0.014580288            0   0.45064417    1.2778459    1.7430704   -16.212063 
 9865000   0.86458675 -2.1953121e-05   0.44574729  0.015971159            0   0.42977613    1.2644581    1.7102054  -0.53779423 
 9870000   0.87063292 4.7728814e-05   0.44264577  0.032441985            0   0.41020379    1.2733007    1.7159464     6.603377 
 9875000   0.92554831 6.878756e-06   0.35465534  0.020293477            0   0.33436186    1.3536144    1.7082697    2.4126544 
 9880000   0.90141711 2.2846194e-05   0.38292448  0.022118261            0   0.36080622    1.3183225     1.701247    4.0406973 
 9885000   0.89611703 -4.763245e-05   0.41479788  0.010672527            0   0.40412536    1.3105712     1.725369   -3.1521938 
 9890000    0.8784916 8.2489759e-05   0.44763034 0.0015408871            0   0.44608945     1.284794    1.7324243    10.179376 
 9895000   0.91196874 0.00012590401   0.39399422 0.0082336458            0   0.38576058    1.3337543    1.7277485    14.620319 
 9900000   0.86390289 3.4597342e-06   0.47670361   0.03331612            0   0.44338749     1.263458    1.7401616    2.0944384 
 9905000   0.94003589 -1.4095401e-05   0.36298909 0.0080685485            0   0.35492054    1.3748025    1.7377916   0.29442254 
 9910000    0.8180438 -6.1095956e-05   0.55037481 0.0028170238            0   0.54755778    1.1963891    1.7467639    -4.509462 
 9915000   0.87502712 -9.501465e-05   0.45885944  0.001939742            0   0.45691969    1.2797272    1.7385866   -7.9909135 
 9920000    0.8214336 -7.3365297e-05   0.50201687 0.0022205024            0   0.49979637    1.2013466    1.7033635   -5.8092429 
 9925000   0.85654398 -4.2243514e-05   0.45116852 0.0022667258            0   0.44890179    1.2526956    1.7038641   -2.6218717 
 9930000   0.83401244 3.362359e-06   0.47454736 0.0014651015            0   0.47308226    1.2197432    1.6942906    2.0385961 
 9935000    1.0245381 7.9773834e-06   0.23812508 0.0018764317            0   0.23624865     1.498387    1.7365121    2.5533961 
 9940000   0.78636578 -2.3401019e-05   0.61486984  0.023970906            0   0.59089894      1.15006    1.7649298  -0.63133458 
 9945000    0.8907687 3.3195553e-05   0.42847626  0.016970235            0   0.41150603    1.3027492    1.7312255    5.1304501 
 9950000   0.96855242 8.0235083e-05    0.3515212 0.0028432975            0    0.3486779    1.4165079    1.7680291    9.9841016 
 9955000   0.88172819 -4.2088486e-06   0.44185446            0            0   0.44185446    1.2895275    1.7313819    1.3003958 
 9960000   0.89829647 -3.2914532e-05   0.43622918            0            0   0.43622918    1.3137586    1.7499878   -1.6204603 
 9965000    0.8402184 2.218005e-05   0.52473731            0            0   0.52473731    1.2288194    1.7535567    4.0247938 
 9970000   0.82796472 0.00010458867    0.5695887 0.0025550424            0   0.56703365    1.2108984    1.7804871    12.490367 
 9975000   0.99832997 0.00012594093   0.34298576  0.010721119            0   0.33226464    1.4600576    1.8030433    14.699395 
 9980000    0.8792814 -1.1051487e-05   0.52612787  0.009818975            0   0.51630889     1.285949    1.8120769   0.68040464 
 9985000   0.90294691 -6.4709402e-05   0.49227528 0.0022743233            0   0.49000096    1.3205599    1.8128351   -4.8134077 
 9990000   0.96930996 3.2777935e-05   0.39650926 0.0025590798            0   0.39395019    1.4176158    1.8141251    5.1705856 
 9995000   0.87607095 -1.3289807e-05   0.56337013  0.013055601            0   0.55031453    1.2812538    1.8446239   0.48374768 
10000000   0.86578257 -2.5663259e-05   0.57879321  0.012814093            0   0.56597912     1.266207    1.8450002  -0.78291752 
10005000   0.94712373 0.0001271046   0.49091165 0.0050797353            0   0.48583191    1.3851685    1.8760801    14.891591 
10010000   0.81584031 0.00013852122   0.68473102 7.5417037e-05            0    0.6846556    1.1931665    1.8778975     16.06247 
10015000   0.92893099 9.7496461e-05   0.47974313 0.0027216253            0    0.4770215    1.3585616    1.8383047    11.821942 
10020000   0.90408691 -7.1243903e-05   0.51161343 0.0065911647            0   0.50502226    1.3222271    1.8338405   -5.4615351 
10025000   0.83780893 -3.5818412e-05   0.60948434  0.014471575            0   0.59501276    1.2252956    1.8347799   -1.8330255 
10030000    0.8953489 4.2216475e-06   0.51686147  0.043611263            0    0.4732502    1.3094478    1.8263092    2.2586059 
10035000    0.9023432 8.4703776e-06    0.5159264  0.021578263            0   0.49434814    1.3196769    1.8356033      2.70297 
10040000   0.93808824 -5.5299094e-05   0.48138114 0.0039142101            0   0.47746693    1.3719541    1.8533352   -3.8092921 
10045000   0.79666632 -6.0975985e-05    0.6475027 0.00041797901            0   0.64708472    1.1651245    1.8126272   -4.4313136 
10050000   0.86579726 3.1920907e-05   0.53838355            0            0   0.53838355    1.2662285     1.804612    5.0733129 
10055000   0.91395346 -4.9823176e-06   0.49492745            0            0   0.49492745    1.3366569    1.8315844    1.3213951 
10060000   0.88529582 -4.7548063e-05   0.53065293 0.0010712257            0    0.5295817    1.2947451    1.8253981   -3.0435236 
10065000   0.83076834 8.9952679e-05   0.60150622 0.0038667995            0   0.59763942    1.2149987    1.8165049    11.027659 
10070000   0.90927162 1.3962527e-05    0.4635355 0.0050311926            0    0.4585043    1.3298097    1.7933452     3.223108 
10075000   0.90036412 -0.00012291363   0.49238373 0.0048571025            0   0.48752663    1.3167825    1.8091663    -10.77719 
10080000   0.98395515 2.1275218e-05   0.34312739 0.0093468879            0    0.3337805    1.4390344    1.7821618    3.9607442 
10085000   0.76301099 6.0669154e-05   0.63296648 0.0063567272            0   0.62660975    1.1159036      1.74887    7.9613914 
10090000    0.8085561 -5.9813669e-06   0.57798006 0.00038458712            0   0.57759547    1.1825133    1.7604934    1.1480014 
10095000   0.84933262 -2.4785469e-05   0.53393411 0.0018574289            0   0.53207668     1.242149    1.7760831  -0.76194891 
10100000   0.88189857 -5.1774491e-05   0.48728517 0.0018206405            0   0.48546453    1.2897767    1.7770618    -3.524646 
10105000   0.73374157 -2.287001e-05   0.66946722 0.0012637502            0   0.66820347     1.073097    1.7425643  -0.59932472 
10110000   0.80900613 -1.6883669e-06   0.55875685 0.0012196875            0   0.55753716    1.1831715    1.7419283    1.5690395 
10115000   0.87063958 6.8382944e-05   0.41878808 0.00079612226            0   0.41799196    1.2733104    1.6920985    8.6945119 
10120000   0.77974407 4.5782778e-05    0.5283916 0.00063500623            0    0.5277566    1.1403757    1.6687673    6.3569237 
10125000   0.77755556 -9.4426492e-06   0.53573661 0.0097957512            0   0.52594086     1.137175    1.6729116   0.70598434 
10130000   0.78527422 4.7984309e-05   0.52447544  0.042401578            0   0.48207386    1.1484635     1.672939    6.5865322 
10135000   0.77808011 -2.1408614e-06   0.59191998  0.011711647            0   0.58020833    1.1379422    1.7298621    1.5106379 
10140000   0.87618981 -5.1998036e-05   0.44159923            0            0   0.44159923    1.2814276    1.7230268    -3.601572 
10145000   0.78144424 -2.0498396e-05   0.59072971 0.00027681114            0    0.5904529    1.1428622    1.7335919  -0.36544385 
10150000   0.81001912 -2.1673689e-06   0.53204709 0.00096944076            0   0.53107764     1.184653       1.7167    1.4947615 
10155000   0.80212298 -7.9217605e-06   0.53132569 0.0028046786            0   0.52852101    1.1731049    1.7044305   0.89324227 
10160000   0.81225273 -6.9044362e-05   0.53381376   0.00294031            0   0.53087345    1.1879196    1.7217334   -5.3484093 
10165000   0.80771034 4.3315655e-06    0.5176447 0.0072683659            0   0.51037634    1.1812764    1.6989211    2.1424734 
10170000   0.78029785 0.00012009541   0.56200357  0.024081876            0   0.53792169    1.1411856    1.7031892    14.000959 
10175000   0.86335949 5.7771195e-05   0.48380843  0.026350031            0   0.45745839    1.2626632    1.7464717    7.6622421 
10180000   0.72984778 -7.539892e-05   0.68339301  0.039327373            0   0.64406564    1.0674024    1.7507954    -5.970054 
10185000   0.83465523 -6.8520261e-05   0.54535152  0.034060545            0   0.51129097    1.2206833    1.7660348   -5.2504399 
10190000    0.8165569 5.789854e-05   0.59419145  0.010309184            0   0.58388226    1.1942145    1.7884059    7.7172164 
10195000   0.79505564 5.3809174e-05   0.60956228 0.00070137285            0   0.60886091    1.1627689    1.7723312    7.2823906 
10200000   0.97775847 -7.4444507e-05   0.34202048 0.00051773126            0   0.34150275    1.4299718    1.7719922   -5.8511253 
10205000   0.78956827 -3.8051973e-05    0.6295459 0.0047980218            0   0.62474788    1.1547436    1.7842895   -2.1122325 
10210000   0.86215545 4.3774426e-05   0.54068874  0.010250969            0   0.53043777    1.2609023    1.8015911    6.2840923 
10215000   0.89208805 5.0765209e-05    0.5035693 0.0065350442            0   0.49703426    1.3046788    1.8082481    7.0066055 
10220000   0.89351114 4.263878e-05   0.52828507 0.00079216437            0    0.5274929      1.30676    1.8350451    6.2012562 
10225000   0.79220221 -3.1443898e-05   0.65617684 0.00013493142            0   0.65604191    1.1585957    1.8147726   -1.4050826 
10230000   0.83971372 -5.0057574e-05   0.57547816            0            0   0.57547816    1.2280813    1.8035595   -3.3223361 
10235000   0.86425197 4.1323623e-05   0.59753398            0            0   0.59753398    1.2639685    1.8615025    6.0930415 
10240000   0.98535288 -1.5000207e-05   0.44333995            0            0   0.44333995    1.4410786    1.8844185    0.3483973 
10245000   0.84963885 -0.0001283327   0.61935744 2.2876099e-06            0   0.61935516    1.2425968    1.8619543   -11.279315 
10250000   0.81479102 -0.00015488635   0.66810667 0.0013035318            0   0.66680314    1.1916319    1.8597385   -14.000624 
10255000   0.96214367 -7.7636824e-05   0.47247936 0.00060622625            0   0.47187314    1.4071351    1.8796145   -6.0703963 
10260000   0.82245478 2.9408531e-05   0.64885221 0.0023120254            0   0.64654019    1.2028401    1.8516923     4.863126 
10265000    0.8782841 6.7628603e-05    0.6196834  0.019206327            0   0.60047707    1.2844905    1.9041739    8.8293429 
10270000   0.94846152 1.9809513e-05   0.50350474  0.017798641            0    0.4857061     1.387125    1.8906297    3.9191239 
10275000    1.0149292 -7.0715219e-05   0.40499995  0.012496946            0   0.39250301     1.484334    1.8893339   -5.3519045 
10280000   0.89802124 -4.6322241e-05   0.59469786  0.027791753            0   0.56690611    1.3133561    1.9080539   -2.8353436 
10285000   0.96387412 -6.0586661e-05   0.51524974  0.020884186            0   0.49436555    1.4096659    1.9249156   -4.2791585 
10290000   0.92811409 -6.1868573e-05   0.51921847 0.0041344189            0   0.51508405    1.3573669    1.8765853   -4.4587565 
10295000   0.85333623 4.1341243e-05   0.59463197 0.00050529605            0   0.59412668    1.2480042    1.8426362    6.0759795 
10300000   0.84587542 -2.5083233e-05   0.58512347 0.00013504438            0   0.58498843    1.2370928    1.8222163  -0.74630683 
10305000   0.86741389 -1.6025425e-05   0.52869494            0            0   0.52869494    1.2685928    1.7972878    0.1562842 
10310000   0.85314478 4.1435278e-05    0.5589617            0            0    0.5589617    1.2477242    1.8066859    6.0496584 
10315000   0.83644534 -1.1691026e-05   0.56070491 0.00014357022            0   0.56056134    1.2233013    1.7840062   0.58684511 
10320000   0.88165944 -2.0401405e-05   0.51950469 0.0022635329            0   0.51724116    1.2894269    1.8089316  -0.28017224 
10325000   0.82989822 -3.0120094e-05   0.63834481  0.009665996            0   0.62867881    1.2137262     1.852071   -1.2322267 
10330000   0.88539819 9.389079e-05   0.55260848  0.058784086            0   0.49382439    1.2948949    1.8475033     11.46192 
10335000   0.78920184 -3.7707845e-05   0.66041271  0.017510565            0   0.64290214    1.1542077    1.8146204   -2.0466629 
10340000   0.80809812 -3.7508492e-05   0.65054454  0.013967126            0   0.63657741    1.1818435     1.832388   -2.0084816 
10345000   0.86443927 7.7454731e-05   0.57418743  0.028884725            0   0.54530271    1.2642424    1.8384299    9.7697944 
10350000   0.81124213 8.686723e-05   0.61721978  0.013592023            0   0.60362776    1.1864416    1.8036614    10.698866 
10355000   0.85741085 -6.2025778e-05   0.56856241 0.0081299958            0   0.56043241    1.2539634    1.8225258   -4.5289139 
10360000   0.96507857 2.4762897e-05   0.46174194 0.0045556475            0   0.45718629    1.4114274    1.8731693      4.40889 
10365000   0.89966927 3.9647115e-05   0.56723398  0.012874867            0   0.55435911    1.3157663    1.8830003    5.9428649 
10370000   0.80854285 -7.9051365e-05   0.68423926  0.020556435            0   0.66368283    1.1824939    1.8667332   -6.2281266 
10375000   0.84578265 4.9959035e-05   0.62323597  0.010613175            0   0.61262279    1.2369571    1.8601931    6.9759983 
10380000   0.91402259 1.3376141e-05   0.57460877  0.037674087            0   0.53693468     1.336758    1.9113668    3.2810837 
10385000   0.86593188 -9.1815666e-05   0.65147319  0.029744678            0   0.62172851    1.2664254    1.9178986   -7.4840256 
10390000   0.94338673 -5.5466455e-05   0.55411961 0.0068873207            0   0.54723229    1.3797031    1.9338227   -3.7459423 
10395000    0.9032726 -3.3065098e-05   0.61525158 0.0022659251            0   0.61298566    1.3210362    1.9362878   -1.4495783 
10400000   0.94439587 -4.3553955e-06   0.58778233  0.022876784            0   0.56490555     1.381179    1.9689613    1.5229688 
10405000   0.94530351 3.8822511e-05    0.5673346  0.028820843            0   0.53851375    1.3825064     1.949841    5.9252661 
10410000   0.94737374 1.4811532e-05   0.58271889 0.0007568264            0   0.58196206    1.3855341     1.968253    3.4849538 
10415000   0.94160531 -9.1175981e-05    0.5927406 0.0042972677            0   0.58844334    1.3770978    1.9698384   -7.3665821 
10420000   0.94292724 -0.00011004747   0.56695857 0.0048795917            0   0.56207897    1.3790311    1.9459897   -9.3228712 
10425000   0.96174387 -4.5721805e-05   0.50948169 0.0062518525            0   0.50322984    1.4065504    1.9160321   -2.7658807 
10430000   0.88553111 -1.9632333e-05   0.60983309  0.009969134            0   0.59986396    1.2950893    1.9049223  -0.10542857 
10435000   0.75897823 5.6503041e-05   0.74435664 0.0079755699            0   0.73638107    1.1100057    1.8543623    7.6402737 
10440000   0.94553599 7.9325326e-05   0.45565361 0.00093202896            0   0.45472159    1.3828464       1.8385    9.9614134 
10445000   0.92996559 -5.7193977e-05   0.49624005 0.00042853536            0   0.49581151    1.3600747    1.8563147   -4.0003485 
10450000   0.95115569 -0.00011188397   0.47387821 0.0027931045            0   0.47108511    1.3910652    1.8649434   -9.5919748 
10455000   0.83605747 -6.7350155e-05   0.65582984 0.0054169973            0   0.65041284    1.2227341    1.8785639    -5.018092 
10460000   0.85290094 -6.1769239e-05   0.60663586 0.0091549432            0   0.59748092    1.2473676    1.8540035   -4.4711665 
10465000   0.84283119 -3.6250978e-05   0.64087963  0.017141841            0   0.62373779    1.2326406    1.8735202   -1.8385799 
10470000   0.96399495 1.395048e-05   0.45739433 0.0049722816            0   0.45242205    1.4098426     1.867237    3.2957661 
10475000   0.87446791 4.1619014e-06   0.60354031            0            0   0.60354031    1.2789093    1.8824496    2.3086283 
10480000    1.0227433 2.6209769e-05   0.39937971            0            0   0.39937971    1.4957621    1.8951418    4.5790221 
10485000   0.97878816 8.4603065e-05   0.48687914            0            0   0.48687914    1.4314777    1.9183568    10.581711 
10490000   0.94756099 2.5213571e-05   0.46578998            0            0   0.46578998    1.3858079    1.8515979    4.4334676 
10495000   0.89938903 -1.6201848e-05   0.51175584 0.00040593128            0   0.51134991    1.3153564    1.8271123   0.16804309 
10500000   0.88949075 -0.00011794414   0.51927344 0.0052643602            0   0.51400907    1.3008802    1.8201537   -10.257327 
10505000    1.0139169 -5.1784153e-05   0.35750703  0.019034331            0    0.3384727    1.4828535    1.8403605   -3.4623368 
10510000   0.88621332 5.6610222e-05   0.55464439  0.033483397            0   0.52116099     1.296087    1.8507314    7.6476181 
10515000   0.97525237 -9.8303675e-06   0.36979242 0.0095898095            0   0.36020262    1.4263066     1.796099   0.78946938 
10520000   0.95299733 -4.2090316e-05   0.40168735 0.00076831898            0   0.40091903    1.3937586    1.7954459   -2.5146024 
10525000    0.9205575 -2.7705059e-05   0.46228757  0.013681125            0   0.44860645    1.3463153    1.8086029   -1.0283952 
10530000   0.90128682 7.4814008e-05   0.52114011  0.016449151            0   0.50469096     1.318132    1.8392721    9.5002265 
10535000   0.90526356 -2.0766071e-05   0.51943559 0.00097079918            0   0.51846479     1.323948    1.8433835   -0.2830621 
10540000   0.97407236 -6.8952751e-05   0.42843735 0.0089645565            0   0.41947279    1.4245808    1.8530182   -5.2077435 
10545000   0.90697044 -1.9194499e-05   0.49804749 0.0097296519            0   0.48831783    1.3264443    1.8244917  -0.14102493 
10550000   0.95319003 9.5186207e-06   0.47529842 0.0085688982            0   0.46672952    1.3940404    1.8693388    2.8440456 
10555000   0.93959889 1.9275219e-05   0.54814298   0.01178048            0    0.5363625    1.3741634    1.9223064    3.8960888 
10560000   0.96346271 -5.3937764e-05   0.53887574  0.040890682            0   0.49798506    1.4090642      1.94794   -3.5752871 
10565000   0.89208809 -6.753569e-05   0.64293141     0.106333            0   0.53659841    1.3046788    1.9476102   -4.9680444 
10570000   0.96993141 -7.5370675e-06   0.50851537  0.058363076            0   0.45015229    1.4185247    1.9270401    1.1552443 
10575000    1.0019226 -2.2096357e-07   0.47652727   0.04854413            0   0.42798314    1.4653118    1.9418391    1.9192124 
10580000    0.8935789 2.343258e-05   0.65109411   0.08525131            0    0.5658428    1.3068591    1.9579533    4.3574494 
10585000   0.92599436 5.9835915e-05   0.60071727  0.029664299            0   0.57105297    1.3542668     1.954984    8.0821817 
10590000    1.0558455 -1.2863069e-05   0.36856364  0.012122755            0   0.35644088     1.544174    1.9127377   0.59555941 
10595000    1.0129067 -8.1121888e-05   0.50555633 0.0055551311            0    0.5000012    1.4813761    1.9869324   -6.3199489 
10600000    1.0419086 -2.2981344e-05   0.42958821  0.022549912            0    0.4070383    1.5237914    1.9533796  -0.39991001 
10605000    1.0057863 1.1954908e-05   0.50793173  0.011916406            0   0.49601533    1.4709624    1.9788942    3.2030768 
10610000   0.98137544 -2.7547558e-05   0.52627681 0.00016332897            0   0.52611348    1.4352616    1.9615384  -0.85933159 
10615000    1.1075238 -2.3929416e-05   0.39439626  0.019306359            0    0.3750899    1.6197536    2.0141499  -0.43622231 
10620000    0.9553924 -3.3288128e-05   0.63876821  0.094225607            0   0.54454261    1.3972614    2.0360296   -1.3726747 
10625000    1.0664526 -2.8557964e-05    0.4727263  0.047885931            0   0.42484036     1.559687    2.0324133  -0.89192219 
10630000     1.099013 -2.8759013e-06   0.40408452  0.072315571            0   0.33176895    1.6073065     2.011391    1.7168987 
10635000    1.0182184 -9.6347613e-05   0.50268684  0.051498377            0   0.45118846    1.4891444    1.9918312   -7.8741644 
10640000    1.0102981 -3.9021385e-05   0.51510171  0.040512683            0   0.47458903     1.477561    1.9926627   -2.0031271 
10645000    1.0592991 7.017512e-05   0.46286084  0.015460071            0   0.44740076     1.549225    2.0120858    9.1980182 
10650000     1.005536 -1.330352e-05   0.54306564 0.0054097756            0   0.53765587    1.4705964     2.013662   0.65138154 
10655000    1.0279992 -9.6607674e-05   0.50635525 0.0047480629            0   0.50160719    1.5034488    2.0098041   -7.8828218 
10660000    1.0249258 -6.4483689e-05   0.51283753  0.058880795            0   0.45395674     1.498954    2.0117916   -4.5913381 
10665000    1.0873039 -1.1882023e-06   0.45853092  0.097387059            0   0.36114386    1.5901819    2.0487128    1.9270409 
10670000    1.0100447 4.8222332e-05   0.54939905  0.023818599            0   0.52558045    1.4771904    2.0265894    6.9645562 
10675000     1.029299 8.7863676e-05   0.51620225  0.018257801            0   0.49794445    1.5053499    2.0215521    11.018793 
10680000    1.0482748 -9.8924864e-06   0.49214556 0.0073304913            0   0.48481507    1.5331019    2.0252474    1.0122568 
10685000    1.0662251 -7.5046771e-05   0.45352899  0.014545367            0   0.43898363    1.5593542    2.0128832   -5.6719062 
10690000    1.0627279 -6.3074299e-05   0.45597436  0.010822585            0   0.44515177    1.5542395    2.0102138   -4.4485944 
10695000   0.97312354 -4.440584e-05   0.54538406 9.1833935e-05            0   0.54529223    1.4231932    1.9685772   -2.5785808 
10700000    1.0619807 -3.0895507e-05   0.41814259 0.0001877441            0   0.41795484    1.5531467    1.9712893   -1.1924106 
10705000   0.99851671 -6.841955e-05   0.46760391 0.0010262831            0   0.46657763    1.4603307    1.9279346   -5.0782273 
10710000    1.0169524 -3.1082285e-05   0.40202985 0.0018847032            0   0.40014514    1.4872929    1.8893227   -1.2935032 
10715000    0.9678902 -5.6928923e-06   0.45020691  0.003344967            0   0.44686194    1.4155394    1.8657463    1.2827942 
10720000   0.93411768 -0.00011211903   0.48959008  0.011961618            0   0.47762846    1.3661471    1.8557372   -9.6252515 
10725000   0.99456579 -6.7092947e-07   0.41698601  0.024453705            0   0.39253231    1.4545525    1.8715385    1.8028353 
10730000    1.0390703 0.00010916687   0.36654383  0.030824056            0   0.33571977    1.5196403    1.8861841    13.064872 
10735000   0.98323617 3.8921069e-05   0.41719509  0.013110408            0   0.40408468    1.4379829     1.855178    5.8406955 
10740000   0.91971192 3.4954054e-06   0.48592652 0.0040920786            0   0.48183444    1.3450787    1.8310052    2.1889347 
10745000   0.90299667 4.2182035e-05   0.53445187  0.011169203            0   0.52328266    1.3206326    1.8550845    6.1745249 
10750000   0.95557873 7.1394639e-05   0.43162821  0.042797531            0   0.38883068    1.3975339    1.8291621    9.1399731 
10755000   0.78999082 1.0503291e-05   0.62971326  0.053437435            0   0.57627582    1.1553616    1.7850748    2.8606118 
10760000   0.89993782 1.4734095e-05   0.47460975  0.017044144            0   0.45756561    1.3161591    1.7907688    3.2995401 
10765000   0.91724064 9.6997797e-06   0.45883172  0.005266108            0   0.45356561    1.3414644    1.8002962    2.7935536 
10770000   0.90835116 -2.6621221e-06    0.4922941  0.036056501            0    0.4562376    1.3284636    1.8207577    1.5481564 
10775000   0.86354075 -9.4352298e-06   0.56022742   0.13876395            0   0.42146347    1.2629283    1.8231558   0.85698823 
10780000   0.94260253 -6.4386298e-05   0.45991864  0.048290307            0   0.41162834    1.3785562    1.8384748   -4.7546821 
10785000    0.9496068 -9.8083982e-05   0.49421698  0.017732086            0    0.4764849    1.3887999    1.8830169   -8.1607828 
10790000   0.93302043 -0.00010988603   0.50379644 0.0096812786            0   0.49411516    1.3645424    1.8683388   -9.3839906 
10795000     1.013104 -5.5490894e-05   0.46622737  0.019024648            0   0.44720273    1.4816646     1.947892   -3.7343756 
10800000    1.0680857 1.9033415e-05   0.39169575  0.021076215            0   0.37061953    1.5620753    1.9537711    3.9027927 
10805000   0.99478654 2.7946207e-05   0.49383539  0.022495037            0   0.47134036    1.4548753    1.9487107    4.8104023 
10810000     1.000596 9.4359331e-06   0.45020313  0.040712605            0   0.40949052    1.4633716    1.9135748    2.8798143 
10815000   0.87606648 5.6030732e-06   0.58597777  0.010122321            0   0.57585545    1.2812472     1.867225    2.4409797 
10820000     0.998329 7.0751741e-05   0.41975876 0.0010279682            0   0.41873079    1.4600562    1.8798149    9.1247932 
10825000   0.99547518 0.00011927775   0.45280112 0.0083946112            0   0.44440651    1.4558824    1.9086836    14.122725 
10830000   0.95453142 5.8318137e-05   0.51422542  0.035144825            0    0.4790806    1.3960022    1.9102276    7.8820049 
10835000   0.99932063 2.1427294e-05   0.48609758   0.03582465            0   0.45027293    1.4615064     1.947604    4.1417589 
10840000   0.84315865 -6.1324187e-06   0.70363791  0.057199247            0   0.64643866    1.2331195    1.9367574    1.3087978 
10845000   0.93128823 -3.0430241e-05   0.58804361  0.057136261            0   0.53090735     1.362009    1.9500526    -1.166004 
10850000   0.96971149 -1.8426563e-05   0.54645263 0.0084839973            0   0.53796864    1.4182031    1.9646557  0.077775626 
10855000   0.96383149 2.623103e-05    0.5822036 0.0014496745            0   0.58075393    1.4096036    1.9918072    4.6778646 
10860000    1.0515639 7.0062948e-05   0.50803486 0.0029966704            0   0.50503819    1.5379122    2.0459471     9.220393 
10865000    1.0399031 6.5618412e-06   0.47561284  0.056340725            0   0.41927211    1.5208582    1.9964711    2.6684036 
10870000   0.99561803 -3.7355433e-05   0.52538037  0.047656656            0   0.47772371    1.4560914    1.9814717   -1.8437246 
10875000    1.0173712 -6.4742991e-06   0.46976139  0.012308571            0   0.45745282    1.4879053    1.9576667    1.2946985 
10880000   0.93503437 2.2089536e-05   0.61687422  0.023068456            0   0.59380577    1.3674878     1.984362    4.2463305 
10885000   0.85344142 5.7583072e-05   0.70696186  0.036010528            0   0.67095133    1.2481581    1.9551199    7.8516265 
10890000   0.91438744 -1.8295999e-05   0.59456902  0.038096722            0    0.5564723    1.3372916    1.9318607  0.058350321 
10895000   0.97884369 -5.3721612e-05   0.47797821  0.032924482            0   0.44505373    1.4315589    1.9095371    -3.591556 
10900000   0.82673787 4.1195583e-05   0.65060292  0.029480265            0   0.62112266    1.2091041    1.8597071    6.0781347 
10905000   0.87972104 6.167888e-05   0.52208023  0.016018627            0    0.5060616     1.286592    1.8086723    8.1245895 
10910000   0.88265711 -2.0555436e-05   0.51338578 0.0027362983            0   0.51064948     1.290886    1.8042718  -0.30060482 
10915000   0.83678432 -2.2207065e-05   0.56624186            0            0   0.56624186    1.2237971    1.7900389  -0.48396451 
10920000   0.86377659 3.8316885e-05   0.49637914            0            0   0.49637914    1.2632733    1.7596524    5.6833014 
10925000   0.92870544 2.4880361e-05   0.41782287 0.0021438983            0   0.41567898    1.3582317    1.7760546    4.3238035 
10930000   0.92392575 -5.3497542e-05   0.42898321 0.0056090267            0   0.42337418    1.3512414    1.7802246   -3.6979237 
10935000   0.79960559 -6.3539052e-05   0.60143348  0.011291617            0   0.59014186    1.1694232    1.7708567   -4.7355422 
10940000   0.87550788 -4.2509586e-05    0.5207604  0.040745971            0   0.48001442    1.2804303    1.8011907   -2.5517909 
10945000   0.99977856 -1.2200692e-05   0.41000804  0.038769656            0   0.37123839    1.4621761    1.8721842    0.6228333 
10950000   0.89334049 6.9414917e-06   0.56929337    0.0312671            0   0.53802627    1.3065105    1.8758038    2.5866126 
10955000   0.90840221 -7.0358285e-06   0.55862268    0.0235714            0   0.53505128    1.3285382    1.8871609    1.1666921 
10960000   0.83080369 4.6019601e-05   0.65633999  0.040188149            0   0.61615184    1.2150504    1.8713904    6.5837975 
10965000   0.97317776 2.222045e-05   0.47952662  0.026999477            0   0.45252714    1.4232725    1.9027991    4.1781732 
10970000   0.91591773 1.739433e-05   0.54704487  0.013526266            0   0.53351861    1.3395297    1.8865746     3.667754 
10975000   0.85868831 6.0509734e-05   0.61554054 0.0061880521            0   0.60935249    1.2558317    1.8713722     8.067569 
10980000   0.95692748 2.2807058e-05   0.45102794  0.025460785            0   0.42556716    1.3995064    1.8505344    4.1859771 
10985000   0.87181753 -4.3686461e-05   0.57721747  0.011659578            0   0.56555789    1.2750331    1.8522506    -2.621243 
10990000    1.0011691 -4.3991711e-05   0.43896118 0.00036767592            0   0.43859351    1.4642098     1.903171   -2.6015803 
10995000   0.94843082 -8.1356513e-05   0.54692231            0            0   0.54692231    1.3870801    1.9340024   -6.3969046 
11000000    0.9313462 -8.7100858e-05   0.55362284            0            0   0.55362284    1.3620938    1.9157167   -7.0034112 
11005000   0.93930008 3.1522501e-05   0.54874659 0.00025365014            0   0.54849294    1.3737264     1.922473     5.150377 
11010000    1.0249649 1.566207e-05   0.39824977 0.0017446517            0   0.39650512    1.4990111    1.8972609    3.5010569 
11015000   0.90209793 -8.3553062e-05   0.55182492 0.0027963856            0   0.54902853    1.3193182    1.8711431   -6.6846904 
11020000   0.81352784 -7.5716766e-05   0.67990636  0.030411383            0   0.64949497    1.1897845    1.8696908    -5.883706 
11025000   0.91007467 -6.3560601e-05   0.56105972  0.021611879            0   0.53944784    1.3309842    1.8920439   -4.6165617 
11030000   0.92323248 -1.7013355e-05   0.50570706 0.00088077426            0   0.50482628    1.3502275    1.8559346   0.11376703 
11035000   0.86525432 2.7803403e-05    0.5752902 0.00080540065            0    0.5744848    1.2654344    1.8407246    4.6877931 
11040000   0.80719712 9.2146182e-06   0.70768426  0.027770267            0   0.67991399    1.1805258      1.88821     2.831787 
11045000   0.84915015 5.6182907e-06   0.62313356  0.035537132            0   0.58759642    1.2418821    1.8650157    2.4403286 
11050000    0.9628948 3.1657713e-05   0.45726598 0.0089102367            0   0.44835574    1.4082337    1.8654996    5.1072495 
11055000   0.78592891 6.1860197e-05   0.71993469   0.01688057            0   0.70305411     1.149421    1.8693557    8.2038399 
11060000   0.97147363 8.4318595e-05   0.42451178  0.044331404            0   0.38018038    1.4207802     1.845292    10.479516 
11065000   0.95020868 -0.00010003409   0.43378961  0.054979032            0   0.37881058    1.3896802    1.8234698   -8.4200211 
11070000   0.88854775 -8.0747269e-05   0.52969231  0.029978579            0   0.49971373    1.2995011    1.8291934    -6.439327 
11075000   0.87288469 5.0908269e-05   0.55432476  0.027551328            0   0.52677343    1.2765939    1.8309186    7.0439254 
11080000   0.93161664 -8.6196823e-06   0.45452996  0.043619576            0   0.41091038    1.3624893    1.8170193   0.93436382 
11085000   0.76156415 -7.8010406e-05   0.73092556   0.03522251            0   0.69570305    1.1137876    1.8447131   -6.1435524 
11090000    0.8447033 7.684204e-06   0.63303694 0.0024840443            0    0.6305529    1.2353786    1.8684155     2.655278 
11095000   0.98705283 1.6444865e-05   0.42293958 0.00026244523            0   0.42267714    1.4435648    1.8665043    3.5504585 
11100000    0.9280234 -1.1971317e-06   0.50849861  0.047889075            0   0.46060954    1.3572342    1.8657328    1.7431466 
11105000    0.7943266 9.4645328e-06   0.72288777  0.040923602            0   0.68196416    1.1617027    1.8845904    2.8537586 
11110000   0.94939058 7.2508034e-05   0.43922821 0.0030605904            0   0.43616762    1.3884837    1.8277119    9.2525346 
11115000   0.87008887 4.8557697e-05   0.52774207  0.026899083            0   0.50084298     1.272505     1.800247    6.7725552 
11120000   0.91007604 -6.4907706e-05   0.49929669  0.018694965            0   0.48060172    1.3309862    1.8302829   -4.8162662 
11125000   0.88670184 -5.7433921e-05   0.55778469 0.0016483647            0   0.55613632    1.2968014    1.8545861   -4.0266474 
11130000   0.96046887 -1.1189194e-05   0.39434699            0            0   0.39434699    1.4046857    1.7990327   0.65325922 
11135000   0.89016274 -1.6366612e-05   0.50398622  0.000117999            0   0.50386822     1.301863    1.8058492   0.12990814 
11140000   0.82499913 -4.0819548e-05   0.56647054  0.001225864            0   0.56524468    1.2065612    1.7730318     -2.40689 
11145000   0.90628636 2.222327e-05    0.4429159 0.0060500985            0    0.4368658    1.3254438    1.7683597    4.0440226 
11150000   0.84286678 3.8268689e-05   0.54722842  0.023501196            0   0.52372723    1.2326927    1.7799211    5.6986348 
11155000   0.88820276 -4.6765922e-05   0.47771825  0.013182289            0   0.46453596    1.2989965    1.7767148   -3.0121156 
11160000   0.79136231 -7.3459503e-05   0.60065762 0.00098960804            0   0.59966801    1.1573674     1.758025   -5.7642281 
11165000   0.92463652 4.8887734e-05   0.39855495 0.0014286086            0   0.39712634    1.3522809    1.7508359    6.7569398 
11170000   0.82146505 3.4022187e-05   0.53464535 0.00018913103            0   0.53445622    1.2013926     1.736038      5.21991 
11175000   0.91023545 -5.7815551e-05   0.42549063            0            0   0.42549063    1.3312194      1.75671   -4.1636024 
11180000   0.88028343 -1.4459109e-05   0.48026269 0.00052862986            0   0.47973406    1.2874145    1.7676772    0.2870645 
11185000   0.80623221 1.381357e-06   0.55095434  0.010021498            0   0.54093284    1.1791146    1.7300689    1.8715199 
11190000   0.75886375 -7.3061716e-06   0.59681784  0.056669318            0   0.54014852    1.1098382    1.7066561    0.9585041 
11195000   0.78232473 4.4019168e-05    0.5419557  0.018583222            0   0.52337248    1.1441499    1.6861056    6.1936685 
11200000     0.823838 -5.9656833e-05   0.50606397  0.031538244            0   0.47452572    1.2048631     1.710927   -4.3979327 
11205000    0.8944431 -8.2361828e-05   0.42895784    0.0118569            0   0.41710094     1.308123    1.7370809   -6.6967703 
11210000   0.86182958 3.9343883e-05   0.52406109 0.0052651196            0   0.51879597    1.2604258    1.7844869    5.8133005 
11215000    0.8925709 -7.7274334e-05   0.45700531  0.041188999            0   0.41581631    1.3053849    1.7623903   -6.1505015 
11220000   0.74988008 -8.6346328e-05   0.65199409  0.074140742            0   0.57785335    1.0966996    1.7486937   -7.0931703 
11225000   0.80329259 -3.0744636e-05   0.59768555 0.0031970321            0   0.59448852    1.1748154     1.772501   -1.3757497 
11230000   0.87876727 -9.9990992e-05   0.49572149 0.00085313941            0   0.49486835    1.2851971    1.7809186    -8.458159 
11235000   0.83172787 7.6816424e-05   0.54110893 0.00026097836            0   0.54084795     1.216402    1.7575109    9.6235127 
11240000    0.9316606 6.5663169e-05   0.39508484            0            0   0.39508484    1.3625536    1.7576385     8.481547 
11245000   0.83561906 -8.1702141e-06   0.48088113 0.00065784423            0   0.48022329    1.2220929     1.702974   0.86634409 
11250000   0.84033244 -9.4210983e-05   0.48275698 0.0085709029            0   0.47418608    1.2289862    1.7117432   -7.9354615 
11255000   0.89017855 -2.2817899e-05   0.44300723  0.012672082            0   0.43033515    1.3018861    1.7448934  -0.59165952 
11260000   0.83489838 1.3035863e-05   0.55201224  0.010775956            0   0.54123629    1.2210389    1.7730511    3.1079235 
11265000   0.90088811 -1.7138857e-05   0.46707454  0.006994938            0    0.4600796    1.3175489    1.7846234  0.029604453 
11270000   0.92015453 8.9199145e-05   0.42882296 0.0005111776            0   0.42831178     1.345726     1.774549    10.908541 
11275000   0.99978574 4.9553024e-05   0.31831751            0            0   0.31831751    1.4621866    1.7805041    6.8547338 
11280000   0.87155664 -8.5430605e-05   0.53760093            0            0   0.53760093    1.2746516    1.8122525   -6.9358414 
11285000   0.87128918 -1.035509e-05   0.51281387 0.0044854635            0    0.5083284    1.2742604    1.7870743   0.72671311 
11290000    0.8823339 4.2834096e-05   0.48042851  0.080406098            0   0.40002242    1.2904133    1.7708418    6.1570533 
11295000   0.82920803 -1.2449391e-05   0.53963507  0.042801137            0   0.49683393    1.2127167    1.7523518   0.47753419 
11300000   0.85630752 2.820776e-05    0.4808087 0.0021577018            0     0.478651    1.2523498    1.7331585    4.6216331 
11305000   0.83196806 -2.151814e-05   0.53712093 0.0010708276            0   0.53605011    1.2167533    1.7538742  -0.44958332 
11310000   0.97930143 -2.1406923e-05     0.349168  0.006197887            0   0.34297012    1.4322283    1.7813963  -0.41067253 
11315000   0.96759089 -1.3175135e-06   0.37532489 0.0037746604            0   0.37155023    1.4151017    1.7904266    1.6555132 
11320000    0.8606453 -7.3865433e-05   0.50583113 0.00012289492            0   0.50570824    1.2586938    1.7645249   -5.7992954 
11325000    0.8839196 5.8966038e-05   0.48100932 0.0024973621            0   0.47851196    1.2927324    1.7737417     7.811864 
11330000   0.85505564 -3.178464e-05     0.531445  0.021518505            0   0.50992649    1.2505189    1.7819639   -1.4727832 
11335000   0.95666211 -6.0532093e-05   0.40046545  0.020082736            0   0.38038272    1.3991183    1.7995838   -4.3989025 
11340000   0.92356392 -7.8894766e-05   0.47183811  0.010914939            0   0.46092317    1.3507122    1.8225503   -6.2562737 
11345000   0.92745044 3.5058096e-05   0.44649242  0.012881421            0     0.433611    1.3563963    1.8028887    5.3928377 
11350000   0.86478026 7.7294769e-05   0.55121444  0.019733412            0   0.53148103    1.2647411    1.8159556    9.7309399 
11355000   0.97307102 -3.376653e-05   0.42351335 0.0083108812            0   0.41520247    1.4231164    1.8466297    -1.611063 
11360000   0.95263956 1.9735449e-05   0.45456598 6.4434059e-05            0   0.45450154    1.3932354    1.8478013    3.8687113 
11365000   0.86161853 4.2101397e-05   0.57506654            0            0   0.57506654    1.2601171    1.8351836    6.1463667 
11370000   0.98258144 -7.5536041e-05   0.43471326            0            0   0.43471326    1.4370253    1.8717386    -5.863152 
11375000   0.92312384 -4.1845765e-05    0.5136094            0            0    0.5136094    1.3500686     1.863678   -2.4213283 
11380000   0.88184043 2.9112347e-05    0.5450063  0.038910954            0   0.50609534    1.2896916    1.8346979    4.8158022 
11385000   0.85019095 -8.1053883e-05   0.59532858  0.065166218            0   0.53016236    1.2434043    1.8387328   -6.4611848 
11390000   0.91499292 -7.670398e-05   0.50884458  0.018925995            0   0.48991859    1.3381771    1.8470217   -6.0074658 
11395000   0.90779417 2.5539017e-05   0.52078265  0.080326535            0   0.44045612     1.327649    1.8484316    4.4636269 
11400000    0.8751543 0.00015596517   0.56440308  0.037776221            0   0.52662686    1.2799132    1.8443162     17.81515 
11405000   0.98665904 9.5847805e-05   0.37928247  0.016899152            0   0.36238332    1.4429888    1.8222713    11.637087 
11410000   0.83330927 -8.5342012e-05    0.6295476 0.0079664054            0   0.62158119    1.2187148    1.8482624   -6.8907596 
11415000   0.95567846 2.5520311e-05   0.49066615 0.0010553103            0   0.48961084    1.3976797    1.8883459    4.5016257 
11420000     0.914234 -0.00010075432   0.52470154 0.0053500067            0   0.51935153    1.3370672    1.8617688   -8.4554731 
11425000   0.87322279 1.9088498e-05   0.58945554  0.017081048            0    0.5723745    1.2770883    1.8665439     3.821206 
11430000   0.90375879 -0.00011998992   0.52950101 0.0073547612            0   0.52214625    1.3217472    1.8512482    -10.43572 
11435000    1.0093741 3.8892051e-05   0.39118831  0.017192624            0   0.37399568    1.4762096    1.8673979     5.849944 
11440000   0.88628121 9.4884615e-05   0.52031807  0.052636762            0   0.46768131    1.2961863    1.8165043    11.532689 
11445000   0.93993483 -2.9736745e-05   0.43220019  0.044330321            0   0.38786986    1.3746547    1.8068549   -1.2381878 
11450000   0.83371322 1.0617723e-05   0.60469777  0.047697899            0   0.55699987    1.2193056    1.8240033    2.9112581 
11455000   0.93158036 2.2168239e-05   0.45029722  0.013262169            0   0.43703505    1.3624363    1.8127335    4.0827612 
11460000   0.87958951 7.9677194e-05   0.47311877  0.015584718            0   0.45753405    1.2863997    1.7595184    9.9184631 
11465000   0.88389122 -1.2542963e-05   0.44910756 0.0026384541            0    0.4464691    1.2926909    1.7417985   0.45739904 
11470000    0.8322877 -5.5489298e-05   0.51648031 0.0011231167            0    0.5153572    1.2172208    1.7337011    -3.948403 
11475000    0.8282451 5.1983301e-05   0.53519796 0.0047973058            0   0.53040065    1.2113085    1.7465064    7.0695965 
11480000   0.86843163 4.1827388e-05   0.50498174   0.00784437            0   0.49713737    1.2700813     1.775063    6.0581876 
11485000   0.82742583 7.1251965e-07   0.58469708  0.010450906            0   0.57424617    1.2101103    1.7948074    1.8677694 
11490000   0.88200417 -1.2358701e-05   0.47407421 0.0053054796            0   0.46876873    1.2899311    1.7640053   0.49847436 
11495000   0.80647591 -5.4214511e-05   0.60245057 0.0086555042            0   0.59379507     1.179471    1.7819216   -3.7696443 
11500000   0.76804837 -7.1432476e-05   0.69820767  0.015885209            0   0.68232246    1.1232707    1.8214784   -5.4932072 
11505000    0.8504902 -3.6285306e-05    0.5999306  0.057942174            0   0.54198842    1.2438419    1.8437725   -1.8718428 
11510000   0.92526252 -1.1693381e-05   0.53540666  0.048772227            0   0.48663443    1.3531964    1.8886031   0.69120088 
11515000   0.86534192 -1.7553307e-05   0.61275409  0.045160008            0   0.56759409    1.2655626    1.8783167  0.080858022 
11520000    0.9290057 -5.8567016e-05   0.51486384  0.083189388            0   0.43167445    1.3586708    1.8735347   -4.1237278 
11525000   0.90586808 -5.9249091e-05   0.54821147  0.032511243            0   0.51570023    1.3248321    1.8730435   -4.1940634 
11530000   0.95388958 3.2962822e-05    0.4658424  0.035777083            0   0.43006532    1.3950635    1.8609059    5.2362989 
11535000   0.89604032 9.0122643e-05   0.56112578  0.025313435            0   0.53581234     1.310459    1.8715847    11.100143 
11540000    1.0420635 2.388143e-05   0.35288256 0.0059516567            0    0.3469309    1.5240178    1.8769004    4.3223589 
11545000    1.0475591 -2.568115e-05    0.3381423 0.0032902225            0   0.33485208    1.5320552    1.8701975  -0.75955222 
11550000   0.93630223 -3.1235019e-05   0.51541935  0.037514361            0   0.47790499     1.369342    1.8847614   -1.3137046 
11555000    0.9396062 -4.2248402e-05   0.51306019  0.043868747            0   0.46919145    1.3741741    1.8872343   -2.4390021 
11560000    1.0251448 7.4242281e-06   0.38738256 0.0010658832            0   0.38631668    1.4992743    1.8866568    2.6468978 
11565000   0.95940481 0.00011242076   0.50754893            0            0   0.50754893    1.4031295    1.9106785    13.422564 
11570000   0.94513242 0.00014326371   0.52290813  0.004554599            0   0.51835353    1.3822562    1.9051643    16.575368 
11575000   0.96402792 1.999699e-05   0.46967659  0.030920766            0   0.43875583    1.4098908    1.8795674    3.9272592 
11580000   0.92363378 -5.9898483e-05   0.52405583  0.015743571            0   0.50831226    1.3508144    1.8748702   -4.2587344 
11585000   0.87970114 -1.1878308e-05   0.56894678 0.0058421301            0   0.56310465    1.2865629    1.8555097   0.63917096 
11590000   0.89888825 -3.7644296e-05   0.56189035  0.014904164            0   0.54698619    1.3146241    1.8765144   -1.9782615 
11595000    1.0426135 2.455323e-05   0.41518429 0.0084775429            0   0.40670675    1.5248222    1.9400065    4.4542572 
11600000   0.93223677 5.4609069e-05   0.60101651 0.00013754111            0   0.60087897    1.3633963    1.9644128    7.5563814 
11605000    0.9475821 -1.7967414e-05    0.5670554            0            0    0.5670554    1.3858388    1.9528942   0.11303105 
11610000     0.995022 -4.9225833e-05   0.53116737            0            0   0.53116737    1.4552197     1.986387   -3.0543382 
11615000    1.0198648 -4.3573338e-05    0.4923438            0            0    0.4923438    1.4915523    1.9838961   -2.4780137 
11620000   0.89488584 -3.7394798e-05   0.69130604 0.0030140299            0   0.68829201    1.3087705    2.0000766   -1.8291507 
11625000    1.0802766 3.6684929e-06   0.46526273  0.027120509            0   0.43814222    1.5799045    2.0451673    2.4208209 
11630000   0.94358674 5.5392771e-05   0.66613762 0.0083577608            0   0.65777986    1.3799956    2.0461332     7.718353 
11635000    1.0175469 4.5642899e-05   0.55450322 0.00052081697            0    0.5539824    1.4881624    2.0426656    6.7164985 
11640000   0.94641953 4.3304843e-05   0.64956163 0.00085985633            0   0.64870178    1.3841386    2.0337002    6.4681162 
11645000    1.0506692 5.4080699e-05   0.46259124 0.0061825313            0   0.45640871    1.5366037    1.9991949    7.5370585 
11650000    1.0394515 7.5348134e-06   0.47956695 0.0094611867            0   0.47010577    1.5201977    1.9997647    2.7713296 
11655000   0.94301136 -2.2726235e-05   0.60151767  0.022213665            0     0.579304    1.3791541    1.9806718  -0.34649467 
11660000    1.0299388 -3.0252257e-05   0.49836016  0.029748186            0   0.46861197    1.5062856    2.0046457   -1.0931854 
11665000    1.0048086 -5.8411205e-05    0.5571379  0.049397382            0   0.50774051    1.4695326    2.0266705   -3.9546369 
11670000   0.91722598 -6.591158e-05   0.62743375  0.019457633            0   0.60797611     1.341443    1.9688767   -4.7804691 
11675000    1.0537457 -4.3560673e-05   0.43942203  0.019302923            0    0.4201191    1.5411031    1.9805252   -2.4800878 
11680000    1.0794526 2.6235563e-05   0.38645846  0.010908881            0   0.37554958    1.5786995     1.965158    4.6516796 
11685000   0.81209804 9.704389e-05   0.77254186  0.038242225            0   0.73429963    1.1876934    1.9602352     11.89753 
11690000   0.90368565 6.564103e-05   0.62059725  0.097633934            0   0.52296331    1.3216403    1.9422375    8.6638789 
11695000   0.95523395 -1.7982951e-05   0.53611444  0.040240128            0   0.49587431    1.3970297    1.9331441  0.091689953 
11700000   0.93759352 -2.3183696e-05   0.54443647  0.065320195            0   0.47911627    1.3712305     1.915667  -0.45834343 
11705000   0.78845912 7.2822881e-06   0.78222834  0.042972438            0   0.73925591    1.1531215    1.9353498    2.6810561 
11710000   0.84347627 3.1243885e-05   0.68809671  0.057326001            0   0.63077071    1.2335841    1.9216808    5.1210546 
11715000   0.94697326 -2.6836463e-05   0.59672582  0.037947137            0   0.55877868    1.3849484    1.9816742  -0.76637956 
11720000     1.047664 -3.1923776e-05   0.49327096 0.0072421389            0   0.48602882    1.5322085    2.0254795   -1.2435152 
11725000      1.01015 -1.3240719e-05   0.58052285 0.0022837909            0   0.57823906    1.4773444    2.0578673   0.70201764 
11730000   0.93388433 3.8354943e-05   0.68782345 0.0046335395            0   0.68318991    1.3658058    2.0536293    5.9811754 
11735000     1.036137 8.688555e-05   0.52808851 0.0079778111            0    0.5201107    1.5153504    2.0434389    10.940519 
11740000    1.0196925 -1.896938e-05   0.52367542   0.02050351            0   0.50317191    1.4913003    2.0149757  0.072511203 
11745000    1.0326897 -7.5611903e-05   0.54707718  0.018559072            0   0.52851811    1.5103087    2.0573859    -5.685273 
11750000   0.89702282 -2.6177349e-05   0.70564716  0.051465315            0   0.65418184    1.3118959     2.017543  -0.66301753 
11755000   0.98363154 -3.0463517e-05   0.58725741   0.14153873            0   0.44571868    1.4385611    2.0258185   -1.0936456 
11760000   0.99331399 -5.8156417e-05   0.59627817  0.047176082            0   0.54910208    1.4527217    2.0489999   -3.9062173 
11765000   0.90832768 -1.4675576e-05   0.74870364  0.039705994            0   0.70899764    1.3284292    2.0771329   0.57435386 
11770000    1.0318563 -8.8279448e-07   0.54749044  0.019967003            0   0.52752343    1.5090898    2.0565802    1.9661821 
11775000       1.0578 -4.7424008e-05   0.50362172  0.012761273            0   0.49086045    1.5470325    2.0506542   -2.8055642 
11780000    1.1365084 -2.0067397e-05   0.43101152 0.0044716867            0   0.42653983    1.6621435     2.093155  0.038253615 
11785000   0.96701026 -2.1047818e-05    0.6652467  0.026865777            0   0.63838093    1.4142525    2.0794992 -0.075797348 
11790000    1.0073765 -6.8988345e-05   0.59604914  0.020023703            0   0.57602543    1.4732881    2.0693373   -4.9950692 
11795000    1.1327616 1.1062148e-05   0.42404706 0.0016707412            0   0.42237632    1.6566639    2.0807109    3.2134748 
11800000    1.0184152 2.0332896e-05   0.60607111 0.0017146087            0    0.6043565    1.4894323    2.0955034    4.1775919 
11805000    1.1282692 -4.8245529e-05   0.43755443 0.0031850631            0   0.43436937    1.6500937    2.0876481   -2.8526941 
11810000   0.94238295 -9.3664242e-05   0.70686388 0.0062068632            0   0.70065702    1.3782351    2.0850989   -7.5061195 
11815000    1.1063209 -3.7707707e-05   0.52174978  0.013409082            0   0.50834069    1.6179943     2.139744   -1.7215251 
11820000    1.1121704 5.8990089e-05   0.51909442  0.027256163            0   0.49183826    1.6265493    2.1456437    8.1862287 
11825000    1.0358104 8.2661132e-05   0.63160863  0.012923088            0   0.61868554    1.5148727    2.1464813    10.610981 
11830000    1.1589184 2.7850273e-05   0.46527555  0.011930932            0   0.45334462    1.6949181    2.1601937    5.0120616 
11835000    1.0479002 -5.3284449e-05   0.62429319  0.011380639            0   0.61291255    1.5325541    2.1568472   -3.2994803 
11840000    1.1165859 -7.6619833e-05   0.55543334  0.015580258            0   0.53985309    1.6330069    2.1884402   -5.6574307 
11845000    1.1187746 3.9198054e-05   0.54715261  0.041434387            0   0.50571823    1.6362079    2.1833605    6.1972412 
11850000      1.10594 9.3859732e-05   0.59156669  0.036749199            0   0.55481749    1.6174373     2.209004     11.82024 
11855000     1.125801 -3.7447616e-05   0.55152149  0.083396707            0   0.46812479    1.6464839    2.1980054   -1.6366305 
11860000    1.1084223 -4.9286167e-05   0.57750931  0.063216606            0    0.5142927    1.6210676    2.1985769   -2.8483266 
11865000    1.1094678 -1.8540804e-05   0.54734834 0.0020473499            0   0.54530099    1.6225967     2.169945   0.27136665 
11870000    1.0625726 -4.6820572e-05   0.65062624 0.0058226021            0   0.64480363    1.5540124    2.2046387   -2.5897879 
11875000    1.0394601 2.1624323e-05   0.69048782  0.024509475            0   0.66597835    1.5202104    2.2106982    4.4250289 
11880000    1.1621423 8.0139416e-05   0.51174521  0.036963768            0   0.47478144    1.6996331    2.2113783    10.417655 
11885000    1.0532311 5.6406963e-05   0.63631411  0.040620407            0    0.5956937    1.5403505    2.1766646    7.9527376 
11890000    1.0702207 -8.453275e-05    0.6082641  0.017742373            0   0.59052173    1.5651978    2.1734619   -6.4826917 
11895000    1.0663725 -7.8504501e-05   0.63908951  0.011447951            0   0.62764156    1.5595699    2.1986594   -5.8402016 
11900000    1.1580033 4.9390522e-05   0.54583451  0.023963819            0   0.52187069    1.6935798    2.2394143    7.2970038 
11905000    1.1170011 9.1223412e-05   0.63066203  0.015680361            0   0.61498167    1.6336141    2.2642761    11.605553 
11910000     1.162915 5.0503343e-05   0.53708455  0.025681314            0   0.51140323    1.7007632    2.2378477    7.4093901 
11915000   0.98637581 1.2874862e-05   0.82251597  0.034945701            0   0.78757026    1.4425746    2.2650906    3.5834765 
11920000    1.1415736 7.0294373e-05   0.50501427 0.0026493564            0   0.50236491    1.6695514    2.1745657    9.3727095 
11925000    1.2014239 3.6548585e-05   0.38994666 0.0032195474            0   0.38672711    1.7570825    2.1470291    5.8896042 
11930000    1.1422357 -5.5817602e-05   0.49705531  0.011519444            0   0.48553587    1.6705197     2.167575   -3.5481475 
11935000    1.1325785 -6.9303037e-05   0.45615932  0.011596934            0   0.44456238    1.6563961    2.1125554   -4.9840756 
11940000    1.1499837 -2.7019322e-06   0.45524068  0.012392789            0    0.4428479    1.6818511    2.1370918    1.8604139 
11945000     1.111837 -2.8475099e-05   0.51615487 0.0072305633            0    0.5089243    1.6260616    2.1422165  -0.77363369 
11950000    1.0813483 -4.9786918e-05   0.59385293  0.021538467            0   0.57231447    1.5814719    2.1753248   -2.9228556 
11955000     1.122865 8.2667271e-06   0.51511643  0.024711057            0   0.49040538    1.6421901    2.1573065    3.0038194 
11960000    1.1598082 2.1234877e-06   0.44012326  0.015172972            0   0.42495029    1.6962196    2.1363428     2.353788 
11965000    1.0525185 -2.2441342e-06   0.57255409 0.0060924416            0   0.56646165    1.5393083    2.1118624    1.8820631 
11970000    1.0923328 3.2769965e-05   0.55055458 0.0025721132            0   0.54798247    1.5975366    2.1480912    5.5037356 
11975000    1.1229142 1.5695131e-05   0.51626664    0.0421625            0   0.47410414     1.642262    2.1585287      3.76571 
11980000    1.1086645 1.8194212e-05    0.5034372   0.03566492            0   0.46777228    1.6214218     2.124859    3.9879463 
11985000    1.0949718 -8.3623625e-05   0.53115567   0.02601401            0   0.50514166    1.6013963     2.132552   -6.4305072 
11990000    1.0154505 -9.4988697e-05   0.64350096  0.011079366            0    0.6324216    1.4850964    2.1285974   -7.5982452 
11995000    1.0912818 -3.4929506e-05   0.53362429            0            0   0.53362429    1.5959997     2.129624   -1.4471574 
12000000    1.1621303 2.1566231e-05   0.46035895 0.0025888461            0    0.4577701    1.6996156    2.1599746    4.3683566 
12005000    1.0457216 -2.5379861e-05   0.62981406  0.025303851            0   0.60451021    1.5293678    2.1591819  -0.43971591 
12010000    1.1340665 -9.1859374e-05   0.50152403  0.013570507            0   0.48795352    1.6585723    2.1600963   -7.2463036 
12015000    1.1329285 3.835983e-05   0.55015768 0.0080449646            0   0.54211271    1.6569079    2.2070655    6.1351122 
12020000    1.2065443 4.8367735e-05   0.43741228 0.0058060877            0   0.43160619     1.764571    2.2019833    7.1548394 
12025000    1.1102216 -3.1744178e-05   0.59098173 0.0015705979            0   0.58941113     1.623699    2.2146808   -1.0359231 
12030000    1.1621531 -7.096625e-06   0.52306417 0.00013250195            0   0.52293166    1.6996489    2.2227131    1.4960187 
12035000    1.2769832 7.8649761e-05   0.40988705            0            0   0.40988705    1.8675879     2.277475    10.331211 
12040000    1.2647135 5.9057026e-06   0.44587008            0            0   0.44587008    1.8496435    2.2955136    2.9002575 
12045000    1.1099308 -0.00011032147   0.67527237 0.00097295227            0   0.67429942    1.6232737    2.2985461   -8.9983722 
12050000    1.1479507 -4.4092975e-05   0.65104292  0.010266587            0   0.64077634    1.6788779    2.3299208   -2.1851999 
12055000    1.1522948 -9.1206598e-06   0.67436874   0.02861286            0   0.64575588    1.6852312    2.3595999    1.4256443 
12060000    1.1331153 -4.0981701e-05   0.67078069  0.030481132            0   0.64029956    1.6571811    2.3279618   -1.8685644 
12065000    1.2099252 -7.9548634e-06   0.56557666 0.0051840934            0   0.56039257    1.7695157    2.3350923    1.5205143 
12070000    1.2716651 2.7203065e-05   0.49454871            0            0   0.49454871    1.8598102    2.3543589    5.1399527 
12075000    1.2153325 1.7108898e-05   0.58576859            0            0   0.58576859    1.7774237    2.3631923    4.1151435 
12080000    1.2269613 -1.3729039e-06   0.57869615            0            0   0.57869615    1.7944308     2.373127    2.2325416 
12085000    1.2036147 -1.5825195e-05   0.59446568 0.0013130011            0   0.59315268    1.7602865    2.3547522   0.73425219 
12090000    1.1429573 -7.9353768e-05   0.70501335 0.00021066862            0   0.70480269    1.6715751    2.3765885   -5.7492374 
12095000    1.3408728 -7.2522214e-06   0.41297361 0.00067590471            0   0.41229771    1.9610264        2.374    1.6313726 
12100000    1.2154513 2.2399661e-05   0.62071647 0.0018670069            0   0.61884947    1.7775976    2.3983141    4.6920394 
12105000    1.1821867 -3.0738127e-05    0.5919632 0.0024322125            0   0.58953099    1.7289481    2.3209113   -0.8266729 
12110000    1.2970626 2.4553318e-05   0.42221046 0.0001786809            0   0.42203178     1.896954    2.3191645    4.8334243 
12115000    1.0779859 0.00010191724   0.74107343 0.0026963535            0   0.73837708    1.5765544    2.3176278    12.753953 
12120000    1.2607456 2.3425854e-05   0.46016799 0.0069240657            0   0.45324392    1.8438405    2.3040085    4.7028159 
12125000    1.1407832 1.7611329e-05   0.62258388  0.022498412            0   0.60008547    1.6683954    2.2909793    4.0943794 
12130000    1.1327928 -8.9200779e-05   0.63969329  0.019182374            0   0.62051091    1.6567095    2.2964027    -6.837757 
12135000    1.1307952 -2.0986951e-05   0.64216198 0.0041918402            0   0.63797014     1.653788      2.29595   0.14688619 
12140000    1.1411495 -4.683985e-06   0.61389016 0.0060790413            0   0.60781112    1.6689312    2.2828213    1.8031813 
12145000     1.131324 6.6438321e-05   0.62402721   0.01206883            0   0.61195838    1.6545613    2.2785885    9.0818726 
12150000     1.200336 0.00011790559   0.49153502  0.012090261            0   0.47944476    1.7554913    2.2470264    14.320558 
12155000   0.93694276 -3.8695925e-05   0.82486934 0.0074640461            0    0.8174053    1.3702788    2.1951481   -1.7673146 
12160000    1.2366477 -1.958331e-05   0.37021197 0.0014388093            0   0.36877316    1.8085972    2.1788092   0.17347821 
12165000    1.1324708 7.9219905e-06   0.50383055 0.0083233548            0   0.49550719    1.6562385     2.160069    2.9712809 
12170000    1.0182023 -6.6457866e-05    0.7188845 0.0045041055            0   0.71438039    1.4891209    2.2080054   -4.5972801 
12175000    1.1066445 8.5819502e-06   0.61577173 0.00051709081            0   0.61525464    1.6184675    2.2342392    3.1130309 
12180000   0.98830996 3.8636997e-05   0.77670872            0            0   0.77670872    1.4454033     2.222112    6.1785405 
12185000    1.0665368 3.5168646e-05   0.63538065            0            0   0.63538065    1.5598101    2.1951907    5.7964601 
12190000    1.1457987 8.7528753e-05   0.49067367 0.0059740087            0   0.48469966    1.6757306    2.1664042    11.129349 
12195000    1.1318347 1.9573821e-05   0.51685618  0.021301948            0   0.49555423    1.6553082    2.1721644    4.1765236 
12200000    1.0038415 -4.2178545e-05   0.68718937  0.015788459            0   0.67140091    1.4681182    2.1553076   -2.1637755 
12205000   0.97089196 6.5988865e-05   0.72025958 0.0026747629            0   0.71758482    1.4199295    2.1401891    8.8974489 
12210000    1.0241649 6.7364621e-05   0.66246379  0.002602591            0    0.6598612    1.4978412     2.160305    9.0584422 
12215000    1.1897123 -2.2212241e-05   0.40219792 0.0017351556            0   0.40046277    1.7399542    2.1421521  -0.13238134 
12220000    1.0205783 -3.282356e-05   0.65933555 0.00040397471            0   0.65893157    1.4925958    2.1519313   -1.2092012 
12225000    1.0615725 -4.9228348e-05   0.57811494            0            0   0.57811494    1.5525498    2.1306647   -2.9103182 
12230000    1.0647961 -4.5792171e-06   0.54403924 4.0362715e-05            0   0.54399888    1.5572643    2.1013035    1.6323917 
12235000    1.0500432 4.9192714e-05   0.54798495 2.3229343e-05            0   0.54796173    1.5356881    2.0836731     7.121007 
12240000    1.0019574 7.4275301e-05    0.6690853 0.0004348479            0   0.66865045    1.4653628    2.1344481    9.7402388 
12245000    1.0608438 2.4734267e-05   0.55990452 0.00041265428            0   0.55949187     1.551484    2.1113886    4.6441775 
12250000    1.0637386 5.5891523e-05   0.54528084 0.0012375081            0   0.54404333    1.5557177    2.1009986    7.8242905 
12255000    1.1224095 2.6408275e-05   0.44069034 0.0018267395            0    0.4388636     1.641524    2.0822143    4.7864216 
12260000    1.0167919 -6.9653166e-05   0.59155622 0.0037917115            0   0.58776451    1.4870581    2.0786143   -5.0538699 
12265000   0.89765293 -4.2025336e-05   0.74108445 0.0098096432            0   0.73127481    1.3128174    2.0539019   -2.2494925 
12270000    1.0455995 -1.7510505e-06   0.51780354  0.020681529            0   0.49712201    1.5291892    2.0469928    1.8676852 
12275000   0.97502826 -9.9043486e-07   0.60400191  0.031149166            0   0.57285274    1.4259788    2.0299807    1.9285602 
12280000   0.97817185 -5.5281241e-05   0.59425427  0.028183214            0   0.56607106    1.4305763    2.0248306   -3.6359685 
12285000    1.0107221 -6.7757563e-05   0.53159559  0.023630049            0   0.50796554     1.478181    2.0097766   -4.9285978 
12290000    1.0428103 -6.5594096e-06    0.5383626   0.02197024            0   0.51639236    1.5251101    2.0634727    1.3917892 
12295000   0.98710357 1.1099869e-05   0.60168076  0.019643892            0   0.58203687     1.443639    2.0453197    3.1819463 
12300000   0.96413691 -3.6075147e-05   0.63541804  0.011790625            0   0.62362741    1.4100502    2.0454683   -1.6486268 
12305000     1.077234 -1.8046812e-05   0.50383102 0.0050886212            0   0.49874239    1.5754547    2.0792857   0.23129223 
12310000    1.1177074 5.1936823e-06   0.42092567  0.005601809            0   0.41532387    1.6346471    2.0555728    2.5874059 
12315000    1.0294908 -1.0675959e-05   0.57162776  0.012760965            0   0.55886679    1.5056303    2.0772581   0.98403985 
12320000    1.0355883 1.2734951e-06    0.5689483 0.0036525624            0   0.56529574    1.5145479    2.0834962    2.2139021 
12325000   0.96999266 6.0631839e-05   0.63401129 0.00011806464            0   0.63389322    1.4186143    2.0526256    8.2613258 
12330000    1.0628484 3.439035e-05   0.48933746            0            0   0.48933746    1.5544159    2.0437533    5.5653251 
12335000   0.92537278 3.6949982e-06   0.64498694            0            0   0.64498694    1.3533577    1.9983446    2.3767124 
12340000    1.0024836 2.6587381e-05   0.52567983            0            0   0.52567983    1.4661323    1.9918121    4.7143599 
12345000    1.0717195 2.2341746e-05   0.40770716            0            0   0.40770716    1.5673897    1.9750969    4.2628917 
12350000    1.0925218 -2.8271178e-05   0.38671017 0.0007966413            0   0.38591353    1.5978131    1.9845233  -0.91044539 
12355000    1.0227354 -7.8355558e-05    0.4916364  0.036311735            0   0.45532467    1.4957505    1.9873869   -6.0362223 
12360000   0.96258095 1.2832055e-05   0.52815659   0.11814903            0   0.41000757    1.4077746    1.9359312    3.2499337 
12365000   0.98217429 1.1092036e-05   0.51340202  0.075341969            0   0.43806005    1.4364299    1.9498319    3.0856564 
12370000   0.95990946 -4.0709338e-05   0.57668517  0.029982328            0   0.54670284    1.4038676    1.9805528   -2.1880834 
12375000   0.89722547 -1.1006138e-05   0.67057261  0.020320932            0   0.65025168    1.3121923    1.9827649   0.85573631 
12380000    1.0160137 -6.5675295e-05   0.52412551  0.019405812            0    0.5047197    1.4859201    2.0100456   -4.7151046 
12385000    1.1222455 -2.5776536e-05   0.37386151 0.0053568944            0   0.36850462     1.641284    2.0151455  -0.62437171 
12390000    1.1179091 5.5401169e-05   0.40634637 0.0018872076            0   0.40445917    1.6349421    2.0412885    7.7143681 
12395000    1.0423626 3.7823658e-05   0.51050275 0.0026727131            0   0.50783004    1.5244553     2.034958    5.9081007 
12400000   0.98616215 3.4352859e-06   0.56846595 0.0024992092            0   0.56596674    1.4422621    2.0107281    2.3625014 
12405000    0.9915703 -3.1399048e-05   0.54819134   0.01228526            0   0.53590608    1.4501716    1.9983629   -1.2168996 
12410000    1.0029062 -7.0214628e-05   0.51362451  0.019263353            0   0.49436115    1.4667502    1.9803748   -5.2096032 
12415000   0.98327832 -4.0814735e-05   0.51444391  0.015327679            0   0.49911624    1.4380445    1.9524885   -2.2269404 
12420000    1.0678786 -9.3487992e-05   0.40012221 0.0063181291            0   0.39380408    1.5617724    1.9618946   -7.6112757 
12425000   0.91214642 -0.00011345151   0.64801147 0.0052229317            0   0.64278854    1.3340141    1.9820256   -9.6354088 
12430000    1.0506541 -1.7064545e-05   0.41973285 0.0044591469            0   0.41527371    1.5365816    1.9563145   0.20890509 
12435000   0.91645586 8.9442692e-05   0.58025881  0.014879563            0   0.56537925    1.3403167    1.9205755    11.079507 
12440000    1.0675472 3.4639032e-05   0.35438875  0.021279542            0   0.33310921    1.5612878    1.9156765    5.4627134 
12445000   0.98731329 -4.0392012e-05   0.48366626 0.0027136134            0   0.48095264    1.4439457    1.9276119     -2.20853 
12450000   0.97723972 8.5279623e-06   0.49476903            0            0   0.49476903    1.4292131    1.9239821    2.7972454 
12455000   0.98138262 -5.6106028e-06   0.50256958  0.002255498            0   0.50031408    1.4352721    1.9378417    1.3633159 
12460000    1.0791402 -5.6948958e-05   0.36992954  0.011439902            0   0.35848964    1.5782425    1.9481721   -3.8834012 
12465000     0.959538 1.2132768e-05   0.56384558  0.068799942            0   0.49504564    1.4033243    1.9671699    3.2095653 
12470000   0.95492957 -8.0379129e-06   0.59427881  0.041322435            0   0.55295638    1.3965845    1.9908633     1.167781 
12475000    1.0142654 -1.7679694e-05   0.54689766 0.0062832642            0   0.54061439    1.4833631    2.0302608   0.21986014 
12480000    1.0855688 4.386602e-06   0.43730968  0.015982458            0   0.42132722    1.5876444     2.024954    2.4741421 
12485000    1.0302503 -2.8180733e-05   0.50323549  0.017578874            0   0.48565661    1.5067411    2.0099766  -0.87573046 
12490000   0.96867615 6.0808336e-05   0.55559466 0.0012771275            0   0.55431753    1.4166889    1.9722835    8.1990572 
12495000    1.0068574 0.00013659279   0.51581495 0.0050675024            0   0.51074744     1.472529    1.9883439    15.975445 
12500000   0.97234691 4.6308328e-05   0.59930746  0.015839556            0    0.5834679    1.4220574    2.0213648    6.7633376 
12505000   0.99567788 -8.6644628e-05    0.5381366 0.0068329345            0   0.53130367    1.4561789    1.9943155   -6.8780944 
12510000    1.0398796 -0.00010594579   0.49777437  0.023208522            0   0.47456585    1.5208239    2.0185982   -8.8302512 
12515000   0.88181684 2.6776632e-05   0.71190176  0.017261234            0   0.69464052    1.2896571    2.0015589     4.743486 
12520000    1.0201049 2.031686e-05   0.50950092 0.0007668233            0    0.5087341    1.4919035    2.0014044    4.0818508 
12525000   0.98158012 6.5460045e-05   0.52632114 0.0033510634            0   0.52297007    1.4355609    1.9618821    8.6649907 
12530000   0.98384972 0.00010527541   0.51652964 0.0083610498            0   0.50816859    1.4388802    1.9554099    12.735612 
12535000    1.0205488 2.0035649e-05   0.50809271  0.023970273            0   0.48412243    1.4925526    2.0006453    4.0522957 
12540000    1.0152614 -3.7117555e-05   0.57645685   0.04250221            0   0.53395464    1.4848199    2.0612767    -1.739561 
12545000    1.0388764 -8.3074939e-05   0.50038588 0.0034405502            0   0.49694533    1.5193568    2.0197426   -6.4871311 
12550000    1.1696537 -3.5154986e-05    0.3435536 0.0014965575            0   0.34205704    1.7106185    2.0541721   -1.5456985 
12555000    0.9782896 7.5799647e-05   0.60166179  0.013624944            0   0.58803685    1.4307485    2.0324103    9.7942941 
12560000   0.91927988 0.00010355766   0.68113819  0.026873794            0   0.65426439    1.3444468     2.025585     12.62989 
12565000    1.0454945 1.5113423e-05   0.46804918  0.010074465            0   0.45797471    1.5290357    1.9970849    3.5446994 
12570000    1.0010095 -4.1546047e-05   0.50468926 0.0041240768            0   0.50056518    1.4639764    1.9686656   -2.2856496 
12575000    1.0345626 -4.8638329e-05   0.48796836  0.020340323            0   0.46762803    1.5130479    2.0010162   -2.9795487 
12580000   0.95091008 -3.8497783e-06   0.62614087  0.010730759            0   0.61541011     1.390706    2.0168469    1.6226296 
12585000    1.1244663 -3.4297194e-05   0.35496172 0.0045478338            0   0.35041388     1.644532    1.9994937    -1.512539 
12590000    1.0435327 -1.3973562e-05   0.44324507 0.0073272285            0   0.43591785    1.5261666    1.9694116   0.53851887 
12595000   0.93567867 7.1371959e-05   0.60541473  0.031306493            0   0.57410823    1.3684301    1.9738448    9.2823334 
12600000    1.0322847 9.9041934e-06   0.51072034  0.042919791            0   0.46780055    1.5097164    2.0204368    3.0346262 
12605000    1.0202124 -1.4184754e-05   0.54621929  0.035888793            0   0.51033049    1.4920606    2.0382799   0.58576106 
12610000    1.0518173 8.5515443e-05   0.45986843   0.01004818            0   0.44982025    1.5382828    1.9981513    10.754933 
12615000   0.99097251 5.9268349e-05   0.50422139   0.03011205            0   0.47410934    1.4492973    1.9535187    8.0225976 
12620000   0.91955829 -5.6490687e-05   0.63999581  0.087823202            0   0.55217261     1.344854    1.9848498   -3.7997966 
12625000    1.0741969 -4.8863063e-06   0.41439189  0.037453689            0    0.3769382    1.5710129    1.9854048    1.4850471 
12630000    1.0738745 2.432839e-05    0.3911141 0.0002664546            0   0.39084765    1.5705414    1.9616555    4.4528826 
12635000     1.009831 7.3074583e-07   0.50442867 0.0095318019            0   0.49489686    1.4768779    1.9813066    2.0561349 
12640000   0.97015243 4.0080086e-05   0.53667157  0.020078873            0    0.5165927    1.4188479    1.9555195    6.0597203 
12645000    1.0193505 2.124162e-05    0.4191367 0.0069260801            0   0.41221062    1.4908001    1.9099368    4.0850787 
12650000    1.0030663 -7.5569811e-05   0.46204806  0.022554504            0   0.43949356    1.4669845    1.9290326   -5.8093161 
12655000   0.99832349 5.3482966e-05   0.48620566  0.038413257            0    0.4477924    1.4600481    1.9462538    7.4229095 
12660000   0.97257797 0.00014658621   0.52098366  0.012162198            0   0.50882147    1.4223953    1.9433789    16.953807 
12665000    1.0423903 8.3699993e-06   0.42480814 0.00018149445            0   0.42462664    1.5244959     1.949304    2.8063919 
12670000    1.0279042 -6.5875377e-05   0.40303458  0.001666791            0   0.40136779    1.5033099    1.9063445   -4.8392941 
12675000   0.96821698 -8.2683492e-06   0.49924481 0.0066182411            0   0.49262657    1.4160173    1.9152622    1.0685832 
12680000    1.0349663 2.0645394e-05   0.39760469  0.010039695            0   0.38756499    1.5136382    1.9112429    4.0253312 
12685000   0.93060592 5.6270766e-05   0.49436441  0.018671063            0   0.47569335    1.3610112    1.8553756     7.617502 
12690000   0.95750117 7.451347e-05   0.42106842  0.019305653            0   0.40176277    1.4003455    1.8214139    9.4515932 
12695000   0.95116846 5.0963147e-06   0.43766705 0.0031693726            0   0.43449768    1.3910839    1.8287509    2.3506135 
12700000    0.9763124 -7.8552701e-05    0.4062643            0            0    0.4062643    1.4278569    1.8341212   -6.2096754 
12705000   0.96052532 -7.7462852e-05    0.4461396            0            0    0.4461396    1.4047683    1.8509079   -6.0812882 
12710000    0.9582755 -1.6568369e-05   0.46506967 0.0025304138            0   0.46253926    1.4014779    1.8665476   0.16994656 
12715000    1.0017048 -3.9460015e-05   0.42618308  0.062446448            0   0.36373663    1.4649932    1.8911763   -2.1495292 
12720000    1.0583313 -2.249717e-05   0.31898766  0.037765978            0   0.28122169    1.5478095    1.8667972  -0.43691302 
12725000   0.93759185 -9.3918788e-06   0.45941609  0.019670575            0   0.43974552    1.3712281    1.8306442   0.86891578 
12730000    0.9599702 -6.5926711e-05   0.42952856   0.02380282            0   0.40572573    1.4039564     1.833485   -4.9174102 
12735000    1.0248839 -3.8753485e-05   0.34451573    0.0073616            0   0.33715413    1.4988927    1.8434085   -2.1249484 
12740000   0.93933131 5.6909779e-05   0.45601202 0.0020815758            0   0.45393044     1.373772    1.8297841    7.6573454 
12745000   0.97897469 -6.230253e-06   0.42878024  0.017017183            0   0.41176306    1.4317505    1.8605307    1.2225528 
12750000   0.96732548 -6.5967446e-07   0.39572899  0.030988198            0   0.36474079    1.4147135    1.8104425    1.7428918 
12755000   0.99186298 5.2962015e-06   0.33793621  0.009238683            0   0.32869753    1.4505996    1.7885358    2.3308668 
12760000   0.98655668 -4.0421017e-05   0.33090315 0.00040633807            0   0.33049681    1.4428391    1.7737423   -2.3653699 
12765000   0.92376293 2.5429026e-05   0.41036594 0.00035322923            0   0.41001271    1.3510033    1.7613692    4.3653015 
12770000   0.91405735 6.1802265e-05   0.41575578 0.0022349116            0   0.41352086    1.3368089    1.7525646    8.0811166 
12775000    0.8590867 7.0050229e-05    0.4982172 0.0045453824            0   0.49367182    1.2564143    1.7546315     8.927775 
12780000   0.86008642 5.4695681e-05   0.51226672 0.0048310402            0   0.50743568    1.2578764    1.7701431    7.3709808 
12785000   0.94286478 1.4090657e-05   0.39777666  0.001862093            0   0.39591457    1.3789397    1.7767164    3.2195997 
12790000   0.95294189 -8.5116623e-06   0.34195575 0.0019056688            0   0.34005008    1.3936775    1.7356333   0.86403904 
12795000   0.93630992 -1.7334769e-05   0.39665778  0.005679443            0   0.39097834    1.3693533     1.766011 -0.0090692532 
12800000   0.93517197 -3.9554133e-05   0.48285716  0.005825356            0   0.47703181     1.367689    1.8505462   -2.1997971 
12805000    1.0177104 -4.6662322e-05   0.39409473 0.0027324617            0   0.39136226    1.4884015    1.8824962   -2.8957255 
12810000   0.93662463 -3.2175102e-05   0.50542973 0.0097787916            0   0.49565094    1.3698135    1.8752433   -1.4194872 
12815000    1.0326718 7.7285844e-05   0.38955798  0.013482856            0   0.37607513    1.5102825    1.8998405    9.8139109 
12820000   0.99530357 8.2551219e-05   0.42659607 0.00062484362            0   0.42597123    1.4556315    1.8822275    10.335472 
12825000   0.92506943 -1.1874238e-05   0.54181575 0.0024650212            0   0.53935073     1.352914    1.8947298   0.67880779 
12830000   0.99538297 -1.9648675e-05   0.49337412  0.023264637            0   0.47010948    1.4557476    1.9491217 -0.062902586 
12835000    1.0551243 5.6565851e-05   0.37483723    0.0278254            0   0.34701183    1.5431193    1.9179565    7.7102996 
12840000     1.009591 3.1728529e-05   0.41022991    0.0086459            0   0.40158401    1.4765268    1.8867567    5.1357581 
12845000   0.95803626 -4.4372116e-05   0.46323833 0.00022579609            0   0.46301254     1.401128    1.8643664   -2.6793383 
12850000   0.97655125 -5.2313373e-06   0.44621853  0.010541529            0     0.435677    1.4282062    1.8744247    1.3387358 
12855000   0.96682677 9.1371238e-05   0.48691553  0.053653624            0   0.43326191    1.4139841    1.9008997    11.257314 
12860000    1.0195394 6.661199e-05   0.47302736  0.031381813            0   0.44164555    1.4910764    1.9641038    8.7851716 
12865000    1.0729706 -1.0841278e-05   0.37010364 0.0030149478            0    0.3670887    1.5692195    1.9393231   0.82917631 
12870000    1.1022372 -3.7817355e-05   0.30569538 0.0033379193            0   0.30235746    1.6120219    1.9177173   -1.9547798 
12875000   0.95830952 -9.5001617e-05   0.51540901 0.0019313262            0   0.51347768    1.4015277    1.9169367   -7.8112289 
12880000   0.94386033 -3.6168737e-05   0.53079677 0.00052652386            0   0.53027025    1.3803957    1.9111925   -1.7924862 
12885000   0.99944321 6.3467545e-05   0.44986403 0.0077655321            0    0.4420985    1.4616857    1.9115497    8.4106263 
12890000    1.0026726 3.9308393e-05   0.43857154  0.030955933            0   0.40761561    1.4664086    1.9049802    5.9301597 
12895000   0.97744392 -3.7738479e-05   0.46556207  0.019282092            0   0.44627997    1.4295117    1.8950738   -1.9693465 
12900000   0.94698379 -2.3972163e-05   0.48271636  0.030768639            0   0.45194772    1.3849638    1.8676802  -0.58706929 
12905000   0.90789546 5.8009753e-05   0.48876359  0.053462733            0   0.43530086    1.3277971    1.8165607    7.7567594 
12910000    1.0318361 0.00010960703   0.33766096  0.010538076            0   0.32712289    1.5090603    1.8467213    13.070481 
12915000    1.0237106 1.8444635e-05   0.34929596 0.0058003006            0   0.34349566    1.4971767    1.8464727    3.7352034 
12920000   0.98463323 -9.1249573e-05   0.40438723  0.010633791            0   0.39375344    1.4400261    1.8444133   -7.4995429 
12925000   0.85283626 -9.8405153e-05   0.57226067  0.026238338            0   0.54602234     1.247273    1.8195337    -8.257154 
12930000   0.96324865 -4.4979692e-05   0.39241155   0.02462188            0   0.36778967    1.4087512    1.8011627   -2.8047577 
12935000   0.86660333 9.3533406e-07   0.49802486 0.0031574416            0   0.49486742    1.2674074    1.7654322    1.8612104 
12940000   0.93915698 3.4954158e-05   0.45751872 0.00094304966            0   0.45657567    1.3735171    1.8310358    5.4103416 
12945000    1.0555145 2.4622097e-05   0.32052853 0.00051707233            0   0.32001146    1.5436899    1.8642184    4.3855211 
12950000    0.9764551 2.7877258e-06   0.44132035 3.6447464e-05            0   0.44128391    1.4280656    1.8693859    2.1548491 
12955000   0.91574311 6.121885e-05   0.49652566  0.014832522            0   0.48169314    1.3392743       1.8358    8.1046102 
12960000   0.93561221 8.3529819e-05   0.45769029  0.048431518            0   0.40925877    1.3683329    1.8260231    10.379477 
12965000    1.0017354 -4.9183359e-05   0.35541254 0.0089684625            0   0.34644407     1.465038    1.8204506   -3.2159254 
12970000   0.95159193 -7.8646788e-05   0.44248112 0.0031368237            0    0.4393443    1.3917032    1.8341843   -6.2192468 
12975000   0.89781136 -6.8992928e-05   0.54184933 0.0049378056            0   0.53691152    1.3130491    1.8548984   -5.2099774 
12980000   0.98138365 -7.4093913e-05   0.44487411 0.0026662588            0   0.44220786    1.4352736    1.8801477    -5.707069 
12985000    1.0159869 2.9737195e-05   0.42403801  0.036454751            0   0.38758326    1.4858809    1.9099189    4.9550077 
12990000   0.93490298  0.000113682   0.54866247  0.066793004            0   0.48186946    1.3672956    1.9159581    13.556995 
12995000    1.0825631 2.6561529e-05    0.3418769 0.0015591601            0   0.34031774    1.5832485    1.9251254     4.645026 
13000000    1.0733295 -4.5690204e-05   0.32698413 0.0055728937            0   0.32141124    1.5697444    1.8967286   -2.7819483 
13005000   0.99232095 -8.2145835e-05   0.47792337 0.0082862225            0   0.46963715    1.4512694    1.9291928   -6.4825408 
13010000    1.0252312 -5.5000887e-05   0.40469066 0.0050150081            0   0.39967565    1.4994006    1.9040912   -3.7279996 
13015000   0.95189995 6.2375291e-05   0.50439318  0.021009076            0    0.4833841    1.3921537    1.8965469    8.2837767 
13020000   0.92351919 0.00010909667   0.55258675   0.04440883            0   0.50817792    1.3506468    1.9032336    13.074732 
13025000   0.86160672 1.5179126e-05    0.6646019  0.012389068            0   0.65221283    1.2600998    1.9247017    3.4790443 
13030000   0.97856742 2.3726837e-06   0.48549681  0.036441678            0   0.44905513    1.4311548    1.9166517    2.1596145 
13035000     1.001166 2.2014683e-05   0.45059478   0.04030745            0   0.41028733    1.4642053    1.9148001    4.1691037 
13040000   0.96883516 2.7797223e-05   0.52789853 0.0079431507            0   0.51995538    1.4169214    1.9448199    4.7912556 
13045000   0.96308675 -4.2725165e-05   0.55668223  0.036608969            0   0.52007326    1.4085144    1.9651966   -2.4098603 
13050000   0.96924404 -9.8216525e-05   0.53432541   0.02431631            0    0.5100091    1.4175194    1.9518448   -8.1055273 
13055000     1.086324 -5.4641703e-05   0.40485553  0.001710675            0   0.40314485    1.5887489    1.9936044    -3.601706 
13060000   0.96045735 2.5872824e-05   0.58897349            0            0   0.58897349    1.4046689    1.9936424    4.6430195 
13065000   0.92326663 -3.3883808e-06   0.64673153 0.0035730493            0   0.64315848    1.3502774     1.997009    1.6500388 
13070000    1.0123117 6.395703e-06   0.51230005   0.10921718            0   0.40308287    1.4805059     1.992806    2.6477259 
13075000   0.92700937 8.0721642e-05   0.62184352   0.10137198            0   0.52047154    1.3557512    1.9775947    10.243491 
13080000    1.0169218 6.8620003e-05   0.48246205  0.032920024            0   0.44954203    1.4872481    1.9697102    8.9963985 
13085000   0.99572052 5.3673232e-05   0.49603352  0.017399886            0   0.47863364    1.4562413    1.9522748    7.4484137 
13090000    1.0198775 -3.560126e-07   0.45614681  0.014241754            0   0.44190505    1.4915708    1.9477176    1.9112619 
13095000   0.97080362 -5.2707107e-05    0.4752023 0.0054308609            0   0.46977144    1.4198003    1.8950026   -3.5022052 
13100000   0.99475506 1.6142296e-05   0.42572211  0.003098428            0   0.42262368    1.4548293    1.8805514    3.5335225 
13105000   0.93853156 3.5691585e-05    0.5135023 0.0091544352            0   0.50434787    1.3726024    1.8861047     5.540923 
13110000    0.9705365 -3.2346656e-05   0.42196342 0.0026269694            0   0.41933645    1.4194096    1.8413731   -1.4709245 
13115000   0.88707223 -5.2388269e-05    0.5250696 0.0065684467            0   0.51850116    1.2973431    1.8224127    -3.542146 
13120000   0.95330814 4.7655784e-05   0.48563996  0.066933379            0   0.41870658    1.3942131    1.8798531    6.7598054 
13125000   0.91945335 2.1520861e-05   0.46627067  0.013888615            0   0.45238205    1.3447005    1.8109712    4.0147074 
13130000   0.95019932 6.2851758e-05   0.43916602 0.0064075839            0   0.43275844    1.3896665    1.8288325    8.2648526 
13135000     0.920232 7.2964078e-05    0.4726501  0.017549468            0   0.45510063    1.3458393    1.8184894     9.290011 
13140000   0.97794476 -3.8345824e-05    0.4192313   0.02271214            0   0.39651916    1.4302442    1.8494755   -2.0771368 
13145000    0.8434019 -8.9063741e-05   0.56679266  0.013673555            0    0.5531191    1.2334753    1.8002679   -7.3198592 
13150000   0.94006867 -4.574711e-05   0.41295588 0.0029347901            0   0.41002109    1.3748504    1.7878063   -2.8966978 
13155000   0.87689996 0.00011108417   0.48926147  0.001292858            0   0.48796861    1.2824662    1.7717277    13.146747 
13160000   0.85942852 0.00013117732   0.52351166  0.013243161            0   0.51026849    1.2569142    1.7804259    15.212983 
13165000    1.0341557 3.1348162e-06   0.28989094   0.01164928            0   0.27824166    1.5124528    1.8023437    2.1233489 
13170000   0.92681131 -0.00013452013   0.44542391 2.1914746e-05            0     0.445402    1.3554615    1.8008855   -11.973976 
13175000   0.95112753 -5.3549238e-05   0.42077299 0.0024004759            0   0.41837252     1.391024     1.811797    -3.671645 
13180000   0.89498875 6.2193867e-05   0.53194827  0.054691653            0   0.47725661     1.308921    1.8408693    8.2095213 
13185000   0.95569398 2.7151643e-05   0.47507806  0.034232518            0   0.44084554    1.3977024    1.8727805    4.6531087 
13190000    1.0235766 -4.6901346e-05   0.42367073 6.7405705e-05            0   0.42360333    1.4969807    1.9206515   -2.8820463 
13195000    1.0101143 -2.1295987e-05   0.44818826            0            0   0.44818826    1.4772922    1.9254804  -0.25522869 
13200000    1.0320921 9.6549156e-05   0.39447228            0            0   0.39447228    1.5094347     1.903907    11.790541 
13205000   0.99761466 3.6322676e-05   0.44516243            0            0   0.44516243    1.4590114    1.9041739    5.6236158 
13210000    1.0204069 -5.5922272e-05    0.4576893            0            0    0.4576893     1.492345    1.9500343   -3.7764064 
13215000    1.0374733 -3.3092621e-05   0.47397033 0.0010173582            0   0.47295297    1.5173048    1.9912751   -1.3974093 
13220000    1.0205767 4.314446e-05   0.44959513 0.0046662284            0    0.4449289    1.4925934    1.9421885    6.3601812 
13225000     1.024398 -9.5263937e-06   0.45797674  0.022560522            0   0.43541622    1.4981821    1.9561588   0.98065612 
13230000    1.0528457 -2.9428398e-05   0.46296211  0.027598293            0   0.43536382    1.5397868    2.0027489    -1.010719 
13235000    1.0803738 6.8712176e-06   0.46589512  0.018473214            0    0.4474219    1.5800467    2.0459418    2.7495544 
13240000    1.0997687 -4.9810305e-05   0.43215246  0.022557482            0   0.40959498    1.6084117    2.0405641   -3.0600111 
13245000    1.0237744 3.5118499e-05   0.52481072  0.010176169            0   0.51463455    1.4972701    2.0220808     5.618215 
13250000    1.0049373 2.4325919e-05   0.54942507  0.023334392            0   0.52609068    1.4697208    2.0191459      4.51012 
13255000    1.1396592 6.3059372e-05    0.3600551  0.047201194            0    0.3128539    1.6667516    2.0268067    8.4840864 
13260000    1.0731633 3.8416951e-05   0.48880122   0.05227228            0   0.43652894    1.5695013    2.0583025    5.9921983 
13265000    1.1219177 -1.103094e-05   0.44086216  0.018320147            0   0.42254201    1.6408046    2.0816667   0.95209847 
13270000    1.0730754 -2.6167578e-05   0.52132781  0.057037062            0   0.46429075    1.5693727    2.0907005  -0.58885943 
13275000    1.1517776 -1.7020729e-05   0.40154265  0.034910264            0   0.36663239    1.6844748    2.0860174   0.34309481 
13280000    1.0927182 4.6876118e-06   0.53749208  0.055570247            0   0.48192183    1.5981003    2.1355924    2.6156038 
13285000    1.1929312 3.0355185e-05   0.35921118  0.014234352            0   0.34497683    1.7446619    2.1038731     5.212244 
13290000    1.1228061 4.1211326e-05   0.45021883            0            0   0.45021883     1.642104    2.0923228    6.3123626 
13295000    1.1493899 7.6597428e-06   0.39818484 0.00019161311            0   0.39799323    1.6809828    2.0791676    2.8635253 
13300000    1.0655139 4.8322719e-06   0.53047812  0.017615581            0   0.51286253    1.5583141    2.0887922    2.5836169 
13305000    1.1404883 0.00012176413   0.44269301  0.037329131            0   0.40536388    1.6679642    2.1106572    14.579304 
13310000    1.0913191 6.7113731e-05   0.56045242  0.026414671            0   0.53403775    1.5960543    2.1565067    9.0289527 
13315000    1.0662485 3.2435414e-05   0.58092123   0.02488148            0   0.55603975    1.5593884    2.1403097     5.461696 
13320000    1.1189638 4.8735743e-05   0.53621489 0.0034210898            0    0.5327938    1.6364845    2.1726994    7.1632395 
13325000    1.1054327 -9.9980393e-06   0.58601783  0.022370451            0   0.56364738    1.6166953    2.2027131    1.1789139 
13330000    1.1212754 -5.3486052e-05    0.5175789  0.031260302            0    0.4863186    1.6398653    2.1574442   -3.3195275 
13335000    1.1751993 3.6844662e-05    0.4079026  0.013438233            0   0.39446436    1.7187289    2.1266315    5.8995249 
13340000    1.1033592 7.1877893e-05   0.50741513  0.005586933            0    0.5018282    1.6136628    2.1210779    9.4813741 
13345000    1.1510244 5.6818946e-05   0.44112628 0.0031267186            0   0.43799956    1.6833732    2.1244995    7.9427595 
13350000    1.1320069 -9.6289744e-06   0.47862463  0.017723517            0   0.46090111      1.65556    2.1341847    1.1481777 
13355000    1.0937558 -6.0929078e-05   0.57664752  0.018300073            0   0.55834744    1.5996179    2.1762654   -4.0628722 
13360000     1.142577 -1.421363e-05    0.5252672  0.032546537            0   0.49272066    1.6710189    2.1962861   0.74081038 
13365000    1.1650695 -1.1664365e-05    0.4612712  0.075744978            0   0.38552622    1.7039141    2.1651853   0.97075436 
13370000    1.1107167 -5.7784882e-05   0.58974763   0.01118535            0   0.57856228    1.6244231    2.2141707   -3.7030012 
13375000    1.2438142 -2.9995863e-05   0.42037361  0.016608845            0   0.40376476    1.8190783    2.2394519  -0.83212449 
13380000    1.1805507 -3.7135625e-05   0.47754925 0.0061093658            0   0.47143988    1.7265553    2.2041046   -1.5985834 
13385000    1.1066458 -2.7283738e-05   0.55549589 0.0098190906            0    0.5456768    1.6184695    2.1739654  -0.61988935 
13390000    1.1614372 5.5133789e-05   0.48133282  0.026958187            0   0.45437463     1.698602    2.1799348    7.8256348 
13395000    1.2645192 1.7030958e-05   0.30830999  0.026872724            0   0.28143727    1.8493593    2.1576693    3.9016394 
13400000     1.061875 -0.00010695866   0.62011809 0.0074374727            0   0.61268061    1.5529922    2.1731103   -8.7794566 
13405000    1.1802472 -6.2101424e-05    0.4532562  0.020966343            0   0.43228985    1.7261115    2.1793677   -4.1798182 
13410000    1.0656768 4.660067e-05   0.62492053  0.025395722            0   0.59952481    1.5585524    2.1834729    6.9553815 
13415000    1.0828207 6.4650021e-05   0.56008497 0.0075553893            0   0.55252958    1.5836253    2.1437103    8.7638725 
13420000    1.1836148 -2.204178e-05   0.40059472  0.007076581            0   0.39351814    1.7310367    2.1316314  -0.12544684 
13425000    1.0563583 -5.2724397e-05   0.61985565  0.015947045            0    0.6039086     1.544924    2.1647797   -3.2341985 
13430000    1.1035358 4.5604466e-05   0.50798434  0.043715015            0   0.46426932     1.613921    2.1219054    6.7918027 
13435000    1.0372514 2.8742128e-05   0.56184149   0.03696024            0   0.52488125    1.5169802    2.0788217    5.0220156 
13440000    1.0800887 5.7095199e-06   0.50533178  0.031663602            0   0.47366817    1.5796297    2.0849615    2.6696164 
13445000    1.1355801 2.3466887e-05   0.41553776  0.085749939            0   0.32978782    1.6607859    2.0763237     4.479333 
13450000    1.0966565 -9.9552564e-06   0.48526404  0.055657012            0   0.42960703    1.6038602    2.0891242     1.069706 
13455000    1.1133641 4.9793629e-05   0.47557599  0.039467831            0   0.43610816     1.628295     2.103871    7.2027386 
13460000    1.0537338 -4.474807e-05   0.56265319  0.043766602            0   0.51888658    1.5410856    2.1037388   -2.4784635 
13465000    1.1047462 -2.5976249e-05   0.47198643 0.0079030774            0   0.46408335    1.6156914    2.0876778  -0.57229009 
13470000    1.1029112 -3.3368116e-05   0.46205686  0.009612981            0   0.45244388    1.6130076    2.0750645   -1.3418306 
13475000    1.1003221 -8.980795e-06   0.46019556  0.066918138            0   0.39327743     1.609221    2.0694166    1.1497832 
13480000   0.98009671 7.8286858e-05   0.60526751  0.069604163            0   0.53566335    1.4333914     2.038659    10.055233 
13485000    1.1079361 -2.7183714e-05   0.43188574  0.013225533            0    0.4186602    1.6203565    2.0522422  -0.73137002 
13490000     1.078719 -5.3692479e-05   0.49230353 0.0018472823            0   0.49045625    1.5776266    2.0699301   -3.4281797 
13495000    1.0991449 -4.4891954e-05   0.47390922 0.0055757771            0   0.46833344    1.6074995    2.0814087   -2.5155274 
13500000     1.172078 1.0470746e-05   0.36113078  0.015377314            0   0.34575346    1.7141641    2.0752948    3.1474993 
13505000    1.1806229 5.7456077e-05   0.31318063  0.011400063            0   0.30178056    1.7266609    2.0398416    7.9233439 
13510000    1.0403271 3.4424052e-05   0.51891505  0.014158264            0   0.50475679    1.5214784    2.0403934    5.5654164 
13515000    1.0242573 3.1947245e-05   0.49410426  0.021631107            0   0.47247316    1.4979764    1.9920806    5.2634785 
13520000    1.0403507 -5.413506e-05   0.47767139 0.0054598794            0   0.47221151    1.5215129    1.9991843   -3.5442459 
13525000    1.1318458 -8.9113077e-05   0.34400525 0.0031832666            0   0.34082199    1.6553245    1.9993298   -7.1258493 
13530000   0.97283033 -6.3647698e-06   0.60858133  0.023229476            0   0.58535186    1.4227644    2.0313457    1.3795933 
13535000    1.0196126 2.5378709e-05   0.58281083  0.029843016            0   0.55296781    1.4911834    2.0739942     4.672774 
13540000    1.1063495 -1.8093284e-05   0.50343855  0.020968929            0   0.48246962    1.6180361    2.1214747   0.26872235 
13545000    1.1962624 -1.1912247e-05   0.40368745  0.008561302            0   0.39512615    1.7495337    2.1532211     0.933407 
13550000    1.1667217 4.2827662e-05   0.46684842   0.01765071            0   0.44919771    1.7063305    2.1731789    6.5587315 
13555000    1.0964014 2.9700687e-05   0.51582295 0.0087396563            0   0.50708329    1.6034871      2.11931    5.1606604 
13560000    1.0961379 1.3990314e-06   0.51998004 0.00046753852            0    0.5195125    1.6031016    2.1230817    2.2663425 
13565000    1.0588864 4.6687694e-05   0.59615599 0.0019226163            0   0.59423338    1.5486214    2.1447774    6.9255972 
13570000    1.1056738 4.7173458e-05   0.51601355 0.0042134741            0   0.51180007     1.617048    2.1330615    6.9636236 
13575000    1.1259851 -5.7491872e-05   0.50512187   0.01216146            0   0.49296041    1.6467532    2.1518751   -3.7352926 
13580000    1.0743458 -7.8881695e-05    0.5790514  0.067475708            0   0.51157569    1.5712307    2.1502821   -5.9272035 
13585000    1.0393324 6.853175e-05   0.64354968  0.047193031            0   0.59635665    1.5200236    2.1635733    9.1812245 
13590000    1.1341886 3.6281735e-05    0.5108468  0.079841607            0    0.4310052    1.6587508    2.1695976    5.8848473 
13595000    1.1390021 -0.00010430317   0.57187702  0.014792946            0   0.55708408    1.6657905    2.2376675   -8.4429774 
13600000    1.1187358 2.3413807e-05   0.60719136  0.001925667            0    0.6052657    1.6361512    2.2433425    4.6409164 
13605000     1.217567 -4.3231945e-05   0.44834193 0.00027279555            0   0.44806913    1.7806918    2.2290337   -2.1979174 
13610000    1.2207696 -5.1990409e-05   0.40200456  0.015169459            0   0.38683511    1.7853756    2.1873801   -3.1364378 
13615000    1.1616483 7.0017484e-06   0.46209018  0.038517083            0   0.42357309    1.6989107    2.1610009    2.8779799 
13620000    1.1540729 -3.7799924e-05   0.47210766  0.041147611            0   0.43096005    1.6878315    2.1599392    -1.710773 
13625000    1.1202386 4.8221698e-05   0.48215921  0.031474505            0   0.45068471     1.638349    2.1205082    7.0584101 
13630000    1.1701824 4.1836565e-05   0.41029231 0.0080845029            0    0.4022078    1.7113918    2.1216841    6.4057484 
13635000    1.0780638 -8.6607243e-05   0.49544261   0.01748539            0   0.47795722    1.5766684     2.072111   -6.7964707 
13640000    1.0279957 -4.5255136e-05   0.56651396 0.0066242844            0   0.55988968    1.5034436    2.0699576   -2.5641683 
13645000    1.0921323 -5.0407944e-05    0.4942695            0            0    0.4942695    1.5972435     2.091513   -3.0702604 
13650000    1.0571973 -4.7780504e-05   0.57925733 0.0014041147            0   0.57785321     1.546151    2.1254083   -2.7673153 
13655000    1.2242612 7.7218545e-05   0.42001604  0.018076374            0   0.40193967    1.7904821    2.2104981    10.117677 
13660000    1.0901579  8.49984e-05   0.59441755  0.014481933            0   0.57993562    1.5943559    2.1887735     10.89261 
13665000    1.0782757 -3.4884199e-05   0.60958931 0.00048298689            0   0.60910633    1.5769782    2.1865676   -1.3855744 
13670000    1.0898081 -3.033431e-05   0.56284174  0.059962159            0   0.50287958    1.5938444    2.1566861  -0.94954729 
13675000    1.1379283 4.4649476e-05   0.47131233  0.044664955            0   0.42664737    1.6642202    2.1355325    6.7076388 
13680000    1.1731335 -7.8238683e-06    0.4370198  0.035839996            0    0.4011798    1.7157077    2.1527275    1.3515634 
13685000    1.0409654 -4.855828e-05   0.60701319  0.093905065            0   0.51310812    1.5224119    2.1294251   -2.8429428 
13690000    1.0463124 7.0794513e-05   0.61671834  0.039469937            0   0.57724841    1.5302319    2.1469502    9.3963083 
13695000    1.1339387 0.00015975134    0.5220891 0.00042925964            0   0.52165984    1.6583854    2.1804745    18.539012 
13700000     1.185714 4.1158124e-05   0.44497552            0            0   0.44497552    1.7341068    2.1790823    6.3936742 
13705000    1.1500618 -0.00011678459   0.53255055            0            0   0.53255055    1.6819654    2.2145159   -9.7442266 
13710000    1.2364458 -5.7448638e-06   0.42162818            0            0   0.42162818     1.808302    2.2299302    1.6416561 
13715000    1.1661019 0.00011022588   0.51895586 0.0041059447            0   0.51484992    1.7054241    2.2243799     13.51151 
13720000    1.1396367 1.4439024e-05   0.53513729  0.037025237            0   0.49811206    1.6667187     2.201856    3.6804121 
13725000    1.2305359 -1.9619822e-05   0.44062195   0.05431049            0   0.38631146    1.7996588    2.2402807    0.2312109 
13730000   0.96956066 6.7417554e-06   0.79508133    0.1209854            0   0.67409593    1.4179825    2.2130638    2.9034195 
13735000    1.1325514 -5.0809017e-05    0.5755597  0.008502209            0   0.56705749    1.6563564    2.2319161   -2.9709273 
13740000    1.0604034 -8.8363675e-05   0.71159641 0.00074258788            0   0.71085382      1.55084    2.2624364   -6.7860039 
13745000     1.257038 -4.9858116e-05   0.43624831  0.042277473            0   0.39397083     1.838418    2.2746663   -2.8308048 
13750000    1.1297522 7.5788681e-05   0.65331225  0.099599354            0   0.55371289    1.6522625    2.3055748    10.066336 
13755000    1.2098545 -1.7123427e-05    0.5268236  0.014263523            0   0.51256008    1.7694122    2.2962358   0.54279689 
13760000     1.182352 -4.1432496e-05   0.55879631  0.004575354            0   0.55422096    1.7291897     2.287986   -1.9547015 
13765000    1.2284667 -4.4650604e-05   0.46631897  0.031630574            0   0.43468839    1.7966325    2.2629515   -2.3092703 
13770000    1.2708184 -3.9430328e-05   0.48360379  0.021042926            0   0.46256087    1.8585719    2.3421757   -1.6954899 
13775000    1.0984925 1.822793e-05   0.72828886  0.010915881            0   0.71737298    1.6065453    2.3348342    4.2013741 
13780000    1.2238352 -8.3723813e-05   0.57090375 0.0082254854            0   0.56267827    1.7898589    2.3607627   -6.2125558 
13785000    1.3480576 -5.7752418e-05   0.38547605 0.0054112932            0   0.38006475    1.9715343    2.3570103   -3.5568373 
13790000    1.1922551 2.6690848e-05   0.59407024  0.020019756            0   0.57405048    1.7436731    2.3377434    5.0708862 
13795000    1.2104815 5.2660586e-05   0.59077412  0.029578575            0   0.56119554    1.7703292    2.3611033    7.7535474 
13800000    1.2739453 5.6308235e-05   0.50279837 0.0032071199            0   0.49959125     1.863145    2.3659434    8.1319067 
13805000    1.2268744 3.8143676e-05    0.5341021 0.0045997444            0   0.52950235    1.7943038    2.3284059    6.2343184 
13810000    1.2526205 4.281703e-05   0.55246389 0.0026381544            0   0.54982574    1.8319574    2.3844213    6.7688852 
13815000     1.290213 -1.7959343e-05   0.48320622 0.00012460822            0   0.48308162    1.8869365    2.3701427   0.53110592 
13820000    1.2625042 -3.8064253e-05   0.51431137 0.0051123685            0     0.509199    1.8464123    2.3607237   -1.5370558 
13825000     1.173733 8.3050874e-06   0.63354533  0.093642864            0   0.53990246    1.7165845    2.3501299    3.2005708 
13830000    1.1708169 7.4691173e-05   0.56595316  0.028845963            0    0.5371072    1.7123198    2.2782729     9.926649 
13835000    1.2021639 4.3017751e-05   0.55875365 0.0047683923            0   0.55398526    1.7581648    2.3169184    6.7219361 
13840000    1.2581531 -5.781536e-05   0.51079716  0.013817049            0   0.49698011    1.8400489    2.3508461   -3.5694467 
13845000    1.2487852 -0.00012677759   0.57762575  0.055871145            0   0.52175461    1.8263483    2.4039741   -10.578051 
13850000    1.2327976 -7.6449794e-05   0.58048989 0.0040229377            0   0.57646696    1.8029665    2.3834564   -5.4450025 
13855000     1.200581 -2.1510262e-05   0.57458786  0.012017385            0   0.56257048    1.7558497    2.3304375   0.12778674 
13860000    1.1255056 -5.9534209e-06   0.69803016  0.058941578            0   0.63908858    1.6460519    2.3440821    1.7344518 
13865000     1.206448    5.558e-05   0.57115195   0.11687537            0   0.45427658    1.7644303    2.3355822    8.0269742 
13870000    1.1925896 3.4348864e-05   0.61276026  0.082562528            0   0.53019773    1.7441623    2.3569225    5.8742462 
13875000    1.2818263 -0.00010766491   0.53764352   0.02895542            0    0.5086881     1.874671    2.4123145   -8.6125726 
13880000    1.2228176 -0.0001128225   0.63586752  0.031172505            0   0.60469502    1.7883707    2.4242383    -9.128786 
13885000    1.3125925 -6.34172e-06   0.53880432  0.069360458            0   0.46944387    1.9196665    2.4584709    1.8090787 
13890000    1.1619816 6.2714748e-05   0.72897791  0.090178974            0   0.63879894    1.6993981     2.428376    8.8503662 
13895000    1.2282909 0.0001089634   0.65165395   0.10445637            0   0.54719759    1.7963754    2.4480293    13.605882 
13900000    1.2458735 -8.6329514e-06    0.6597462  0.020423387            0   0.63932282    1.8220899    2.4818361    1.5978219 
13905000    1.3939229 -2.725142e-05   0.49746381  0.023106121            0   0.47435769    2.0386123    2.5360761  -0.25446933 
13910000    1.3325214 7.6994537e-05   0.59397501  0.033988626            0   0.55998639    1.9488126    2.5427876    10.427028 
13915000    1.2564744 4.6844435e-05    0.6351912   0.02325651            0   0.61193469    1.8375938     2.472785    7.2696552 
13920000    1.3209936 -4.4646333e-05    0.5721278  0.038823019            0   0.53330478    1.9319532     2.504081   -2.0677035 
13925000    1.2864944 1.3374124e-06   0.65222773  0.087775052            0   0.56445268     1.881498    2.5337258    2.6706768 
13930000    1.2542843 8.0825708e-05   0.65408677  0.021285463            0   0.63280131    1.8343908    2.4884775     10.76503 
13935000    1.3316799 5.5090433e-05   0.50865419  0.021262924            0   0.48739127    1.9475819    2.4562361    8.0974964 
13940000    1.2960405 -7.3439226e-05   0.55855955  0.013086075            0   0.54547347    1.8954592    2.4540187    -5.066158 
13945000    1.2417044 -5.2144663e-05    0.6299605  0.038472083            0   0.59148841    1.8159927    2.4459532   -2.8936603 
13950000     1.296737 2.2306875e-05   0.58348089  0.056136219            0   0.52734467    1.8964779    2.4799588    4.7641827 
13955000    1.1437546 1.6103291e-05   0.78831935  0.067417588            0   0.72090176    1.6727411    2.4610604    4.1100374 
13960000    1.3717226 -2.7006497e-05   0.42139545 0.0057409453            0   0.41565451    2.0061444    2.4275398  -0.33792551 
13965000    1.2122245 -3.3970636e-05   0.60499706  0.024096062            0     0.580901    1.7728783    2.3778754   -1.1007177 
13970000      1.18056 -1.230766e-05   0.62931743  0.010747012            0   0.61857042     1.726569    2.3558865    1.0955821 
13975000    1.2693462 9.3210094e-06   0.48676733  0.021871893            0   0.46489543    1.8564189    2.3431862    3.2976576 
13980000    1.1234452 6.3643576e-05   0.68418892  0.082783255            0   0.60140567    1.6430386    2.3272275    8.8443297 
13985000    1.1721495 -6.500712e-06   0.63682079   0.05118609            0    0.5856347    1.7142686    2.3510894    1.6854165 
13990000    1.2768709 -7.0963199e-05   0.52099478  0.034686302            0   0.48630848    1.8674236    2.3884184   -4.8782132 
13995000    1.1812213 -3.5766066e-05   0.60829172  0.011034238            0   0.59725748    1.7275362    2.3358279   -1.3266173 
14000000    1.2466929 4.5014931e-05   0.50016193 0.0069960453            0   0.49316588    1.8232884    2.3234503    6.9329792 
14005000    1.2802487 7.0234791e-05   0.48498059  0.031035183            0    0.4539454    1.8723638    2.3573444     9.549387 
14010000    1.1515033 0.00010292199   0.70769938  0.023723213            0   0.68397617    1.6840735    2.3917729    12.930984 
14015000    1.3184642 7.1878788e-05   0.48968016 0.0048788169            0   0.48480134    1.9282539     2.417934     9.778322 
14020000    1.2575714 -0.0001010891   0.56305256  0.053913095            0   0.50913946    1.8391981    2.4022507   -7.9492733 
14025000    1.2364359 -6.9374998e-06   0.57972211  0.065299227            0   0.51442288    1.8082876    2.3880097    1.6776097 
14030000    1.0696111 8.1140127e-05   0.81970328  0.066122464            0   0.75358082    1.5643063    2.3840096    10.692759 
14035000    1.2046057 1.9454275e-05   0.63310759    0.0102923            0   0.62281529    1.7617359    2.3948434    4.3869612 
14040000    1.2603543 2.2176761e-06   0.57449075 0.00014847897            0   0.57434227    1.8432682    2.4177589     2.644849 
14045000    1.2797352 -5.0889893e-05   0.52673376 0.0079487471            0   0.51878502    1.8716128    2.3983466   -2.8127785 
14050000    1.2029365 -1.1935872e-05   0.61274886  0.026933139            0   0.58581572    1.7592946    2.3720435    1.1498102 
14055000    1.2713564 4.9490105e-05   0.53041524  0.014643894            0   0.51577135    1.8593588     2.389774    7.4575608 
14060000    1.3464154 6.099283e-06   0.40376305  0.029722217            0   0.37404083    1.9691326    2.3728956    2.9974622 
14065000    1.1258505 -5.5284188e-05    0.7080165  0.028825785            0   0.67919071    1.6465563    2.3545728    -3.306528 
14070000    1.2481729 -7.4991523e-05   0.52623781  0.046051839            0   0.48018597    1.8254529    2.3516907   -5.3274413 
14075000    1.1410546 5.4643806e-06   0.68249118  0.024086647            0   0.65840454    1.6687924    2.3512836    2.9108361 
14080000    1.2226447 -5.7014538e-06   0.55278147  0.022755112            0   0.53002635    1.7881178    2.3408993    1.7570704 
14085000    1.1757579 4.1676052e-05   0.57343288  0.032820712            0   0.54061217    1.7195459    2.2929788    6.5606065 
14090000     1.258914 0.0001894819   0.46699647 0.0067287506            0   0.46026772    1.8411617    2.3081581    21.711105 
14095000    1.1821002 9.6869231e-05   0.57733338  0.057978266            0   0.51935511    1.7288215    2.3061549    12.225564 
14100000    1.1489261 -6.9666922e-05    0.6237365  0.023781619            0   0.59995488    1.6803044    2.3040409   -4.8298519 
14105000    1.1994147 -2.8117022e-05   0.57493664            0            0   0.57493664    1.7541441    2.3290807   -0.5501023 
14110000    1.2586763 2.177852e-06   0.42491087            0            0   0.42491087    1.8408141    2.2657249     2.488737 
14115000    1.1929664 -9.4635982e-05   0.57282862  0.011026094            0   0.56180253    1.7447133     2.317542   -7.3731826 
14120000     1.190328 -1.1372288e-05   0.53570124  0.057246172            0   0.47845507    1.7408546    2.2765559    1.1120335 
14125000    1.2071487 9.534449e-06   0.49800653  0.027319758            0   0.47068677     1.765455    2.2634615    3.2397891 
14130000    1.0945025 -9.4859884e-05   0.65190793 0.0034565914            0   0.64845134    1.6007099    2.2526178   -7.4610343 
14135000     1.137725 -6.7101675e-05   0.60795253  0.016988045            0   0.59096448    1.6639228    2.2718753   -4.5993362 
14140000     1.183935 3.8366535e-05   0.49034739  0.021725861            0   0.46862152    1.7315049    2.2218523    6.1505854 
14145000      1.16266 9.3460865e-05   0.50599184  0.058345331            0   0.44764651    1.7003903    2.2063821    11.776775 
14150000    1.0933834 8.2428445e-05   0.56714903    0.1207485            0   0.44640053    1.5990732    2.1662222    10.606895 
14155000    1.0227716 2.1538662e-05   0.68794423  0.095027363            0   0.59291687    1.4958034    2.1837476    4.3893067 
14160000     1.062575 5.3505095e-05    0.6198049  0.090984784            0   0.52882011    1.5540159    2.1738208    7.6527425 
14165000    1.0499166 9.8041559e-05    0.6344958  0.080518882            0   0.55397692     1.535503    2.1699988    12.209454 
14170000    1.1311033 1.2323892e-06   0.48777041  0.045987642            0   0.44178276    1.6542385    2.1420089    2.2682056 
14175000    1.1003196 -2.3527096e-05   0.57379729  0.042654833            0   0.53114246    1.6092175    2.1830148  -0.22615987 
14180000    1.1206171 2.8667277e-05   0.52543938  0.034907692            0   0.49053169    1.6389025    2.1643419    5.0998711 
14185000    1.1403821 5.4885562e-05   0.47707966   0.01453715            0   0.46254251    1.6678088    2.1448885      7.76517 
14190000    1.1001766 5.6002519e-05   0.55135908  0.020398416            0   0.53096067    1.6090083    2.1603674    7.8950253 
14195000     1.128802 -3.0968436e-05   0.53357061  0.025328108            0   0.50824251    1.6508729    2.1844436  -0.98672432 
14200000     1.113874 -0.00010595126   0.55866446  0.018134917            0   0.54052954    1.6290407    2.1877052   -8.6617038 
14205000    1.2311579 -7.0163596e-05   0.39901832 0.0091235377            0   0.38989479    1.8005684    2.1995867   -4.9851655 
14210000     1.149195 2.7246901e-05   0.51163752 0.0049149362            0   0.50672259    1.6806976    2.1923351    4.9824178 
14215000    1.1527372 7.4365343e-05   0.47866557 0.0019560863            0   0.47670949    1.6858782    2.1645438    9.7795549 
14220000    1.0281715 -1.8859849e-05   0.67680232 0.00046503197            0   0.67633729    1.5037007    2.1805031    0.2492545 
14225000    1.2225497 -5.2014717e-05   0.45658943 0.0009433459            0   0.45564608     1.787979    2.2445684   -3.0817386 
14230000    1.2116045 -6.998872e-05   0.46233226  0.011606337            0   0.45072592    1.7719716    2.2343039    -4.932541 
14235000    1.1249957 -6.8076994e-05   0.59005586  0.030551545            0   0.55950431    1.6453063    2.2353621    -4.735722 
14240000    1.1165986 6.5116168e-05   0.60993443  0.039035814            0   0.57089862    1.6330254    2.2429599    8.9108555 
14245000    1.1412904 6.5271116e-05   0.60633429  0.013396426            0   0.59293786    1.6691372    2.2754715    8.9592338 
14250000    1.2418033 -5.7063591e-05   0.49218384 0.0068561178            0   0.48532773    1.8161373    2.3083211   -3.5349906 
14255000    1.2224931 -9.3086657e-05   0.51039183  0.032741269            0   0.47765056    1.7878961     2.298288   -7.2337857 
14260000     1.090648 -6.1074815e-05   0.67478882  0.017383394            0   0.65740543    1.5950727    2.2698615   -3.9841996 
14265000    1.0419565 -8.6078873e-05   0.79856149 0.0068959465            0   0.79166555    1.5238614    2.3224229   -6.4920538 
14270000    1.1782438 -2.6340853e-05   0.53600369  0.021322068            0   0.51468162    1.7231815    2.2591852  -0.43811811 
14275000    1.0624193 3.8446325e-05   0.68093058  0.063873428            0   0.61705715    1.5537882    2.2347188    6.1716225 
14280000    1.2064551 1.3824579e-05   0.47585224   0.03312028            0   0.44273196    1.7644406    2.2402929    3.6559298 
14285000     1.142012 -2.1603021e-05   0.52940403 0.0033117812            0   0.52609225    1.6701925    2.1995965 -0.012552763 
14290000    1.1676799 -7.7554334e-06   0.51969044  0.003454893            0   0.51623555    1.7077318    2.2274223    1.4332659 
14295000    1.1066334 5.3280109e-05    0.5749568  0.039611577            0   0.53534522    1.6184514    2.1934082    7.6492914 
14300000    1.0517881 5.8225773e-05   0.62980458  0.064484309            0   0.56532027    1.5382401    2.1680447    8.1303639 
14305000    1.1374489 -4.938067e-05   0.55790603  0.012595193            0   0.54531084    1.6635191    2.2214251   -2.8351555 
14310000    1.2897435 1.3011116e-05   0.35912413 0.0032234803            0   0.35590065    1.8862499     2.245374    3.5777122 
14315000    1.2396396 -3.0029871e-06   0.44542044  0.010778922            0   0.43464152    1.8129729    2.2583934    1.9508875 
14320000    1.1489213 -9.3397259e-05   0.58335409  0.021824563            0   0.56152952    1.6802975    2.2636516   -7.3002278 
14325000    1.2021307 4.3646923e-05   0.53611322  0.039027146            0   0.49708607    1.7581161    2.2942293    6.7636742 
14330000    1.1185154 2.3729549e-05   0.63856265  0.024090876            0   0.61447178    1.6358288    2.2743915    4.7042973 
14335000    1.1463066 -8.9413995e-05   0.57395874   0.03771371            0   0.53624503    1.6764734    2.2504322   -6.9055609 
14340000    1.1382198 1.6572348e-05    0.5849975  0.053961852            0   0.53103564    1.6646464    2.2496439    3.9466524 
14345000    1.2629986 5.8767274e-05   0.40674733  0.035680045            0   0.37106729    1.8471355    2.2538828    8.2716517 
14350000    1.1139345 -8.0667664e-05   0.66315628 0.0047687129            0   0.65838757    1.6291291    2.2922854   -5.9680834 
14355000    1.2108407 -8.558356e-06   0.50678875  0.020349972            0   0.48643878    1.7708545    2.2776433    1.4012676 
14360000    1.0995645 3.4536491e-05   0.64192927  0.043354928            0   0.59857434    1.6081131    2.2500424     5.786579 
14365000    1.1107274 4.2946825e-05   0.65670858   0.11068397            0   0.54602461    1.6244388    2.2811474    6.6789023 
14370000    1.1717332 7.3384508e-05   0.62263259   0.11697801            0   0.50565458    1.7136598    2.3362924     9.850866 
14375000    1.2776643 1.4769925e-06   0.50882501 0.0027676037            0    0.5060574     1.868584     2.377409     2.528653 
14380000    1.2037663 -2.7637959e-05   0.60896577 0.0021034581            0   0.60686231    1.7605082     2.369474  -0.46065305 
14385000    1.1518586 -0.00011192774   0.67132566  0.044031993            0   0.62729367    1.6845932    2.3559189   -9.1054822 
14390000    1.1239192 -0.00014681155   0.73420003    0.0961421            0   0.63805794    1.6437319    2.3779319    -12.65557 
14395000     1.296201 -3.0827446e-05   0.46801938  0.046352634            0   0.42166675    1.8956939    2.3637133   -0.7930171 
14400000    1.2780918 5.6160883e-05   0.47841364  0.019478071            0   0.45893557    1.8692092    2.3476228    8.0984973 
14405000    1.1078439 7.9118582e-05   0.70674142  0.056346738            0   0.65039468    1.6202216    2.3269631    10.428706 
14410000     1.216519 0.00011494385   0.59448822  0.070614509            0   0.52387371    1.7791591    2.3736473    14.143898 
14415000    1.2222247 5.2174925e-05   0.59492473  0.079833225            0    0.5150915    1.7875036    2.3824283    7.7251406 
14420000    1.3108355 -3.0273987e-05   0.52334455   0.03308345            0    0.4902611     1.917097    2.4404415  -0.65961474 
14425000    1.2691644 -3.2899239e-05   0.57646043 0.0058097351            0    0.5706507     1.856153    2.4326134  -0.93626864 
14430000    1.2826572 7.4049759e-05    0.5619841   0.01481645            0   0.54716765    1.8758861    2.4378702    10.020566 
14435000    1.3698095 2.0985696e-05   0.40966723 0.0079165578            0   0.40175068    2.0033464    2.4130136    4.5619488 
14440000    1.2964776 -8.6833206e-05   0.54541672  0.025904067            0   0.51951265    1.8960985    2.4415153    -6.450205 
14445000    1.2104405 -2.4856802e-06   0.75890011  0.091884681            0   0.66701543    1.7702692    2.5291693    2.2746356 
14450000    1.2540113 -7.2820505e-05   0.70201487  0.036574766            0   0.66544011    1.8339915    2.5360064   -4.9208133 
14455000    1.2461917 -6.6993963e-05   0.70278297 0.0075488193            0   0.69523415    1.8225553    2.5253383   -4.3348435 
14460000    1.3834016 -7.0533724e-05   0.50041206  0.019464872            0   0.48094718    2.0232249    2.5236369   -4.6990164 
14465000    1.4402035 -5.7440183e-07   0.43024307  0.010973337            0   0.41926974    2.1062976    2.5365407    2.4777219 
14470000    1.2461722 0.00010378986   0.68947312  0.028350227            0   0.66112289    1.8225268    2.5119999    13.140082 
14475000    1.3552646 1.1662878e-05   0.55616485  0.026520719            0   0.52964413    1.9820744    2.5382393     3.732518 
14480000    1.3835028 -3.5625482e-05   0.51740476 0.0094797289            0   0.50792503    2.0233729    2.5407777   -1.1072717 
14485000    1.3986327 7.6025221e-06    0.4675701 0.00048279447            0    0.4670873    2.0455003    2.5130704    3.2915687 
14490000    1.3373785 3.5193381e-05   0.55259151 0.0013034891            0   0.55128802    1.9559161    2.5085076    6.1123098 
14495000    1.2743532 3.4120234e-05   0.58365825 0.0043946465            0   0.57926361    1.8637415    2.4473998    5.9413117 
14500000    1.2362771 -5.8661839e-05   0.62417011  0.001381098            0   0.62278901    1.8080552    2.4322253   -3.5747471 
14505000    1.1710392 -0.00011064716   0.66865791 0.0012772663            0   0.66738064    1.7126449    2.3813028   -8.9489663 
14510000    1.2519148 -0.00012842188   0.53892359  0.017046727            0   0.52187687    1.8309254     2.369849   -10.780552 
14515000    1.2374155 -4.8225372e-05   0.50999886  0.016552525            0   0.49344633    1.8097202     2.319719   -2.6185591 
14520000    1.1718365 1.538916e-05   0.60093358 0.00058251624            0   0.60035106    1.7138109    2.3147445    3.8905945 
14525000    1.2729677 -5.446474e-06   0.48547285 0.00013416013            0   0.48533869    1.8617153    2.3471881    1.7894692 
14530000    1.3312727 -1.3970576e-05   0.43486353  0.030665493            0   0.40419804    1.9469864    2.3818499   0.95126293 
14535000     1.085044 -4.8169695e-06   0.78893065  0.064125219            0   0.72480543    1.5868768    2.3758075    1.8825498 
14540000    1.1190898 -3.0580088e-05   0.75490131  0.061145528            0   0.69375578    1.6366688    2.3915701  -0.73983084 
14545000    1.1588939 -1.6967108e-05   0.66051026  0.033605414            0   0.62690485    1.6948823    2.3553926   0.61796074 
14550000    1.2619427 -4.8074122e-06   0.54264116 0.0041796796            0   0.53846148    1.8455913    2.3882324    1.8959534 
14555000    1.1862823 -1.2798132e-05   0.66505081 0.0071001784            0   0.65795063    1.7349378    2.3999887    1.0894599 
14560000    1.4084794 -2.0563093e-05   0.39752277  0.038620081            0   0.35890269    2.0599011    2.4574239   0.35176319 
14565000    1.2885543 -2.5604183e-05    0.5656932  0.050915987            0   0.51477721    1.8845107    2.4502039  -0.17166445 
14570000    1.1044239 3.3508171e-05   0.82841102   0.04414505            0   0.78426597      1.61522     2.443631    5.8748677 
14575000    1.1821037 0.00011117008   0.69296461  0.087295035            0   0.60566957    1.7288267    2.4217913    13.805608 
14580000    1.2557456 6.437627e-05   0.63734873  0.040630735            0     0.596718    1.8365279    2.4738766    9.0660067 
14585000    1.2853964 2.457044e-06   0.64989375 0.0005236922            0   0.64937005    1.8798922     2.529786    2.7813873 
14590000    1.2600145 -2.8081497e-05   0.68093995  0.012717369            0   0.66822258    1.8427712    2.5237112   -0.3518341 
14595000    1.2436911 -8.266631e-05   0.68394556  0.024549469            0   0.65939609    1.8188982    2.5028438   -5.9621863 
14600000    1.2123857 -0.00010032726   0.72812331  0.022513265            0   0.70561004    1.7731141    2.5012374   -7.7722744 
14605000    1.3158757 -8.1144046e-06   0.59425277  0.012671323            0   0.58158144    1.9244682     2.518721     1.687806 
14610000    1.2733288 2.7623441e-05   0.61233513  0.040007542            0   0.57232759    1.8622434    2.4745785    5.3032189 
14615000    1.2631915 7.0049067e-05   0.65116015   0.05923693            0   0.59192322    1.8474176    2.4985777    9.6716022 
14620000     1.370873 7.335703e-05   0.48924605  0.065999477            0   0.42324657    2.0049018    2.4941479    10.005908 
14625000    1.2491036 2.2212236e-05   0.64702882  0.020294628            0   0.62673419     1.826814    2.4738428    4.7483758 
14630000    1.3045272 0.00011560098   0.60330367  0.006192523            0   0.59711115     1.907871    2.5111747    14.348716 
14635000    1.3298979 0.00012923771   0.53250543 0.0087410642            0   0.52376436    1.9449757    2.4774811    15.711423 
14640000    1.1310569 -3.0000475e-05   0.80918733  0.074860336            0     0.734327    1.6541708    2.4633581  -0.60869054 
14645000    1.2279527 -7.0722766e-05   0.74651516  0.052122346            0   0.69439282    1.7958808     2.542396   -4.6996153 
14650000    1.1444276 -4.1226205e-05    0.8262442  0.021241386            0   0.80500281    1.6737253    2.4999695   -1.7215939 
14655000    1.1976366 -7.9278319e-05   0.71662121  0.040584888            0   0.67603632    1.7515436    2.4681648   -5.6499351 
14660000    1.2421929 -6.3233069e-06    0.6464452  0.013805098            0    0.6326401    1.8167072    2.4631524    1.8156457 
14665000     1.297656 1.3544585e-05   0.60025686  0.034343246            0   0.56591362    1.8978218    2.4980787    3.8850442 
14670000    1.3214878 -4.1129479e-05   0.54569109  0.039317173            0   0.50637391    1.9326758    2.4783669   -1.7332917 
14675000    1.3748022 5.1520552e-07   0.45597149  0.052576654            0   0.40339483    2.0106482    2.4666196    2.5193767 
14680000    1.3430626 3.8157565e-05   0.56111468  0.036011814            0   0.52510286     1.964229    2.5253437    6.4326784 
14685000    1.2822651 9.8879131e-06   0.59623941 0.0036827866            0   0.59255663    1.8753128    2.4715522    3.4840745 
14690000    1.1383976 -6.8213725e-05   0.79233639  0.010557131            0   0.78177926    1.6649064    2.4572428   -4.5278427 
14695000    1.1715094 -5.1882809e-05   0.72724438  0.046450303            0   0.68079408    1.7133324    2.4405768   -2.8722228 
14700000    1.4200363 4.4523168e-05   0.38978401  0.014378107            0   0.37540591    2.0768031    2.4665872    7.0257595 
14705000    1.1910161 3.4068942e-05   0.72058871  0.039009854            0   0.68157885     1.741861    2.4624497    5.9511094 
14710000    1.2058503 -1.0797046e-05   0.63705311  0.006830487            0   0.63022263     1.763556    2.4006091    1.2949916 
14715000    1.1786392 3.7072346e-05   0.62729437            0            0   0.62729437    1.7237599    2.3510543    6.1472624 
14720000     1.218388 1.3311329e-05   0.56083324 0.00034908599            0   0.56048415    1.7818924    2.3427257    3.7058058 
14725000    1.1518723 2.7765052e-05   0.66339566  0.032689421            0   0.63070624    1.6846132    2.3480089    5.1911502 
14730000    1.0941019 4.4764646e-05   0.77223483  0.081332568            0   0.69090226     1.600124    2.3723589    6.9562586 
14735000    1.1042904 1.2479929e-05   0.75458889   0.03681096            0   0.71777793    1.6150247    2.3696136    3.6475583 
14740000    1.1697918 4.4496858e-05   0.67172554 0.00082188319            0   0.67090366    1.7108205     2.382546    6.9390243 
14745000    1.2175871 -4.0897509e-05   0.58493165 6.3010351e-05            0   0.58486864    1.7807212    2.3656528   -1.8222521 
14750000    1.2079135 -1.2418709e-05   0.63465745 0.0041397604            0   0.63051769    1.7665735    2.4012309    1.1295552 
14755000    1.1324942 -3.459328e-05   0.76840741  0.044592606            0    0.7238148    1.6562728    2.4246802   -1.1176717 
14760000    1.1247876 -8.3362403e-05   0.70935652  0.061897288            0   0.64745923    1.6450018    2.3543583   -6.1819517 
14765000    1.0647664 -4.1400523e-05      0.77876  0.035660603            0    0.7430994    1.5572209    2.3359809   -1.9034326 
14770000    1.1395865 -6.3860249e-05   0.70151116  0.026988457            0    0.6745227    1.6666452    2.3681563   -4.1711332 
14775000    1.0887725 -6.147301e-05   0.76958474  0.055314603            0   0.71427014    1.5923297    2.3619145   -3.9329217 
14780000    1.1740414 -4.5850496e-05   0.67498899  0.011389064            0   0.66359993    1.7170355    2.3920245   -2.3030662 
14785000    1.0438228 1.1028675e-05   0.84424717  0.011275525            0   0.83297164    1.5265909    2.3708381    3.5001744 
14790000    1.2495152 -2.3220811e-06   0.50811226  0.004591526            0   0.50352073     1.827416    2.3355283    2.0977472 
14795000    1.1643477 -1.6477212e-05   0.62686798  0.011136663            0   0.61573132    1.7028585    2.3297265   0.64246001 
14800000    1.1302538 5.0967692e-05   0.65164561  0.025691022            0   0.62595459    1.6529962    2.3046418    7.5237334 
14805000    1.0276881 4.6200968e-05   0.78030846 0.0085942574            0   0.77171421    1.5029938    2.2833023    7.0142814 
14810000     1.119325 -2.3445588e-05   0.59536085 0.0011194661            0   0.59424138    1.6370128    2.2323737   -0.1684545 
14815000    1.0143398 -6.5788768e-05   0.73301935  0.020162688            0   0.71285667     1.483472    2.2164913   -4.5202785 
14820000    1.2109273 -1.6535734e-06   0.48959231  0.044344368            0   0.44524795    1.7709812    2.2605735    2.0912476 
14825000   0.98614896 2.7239629e-05   0.82408137  0.064963892            0   0.75911748    1.4422428    2.2663242    5.0556622 
14830000    1.1122557 2.799085e-05   0.64066386  0.027643134            0   0.61302072     1.626674    2.2673378    5.1336008 
14835000    1.2200758 5.2704966e-06   0.46676796 0.0014261178            0   0.46534184    1.7843608    2.2511288    2.7908276 
14840000    1.0833397 -3.1193851e-05   0.70060627 0.0022017141            0   0.69840456    1.5843843    2.2849906  -0.90925979 
14845000    1.1259953 -1.8055772e-05   0.63670949  0.025522921            0   0.61118657    1.6467682    2.2834777   0.43456662 
14850000    1.2172069 2.036835e-05   0.53872456  0.051896534            0   0.48682803    1.7801651    2.3188897    4.4046087 
14855000    1.1061966 4.1632755e-05   0.70192097  0.072763726            0   0.62915724    1.6178125    2.3197335    6.5829276 
14860000    1.1989109 1.5174092e-05   0.56902095   0.02209903            0   0.54692192    1.7534072    2.3224282    3.8762552 
14865000    1.0542012 -1.356808e-05   0.75636513  0.013061476            0   0.74330366    1.5417692    2.2981344   0.90876299 
14870000    1.2412589 -2.9872053e-05   0.48362204  0.030072233            0    0.4535498    1.8153411    2.2989632  -0.75993502 
14875000    1.1257919 1.2068154e-05   0.60719765    0.0457493            0   0.56144835    1.6464706    2.2536683    3.4894473 
14880000    1.0456427 2.7788327e-06   0.76756126  0.023816496            0   0.74374476    1.5292525    2.2968138    2.5813663 
14885000   0.97778675 -0.00010567537   0.82641717   0.08632614            0   0.74009103    1.4300131    2.2564303    -8.564728 
14890000   0.97334932 -0.00011131787   0.75793101  0.064050202            0   0.69388081    1.4235234    2.1814544    -9.217496 
14895000    1.2005786 3.4414159e-05    0.4162476  0.029163198            0    0.3870844    1.7558462    2.1720938    5.6961036 
14900000    1.1512895 9.8144402e-05    0.5361652  0.021003447            0   0.51516176    1.6837609    2.2199261    12.269913 
14905000    1.2185225 4.1860139e-05   0.48188027  0.014248203            0   0.46763207    1.7820892    2.2639694    6.5504477 
14910000   0.97339524 5.1120802e-05   0.82876325 0.0088631904            0   0.81990006    1.4235905    2.2523538    7.4871239 
14915000    1.1540717 4.3743057e-05   0.55080852  0.030702592            0   0.52010593    1.6878298    2.2386384    6.7179274 
14920000    1.1395509 5.8482545e-05   0.55585644  0.086507415            0   0.46934902    1.6665932    2.2224496    8.2110622 
14925000    1.1167508 1.7711047e-05   0.58513376  0.022181421            0   0.56295234    1.6332481    2.2183819    4.0319931 
14930000    1.1060924 -4.396157e-05   0.59478374 0.0072716858            0   0.58751205    1.6176602    2.2124439   -2.2892209 
14935000    1.0951317 -7.675267e-06   0.60342639 0.0069037409            0   0.59652265    1.6016302    2.2050566    1.4191092 
14940000    1.0694338 1.7411443e-05   0.63423413 0.0026638184            0   0.63157031    1.5640469     2.198281    3.9812128 
14945000     1.068497 8.9627067e-06   0.62797089 0.00050065495            0   0.62747023    1.5626768    2.1906477    3.1084289 
14950000    1.1775204 -5.8727915e-06   0.45689971 0.00046090955            0    0.4564388    1.7221236    2.1790233    1.5776495 
14955000    0.9914089 1.6015173e-05   0.68712532  0.030835852            0   0.65628947    1.4499355    2.1370608    3.7770145 
14960000    0.9493401 5.5180151e-05   0.72199933  0.059965671            0   0.66203366    1.3884099    2.1104092    7.7608566 
14965000    1.0173767 -6.0209964e-05   0.60597278 0.0048451033            0   0.60112768    1.4879135    2.0938863    -4.071614 
14970000   0.91802141 -5.4020462e-05   0.75064088 0.0022804988            0   0.74836039    1.3426063    2.0932472   -3.4384481 
14975000     1.090841 5.7676643e-05   0.47900487 0.0048181112            0   0.47418676    1.5953549    2.0743598    7.9804481 
14980000    1.0216693 8.0148742e-05    0.6154374  0.015224789            0   0.60021261    1.4941914    2.1096288     10.31686 
14985000   0.96552357 8.9228401e-05   0.67982261  0.039842762            0   0.63997985    1.4120782    2.0919008    11.228889 
14990000    0.9801647 -1.0094331e-06   0.68388699  0.022091861            0   0.66179513    1.4334909    2.1173779    2.0140119 
14995000    1.1376488 -2.1153684e-06   0.44498625 0.0027104153            0   0.44227584    1.6638113    2.1087976    1.8921839 
15000000   0.97760114 3.4966974e-05   0.70199982 0.0061653869            0   0.69583443    1.4297417    2.1317415    5.7123596 
15005000    1.0476967 -2.3150487e-05   0.60764193  0.027007565            0   0.58063436    1.5322565    2.1398984   -0.2307115 
15010000   0.99880929 -5.4509795e-05   0.64137678  0.065766897            0   0.57560989    1.4607586    2.1021354   -3.4796677 
15015000     1.044294 2.1202875e-05    0.5869737  0.094899774            0   0.49207393    1.5272799    2.1142536     4.285428 
15020000    1.0575146 1.4519113e-05    0.6184427  0.073314711            0   0.54512799    1.5466151    2.1650578     3.651815 
15025000    1.1371508 1.0518746e-06   0.49518502  0.020652102            0   0.47453291    1.6630831    2.1582681      2.26598 
15030000   0.98797771 3.515604e-05   0.72779417  0.022782435            0   0.70501173    1.4449174    2.1727116    5.7726901 
15035000   0.92372498 2.8594385e-05   0.79197073 0.0092154341            0    0.7827553    1.3509478    2.1429185    5.0709836 
15040000    1.1718876 4.2450196e-05   0.44859437 0.0068035367            0   0.44179083    1.7138856      2.16248      6.50938 
15045000    1.1495875 -3.7351659e-06   0.51339065  0.012010456            0   0.50138019    1.6812717    2.1946623    1.8121813 
15050000    1.0680227 -3.5964295e-05   0.64975182  0.052821448            0   0.59693037    1.5619833    2.2117351   -1.4710087 
15055000    1.0753468 -5.0184619e-05   0.64040717  0.053460232            0   0.58694693    1.5726948    2.2131019    -2.925803 
15060000   0.94757165 -6.3267243e-05   0.82288585  0.014556142            0   0.80832971    1.3858235    2.2087094   -4.2698563 
15065000     1.094263 -4.5112172e-05   0.59130493  0.027533245            0   0.56377169    1.6003596    2.1916645   -2.4278219 
15070000    1.1069788 -9.3557683e-05    0.6206768  0.025801958            0   0.59487484    1.6189564    2.2396332   -7.3406735 
15075000    1.0790298 -8.8686659e-05   0.65937775 0.0049948964            0   0.65438285    1.5780811    2.2374589    -6.844055 
15080000    1.1550821 2.2452959e-05   0.54038677  0.007918417            0   0.53246836    1.6893076    2.2296944    4.5288774 
15085000    1.2308123 -4.9833383e-06   0.41388745  0.016565977            0   0.39732148     1.800063    2.2139505    1.7036566 
15090000    1.0772401 9.5297177e-06   0.66505198  0.044133928            0   0.62091805    1.5754637    2.2405157    3.2163588 
15095000    1.0311298 0.00011454011   0.73387015    0.1184236            0   0.61544655    1.5080273    2.2418974    13.970805 
15100000    1.2447561 5.4266257e-05    0.3792968  0.015513779            0   0.36378302    1.8204558    2.1997526    7.7566173 
15105000    1.0707821 -4.3498082e-05   0.59232951  0.017255676            0   0.57507384    1.5660189    2.1583484   -2.2958551 
15110000    1.0829666 -1.911585e-06   0.62478868   0.02144098            0    0.6033477    1.5838387    2.2086274    2.0128811 
15115000    1.1900411 6.6087304e-05   0.49156716   0.01544623            0   0.47612093    1.7404351    2.2320023    8.9993422 
15120000    1.0602022 1.6500304e-05     0.666702 0.0056210356            0   0.66108096    1.5505458    2.2172478    3.9068789 
15125000    1.1570228 -1.7820919e-05   0.55104423  0.023365758            0   0.52767847    1.6921459    2.2431901   0.41832803 
15130000     1.001263 4.9178677e-06   0.81562025  0.020090752            0    0.7955295    1.4643471    2.2799674     2.783557 
15135000    1.2011378 4.6842798e-05   0.55476636  0.044669619            0   0.51009675    1.7566641    2.3114304     7.108133 
15140000    1.2976104 5.2482569e-05   0.46913518   0.04533864            0   0.42379654    1.8977552    2.3668904    7.7411055 
15145000    1.1617153 2.9197354e-05   0.67081644  0.024717767            0   0.64609867    1.6990086    2.3698251    5.3596341 
15150000    1.2170905 6.5227616e-05   0.58953583  0.040240753            0   0.54929507    1.7799948    2.3695307    9.0488385 
15155000    1.2608757 4.1884072e-05   0.54190423  0.047533966            0   0.49437027    1.8440308     2.385935     6.674864 
15160000    1.2615175 -3.6534008e-05   0.55988017 0.0050734603            0   0.55480671    1.8449694    2.4048496   -1.3362328 
15165000    1.2307568 -3.7127479e-05   0.59028408 0.0014436874            0   0.58884039    1.7999818    2.3902659   -1.4115879 
15170000    1.2382465 -6.8897095e-05   0.56100362  0.001360649            0   0.55964297    1.8109355    2.3719391   -4.6831234 
15175000    1.2143547 -8.229129e-05     0.633713  0.013133691            0   0.62057931    1.7759938    2.4097068   -6.0169212 
15180000    1.1724044 3.3589277e-05   0.67394314  0.077849677            0   0.59609346    1.7146415    2.3885846    5.8281265 
15185000    1.2765984 -2.7344074e-06   0.53129047  0.033320139            0   0.49797034    1.8670252    2.3983157    2.1183123 
15190000    1.2330373 -2.3090599e-05   0.60001453  0.019851364            0   0.58016317    1.8033171    2.4033316  0.038854305 
15195000     1.196086 3.1304896e-05   0.65141898   0.06173438            0    0.5896846    1.7492758    2.4006948    5.6063162 
15200000    1.2409947 -4.249326e-05    0.5966126   0.14014175            0   0.45647085    1.8149548    2.4115673   -1.9397425 
15205000    1.2286732 2.048033e-05   0.57897938  0.019190152            0   0.55978923    1.7969345    2.3759139    4.4730996 
15210000    1.2010482 4.9478881e-05   0.62261655  0.016449968            0   0.60616658     1.756533    2.3791495    7.4457869 
15215000    1.2419952 -2.5426706e-05   0.55131431  0.034738705            0   0.51657561     1.816418    2.3677323   -0.2359623 
15220000     1.235994 -1.9563993e-05   0.59165625  0.014266105            0   0.57739015    1.8076412    2.3992975   0.39594458 
15225000    1.2665975 6.099795e-05   0.56392891 2.0714904e-05            0   0.56390819    1.8523988    2.4163277    8.6625178 
15230000    1.3593749  7.60878e-05   0.46994735 0.00097459222            0   0.46897276    1.9880858    2.4580332    10.249424 
15235000    1.2195894 1.0606139e-05    0.6187006 0.0018629104            0   0.61683769    1.7836495    2.4023501    3.4884188 
15240000     1.256918 -2.4423363e-05   0.58510985 2.469772e-06            0   0.58510738    1.8382426    2.4233524 -0.077599923 
15245000    1.2325937 -3.6355352e-05   0.62094873 0.0010436306            0    0.6199051    1.8026683    2.4236171    -1.299171 
15250000     1.306006 -5.8163548e-05   0.46367157 0.0024227424            0   0.46124883    1.9100338    2.3737054   -3.5822419 
15255000    1.3610047 -2.7462427e-05   0.40502742 0.0061729607            0   0.39885446    1.9904694    2.3954969  -0.41665567 
15260000    1.2129608 0.00011497664   0.64600645  0.021222279            0   0.62478417    1.7739552    2.4199616     14.19357 
15265000    1.2758519 4.5135307e-05   0.51226635  0.016940712            0   0.49532564    1.8659335    2.3781998    7.0000553 
15270000    1.3827266 -8.3090759e-05   0.40973906 0.0070971553            0    0.4026419    2.0222377    2.4319767    -6.076517 
15275000    1.3101567 -8.3385816e-06   0.48481339 0.00098371734            0   0.48382967    1.9161042    2.4009175    1.5470468 
15280000    1.2197569 6.7465506e-05   0.60766659 3.5451385e-05            0   0.60763114    1.7838945    2.3915611    9.3000289 
15285000    1.3402629 1.771083e-05   0.44303451 0.0048015161            0     0.438233    1.9601345     2.403169     4.216758 
15290000     1.381352 -7.6607703e-06   0.37872714 0.0073280581            0   0.37139908    2.0202273    2.3989544    1.6144915 
15295000     1.249732 -4.2041443e-05   0.62010932 0.0026001695            0   0.61750915     1.827733    2.4478423   -1.8572015 
15300000    1.2979757 -2.8849982e-05   0.56374329  0.020014858            0   0.54372843    1.8982895    2.4620328  -0.49220535 
15305000    1.2089926 4.3490776e-05   0.67388134   0.10442446            0   0.56945688    1.7681517     2.442033    6.8954885 
15310000    1.3083954 -8.2573366e-06   0.57214019  0.020813945            0   0.55132625    1.9135282    2.4856684    1.6401171 
15315000    1.3133372 -5.6118412e-05   0.48483041 0.00078502387            0   0.48404539    1.9207556    2.4055861   -3.3409393 
15320000    1.3466909 1.6138897e-05   0.40697029  0.011614837            0   0.39535546    1.9695354    2.3765057    4.0291288 
15325000    1.3065518 1.104705e-05   0.45662573  0.027681151            0   0.42894458    1.9108319    2.3674577    3.4986756 
15330000    1.2917845 -6.1255361e-05   0.48920438  0.018915372            0   0.47028901    1.8892348    2.3784392   -3.8941098 
15335000    1.1911803 -8.0966531e-06   0.58983799 0.0020192634            0   0.58781873    1.7421011    2.3319391    1.5028419 
15340000     1.306248 6.7569777e-05   0.41252775 0.0029090633            0   0.40961869    1.9103877    2.3229154    9.2420606 
15345000    1.3082343 7.9680539e-05   0.40701901 0.0094223748            0   0.39759664    1.9132926    2.3203116    10.479599 
15350000    1.2421195 -7.0424693e-06   0.47910514  0.012108811            0   0.46699633    1.8165997    2.2957049     1.574556 
15355000    1.2264256 -6.9481718e-05   0.47811866 0.0048133541            0    0.4733053    1.7936475    2.2717661   -4.8431618 
15360000    1.1530957 -4.9436287e-05    0.5328617 7.1006489e-05            0    0.5327907    1.6864025    2.2192642   -2.8430116 
15365000    1.3178063 -7.8475606e-05   0.35530489 3.7155503e-05            0   0.35526774    1.9272917    2.2825966   -5.7533055 
15370000    1.3037375 -6.9025086e-05   0.41959284  0.013969518            0   0.40562332    1.9067161    2.3263089   -4.7418599 
15375000     1.168104 3.3041737e-05    0.5637457  0.042053425            0   0.52169227     1.708352    2.2720977    5.6555716 
15380000    1.2224682 5.715254e-06   0.46829344    0.0485339            0   0.41975954    1.7878597    2.2561531    2.8413951 
15385000    1.1035072 -9.4554153e-05   0.60708112  0.056641693            0   0.55043943    1.6138793    2.2209604   -7.4613848 
15390000    1.1788401 -9.4419094e-05    0.5042005            0            0    0.5042005    1.7240537    2.2282542    -7.440261 
15395000    1.3297543 1.6404547e-05    0.3408386            0            0    0.3408386    1.9447657    2.2856043    3.9654299 
15400000    1.2362635 3.8171138e-05   0.42744674            0            0   0.42744674    1.8080353    2.2354821    6.1442066 
15405000    1.2413936 -1.9412911e-05   0.39821561            0            0   0.39821561    1.8155381    2.2137537   0.22587164 
15410000    1.1718931 -2.942168e-05   0.50082321 0.0010922284            0   0.49973098    1.7138936    2.2147168  -0.79806321 
15415000    1.1898019 -4.4780176e-05    0.4553596 0.0073453573            0   0.44801425    1.7400853    2.1954449   -2.3900451 
15420000    1.1064583 -2.8723815e-05   0.58652597  0.012551751            0   0.57397422    1.6181953    2.2047212  -0.73659739 
15425000    1.1557198 -4.456864e-05    0.4984899 0.0073739445            0   0.49111596    1.6902402    2.1887301   -2.3750986 
15430000    1.2361809 -4.7743473e-05   0.36929253  0.004512065            0   0.36478047    1.8079146    2.1772071   -2.7117245 
15435000    1.1092716 7.0188702e-07    0.5626462 0.00034269004            0   0.56230351    1.6223097    2.1849559    2.2568291 
15440000    1.1369965 1.175055e-06   0.51565928  0.021276299            0   0.49438298    1.6628573    2.1785166    2.2988422 
15445000    1.1997519 3.1924868e-05   0.45294021  0.031807107            0   0.42113311    1.7546372    2.2075774    5.4766839 
15450000    1.1274179 -3.7495151e-05   0.52609382  0.089355097            0   0.43673872    1.6488487    2.1749425    -1.664561 
15455000    1.0595101 -7.301679e-05   0.65068746  0.017557252            0   0.63313021    1.5495336     2.200221   -5.2766983 
15460000    1.2078682 -2.9631056e-05   0.44916331 0.0078543137            0   0.44130899    1.7665072    2.2156705  -0.81854967 
15465000    1.1146316 -1.4810309e-05   0.55760875  0.051979996            0   0.50562875    1.6301488    2.1877575   0.67118192 
15470000    1.1512415 -1.7041267e-05   0.50320056  0.015189961            0    0.4880106    1.6836907    2.1868912   0.44186546 
15475000    1.1833304 -1.4352862e-05   0.48124674 0.0027026722            0   0.47854407    1.7306207    2.2118675   0.74213441 
15480000    1.2968889 3.1730456e-05   0.30329363  0.012675878            0   0.29061775    1.8967001    2.1999937    5.4491924 
15485000    1.2644128 3.2536453e-05   0.43258121  0.013495916            0    0.4190853    1.8492038     2.281785    5.6135177 
15490000    1.2003672 -1.4870315e-06   0.55181646 0.00019154544            0   0.55162491     1.755537    2.3073535    2.1550814 
15495000    1.3051363 1.5258762e-05   0.42847704            0            0   0.42847704    1.9087618    2.3372389    3.8997361 
15500000    1.3002621 1.9569291e-05   0.48805705 0.0007302046            0   0.48732684    1.9016333    2.3896904    4.3935858 
15505000    1.3941786 -1.3265632e-05   0.37997147  0.023690261            0   0.35628121    2.0389862    2.4189576    1.0605569 
15510000    1.2443337 -2.9973895e-05   0.61363338  0.048584957            0   0.56504843     1.819838    2.4334714  -0.63585549 
15515000    1.2646406 9.4999997e-06   0.55334191  0.033773289            0   0.51956862    1.8495369    2.4028788    3.3756788 
15520000    1.2691945 -1.2353018e-05   0.55054986 0.0069266207            0   0.54362324    1.8561969    2.4067468    1.1417977 
15525000    1.4197959 -2.0811755e-05   0.35884222 0.0012078794            0   0.35763434    2.0764515    2.4352937   0.30417006 
15530000    1.2035139 2.3863248e-05   0.66593634 0.0033596063            0   0.66257673    1.7601391    2.4260755     4.869672 
15535000    1.2878342 1.067058e-05   0.53100814 0.0068833776            0   0.52412477    1.8834575    2.4144657    3.5071331 
15540000    1.2276451 -3.6724417e-05   0.62172723  0.028770449            0   0.59295678     1.795431    2.4171582   -1.3434222 
15545000    1.2585622 -2.6929062e-05   0.62408006  0.048786767            0   0.57529329    1.8406472    2.4647272  -0.29280874 
15550000    1.1835628 -2.6340001e-05   0.68761859  0.017998641            0   0.66961995    1.7309606    2.4185792   -0.2786369 
15555000    1.2173997 -1.0987029e-05   0.63262867  0.033512881            0   0.59911578    1.7804471    2.4130758     1.288004 
15560000    1.2820907 1.0843725e-05   0.46371922  0.012375397            0   0.45134382    1.8750576    2.3387769    3.4491743 
15565000    1.3727267 4.7093357e-05   0.37688284 0.0022643399            0    0.3746185    2.0076128    2.3844957    7.2068554 
15570000    1.1479247 3.1024798e-05   0.63032614  0.018840478            0   0.61148567    1.6788398     2.309166    5.4861052 
15575000    1.2223837 8.1210989e-06   0.57796686  0.029078908            0   0.54888795    1.7877361     2.365703    3.1973035 
15580000    1.2213128 2.7568248e-05   0.57809816  0.015451164            0     0.562647      1.78617    2.3642681    5.1872567 
15585000    1.3343921  6.33962e-05   0.38448415 0.0014613513            0    0.3830228    1.9515484    2.3360326    8.8278034 
15590000     1.244864 4.9563033e-05   0.51588039            0            0   0.51588039    1.8206136     2.336494    7.4117485 
15595000    1.2117745 1.0342738e-05   0.57302314  0.025624844            0    0.5473983    1.7722202    2.3452434    3.4043398 
15600000    1.1710077 2.1920149e-05   0.64991778   0.11014962            0   0.53976816    1.7125988    2.3625166    4.6071399 
15605000    1.2763363 6.030489e-05   0.47364871 0.0012315597            0   0.47241715    1.8666419    2.3402906    8.5155114 
15610000    1.3076374 2.954433e-05   0.37862493  0.025488574            0   0.35313636    1.9124196    2.2910446    5.3163839 
15615000    1.1940924 -4.5222697e-05   0.59182383  0.053072649            0   0.53875118    1.7463601    2.3381839   -2.2926203 
15620000    1.2453422 -5.0494307e-05   0.54461656 0.0078311075            0   0.53678545     1.821313    2.3659296   -2.8046875 
15625000    1.3046796 -5.6097871e-06   0.47198331 0.0093618387            0   0.46262147    1.9080939    2.3800772     1.805635 
15630000    1.4076904 1.3461822e-05   0.33936134 0.0081635386            0    0.3311978    2.0587472    2.3981086    3.7765991 
15635000    1.2896634 2.6865751e-05   0.51782032  0.003740025            0   0.51408029    1.8861327     2.403953     5.155006 
15640000    1.2751413 4.7716183e-05   0.50559045  0.017471528            0   0.48811893    1.8648941    2.3704846    7.2566217 
15645000    1.2684129 6.8758823e-05   0.51720607  0.021540609            0   0.49566546    1.8550538    2.3722599    9.4131634 
15650000    1.2284126 3.4794607e-05   0.58980069  0.039766485            0    0.5500342    1.7965535    2.3863542    5.9493219 
15655000    1.2346997 3.5784299e-06   0.56496426  0.045320029            0   0.51964423    1.8057483    2.3707125    2.7371437 
15660000    1.2863926 -1.4745982e-05   0.43000191  0.065743427            0   0.36425848    1.8813493    2.3113512   0.80136262 
15665000    1.1975454 1.7241797e-07   0.56641795   0.10993395            0     0.456484    1.7514101    2.3178281    2.3354837 
15670000    1.1075924 2.3744052e-05   0.71721086  0.070591874            0   0.64661899    1.6198539    2.3370648    4.7684558 
15675000    1.2508401 -3.4169686e-05   0.53483046  0.022367899            0   0.51246257    1.8293537    2.3641842   -1.1347917 
15680000    1.1744456 -2.8953716e-05   0.60679278   0.06935868            0    0.5374341    1.7176267    2.3244195   -0.6404411 
15685000    1.2508593 5.0928383e-05   0.51927544  0.021189417            0   0.49808603    1.8293818    2.3486572    7.5637237 
15690000    1.2751408 1.1070737e-05    0.4797656 0.0097523824            0   0.47001322    1.8648935    2.3446591    3.4783025 
15695000    1.3183668 -1.6016961e-05   0.41338539  0.009132595            0   0.40425279    1.9281115    2.3414969   0.70136008 
15700000    1.2265093 -6.7932017e-05   0.55199093  0.072883085            0   0.47910785    1.7937698    2.3457607   -4.6104778 
15705000    1.1232314 -6.6554654e-05   0.67523456  0.080312336            0   0.59492223     1.642726    2.3179606    -4.497236 
15710000     1.260807 -5.4573757e-05   0.45232553  0.020164886            0   0.43216064    1.8439302    2.2962558   -3.2920969 
15715000    1.3079486 -4.1728165e-05   0.34184726  0.014785835            0   0.32706142    1.9128748    2.2547221    -2.018242 
15720000     1.205015 -7.6257798e-07   0.47276702  0.049043041            0   0.42372397    1.7623344    2.2351015    2.1570135 
15725000    1.0716696 -5.2483697e-05   0.65038932   0.10141549            0   0.54897383    1.5673168    2.2177062   -3.1566244 
15730000    1.0749904 -0.00011729402   0.61135522  0.081482067            0   0.52987315    1.5721735    2.1835287   -9.8273791 
15735000    1.0936198 -0.00011241623   0.55560304  0.011166032            0   0.54443701    1.5994189     2.155022   -9.3564003 
15740000    1.2427961 1.7332853e-05   0.36591987  0.012216376            0   0.35370349    1.8175893    2.1835092    3.9583934 
15745000    1.1885404 7.0674246e-05   0.49254296  0.011577943            0   0.48096502    1.7382404    2.2307833    9.4678261 
15750000    1.1756713 2.5881443e-05   0.51489576 0.0029834231            0   0.51191233    1.7194193     2.234315    4.8845748 
15755000    1.0933141 -1.6307818e-05   0.58378017  0.037671955            0   0.54610821    1.5989719    2.1827521   0.51283158 
15760000    1.0763728 4.6719735e-05   0.64936004  0.073719868            0   0.57564018    1.5741953    2.2235553    7.0076562 
15765000     1.028836 5.5821384e-05   0.68431942  0.078659828            0   0.60565959    1.5046727    2.1889921    7.9051018 
15770000    1.0628059 -1.592592e-05   0.61362166  0.091055734            0   0.52256592    1.5543537    2.1679753   0.53716113 
15775000    1.1666714 -2.0954667e-05   0.41705113 0.0059065955            0   0.41114453    1.7062569    2.1233081 -0.022449884 
15780000    1.1505234 -1.4227096e-05   0.48059575  0.045407839            0   0.43518791    1.6826404    2.1632362   0.70638156 
15785000    1.1453646 -1.4243209e-05   0.49215658  0.050654008            0   0.44150258    1.6750957    2.1672523    0.7087477 
15790000    1.2124198 4.056397e-07   0.37663215  0.005474981            0   0.37115717    1.7731639    2.1497961    2.1913336 
15795000    1.1701109 -9.5713989e-06   0.44341514  0.015773088            0   0.42764205    1.7112872    2.1547023    1.1745911 
15800000    1.0650268 3.9342513e-05   0.62728333   0.02082338            0   0.60645995    1.5576017     2.184885    6.2135583 
15805000    1.1338616 9.1492104e-06   0.51569497 0.0022850402            0   0.51340993    1.6582725    2.1739675    3.1108467 
15810000    1.2137518 -7.4267711e-06   0.45473941  0.010025561            0   0.44471384     1.775112    2.2298514    1.4693501 
15815000    1.0951703 -0.00012529715   0.60950684  0.028469818            0   0.58103702    1.6016865    2.2111934   -10.619234 
15820000    1.0816541 -9.637179e-05   0.58237484  0.019383411            0   0.56299143    1.5819191     2.164294   -7.7041773 
15825000    1.1640634 9.0043902e-05   0.49253927  0.045020561            0   0.44751871    1.7024427    2.1949819    11.415477 
15830000    1.1187229 2.8777385e-05   0.54041978  0.033570354            0   0.50684943    1.6361323    2.1765521    5.1233563 
15835000    1.0401954 5.2294891e-06   0.65947043 0.0029476849            0   0.65652274    1.5212858    2.1807562    2.7162559 
15840000    1.1104973 0.00010664556   0.52309694            0            0   0.52309694    1.6241023    2.1471992    13.067705 
15845000    1.1921515 -1.6137562e-06   0.40911308  0.054613711            0   0.35449936    1.7435216    2.1526347    1.9873861 
15850000    1.1942759 -0.00010623487   0.41938588  0.055176137            0   0.36420975    1.7466285    2.1660144   -8.7124365 
15855000    1.1413823 -2.5433349e-05   0.48522715   0.01045926            0   0.47476789    1.6692717    2.1544988  -0.44987615 
15860000    1.0428413 9.3431922e-05   0.59801573  0.040252309            0   0.55776342    1.5251555    2.1231712      11.6906 
15865000    1.1568401 4.2990158e-05   0.38615864  0.030476028            0   0.35568261    1.6918786    2.0780372    6.4802295 
15870000     1.065415 -4.2047943e-05   0.50963441  0.013934955            0   0.49569945    1.5581694    2.0678038   -2.2379055 
15875000    1.0784883 4.3865958e-05   0.44438647  0.022294876            0    0.4220916    1.5772891    2.0216756    6.5135498 
15880000    1.1262625 -1.4748123e-05   0.39233177  0.049909195            0   0.34242258    1.6471589    2.0394906    0.5292828 
15885000    1.0224019 -3.2494526e-05   0.50716578  0.014773299            0   0.49239248    1.4952628    2.0024286   -1.3250109 
15890000    1.0367641 5.0873006e-05   0.44690756 7.6122127e-05            0   0.44683144    1.5162675    1.9631751    7.1725709 
15895000   0.99218553 -1.2048957e-08    0.5051778  0.005556643            0   0.49962116    1.4510713    1.9562491    1.9550153 
15900000    1.0088115 -7.2521781e-05   0.52097215   0.01211029            0   0.50886186    1.4753869     1.996359   -5.4298713 
15905000    1.1433588 -9.8805253e-06   0.33990704  0.007061259            0   0.33284578    1.6721622    2.0120692    1.0003034 
15910000    1.0830453 2.6992963e-05    0.4314527  0.004251247            0   0.42720146    1.5839537    2.0154064    4.7794858 
15915000   0.95840484 -1.7898511e-05   0.55809961  0.052840646            0   0.50525896    1.4016671    1.9597667   0.12695915 
15920000    1.0191577 -7.1314392e-05   0.43251794  0.071524128            0   0.36099381    1.4905181     1.923036   -5.3795578 
15925000   0.91340595 -3.2519482e-05   0.56141894  0.068389643            0    0.4930293    1.3358562    1.8972751   -1.4327198 
15930000   0.96047304 0.00010459494   0.50854803  0.024548477            0   0.48399955    1.4046918    1.9132399    12.623761 
15935000    1.0030582 0.00012518143   0.39593211  0.022320993            0   0.37361112    1.4669726    1.8629047    14.681484 
15940000   0.92289118 1.271085e-05   0.45155934  0.015793885            0   0.43576546    1.3497284    1.8012877    3.1028787 
15945000   0.95302993 1.795807e-05   0.39721333  0.012576293            0   0.38463704    1.3938063    1.7910196     3.629926 
15950000   0.91832121 -9.1456723e-05   0.43159598  0.019006095            0   0.41258989    1.3430448    1.7746407   -7.5905277 
15955000   0.91373908 -7.7226681e-05   0.43831101  0.028161448            0   0.41014956    1.3363434    1.7746544   -6.1333578 
15960000   0.90002732 2.9934767e-05   0.45031637 0.0085130998            0   0.44180327      1.31629    1.7666063    4.8319264 
15965000   0.90340513 2.8755029e-05   0.48352024   0.00448651            0   0.47903373      1.32123    1.8047502    4.7492653 
15970000   0.95440136 2.9450597e-05   0.43230701 0.0030635523            0   0.42924346     1.395812     1.828119    4.8438601 
15975000    1.0400225 -2.0573468e-05   0.31645439 0.0023599077            0   0.31409448     1.521033    1.8374874  -0.26923581 
15980000   0.94478808 -6.0182743e-05   0.44102535 0.00030172534            0   0.44072362    1.3817526    1.8227779   -4.3399349 
15985000   0.89878209 1.4287078e-05   0.50636139 0.0079788393            0   0.49838255    1.3144688    1.8208302     3.283827 
15990000   0.97582277 6.2333391e-05   0.37872589  0.030434531            0   0.34829136    1.4271408    1.8058667    8.1888059 
15995000    1.0257453 -1.216145e-05   0.33653774 0.0069950593            0   0.32954268    1.5001525    1.8366902   0.59135773 
16000000   0.98131313 -7.1085426e-06    0.4000485  0.023727514            0   0.37632099    1.4351704     1.835219    1.1073042 
16005000   0.89065879 -2.9975101e-07   0.52523875   0.05394065            0    0.4712981    1.3025885    1.8278272    1.7971327 
16010000    0.9353948 3.4553673e-05   0.47441864  0.029880644            0     0.444538    1.3680149    1.8424335    5.3807296 
16015000   0.95198949 6.8512588e-05   0.48233952  0.066365128            0   0.41597439    1.3922846    1.8746242    8.8903132 
16020000     1.062937 -3.0304109e-05   0.36575167  0.023378083            0   0.34237358    1.5545454    1.9202971   -1.1828437 
16025000    1.0386052 -4.1797898e-05   0.42309648  0.011829576            0    0.4112669    1.5189602    1.9420567   -2.3380481 
16030000    1.0010656 1.7216988e-05   0.49166328  0.019176434            0   0.47248685    1.4640584    1.9557217    3.7187413 
16035000   0.99978909 -1.3840328e-05   0.52004578  0.034522725            0   0.48552306    1.4621915    1.9822373   0.56498774 
16040000    1.0139476 -5.5138345e-05     0.489807  0.019317827            0   0.47048917    1.4828984    1.9727054   -3.6734611 
16045000   0.96554871 -4.4641848e-05   0.49632683 0.00020992193            0   0.49611691     1.412115    1.9084418   -2.6628834 
16050000     1.057473 9.1230336e-06   0.38347958            0            0   0.38347958    1.5465542    1.9300338    2.8642324 
16055000    1.0970599 -2.0941076e-05   0.33842588            0            0   0.33842588      1.60445    1.9428759  -0.20149023 
16060000    1.0658781 -6.6997511e-05   0.34895664            0            0   0.34895664    1.5588466    1.9078033   -4.9527418 
16065000    1.1161702 -3.1380257e-05   0.30169799            0            0   0.30169799    1.6323989    1.9340969   -1.2792414 
16070000   0.98883452 -8.8880331e-06   0.49737754 0.0015222235            0   0.49585531    1.4461705     1.943548    1.0334134 
16075000   0.90371279 -4.6917201e-05     0.610743  0.042245187            0   0.56849781      1.32168     1.932423   -2.8718984 
16080000   0.99592777 6.4813671e-06   0.46277002  0.019397243            0   0.44337278    1.4565444    1.9193144    2.5830064 
16085000    1.1011758 3.6321457e-05    0.3031511 0.0017917424            0   0.30135935    1.6104697    1.9136208     5.632938 
16090000    0.9740741 -5.9889579e-06   0.51764285  0.020108919            0   0.49753393    1.4245834    1.9422262    1.3289569 
16095000    1.0280409 -4.5288411e-06    0.4565319   0.03011461            0   0.42641729    1.5035098    1.9600417    1.4962883 
16100000    1.0227282 -3.9429887e-05   0.47707386  0.078771632            0   0.39830222    1.4957401    1.9728139   -2.0648065 
16105000   0.97456316 -1.2146104e-05   0.53526976  0.023281414            0   0.51198835    1.4252986    1.9605684   0.71680728 
16110000    1.1065405 -9.1668942e-06   0.33542058 1.1170322e-05            0   0.33540941    1.6183155    1.9537361    1.0150461 
16115000   0.99915156 -8.8235874e-06   0.46178473            0            0   0.46178473    1.4612592    1.9230439    1.0195085 
16120000    1.0055778 2.7650959e-05   0.44941566  0.012060793            0   0.43735486    1.4706576    1.9200733    4.7515314 
16125000    1.0131173 -4.1916489e-05   0.42800914  0.051596792            0   0.37641235     1.481684    1.9096931   -2.3825554 
16130000   0.90973037 -2.2690185e-05   0.54316752 0.0037209831            0   0.53944653    1.3304807    1.8736482  -0.44982681 
16135000   0.84528807 1.9010744e-05   0.59923492 6.3439999e-05            0   0.59917148    1.2362338    1.8354687    3.7821689 
16140000   0.97370549 -1.7297879e-05   0.38800814            0            0   0.38800814    1.4240443    1.8120524   0.04074966 
16145000   0.97597986 3.3296183e-05   0.39786351 0.00096606436            0   0.39689745    1.4273705    1.8252341    5.2347632 
16150000   0.91803483 6.1385149e-05   0.42898736  0.014450921            0   0.41453644    1.3426259    1.7716133    8.0574525 
16155000   0.87847889 -3.4954006e-05   0.47335017  0.022705174            0     0.450645    1.2847754    1.7581255   -1.8211647 
16160000   0.80538996 -2.2627498e-05   0.57328817  0.040913169            0     0.532375    1.1778828     1.751171  -0.56588477 
16165000   0.89408045  2.41626e-05   0.43184759  0.031574651            0   0.40027294    1.3075927    1.7394402    4.2136905 
16170000   0.85320493 1.2160945e-05   0.48440772 0.0055581587            0   0.47884957    1.2478122    1.7322199    2.9775007 
16175000   0.88629748 5.6622366e-05   0.46107287 0.00091237474            0    0.4601605    1.2962101    1.7572829    7.5554132 
16180000   0.81288356 7.9767072e-05    0.5546583 0.0060876359            0   0.54857066    1.1888422    1.7435005    9.9116487 
16185000   0.88452912 8.1410043e-07   0.43220191 0.0080526304            0   0.42414928    1.2936238    1.7258257    1.8091896 
16190000   0.83524048 2.4826784e-05   0.55124572  0.015224426            0    0.5360213    1.2215392    1.7727849    4.3150476 
16195000    0.9835236 1.6458287e-05   0.37390252  0.014641898            0   0.35926062    1.4384033    1.8123058    3.4976344 
16200000   0.88080012 2.0319305e-05   0.51882135  0.002340956            0    0.5164804    1.2881702    1.8069915    3.8876884 
16205000   0.93649264 4.5410118e-05   0.45876636            0            0   0.45876636    1.3696205    1.8283868     6.478383 
16210000   0.96332002 -2.4049361e-05   0.43618002 3.1589525e-05            0   0.43614843    1.4088555    1.8450356  -0.61761904 
16215000   0.94702832 -1.8209393e-05   0.47224314 0.0065137239            0   0.46572942    1.3850289    1.8572721 -0.0073697979 
16220000   0.85386416 -7.8446723e-07    0.5518576  0.056955869            0   0.49490173    1.2487763    1.8006339    1.7203045 
16225000   0.78511282 -4.9920265e-05   0.62380363  0.028771274            0   0.59503235    1.1482275    1.7720311    -3.339804 
16230000   0.80905869 -4.3492172e-05    0.6144137  0.039278953            0   0.57513475    1.1832483     1.797662   -2.6559364 
16235000   0.80917708 -4.1658787e-05    0.5713163 0.0048243111            0   0.56649198    1.1834215    1.7547378    -2.511122 
16240000   0.99687859 -2.2382287e-05   0.29396664 0.00027827104            0   0.29368837    1.4579349    1.7519016  -0.54004462 
16245000   0.82250406  9.62529e-07    0.5575686 0.0035817757            0   0.55398682    1.2029122    1.7604808    1.8590438 
16250000   0.77721502 2.804907e-05    0.6043216  0.012753769            0   0.59156783     1.136677    1.7409986    4.6132233 
16255000   0.82391165 1.2186446e-05   0.49756764  0.019230888            0   0.47833675    1.2049708    1.7025384    2.9504305 
16260000   0.77217674 -6.8613513e-05   0.57402687 0.0059337654            0   0.56809311    1.1293085    1.7033354   -5.3226884 
16265000   0.79824573 -9.3298019e-05   0.55503779            0            0   0.55503779    1.1674344    1.7224722    -7.831245 
16270000   0.88092373 -7.4319117e-05   0.46894519            0            0   0.46894519     1.288351    1.7572961   -5.8529815 
16275000   0.81421103 -1.6270409e-05    0.5765364            0            0    0.5765364    1.1907836      1.76732   0.10123017 
16280000   0.86584482 3.3142945e-05   0.50346011            0            0   0.50346011    1.2662981    1.7697582    5.1635957 
16285000   0.86651544 3.1302216e-05   0.54133223 0.0033508544            0   0.53798138    1.2672788    1.8086111     5.013958 
16290000   0.85003946 4.3561102e-06   0.59087681  0.014850428            0   0.57602639    1.2431827    1.8340595    2.2801252 
16295000    0.8250784 -2.0792577e-05   0.65697763  0.013610424            0    0.6433672    1.2066772    1.8636548  -0.26550507 
16300000   0.96763786 -4.4450803e-05   0.44087369   0.01064026            0   0.43023343    1.4151704    1.8560441   -2.6957182 
16305000   0.99472553 -5.8088574e-05   0.42552044  0.030790845            0   0.39472959    1.4547861    1.8803065   -4.0679634 
16310000    0.8765548 -4.7366497e-05   0.57611598   0.03901132            0   0.53710466    1.2819614    1.8580774   -2.9922519 
16315000   0.83534901 -2.351819e-05   0.64583516  0.050129568            0    0.5957056    1.2216979    1.8675331  -0.54072952 
16320000   0.89261976 -2.686889e-05   0.57363941  0.039821234            0   0.53381817    1.3054564    1.8790958  -0.87227855 
16325000   0.95898621 -2.7686879e-05   0.48245622  0.034843017            0   0.44761321    1.4025173    1.8849736  -0.95016288 
16330000     0.935835 3.3386434e-06   0.45143068  0.032981703            0   0.41844898    1.3686587    1.8200894    2.1619665 
16335000   0.91136576 3.9937335e-06   0.45986928  0.023988946            0   0.43588033    1.3328724    1.7927417       2.2017 
16340000   0.92327784 1.3040593e-05   0.41881324  0.038610919            0   0.38020232    1.3502938    1.7691071    3.1044638 
16345000   0.88011635 2.558992e-05   0.45721406  0.019874905            0   0.43733915    1.2871702    1.7443842     4.364792 
16350000   0.94708739  5.46849e-06   0.34956508 0.0002081372            0   0.34935694    1.3851153    1.7346804    2.2946538 
16355000   0.94233349 -2.3225981e-05   0.37556556 1.0708742e-06            0   0.37556449    1.3781627    1.7537283  -0.62461211 
16360000   0.95108886 -5.7641085e-05   0.38055751 0.0014665376            0   0.37909097    1.3909675     1.771525   -4.1309221 
16365000   0.96846909 -5.4944207e-05   0.36071362 0.0029796696            0   0.35773395     1.416386    1.7770997   -3.8491872 
16370000   0.85589834 9.3948833e-06   0.52526179 0.0020513174            0   0.52321047    1.2517513    1.7770131    2.7390492 
16375000   0.84312561 1.4304523e-06   0.53923727  0.010546555            0   0.52869071    1.2330712    1.7723085    1.9187868 
16380000   0.96116285 4.863713e-06   0.34361022  0.067950355            0   0.27565986    1.4057007    1.7493109    2.2473551 
16385000   0.75637232 2.3257335e-05   0.63242077   0.10057934            0   0.53184142    1.1061945    1.7386153    4.1201664 
16390000   0.86074047 -4.3206295e-05   0.48841756  0.063975688            0   0.42444187    1.2588329    1.7472505   -2.6770741 
16395000   0.89977648 -6.0511484e-05   0.48926218  0.011862692            0   0.47739949    1.3159231    1.8051853   -4.3911907 
16400000   0.89196049 -2.4413005e-05   0.52378037  0.057977794            0   0.46580257    1.3044922    1.8282726  -0.67161913 
16405000   0.86385798 -5.2684878e-05   0.54327008  0.035778959            0   0.50749112    1.2633923    1.8066624   -3.5882691 
16410000   0.81789911 7.6275456e-06   0.60809552 0.0074236903            0   0.60067183    1.1961774     1.804273    2.5853336 
16415000   0.94634726 1.1906926e-05   0.43465678  0.012997642            0   0.42165913    1.3840329    1.8186896    3.0379588 
16420000   0.89624609 1.748301e-05   0.52902209  0.044154183            0   0.48486791    1.3107599     1.839782    3.6300422 
16425000   0.86634471 2.6529538e-05   0.57577611  0.031189514            0    0.5445866    1.2670291    1.8428053      4.55943 
16430000   0.89561354 -1.2413453e-06   0.54664681 0.0052013068            0    0.5414455    1.3098348    1.8564816    1.7293678 
16435000   0.92521203 2.3486401e-05   0.50094469 0.0010115725            0   0.49993312    1.3531226    1.8540673    4.2590748 
16440000   0.97672129 -3.8249961e-05   0.42223302 0.0057191032            0   0.41651392    1.4284549    1.8506879   -2.0661081 
16445000   0.94188149 -5.0338704e-05    0.4579863  0.062220011            0   0.39576629    1.3775017     1.835488   -3.3191953 
16450000   0.87200636 -2.4595239e-05   0.60445686  0.039078787            0   0.56537807    1.2753093    1.8797662  -0.63878627 
16455000   0.83557658 9.2304612e-06   0.61780526 0.00055109599            0   0.61725416    1.2220308     1.839836    2.7850352 
16460000   0.90033556 3.4225133e-05   0.49765814 0.0029305045            0   0.49472763    1.3167408    1.8143989    5.3190525 
16465000   0.94723852 5.4653398e-05   0.44931161 0.0041156792            0   0.44519593    1.3853363    1.8346479    7.4311559 
16470000   0.95716627 3.6986487e-06   0.45616246  0.013961451            0   0.44220101    1.3998557    1.8560181    2.2347598 
16475000   0.86208494 -5.3619301e-05   0.55104762  0.013722883            0   0.53732473    1.2607992    1.8118468   -3.6787696 
16480000     1.012913 1.7223496e-05   0.36050704 0.0032788034            0   0.35722824    1.4813852    1.8418922    3.6055782 
16485000   0.85841118 0.00011114816    0.5632498  0.052252023            0   0.51099777    1.2554264    1.8186762    13.200248 
16490000   0.94051559 3.9322591e-05   0.46579907  0.064288152            0   0.40151092     1.375504    1.8413031    5.8679365 
16495000   0.93957179 -4.9479776e-05   0.44285874 0.0072861416            0   0.43557259    1.3741238    1.8169825   -3.2497466 
16500000   0.97458817 4.6837403e-05   0.35860799  0.003039317            0   0.35556867    1.4253352    1.7839432    6.5800933 
16505000   0.87298022 6.3953978e-05   0.52050493  0.040328377            0   0.48017655    1.2767336    1.7972385    8.3461258 
16510000   0.93677388 -6.5452075e-05   0.40571156  0.026809219            0   0.37890234    1.3700318    1.7757434   -4.9265491 
16515000   0.94923561 -3.3925912e-05   0.41902172  0.002410734            0   0.41661099    1.3882571    1.8072788   -1.6667346 
16520000   0.90887977 6.0378147e-05    0.4383252   0.00158107            0   0.43674413    1.3292367    1.7675619    7.9502841 
16525000   0.95777447 2.7142494e-05   0.41552488 0.0019550099            0   0.41356987    1.4007452      1.81627    4.5956614 
16530000   0.98604633 4.8500926e-05    0.3831337 0.0040925264            0   0.37904118    1.4420928    1.8252265    6.7917213 
16535000   0.92541825 7.7402697e-05   0.42955944  0.039020451            0   0.39053899    1.3534242    1.7829836    9.7090198 
16540000   0.92628413 -4.4200683e-05   0.43223306  0.029166694            0   0.40306636    1.3546905    1.7869236   -2.7392264 
16545000   0.89755098 -2.0437021e-05    0.4886519  0.016972826            0   0.47167908    1.3126683    1.8013202  -0.29143077 
16550000   0.84368159 -3.0943415e-05   0.53768783  0.026208079            0   0.51147975    1.2338843    1.7715722   -1.3970335 
16555000   0.92761289 -4.238225e-05   0.42006161 0.0093199457            0   0.41074166    1.3566339    1.7766955   -2.5632469 
16560000   0.93509589 -9.0925872e-06   0.39309553  0.024316235            0    0.3687793    1.3675777    1.7606733   0.82959235 
16565000   0.95378977 -2.4426307e-05   0.39853251  0.062017972            0   0.33651454    1.3949175      1.79345  -0.70780377 
16570000   0.90513504 1.9118481e-05   0.45720604  0.039300324            0   0.41790572      1.32376     1.780966    3.7386985 
16575000   0.87649041 3.8973067e-05   0.51762221  0.079416157            0   0.43820605    1.2818672    1.7994894    5.7903315 
16580000   0.87834512 -6.7519748e-05   0.53704939  0.024993182            0   0.51205621    1.2845797    1.8216291   -5.0923931 
16585000   0.93148812 -3.1011124e-05   0.44262524  0.014709353            0   0.42791589    1.3623014    1.8049266   -1.3706125 
16590000   0.96482601 0.00011066012   0.39620675 0.0040707124            0   0.39213604     1.411058    1.8072648    13.138861 
16595000   0.94501566 1.7770311e-06    0.4252229 8.5052446e-05            0   0.42513785    1.3820854    1.8073083    1.9892763 
16600000    1.0345455 -6.8404313e-05   0.30471307            0            0   0.30471307    1.5130228    1.8177358   -5.1868658 
16605000   0.99055036 4.4828094e-05   0.37218262            0            0   0.37218262    1.4486799    1.8208625    6.4112594 
16610000   0.89615579 -1.1122193e-05   0.49010924            0            0   0.49010924    1.3106278    1.8007371   0.66182451 
16615000   0.90648195 -2.1633173e-05   0.43081363  0.017582335            0   0.41323129    1.3257299    1.7565435  -0.45869344 
16620000   0.96810312 1.7305078e-05   0.32993002   0.03040127            0   0.29952875    1.4158508    1.7457808    3.5178208 
16625000   0.94340315 -1.8176342e-05   0.36628656 0.0039304537            0   0.36235611    1.3797271    1.7460137  -0.11524372 
16630000   0.93594645 -1.6839771e-05   0.39105278 0.0019561812            0    0.3890966    1.3688217    1.7598745  0.035481911 
16635000   0.83135569 -6.9845993e-05   0.50947569  0.022923716            0   0.48655198    1.2158577    1.7253334   -5.4268963 
16640000   0.80902679 -0.00010037402   0.55201027  0.026801218            0   0.52520905    1.1832017    1.7352119   -8.5430872 
16645000   0.89382586 1.2439542e-05   0.41514354 0.0091135581            0   0.40602998    1.3072203    1.7223639     2.996173 
16650000   0.87944021 5.0127031e-05   0.48784767 0.0041545485            0   0.48369312    1.2861813     1.774029     6.907037 
16655000   0.92621486 5.7035981e-05   0.40841449 0.0052654262            0   0.40314906    1.3545892    1.7630037    7.6034881 
16660000    0.9184837 1.5221075e-05   0.39625163 0.0087454176            0   0.38750621    1.3432824     1.739534    3.2981721 
16665000   0.83462553 -5.4679327e-05   0.48861896  0.033208788            0   0.45541017    1.2206398    1.7092588   -3.8899043 
16670000   0.85210991 -2.3422742e-05    0.4698155   0.09647928            0   0.37333623    1.2462107    1.7160263  -0.68246257 
16675000   0.90916344 2.0440187e-05   0.38830884  0.018290288            0   0.37001855    1.3296515    1.7179604    3.8110355 
16680000   0.87960754 1.4402449e-05   0.41435467 0.0071309012            0   0.40722377     1.286426    1.7007807    3.1755915 
16685000   0.86111702 3.4469396e-06   0.44610553  0.072179043            0   0.37392649    1.2593836    1.7054892    2.0584558 
16690000   0.85127108 3.8851316e-05   0.51033773  0.041662678            0   0.46867505    1.2449839    1.7553217    5.7336965 
16695000   0.93793473 4.0704744e-05   0.40114526  0.014216917            0   0.38692834    1.3717295    1.7728748    5.9410406 
16700000   0.92588806 4.3154305e-06   0.39826079  0.011184954            0   0.38707583    1.3541113    1.7523721    2.1942722 
16705000   0.90381831 -2.3939162e-05   0.46078642 0.0038370128            0   0.45694941    1.3218343    1.7826207  -0.66874944 
16710000   0.91396706 -5.2433257e-05   0.41715046 0.0083941758            0   0.40875629    1.3366768    1.7538273   -3.6153382 
16715000   0.89652273 -2.9898006e-05   0.45132156  0.045997003            0   0.40532456    1.3111645    1.7624861   -1.2990698 
16720000   0.93873178 -3.9334209e-05   0.40381377  0.044131305            0   0.35968247    1.3728952     1.776709    -2.251114 
16725000     0.877764 -3.1687579e-05   0.43927386  0.014612667            0   0.42466119    1.2837298    1.7230037   -1.5218044 
16730000   0.87553051 -1.8762821e-05   0.42393608  0.010118289            0   0.41381779    1.2804634    1.7043995  -0.21691337 
16735000   0.93491105 -3.29914e-05   0.32672372 0.0031468692            0   0.32357685    1.3673074    1.6940311   -1.6842882 
16740000   0.85590836 1.0943075e-05   0.43250236  0.004297084            0   0.42820528     1.251766    1.6842683    2.8048392 
16745000   0.86595918 -8.8097422e-05   0.42494952 0.0084965106            0   0.41645301    1.2664653    1.6914148   -7.3297612 
16750000    0.8340115 -4.2972333e-05   0.50242564  0.070526588            0   0.43189905    1.2197418    1.7221675   -2.6781995 
16755000   0.93825534 4.3562487e-05   0.40046461  0.097825922            0   0.30263868    1.3721984     1.772663    6.2334617 
16760000   0.87095842 -5.5160195e-05   0.47524247  0.090380568            0    0.3848619    1.2737767    1.7490192   -3.8993848 
16765000   0.83359265 -1.2888225e-05   0.50412612  0.021066356            0   0.48305977    1.2191293    1.7232554   0.40350114 
16770000   0.89361968 2.117046e-05   0.40452107 0.0040297829            0   0.40049129    1.3069188    1.7114399     3.879295 
16775000   0.88635658 3.4212761e-05   0.40198841 0.00058362762            0   0.40140478    1.2962965    1.6982849    5.2016716 
16780000   0.87661376 1.6521228e-05   0.39758338 0.0028040557            0   0.39477933    1.2820476     1.679631    3.3714047 
16785000   0.90757715 -2.631978e-05   0.38095501  0.011599686            0   0.36935533    1.3273316    1.7082866   -0.9868589 
16790000   0.94380237 -2.5379477e-05    0.3200664  0.019724527            0   0.30034187     1.380311    1.7003774  -0.89848108 
16795000   0.95061662 -7.9659283e-06   0.34076659  0.049174293            0    0.2915923    1.3902768    1.7310434   0.91533235 
16800000   0.91242021 -2.3877779e-06   0.41490319  0.020722966            0   0.39418023    1.3344146    1.7493178    1.5048093 
16805000   0.78840666 -1.8830852e-05   0.60750906  0.012915341            0   0.59459372    1.1530447    1.7605538  -0.16772543 
16810000   0.88379022 5.2410008e-05   0.45801538  0.010715179            0    0.4473002    1.2925432    1.7505586    7.1173434 
16815000   0.86707335 8.3494614e-05   0.45272424  0.020347561            0   0.43237667    1.2680948     1.720819    10.270668 
16820000   0.83403498 1.2512328e-05   0.48026981 0.0079490106            0    0.4723208    1.2197762     1.700046    2.9813084 
16825000   0.93189697 -3.4496131e-05    0.3303783 0.0044600149            0   0.32591828    1.3628993    1.6932776   -1.8391262 
16830000   0.83414246 -5.975915e-05   0.44291344 0.0066575255            0   0.43625592    1.2199333    1.6628468   -4.4564902 
16835000   0.81856559 -6.1994291e-05   0.40384218  0.003677725            0   0.40016446    1.1971522    1.6009944    -4.747221 
16840000   0.84799126 1.7706774e-06   0.36191078  0.042730096            0   0.31918069    1.2401872     1.602098    1.7834154 
16845000   0.81344337 -2.4515281e-05   0.38504343  0.072916357            0   0.31212708    1.1896609    1.5747044  -0.93566042 
16850000   0.79530546 -5.9054147e-06   0.41532327   0.01380162            0   0.40152165    1.1631342    1.5784575   0.97374304 
16855000   0.79328711 6.9580602e-05   0.40547889 0.0087926131            0   0.39668628    1.1601824    1.5656613     8.690715 
16860000   0.73021197 2.0447367e-05   0.50686794  0.026602795            0   0.48026514     1.067935    1.5748029    3.6686133 
16865000   0.83660981 -3.244306e-05    0.3854917   0.01539984            0   0.37009186    1.2235419    1.6090336   -1.7131358 
16870000   0.76152252 -8.7547586e-05   0.53175606 0.0020439557            0    0.5297121    1.1137267    1.6454827     -7.31939 
16875000   0.85955266 -8.4700001e-05   0.42693386  0.017106864            0     0.409827    1.2570958    1.6840296   -6.9892504 
16880000   0.85798037 1.0780133e-05   0.44327489  0.034081437            0   0.40919346    1.2547963    1.6980712    2.8019568 
16885000   0.91154743 8.7127203e-06   0.39689484  0.016932868            0   0.37996197    1.3331381     1.730033    2.6222155 
16890000   0.87400202 -9.001223e-06   0.41728745  0.021546701            0   0.39574075     1.278228    1.6955154   0.77379017 
16895000    0.8452134 -5.7553045e-05   0.41686077  0.014420958            0   0.40243981    1.2361246    1.6529854   -4.2404464 
16900000   0.87734868 -3.8662651e-05   0.38193793 0.0041928349            0   0.37774509    1.2831224    1.6650604    -2.293995 
16905000   0.77101955 1.6689347e-06   0.53803268  0.009069345            0   0.52896333    1.1276161    1.6656488    1.8365477 
16910000    0.8844208 -2.1846777e-05   0.42145931  0.016502046            0   0.40495726    1.2934654    1.7149247  -0.52218528 
16915000   0.83676348 1.143261e-05    0.5031745  0.054131322            0   0.44904318    1.2237666    1.7269411    2.8976403 
16920000   0.92344045 2.2924558e-05   0.39040501  0.047662682            0   0.34274233    1.3505317    1.7409367    4.0884114 
16925000   0.81856977 -3.437641e-06   0.58133409  0.069105262            0   0.51222882    1.1971583    1.7784924    1.4264779 
16930000   0.88091555 1.1261192e-05     0.482774  0.015296936            0   0.46747707     1.288339     1.771113    2.9242591 
16935000   0.97108104 -1.1962161e-05   0.39794975  0.026080926            0   0.37186883     1.420206    1.8181558   0.59323045 
16940000   0.86036846 -7.0124426e-05   0.53902568  0.036245385            0    0.5027803    1.2582889    1.7973146   -5.3834266 
16945000   0.96033998 1.3347012e-05   0.39900374  0.014403632            0   0.38460011    1.4044972     1.803501     3.170235 
16950000   0.98948472 5.4029988e-05    0.3707607 0.0072817274            0   0.36347897    1.4471214    1.8178821    7.3505529 
16955000    0.9472576 3.5420223e-05   0.40993659  0.013674098            0   0.39626249    1.3853642    1.7953008    5.4223317 
16960000   0.94977855 3.5117274e-05   0.41259855   0.02122522            0   0.39137334    1.3890511    1.8016497    5.3976586 
16965000   0.92596056 -3.9723964e-05   0.39600351  0.025179916            0    0.3708236    1.3542173    1.7502208    -2.317513 
16970000   0.85933115 -4.675898e-06   0.47770788  0.027315417            0   0.45039247    1.2567718    1.7344797    1.2556677 
16975000   0.85510662 1.6048265e-05   0.47897958  0.056660388            0   0.42231919    1.2505934     1.729573    3.3729153 
16980000   0.86920186 -4.7768608e-06   0.48796502  0.046501765            0   0.44146326    1.2712077    1.7591727    1.2700222 
16985000   0.93638367 -3.5139175e-06   0.45728361  0.038616237            0   0.41866737    1.3694611    1.8267447    1.4669196 
16990000   0.85260513 -4.0937865e-05   0.57946061 0.0061001904            0   0.57336042     1.246935    1.8263956   -2.3656418 
16995000   0.94978748 1.7453964e-05   0.48217634 0.0023311042            0   0.47984524    1.3890642    1.8712405    3.6585265 
17000000    1.0768426 6.7722878e-05   0.29814778 0.0011393445            0   0.29700843    1.5748824    1.8730301    8.8078529 
17005000   0.89735747 6.5258659e-05   0.57457347 0.00013694333            0   0.57443652    1.3123853    1.8869588    8.5694455 
17010000   0.98929478 6.2180483e-05   0.48376229 0.0071272471            0   0.47663504    1.4468436    1.9306059    8.2978873 
17015000    1.0513767 5.0377151e-05   0.39725346   0.01248623            0   0.38476723    1.5376384    1.9348919    7.0935122 
17020000    0.9247842 3.8881477e-05   0.55866616  0.038756624            0   0.51990954    1.3524969    1.9111631    5.8926263 
17025000   0.97757995 3.4848021e-06   0.47805626  0.016472122            0   0.46158414    1.4297107    1.9077669    2.2646107 
17030000    1.0507544 -1.2800083e-05   0.39361414            0            0   0.39361414    1.5367283    1.9303424   0.61961388 
17035000   0.88153362 -1.1516813e-05   0.58978734 0.00095580374            0   0.58883154    1.2892429    1.8790303   0.69970858 
17040000   0.93787301 7.2678555e-06   0.50728996  0.012763314            0   0.49452665    1.3716393    1.8789292    2.6231576 
17045000   0.96233417 1.9558946e-05   0.46329934  0.012421319            0   0.45087803    1.4074137    1.8707131    3.8735492 
17050000   0.91167506 3.1362642e-05    0.5119787  0.020242321            0   0.49173638    1.3333248    1.8453035     5.056838 
17055000   0.91214944 2.2417214e-05   0.56946138   0.17034762            0   0.39911376    1.3340185    1.9034799    4.1990026 
17060000   0.92451963 -1.9777752e-05    0.5724308  0.036278949            0   0.53615186      1.35211    1.9245408  -0.10070105 
17065000    1.0351743 9.0727157e-06   0.42771929   0.01450643            0   0.41321286    1.5139424    1.9416617    2.8707078 
17070000     1.017973 2.2513375e-05   0.44005244 0.0015210292            0   0.43853141    1.4887855     1.928838    4.2342076 
17075000    1.0637102 6.6464465e-05   0.31813795            0            0   0.31813795    1.5556761    1.8738141    8.6797753 
17080000   0.93386571 5.7146963e-05   0.50554502            0            0   0.50554502    1.3657786    1.8713236    7.7231726 
17085000   0.99857543 2.155389e-05   0.39965336            0            0   0.39965336    1.4604166    1.8600699    4.0671883 
17090000   0.89460287 4.7726581e-05   0.52862618 0.00097845596            0   0.52764773    1.3083567    1.8369829    6.7241848 
17095000   0.89625512 8.3785107e-05   0.51456655  0.020211525            0   0.49435502    1.3107731    1.8253397    10.404935 
17100000   0.90901818 5.5400235e-05   0.50360369  0.021954967            0   0.48164872    1.3294391    1.8330428    7.5060269 
17105000    1.0013101 5.2012489e-06   0.40432505  0.012963928            0   0.39136112     1.464416     1.868741    2.4013489 
17110000   0.96792292 -5.3977482e-05   0.48895653  0.055530262            0   0.43342627    1.4155873    1.9045438   -3.6227503 
17115000   0.94724043 -3.313473e-05   0.51528115 0.0075122563            0   0.50776889    1.3853391    1.9006203   -1.4923761 
17120000   0.97736165 1.5945276e-05    0.4904539  0.024925902            0     0.465528    1.4293914    1.9198453    3.5526416 
17125000   0.97082103 6.4678155e-05   0.51101733  0.058395641            0   0.45262169    1.4198258    1.9308431    8.5538862 
17130000   0.94500886 0.00011263367    0.5268171 0.0085818276            0   0.51823528    1.3820755    1.9088926     13.44258 
17135000   0.90930729 8.7973514e-05   0.60327814  0.018625511            0   0.58465263    1.3298619    1.9331401    10.941628 
17140000   0.90498587 -4.2727368e-05   0.61131204  0.021429193            0   0.58988284    1.3235418    1.9348539   -2.4404286 
17145000    1.0316552 -2.119929e-05   0.43043185   0.01362778            0   0.41680407    1.5087958    1.9392276  -0.23157966 
17150000    1.0204255 8.7919865e-05   0.46956711  0.039804661            0   0.42976245    1.4923722    1.9619393    10.964934 
17155000   0.88739178 5.9969663e-05   0.68053989  0.045680992            0   0.63485889    1.2978105    1.9783504    8.1192439 
17160000   0.94558818 1.3315427e-05   0.61209259  0.040916972            0   0.57117562    1.3829227    1.9950153     3.358515 
17165000    1.0191418 5.1938109e-06   0.47793783 0.0058245482            0   0.47211328    1.4904949    1.9684327     2.500279 
17170000   0.91636414 -3.0798351e-06   0.57909814  0.010481149            0   0.56861699    1.3401826    1.9192807    1.6039056 
17175000   0.99065914 -2.2896009e-05   0.50624209  0.023434463            0   0.48280763     1.448839    1.9550811  -0.38947023 
17180000    1.0067862 -5.2381369e-05   0.49632416  0.029101455            0    0.4672227    1.4724248    1.9687489   -3.3951032 
17185000    1.0031353 -4.3905608e-05   0.47600195  0.021357329            0   0.45464462    1.4670853    1.9430873    -2.552847 
17190000    1.0247269 -7.4305317e-07   0.44057189 0.0033275196            0   0.43724437     1.498663    1.9392349    1.8631463 
17195000     1.002825 7.2844103e-06   0.49823271            0            0   0.49823271    1.4666315    1.9648642    2.7107878 
17200000    1.1000653 -2.6110424e-05   0.38307675            0            0   0.38307675    1.6088455    1.9919223  -0.68178513 
17205000    1.0554917 -4.3072455e-05   0.39281876 2.7040498e-05            0   0.39279172    1.5436566    1.9364753   -2.4741441 
17210000   0.98659068 -1.6625493e-05    0.4779749  0.011635454            0   0.46633944    1.4428889    1.9208638   0.21841323 
17215000   0.93676721 3.0261569e-05   0.54138901  0.041663373            0   0.49972564     1.370022    1.9114111    5.0101957 
17220000    1.0510904 9.8425838e-06   0.37655466  0.016660411            0   0.35989425    1.5372197    1.9137743    2.9216549 
17225000     1.049645 -7.5133894e-05   0.36261916  0.012687543            0   0.34993162    1.5351058    1.8977249   -5.7959858 
17230000    1.0271096 -3.0874943e-05   0.42370923  0.018564994            0   0.40514424    1.5021479    1.9258571   -1.2357371 
17235000   0.85298969 -4.2159573e-06   0.66736252   0.12746892            0    0.5398936    1.2474974    1.9148599    1.4831459 
17240000   0.98397123 6.9039643e-05    0.4695363  0.039979274            0   0.42955703    1.4390579    1.9085942    8.9782537 
17245000    1.0363136 6.7364095e-05   0.37768089 0.0066909139            0   0.37098997    1.5156086    1.8932895    8.7913728 
17250000    0.9804292 6.8199951e-06   0.46004396  0.046016537            0   0.41402743    1.4338777    1.8939217    2.5922892 
17255000   0.99986575 1.1232794e-05   0.44415175  0.047652225            0   0.39649952    1.4623037    1.9064554    3.0566935 
17260000   0.94849443 2.9961186e-06   0.52514254  0.012071615            0   0.51307092    1.3871731    1.9123156    2.2191182 
17265000    1.0486861 5.2633829e-06    0.3498139 0.0095043488            0   0.34030956    1.5337034    1.8835173    2.4224877 
17270000   0.97211038 1.643309e-05   0.46458421   0.01757434            0   0.44700987    1.4217114    1.8862956     3.569044 
17275000   0.93194455 2.731973e-05   0.49215492  0.024713005            0   0.46744192    1.3629689    1.8551238    4.6526642 
17280000   0.94441066 2.7571693e-05   0.46695681  0.036098505            0   0.43085831    1.3812006    1.8481574    4.6714988 
17285000   0.90886718 1.9907193e-05   0.50274316  0.017942887            0   0.48480027    1.3292183    1.8319614    3.8704579 
17290000   0.96338243 4.4890313e-05   0.46074919  0.029860291            0    0.4308889    1.4089468     1.869696     6.466464 
17295000   0.96214857 -1.8697402e-05   0.46682698   0.03449289            0   0.43233409    1.4071423    1.8739693 -0.040644679 
17300000    1.0188796 -6.3604382e-05    0.3933345 0.0024884291            0   0.39084607    1.4901114     1.883446   -4.6296428 
17305000    1.0021032 -3.8720519e-05   0.47217746 0.0040944359            0   0.46808302    1.4655759    1.9377534   -2.0272278 
17310000    1.0413312 1.5318966e-06   0.48047333  0.018995097            0   0.46147823    1.5229469    2.0034203    2.1602865 
17315000    1.0664466 0.00011049357   0.40272836  0.037485262            0   0.36524309    1.5596781    1.9624065    13.276948 
17320000    1.0879862 9.5379397e-05    0.3953749  0.017304439            0   0.37807046    1.5911799    1.9865548    11.753405 
17325000   0.94039309 1.8299739e-05   0.56444764  0.016805812            0   0.54764183    1.3753249    1.9397725    3.8136658 
17330000   0.97744129 -5.1386875e-06   0.48608201  0.051849539            0   0.43423248    1.4295079    1.9155899    1.3893883 
17335000   0.95127525 1.8276775e-05   0.54921496  0.012532546            0   0.53668241    1.3912401     1.940455    3.8119967 
17340000   0.88916657 3.687744e-05   0.63260995 0.00040273873            0   0.63220721    1.3004061    1.9330161    5.7092659 
17345000    1.0198671 3.2080069e-05   0.43361549 0.00014757064            0   0.43346792    1.4915556    1.9251711    5.2101702 
17350000   0.96232825 -1.6590437e-05   0.53916165  0.039691074            0   0.49947058    1.4074051    1.9465667   0.24770596 
17355000   0.90719628 -2.9975114e-05   0.58588427  0.046014975            0   0.53986929    1.3267746    1.9126588   -1.1567928 
17360000    0.9466343 -2.2845939e-05   0.54132769 0.0028146894            0     0.538513    1.3844527    1.9257804  -0.41364381 
17365000    1.0120656 -1.8625343e-05   0.46331295 0.0036286355            0   0.45968432     1.480146    1.9434589  0.036223846 
17370000    1.0014652 3.4829009e-05   0.48445844  0.017271951            0   0.46718649    1.4646429    1.9491013    5.5155918 
17375000    0.9543919 6.2756065e-05   0.58257789  0.020367101            0   0.56221079    1.3957981     1.978376    8.4045971 
17380000   0.93437138 3.9081002e-05   0.60542325 0.0062872935            0   0.59913595    1.3665181    1.9719414     5.973836 
17385000    1.0684778 -2.1750216e-05   0.42416111 0.0043740387            0   0.41978707    1.5626488    1.9868099  -0.24041227 
17390000     1.093504 4.8657681e-05   0.38766239  0.045628637            0   0.34203376    1.5992496     1.986912    6.9694585 
17395000    0.9625338 3.6329722e-05   0.60660511  0.055335574            0   0.55126954    1.4077057    2.0143108    5.7344744 
17400000    1.0318578 -6.9397953e-05   0.53892022 0.0091824742            0   0.52973775     1.509092    2.0480122   -5.0583382 
17405000    1.1601747 5.6003013e-05   0.39013485  0.020788893            0   0.36934596    1.6967556    2.0868904     7.821599 
17410000    1.0875771 4.3717737e-05   0.48792486  0.064449611            0   0.42347525    1.5905816    2.0785064    6.5552027 
17415000    1.0416277 -5.2252009e-05   0.52112452  0.058052329            0   0.46307219    1.5233804     2.044505   -3.3061008 
17420000    1.0562427 -3.5882459e-06   0.54044876  0.017307754            0   0.52314101     1.544755    2.0852037    1.7177673 
17425000    1.1855174  5.91573e-05    0.4277882  0.024142494            0   0.40364571    1.7338192    2.1616074    8.2193149 
17430000    1.0593471 4.0534701e-05   0.58995779   0.02647064            0   0.56348715    1.5492952    2.1392529    6.2900063 
17435000     0.987903 6.7339868e-07   0.70772107  0.028296684            0   0.67942439    1.4448081    2.1525292    2.2214852 
17440000    1.1487024 -2.0405937e-05   0.43294648  0.018266092            0   0.41468039    1.6799773    2.1129237  0.023355783 
17445000    1.1950763 -2.1821602e-05   0.41031319 0.0013216478            0   0.40899155    1.7477991    2.1581123 -0.076419709 
17450000    1.0190822 -2.5286511e-05   0.64370656            0            0   0.64370656    1.4904078    2.1341143  -0.45522444 
17455000     1.161649 4.0312153e-05    0.4310456 0.00028050814            0   0.43076509    1.6989116    2.1299572    6.2579217 
17460000    1.0650731 7.2815809e-05   0.55496487  0.001695912            0   0.55326896    1.5576695    2.1126343    9.5689732 
17465000    1.1356886 9.8001833e-06   0.43704913 0.0032010582            0   0.43384808    1.6609446    2.0979937    3.1015325 
17470000    1.0858767 -4.5358711e-05   0.50739664 0.0047634864            0   0.50263315    1.5880947    2.0954914   -2.5492406 
17475000    1.0350556 2.0818309e-05   0.58403718  0.012135886            0    0.5719013    1.5137688     2.097806    4.2296009 
17480000    1.0597514 4.9718908e-05   0.55612214  0.063837224            0   0.49228491    1.5498864    2.1060086    7.1972247 
17485000   0.99612781 6.6502081e-05   0.65798573  0.019812596            0   0.63817314    1.4568369    2.1148226    8.9246357 
17490000     1.100244 6.9798085e-05   0.52411209   0.01672349            0    0.5073886    1.6091069     2.133219    9.2805429 
17495000    1.1828994 3.5184766e-05   0.45609344  0.029708573            0   0.42638487    1.7299904    2.1860838    5.7890039 
17500000    1.1048747 5.747505e-05   0.53553343  0.046570992            0   0.48896244    1.6158793    2.1514127    8.0368578 
17505000    1.1289054 -1.8009276e-05   0.46766257  0.030868216            0   0.43679436    1.6510241    2.1186867   0.27453683 
17510000     1.210389 -4.3073087e-05   0.32281208 0.0023406844            0    0.3204714     1.770194     2.093006   -2.3176781 
17515000    1.1224355 7.6216514e-06   0.44962101 0.0031620918            0   0.44645892    1.6415619    2.0911829      2.87164 
17520000    1.0806309 2.5869503e-05   0.47938178  0.013555719            0   0.46582606    1.5804227    2.0598045    4.7088417 
17525000    1.1496216 2.3461983e-05   0.33179998  0.017401615            0   0.31439837    1.6813216    2.0131216    4.4156287 
17530000    1.0181188 2.360033e-05   0.51968122  0.010830671            0   0.50885055    1.4889987    2.0086799    4.4253537 
17535000    1.0386126 5.8339886e-05   0.50588738  0.015778729            0   0.49010865     1.518971    2.0248583    7.9988627 
17540000   0.95001501 8.9076206e-05   0.64613488   0.04042186            0   0.60571302     1.389397    2.0355318    11.156935 
17545000    1.0396414 2.3076591e-05   0.53513751  0.031603352            0   0.50353415    1.5204756    2.0556131    4.4186561 
17550000    1.0342851 -5.0387349e-05   0.50069526  0.081068861            0    0.4196264     1.512642    2.0133372   -3.1463273 
17555000   0.96919169 -4.5810409e-05   0.59406194  0.052805653            0   0.54125628    1.4174428    2.0115048   -2.6794811 
17560000    1.0172855 4.9297335e-06   0.53261037 0.0093730465            0   0.52323733      1.48778    2.0203904    2.5251951 
17565000    1.1111185 5.1385045e-05   0.42461502  0.035539513            0   0.38907551    1.6250108    2.0496258    7.3114544 
17570000    1.0371422 1.8638095e-05   0.53408219  0.084528723            0   0.44955347    1.5168205    2.0509026    3.9594436 
17575000    1.0082075 -5.2081307e-05   0.54390217  0.050108096            0   0.49379408    1.4745035    2.0184056   -3.3147202 
17580000   0.96861367 2.4445539e-05    0.5881168  0.075649547            0   0.51246725    1.4165975    2.0047143    4.5079375 
17585000    1.1130168 1.9241905e-05   0.38839913  0.019863432            0    0.3685357     1.627787    2.0161862    3.9865573 
17590000    1.0321335 -6.6670096e-05   0.55426935  0.024886263            0   0.52938309    1.5094953    2.0637647   -4.7632532 
17595000    1.0822087 -1.4579089e-05   0.51173426 0.0048782498            0   0.50685601    1.5827302    2.0944645   0.60156576 
17600000    1.0660638 6.0218803e-05   0.52477527 0.00021513247            0   0.52456014    1.5591183    2.0838936     8.250299 
17605000     1.160942 2.3064669e-07   0.39989279 0.0048519007            0   0.39504089    1.6978777    2.0977705    2.1213888 
17610000   0.91674798 -9.2197974e-05   0.74600338  0.014258818            0   0.73174456    1.3407439    2.0867473   -7.3543252 
17615000    1.0701154 6.1426777e-06   0.48907403  0.012741269            0   0.47633276    1.5650438    2.0541178     2.683128 
17620000    1.0168969 8.1506496e-05   0.56679776  0.021349937            0   0.54544782    1.4872117    2.0540094    10.400275 
17625000    1.1624999 4.9531712e-05   0.41787312  0.027327836            0   0.39054528    1.7001561    2.1180292    7.1900764 
17630000   0.98931774 -8.4150607e-05   0.68868763  0.034530554            0   0.65415707    1.4468772    2.1355648   -6.4814574 
17635000     1.114586 -8.6609427e-05   0.50667289  0.024184577            0   0.48248831     1.630082    2.1367549   -6.7320505 
17640000    1.1122377 2.990874e-05   0.50700453  0.019563067            0   0.48744146    1.6266476    2.1336522    5.1963071 
17645000    1.1353269 -2.5215157e-05   0.51520134   0.10113494            0    0.4140664    1.6604157     2.175617  -0.40641512 
17650000    1.0618723 1.0486805e-06   0.57429392  0.086843257            0   0.48745067    1.5529882    2.1272821     2.234667 
17655000    1.1320078 0.00013978762   0.52536123  0.036693497            0   0.48866773    1.6555613    2.1809226    16.495175 
17660000    1.1203402 3.2029437e-05   0.56959104  0.027606944            0    0.5419841    1.6384976    2.2080886    5.4879029 
17665000    1.2007739 -8.3686409e-05   0.44370197  0.007293335            0   0.43640864    1.7561318    2.1998338   -6.3696545 
17670000    1.1348811 -1.2589147e-05   0.53755496            0            0   0.53755496    1.6597636    2.1973186   0.90818997 
17675000    1.1390524 6.9763514e-05   0.57101094 0.0035798335            0    0.5674311    1.6658641     2.236875    9.3806589 
17680000     1.129723 -6.0587451e-05   0.58993639  0.013485112            0   0.57645128    1.6522199    2.2421562   -3.9619988 
17685000    1.1516804 -8.1260776e-05   0.56568885 0.0098430704            0   0.55584578    1.6843326    2.2500214    -6.071082 
17690000     1.201335 2.0109086e-05   0.45669783            0            0   0.45669783    1.7569525    2.2136503    4.2728208 
17695000    1.0676841 -9.2510781e-06   0.63361872            0            0   0.63361872    1.5614881    2.1951068    1.2477964 
17700000    1.1383658 3.7705518e-05   0.45366253 0.0044420941            0   0.44922043    1.6648601    2.1185226    5.9795676 
17705000    1.1044519 2.9619216e-05   0.48859389  0.017768351            0   0.47082553    1.6152608    2.1038547    5.1368624 
17710000   0.95402218 -4.1688031e-05   0.69710081   0.10970945            0   0.58739136    1.3952574    2.0923583   -2.1764961 
17715000    1.0469621 8.1221075e-05   0.59784145  0.044731688            0   0.55310976     1.531182    2.1290235    10.446062 
17720000    1.2017568 2.5679391e-05   0.36236725            0            0   0.36236725    1.7575693    2.1199366    4.7495063 
17725000    1.0773512 -8.7726417e-05   0.54882225  0.030215583            0   0.51860667    1.5756261    2.1244484   -6.8587367 
17730000   0.98597962 -4.1333166e-05   0.66349699  0.063193775            0   0.60030322    1.4419952    2.1054922   -2.1270241 
17735000    1.1140941 1.4930131e-05   0.46664083 0.0033262764            0   0.46331455    1.6293626    2.0960034    3.6248488 
17740000    1.0059029 -4.9659916e-07   0.60350531            0            0   0.60350531    1.4711331    2.0746384    2.0237866 
17745000     1.088693 -0.00010500082   0.50389706 0.00084239573            0   0.50305466    1.5922135    2.0961106   -8.6559731 
17750000    1.0595345 -6.3387298e-05   0.55027763  0.015258148            0   0.53501948    1.5495692    2.0998468   -4.3910125 
17755000    1.1999813 5.3601124e-05   0.42045856  0.028873686            0   0.39158487    1.7549726    2.1754311    7.6641862 
17760000    1.1370212 3.2791515e-05   0.51079957   0.10616623            0   0.40463334    1.6628936    2.1736931    5.5315443 
17765000    1.0548596 1.1561343e-05   0.65891487  0.075131817            0   0.58378306    1.5427322    2.2016471    3.3855285 
17770000    1.0584561 2.516173e-05   0.65103114  0.051390949            0   0.59964019    1.5479921    2.1990233    4.7755844 
17775000    1.2292617 -1.5489951e-05   0.44008074 0.0042136117            0   0.43586713    1.7977953     2.237876   0.65170505 
17780000    1.1677333 -2.3929334e-05   0.48444917 0.0010609518            0   0.48338822    1.7078099    2.1922591  -0.25810479 
17785000    1.1464348 2.7299449e-05   0.52202272  0.011574795            0   0.51044793    1.6766609    2.1986836    4.9941472 
17790000    1.0745762 6.0246646e-05    0.6849391  0.030606357            0   0.65433274    1.5715677    2.2565068    8.4257634 
17795000    1.1309629 2.105828e-05   0.62118369  0.061932789            0    0.5592509    1.6540332    2.2752169    4.4315847 
17800000    1.2690973 -3.6690691e-05   0.43830024  0.010073383            0   0.42822685    1.8560548     2.294355   -1.4627717 
17805000    1.0895803 3.1092522e-06   0.71169402  0.016900347            0   0.69479367    1.5935112    2.3052052    2.6235927 
17810000    1.1998645 -6.2268457e-05   0.58271435 0.0043026574            0   0.57841169    1.7548018    2.3375161   -4.0387739 
17815000    1.2397634 -8.1794763e-05   0.51059127 0.0023752704            0     0.508216    1.8131539    2.3237452   -6.0520386 
17820000    1.2739045 3.2364652e-05   0.45770667 0.0057741267            0   0.45193255    1.8630854     2.320792    5.6349324 
17825000    1.2278626 4.033459e-05   0.52023496 0.0038704296            0   0.51636453    1.7957491    2.3159841    6.4462461 
17830000    1.2651907 -2.3561189e-05   0.48581886  0.032889792            0   0.45292907    1.8503414    2.3361603  -0.07650546 
17835000   0.99488818 -2.7603505e-05   0.88323868  0.050286514            0   0.83295216     1.455024    2.3382626  -0.48833629 
17840000    1.2937924 -1.9802036e-05   0.45262275  0.047833967            0   0.40478878    1.8921714    2.3447941   0.31706565 
17845000    1.1734765 1.6584764e-05   0.64926608  0.041818025            0   0.60744805    1.7162093    2.3654754    4.0637552 
17850000    1.1584263 -1.2560657e-05    0.6572333  0.014590629            0   0.64264267    1.6941984    2.3514317    1.0652205 
17855000    1.1885872 -2.4578657e-05   0.62351654  0.053805691            0   0.56971085    1.7383088    2.3618254  -0.15502909 
17860000    1.1444598 1.2575312e-05   0.64700535 0.0085095998            0   0.63849575    1.6737724    2.3207778    3.6084897 
17865000    1.1900206 1.9225404e-06   0.56715111  0.008053507            0   0.55909761    1.7404052    2.3075563    2.5044244 
17870000    1.3445079 -4.7115039e-05   0.34349854 0.0078200017            0   0.33567854    1.9663428    2.3098414   -2.5147386 
17875000    1.2407324 -8.1665027e-05    0.5263269 0.0040959071            0   0.52223099    1.8145711     2.340898   -6.0216007 
17880000    1.1092628 -9.6127408e-05   0.72512322 0.0089781578            0   0.71614506    1.6222968      2.34742   -7.4960266 
17885000     1.256906 -7.1283315e-05   0.49856949   0.04871643            0   0.44985306     1.838225    2.3367945   -4.9626169 
17890000    1.2393421 1.2692025e-05   0.57193635  0.053553865            0   0.51838249    1.8125378    2.3844741    3.6841375 
17895000     1.291347 8.2673115e-05   0.50262924  0.012924754            0   0.48970448     1.888595    2.3912242    10.856951 
17900000    1.1590144 0.00011931745    0.7147963  0.012712264            0   0.70208403    1.6950586    2.4098549    14.627962 
17905000   0.93952975 4.7371267e-05    1.0604206    0.1536379            0    0.9067827    1.3740623    2.4344829    7.2853006 
17910000    1.1091246 2.2618909e-05   0.78483567  0.051894085            0   0.73294158    1.6220947    2.4069304    4.7231066 
17915000    1.2698734 6.7959532e-06   0.59615591   0.02732955            0   0.56882636    1.8571899    2.4533458    3.1492514 
17920000    1.4183719 5.9935853e-05   0.39703203  0.039696011            0   0.35733602    2.0743689    2.4714009    8.6088322 
17925000    1.2169213 4.0112878e-05   0.70654012 0.0099108207            0    0.6966293    1.7797475    2.4862876    6.5938463 
17930000    1.2534614 1.7960897e-05   0.69865034 0.0042032149            0   0.69444712    1.8331873    2.5318376    4.3710335 
17935000    1.2060757 4.6269418e-05   0.71520004  0.049855892            0   0.66534415    1.7638857    2.4790857    7.2170741 
17940000    1.2839073 -8.3181468e-05   0.58795901  0.032178269            0   0.55578075    1.8777144    2.4656735   -6.0521089 
17945000    1.3331906 -9.2166982e-05   0.54144219  0.029017316            0   0.51242488    1.9497912    2.4912334   -6.9466655 
17950000    1.3282051 6.3393857e-07   0.57180658  0.028234698            0   0.54357188       1.9425    2.5143066    2.5792219 
17955000    1.2028268 4.1943526e-05   0.74673045  0.033408416            0   0.71332203    1.7591342    2.5058647    6.8008818 
17960000     1.272134 2.7981167e-06   0.67297686  0.013913376            0   0.65906348     1.860496    2.5334728         2.82 
17965000    1.3545107 1.6585087e-05   0.48980166 0.0069573405            0   0.48284432    1.9809719    2.4707736    4.1690865 
17970000    1.3384654  6.08148e-05   0.47539938  0.021362815            0   0.45403656    1.9575056     2.432905    8.6603405 
17975000    1.1952678 -2.0406189e-05   0.68621439  0.075823691            0    0.6103907    1.7480792    2.4342936    0.3446999 
17980000    1.2139123 -4.6448041e-05   0.63444339   0.10006976            0   0.53437363    1.7753468    2.4097902   -2.3464892 
17985000    1.1881474 -3.2332489e-05   0.63002195  0.025194944            0     0.604827    1.7376655    2.3676875  -0.94315941 
17990000    1.2679566 -7.2900088e-05   0.52456174 0.0069901697            0   0.51757157    1.8543865    2.3789482   -5.0860208 
17995000    1.2828927 -8.0797316e-05   0.55664799  0.019366194            0    0.5372818    1.8762305    2.4328785   -5.8407666 
18000000    1.2636082 -9.6131679e-05   0.56244975  0.048901129            0   0.51354862     1.848027    2.4104768   -7.4334072 
18005000    1.1572601 -8.782365e-05   0.70458435 0.0081588881            0   0.69642546    1.6924929    2.3970773   -6.5960645 
18010000    1.2249167 9.093752e-06   0.61811587  0.033899299            0   0.58421657    1.7914407    2.4095566    3.3407568 
18015000    1.1217538 -2.3567329e-05   0.75302922 0.0075549138            0    0.7454743     1.640565    2.3935942 -0.019700294 
18020000    1.2063776 -2.6496632e-05   0.60155487 0.00031775291            0   0.60123712    1.7643272    2.3658821  -0.34737306 
18025000     1.210927 -1.4001748e-05   0.54321091 0.0032784912            0   0.53993242    1.7709807    2.3141916   0.88041266 
18030000    1.1760137 -3.0817777e-05   0.52638903  0.020313837            0    0.5060752      1.71992    2.2463091  -0.90943131 
18035000    1.1480893 -3.0745274e-05   0.58567184  0.020061084            0   0.56561076    1.6790806    2.2647524  -0.88356364 
18040000    1.0553233 2.4555029e-05   0.72312465 0.0089173422            0    0.7142073    1.5434103     2.266535    4.7809699 
18045000    1.0366528 6.2060386e-05   0.72597205  0.013879646            0   0.71209241    1.5161048    2.2420768    8.5970604 
18050000    1.1735861 6.1660129e-05   0.52511834  0.041877722            0   0.48324062    1.7163697     2.241488    8.5554853 
18055000    1.0650851 2.1630688e-05   0.64549557  0.065132034            0   0.58036354    1.5576869    2.2031825     4.418165 
18060000    1.0891848 2.4197342e-06   0.61241683  0.074611424            0   0.53780541    1.5929328    2.2053496    2.4531304 
18065000    1.0376558 3.6861765e-05   0.69746391  0.030779951            0   0.66668396    1.5175716    2.2150356    5.9896803 
18070000    1.1046789 5.5476928e-06   0.63539924  0.059427288            0   0.57597195    1.6155928    2.2509921    2.8190758 
18075000    1.0317255 -0.00012615533   0.76393554   0.03578904            0   0.72814651    1.5088985     2.272834   -10.645472 
18080000    1.0013598 -0.00018377311   0.77639822  0.026110687            0   0.75028753    1.4644887    2.2408869   -16.577479 
18085000    1.1303415 -0.00011869584   0.63170395   0.02219986            0   0.60950409    1.6531244    2.2848283   -9.8696257 
18090000    1.0626736 -4.641783e-05   0.69558712  0.023281608            0   0.67230551    1.5541602    2.2497473   -2.5034385 
18095000    1.0981311 -4.6917042e-05   0.66680493  0.014256059            0   0.65254887    1.6060167    2.2728216   -2.5314835 
18100000    1.0296736 -9.8138533e-05    0.7610408  0.032176955            0   0.72886384    1.5058977    2.2669385   -7.7824473 
18105000    1.2030634 -8.2734026e-05   0.51603019  0.025592226            0   0.49043796    1.7594802    2.2755104   -6.1964539 
18110000    1.1698363 -3.8526238e-05   0.64849745 0.0082984581            0   0.64019899    1.7108856    2.3593831   -1.5857036 
18115000    1.1785309 3.1940528e-05    0.6395919 0.0037839974            0    0.6358079    1.7236015    2.3631934    5.6339034 
18120000    1.4014199 5.1356771e-05   0.35101588  0.019361587            0    0.3316543    2.0495766    2.4005925    7.6595258 
18125000    1.1196911 4.4100877e-05   0.75661273   0.15307375            0   0.60353898    1.6375483     2.394161    6.9100908 
18130000    1.0963498 2.4615231e-05   0.80059464   0.11426343            0    0.6863312    1.6034116    2.4040063    4.9246059 
18135000    1.2604096 -2.2566683e-05   0.56163903  0.084866364            0   0.47677266     1.843349     2.404988  0.094159733 
18140000    1.1120459 7.5179071e-06   0.71340002   0.02394726            0   0.68945276    1.6263671    2.3397671    3.1096008 
18145000    1.2713346 3.9290947e-05    0.5127829  0.059498595            0   0.45328431    1.8593269    2.3721098    6.3955027 
18150000    1.3084082 -1.5074388e-05   0.50467704   0.12514628            0   0.37953076    1.9135469     2.418224   0.87460662 
18155000    1.2102302 -9.2779949e-05   0.68858637  0.046935981            0   0.64165038    1.7699617    2.4585481   -7.0421187 
18160000    1.1935123 -7.3713645e-05   0.68550412 0.0096471735            0   0.67585695    1.7455118    2.4310159   -5.1172613 
18165000     1.281807 -7.1474879e-06   0.56655372  0.044519611            0    0.5220341    1.8746427    2.4411964    1.7092936 
18170000    1.2484815 5.0065674e-06   0.62258265  0.013679559            0    0.6089031    1.8259042    2.4484869    2.9611594 
18175000    1.3187685 1.6676345e-05   0.54512053 0.0076323439            0   0.53748819     1.928699    2.4738195    4.1814772 
18180000    1.2787096 9.8591331e-06   0.63365162  0.021993604            0   0.61165801    1.8701128    2.5037644    3.5133396 
18185000    1.2947353 2.2007408e-05   0.63040865    0.1034279            0   0.52698075    1.8935504    2.5239591    4.7775176 
18190000    1.2613203 1.2776936e-05   0.64859351  0.057310478            0   0.59128303    1.8446809    2.4932744    3.8016327 
18195000    1.2547056 2.4601309e-05   0.62839686  0.042109026            0   0.58628784     1.835007    2.4634038    4.9825779 
18200000    1.2657763 2.0249953e-05   0.60158558  0.027984428            0   0.57360115    1.8511978    2.4527834    4.5263786 
18205000    1.2205257 -0.00010404581   0.64224236  0.025550137            0   0.61669223    1.7850188    2.4272612   -8.2270301 
18210000    1.2401356 -6.5755127e-06   0.57011357  0.050231036            0   0.51988254    1.8136983    2.3838119    1.7104794 
18215000    1.1814691 0.00020123007   0.64122433   0.12702495            0   0.51419938    1.7278986    2.3691229    22.975082 
18220000    1.2695115 0.00010066894   0.48018463  0.048038664            0   0.43214596    1.8566605    2.3368451    12.645345 
18225000    1.2141664 -5.2417123e-05   0.54049182 0.0027382067            0   0.53775361    1.7757184    2.3162102   -3.0513032 
18230000    1.1544486 -1.3791588e-05   0.64296668            0            0   0.64296668    1.6883811    2.3313478   0.91908913 
18235000    1.1531867 0.00014518135   0.66835239 0.00046306962            0   0.66788932    1.6865355    2.3548879    17.221458 
18240000    1.2059446 0.00011834475   0.64520547 0.0025141988            0   0.64269127     1.763694    2.4088994    14.527402 
18245000    1.1883662 2.9311968e-05   0.60897523   0.01248065            0   0.59649458    1.7379856    2.3469608    5.3485063 
18250000    1.2947754 3.525894e-05   0.50844383 0.0083916645            0   0.50005217     1.893609    2.4020529    6.0125684 
18255000    1.2216381 4.693637e-05   0.59529782 0.00040999957            0   0.59488782    1.7866457    2.3819435    7.1882278 
18260000    1.2191553 1.0067669e-05   0.57949554            0            0   0.57949554    1.7830146    2.3625102    3.3934395 
18265000    1.2116932 -7.0967196e-06   0.54743997            0            0   0.54743997    1.7721013    2.3195413    1.5928372 
18270000    1.2810191 3.2812332e-05   0.47633108            0            0   0.47633108    1.8734904    2.3498215    5.7098044 
18275000    1.1939624 -3.1392709e-05   0.60317587            0            0   0.60317587      1.74617    2.3493458  -0.86526758 
18280000    1.1299271 -5.8509233e-05   0.67641602            0            0   0.67641602    1.6525184    2.3289344    -3.662411 
18285000    1.3164335 6.7238413e-05   0.44784456            0            0   0.44784456    1.9252839    2.3731285     9.258342 
18290000    1.3051683 5.3477007e-05   0.46501602            0            0   0.46501602    1.9088087    2.3738247    7.8498702 
18295000    1.2698496 -7.3111443e-05   0.53225358            0            0   0.53225358    1.8571551    2.3894086   -5.0972032 
18300000    1.2448872 -4.3390949e-05    0.5268809 5.2518368e-05            0   0.52682838    1.8206475    2.3475284   -2.0957049 
18305000    1.3256943 0.00012387672   0.44594011 0.00042069271            0   0.44551941    1.9388279     2.384768    15.069744 
18310000    1.0568186 0.00014020758   0.82514129 0.0017236119            0   0.82341767    1.5455972    2.3707385    16.727995 
18315000    1.1929621 -5.1279966e-05   0.65148957  0.023500469            0    0.6279891    1.7447071    2.3961967   -2.8548719 
18320000    1.1878848 -0.00011355485   0.61762406  0.023944944            0   0.59367912    1.7372815    2.3549056   -9.2731114 
18325000    1.2781275 9.7531047e-06   0.49044332 0.0013556029            0   0.48908772    1.8692615    2.3597048    3.3584227 
18330000    1.2414858 -3.6301145e-06   0.52927834 0.0020803234            0   0.52719801    1.8156729    2.3449513    1.9732275 
18335000    1.2361288 -8.7583107e-05   0.56344769  0.013975362            0   0.54947233    1.8078383     2.371286   -6.5972241 
18340000    1.2141619 -8.0701014e-05   0.59905494  0.033228294            0   0.56582665    1.7757118    2.3747667   -5.8890172 
18345000    1.2724621 6.8637853e-05    0.4924549  0.026510017            0   0.46594488    1.8609758    2.3534307    9.3819469 
18350000    1.2178884 9.3290275e-05   0.58353662 0.0031874093            0   0.58034921    1.7811617    2.3646984    11.917623 
18355000    1.1363839 -5.5319487e-05   0.70446237 0.0033552848            0   0.70110709    1.6619615    2.3664239   -3.2982916 
18360000    1.2514103 -9.6131731e-05   0.49153975  0.010463768            0   0.48107599    1.8301876    2.3217273   -7.5221619 
18365000    1.0852479 1.1472791e-05   0.68409382 0.0062027586            0   0.67789106     1.587175    2.2712688    3.4460827 
18370000    1.1758752 9.5240768e-06   0.55933788 0.00088172032            0   0.55845616    1.7197174    2.2790553    3.2543208 
18375000    1.1166235 -5.4417887e-05   0.64198585 0.0019385759            0   0.64004727    1.6330619    2.2750477   -3.2973439 
18380000    1.1670209 1.137824e-05    0.5938095 0.0088942088            0    0.5849153     1.706768    2.3005775    3.4657093 
18385000    1.1370486 6.7787759e-07   0.64288871  0.068676945            0   0.57421177    1.6629336    2.3058223     2.375237 
18390000    1.0344069 -8.5192235e-05   0.79145959    0.1091406            0   0.68231899      1.51282    2.3042796   -6.4194053 
18395000    1.1680739 1.1759778e-06    0.5903509  0.036834711            0   0.55351619    1.7083081     2.298659    2.4190791 
18400000    1.1139352 2.0113542e-05   0.68757623 0.0077027153            0   0.67987351    1.6291303    2.3167065    4.3763332 
18405000     1.169512 -1.0302096e-05   0.60245096 0.00026872915            0   0.60218223    1.7104113    2.3128623    1.2579276 
18410000    1.1132962 2.1070903e-05    0.6885387            0            0    0.6885387    1.6281956    2.3167343    4.4743948 
18415000    1.1717375 4.4908163e-05    0.6003084 0.0011739723            0   0.59913443    1.7136662    2.3139746    6.9125704 
18420000    1.0459472 1.4608766e-06   0.75243421  0.030934306            0   0.72149991    1.5296977    2.2821319    2.4317257 
18425000    1.0514256 -3.7394836e-05   0.70552832  0.048649937            0   0.65687839    1.5377099    2.2432382    -1.585993 
18430000    1.1396051 2.3594716e-05   0.61591032  0.013799098            0   0.60211122    1.6666725    2.2825828    4.6986817 
18435000    1.2430472 3.071347e-05   0.47504303   0.02816329            0   0.44687974    1.8179565    2.2929996    5.4380589 
18440000    0.9957854 -4.3948735e-05   0.81722448 0.0026602972            0   0.81456418    1.4563361    2.2735606   -2.2267899 
18445000    1.0712974 -4.5380018e-05   0.71227324 0.0054301214            0   0.70684312    1.5667724    2.2790457   -2.3678682 
18450000    1.0747547 -0.00010599462   0.70626396 0.0056857412            0   0.70057822    1.5718287    2.2780927   -8.5757559 
18455000    1.1115472 -0.00011894255   0.63140477 0.0032423322            0   0.62816244    1.6256378    2.2570426   -9.9226743 
18460000    1.2380977 3.0793373e-05   0.45408201  0.010654526            0   0.44342748    1.8107179    2.2647999    5.4180413 
18465000    1.1450025 1.9674109e-05   0.56524615  0.098664088            0   0.46658206    1.6745662    2.2398124    4.2544411 
18470000    1.0245088 -7.4233973e-05   0.75619181   0.10457755            0   0.65161426    1.4983442     2.254536   -5.3470229 
18475000    1.2032324 5.8237778e-06   0.44498499  0.017430902            0   0.42755409    1.7597273    2.2047123    2.8010672 
18480000     1.066397 2.8906601e-05   0.68632894  0.029473699            0   0.65685524    1.5596056    2.2459346    5.2059705 
18485000    1.0955242 4.9242818e-05   0.61868667  0.032115816            0   0.58657086    1.6022042    2.2208909    7.2633555 
18490000    1.0227681 2.3270215e-05   0.71054321  0.064829767            0   0.64571344    1.4957984    2.2063416    4.5892116 
18495000    1.0307006 4.4786892e-05   0.69977253   0.01474621            0   0.68502632    1.5073996    2.2071721    6.7933498 
18500000    1.0359282 1.4997886e-05   0.71453139  0.017750037            0   0.69678136     1.515045    2.2295763    3.7653599 
18505000    1.0820609 -2.6447786e-05   0.69556496  0.054892758            0    0.6406722    1.5825141    2.2780791  -0.43017418 
18510000    1.1100466 1.633802e-05   0.61453144 0.0042993121            0   0.61023213    1.6234431    2.2379745    3.9109878 
18515000    1.0810036 -1.1689614e-05   0.65935681            0            0   0.65935681    1.5809677    2.2403245    1.0433081 
18520000    1.0913565 -0.00010490007   0.62648692 0.0003938247            0    0.6260931    1.5961089    2.2225959   -8.5191713 
18525000    1.1080033 -6.4843367e-05   0.62709362 0.0015689967            0   0.62552463    1.6204549    2.2475485   -4.3924123 
18530000    1.1059492 1.7208335e-06   0.66160801 0.0011561189            0   0.66045189    1.6174506    2.2790587     2.455272 
18535000    1.1212103 2.3544203e-06   0.66045964 0.0099729308            0   0.65048671    1.6397701    2.3002297    2.5413223 
18540000    1.2085017 -1.295814e-05   0.57614859  0.022216248            0   0.55393235    1.7674337    2.3435823    1.0166688 
18545000    1.0215166 1.5075788e-05   0.76720639  0.011386417            0   0.75581998     1.493968    2.2611744    3.8049352 
18550000    1.1720231 2.2639616e-05   0.55405459 0.0055071671            0   0.54854742    1.7140838    2.2681384     4.586435 
18555000    1.1508687 2.0007017e-05   0.54642805 0.0013031752            0   0.54512488    1.6831454    2.2295735     4.278292 
18560000    1.0511447 3.9831188e-05   0.66517462            0            0   0.66517462    1.5372991    2.2024737    6.2811873 
18565000    1.0907963 5.4151476e-05   0.66318512 0.00084369103            0   0.66234143    1.5952895    2.2584747    7.8035858 
18570000    1.1972719 4.9262756e-05   0.56179914  0.010834942            0    0.5509642    1.7510101    2.3128093    7.3573155 
18575000    1.0949304 -3.0498847e-06   0.70385286  0.029700146            0   0.67415271    1.6013357    2.3051886    1.9928804 
18580000    1.0677716 6.6937356e-06   0.70031605   0.01689241            0   0.68342364    1.5616159     2.261932    2.9473705 
18585000     1.055265 4.8654948e-05   0.71577552  0.000760399            0   0.71501512     1.543325    2.2591006    7.2413672 
18590000    1.0236934 -3.4794734e-05   0.74534111 0.0052681842            0   0.74007292    1.4971515    2.2424927   -1.3204881 
18595000   0.94120179 -6.2984572e-05   0.85137333  0.014709276            0   0.83666406    1.3765076     2.227881   -4.2217392 
18600000   0.96400095 4.0321141e-05   0.79867662  0.011802715            0    0.7868739    1.4098514     2.208528    6.3374128 
18605000   0.96567479 8.8842792e-05   0.79752646  0.061100336            0   0.73642613    1.4122994    2.2098258    11.307328 
18610000    1.1466266 1.7410346e-05    0.5403685  0.063068948            0   0.47729956    1.6769414    2.2173099    4.0001294 
18615000    1.0298415 -1.1559262e-05   0.70319201  0.022681509            0    0.6805105    1.5061432    2.2093353    1.0256668 
18620000   0.98639424 -5.6988725e-05   0.75143137  0.030281119            0   0.72115025    1.4426016    2.1940329   -3.6416125 
18625000    1.0810929 -0.00013185238   0.60663316   0.00220173            0   0.60443143    1.5810983    2.1877315   -11.313952 
18630000      1.04687 -6.2767665e-05   0.59495372 0.00032193678            0   0.59463178    1.5310474    2.1260011   -4.3014078 
18635000     1.127825 3.3078293e-05    0.4521824  0.027446001            0    0.4247364     1.649444    2.1016264    5.4888437 
18640000   0.97798653 7.8948943e-05   0.68603597  0.029119529            0   0.65691644    1.4303053    2.1163413    10.200713 
18645000   0.92403932 5.6343584e-05    0.7431767 0.0011442815            0   0.74203242    1.3514075    2.0945842    7.8641672 
18650000    1.0025496 -4.556902e-05   0.60502287 0.0050356358            0   0.59998723    1.4662288    2.0712516    -2.595016 
18655000    1.0794872 -0.00013033132   0.51988553  0.015489308            0   0.50439622      1.57875    2.0986355   -11.247292 
18660000    1.0601939 -4.6976541e-05   0.57741307 0.0021795205            0   0.57523355    1.5505335    2.1279466   -2.6824512 
18665000   0.98276788 1.882196e-05   0.69776585  0.010700284            0   0.68706556     1.437298    2.1350639    4.0624326 
18670000    1.0876893 7.117279e-05   0.56112992  0.027240186            0   0.53388973    1.5907456    2.1518755    9.4399693 
18675000    1.0458624 9.8672919e-05   0.60409695  0.013023553            0    0.5910734    1.5295737    2.1336707    12.237778 
18680000   0.91186968 -5.1090007e-05   0.82981259  0.010048347            0   0.81976424    1.3336094     2.163422   -3.0681947 
18685000    1.0187246 1.2116197e-05   0.65925734  0.026159437            0    0.6330979    1.4898847    2.1491421    3.3898406 
18690000    1.0749548 6.6974975e-05   0.59022251  0.041484149            0   0.54873836    1.5721213    2.1623438    9.0205813 
18695000    1.0333383 0.00010246935   0.66406159  0.011503521            0   0.65255807    1.5112573    2.1753189    12.668181 
18700000    1.0584904 3.7770763e-05   0.62944919  0.012829417            0   0.61661978    1.5480422    2.1774914    6.0452175 
18705000   0.95241527 -5.7243909e-05   0.77390707    0.0115245            0   0.76238257    1.3929073    2.1668144   -3.6949618 
18710000     1.042306 9.6412227e-06   0.66240134 0.0050312574            0   0.65737009    1.5243725    2.1867738     3.174035 
18715000    1.1379433 -3.373482e-05   0.48196321  0.020843277            0   0.46111993    1.6642421    2.1462053   -1.3082402 
18720000   0.98323367 2.5540849e-05   0.75323096  0.050222697            0   0.70300826    1.4379792    2.1912102    4.8065932 
18725000   0.93229985 7.6790055e-05   0.84116027  0.056433883            0   0.78472639    1.3634885    2.2046488     10.06795 
18730000    1.0608004 3.636379e-06   0.63824024  0.011885299            0   0.62635494    1.5514205    2.1896608     2.562026 
18735000    1.0032613 -6.5436179e-05   0.70190422 0.0030004523            0   0.69890377    1.4672696    2.1691739   -4.5314909 
18740000   0.98409426 -3.1307625e-05    0.7103047  0.042898001            0    0.6674067    1.4392379    2.1495426   -1.0563583 
18745000   0.88994471 5.1485677e-05   0.83327898  0.019591517            0   0.81368747    1.3015441    2.1348231    7.4069565 
18750000    1.1804745 9.0837955e-06   0.41768793 0.0058372725            0   0.41185066     1.726444    2.1441319    3.0743126 
18755000   0.99321273 -5.4376966e-05    0.7353036  0.021828541            0   0.71347506    1.4525736    2.1878772   -3.3803241 
18760000    1.0732685 6.7652942e-05   0.59884565   0.01097376            0   0.58787189    1.5696552    2.1685008    9.0961621 
18765000   0.95785111 0.00010170799   0.76721704  0.016848249            0   0.75036879    1.4008573    2.1680743    12.582972 
18770000    1.1651229 6.5795047e-05   0.49031557  0.023219965            0   0.46709561    1.7039923    2.1943078    8.9317207 
18775000    1.0562863 -3.3367319e-05   0.62099554  0.022747915            0   0.59824763    1.5448187    2.1658142   -1.2509993 
18780000    1.1037781 9.2349163e-08   0.60734196  0.053306275            0   0.55403569    1.6142754    2.2216174    2.2310739 
18785000    1.0694091 6.7314801e-06   0.66526092  0.028695977            0   0.63656494    1.5640108    2.2292717    2.9185752 
18790000    1.1339571 2.8306643e-05   0.56364746    0.0268029            0   0.53684456    1.6584122    2.2220597    5.1206598 
18795000    1.1545687 2.8172157e-05    0.4775927 0.0066757885            0   0.47091691    1.6885567    2.1661494    5.0509783 
18800000   0.99863064 -4.043625e-05   0.73224833  0.032118055            0   0.70013028    1.4604973    2.1927457   -1.9479264 
18805000    1.0289092 3.940107e-05   0.65277921  0.051637094            0   0.60114211    1.5047797    2.1575589    6.1922285 
18810000   0.88150202 4.0572533e-05   0.83497877  0.002695293            0   0.83228348    1.2891967    2.1241755    6.2788029 
18815000   0.99566602 7.6955754e-07   0.70058836  0.045324062            0    0.6552643    1.4561615    2.1567499    2.2355526 
18820000    1.0645161 -2.8549285e-05   0.61410318  0.029868375            0    0.5842348    1.5568548     2.170958  -0.75248881 
18825000    1.0842049 9.3945919e-07   0.55885363 0.0011305699            0   0.55772306    1.5856497    2.1445033     2.240704 
18830000    1.0409885 3.9590503e-05   0.57656329 0.0026294667            0   0.57393383    1.5224456    2.0990089    6.1530764 
18835000    1.0962427 6.6523027e-05   0.52089529  0.014285431            0   0.50660986    1.6032549    2.1241502    8.9361082 
18840000   0.99323799 8.9468675e-05   0.65357703  0.039569268            0   0.61400776    1.4526106    2.1061876     11.26778 
18845000     1.038914 8.4731311e-05   0.58512567  0.041610381            0   0.54351529    1.5194118    2.1045374    10.781024 
18850000      1.08789 4.6263537e-05   0.53304592   0.02848415            0   0.50456177    1.5910391     2.124085    6.8614712 
18855000    1.0982246 -6.6861034e-06    0.5211972  0.015424926            0   0.50577228    1.6061535    2.1273507    1.4426937 
18860000    1.1189975 -3.3520652e-05   0.50000702   0.02353025            0   0.47647677    1.6365338    2.1365408    -1.295974 
18865000    1.1191277 4.4095417e-05   0.53420437 0.0049366914            0   0.52926768    1.6367242    2.1709286    6.6862993 
18870000    1.1405663 5.2659839e-05   0.50902121 0.0091882501            0   0.49983296    1.6680782    2.1770994    7.5694669 
18875000    1.0114754 -3.3011173e-05   0.69874494  0.035050964            0   0.66369397    1.4792828    2.1780277   -1.2023164 
18880000    1.1428316 -1.8651336e-05   0.54145116  0.030192659            0    0.5112585    1.6713912    2.2128424   0.30294559 
18885000    1.1006861 -3.7890146e-05    0.5907789 0.0087088831            0   0.58207002    1.6097535    2.2005324   -1.6794186 
18890000    1.0958932 -8.2422634e-06   0.56933729  0.014351376            0   0.55498591    1.6027437     2.172081    1.3280733 
18895000   0.98709474 -1.6317265e-06   0.70369227  0.084169594            0   0.61952267    1.4436261    2.1473183    1.9802295 
18900000    1.0097607 3.8411998e-05   0.62371641  0.040278198            0   0.58343821     1.476775    2.1004914      6.03388 
18905000   0.90393364 -9.2997041e-05   0.73054519  0.057206421            0   0.67333877     1.322003    2.0525481   -7.4703488 
18910000    1.0754409 -3.9886694e-05   0.44305409 0.0060342788            0   0.43701981    1.5728324    2.0158865    -2.068511 
18915000   0.99015594 4.6514889e-05   0.59609978 0.0046062152            0   0.59149356    1.4481031    2.0442028    6.8073275 
18920000   0.94129581 6.8098819e-06   0.65945677  0.023150475            0    0.6363063    1.3766451    2.0361019    2.7334338 
18925000   0.88548917 9.5161668e-05    0.7042207  0.069417881            0   0.63480281    1.2950279    1.9992486    11.743803 
18930000   0.95404524 8.7498187e-05   0.62623917  0.030085911            0   0.59615326    1.3952912    2.0215303    10.981345 
18935000   0.94155424 -4.3025927e-05   0.64984439  0.063086794            0    0.5867576    1.3770231    2.0268675   -2.3789875 
18940000    1.0679618 -5.0284205e-06   0.46111472  0.001759251            0   0.45935546    1.5618941    2.0230089    1.5080986 
18945000    1.0108192 4.6260151e-05   0.53511528            0            0   0.53511528    1.4783231    2.0134383    6.7504778 
18950000   0.85938186 -9.3351226e-05   0.76350009            0            0   0.76350009     1.256846    2.0203461   -7.5388195 
18955000    1.0400416 -6.9576192e-05   0.49339917 0.0052966048            0   0.48810256    1.5210608    2.0144599   -5.1101421 
18960000   0.91441008 0.00011374591    0.6641161   0.03919832            0   0.62491778    1.3373247    2.0014409    13.649022 
18965000    1.0245474 7.5345641e-05   0.51383148  0.011290128            0   0.50254135    1.4984006     2.012232    9.7276257 
18970000    1.0390756 -5.0974892e-05    0.4932658  0.004795228            0   0.48847057     1.519648    2.0129138   -3.2069151 
18975000   0.90289122 -5.9495037e-05   0.70914377  0.029458702            0   0.67968506    1.3204784    2.0296222   -4.0626696 
18980000    1.0332225 -9.1523069e-06   0.50645841  0.017177903            0   0.48928051    1.5110879    2.0175463      1.08035 
18985000   0.99571507 7.4853903e-05   0.51319375 0.00038064284            0    0.5128131    1.4562333     1.969427    9.6344667 
18990000   0.86475808 8.1609819e-05   0.70126207 0.0032507228            0   0.69801135    1.2647087    1.9659708    10.322816 
18995000   0.87129812 1.2894759e-05   0.68684303   0.01825211            0   0.66859092    1.2742735    1.9611165    3.2815398 
19000000   0.91993469 4.8123172e-05   0.60002906  0.041509928            0   0.55851913    1.3454045    1.9454335    6.8732464 
19005000   0.93117221 8.0897125e-05   0.64964703  0.014269349            0   0.63537768    1.3618394    2.0114864    10.295352 
19010000   0.98175192 4.5022421e-05   0.57704077  0.015771896            0   0.56126887    1.4358122     2.012853    6.6231489 
19015000   0.95850405 -4.3803041e-05   0.58896053  0.049146429            0    0.5398141    1.4018122    1.9907727   -2.4946587 
19020000    1.0521076 -2.0631629e-05   0.41364425  0.034165385            0   0.37947886    1.5387074    1.9523517  -0.16032714 
19025000   0.90205419 -6.6286504e-05   0.60205414 0.0026069743            0   0.59944716    1.3192543    1.9213084   -4.8664297 
19030000   0.90413781 -9.987177e-05   0.60560402 0.0070743433            0   0.59852968    1.3223015    1.9279056   -8.2989637 
19035000    1.0974166 -4.365125e-05   0.34031615  0.023599424            0   0.31671673    1.6049718     1.945288      -2.5246 
19040000    0.9003687 3.1559213e-05   0.63423919  0.029970542            0   0.60426864    1.3167892    1.9510284    5.1826918 
19045000    0.9759274 4.3798923e-05    0.5292946  0.016914361            0   0.51238023    1.4272938    1.9565884    6.4415982 
19050000   0.87479579 -2.0755767e-05   0.70355459 0.0040131095            0   0.69954148    1.2793888    1.9829434  -0.14244708 
19055000   0.93666192 5.3174651e-05   0.56957504  0.083080572            0   0.48649447    1.3698681    1.9394431    7.3845273 
19060000   0.98050297 7.5382429e-05   0.52770132  0.036125128            0    0.4915762    1.4339856    1.9616869    9.6808476 
19065000   0.85497691 3.0355158e-06   0.68314887  0.005600496            0   0.67754837    1.2504037    1.9335526    2.2443894 
19070000   0.98502483 5.2901837e-05   0.45977197 0.00046910371            0   0.45930287    1.4405988    1.9003708    7.3175189 
19075000    1.0537258 1.3481833e-05   0.41881893 0.0055831871            0   0.41323575     1.541074     1.959893    3.3404327 
19080000   0.97208539 -8.3150729e-05    0.5159904  0.015237657            0   0.50075275    1.4216749    1.9376653   -6.5769694 
19085000   0.91475066 -5.8671191e-05   0.57837557 0.0055099011            0   0.57286566    1.3378228    1.9161984   -4.0917316 
19090000   0.96483394 -3.5641949e-05   0.51150989 0.00050858622            0   0.51100131    1.4110696    1.9225795    -1.727156 
19095000    0.9885546 -4.3049926e-06   0.43566515 7.5792278e-05            0   0.43558936    1.4457611    1.8814263     1.440595 
19100000   0.81826521 2.8810351e-05   0.65712093            0            0   0.65712093    1.1967129    1.8538338    4.8040137 
19105000    1.0116332 3.0873403e-05   0.37401713            0            0   0.37401713    1.4795135    1.8535307    5.0149672 
19110000   0.95560255 -5.4086532e-05   0.44613297 0.00011690041            0   0.44601607    1.3975687    1.8437017   -3.6947592 
19115000   0.90876996 -5.5781275e-05   0.52213733  0.017880793            0   0.50425654    1.3290761    1.8512134   -3.8607891 
19120000   0.91532236 3.2523181e-05    0.4663124  0.035465943            0   0.43084646     1.338659    1.8049714    5.1353451 
19125000   0.85781717 3.7167582e-05   0.55835109  0.020595798            0   0.53775529    1.2545576    1.8129087     5.618869 
19130000   0.92785031 0.00011649662   0.45667756 0.0020498849            0   0.45462767    1.3569811    1.8136586    13.742913 
19135000   0.90354049 8.1279161e-05   0.49540228 0.00050153996            0   0.49490074     1.321428    1.8168303    10.139816 
19140000   0.84834419 -5.1878071e-05   0.58847883  0.014992625            0   0.57348621    1.2407034    1.8291822   -3.4831323 
19145000   0.90480701 -1.482526e-05   0.50078228  0.024113001            0   0.47666928    1.3232803    1.8240625   0.30595596 
19150000   0.94599282 -1.3378498e-05    0.4457625  0.052317994            0   0.39344451    1.3835145     1.829277   0.45931882 
19155000   0.85699463 -8.0278749e-05   0.54060612  0.032506465            0   0.50809966    1.2533546    1.7939608   -6.4265831 
19160000    0.7725366 -4.5915503e-06   0.67285145  0.020721582            0   0.65212987    1.1298348    1.8026862    1.3325115 
19165000   0.85087772 8.603412e-05   0.51847639  0.009847371            0   0.50862902    1.2444087    1.7628851    10.572779 
19170000   0.91921721 6.9292142e-05   0.44951728 0.0030043477            0   0.44651293    1.3443552    1.7938724    8.8893878 
19175000   0.86789623 1.0573774e-05   0.56253199  0.008907026            0   0.55362496    1.2692982    1.8318302    2.9145847 
19180000   0.96092933 1.4124075e-05   0.41534027 0.0050442838            0   0.41029598    1.4053591    1.8206994    3.2670047 
19185000   0.94060013 -3.6939916e-05    0.4569398 0.00010301348            0   0.45683679    1.3756277    1.8325675   -1.9500799 
19190000   0.89457811 -0.00012652984   0.50738999 0.0096518516            0   0.49773814    1.3083205    1.8157105   -11.140945 
19195000    0.9255469 -2.4000177e-05   0.45650928  0.034714753            0   0.42179452    1.3536123    1.8101216  -0.64749647 
19200000   0.89842143 -1.5437978e-05   0.50514144  0.062428547            0    0.4427129    1.3139413    1.8190828   0.23823381 
19205000   0.93714516 -4.1425969e-05   0.44281213  0.034067633            0   0.40874449    1.3705748    1.8133869   -2.4286323 
19210000   0.97014624 2.1094708e-05   0.41542888 0.00093798329            0    0.4144909    1.4188389    1.8342677    3.9943659 
19215000   0.96717048 -4.7039854e-05   0.41175422 4.1575899e-05            0   0.41171264    1.4144868     1.826241     -2.99064 
19220000    0.8625057 -6.2981361e-05   0.56042423 0.00048331021            0   0.55994092    1.2614146    1.8218388   -4.6274526 
19225000   0.85084456 7.0758629e-05   0.59526295 0.0022081654            0   0.59305478    1.2443602    1.8396231    9.0853067 
19230000   0.91645713 -1.9482088e-05   0.51511003  0.011121052            0   0.50398898    1.3403185    1.8554286  -0.13953719 
19235000   0.89713537 -0.00010340156   0.58461448  0.040290512            0   0.54432397    1.3120605     1.896675   -8.6916447 
19240000   0.99574951 3.1968047e-05   0.48715122  0.015837766            0   0.47131345    1.4562837    1.9434349    5.2169629 
19245000   0.84749066 9.8643607e-06   0.69170091 0.0023196484            0   0.68938126    1.2394551     1.931156    2.9412665 
19250000   0.98988857 -6.2736638e-05   0.43582652 0.0006895535            0   0.43513696     1.447712    1.8835385   -4.5406932 
19255000   0.89810637 2.6718697e-05   0.54726173 0.00036642502            0   0.54689531    1.3134806    1.8607423    4.5967368 
19260000   0.89531073 5.440092e-05   0.52437855 4.6613724e-05            0   0.52433193    1.3093919    1.8337705    7.4044246 
19265000   0.97091444 -3.9867922e-05   0.46391267            0            0   0.46391267    1.4199624     1.883875   -2.1986001 
19270000   0.94232023 -7.8560337e-05     0.554618 8.8711864e-06            0   0.55460912    1.3781433    1.9327613   -6.1118172 
19275000   0.88647541 -3.6111975e-05   0.59780653 0.0027436163            0   0.59506291    1.2964703    1.8942768   -1.8035895 
19280000   0.94955104 8.7064106e-05   0.54516886 0.0067025951            0   0.53846626    1.3887184    1.9338873    10.849252 
19285000   0.92194704 0.00010560719   0.61906829  0.012990758            0   0.60607753    1.3483475    1.9674158    12.781592 
19290000   0.95029619 9.033374e-05   0.58314456  0.027319533            0   0.55582503    1.3898082    1.9729527    11.223128 
19295000    1.0020328 0.00013187046   0.52903491  0.014869669            0   0.51416524    1.4654729    1.9945078    15.498043 
19300000    1.0810297 2.1047398e-05   0.39451461  0.007415734            0   0.38709888    1.5810059    1.9755206    4.1307741 
19305000   0.96194075 -1.4544121e-05   0.61669291  0.034412477            0   0.58228043    1.4068384    2.0235313   0.53421329 
19310000   0.93794379 -7.9239394e-06   0.60941121  0.071032372            0   0.53837884    1.3717428     1.981154    1.1697426 
19315000   0.88990752 -5.1473436e-05   0.66211847  0.083737843            0   0.57838063    1.3014897    1.9636082   -3.3072716 
19320000   0.94195733 2.697428e-05   0.58494318   0.02486794            0   0.56007524    1.3776126    1.9625558    4.7247221 
19325000   0.96304753 -7.2652371e-06   0.57269303  0.027755548            0   0.54493748     1.408457      1.98115    1.2371898 
19330000    1.1052367 1.3274515e-05   0.36715584  0.020154493            0   0.34700134    1.6164086    1.9835644    3.3428748 
19335000   0.92612339 -3.6638916e-05   0.61111524 0.0021876792            0   0.60892757    1.3544555    1.9655707   -1.7862543 
19340000     0.935645 -4.7841401e-06    0.6109795 0.00093449683            0     0.610045    1.3683808    1.9793603    1.4894644 
19345000   0.96534606 -4.6269656e-05   0.55303791 0.0093022675            0   0.54373564    1.4118186    1.9648565   -2.7731563 
19350000   0.96438237 -8.36208e-06   0.52826653  0.016011402            0   0.51225513    1.4104092    1.9386758    1.0823988 
19355000   0.93902256 2.0322697e-05   0.58309105  0.012416762            0   0.57067429    1.3733205    1.9564115    4.0374558 
19360000   0.90975523 -7.5295218e-05   0.64524218  0.010575684            0    0.6346665     1.330517    1.9757592   -5.7344712 
19365000   0.96570099 -1.3475371e-05   0.53112309 0.0050436407            0   0.52607945    1.4123377    1.9434608   0.56358275 
19370000     1.016424 -7.5681121e-05   0.44465233  0.010158972            0   0.43449335      1.48652    1.9311724   -5.8185745 
19375000   0.86500484 -2.819141e-05   0.61946733   0.01575884            0   0.60370849    1.2650696    1.8845369   -1.0022635 
19380000   0.85309565 -6.4670265e-05   0.62479289 0.0026437783            0   0.62214911    1.2476524    1.8724453   -4.7497899 
19385000   0.93310134 -5.6321899e-05   0.52563667            0            0   0.52563667    1.3646607    1.8902974    -3.877065 
19390000   0.88107588 -1.6503407e-05   0.55659288            0            0   0.55659288    1.2885735    1.8451663   0.15521749 
19395000   0.88116836 -0.00013786402   0.52214986            0            0   0.52214986    1.2887087    1.8108586   -12.306417 
19400000   0.84066206 -6.0092541e-05   0.55641342            0            0   0.55641342    1.2294683    1.7858817   -4.3675945 
19405000   0.84949632 3.0507776e-05   0.55019931 0.0047823009            0   0.54541701    1.2423884    1.7925877    4.9165839 
19410000   0.86366667 0.00011182341   0.49004318 0.0098962789            0    0.4801469    1.2631125    1.7531557    13.203873 
19415000   0.88306664 1.5415325e-05   0.46071009 0.0031000666            0   0.45761002     1.291485     1.752195    3.3307244 
19420000   0.80997476 3.0367757e-05   0.60472071 0.0032284362            0   0.60149228    1.1845881    1.7893088    4.8989671 
19425000   0.75457516 9.7073224e-05   0.65934332   0.03636468            0   0.62297864    1.1035662    1.7629095    11.703208 
19430000   0.80856577 5.4332469e-05   0.59223984   0.04250269            0   0.54973715    1.1825274    1.7747673    7.3384121 
19435000   0.87174524 -4.5168101e-05   0.48203544  0.012981761            0   0.46905368    1.2749274    1.7569629   -2.8682507 
19440000   0.87979964 1.5802932e-05   0.45770171 0.0020614591            0   0.45564026     1.286707    1.7444087    3.3626289 
19445000   0.89146219 -3.7187764e-05   0.48072507 8.0501472e-05            0   0.48064457    1.3037635    1.7844885   -2.0235385 
19450000   0.85072586 -2.1317061e-05   0.50592598            0            0   0.50592598    1.2441866    1.7501126  -0.43275452 
19455000   0.84744634 5.0147257e-05   0.48114211            0            0   0.48114211    1.2393903    1.7205324    6.8556115 
19460000   0.93289799 6.0443285e-05     0.390303            0            0     0.390303    1.3643633    1.7546663    7.9440587 
19465000   0.81120622 -8.4305657e-06   0.57113354            0            0   0.57113354    1.1863891    1.7575226   0.89423271 
19470000   0.78917509 -8.4458637e-06    0.5156348            0            0    0.5156348    1.1541686    1.6698034   0.80494692 
19475000     0.896579 1.3221034e-05   0.39521893 0.0007304835            0   0.39448845    1.3112468    1.7064657    3.0602996 
19480000   0.85849935 -2.4738457e-06    0.4349525 0.0059194955            0   0.42903301    1.2555553    1.6905078     1.437186 
19485000   0.85988858 -3.7762283e-05   0.46736425  0.032623183            0   0.43474106     1.257587    1.7249513   -2.1419065 
19490000   0.75278236 -8.1846822e-05   0.62845128  0.031545785            0    0.5969055    1.1009442    1.7293955   -6.6517191 
19495000   0.85480197 6.0489495e-05   0.44176996 0.0020571792            0   0.43971279    1.2501479    1.6919178    7.8860421 
19500000   0.78344442 5.1179017e-05   0.57040801 0.00096743308            0   0.56944058    1.1457875    1.7161955    6.9569269 
19505000   0.84086911 7.1453214e-05   0.49917601 0.0012128436            0   0.49796317    1.2297711    1.7289471    9.0457562 
19510000   0.88346109 1.3806825e-05   0.47474767 0.0002039134            0   0.47454376    1.2920618    1.7668095    3.1806284 
19515000   0.90470692 -1.5277166e-05   0.43338419            0            0   0.43338419    1.3231339    1.7565181   0.19213629 
19520000   0.88161168 -3.9847738e-05   0.49321293            0            0   0.49321293    1.2893571      1.78257   -2.2978383 
19525000   0.92294957 4.9820838e-05    0.4047264 0.00053142167            0   0.40419497    1.3498137    1.7545401    6.8561939 
19530000   0.78570711 1.9323653e-05   0.61524153  0.026711739            0   0.58852979    1.1490967    1.7643382    3.7430802 
19535000   0.87903361 -1.2815174e-05   0.49325877  0.036215153            0   0.45704362    1.2855867    1.7788454   0.46657157 
19540000   0.83150396 -1.8491639e-05   0.52834908 0.0087552737            0   0.51959381    1.2160745    1.7444236  -0.14912021 
19545000   0.83088694 -2.9244031e-05   0.52728084 0.0045383398            0    0.5227425    1.2151722     1.742453   -1.2521358 
19550000   0.94191561 4.6542731e-05   0.36546257 0.0044304614            0   0.36103211    1.3775516    1.7430141    6.5089898 
19555000   0.88095542 -9.716206e-06   0.40966507  0.030525537            0   0.37913954    1.2883973    1.6980624   0.70312288 
19560000   0.84941738 5.7810563e-05   0.45312033  0.019124915            0   0.43399542    1.2422729    1.6953932    7.6151949 
19565000   0.82167861 2.0970529e-06   0.50472953 0.0057866345            0    0.4989429     1.201705    1.7064345    1.9211727 
19570000   0.78793746 -5.8194053e-05   0.55368508  0.006271627            0   0.54741345    1.1523585    1.7060436   -4.2530274 
19575000   0.76752189 -4.6347405e-05   0.59490619  0.006205942            0   0.58870025    1.1225008     1.717407   -3.0285673 
19580000   0.78044173 -7.2595568e-06   0.58375729  0.041069428            0   0.54268786     1.141396    1.7251533   0.98177471 
19585000   0.84040096 -2.3085185e-06   0.50001833  0.023727932            0    0.4762904    1.2290864    1.7291047    1.4927125 
19590000   0.89038636 -8.6590311e-05   0.44764875 0.0043051023            0   0.44334365      1.30219    1.7498388    -7.117009 
19595000   0.81745664 -1.0779495e-05   0.52007297 0.0027415417            0   0.51733143    1.1955303    1.7156033   0.61178301 
19600000    0.8824777 -2.5731219e-05   0.44123501 0.00040176848            0   0.44083324    1.2906236    1.7318586  -0.90301814 
19605000   0.79049947 0.00012948964   0.57834949 0.0070424934            0   0.57130699    1.1561055     1.734455    14.994194 
19610000   0.88324507 7.3471301e-06   0.42074254  0.017220002            0   0.40352254    1.2917459    1.7124885    2.4648346 
19615000   0.88010675 4.6227192e-05   0.41976463  0.010064728            0    0.4096999    1.2871561    1.7069207    6.4405853 
19620000   0.78863344 7.8376413e-05   0.56194158  0.013459896            0   0.54848168    1.1533764     1.715318    9.7410627 
19625000   0.96765784 5.6998872e-06   0.29501673 0.0078158142            0   0.28720092    1.4151996    1.7102163    2.2938848 
19630000   0.95492766 -4.5464295e-05   0.37482044 0.0048989371            0    0.3699215    1.3965817    1.7714021   -2.8841416 
19635000   0.86192235 6.5796945e-05     0.528591 0.00043193434            0   0.52815907    1.2605614    1.7891524    8.5267596 
19640000   0.90066699 -6.8195613e-05   0.47291644 0.0071746586            0   0.46574179    1.3172255    1.7901419   -5.1930888 
19645000   0.87537709 6.0883296e-06   0.51372178  0.036544013            0   0.47717776     1.280239    1.7939608    2.4174057 
19650000   0.85956003 1.0304639e-05   0.54157629  0.027415837            0   0.51416045    1.2571065    1.7986828    2.8538779 
19655000   0.87119261 -5.3446285e-06    0.4993703 0.00076570232            0    0.4986046    1.2741192    1.7734895    1.2261995 
19660000   0.83069065 5.8429601e-05   0.53404909 0.0028732997            0   0.53117579    1.2148851    1.7489342    7.7321253 
19665000   0.85111779 -1.4978075e-05   0.49652553 0.0057288306            0    0.4907967    1.2447598    1.7412853   0.20753044 
19670000   0.86749938 -8.2329662e-05   0.45938058 0.0056449108            0   0.45373567    1.2687178    1.7280984    -6.702459 
19675000   0.79972595 -4.5526794e-05   0.53891677  0.015373839            0   0.52354293    1.1695992     1.708516   -2.9534278 
19680000   0.79305408 1.5340171e-05   0.53741788 0.0092404803            0    0.5281774    1.1598416    1.6972595     3.268093 
19685000    0.8610952 8.028377e-05   0.44382654  0.024841896            0   0.41898465    1.2593517    1.7031783    9.9242363 
19690000    0.8763156 0.00010994396   0.43889365  0.068925125            0   0.36996853    1.2816116    1.7205052    12.978767 
19695000   0.86826048 -6.3947083e-05   0.46696218  0.031578819            0   0.43538336    1.2698309    1.7367931   -4.8113882 
19700000   0.81411014 -0.00015207927   0.54749312  0.018018055            0   0.52947507    1.1906361    1.7381292   -13.834788 
19705000   0.92466256 3.4652045e-05    0.4213558  0.013219177            0   0.40813663     1.352319    1.7736748    5.3220443 
19710000    0.9274864 0.00012542064   0.41593264  0.014957739            0    0.4009749    1.3564489    1.7723815    14.615455 
19715000   0.75425628 1.8601868e-05   0.61649745  0.030869918            0   0.58562753    1.1030998    1.7195973    3.6244285 
19720000   0.93427772 9.7950916e-06   0.38216938  0.043109457            0   0.33905993    1.3663812    1.7485505    2.7515679 
19725000   0.88144263 2.6328426e-05   0.45010054  0.014261865            0   0.43583867    1.2891098    1.7392104    4.4352412 
19730000   0.74065813 3.6651126e-05   0.64806871 0.00022179502            0   0.64784691    1.0832125    1.7312812    5.4843565 
19735000   0.87011087 1.085147e-05   0.46383578  0.014883127            0   0.44895266    1.2725371    1.7363729    2.8475635 
19740000   0.83984447 5.6017015e-06   0.48300713  0.022167926            0    0.4608392    1.2282725    1.7112797    2.2848939 
19745000   0.86995971 1.3379285e-05   0.42828117 0.0039190897            0   0.42436208    1.2723161    1.7005972     3.070636 
19750000   0.73506666 -1.5418987e-05   0.59778273 0.0010251783            0   0.59675755     1.075035    1.6728177  0.093913454 
19755000    0.8106326 -2.3138843e-05   0.53811048 0.00014981693            0   0.53796067    1.1855502    1.7236607  -0.64575687 
19760000   0.95470373 -8.4000187e-06   0.32825846  0.010125607            0   0.31813285    1.3962542    1.7245127   0.86435075 
19765000   0.86386787 6.1395776e-06   0.43181085  0.025935922            0   0.40587493    1.2634068    1.6952176    2.3239104 
19770000   0.79623909 5.514722e-05   0.57369446  0.030475117            0   0.54321934    1.1644997    1.7381941    7.3852694 
19775000   0.84609581 5.5638569e-05   0.47694982  0.034303746            0   0.44264608    1.2374151    1.7143649    7.4117544 
19780000   0.90195345 3.6826196e-06   0.38172775 0.0039898565            0   0.37773789    1.3191069    1.7008347    2.0779349 
19785000   0.84288161 -6.3817135e-05   0.47369016  0.020176584            0   0.45351357    1.2327144    1.7064045   -4.8284701 
19790000   0.78987202 -4.3094455e-05    0.5703859  0.041732688            0   0.52865321    1.1551878    1.7255737   -2.6872985 
19795000   0.78823832 7.2394258e-05    0.5832804  0.014355707            0   0.56892469    1.1527985    1.7360789    9.1492509 
19800000   0.92639178 5.6303845e-05   0.41235287 0.0024814141            0   0.40987145     1.354848    1.7672008    7.5327145 
19805000   0.86168242 -6.7706378e-06   0.54378113 0.0029805175            0   0.54080061    1.2602105    1.8039917    1.1106784 
19810000   0.86754655 2.2957771e-05   0.54873112  0.024309132            0   0.52442199    1.2687868     1.817518    4.1683937 
19815000   0.91702595 5.1435466e-05   0.50249906  0.024271691            0   0.47822737    1.3411504    1.8436495    7.1106412 
19820000   0.87062361 -8.6133945e-06   0.53681482  0.028363762            0   0.50845106     1.273287    1.8101018   0.92809025 
19825000   0.77521734 -3.4847222e-05   0.64847028   0.04952879            0   0.59894149    1.1337554    1.7822256   -1.7861299 
19830000   0.80590754 1.410096e-06   0.61000421  0.039859303            0   0.57014491    1.1786398     1.788644    1.9330378 
19835000   0.88092165 5.078825e-06   0.51022608  0.015592615            0   0.49463346    1.2883479     1.798574    2.3186457 
19840000   0.81009999 6.0227204e-05   0.62181822  0.006727689            0   0.61509053    1.1847712    1.8065895    7.9738551 
19845000   0.80801484 0.00013368209   0.64342763  0.060190767            0   0.58323686    1.1817217    1.8251493    15.514195 
19850000   0.95148495  7.06206e-05   0.43009355  0.054531679            0   0.37556187    1.3915467    1.8216403    9.0531897 
19855000   0.87951227 2.2049112e-05   0.53424017  0.092831696            0   0.44140847    1.2862867    1.8205269    4.0783559 
19860000   0.77430696 6.4086796e-05   0.71309481    0.1056185            0   0.60747631    1.1324239    1.8455187    8.4080066 
19865000   0.97950676 1.706926e-06   0.40564066 0.0092046902            0   0.39643597    1.4325286    1.8381693    2.0129585 
19870000   0.95434045 -7.1424853e-05    0.4173127 2.1808041e-05            0    0.4172909    1.3957229    1.8130356   -5.5008693 
19875000   0.94355371 2.213581e-06   0.43689941 1.2242833e-05            0   0.43688717    1.3799473    1.8168467    2.0435174 
19880000    0.7970601 5.0437425e-05   0.60806481            0            0   0.60806481    1.1657004    1.7737652    6.9385575 
19885000    0.8592842 -1.3916031e-05   0.50484236            0            0   0.50484236    1.2567031    1.7615455    0.3365439 
19890000   0.95407751 2.4115374e-05   0.38953361 0.00075579639            0   0.38877781    1.3953384     1.784872    4.2542862 
19895000    0.8144307 8.0571486e-05   0.61552516  0.014056412            0   0.60146875    1.1911049    1.8066301     10.05715 
19900000   0.88739908 -3.736189e-05   0.52166563  0.016114126            0    0.5055515    1.2978212    1.8194868   -2.0063708 
19905000   0.92560992 -8.5323722e-05   0.46545437  0.013055068            0    0.4523993    1.3537045    1.8191589   -6.9179903 
19910000   0.87795343 6.9193368e-05   0.53808879  0.013292762            0   0.52479603    1.2840069    1.8220957    8.9074966 
19915000   0.83506055 0.00012967289   0.62363844 0.0061126465            0    0.6175258    1.2212761    1.8449145    15.123418 
19920000    1.0085138 2.7671402e-05   0.35952414 0.0054632291            0   0.35406091    1.4749514    1.8344755    4.6680271 
19925000   0.96123239 3.5405719e-06   0.39301296  0.013096963            0   0.37991599    1.4058024    1.7988153    2.1613699 
19930000   0.81037764 1.0528694e-05   0.63780518   0.01479082            0   0.62301436    1.1851773    1.8229825    2.9011207 
19935000   0.80852291 -7.6760831e-05   0.61075726   0.03942307            0   0.57133419    1.1824648     1.793222   -6.0670871 
19940000   0.84304453 -0.00010147474   0.55711977   0.03849145            0   0.51862832    1.2329526    1.7900724   -8.6009409 
19945000   0.89848062 4.0940348e-05   0.50579144  0.011589469            0   0.49420197    1.3140279    1.8198193     6.012111 
19950000   0.91695265 7.1870287e-05   0.51250488  0.023100054            0   0.48940482    1.3410432    1.8535481    9.2130655 
19955000   0.79033875 -1.6661539e-05   0.69848941  0.072565699            0   0.62592371    1.1558704    1.8543598   0.14821819 
19960000    1.0037499 -3.588436e-05   0.40964387  0.016363613            0   0.39328026    1.4679842    1.8776281   -1.7969305 
19965000    1.0550164 5.0609682e-05   0.36235104 0.00094101895            0   0.36141002    1.5429614    1.9053125     7.087744 
19970000    1.0030828 1.7444038e-05   0.45778915 0.0010270574            0   0.45676209    1.4670086    1.9247977    3.7110672 
19975000   0.86823348 -7.4011325e-05   0.68986775 0.0024711614            0   0.68739658    1.2697915    1.9596592   -5.6191005 
19980000    1.0619376 4.8217456e-05   0.38279872 0.0011117371            0   0.38168699    1.5530837    1.9358824    6.8733499 
19985000    0.9206599 2.306796e-05   0.59342891 0.00020575821            0   0.59322315    1.3464651     1.939894    4.3020531 
19990000   0.96703031 -5.5400271e-05    0.5865389 0.00059600654            0   0.58594289    1.4142818    2.0008207    -3.672167 
19995000    1.0485759 -7.8697541e-05    0.4313941 0.0010362065            0   0.43035789    1.5335423    1.9649364   -6.0936918 
20000000    1.0090298 2.3936315e-05   0.48245585 0.0011977809            0   0.48125807    1.4757061     1.958162    4.4092407 
Loop time of 128.449 on 1 procs for 20000000 steps with 40 atoms

Performance: 134528.531 tau/day, 155704.319 timesteps/s
99.4% CPU use with 1 MPI tasks x no OpenMP threads

MPI task timing breakdown:
Section |  min time  |  avg time  |  max time  |%varavg| %total
---------------------------------------------------------------
Pair    | 5.2846     | 5.2846     | 5.2846     |   0.0 |  4.11
Bond    | 12.74      | 12.74      | 12.74      |   0.0 |  9.92
Neigh   | 18.178     | 18.178     | 18.178     |   0.0 | 14.15
Comm    | 46.1       | 46.1       | 46.1       |   0.0 | 35.89
Output  | 0.32534    | 0.32534    | 0.32534    |   0.0 |  0.25
Modify  | 40.796     | 40.796     | 40.796     |   0.0 | 31.76
Other   |            | 5.025      |            |       |  3.91

Nlocal:        40.0000 ave          40 max          40 min
Histogram: 1 0 0 0 0 0 0 0 0 0
Nghost:        0.00000 ave           0 max           0 min
Histogram: 1 0 0 0 0 0 0 0 0 0
Neighs:        11.0000 ave          11 max          11 min
Histogram: 1 0 0 0 0 0 0 0 0 0

Total # of neighbors = 11
Ave neighs/atom = 0.275
Ave special neighs/atom = 5.7000000
Neighbor list builds = 3635
Dangerous builds = 0
write_restart restart.equil
System init for write_restart ...
WARNING: Communication cutoff 1.4200000000000002 is shorter than a bond length based estimate of 1.8. This may lead to errors. (../comm.cpp:667)
#--------------End of Input file ------------------
Total wall time: 0:02:08
