LAMMPS (29 Oct 2020)
###################### polyelectrolyte complexation ######################
clear

#Initialization
#------------------------------------
units				lj
dimension			3
atom_style			full
boundary			p p p

#Atom Definition
#-------------------------------------
read_data			data.complexation
Reading data file ...
  orthogonal box = (-80.000000 -80.000000 -80.000000) to (80.000000 80.000000 80.000000)
  1 by 1 by 1 MPI processor grid
  reading atoms ...
  80 atoms
  scanning bonds ...
  1 = max bonds/atom
  reading bonds ...
  79 bonds
Finding 1-2 1-3 1-4 neighbors ...
  special bond factors lj:    0.0      0.0      0.0     
  special bond factors coul:  0.0      0.0      0.0     
     2 = max # of 1-2 neighbors
     2 = max # of 1-3 neighbors
     4 = max # of 1-4 neighbors
     6 = max # of special neighbors
  special bonds CPU = 0.000 seconds
  read_data CPU = 0.002 seconds

#Force definition
#----------------------------------------------
#Bond definition
bond_style			harmonic
bond_coeff			1 5000 1
#Pair definition
special_bonds	lj 0 1 1
Finding 1-2 1-3 1-4 neighbors ...
  special bond factors lj:    0.0      1.0      1.0     
  special bond factors coul:  0.0      0.0      0.0     
     2 = max # of 1-2 neighbors
     2 = max # of 1-3 neighbors
     4 = max # of 1-4 neighbors
     6 = max # of special neighbors
  special bonds CPU = 0.000 seconds
pair_style		 lj/cut 1.12
pair_modify 		 shift yes
pair_coeff	1 1 1 1 1.12

#Timestep etc
#--------------------------------------------
timestep		1e-05
run_style		verlet
velocity		all	create	1	13

#Fix
#---------------------------------------
group polymers type 1
80 atoms in group polymers
fix 1 all nve
fix 2 all langevin 1	1	10	13
fix 3 polymers recenter INIT INIT INIT units box

#Dump
#------------------------------------------------
compute  1 all gyration
variable  myRg2 equal c_1
variable  i equal step
fix  mythermofile all print 5000 "$i ${myRg2}" file radius_of_gyration.dat screen no

thermo_style		 custom step temp press pe evdwl ecoul ebond ke etotal enthalpy
thermo 	5000
dump	3 all custom 5000 dump.lammpstrj id mol type xu yu zu
run		20000000
Neighbor list info ...
  update every 1 steps, delay 10 steps, check yes
  max neighbors/atom: 2000, page size: 100000
  master list distance cutoff = 1.42
  ghost atom cutoff = 1.42
  binsize = 0.71, bins = 226 226 226
  1 neighbor lists, perpetual/occasional/extra = 1 0 0
  (1) pair lj/cut, perpetual
      attributes: half, newton on
      pair build: half/bin/newton
      stencil: half/bin/3d/newton
      bin: standard
WARNING: Communication cutoff 1.4200000000000002 is shorter than a bond length based estimate of 1.8. This may lead to errors. (../comm.cpp:667)
Per MPI rank memory allocation (min/avg/max) = 54.71 | 54.71 | 54.71 Mbytes
Step Temp Press PotEng E_vdwl E_coul E_bond KinEng TotEng Enthalpy 
       0            1 1.9287109e-05            0            0            0            0      1.48125      1.48125      2.46875 
    5000   0.78559798 -0.00033058021   0.32702888            0            0   0.32702888     1.163667    1.4906959   -15.435011 
   10000   0.45762296 -0.00068391055   0.82880616            0            0   0.82880616     0.677854    1.5066602    -33.50956 
   15000   0.73761144 -0.00028768087   0.41233985            0            0   0.41233985    1.0925869    1.5049268   -13.224334 
   20000   0.74438525 -0.00014590528   0.39845609            0            0   0.39845609    1.1026207    1.5010767   -5.9692736 
   25000   0.60817523 -0.00042574146    0.6250064            0            0    0.6250064   0.90085956     1.525866   -20.272097 
   30000   0.70559042 -0.00033258096   0.47674102            0            0   0.47674102    1.0451558    1.5218968   -15.506248 
   35000   0.80302131 -0.00012841986   0.35010359            0            0   0.35010359    1.1894753    1.5395789    -5.035518 
   40000    0.8088788 -0.00022646442   0.34132283            0            0   0.34132283    1.1981517    1.5394745   -10.055504 
   45000   0.76338836 -0.00024221635   0.39651425            0            0   0.39651425     1.130769    1.5272833   -10.874194 
   50000   0.80508095 -6.9793124e-05   0.32538276            0            0   0.32538276    1.1925262    1.5179089    -2.055499 
   55000   0.80997635 -1.4549113e-05   0.31718981            0            0   0.31718981    1.1997775    1.5169673   0.77205271 
   60000   0.79700416 -1.1431637e-05   0.34031461            0            0   0.34031461    1.1805624     1.520877   0.93557721 
   65000   0.77390261 -0.00021032601   0.37724742            0            0   0.37724742    1.1463432    1.5235907    -9.245101 
   70000   0.80093046 -5.2703705e-05   0.34704428            0            0   0.34704428    1.1863782    1.5334225   -1.1650072 
   75000   0.82499049 0.00010249063    0.3214187            0            0    0.3214187    1.2220172    1.5434359    6.7909561 
   80000   0.80805559 -4.0299381e-06   0.36156582            0            0   0.36156582    1.1969323    1.5584982    1.3521653 
   85000   0.81357092 -0.00014889158   0.38233437            0            0   0.38233437    1.2051019    1.5874363   -6.0358128 
   90000   0.82589358 -9.1876205e-05   0.39022703            0            0   0.39022703    1.2233549    1.6135819   -3.0904798 
   95000   0.88679655 0.00016265915   0.31030723            0            0   0.31030723    1.3135674    1.6238746     9.952023 
  100000   0.86363924 7.324057e-05    0.3362062            0            0    0.3362062    1.2792656    1.6154718     5.365389 
  105000   0.81656563 -0.0001859533   0.40616708            0            0   0.40616708    1.2095378    1.6157049    -7.905104 
  110000   0.90910886 2.2348064e-05   0.28460376            0            0   0.28460376    1.3466175    1.6312213    2.7754422 
  115000   0.83616436 0.00017916589   0.38699967            0            0   0.38699967    1.2385685    1.6255681    10.798862 
  120000    0.8558032 -7.3952546e-05   0.37824053 4.4011235e-05            0   0.37819652    1.2676585     1.645899   -2.1404714 
  125000    0.8154251 -0.00021268639   0.44820103 0.00016497214            0   0.44803605    1.2078484    1.6560494   -9.2334938 
  130000   0.89948988 0.00018801956   0.33201176            0            0   0.33201176    1.3323694    1.6643811    11.290983 
  135000    0.8755847 5.1366153e-05   0.38380405 6.5529006e-07            0    0.3838034    1.2969598    1.6807639    4.3107109 
  140000   0.87249988 -0.00012662089   0.39573469 4.430839e-05            0   0.39569038    1.2923904    1.6881251   -4.7948645 
  145000   0.88282618 2.5065026e-06   0.40818803            0            0   0.40818803    1.3076863    1.7158743    1.8442072 
  150000   0.97581766 0.00011871138    0.2893603            0            0    0.2893603    1.4454299    1.7347902     7.812813 
  155000   0.90502125 -0.00014853842   0.38837894            0            0   0.38837894    1.3405627    1.7289417   -5.8762253 
  160000      0.86677 -6.2694507e-05   0.42146572            0            0   0.42146572    1.2839031    1.7053688     -1.50459 
  165000   0.90396263 8.9802479e-05   0.37384127            0            0   0.37384127    1.3389946    1.7128359    6.3107229 
  170000   0.92176056 -0.00011598967   0.34809492            0            0   0.34809492    1.3653578    1.7134527   -4.2252183 
  175000    0.9084641 -0.00013390376    0.3686347            0            0    0.3686347    1.3456624    1.7142971   -5.1415751 
  180000   0.91396072 0.0001979747   0.39979013            0            0   0.39979013    1.3538043    1.7535945    11.889899 
  185000   0.89621081 -0.00022380531   0.44264563            0            0   0.44264563    1.3275123    1.7701579   -9.6886738 
  190000   0.93167986 2.3135159e-05   0.40187859            0            0   0.40187859    1.3800508    1.7819294    2.9664495 
  195000    0.9623988 0.00019317025   0.36362856            0            0   0.36362856    1.4255532    1.7891818    11.679499 
  200000   0.93145017 -0.00024520107   0.39935805            0            0   0.39935805    1.3797106    1.7790686   -10.775226 
  205000   0.95560404 0.0002241195   0.37273463            0            0   0.37273463    1.4154885    1.7882231    13.263142 
  210000    0.9893612 -5.357367e-05   0.33353601            0            0   0.33353601    1.4654913    1.7990273  -0.94394461 
  215000    0.9011753 -8.892781e-05   0.41443095            0            0   0.41443095    1.3348659    1.7492969    -2.803807 
  220000   0.92539835 0.00016494946   0.39497791 0.00030358098            0   0.39467433    1.3707463    1.7657242    10.211137 
  225000   0.90609853 -0.00010684383   0.42481305 0.0090931117            0   0.41571993    1.3421584    1.7669715   -3.7034324 
  230000   0.89116905 2.8235502e-05   0.46469351   0.01201203            0   0.45268148    1.3200442    1.7847377    3.2303954 
  235000   0.94264611 2.813715e-05   0.41679975 0.00012491232            0   0.41667484    1.3962945    1.8130943    3.2537164 
  240000   0.91815847 -9.6094676e-05   0.48166693            0            0   0.48166693    1.3600222    1.8416892   -3.0783583 
  245000   0.95360141 0.00018712384    0.4104616            0            0    0.4104616    1.4125221    1.8229837    11.403724 
  250000   0.90044345 -0.00022210211   0.52220109            0            0   0.52220109    1.3337819     1.855983   -9.5156449 
  255000   0.95407804 0.00019003032   0.46434949            0            0   0.46434949    1.4132281    1.8775776     11.60713 
  260000    1.0534098 -0.00013042977    0.3313965            0            0    0.3313965    1.5603633    1.8917598   -4.7862446 
  265000     1.042422 3.6534944e-05   0.33080175            0            0   0.33080175    1.5440875    1.8748893    3.7454784 
  270000    0.9721256 0.00010301433   0.44582573            0            0   0.44582573     1.439961    1.8857868    7.1601203 
  275000   0.94371516 -0.00012106867   0.50809276            0            0   0.50809276    1.3978781    1.9059708   -4.2927452 
  280000   0.99007203 6.3322608e-05   0.43192698            0            0   0.43192698    1.4665442    1.8984712    5.1405887 
  285000   0.97779394 1.3658757e-05   0.45012227            0            0   0.45012227    1.4483573    1.8984795    2.5978079 
  290000   0.92683035 -0.00017525774   0.53389333            0            0   0.53389333    1.3728675    1.9067608   -7.0664357 
  295000   0.91423095 9.6480105e-05   0.53572766            0            0   0.53572766    1.3542046    1.8899323    6.8297137 
  300000    1.0328672 -5.5449958e-05   0.37802425            0            0   0.37802425    1.5299345    1.9079588  -0.93107909 
  305000    1.0213796 -4.5362656e-05    0.3712083            0            0    0.3712083    1.5129185    1.8841268  -0.43844122 
  310000   0.94286634 0.00018071192   0.47403634            0            0   0.47403634    1.3966208    1.8706571    11.123108 
  315000   0.91862049 -0.00013393592   0.48587388            0            0   0.48587388    1.3607066    1.8465805   -5.0109386 
  320000   0.93508295 0.00023937107   0.43638847            0            0   0.43638847    1.3850916    1.8214801    14.077279 
  325000   0.90814234 -0.00014648786   0.49634117            0            0   0.49634117    1.3451858     1.841527   -5.6586512 
  330000   0.95970995 -3.6434582e-05   0.43485268            0            0   0.43485268    1.4215704     1.856423 -0.0090275512 
  335000   0.92753857 3.3000891e-05   0.43453275            0            0   0.43453275    1.3739165    1.8084492    3.4980948 
  340000    0.9394599 -0.00010135032   0.40693106            0            0   0.40693106     1.391575     1.798506   -3.3906303 
  345000    0.9316207 9.1039997e-05   0.41780187            0            0   0.41780187    1.3799632     1.797765    6.4590129 
  350000   0.90953066 -1.7429465e-05   0.43982111 0.0010048931            0   0.43881622    1.3472423    1.7870634   0.89467478 
  355000   0.93837808 -4.9837214e-05    0.4161448 0.0040573152            0   0.41208748    1.3899725    1.8061173  -0.74554803 
  360000   0.95393541 0.00018587232   0.40445011 0.0032748326            0   0.40117527    1.4130168    1.8174669     11.33413 
  365000   0.88604806 -0.0001311841   0.49269193 0.00067184536            0   0.49202008    1.3124587    1.8051506   -4.9114752 
  370000   0.91490304 8.1466733e-06   0.44120586            0            0   0.44120586    1.3552001     1.796406    2.2135157 
  375000   0.94295865 -8.3793712e-05   0.42210471            0            0   0.42210471    1.3967575    1.8188622   -2.4713759 
  380000   0.93692013 -6.9585595e-06   0.43087046            0            0   0.43087046    1.3878129    1.8186834    1.4624052 
  385000   0.95712794 -5.3122059e-05   0.39162731            0            0   0.39162731    1.4177458    1.8093731  -0.91047636 
  390000   0.93795444 -3.9530518e-05   0.45201751            0            0   0.45201751     1.389345    1.8413625  -0.18260002 
  395000   0.97993436 7.305692e-05   0.37670151            0            0   0.37670151    1.4515278    1.8282293    5.5687436 
  400000    0.8882802 -2.4469949e-05   0.51633101            0            0   0.51633101     1.315765    1.8320961   0.57923465 
  405000   0.90550098 -1.6664414e-05   0.49659229            0            0   0.49659229    1.3412733    1.8378656   0.98464764 
  410000   0.90609695 2.9383726e-05   0.50762123            0            0   0.50762123    1.3421561    1.8497773    3.3542241 
  415000   0.95739678 -7.4236847e-05   0.43696605            0            0   0.43696605     1.418144      1.85511   -1.9458166 
  420000   0.90234853 -1.7764991e-05   0.51704053            0            0   0.51704053    1.3366038    1.8536443   0.94407674 
  425000   0.89497218 0.00010195507   0.55499686            0            0   0.55499686    1.3256775    1.8806744    7.1007738 
  430000   0.90609373 -8.9872629e-05   0.53285499            0            0   0.53285499    1.3421513    1.8750063   -2.7264723 
  435000   0.90064285 0.00011131677   0.52884186 0.00099261091            0   0.52784925    1.3340772    1.8629191    7.5623375 
  440000   0.98097556 -0.00011116095   0.43396399 0.0065391499            0   0.42742484    1.4530701     1.887034   -3.8044065 
  445000   0.97878021 6.1490494e-05   0.43850772 0.0058852117            0   0.43262251    1.4498182    1.8883259    5.0366392 
  450000   0.90497432 9.4305708e-05   0.51548511 0.0037607947            0   0.51172432    1.3404932    1.8559783    6.6844306 
  455000   0.94147941 -0.00013803823    0.4795445 0.00010251281            0   0.47944199    1.3945664    1.8741109   -5.1934464 
  460000   0.95710302 4.6497123e-05   0.45281742            0            0   0.45281742    1.4177088    1.8705263     4.251179 
  465000   0.92864095 7.4450251e-05   0.49853279            0            0   0.49853279    1.3755494    1.8740822    5.6859351 
  470000   0.95366174 -3.5368367e-05   0.48157664            0            0   0.48157664    1.4126115    1.8941881  0.083327697 
  475000    1.0261619 0.0001118177   0.37317643            0            0   0.37317643    1.5200023    1.8931787    7.6182448 
  480000    1.0424192 4.2144655e-05   0.35224406            0            0   0.35224406    1.5440834    1.8963274    4.0541338 
  485000    1.0361984 -4.2959663e-05   0.36663465            0            0   0.36663465    1.5348688    1.9015035  -0.29803128 
  490000   0.95942429 6.1887935e-05   0.46207883            0            0   0.46207883    1.4211472    1.8832261    5.0518883 
  495000   0.95151524 -9.2155512e-05   0.45036102 0.00078155779            0   0.44957947    1.4094319     1.859793   -2.8585692 
  500000   0.96513728 4.6049998e-06   0.41375482 0.0011346031            0   0.41262022    1.4296096    1.8433644    2.0791404 
  505000   0.91229863 0.00019877487   0.49947744 0.00063809558            0   0.49883935    1.3513423    1.8508198    12.028093 
  510000   0.94912933 -5.0610053e-05   0.41133725 0.00030484699            0    0.4110324    1.4058978    1.8172351  -0.77399963 
  515000   0.99202996 3.4474395e-05   0.35995461 0.00029283582            0   0.35966178    1.4694444     1.829399     3.594488 
  520000   0.94953497 -4.6123451e-05   0.46193704 0.00072269335            0   0.46121435    1.4064987    1.8684357  -0.49308499 
  525000   0.91969339 3.039356e-06   0.50036276 0.00034293393            0   0.50001982    1.3622958    1.8626586    2.0182736 
  530000   0.88141173 5.4476984e-05   0.56654702            0            0   0.56654702    1.3055911    1.8721381    4.6613597 
  535000   0.92282377 -7.5552307e-05   0.52797392            0            0   0.52797392    1.3669327    1.8949066   -1.9733715 
  540000     1.004739 4.0337876e-05   0.39746733 0.00057288812            0   0.39689444    1.4882697     1.885737    3.9510362 
  545000   0.95034295 4.1679288e-05   0.46668539 0.0096804445            0   0.45700494    1.4076955    1.8743809    4.0083604 
  550000   0.93730832 9.2417766e-05   0.47678907  0.026202442            0   0.45058663    1.3883879     1.865177    6.5969666 
  555000   0.95748024 -0.00013206719   0.46249499 0.0021603098            0   0.46033468    1.4182676    1.8807626   -4.8810777 
  560000    1.0222173 -5.5175948e-05   0.40413775            0            0   0.40413775    1.5141593    1.9182971  -0.90671146 
  565000   0.98290423 0.00010191082   0.44645619            0            0   0.44645619    1.4559269    1.9023831    7.1202171 
  570000   0.95060752 -2.1662989e-05   0.49868476            0            0   0.49868476    1.4080874    1.9067721   0.79762709 
  575000    1.0073889 -6.2197556e-06    0.4157872            0            0    0.4157872    1.4921948     1.907982    1.5895305 
  580000   0.93567358 -7.6921778e-05   0.51222396            0            0   0.51222396    1.3859665    1.8981905   -2.0402046 
  585000   0.95135346 -7.4140164e-06   0.49035895            0            0   0.49035895    1.4091923    1.8995513    1.5199536 
  590000    0.9565594 2.3695988e-05    0.4939487 0.00079375329            0   0.49315495    1.4169036    1.9108523    3.1240869 
  595000   0.94369743 8.1614743e-05   0.52882321 0.0021712687            0   0.52665194    1.3978518     1.926675    6.1053499 
  600000   0.93532862 -2.2691106e-05   0.56239932 0.0025751881            0   0.55982413    1.3854555    1.9478548   0.78607022 
  605000    1.0612873 4.2613139e-05   0.39876078 0.0016561897            0   0.39710459    1.5720317    1.9707925    4.1525852 
  610000    1.0086844 3.7992951e-06   0.47130107 0.0017104395            0   0.46959063    1.4941138    1.9654149    2.1599388 
  615000    1.0697636 7.4567869e-05   0.38669874 0.0011084677            0   0.38559027    1.5845874    1.9712861     5.789161 
  620000    1.0530546 7.6976818e-05    0.4080608 0.0025525901            0   0.40550821    1.5598372     1.967898     5.909111 
  625000    1.0992273 -6.5742692e-05   0.36775414 0.0039763591            0   0.36377779    1.6282305    1.9959847   -1.3700412 
  630000    1.0489509 -8.2992484e-06   0.41687701  0.017458594            0   0.39941841    1.5537585    1.9706355     1.545714 
  635000   0.95412791 -0.0001547453   0.56979891  0.017427519            0   0.55237139     1.413302    1.9831009   -5.9398586 
  640000     1.045173 1.5120793e-05    0.4576434 0.0090470204            0   0.44859638    1.5481626    2.0058059    2.7799906 
  645000     1.018747 -7.8388068e-05   0.50159502 0.0022568661            0   0.49933815     1.509019     2.010614   -2.0028551 
  650000    1.0061271 -4.3364981e-05   0.52752474  0.010838444            0    0.5166863    1.4903258    2.0178505  -0.20243654 
  655000    1.0269728 -7.827539e-06    0.4810188  0.020080777            0   0.46093803    1.5212034    2.0022222    1.6014522 
  660000    1.0269309 4.7647324e-05   0.44646711  0.003056391            0   0.44341072    1.5211415    1.9676086    4.4071515 
  665000    1.0202821 9.6598531e-05   0.44557939 9.9458791e-05            0   0.44547993    1.5112929    1.9568723    6.9027171 
  670000    1.0242826 -3.9860087e-05   0.44299447            0            0   0.44299447    1.5172186     1.960213 -0.080623411 
  675000    1.0162159 0.00010850805   0.42529749            0            0   0.42529749    1.5052698    1.9305673    7.4861794 
  680000    1.0749017 -7.3225401e-05   0.30786264            0            0   0.30786264    1.5921982    1.9000608   -1.8490797 
  685000    0.9828335 -9.4229134e-06   0.43952745            0            0   0.43952745    1.4558221    1.8953496    1.4128964 
  690000   0.98834956 3.6692113e-05   0.44530958            0            0   0.44530958    1.4639928    1.9093024    3.7879385 
  695000    1.0450046 7.6056226e-05    0.3283777 0.00011463672            0   0.32826306    1.5479131    1.8762908    5.7703696 
  700000   0.95032779 1.0590594e-05   0.47606449 0.0014389544            0   0.47462553     1.407673    1.8837375    2.4259759 
  705000   0.95904563 -1.0616756e-05   0.46075592 0.0022279501            0   0.45852797    1.4205863    1.8813422    1.3377643 
  710000   0.98095872 -2.2057232e-05   0.42226536 0.00096849444            0   0.42129686    1.4530451    1.8753105   0.74598017 
  715000    1.0117546 1.147628e-05   0.38860344 0.0012877432            0    0.3873157    1.4986615    1.8872649    2.4748505 
  720000   0.98891218 -7.2749713e-05   0.44373407 0.0018620505            0   0.44187202    1.4648262    1.9085602    -1.816225 
  725000   0.99097782 2.7199503e-05   0.43421434   0.00110479            0   0.43310955    1.4678859    1.9021002    3.2947148 
  730000    1.0278184 -5.5834468e-06    0.3863757  0.001789934            0   0.38458577     1.522456    1.9088317    1.6229592 
  735000   0.98448599 0.00012637795   0.44353035 0.0041609135            0   0.43936944    1.4582699    1.9018002    8.3723511 
  740000   0.99119613 2.0861638e-05   0.48974169 0.0033828369            0   0.48635885    1.4682093     1.957951    3.0260668 
  745000    1.0167288 5.4113767e-05    0.4965795 0.0032226395            0   0.49335686    1.5060296     2.002609    4.7732339 
  750000   0.97854491 2.448476e-05   0.56135472 0.0084262248            0   0.55292849    1.4494696    2.0108244    3.2644441 
  755000    1.0730871 1.7831902e-05   0.43171835 0.0051732978            0   0.42654506    1.5895103    2.0212287    2.9342221 
  760000    1.0748007 -7.2482394e-05   0.41135938 0.0036322821            0   0.40772709    1.5920486     2.003408   -1.7076906 
  765000   0.96643542 -1.9021993e-05   0.53447433 0.0045000803            0   0.52997425    1.4315325    1.9660068   0.99208074 
  770000    1.0261016 -5.1420645e-05   0.44984252 0.0099336093            0   0.43990891     1.519913    1.9697555  -0.66298152 
  775000    1.0219653 -2.7862618e-05   0.44376141  0.008382052            0   0.43537936    1.5137861    1.9575475    0.5309814 
  780000   0.92673949 2.0008754e-05    0.6040534 0.00085782599            0   0.60319558    1.3727329    1.9767863    3.0012344 
  785000   0.95742564 3.456664e-05   0.56427427  0.017501408            0   0.54677286    1.4181867     1.982461    3.7522729 
  790000    1.0128229 9.8660067e-05   0.49242886  0.033069617            0   0.45935925     1.500244    1.9926728    7.0440683 
  795000    0.9880192 -0.00016398326   0.53388058   0.01753194            0   0.51634864    1.4635034     1.997384   -6.3985589 
  800000    1.0085545 4.6396396e-06   0.53802317  0.043625938            0   0.49439724    1.4939214    2.0319446    2.2694941 
  805000    1.0564187 1.0651143e-05   0.46082319 0.0031897984            0   0.45763339    1.5648203    2.0256434     2.570982 
  810000    1.0603084 -4.2143257e-05   0.45793434 0.0013193039            0   0.45661504    1.5705819    2.0285162  -0.12921855 
  815000    1.0425473 -1.0710836e-05   0.45737411  0.013855967            0   0.44351814    1.5442731    2.0016472    1.4532524 
  820000   0.95951721 -8.7495995e-06   0.56108778  0.038686633            0   0.52240114    1.4212849    1.9823726    1.5343932 
  825000     0.970965 0.00012490493   0.52357282 0.0078897829            0   0.51568304    1.4382419    1.9618147    8.3569469 
  830000   0.95790776 7.0914658e-05    0.5204491 0.0045700154            0   0.51587909    1.4189009      1.93935    5.5701805 
  835000   0.92244548 4.5112197e-07   0.55441005 0.0076406307            0   0.54676942    1.3663724    1.9207824    1.9438799 
  840000   0.93799148 3.255528e-05   0.52534504 0.0039047173            0   0.52144033    1.3893999    1.9147449    3.5815752 
  845000   0.94307822 6.1992819e-06   0.49682608 0.0028736664            0   0.49395242    1.3969346    1.8937607    2.2111639 
  850000   0.91651618 -1.4204231e-05   0.53784395  0.024197506            0   0.51364644    1.3575896    1.8954335    1.1681769 
  855000   0.99450694 -8.940301e-06    0.4602677  0.018035771            0   0.44223193    1.4731134    1.9333811    1.4756377 
  860000   0.93448192 -7.7334809e-05   0.55123749 0.0030189199            0   0.54821857    1.3842013    1.9354388   -2.0241034 
  865000   0.93170652 2.6058444e-06   0.55843501  0.006579342            0   0.55185567    1.3800903    1.9385253    2.0719445 
  870000   0.95316012 -0.00012190763   0.53525844  0.022267163            0   0.51299128    1.4118684    1.9471269   -4.2945439 
  875000     1.018797 -1.1983709e-05   0.42091999  0.011139341            0   0.40978065     1.509093     1.930013    1.3164471 
  880000   0.94899264 4.3688411e-05   0.53931819 0.0029004415            0   0.53641775    1.4056954    1.9450135    4.1818602 
  885000   0.96498837 7.9104344e-05    0.5188768 0.0029029071            0   0.51597389     1.429389    1.9482658    5.9984083 
  890000    1.0071361 -5.3995958e-05   0.44508869 0.0036103732            0   0.44147832    1.4918204    1.9369091  -0.82768395 
  895000   0.93988523 0.00011537691   0.54968448 0.0038858479            0   0.54579863     1.392205    1.9418895    7.8491874 
  900000    0.9723638 -0.00011228672   0.51313795 0.0024743379            0   0.51066362    1.4403139    1.9534518   -3.7956284 
  905000   0.98525592 9.1882192e-05   0.49298132 0.0026940824            0   0.49028724    1.4594103    1.9523917    6.6567599 
  910000    1.0080885 9.6367131e-05   0.46618452 0.0045943795            0   0.46159014     1.493231    1.9594155    6.8934127 
  915000    1.0094312 1.9809386e-05   0.44152968   0.01626827            0   0.42526141      1.49522    1.9367497    2.9509903 
  920000   0.92057371 4.2048051e-07   0.56882056  0.004171257            0    0.5646493    1.3635998    1.9324204     1.953949 
  925000   0.97405458 -6.2734874e-05    0.4979783 0.0048368909            0   0.49314141    1.4428183    1.9407966   -1.2712289 
  930000    1.0000757 -3.8965145e-05   0.49149222  0.013979142            0   0.47751308    1.4813622    1.9728544 -0.022161055 
  935000   0.97937772 -9.3216018e-05   0.51921583  0.012219408            0   0.50699642    1.4507032    1.9699191   -2.8027411 
  940000    1.0358691 -3.4163128e-05   0.44061207   0.00436343            0   0.43624864    1.5343811    1.9749932   0.22584108 
  945000    1.0230877 -6.5855986e-05   0.46009665 0.0066430783            0   0.45345357    1.5154486    1.9755452   -1.3962812 
  950000    1.0140944 0.00010476104   0.47775714  0.013683618            0   0.46407352    1.5021273    1.9798845    7.3436495 
  955000   0.95786987 8.2540419e-05   0.55242076  0.020602115            0   0.53181865    1.4188447    1.9712655     6.197335 
  960000   0.98120537 -3.6736815e-06   0.47537766  0.024109414            0   0.45126824    1.4534105    1.9287881    1.7406956 
  965000   0.95590817 -8.7546706e-05    0.4796824  0.023990654            0   0.45569174     1.415939    1.8956214     -2.58677 
  970000   0.91931772 -1.1387012e-05   0.51216944  0.010135078            0   0.50203436    1.3617394    1.8739088    1.2908938 
  975000   0.98668102 4.9677124e-05   0.41914321  0.011233467            0   0.40790975    1.4615213    1.8806645    4.4241332 
  980000   0.98058979 -5.0199797e-05    0.4086801 0.0084229938            0    0.4002571    1.4524986    1.8611787  -0.70905089 
  985000   0.93473119 0.00012024803   0.47776439  0.014312814            0   0.46345157    1.3845706     1.862335    8.0190343 
  990000   0.95577238 -0.00016395343   0.43815205  0.024102821            0   0.41404923    1.4157378    1.8538899   -6.5405256 
  995000   0.97969684 1.2086519e-05   0.40674833 0.00096003789            0   0.40578829    1.4511759    1.8579243     2.476754 
 1000000   0.83030046 -8.7036633e-05   0.59766239 0.00019173257            0   0.59747066    1.2298825    1.8275449   -2.6287307 
 1005000   0.90562835 0.00011008171   0.46927202 0.0013772272            0   0.46789479     1.341462     1.810734    7.4469175 
 1010000    0.9307458 -2.0700277e-05   0.42905362 0.0026532714            0   0.42640035    1.3786672    1.8077208   0.74786664 
 1015000   0.93943961 3.6515001e-05     0.385863 0.0045053909            0   0.38135761    1.3915449    1.7774079     3.646976 
 1020000   0.89638587 -0.00015415102   0.47254999 0.0091882643            0   0.46336172    1.3277716    1.8003216   -6.0922108 
 1025000   0.88105279 8.494588e-05    0.4919017 0.0038314933            0   0.48807021    1.3050594    1.7969611    6.1461902 
 1030000   0.93348993 -5.30573e-05   0.43913641            0            0   0.43913641     1.382732    1.8218684  -0.89466541 
 1035000   0.89696426 -5.9175186e-05    0.5086534            0            0    0.5086534    1.3286283    1.8372817   -1.1924878 
 1040000   0.86538514 -3.8986003e-05   0.53214131            0            0   0.53214131    1.2818517     1.813993  -0.18209031 
 1045000   0.96284406 -5.0990381e-05   0.41215234            0            0   0.41215234    1.4262128    1.8383651   -0.7723424 
 1050000   0.94697244 -5.4588991e-05   0.41170595 0.00020306441            0   0.41150289    1.4027029    1.8144089  -0.98054748 
 1055000   0.91027314 -4.9883083e-05   0.44704693   0.01045929            0   0.43658764    1.3483421     1.795389  -0.75862481 
 1060000   0.90769367 5.7846251e-05   0.46649446 0.0074148884            0   0.45907957    1.3445212    1.8110157    4.7727438 
 1065000   0.92655117 0.00012976848    0.4536092 0.0011968235            0   0.45241238    1.3724539    1.8260631    8.4702093 
 1070000   0.88732617 -1.8288019e-05   0.52167753 0.00014779875            0   0.52152973    1.3143519    1.8360294   0.89968283 
 1075000   0.88541376 6.7346258e-05   0.52924957 0.0018959491            0   0.52735362    1.3115191    1.8407687    5.2888971 
 1080000    0.8827407 -2.127763e-05   0.52545605 0.0061971575            0    0.5192589    1.3075597    1.8330157   0.74360108 
 1085000   0.94138662 8.3948749e-06    0.4247557  0.003379535            0   0.42137616    1.3944289    1.8191846    2.2490022 
 1090000   0.90441571 -1.6155625e-05   0.46589159 0.00064276062            0   0.46524883    1.3396658    1.8055573   0.97838933 
 1095000   0.91713189 -0.0001588665   0.47054686 0.0013661198            0   0.46918074    1.3585016    1.8290485   -6.3049162 
 1100000   0.82461001 -2.6908777e-05   0.61166984 0.0026504757            0   0.60901936    1.2214536    1.8331234   0.45539403 
 1105000   0.98035791 -1.6298428e-05   0.34338686 0.0010844786            0   0.34230238    1.4521552     1.795542   0.96106252 
 1110000    0.8873039 -6.3380081e-05   0.47540624 0.00019455864            0   0.47521168    1.3143189    1.7897251    -1.455335 
 1115000   0.89272489 7.9058461e-05   0.45342755 0.0021156054            0   0.45131195    1.3223487    1.7757763    5.8235695 
 1120000   0.93000319 4.5159033e-05   0.40269763   0.00292668            0   0.39977095    1.3775672    1.7802649    4.0924073 
 1125000   0.89659573 1.2867288e-05   0.46331438 0.0051288636            0   0.45818551    1.3280824    1.7913968    2.4502019 
 1130000   0.87395322 -7.4331169e-05   0.50238391 0.0084619209            0   0.49392199    1.2945432    1.7969271   -2.0088287 
 1135000   0.92831556 -6.8824439e-05   0.44102407 0.0085989816            0   0.43242509    1.3750674    1.8160915   -1.7077198 
 1140000   0.86602042 -9.059228e-05    0.5378008 0.0084844649            0   0.52931633    1.2827928    1.8205935   -2.8177312 
 1145000   0.91845247 4.2472682e-05   0.46846286   0.02446039            0   0.44400247    1.3604577    1.8289206    4.0035219 
 1150000   0.90021361 5.6228623e-05   0.49683117  0.013809122            0   0.48302205    1.3334414    1.8302726    4.7091781 
 1155000   0.90930145 1.546218e-05   0.49204313 0.0091838611            0   0.48285927    1.3469028    1.8389459    2.6306095 
 1160000   0.93415021 8.8056156e-05   0.46768201 0.0058362967            0   0.46184572      1.38371     1.851392    6.3598672 
 1165000   0.91927555 -5.4055182e-05   0.48424869  0.015800538            0   0.46844815    1.3616769    1.8459256  -0.92169974 
 1170000   0.98866346 -3.7192584e-05   0.37800291  0.020682663            0   0.35732024    1.4644577    1.8424607 -0.061799638 
 1175000   0.91770404 5.4147933e-05   0.47698082  0.028488337            0   0.44849249    1.3593491    1.8363299    4.6087041 
 1180000   0.87307174 2.9571044e-05   0.51809849  0.013304027            0   0.50479446    1.2932375     1.811336    3.3253735 
 1185000   0.84762261 6.712022e-05   0.55894823  0.016844895            0   0.54210334     1.255541    1.8144892    5.2510445 
 1190000   0.87915114 -2.935968e-05   0.50951482  0.035914903            0   0.47359992    1.3022426    1.8117575   0.30854182 
 1195000   0.86688958 3.0201203e-05   0.53624235 0.0068231391            0   0.52941921    1.2840802    1.8203225    3.3666242 
 1200000    0.8927375 -7.7275076e-06   0.50052866 0.00022311911            0   0.50030554    1.3223674    1.8228961    1.4272477 
 1205000   0.88967102 9.9067801e-05   0.50129637 0.0058037883            0   0.49549258    1.3178252    1.8191216     6.891393 
 1210000   0.87648356 0.00012150323   0.52354295  0.018179656            0    0.5053633    1.2982913    1.8218342    8.0427996 
 1215000   0.85194765 1.5956366e-05   0.55920166  0.021845951            0    0.5373557    1.2619474    1.8211491     2.638115 
 1220000   0.90155477 0.00013179335    0.5026789  0.026504589            0   0.47617432     1.335428    1.8381069    8.5859267 
 1225000   0.86747944 4.1347164e-05   0.56270147  0.015539468            0     0.547162    1.2849539    1.8476554    3.9646302 
 1230000   0.94904516 4.7432797e-05   0.46577053 0.0073700237            0   0.45840051    1.4057731    1.8715437    4.3001029 
 1235000    0.8723418 -3.9377025e-05   0.57891738  0.015033893            0   0.56388349    1.2921563    1.8710737  -0.14503003 
 1240000   0.86997466 5.3446321e-05   0.57708454   0.02023657            0   0.55684797      1.28865    1.8657345    4.6021861 
 1245000   0.92308509 0.00010993521   0.50838155 0.0086017819            0   0.49977977    1.3673198    1.8757013    7.5043841 
 1250000   0.85722616 4.3932369e-05   0.63213021   0.02635324            0   0.60577697    1.2697662    1.9018965    4.1512338 
 1255000   0.93853015 0.00014278181    0.5209549  0.040407112            0   0.48054779    1.3901978    1.9111527    9.2215815 
 1260000   0.91521297 8.3836306e-05   0.55637919  0.025091313            0   0.53128788    1.3556592    1.9120384    6.2044573 
 1265000   0.94407068 1.5391951e-05   0.52225149  0.011811481            0   0.51044001    1.3984047    1.9206562    2.7087241 
 1270000   0.90159518 5.7353399e-05   0.56945906  0.012561477            0   0.55689759    1.3354879    1.9049469     4.841441 
 1275000   0.96396879 0.00013357974   0.47481027  0.022512747            0   0.45229753    1.4278788     1.902689    8.7419719 
 1280000   0.90473937 -6.2769104e-05   0.54419928  0.023407986            0    0.5207913    1.3401452    1.8843445   -1.3294336 
 1285000   0.97397901 2.9933683e-05   0.44578341  0.006566499            0   0.43921691    1.4427064    1.8884898    3.4210944 
 1290000   0.98523427 9.0530854e-05   0.43234898 0.0020735728            0    0.4302754    1.4593783    1.8917272    6.5269069 
 1295000   0.92507755 -5.0074991e-05   0.50698403 0.00047549125            0   0.50650854    1.3702711    1.8772552  -0.68658438 
 1300000    0.8976742 -1.7947384e-06   0.56948849 8.1588965e-05            0    0.5694069    1.3296799    1.8991684    1.8072778 
 1305000    0.8676103 4.5459566e-05   0.60870678 0.0022420773            0    0.6064647    1.2851477    1.8938545    4.2213843 
 1310000   0.94685243 -3.890714e-05   0.48343097  0.011584381            0   0.47184658    1.4025252    1.8859561  -0.10608944 
 1315000   0.92572012 -0.00013596489   0.51660537  0.027318195            0   0.48928718    1.3712229    1.8878283   -5.0735742 
 1320000   0.86293426 7.1871897e-05   0.59423893  0.030061754            0   0.56417718    1.2782214    1.8724603    5.5523014 
 1325000   0.93129282 7.5903094e-05   0.47259761  0.016129872            0   0.45646774    1.3794775    1.8520751    5.7383135 
 1330000   0.88144616 -0.00013593389   0.55047179  0.004889249            0   0.54558254    1.3056421    1.8561139   -5.1037012 
 1335000   0.89314886 -2.3052025e-05   0.52491309 0.00072887783            0   0.52418422    1.3229767    1.8478898   0.66762617 
 1340000   0.86989851 0.00013798483   0.54732613 0.00025219386            0   0.54707394    1.2885372    1.8358633    8.9006864 
 1345000   0.87988302 2.5644102e-05   0.54835664 8.8046814e-05            0   0.54826859    1.3033267    1.8516834    3.1646614 
 1350000   0.92645747 7.5247523e-05   0.48417841 0.0012630135            0    0.4829154    1.3723151    1.8564935    5.7091667 
 1355000   0.92961484 6.0384587e-05   0.46974442 0.0043551577            0   0.46538926     1.376992    1.8467364    4.9384273 
 1360000   0.86896745 -3.266497e-05   0.53406612 0.0024558252            0   0.53161029     1.287158    1.8212242   0.14877767 
 1365000   0.89161496 3.6624022e-05   0.51059163 0.0040807696            0   0.50651086    1.3207047    1.8312963    3.7064462 
 1370000   0.82993256 0.00015002099   0.61171456  0.044595198            0   0.56711937    1.2293376    1.8410522    9.5221268 
 1375000   0.96714621 -8.6342267e-05   0.42757427  0.034990812            0   0.39258346    1.4325853    1.8601596   -2.5605645 
 1380000   0.93079142 -5.0303274e-05   0.48206685 0.0010099416            0   0.48105691    1.3787348    1.8608016  -0.71472597 
 1385000   0.91569951 5.1090853e-05   0.50012738 0.0021292393            0   0.49799814    1.3563799    1.8565073     4.472359 
 1390000   0.88085599 0.00017003978   0.56947679 0.0044048278            0   0.56507196    1.3047679    1.8742447    10.580282 
 1395000   0.94764622 0.0001808165   0.49239874 0.00074551678            0   0.49165323     1.403701    1.8960997    11.153904 
 1400000   0.95921204 -3.4983154e-05   0.48030532 0.00048023172            0   0.47982508    1.4208328    1.9011381   0.11000067 
 1405000   0.88148436 -3.4322479e-05   0.60634584   0.01314303            0   0.59320281    1.3056987    1.9120445   0.15473364 
 1410000   0.92692513 -4.3616947e-05   0.55222487 0.0097185174            0   0.54250635    1.3730078    1.9252327    -0.307955 
 1415000   0.98809266 -0.00015528433   0.49950104  0.008824658            0   0.49067638    1.4636123    1.9631133   -5.9874444 
 1420000    1.0307037 -4.9373101e-05   0.46786471 0.0089910151            0   0.45887369    1.5267299    1.9945946  -0.53330816 
 1425000    1.0585052 7.8157625e-05   0.44497913  0.007973173            0   0.43700596    1.5679108    2.0128899    6.0145603 
 1430000   0.99618589 -6.3847715e-05   0.54000836  0.033164291            0   0.50684407    1.4756004    2.0156087   -1.2533943 
 1435000   0.94728116 2.2424459e-05   0.62425008  0.014611393            0   0.60963869    1.4031602    2.0274103    3.1755426 
 1440000    1.0348996 9.4452204e-05   0.45847147  0.034913385            0   0.42355809     1.532945    1.9914165    6.8273693 
 1445000   0.99411655 -1.7788743e-05   0.51507038  0.017782512            0   0.49728787    1.4725351    1.9876055    1.0768219 
 1450000    1.0008771 -6.6396115e-05   0.50888994  0.020131831            0   0.48875811    1.4825492    1.9914391    -1.408042 
 1455000   0.93104937 -0.00015272504   0.58455835  0.035280672            0   0.54927768    1.3791169    1.9636752    -5.855847 
 1460000     0.877237 9.2524025e-06   0.67653981   0.03801574            0   0.63852407    1.2994073    1.9759471    2.4496701 
 1465000   0.97496787 3.5542931e-05   0.49748517  0.032035098            0   0.46545007    1.4441712    1.9416563    3.7614544 
 1470000   0.96467972 -3.1320656e-05   0.52462788  0.013278238            0   0.51134964    1.4289318    1.9535597    0.3499421 
 1475000   0.93242516 0.00015882157    0.6070798  0.027066861            0   0.58001294    1.3811548    1.9882346    10.119899 
 1480000    0.9406145 0.00016117545   0.62458823  0.032391907            0   0.59219633    1.3932852    2.0178735    10.270056 
 1485000   0.97551538 -4.1077623e-05   0.57179158 0.0078546814            0    0.5639369    1.4449822    2.0167737 -0.086400572 
 1490000    1.0014312 5.7765727e-05   0.52186936  0.031246272            0   0.49062309      1.48337    2.0052394    4.9628446 
 1495000   0.91413627 0.00013586217   0.67082921  0.023841837            0   0.64698737    1.3540644    2.0248936    8.9810367 
 1500000   0.97923269 1.5939618e-06   0.56669602  0.019993066            0   0.54670295    1.4504884    2.0171844    2.0987953 
 1505000     1.021051 1.5454599e-05   0.50974237  0.014064095            0   0.49567828    1.5124318    2.0221742    2.8134496 
 1510000    1.0016395 0.00010855591   0.54866851  0.016834869            0   0.53183364    1.4836785     2.032347    7.5904094 
 1515000    1.0143191 7.7646364e-05   0.53560997  0.015411088            0   0.52019889    1.5024602    2.0380702     6.013564 
 1520000    1.0224974 0.00012151253   0.56009061 0.0009754476            0   0.55911516    1.5145743    2.0746649    8.2961065 
 1525000    1.1625972 9.6144142e-05   0.34900128 0.0061718201            0   0.34282946    1.7220971    2.0710984    6.9936784 
 1530000   0.93823698 -8.6267362e-06   0.68797937  0.024702958            0   0.66327641    1.3897635    2.0777429     1.636054 
 1535000   0.94824083 1.0909392e-05   0.67028302  0.023881534            0   0.64640148    1.4045817    2.0748648    2.6334256 
 1540000   0.98116816 8.004059e-05   0.64184091  0.012137881            0   0.62970302    1.4533553    2.0951962    6.1932745 
 1545000   0.98108761 7.2720204e-05   0.64714591  0.012353073            0   0.63479283     1.453236    2.1003819    5.8236564 
 1550000    1.0183318 5.4384799e-05   0.56540128  0.030741383            0   0.53465989     1.508404    2.0738052    4.8583069 
 1555000   0.97682654 -7.5516404e-05   0.59227698  0.020495374            0   0.57178161    1.4469243    2.0392013   -1.8272386 
 1560000    1.0122219 -6.2597947e-05   0.50520739  0.016531607            0   0.48867578    1.4993536     2.004561   -1.2004538 
 1565000   0.89375956 -1.4971143e-05   0.68471639   0.02438194            0   0.66033445    1.3238814    2.0085977    1.2420752 
 1570000   0.96719828 -4.0634804e-05   0.59342268  0.017632051            0   0.57579063    1.4326624    2.0260851 -0.054416857 
 1575000   0.98807441 -6.4467637e-05   0.56309178  0.010120286            0   0.55297149    1.4635852     2.026677    -1.274066 
 1580000   0.97724627 -7.6282414e-05   0.55123881 0.0061164561            0   0.54512235     1.447546    1.9987848   -1.9068748 
 1585000   0.97514041 0.00014795525   0.55697255  0.006544865            0   0.55042769    1.4444267    2.0013993     9.576708 
 1590000   0.97140512 5.1637898e-05   0.55084816 0.0086747447            0   0.54217341    1.4388938     1.989742    4.6336024 
 1595000   0.95644836 -6.4308222e-05   0.58899266  0.013541429            0   0.57545123    1.4167391    2.0057318   -1.2868492 
 1600000   0.93077808 -5.6892429e-05   0.62991101  0.018157252            0   0.61175375     1.378715     2.008626  -0.90426631 
 1605000    1.0035247 -9.3920994e-05   0.49668851  0.007757406            0   0.48893111     1.486471    1.9831595   -2.8255954 
 1610000   0.95345384 -3.1616428e-05   0.62076093 0.0055130759            0   0.61524785    1.4123035    2.0330644    0.4143033 
 1615000    1.0418991 -7.9311064e-05   0.51357719 0.0027637194            0   0.51081347    1.5433131    2.0568903   -2.0038362 
 1620000   0.99851616   -7.171e-05   0.59607969  0.001513385            0   0.59456631    1.4790521    2.0751318   -1.5964202 
 1625000   0.95850924 -1.3594004e-05   0.64519077 0.0012412061            0   0.64394956    1.4197918    2.0649826    1.3689696 
 1630000    1.0288191 1.4905914e-05   0.57782207 0.0075592356            0   0.57026283    1.5239382    2.1017603    2.8649431 
 1635000   0.97581086 -4.9145001e-05    0.6844763 0.0067281335            0   0.67774816    1.4454198    2.1298961  -0.38632794 
 1640000    1.0553893 -5.4507035e-05   0.54293461 0.0051201421            0   0.53781447    1.5632954      2.10623  -0.68453017 
 1645000    1.0376029 2.3910082e-05   0.57821296  0.032977409            0   0.54523555    1.5369492    2.1151622    3.3393584 
 1650000    1.0212702 7.5079553e-05   0.60341923  0.039811364            0   0.56360786    1.5127565    2.1161757    5.9602488 
 1655000    1.0714221 0.00013025451    0.5731634 0.0027055514            0   0.57045785     1.587044    2.1602074    8.8292381 
 1660000    1.1054625 1.9199124e-05    0.5185322 0.0050830647            0   0.51344913    1.6374663    2.1559985    3.1389936 
 1665000    1.0333806 -7.8552083e-05   0.62721563  0.019904194            0   0.60731144     1.530695    2.1579106    -1.863956 
 1670000    1.0417875 -5.0892957e-05   0.61203337  0.010270926            0   0.60176244    1.5431478    2.1551812  -0.45053824 
 1675000     1.001677 -4.9701181e-05   0.68132745 0.0042570945            0   0.67707036    1.4837341    2.1650615  -0.37963891 
 1680000    1.0300649 -2.9987679e-05    0.6344222 0.0051173893            0   0.62930481    1.5257837    2.1602059   0.62483673 
 1685000    1.0488028 4.0982592e-05   0.60005343 0.0036664939            0   0.59638694    1.5535392    2.1535926    4.2519013 
 1690000   0.93357952 -5.6851668e-05   0.79238362  0.013561985            0   0.77882163    1.3828647    2.1752483  -0.73555715 
 1695000    1.0632857 -4.2653446e-05    0.5913958  0.028956447            0   0.56243935     1.574992    2.1663878 -0.017468655 
 1700000    1.0937417 -2.0387881e-05    0.5667114 0.0087356387            0   0.55797576    1.6201048    2.1868162    1.1429567 
 1705000    1.0774893 -6.4192785e-05   0.59918606 0.0073764405            0   0.59180962    1.5960311    2.1952171   -1.0914535 
 1710000    1.0210798 -3.2041006e-05   0.66225294  0.012949025            0   0.64930392    1.5124745    2.1747275   0.53422795 
 1715000   0.98831974 -7.2728349e-05   0.68734137  0.017167553            0   0.67017382    1.4639486      2.15129   -1.5724015 
 1720000   0.97643198 -2.6949161e-06   0.67329779 0.0072991301            0   0.66599866    1.4463399    2.1196377     1.981658 
 1725000    1.1139287 9.2191497e-05   0.45632326 0.0036016883            0   0.45272157    1.6500069    2.1063302    6.8265348 
 1730000   0.95465245 -2.99725e-05   0.68164607  0.008500001            0   0.67314607    1.4140789     2.095725   0.56113304 
 1735000    1.0568772 5.7984455e-05   0.54541918  0.016020556            0   0.52939862    1.5654994    2.1109186    5.0797227 
 1740000    1.0014711 0.00014866404   0.61347595  0.032869397            0   0.58060655     1.483429     2.096905    9.7085037 
 1745000    1.0613209 -1.1496426e-05   0.51752335  0.033350688            0   0.48417266    1.5720816    2.0896049    1.5009879 
 1750000   0.98866789 -4.601452e-05   0.66196162  0.023552119            0    0.6384095    1.4644643    2.1264259  -0.22951748 
 1755000   0.98482148 7.352208e-05   0.63881827   0.02658465            0   0.61223362    1.4587668    2.0975851    5.8619156 
 1760000    1.0486462 -4.9168237e-05   0.52700375  0.044502318            0   0.48250143    1.5533072     2.080311  -0.43710276 
 1765000    1.0033515 -7.6090532e-05   0.61345302  0.033333353            0   0.58011967    1.4862144    2.0996674   -1.7961678 
 1770000   0.93192175 2.1213747e-05   0.72315958  0.032475194            0   0.69068438    1.3804091    2.1035687    3.1897125 
 1775000    1.0101138 5.7212853e-05   0.60613578  0.035469825            0   0.57066596    1.4962311    2.1023669     5.031665 
 1780000   0.94114683 0.00017201528    0.6983225  0.061997398            0    0.6363251    1.3940737    2.0923962    10.899579 
 1785000    1.0482271 1.7827109e-05   0.55931339    0.0258439            0   0.53346949    1.5526865    2.1119998    3.0247478 
 1790000    1.0482405 4.3276119e-05   0.56441163  0.051080066            0   0.51333157    1.5527063    2.1171179    4.3328552 
 1795000    1.0310379 0.00011135796   0.58864289  0.030858912            0   0.55778397    1.5272249    2.1158678    7.8173952 
 1800000    1.0597834 -5.3595709e-05   0.56186976  0.048966867            0    0.5129029    1.5698041    2.1316739  -0.61242644 
 1805000    1.0356621 -9.6430493e-05   0.58899591  0.019872327            0   0.56912358    1.5340745    2.1230704   -2.8141708 
 1810000    1.1242527 8.7590273e-05   0.44575207  0.021466427            0   0.42428565    1.6652993    2.1110514    6.5956734 
 1815000    1.0879177 9.893248e-05    0.5000561   0.02325703            0   0.47679907    1.6114782    2.1115343    7.1768772 
 1820000     1.047691 -6.4885369e-05   0.53984494  0.025652617            0   0.51419233    1.5518923    2.0917373   -1.2303936 
 1825000   0.96865825 -0.00013414363   0.67078269 0.0026067989            0   0.66817589     1.434825    2.1056077   -4.7625461 
 1830000    1.0568196 2.5348304e-05   0.52747824  0.002719229            0   0.52475901    1.5654141    2.0928923    3.3907255 
 1835000    1.0166143  9.50884e-05   0.55418884  0.011677203            0   0.54251164      1.50586    2.0600488    6.9285749 
 1840000    1.0047142 3.0342361e-05   0.56737106  0.019146103            0   0.54822496    1.4882329    2.0556039    3.6091328 
 1845000   0.94354608 -6.6943487e-05   0.64733556  0.062395314            0   0.58494024    1.3976276    2.0449632   -1.3825433 
 1850000    1.0786079 4.1671076e-05   0.45589589  0.028661312            0   0.42723457     1.597688    2.0535838    4.1871429 
 1855000    1.0466841 1.4586772e-05   0.52459535  0.025505342            0   0.49909001    1.5504008    2.0749962    2.8218389 
 1860000    1.0700967 -3.5423937e-05   0.50923488  0.020713003            0   0.48852188    1.5850808    2.0943157   0.28061013 
 1865000    1.0045016 2.2993846e-06   0.63346941  0.030520029            0   0.60294939    1.4879179    2.1213874    2.2391158 
 1870000    1.0540834 -4.2707802e-05   0.56741361  0.051670292            0   0.51574332    1.5613611    2.1287747 -0.057864807 
 1875000    1.0973521 -3.6488741e-05   0.51141314  0.023982881            0   0.48743026    1.6254528    2.1368659    0.2686424 
 1880000    1.0663936 -7.7456641e-05   0.54588803  0.038651351            0   0.50723668    1.5795955    2.1254835   -1.8402965 
 1885000   0.97769267 -5.9473441e-05   0.66805931  0.063038899            0   0.60502041    1.4482073    2.1162666  -0.92877363 
 1890000    1.0591053 3.5692131e-06   0.54568359  0.016308032            0   0.52937555    1.5687997    2.1144833     2.297227 
 1895000    1.0462518 -1.6020496e-05   0.56119172 0.0010326346            0   0.56015909    1.5497604    2.1109522    1.2907028 
 1900000      1.07048 -2.4997079e-05   0.52369656 0.0016036619            0    0.5220929    1.5856485     2.109345   0.82949459 
 1905000    1.1105539 0.00016391175   0.46805425 0.0074022399            0   0.46065201     1.645008    2.1130622    10.505344 
 1910000    1.0923313 7.2368904e-05   0.51715591 0.0091614318            0   0.50799448    1.6180157    2.1351716    5.8404595 
 1915000   0.94215215 -7.2452729e-05   0.71268657  0.013436848            0   0.69924972    1.3955629    2.1082494   -1.6013303 
 1920000    1.0246026 0.00012153316   0.59456973  0.023673469            0   0.57089626    1.5176926    2.1122623    8.3347601 
 1925000    1.0364829 4.8355981e-05   0.61472514 0.0074525937            0   0.60727254    1.5352903    2.1500155    4.6258417 
 1930000    1.0383725 -8.9119122e-05   0.60556232 0.0051966021            0   0.60036572    1.5380892    2.1436516   -2.4192475 
 1935000    1.0420312 1.7679828e-05   0.60980253 0.0035728152            0   0.60622972    1.5435086    2.1533112    3.0585184 
 1940000    1.0491679 -9.1855288e-06   0.59398297  0.010931199            0   0.58305177    1.5540799    2.1480629    1.6777638 
 1945000    1.1090364 3.7718992e-05   0.50951053  0.009788541            0   0.49972199    1.6427601    2.1522707     4.083483 
 1950000    1.0691075 0.00019014412   0.55204512 0.0044792361            0   0.54756588    1.5836155    2.1356606     11.87104 
 1955000    1.1111077 -7.617484e-06   0.47686428 0.0055729098            0   0.47129137    1.6458283    2.1226926    1.7326774 
 1960000    1.1092147 -0.00013623688   0.49435684  0.011116267            0   0.48324057    1.6430242    2.1373811   -4.8379471 
 1965000    1.0595026 3.6926427e-05   0.52043128 0.0038632612            0   0.51656801    1.5693883    2.0898196    3.9804527 
 1970000    1.0566018 6.3590966e-05   0.49861755            0            0   0.49861755    1.5650914     2.063709    5.3195664 
 1975000    1.0966583 -9.6877096e-05   0.43442855  0.004783542            0   0.42964501    1.6244251    2.0588536   -2.9012537 
 1980000    1.0186143 -0.00014074941   0.57940669  0.014408845            0   0.56499785    1.5088224    2.0882291   -5.1181409 
 1985000    1.0552108 -4.1805339e-06   0.49823945 0.0034341961            0   0.49480525     1.563031    2.0612704    1.8472271 
 1990000    1.1061948 2.5530177e-05   0.43190511 0.0012732413            0   0.43063186    1.6385511    2.0704562    3.3776013 
 1995000    1.0691261 -4.8201864e-05   0.50702961 0.0058361857            0   0.50119343     1.583643    2.0906726  -0.37726279 
 2000000    1.0531404 -9.629423e-05   0.55526363   0.01653516            0   0.53872847    1.5599642    2.1152278   -2.8150367 
 2005000    1.0233576 -5.3163029e-05   0.59267332  0.017354895            0   0.57531842    1.5158484    2.1085217  -0.61342538 
 2010000    1.1065502 -1.2246931e-05   0.48921012  0.032924018            0    0.4562861    1.6390774    2.1282876    1.5012447 
 2015000    1.1551133 -0.00010284859   0.43970009  0.026006296            0   0.41369379    1.7110116    2.1507117   -3.1151358 
 2020000    1.0954957 -2.7354741e-05   0.53558041 0.0053043785            0   0.53027603     1.622703    2.1582835   0.75772072 
 2025000    1.1216145 3.5573129e-05    0.5456754 0.0018530681            0   0.54382233    1.6613915    2.2070669    4.0284111 
 2030000     1.106492 -8.4044964e-06   0.55838663 0.0037708062            0   0.55461583    1.6389913     2.197378    1.7670677 
 2035000    1.0894732 1.8275792e-05   0.58116771  0.025528815            0    0.5556389    1.6137821    2.1949498    3.1306704 
 2040000    1.1266368 5.7886609e-05   0.53055611   0.03616201            0    0.4943941    1.6688307    2.1993868    5.1631812 
 2045000    1.1235524 -6.0466305e-05   0.51909899  0.014985433            0   0.50411356     1.664262     2.183361  -0.91251384 
 2050000      1.11102 1.4222086e-06   0.52185594  0.044515813            0   0.47734012    1.6456983    2.1675543    2.2403713 
 2055000    1.0479393 -4.458919e-08   0.61120903  0.040774296            0   0.57043473    1.5522601    2.1634691    2.1611861 
 2060000    1.0851455 -3.0949546e-05   0.54125193 0.0077862982            0   0.53346563    1.6073718    2.1486237   0.56400696 
 2065000    1.0193741 9.7217662e-06   0.63643739  0.018117887            0   0.61831951    1.5099479    2.1463853    2.6441397 
 2070000    1.1408371 1.9701977e-05   0.47069166  0.030479999            0   0.44021166    1.6898649    2.1605565    3.1692978 
 2075000    1.1311548 0.00012257215   0.44583772  0.028297805            0   0.41753992     1.675523    2.1213607    8.3970547 
 2080000   0.97411333 7.9258146e-05   0.67526622  0.055657063            0   0.61960916    1.4429054    2.1181716    6.1761887 
 2085000    1.0247499 -0.00013095414   0.61779447  0.035038833            0   0.58275563    1.5179107    2.1357052    -4.569147 
 2090000    1.1020715 -1.8449202e-05   0.48982095 0.0083264088            0   0.48149454    1.6324434    2.1222643    1.1776652 
 2095000    1.0081623 0.00013197243   0.60363116 0.0039766903            0   0.59965447    1.4933404    2.0969716      8.85396 
 2100000    1.0985573 -1.2965806e-05    0.4880326  0.003376148            0   0.48465645     1.627238    2.1152706    1.4514214 
 2105000    1.0617383 -0.00010606422   0.54166064  0.010116992            0   0.53154364    1.5726999    2.1143605   -3.3161273 
 2110000    1.1398702 3.9627538e-05   0.44770428  0.019456078            0   0.42824821    1.6884328    2.1361371     4.165067 
 2115000    1.0702305 0.00013761197   0.57447244  0.056382204            0   0.51809024    1.5852789    2.1597513     9.205484 
 2120000    1.1340581 3.2279272e-05   0.48444683  0.018329272            0   0.46611756    1.6798236    2.1642705    3.8169692 
 2125000    1.1373125 6.2017797e-05   0.48382532 0.0027481508            0   0.48107717    1.6846442    2.1684695    5.3437807 
 2130000    1.0238148 0.00010568596   0.65278911  0.011364359            0   0.64142475    1.5165257    2.1693148    7.5804358 
 2135000    1.0676487 6.8410319e-05   0.58351191  0.017935194            0   0.56557672    1.5814546    2.1649665    5.6675748 
 2140000     1.111149 -1.1467406e-06    0.4867836 0.0099142462            0   0.47686935    1.6458894     2.132673    2.0739599 
 2145000    1.1665958 -0.00016538112   0.43092022  0.015065091            0   0.41585513      1.72802    2.1589402   -6.3085731 
 2150000    1.1637365 -0.00011633564   0.46101113  0.025562091            0   0.43544904    1.7237847    2.1847958    -3.771589 
 2155000    1.0857696 -4.3341027e-05   0.58142407  0.050068734            0   0.53135534    1.6082962    2.1897203 -0.029340296 
 2160000    1.0682649 -0.00017022925   0.60821647   0.01735046            0   0.59086601    1.5823674    2.1905838   -6.5251538 
 2165000    1.1504129 -0.00013624698   0.48136239 0.0054442753            0   0.47591812    1.7040491    2.1854115   -4.7904339 
 2170000    1.2078029 9.0612897e-06    0.3711183 0.0020741003            0    0.3690442     1.789058    2.1601763    2.6241143 
 2175000    1.1729255 6.6394248e-06   0.42916348 0.0088115552            0   0.42035193    1.7373959    2.1665594    2.5064979 
 2180000    1.0690961 -3.7112439e-05   0.59355348  0.019118877            0   0.57443461    1.5835986     2.177152   0.27699515 
 2185000    1.0570069 -5.6645311e-05   0.61542413  0.035639478            0   0.57978465    1.5656914    2.1811156  -0.71912432 
 2190000    1.1061104 2.1669775e-05    0.5562328  0.035546388            0   0.52068641     1.638426    2.1946588    3.3041513 
 2195000    1.0398575 6.0596521e-05    0.6168203  0.094837416            0   0.52198289     1.540289    2.1571093    5.2596511 
 2200000    1.0295909 0.00014297994   0.62551972  0.029824447            0   0.59569527    1.5250815    2.1506012    9.4711744 
 2205000    1.0697588 4.7456854e-05   0.55355092  0.013561085            0   0.53998983    1.5845802    2.1381311    4.5679221 
 2210000    1.1138675 -4.4040437e-05    0.4817277  0.013865594            0   0.46786211    1.6499163     2.131644  -0.12322638 
 2215000    1.0786099 4.4243656e-05   0.56046658 0.0040202193            0   0.55644636    1.5976909    2.1581574    4.4234326 
 2220000    1.0549003 -5.3640888e-06   0.59272616 0.0019062047            0   0.59081996     1.562571    2.1552972    1.8806559 
 2225000    1.1314198 3.6175013e-05   0.47394245  0.010937433            0   0.46300501    1.6759156     2.149858    4.0020187 
 2230000    1.0242594 -8.4338292e-06   0.66262274  0.017504554            0   0.64511818    1.5171842    2.1798069    1.7479949 
 2235000    1.0492072 9.6949902e-06   0.59371315 0.0075254292            0   0.58618772    1.5541382    2.1478514    2.6442348 
 2240000    1.0179251 2.3248206e-05   0.59379414  0.035815388            0   0.55797875    1.5078016    2.1015958    3.2919039 
 2245000     1.055256 -7.9312285e-05   0.55582222  0.032546761            0   0.52327546     1.563098    2.1189202   -1.9418688 
 2250000    1.0826787 7.1104834e-05   0.53142422  0.036743945            0   0.49468028    1.6037178    2.1351421    5.7757095 
 2255000    1.0622976 8.9616892e-05   0.55596374  0.021959866            0   0.53400388    1.5735283    2.1294921    6.7178769 
 2260000    1.0841974 7.766019e-05   0.54034558  0.017297594            0   0.52304799    1.6059674     2.146313    6.1225147 
 2265000     1.076053 -1.065702e-05   0.55607196  0.048936868            0   0.50713509    1.5939035    2.1499754     1.604336 
 2270000    1.0988458 -0.00012165881    0.5171648  0.015565517            0   0.50159928    1.6276653    2.1448301   -4.0841009 
 2275000    1.0660484 -1.3159103e-05   0.56521111  0.015063116            0   0.55014799    1.5790842    2.1442953    1.4705492 
 2280000    1.0570879 3.5894903e-05   0.57258211   0.02518463            0   0.54739748    1.5658115    2.1383936    3.9762126 
 2285000    1.1125137 -2.320838e-05   0.49036006  0.035485992            0   0.45487406    1.6479109     2.138271   0.95000192 
 2290000    1.0225078 3.4343911e-05   0.58851503  0.052016599            0   0.53649843    1.5145897    2.1031048     3.861513 
 2295000    1.0256813 6.3020133e-05   0.60720609  0.017558569            0   0.58964752    1.5192904    2.1264965    5.3531273 
 2300000   0.96175529 -4.2381687e-05   0.65397883  0.028416954            0   0.62556188       1.4246    2.0785789 -0.091363515 
 2305000   0.98089916 -3.1870715e-05   0.64583145  0.057317762            0   0.58851369    1.4529569    2.0987883   0.46700773 
 2310000    1.0780653 9.2309071e-05   0.50699659  0.020138131            0   0.48685846    1.5968843    2.1038809    6.8301053 
 2315000    1.0914202 3.871505e-05   0.50789703   0.03082767            0   0.47706936    1.6166661    2.1245632    4.1067737 
 2320000   0.99831442 -2.2053562e-05   0.64795309  0.069511186            0   0.57844191    1.4787532    2.1267063   0.99756393 
 2325000    1.0294147 3.8301336e-05    0.6376853  0.062928052            0   0.57475725    1.5248205    2.1625058    4.1235342 
 2330000    1.0692422 3.5646415e-05   0.54249234  0.029308348            0   0.51318399     1.583815    2.1263073    3.9514037 
 2335000    1.0266058 6.4520434e-06   0.61579072  0.022038481            0   0.59375224    1.5206599    2.1364506    2.4667953 
 2340000    1.0588952 7.3536136e-06    0.5502796  0.026990205            0   0.52328939    1.5684885    2.1187681    2.4952731 
 2345000    1.0198153 -2.73959e-05   0.60143724  0.061652336            0    0.5397849    1.5106015    2.1120387   0.70936864 
 2350000    1.0286218 6.4104406e-05   0.58549993   0.03497417            0   0.55052576     1.523646    2.1091459    5.3912915 
 2355000    1.0236848 0.00012265311   0.58798162  0.012764059            0   0.57521756    1.5163331    2.1043147    8.3841537 
 2360000    1.0799232 -3.6416327e-05   0.51480618  0.019605114            0   0.49520106    1.5996362    2.1144424   0.24992643 
 2365000    1.1013051 -0.00010899472   0.45661652  0.022232943            0   0.43438358    1.6313082    2.0879248   -3.4926048 
 2370000    1.0256394 -1.2788706e-05   0.57160562  0.028969467            0   0.54263616    1.5192284     2.090834    1.4360522 
 2375000    0.9978663 -7.6238878e-06   0.58623748  0.011609685            0    0.5746278    1.4780895    2.0643269    1.6739839 
 2380000    1.0720014 4.4587893e-05   0.49172067 0.0016268124            0   0.49009386    1.5879021    2.0796228    4.3625229 
 2385000    1.0292566 2.4974758e-05   0.54260074   0.02273269            0   0.51986805    1.5245864    2.0671871    3.3458947 
 2390000   0.96172325 -3.0598173e-05   0.65625466  0.068018695            0   0.58823596    1.4245526    2.0808072   0.51418076 
 2395000    1.0242208 -7.5522156e-05   0.59890891  0.051092513            0    0.5478164     1.517127    2.1160359   -1.7506984 
 2400000   0.99860937 -0.00011705154   0.63228276  0.011969235            0   0.62031353    1.4791901    2.1114729   -3.8815658 
 2405000    1.0559773 -9.8690935e-05   0.53038648 0.0095332447            0   0.52085323    1.5641663    2.0945528   -2.9584231 
 2410000    1.1301878 -5.4382977e-05   0.43620896  0.024831278            0   0.41137769    1.6740907    2.1102996  -0.67410878 
 2415000    1.0777864 7.1642325e-05   0.51355984  0.032608056            0   0.48095179    1.5964711     2.110031     5.778118 
 2420000    1.0579581 5.5286478e-05   0.55175823 0.0088333305            0    0.5429249    1.5671005    2.1188587    4.9495264 
 2425000    1.0660166 -8.0010765e-05   0.54712921  0.048469821            0   0.49865938    1.5790371    2.1261664   -1.9703848 
 2430000    1.0555906 5.3030782e-05    0.5546703  0.060457281            0   0.49421302    1.5635936    2.1182639    4.8334399 
 2435000   0.96487618 0.00012305885   0.70257862  0.042639334            0   0.65993929    1.4292228    2.1318015    8.4324145 
 2440000    1.0650875 -0.00010441521   0.54239811  0.039058684            0   0.50333943    1.5776609     2.120059   -3.2259997 
 2445000    1.0308823 -0.00010817842    0.5492931  0.039246219            0   0.51004688    1.5269943    2.0762874   -3.4624476 
 2450000    1.0642407 3.1377131e-05   0.53091055  0.010894028            0   0.52001652    1.5764065     2.107317    3.7138261 
 2455000    1.0503528 1.4156511e-05   0.54932049  0.017858177            0   0.53146231    1.5558351    2.1051556     2.829969 
 2460000    1.0470316 -6.0890198e-05   0.54295068  0.062727434            0   0.48022325    1.5509155    2.0938662   -1.0237119 
 2465000    1.0499081 2.7855288e-05   0.52916561  0.031888914            0   0.49727669    1.5551764     2.084342    3.5105327 
 2470000     1.090362 0.00012128512   0.49185493  0.007129317            0   0.48472561    1.6150988    2.1069537    8.3167516 
 2475000    1.1567603 5.1259627e-05   0.40157708  0.020303961            0   0.38127312    1.7134513    2.1150283    4.7395213 
 2480000   0.97373499 -7.4365666e-05   0.69039121  0.030293847            0   0.66009736     1.442345    2.1327362   -1.6747859 
 2485000    1.1305535 -7.8778709e-05    0.4427401 0.0027939985            0    0.4399461    1.6746324    2.1173725   -1.9160974 
 2490000    1.0772515 6.7778103e-06   0.53531203 0.0052994015            0   0.53001263    1.5956788    2.1309909    2.4780148 
 2495000    1.0004088 0.00011625992   0.63321414  0.012928878            0   0.62028526    1.4818555    2.1150696    8.0675773 
 2500000   0.98054786 3.7712252e-05   0.61903517  0.028655538            0   0.59037964    1.4524365    2.0714717     4.002339 
 2505000    1.0805405 -0.00012776797   0.45459738  0.020245326            0   0.43435205    1.6005506     2.055148   -4.4865719 
 2510000    1.0739693 -8.5927223e-05   0.47927366 0.0080296596            0     0.471244     1.590817    2.0700907   -2.3293831 
 2515000     1.017476 3.3298626e-05   0.53698159  0.010023885            0    0.5269577    1.5071363    2.0441179    3.7490076 
 2520000    1.0509467 7.3037346e-05   0.48749952 0.0096963248            0   0.47780319    1.5567147    2.0442143    5.7837264 
 2525000    1.0657613 -2.2346317e-05   0.46655895  0.018903055            0    0.4476559    1.5786589    2.0452179   0.90108643 
 2530000    1.0163307 -2.4015556e-05   0.55010151  0.011354516            0     0.538747    1.5054398    2.0555413   0.82594484 
 2535000   0.95021692 3.1048233e-05   0.62544657 0.0032354724            0   0.62221109    1.4075088    2.0329554    3.6226249 
 2540000    1.0127782 -6.2050901e-05   0.56701988  0.022404556            0   0.54461533    1.5001776    2.0671975   -1.1098086 
 2545000    1.0701454 -7.3652297e-05   0.48167381  0.046930508            0    0.4347433    1.5851529    2.0668267   -1.7041709 
 2550000    1.0814842 2.7420761e-05   0.47531126  0.022053086            0   0.45325817    1.6019485    2.0772597    3.4812027 
 2555000   0.98737893 -7.0072385e-06   0.61132277  0.016869157            0   0.59445361     1.462555    2.0738778    1.7151072 
 2560000    1.0060396 -6.5778981e-05   0.58125085  0.036736148            0    0.5445147    1.4901962     2.071447   -1.2964368 
 2565000    1.0001968 -6.2446197e-05   0.59570549  0.036127054            0   0.55957844    1.4815415     2.077247   -1.1199983 
 2570000    0.9614257 -6.5528335e-05   0.64677821  0.027630503            0   0.61914771    1.4241118      2.07089   -1.2841607 
 2575000    1.0260323 -7.3389775e-05   0.59098846     0.051843            0   0.53914546    1.5198104    2.1107988   -1.6467576 
 2580000    1.0177192 -5.0261937e-05    0.6197126  0.045487731            0   0.57422487    1.5074966    2.1272092  -0.44620195 
 2585000   0.99773384 -5.5197016e-05   0.61881194  0.011421588            0   0.60739035    1.4778932    2.0967052  -0.72938201 
 2590000    1.0165243 -4.7899914e-05   0.57699145 0.0018092343            0   0.57518222    1.5057266    2.0827181   -0.3697575 
 2595000    1.0280508 -4.38689e-05   0.55495739 0.0010816259            0   0.55387576    1.5228003    2.0777577  -0.16832999 
 2600000    1.0254899 -1.1707623e-05   0.55372397  0.004560504            0   0.54916346    1.5190069    2.0727308    1.4733005 
 2605000   0.98305525 3.5767942e-05   0.59700967 0.0053929257            0   0.59161675    1.4561506    2.0531603    3.8844789 
 2610000    1.0254418 -2.2087334e-06   0.54705273  0.026153453            0   0.52089928    1.5189357    2.0659885    1.9529013 
 2615000   0.97733697 8.2531192e-05   0.61879955  0.034882734            0   0.58391682    1.4476804    2.0664799     6.292077 
 2620000   0.93434409 4.5692523e-05   0.71373729   0.03238982            0   0.68134747    1.3839972    2.0977345    4.4371916 
 2625000   0.93540633 -8.1151798e-05   0.70161862  0.033511294            0   0.66810732    1.3855706    2.0871892   -2.0677828 
 2630000   0.94089864 -2.1726671e-05   0.70034199  0.047531557            0   0.65281043    1.3937061    2.0940481   0.98164255 
 2635000   0.98117723 3.1750407e-05    0.6162761  0.026129629            0   0.59014647    1.4533688    2.0696449    3.6952657 
 2640000   0.99349269 -5.0620929e-05   0.63764183  0.010521262            0   0.62712057     1.471611    2.1092529  -0.48253867 
 2645000    1.0371722 -0.00017230004   0.57587779  0.021684735            0   0.55419305    1.5363114    2.1121892   -6.7095729 
 2650000    1.0710769 -0.00010754144   0.54421482 0.0032503823            0   0.54096444    1.5865326    2.1307475   -3.3753743 
 2655000    1.0841815 -1.9953316e-05   0.53426212 0.0052189745            0   0.52904314    1.6059438     2.140206    1.1185962 
 2660000    1.0416576 -2.8174602e-05   0.58088632  0.015164338            0   0.56572198    1.5429554    2.1238417   0.68130204 
 2665000    1.0325761 3.568747e-05   0.61328184  0.010803691            0   0.60247815    1.5295033    2.1427852    3.9699837 
 2670000    1.1265125 9.3815928e-05   0.45902349 0.0079221517            0   0.45110133    1.6686466    2.1276701    6.9310457 
 2675000    1.0143617 5.8386377e-05   0.65175519 0.0014392904            0    0.6503159    1.5025232    2.1542784    5.1436609 
 2680000    1.0017113 0.00010186066   0.62394709 0.0014288105            0   0.62251828    1.4837849     2.107732    7.3229979 
 2685000    1.0478849 1.545724e-05   0.55835793 0.0027494334            0    0.5556085    1.5521794    2.1105374    2.9019481 
 2690000    1.0771982 9.4099998e-06   0.51113493  0.037560894            0   0.47357404    1.5955999    2.1067348    2.5885268 
 2695000   0.95694049 7.6388078e-05    0.6591118     0.100954            0    0.5581578    1.4174681    2.0765799    5.9876495 
 2700000   0.90308319 5.4482478e-05    0.7276616  0.044182865            0   0.68347873     1.337692    2.0653536    4.8548565 
 2705000    0.9818304 -6.4542757e-05   0.58812642  0.016197916            0   0.57192851    1.4543363    2.0424627   -1.2621264 
 2710000   0.96699082 -8.4885193e-05   0.60556427 0.0066419297            0   0.59892234    1.4323552    2.0379194   -2.3082025 
 2715000    1.0585021 -0.00012518153   0.50016285 0.0040255217            0   0.49613733    1.5679062    2.0680691   -4.3412252 
 2720000    1.0234859 -9.7694006e-05   0.54918489  0.010736001            0   0.53844889    1.5160385    2.0652234   -2.9367097 
 2725000    1.0128053 -2.0866944e-05   0.57184995  0.045753561            0   0.52609639    1.5002178    2.0720678    1.0036802 
 2730000   0.98362827 1.9773949e-05   0.58614452  0.075887835            0   0.51025669    1.4569994    2.0431439    3.0555701 
 2735000    1.0168004 0.00011796041   0.52707787  0.050305208            0   0.47677266    1.5061356    2.0332135    8.0727866 
 2740000    1.0281491 -2.5906033e-05   0.49699618  0.038181379            0    0.4588148    1.5229458     2.019942   0.69355309 
 2745000   0.95379915 -8.6772321e-05    0.5813578 0.0053072867            0   0.57605052     1.412815    1.9941728   -2.4485701 
 2750000   0.99721672 -1.5219199e-05   0.53712172 0.00018710061            0   0.53693462    1.4771273     2.014249     1.235026 
 2755000   0.98109894 -4.3494293e-05    0.5401069 0.00055349609            0   0.53955341    1.4532528    1.9933597   -0.2335481 
 2760000   0.94124848 -1.4433465e-05   0.57054434  0.011418863            0   0.55912547    1.3942243    1.9647686    1.2257752 
 2765000   0.93117983 -4.7345278e-05   0.59709713   0.03655078            0   0.56054635    1.3793101    1.9764073  -0.44767095 
 2770000   0.97944906 -2.9044037e-05   0.53233492  0.020819613            0   0.51151531    1.4508089    1.9831438   0.49608912 
 2775000   0.96249099 1.0375709e-05   0.54402955  0.010800515            0   0.53322903    1.4256898    1.9697193    2.5009556 
 2780000    1.0252694 0.0001067357   0.43855131  0.017101626            0   0.42144969    1.5186803    1.9572316    7.4220995 
 2785000    1.0106306 0.00015403227   0.49192725   0.02238243            0   0.46954482    1.4969966    1.9889238    9.8753759 
 2790000   0.95573773 -4.6801284e-05   0.55529586  0.024724721            0   0.53057114    1.4156865    1.9709824  -0.42524336 
 2795000   0.91301881 -8.1940672e-06   0.62286861  0.060982574            0   0.56188604    1.3524091    1.9752777    1.5557415 
 2800000   0.98176709 -4.0047874e-05   0.53572982  0.052646896            0   0.48308293    1.4542425    1.9899723 -0.060478833 
 2805000    0.9383185 6.6387206e-05   0.60878394  0.014766179            0   0.59401776    1.3898843    1.9986682    5.3976932 
 2810000    1.0609819 -2.5535633e-06   0.46240777  0.010460515            0   0.45194725    1.5715794    2.0339872    1.9032447 
 2815000    1.1123361 3.5280194e-05   0.40742379 0.0048844617            0   0.40253933    1.6476479    2.0550717    3.8614176 
 2820000    1.0642104 1.245635e-05   0.44143509 0.0094645756            0   0.43197051    1.5763617    2.0177968    2.6555619 
 2825000    1.0197606 -4.9707597e-05   0.49952119   0.02049976            0   0.47902143    1.5105203    2.0100415  -0.53498745 
 2830000   0.94173386 0.00011599441   0.61734991  0.022706482            0   0.59464343    1.3949433    2.0122932    7.9512068 
 2835000   0.96296885 -6.4272768e-05   0.56309442 0.0080197096            0   0.55507471    1.4263976     1.989492   -1.3012737 
 2840000   0.99968541 3.5066611e-05   0.50719387  0.012937281            0   0.49425658     1.480784    1.9879779    3.7833884 
 2845000   0.89535712 4.9753083e-06   0.67222862  0.042678957            0   0.62954967    1.3262477    1.9984764    2.2532121 
 2850000    1.0193485 -4.1588186e-05   0.51553735  0.032960158            0   0.48257719    1.5099099    2.0254472  -0.10386788 
 2855000   0.93993691 0.00019512526   0.63115445  0.051095793            0   0.58005866    1.3922815     2.023436    12.013849 
 2860000    1.0543999 3.764852e-05   0.46325482  0.023489394            0   0.43976542    1.5618298    2.0250846    3.9526888 
 2865000    1.0059808 -0.00014816825   0.54497057  0.020277721            0   0.52469285    1.4901091    2.0350797    -5.551135 
 2870000   0.92429393 -7.3860727e-05   0.64741105  0.032281787            0   0.61512927    1.3691104    2.0165214   -1.7651478 
 2875000    1.0486428 -2.4943046e-05   0.46872808 0.0074509083            0   0.46127717    1.5533021    2.0220302   0.74494622 
 2880000     1.056192 3.7977945e-05   0.46231274 0.0046369882            0   0.45767575    1.5644844    2.0267971     3.971268 
 2885000   0.96867168 0.00018122481   0.58741628  0.017217198            0   0.57019909    1.4348449    2.0222612    11.300972 
 2890000    1.0284887 0.00012571937   0.52260814  0.027134607            0   0.49547353    1.5234489     2.046057    8.4828886 
 2895000   0.99579465   2.6636e-06   0.57540332  0.055511442            0   0.51989187    1.4750208    2.0504241    2.1868005 
 2900000   0.93654185 1.6844578e-05   0.63728494  0.040028295            0   0.59725665    1.3872526    2.0245376    2.8869799 
 2905000    1.0145445 4.2091738e-05   0.52743496  0.026788701            0   0.50064626    1.5027941    2.0302291    4.1853261 
 2910000    1.0111034 0.00010402871   0.52580956  0.031538613            0   0.49427095     1.497697    2.0235065    7.3497767 
 2915000   0.96473823 2.405347e-05   0.62398101  0.015316545            0   0.60866447    1.4290185    2.0529995    3.2845372 
 2920000    1.0176087 3.3975721e-05   0.53716447   0.02070166            0   0.51646281    1.5073328    2.0444973    3.7840542 
 2925000    1.0318329 1.3595924e-05   0.51029726  0.007051852            0   0.50324541    1.5284024    2.0386997     2.734811 
 2930000    1.0578394 -0.00012602824   0.48424709  0.017875133            0   0.46637195    1.5669246    2.0511717   -4.4014745 
 2935000    1.1139623 1.4616312e-05   0.40809376 0.0059272968            0   0.40216647    1.6500566    2.0581504    2.8065056 
 2940000   0.97259133 5.5407343e-05   0.58367119  0.011001113            0   0.57267008    1.4406509    2.0243221    4.8611781 
 2945000   0.97409003 -2.1283235e-05   0.57682441  0.028954475            0   0.54786993    1.4428709    2.0196953   0.92999362 
 2950000   0.95952403 1.9341015e-05    0.5934646  0.032288739            0   0.56117586     1.421295    2.0147596    3.0050196 
 2955000    1.0063397 6.0960308e-06    0.5005668  0.020085652            0   0.48048115    1.4906407    1.9912075    2.3033243 
 2960000   0.94284269 -6.4214638e-05   0.60106028  0.019312351            0   0.58174793    1.3965857     1.997646   -1.2901434 
 2965000   0.98580319 -5.5600871e-05   0.54822977  0.017112407            0   0.53111736     1.460221    2.0084507  -0.83831387 
 2970000   0.95161873 -7.7306175e-05   0.60983113  0.022391649            0   0.58743948    1.4095852    2.0194164   -1.9386598 
 2975000   0.95589801 -2.1256406e-05   0.63670608  0.033155121            0   0.60355096    1.4159239      2.05263   0.96430204 
 2980000   0.97401765 5.0383514e-05   0.57574763  0.021586295            0   0.55416134    1.4427636    2.0185113    4.5981472 
 2985000    0.9678902 5.4881686e-05   0.57117334  0.018713822            0   0.55245951    1.4336874    2.0048607     4.814803 
 2990000   0.98433782 9.9433344e-05   0.56332478 0.0077596948            0   0.55556508    1.4580504    2.0213752    7.1123624 
 2995000    1.0393248 4.6888447e-06   0.49736214 0.0037103058            0   0.49365183    1.5394998     2.036862    2.2769308 
 3000000   0.97947529 -0.0001887194   0.60861048 0.0064337844            0   0.60217669    1.4508478    2.0594583    -7.602975 
 3005000    1.0590526 -3.3862005e-05   0.49102316 0.0035565039            0   0.48746666    1.5687217    2.0597449   0.32601023 
 3010000    1.0138957 7.8215132e-05   0.53987903  0.025640998            0   0.51423804    1.5018329     2.041712    6.0463267 
 3015000    1.0668279 -4.9211293e-05   0.46827761  0.035541328            0   0.43273629    1.5802388    2.0485164  -0.47110179 
 3020000    1.0483133 -0.00014066935   0.49865683  0.016748508            0   0.48190832    1.5528141     2.051471   -5.1507998 
 3025000     1.054112 -4.7312016e-05   0.48454116  0.020048921            0   0.46449224    1.5614033    2.0459445  -0.37643073 
 3030000     1.035017 1.5486052e-05   0.51168806  0.016122798            0   0.49556526     1.533119    2.0448071    2.8376929 
 3035000     1.048987 6.6032489e-05   0.47763624  0.040593167            0   0.43704308    1.5538119    2.0314482    5.4123116 
 3040000    1.0411244 9.3775638e-05   0.48953458  0.043533253            0   0.44600133    1.5421656    2.0317001    6.8330128 
 3045000     1.020929 -8.9576687e-05   0.52135559  0.046774694            0   0.47458089    1.5122511    2.0336066   -2.5527197 
 3050000    1.0275991 -0.00012175932   0.51006716  0.016397411            0   0.49366975    1.5221312    2.0321983   -4.2018787 
 3055000    1.0480527 1.7973061e-05   0.49379482  0.018744645            0   0.47505017    1.5524281    2.0462229    2.9664437 
 3060000    1.0090051 9.5676832e-05   0.52330104  0.022371997            0   0.50092904    1.4945889    2.0178899    6.9165437 
 3065000    1.0270323 6.6440709e-05   0.50142382   0.02785381            0   0.47357001    1.5212917    2.0227155    5.4244798 
 3070000    1.0693766 3.6035235e-05   0.43279415   0.02548143            0   0.40731272    1.5840141    2.0168083    3.8618123 
 3075000   0.98768089 3.1141942e-05   0.52693064  0.018516412            0   0.50841422    1.4630023     1.989933    3.5844004 
 3080000    1.0016686 -5.0212618e-05   0.50973121  0.023946917            0   0.48578429    1.4837216    1.9934528  -0.57743323 
 3085000    0.9710749 4.1227864e-07   0.58251033  0.004993032            0    0.5775173    1.4384047     2.020915    2.0420237 
 3090000     1.008955 0.00010051476   0.49937388  0.035744964            0   0.46362891    1.4945146    1.9938885    7.1402442 
 3095000     1.058792 0.00011602734   0.43525321  0.016971679            0   0.41828153    1.5683356    2.0035889    7.9441888 
 3100000   0.99681284 1.9647101e-06   0.52659582   0.00454113            0   0.52205469     1.476529    2.0031248     2.103718 
 3105000    1.0687147 -8.9489192e-05   0.46116492  0.025039461            0   0.43612545    1.5830337    2.0441986    -2.537648 
 3110000    1.0927105 7.4856705e-05   0.41991774  0.042383233            0   0.37753451    1.6185774    2.0384952    5.8711585 
 3115000    1.0059998 3.6006026e-05   0.57105213  0.020938288            0   0.55011384    1.4901372    2.0611893    3.9046978 
 3120000    1.0780602 -2.8253934e-06   0.46729229  0.021424973            0   0.44586732    1.5968767     2.064169    1.9195089 
 3125000    1.0605691 -8.9736191e-05   0.48570742  0.013445967            0   0.47226145     1.570968    2.0566754   -2.5378176 
 3130000    1.0673406 -7.8619132e-05   0.47769544 0.0068459148            0   0.47084953    1.5809982    2.0586937   -1.9666059 
 3135000    1.0222557 0.00012009021   0.52927489 0.0018954111            0   0.52737948    1.5142162    2.0434911    8.1921101 
 3140000    1.0234747 0.00013910506   0.53325288 1.4060149e-05            0   0.53323882    1.5160219    2.0492748    9.1714539 
 3145000    1.0362359 -9.0212159e-05   0.52007329 0.00026805381            0   0.51980523    1.5349245    2.0549978   -2.5638648 
 3150000     1.086259 -6.395868e-05   0.46519734  0.007845975            0   0.45735136    1.6090212    2.0742185   -1.2004659 
 3155000    1.0648686 -6.0977026e-05   0.51927326  0.011191637            0   0.50808162    1.5773366    2.0966099   -1.0254138 
 3160000     1.059963 -0.00012151083   0.53811731  0.012286855            0   0.52583046    1.5700702    2.1081876   -4.1131669 
 3165000    1.1125037 -1.3536701e-05   0.47672238  0.014354646            0   0.46236773    1.6478961    2.1246185    1.4315394 
 3170000    1.0647381 5.2716429e-05   0.53480589  0.012574644            0   0.52223124    1.5771433    2.1119492    4.8110303 
 3175000    1.0760335  8.35886e-05   0.49535253  0.013632477            0   0.48172005    1.5938746    2.0892272    6.3689635 
 3180000    1.0164847 7.2557722e-05   0.57457078   0.03034996            0   0.54422082     1.505668    2.0802388    5.7951941 
 3185000    1.0538084 -2.4380914e-05   0.53405782  0.026023265            0   0.50803456    1.5609537    2.0950115   0.84670877 
 3190000     1.010599 1.6820354e-05   0.58962343  0.046968237            0   0.54265519    1.4969497    2.0865732    2.9477753 
 3195000    1.1285442 9.1605072e-05   0.38590711  0.034389574            0   0.35151754    1.6716561    2.0575632    6.7477429 
 3200000    1.0339361 3.1932302e-05    0.5459815  0.033263321            0   0.51271818    1.5315178    2.0774993    3.7124332 
 3205000    1.0458072 5.4955589e-06   0.54651425  0.017151909            0   0.52936235    1.5491019    2.0956162    2.3769888 
 3210000    1.0889025 -1.9009338e-05   0.50391442  0.020498673            0   0.48341575    1.6129368    2.1168512    1.1435731 
 3215000    1.0878114 -2.2108914e-05   0.48489956  0.032629237            0   0.45227033    1.6113206    2.0962202   0.96424378 
 3220000    1.0961455 3.5172281e-06   0.48352365  0.012011527            0   0.47151213    1.6236655    2.1071891    2.2872712 
 3225000    1.0832399 2.5564738e-06   0.50662483  0.013842733            0    0.4927821    1.6045491    2.1111739    2.2420653 
 3230000   0.98928397 5.7985641e-05   0.60721418  0.037780473            0    0.5694337    1.4653769    2.0725911    5.0414559 
 3235000    1.1030321 1.3799899e-05   0.44527463  0.016761765            0   0.42851286    1.6338662    2.0791409    2.7856957 
 3240000    1.0959846 6.0419344e-05   0.47321361 0.0089780569            0   0.46423555    1.6234272    2.0966408    5.1901112 
 3245000    1.1078424 -4.7561527e-05   0.47200381 0.0077428918            0   0.46426092    1.6409915    2.1129953  -0.32215489 
 3250000    1.0436658 -7.6749284e-05   0.56204676 0.0056466378            0   0.55640012      1.54593    2.1079767   -1.8215866 
 3255000    1.0982109 -2.42062e-05   0.49559761 0.0076710974            0   0.48792651    1.6267249    2.1223225   0.88296507 
 3260000    1.0998504 -6.4534394e-06   0.50233621  0.014413888            0   0.48792232    1.6291534    2.1314896    1.8010735 
 3265000    1.0714054 -4.9524343e-05   0.53363156  0.062539531            0   0.47109203    1.5870193    2.1206509  -0.41499553 
 3270000   0.99075196 2.7306373e-05   0.64812468  0.082113152            0   0.56601152    1.4675513     2.115676    3.5137623 
 3275000     1.100875 6.6425116e-05    0.5225849  0.068882473            0   0.45370243    1.6306711     2.153256    5.5542219 
 3280000    1.0664533 1.9769272e-05   0.54940841  0.030916644            0   0.51849177    1.5796839    2.1290923    3.1412791 
 3285000    1.1963581 -5.4969475e-05   0.35855423  0.020282781            0   0.33827145    1.7721055    2.1306597  -0.68377743 
 3290000    1.0639042 -4.5509013e-05   0.55341264  0.028600853            0   0.52481178    1.5759081    2.1293207  -0.20074077 
 3295000     1.171231 1.6705702e-05   0.41801634  0.007035367            0   0.41098097     1.734886    2.1529023    3.0082343 
 3300000    1.1746651 0.00015222699   0.41529099 0.00039156634            0   0.41489942    1.7399727    2.1552637    9.9492858 
 3305000    1.1479695 0.00013177293   0.46017836            0            0   0.46017836    1.7004298    2.1606082    8.9073824 
 3310000    1.0524176 -1.37791e-05   0.57651408 8.5783117e-05            0    0.5764283    1.5588936    2.1354077    1.4299177 
 3315000    1.1847098 4.3131622e-05   0.39792839 0.0025956984            0   0.39533269    1.7548514    2.1527798    4.3611189 
 3320000    1.0875228 0.0001054414   0.50366101 0.0044562748            0   0.49920473    1.6108932    2.1145542    7.5131539 
 3325000    1.0576681 -1.6609904e-05   0.55005177 0.0054872486            0   0.54456453    1.5666708    2.1167226    1.2662955 
 3330000    1.0349768 -4.9666512e-05   0.56490975  0.013383708            0   0.55152604    1.5330594    2.0979692  -0.44495624 
 3335000    1.1269151 0.00010687372   0.42018084  0.013621044            0   0.40655979     1.669243    2.0894239    7.5613581 
 3340000    1.0492003 0.0001867839   0.53656503  0.030444064            0   0.50612097    1.5541279     2.090693    11.654029 
 3345000    1.1179645 8.9875287e-05   0.43957103  0.020547996            0   0.41902303     1.655985     2.095556    6.6971707 
 3350000     1.030358 1.4751312e-05    0.5593011  0.008216953            0   0.55108415    1.5262178    2.0855189    2.8407861 
 3355000    1.0407866 9.5616508e-05   0.53285214 0.0071500884            0   0.52570205    1.5416651    2.0745173    6.9700825 
 3360000    1.0986101 9.8792926e-05    0.4626553  0.015617105            0    0.4470382    1.6273163    2.0899716    7.1481694 
 3365000     1.062693 4.7268464e-05   0.49898933  0.024776126            0    0.4742132     1.574114    2.0731033    4.4932487 
 3370000    1.0896707 3.0653653e-05   0.50741572  0.031189185            0   0.47622653    1.6140747    2.1214905    3.6909575 
 3375000     1.055916 -0.00010484546   0.55081132  0.024094521            0    0.5267168    1.5640756    2.1148869   -3.2532006 
 3380000    1.1246141 -4.9796755e-06    0.4363052  0.049156166            0   0.38714903    1.6658347    2.1021399    1.8471805 
 3385000    1.0629509 5.4369705e-05   0.49533124  0.012041826            0   0.48328942     1.574496    2.0698273    4.8535562 
 3390000    1.0390608 1.649201e-05    0.5319348  0.044004045            0   0.48793076    1.5391088    2.0710436    2.9154346 
 3395000    1.0888056 0.00014682115   0.47030759 0.0085943555            0   0.46171324    1.6127933    2.0831009    9.6003435 
 3400000    1.0889673 0.00014744767   0.48515197  0.012546881            0   0.47260509    1.6130329    2.0981848    9.6475058 
 3405000    1.0063603 5.1617214e-06   0.59750555  0.018439798            0   0.57906575    1.4906712    2.0881768    2.3524569 
 3410000    1.1172159 2.4914508e-05   0.41592422  0.017998861            0   0.39792536     1.654876    2.0708003    3.3464231 
 3415000     1.097504 5.5849009e-05   0.43411521  0.024708809            0    0.4094064    1.6256779    2.0597931    4.9192623 
 3420000    1.0423866 -1.800848e-05    0.5325586  0.020175802            0    0.5123828    1.5440351    2.0765937    1.1545595 
 3425000    1.1327236 -1.0529282e-05   0.36136386  0.020955213            0   0.34040865    1.6778468    2.0392107    1.5001114 
 3430000    1.0094603 -6.5742018e-05   0.52485515  0.034466055            0   0.49038909     1.495263    2.0201181   -1.3458732 
 3435000     1.015631 -7.9719982e-05   0.52771829  0.015193733            0   0.51252456    1.5044034    2.0321217   -2.0495413 
 3440000    1.0548601 -0.00012561395   0.47716258 0.0044611983            0   0.47270138    1.5625115    2.0396741   -4.3917603 
 3445000     1.098023 -3.5025841e-05    0.4153276 0.0067296551            0   0.40859794    1.6264465    2.0417741   0.24845109 
 3450000    1.0121984 1.3778967e-05   0.54921594  0.039100837            0    0.5101151    1.4993189    2.0485348     2.754018 
 3455000    1.0574631 -5.3293447e-05   0.49606986  0.015888364            0    0.4801815    1.5663672     2.062437  -0.66618748 
 3460000   0.94932776 -2.3539132e-05   0.63631668  0.023908643            0   0.61240804    1.4061917    2.0425084   0.83730486 
 3465000    1.0193649 -5.751212e-05   0.54827178  0.038628216            0   0.50964357    1.5099343     2.058206  -0.88641448 
 3470000    1.0437937 -8.2219142e-05   0.50409603  0.039204271            0   0.46489176    1.5461194    2.0502154   -2.1594047 
 3475000    1.0338623 -0.00010047906   0.53844467  0.023243265            0   0.51520141    1.5314085    2.0698532   -3.0746746 
 3480000    1.0108256 -1.4865379e-05   0.56438405  0.037943871            0   0.52644018    1.4972854    2.0616694     1.300562 
 3485000    1.0760851 7.6057536e-05   0.51071061   0.04157114            0   0.46913947    1.5939511    2.1046617    5.9988076 
 3490000    1.0564706 -1.153119e-06   0.50605331  0.013241527            0   0.49281179     1.564897    2.0709503    2.0119107 
 3495000    1.0131073 -4.8625353e-05   0.60010362 0.0037068649            0   0.59639675    1.5006651    2.1007688  -0.38884933 
 3500000    1.0679004 -3.0590004e-06   0.53459425 0.0097116305            0   0.52488262    1.5818275    2.1164217    1.9598009 
 3505000    1.1103186 -2.7294294e-05   0.48456618  0.031654581            0    0.4529116    1.6446594    2.1292255   0.73175769 
 3510000    0.9882936 3.4982015e-05   0.63244401  0.035260092            0   0.59718392    1.4639099    2.0963539    3.8874331 
 3515000    1.0842223 -2.3333322e-05   0.51924556  0.019428666            0    0.4998169    1.6060042    2.1252498   0.93058367 
 3520000    1.1093817 -0.0001270277    0.4922263  0.011818405            0    0.4804079    1.6432717     2.135498   -4.3683204 
 3525000    1.0649868 9.1337723e-05    0.5452631  0.010608003            0    0.5346551    1.5775117    2.1227748    6.7992662 
 3530000    1.0854686 7.1754782e-05    0.5513579  0.019340303            0    0.5320176    1.6078503    2.1592082    5.8330531 
 3535000     1.096279 -0.00013888669   0.53549156  0.010745868            0   0.52474569    1.6238633    2.1593548   -4.9516435 
 3540000    1.0477064 -5.5578422e-06   0.62708551 0.0081152262            0   0.61897028    1.5519151    2.1790006    1.8944391 
 3545000    1.1708165 1.5465034e-05   0.45363936 0.0071429597            0    0.4464964    1.7342719    2.1879112     2.979721 
 3550000    1.0855178 -2.5166535e-05   0.55531768  0.021608295            0   0.53370938    1.6079233    2.1632409   0.87471434 
 3555000    1.0310692 2.5854413e-05    0.6119553  0.025692146            0   0.58626316    1.5272712    2.1392265    3.4629725 
 3560000    1.1418728 2.5350585e-05   0.45835135 0.0078711537            0    0.4504802    1.6913991    2.1497504    3.4477004 
 3565000    1.0828472 2.7706702e-05   0.54898002 0.0066003682            0   0.54237965    1.6039674    2.1529474    3.5715305 
 3570000    1.0444429 4.0775313e-05   0.61510412  0.038116353            0   0.57698776     1.547081    2.1621851    4.2498812 
 3575000    1.0336768 5.2569394e-05   0.57842736  0.012920085            0   0.56550728    1.5311337    2.1095611     4.801114 
 3580000    1.0511541 0.00010700224   0.53176424  0.017628091            0   0.51413615    1.5570219    2.0887862    7.5673008 
 3585000    1.0404287 7.3728819e-05    0.5248903  0.040791272            0   0.48409903     1.541135    2.0660253    5.8409408 
 3590000     1.003712 0.00012695319   0.57742141  0.020062452            0   0.55735896    1.4867485    2.0641699    8.5641729 
 3595000     1.063387 2.2110479e-05   0.50058311  0.014205167            0   0.48637794     1.575142    2.0757251    3.2077816 
 3600000     1.111241 -7.9283399e-05   0.45938777  0.024837363            0    0.4345504    1.6460257    2.1054135   -1.9538966 
 3605000    1.0400415 -0.00010518007   0.57653583  0.026110443            0   0.55042539    1.5405615    2.1170973   -3.2681225 
 3610000    1.0018037 -3.8329827e-05   0.59849043  0.014496594            0   0.58399384    1.4839217    2.0824121   0.11992496 
 3615000    1.0646077 1.5541274e-05   0.50028931  0.010618872            0   0.48967044    1.5769501    2.0772394    2.8729527 
 3620000   0.99625095 0.00012363636   0.61508738  0.030258734            0   0.58482864    1.4756967    2.0907841    8.4209659 
 3625000    1.0933035 2.2208109e-05   0.47948648  0.038446092            0   0.44104038    1.6194559    2.0989423    3.2359975 
 3630000    1.0602078 0.00017712459   0.51309864  0.031739493            0   0.48135915    1.5704328    2.0835314     11.15231 
 3635000   0.97983527 0.00016474847   0.60159833  0.034709208            0   0.56688913     1.451381    2.0529793    10.488101 
 3640000    1.0375355 -6.8040541e-06    0.5243005  0.015348138            0   0.50895236    1.5368495      2.06115    1.7127824 
 3645000    1.1232727 -9.6096581e-05   0.41584922  0.013365419            0   0.40248381    1.6638477     2.079697    -2.840448 
 3650000   0.98330448 1.6367624e-05   0.63755089  0.031210997            0   0.60633989    1.4565198    2.0940707     2.932093 
 3655000     1.003472 -4.1972459e-05   0.61752135  0.042469724            0   0.57505163    1.4863928    2.1039142 -0.045075732 
 3660000    1.0401883 3.1110101e-07    0.5642318 0.0089421142            0   0.55528968    1.5407789    2.1050107    2.1209391 
 3665000     1.062089 2.2201979e-05   0.55575904  0.015821345            0    0.5399377    1.5732193    2.1289783    3.2657196 
 3670000    1.0293764 -6.2602023e-05   0.59102218  0.014281454            0   0.57674072    1.5247638     2.115786   -1.0894376 
 3675000    1.0846727 -2.7295856e-05    0.5039574  0.013239214            0   0.49071819    1.6066715    2.1106289   0.71308104 
 3680000    1.0998821 -0.00010197615   0.48090694   0.01734667            0   0.46356027    1.6292004    2.1101073   -3.1110718 
 3685000    1.0508985 -2.6386423e-05   0.51271685 0.0046250492            0    0.5080918    1.5566434    2.0693603    0.7183754 
 3690000   0.95820433 -0.00013254579   0.62261426 0.0073040102            0   0.61531025    1.4193402    2.0419544   -4.7443902 
 3695000   0.97405693 6.8256044e-05   0.61165309  0.041901206            0   0.56975189    1.4428218    2.0544749    5.5491844 
 3700000    1.0390211 -5.236976e-05   0.52523967  0.029582048            0   0.49565762      1.53905    2.0642897  -0.61704203 
 3705000    1.0329996 4.9625637e-05   0.51684558  0.031218515            0   0.48562707    1.5301307    2.0469763    4.5878088 
 3710000    1.0280853 4.2741367e-06   0.51798141  0.018186741            0   0.49979467    1.5228513    2.0408327    2.2596685 
 3715000    1.0334061 -5.4538238e-05   0.51167339  0.023758324            0   0.48791506    1.5307328    2.0424062   -0.7499516 
 3720000    1.0323342 2.6738383e-05     0.487049  0.015029483            0   0.47201952     1.529145     2.016194    3.3851992 
 3725000    1.0502871 3.9367919e-05   0.44698383 0.0075329046            0   0.43945093    1.5557377    2.0027215     4.018359 
 3730000   0.94065009 8.9933521e-05   0.61076638  0.012617329            0   0.59814905    1.3933379    2.0041043    6.6087006 
 3735000     1.040571 3.2588286e-06     0.473996  0.046378949            0   0.42761705    1.5413458    2.0153418    2.1821938 
 3740000   0.98348253 -5.7099909e-05   0.52822299  0.031672055            0   0.49655093    1.4567835    1.9850065  -0.93850886 
 3745000   0.98010746 5.8082817e-06   0.54119823  0.060019718            0   0.48117851    1.4517842    1.9929824    2.2903664 
 3750000     1.018391 -5.4334853e-05   0.52620711  0.023764801            0   0.50244231    1.5084917    2.0346988  -0.74724569 
 3755000   0.99898485 -0.00012902086   0.58053249  0.015954027            0   0.56457846    1.4797463    2.0602788   -4.5455892 
 3760000    1.0871423 7.0114217e-05   0.45664692  0.016599782            0   0.44004714    1.6103295    2.0669764    5.6568243 
 3765000    1.0510564 -1.712529e-05   0.53736179  0.029147402            0   0.50821438    1.5568772     2.094239    1.2174241 
 3770000    1.0872481 -6.2235399e-05   0.50826374  0.034570371            0   0.47369337    1.6104862    2.1187499   -1.0677025 
 3775000    1.0889187 1.7700854e-05   0.48365354 0.0085371637            0   0.47511637    1.6129609    2.0966144    3.0028981 
 3780000    1.0619838 9.0010512e-05    0.5043459  0.032392624            0   0.47195328    1.5730635    2.0774094    6.6859476 
 3785000    1.1891533 2.6414065e-05   0.33066186  0.020939376            0   0.30972248    1.7614334    2.0920952    3.4444954 
 3790000    1.0546207 -8.6857151e-05   0.52989217 0.0044276529            0   0.52546452    1.5621569     2.092049   -2.3550371 
 3795000    1.0834017 -0.00012648532   0.47281285  0.012363423            0   0.46044942    1.6047887    2.0776016   -4.3984467 
 3800000    1.0083256 4.0638152e-05   0.55934064   0.06705751            0   0.49228313    1.4935823    2.0529229    4.1335963 
 3805000    1.0630886 6.829995e-05   0.47253341  0.053595626            0   0.41893778    1.5746999    2.0472333    5.5441908 
 3810000    1.0235903 -9.7740758e-05   0.52198627 0.0088545881            0   0.51313168    1.5161932    2.0381794   -2.9661474 
 3815000   0.99070413 9.0721257e-05   0.55924996  0.029981457            0    0.5292685    1.4674805    2.0267305    6.6716588 
 3820000    1.0060302 8.7240952e-05   0.52251447  0.039372395            0   0.48314207    1.4901823    2.0126968    6.4794335 
 3825000   0.94844877 -0.00012574768   0.59326189 0.0057543294            0   0.58750756    1.4048897    1.9981516   -4.4401295 
 3830000    1.0856596 -5.1283875e-05    0.4122795 0.0018474048            0   0.41043209    1.6081333    2.0204128   -0.6053216 
 3835000    1.0308763 5.4819849e-05   0.51340214 0.0052165052            0   0.50818564    1.5269856    2.0403877     4.847164 
 3840000    1.0607475 -0.00010606351   0.46478508 0.0094114506            0   0.45537363    1.5712322    2.0360173   -3.3944345 
 3845000    1.0174869 -6.193725e-05   0.52069445  0.036832713            0   0.48386174    1.5071524    2.0278469   -1.1433403 
 3850000    1.0435758 6.0517629e-05   0.49104262  0.033702537            0   0.45734008    1.5457967    2.0368393    5.1353419 
 3855000   0.96964153 1.4925489e-05   0.59028862 0.0086039023            0   0.58168472    1.4362815    2.0265701    2.7907552 
 3860000    1.0265538 0.00012970884   0.48002273 0.0044888507            0   0.47553388    1.5205829    2.0006056    8.6416982 
 3865000    1.0553902 -1.1254719e-05   0.47373244 0.00071654214            0   0.47301589    1.5632967    2.0370292    1.4607876 
 3870000    1.0482191 -9.4329601e-05   0.48527771 0.0036902155            0    0.4815875    1.5526746    2.0379523   -2.7917233 
 3875000   0.98763011 3.4508489e-05   0.59040069  0.021589141            0   0.56881154    1.4629271    2.0533278    3.8201624 
 3880000    1.0712912 3.5450201e-06   0.50086463  0.022655376            0   0.47820925      1.58685    2.0877147    2.2692197 
 3885000    1.0713965 6.0243924e-05   0.52307699   0.03504947            0   0.48802752    1.5870061    2.1100831     5.194572 
 3890000     1.026826 7.5322475e-05   0.56618489  0.033742672            0   0.53244222    1.5209861     2.087171    5.9436817 
 3895000    1.0167755 3.7849834e-05   0.59741022 0.0020735934            0   0.59533663    1.5060988     2.103509    4.0414205 
 3900000    1.1113954 -2.8001217e-05   0.46950733  0.003296989            0   0.46621034    1.6462544    2.1157617   0.68209943 
 3905000    1.0474154 2.4362522e-05   0.53517649  0.008700612            0   0.52647587    1.5514841    2.0866606    3.3340217 
 3910000    1.0786272 -0.00010331532   0.50549911  0.011032189            0   0.49446693    1.5977166    2.1032157   -3.1865289 
 3915000   0.99848276 -7.636483e-05   0.59199985 0.0037239198            0   0.58827593    1.4790026    2.0710024   -1.8388769 
 3920000    1.0380348 -1.5343059e-05   0.52926089 0.00010107688            0   0.52915982    1.5375891      2.06685    1.2812854 
 3925000   0.99938713 -0.00012164329   0.54133218  0.017826781            0    0.5235054    1.4803422    2.0216744   -4.2064623 
 3930000    1.0095177 6.1531269e-05   0.51211791  0.062332657            0   0.44978525     1.495348    2.0074659    5.1578669 
 3935000    1.0116655 0.00011445983     0.488111  0.033051252            0   0.45505975    1.4985295    1.9866405    7.8469839 
 3940000   0.97383203 -5.7765446e-06   0.54966637 0.0079136227            0   0.54175275    1.4424887    1.9921551     1.696396 
 3945000    1.0350007 0.00010087115   0.46972538 0.0058654384            0   0.46385994    1.5330948    2.0028201     7.167423 
 3950000    1.0333595 -7.4377641e-06   0.49766574  0.013282766            0   0.48438298    1.5306637    2.0283295     1.647516 
 3955000    1.0060571 -0.00011744988   0.54687391  0.010633194            0   0.53624071     1.490222    2.0370959   -3.9763379 
 3960000    1.0089132 0.00013052493   0.54808944 0.0062034583            0   0.54188598    1.4944527    2.0425422    8.7254186 
 3965000    1.0304677 0.00011220322   0.50335696  0.011041861            0    0.4923151    1.5263803    2.0297373    7.7745419 
 3970000    1.0250898 1.9421315e-06   0.50628302 0.0055094295            0    0.5007736    1.5184143    2.0246974    2.1241345 
 3975000   0.99064148 -3.5247138e-05   0.58175454  0.020020758            0   0.56173378    1.4673877    2.0491422   0.24448878 
 3980000    1.0352597 6.4912142e-06   0.52672477  0.024358258            0   0.50236651    1.5334784    2.0602032    2.3925533 
 3985000    1.0520715 6.0156042e-05   0.48226614 0.00091142088            0   0.48135472    1.5583809     2.040647    5.1206363 
 3990000    1.0451085 1.2196457e-06   0.49590044 3.8146073e-05            0   0.49586229     1.548067    2.0439675    2.1064133 
 3995000    1.0211466 3.9502218e-05   0.53805716            0            0   0.53805716    1.5125733    2.0506305     4.073144 
 4000000    1.0979072 7.2505826e-05    0.4208557 0.0024220403            0   0.41843366     1.626275    2.0471307     5.759429 
 4005000    1.1109684 -0.00010408092   0.40689697 0.0059061008            0   0.40099087    1.6456219    2.0525188   -3.2764245 
 4010000    1.0273881 -8.9384301e-05   0.50097758 0.0018055356            0   0.49917205    1.5218186    2.0227962   -2.5536801 
 4015000    1.0123051 4.5620852e-05   0.53765983 0.00086662417            0   0.53679321    1.4994769    2.0371367    4.3729243 
 4020000    1.0478225 -4.1264728e-05   0.49272103  0.011161514            0   0.48155952     1.552087    2.0448081 -0.067946014 
 4025000    1.0486006 -2.1747091e-05   0.48887317  0.039613944            0   0.44925923    1.5532397    2.0421128   0.92866177 
 4030000    1.0308656 5.6254549e-05   0.48986604  0.016201385            0   0.47366466    1.5269697    2.0168358    4.8970686 
 4035000     1.008174 -9.4397036e-05   0.52561908  0.010233674            0    0.5153854    1.4933577    2.0189768   -2.8141515 
 4040000   0.96366339 -6.8005155e-05   0.58703045  0.023642886            0   0.56338756    1.4274264    2.0144569   -1.4674071 
 4045000   0.98485456 7.1552053e-05    0.5494998 0.0044782306            0   0.54502157    1.4588158    2.0083156    5.6717807 
 4050000    1.0586767 0.00011801321   0.44863869 0.0023157468            0   0.44632295    1.5681649    2.0168036    8.0590797 
 4055000    1.0247557 -9.7617628e-06   0.49249019 0.0053045124            0   0.48718567    1.5179193    2.0104095    1.5106073 
 4060000    1.0159052 -9.9457589e-05   0.51844396 0.0071143858            0   0.51132958    1.5048095    2.0232535    -3.068975 
 4065000    1.0315334 3.7715528e-05    0.5041804 0.0022538967            0    0.5019265    1.5279588    2.0321392    3.9631742 
 4070000    1.1272941 -2.1883798e-06   0.39564387 0.0051152158            0   0.39052865    1.6698044    2.0654482    1.9534032 
 4075000    1.0107148 -9.0337781e-06   0.57779763  0.011514335            0    0.5662833    1.4971213     2.074919    1.6123895 
 4080000    1.0291806 4.1991324e-05   0.57115313 0.0077605183            0   0.56339261    1.5244738    2.0956269    4.2455827 
 4085000    1.0743112 2.0299202e-05   0.50733946 0.0069512126            0   0.50038825    1.5913234    2.0986629     3.137982 
 4090000    1.0111313 3.9102669e-05   0.58877097  0.018150553            0   0.57062041    1.4977383    2.0865092    4.0885659 
 4095000    1.0455005 4.6716637e-05   0.54799215  0.027417832            0   0.52057432    1.5486475    2.0966397    4.4885315 
 4100000    1.0950346 -8.7591532e-06   0.48113172 0.0038549876            0   0.47727674      1.62202    2.1031517     1.654683 
 4105000    1.0569964 9.996816e-06   0.53088345 0.0032032394            0   0.52768021     1.565676    2.0965594    2.6083964 
 4110000    1.1455731 -7.5142885e-05   0.39631224  0.004520528            0   0.39179171    1.6968802    2.0931924   -1.7541233 
 4115000    1.0839265 -8.5010778e-05   0.51190038 0.0061786665            0   0.50572172    1.6055661    2.1174665   -2.2350853 
 4120000    1.0027781 7.7594793e-05   0.63759043  0.021992809            0   0.61559762    1.4853651    2.1229555    6.0958089 
 4125000    1.0489867 7.1834048e-05   0.58189539  0.022757101            0   0.55913829    1.5538116     2.135707    5.8136102 
 4130000    1.0130167 4.0396516e-05   0.63063135  0.027852366            0   0.60277898     1.500531    2.1311623     4.199464 
 4135000     1.066481 -0.00012629587   0.54206799  0.013013867            0   0.52905412     1.579725     2.121793   -4.3445553 
 4140000    0.9450328 -8.25908e-05    0.6931692  0.023237828            0   0.66993138    1.3998298     2.092999   -2.1356499 
 4145000   0.97869188 4.0768478e-05   0.63344027  0.022793053            0   0.61064722    1.4496873    2.0831276    4.1704737 
 4150000    1.0712588 2.7694811e-05   0.47722765  0.016115648            0     0.461112     1.586802    2.0640297     3.482004 
 4155000    1.0802963 9.5019958e-06   0.46717258  0.010693672            0   0.45647891    1.6001889    2.0673615    2.5538637 
 4160000   0.97072057 2.8019025e-05   0.63888642  0.014639731            0   0.62424669    1.4378798    2.0767663    3.5113403 
 4165000   0.96282814 -2.333603e-05   0.64371367  0.011896169            0    0.6318175    1.4261892    2.0699028   0.87509811 
 4170000    1.0399918 -9.6960952e-06   0.51070718  0.009011032            0   0.50169615    1.5404878     2.051195    1.5547549 
 4175000    1.0871338 3.0396533e-06    0.4537111  0.013138579            0   0.44057252     1.610317    2.0640281    2.2196584 
 4180000    1.0194593 -7.0045266e-05   0.53701537  0.012408231            0   0.52460714    1.5100741    2.0470895   -1.5392281 
 4185000    0.9660898 -0.0001579291   0.62857654  0.015872495            0   0.61270405    1.4310205    2.0595971   -6.0263729 
 4190000   0.97324224 -0.00011456845   0.62427464  0.021481995            0   0.60279265    1.4416151    2.0658897   -3.8000151 
 4195000   0.96629037 -1.7185408e-05    0.6387005  0.022092002            0    0.6166085    1.4313176    2.0700181    1.1901252 
 4200000    1.0055286 -5.3139016e-05   0.58400035  0.035885004            0   0.54811535    1.4894393    2.0734397  -0.64727795 
 4205000    0.9769818 -0.00015675985   0.62698679  0.017414508            0   0.60957228    1.4471543    2.0741411   -5.9519633 
 4210000    1.0648689 -1.8914296e-05   0.49510009  0.020069642            0   0.47503045     1.577337    2.0724371    1.1040252 
 4215000    1.0802346 6.2437371e-06   0.51166248 0.0021489474            0   0.50951354    1.6000974    2.1117599    2.4314393 
 4220000    1.0486802 6.2034325e-05   0.55688611 0.00079486239            0   0.55609125    1.5533575    2.1102436     5.286401 
 4225000    1.1242101 0.00011323436   0.42438763 0.0086417416            0   0.41574589    1.6652361    2.0896238     7.887223 
 4230000    1.0767174 3.8005828e-05    0.5271423  0.012166437            0   0.51497586    1.5948876    2.1220299    4.0679283 
 4235000   0.96985732 -1.689729e-05   0.70480425  0.027971689            0   0.67683256    1.4366012    2.1414054    1.2762641 
 4240000    1.0045917 -8.1784829e-05   0.63746538  0.045224679            0   0.59224071    1.4880514    2.1255168   -2.0618664 
 4245000    1.0618664 3.7271147e-05   0.56452652  0.040263377            0   0.52426315    1.5728897    2.1374162    4.0456989 
 4250000    1.0955714 5.647238e-05   0.50892687  0.060820721            0   0.44810615    1.6228151     2.131742    5.0231278 
 4255000    1.0719252 -8.0570476e-06   0.52056296  0.033548078            0   0.48701488    1.5877893    2.1083522    1.6958314 
 4260000    1.0261744 -5.8732687e-05   0.56573765  0.038366981            0   0.52737067    1.5200208    2.0857585  -0.92135514 
 4265000    1.0590424 -3.0171444e-05   0.51604754  0.019800209            0   0.49624733    1.5687066    2.0847541   0.53997621 
 4270000    1.0977899 6.9737928e-05   0.43104844  0.018951231            0    0.4120972    1.6261013    2.0571498    5.6277317 
 4275000    1.0042897 3.0080856e-05   0.57691658  0.057366803            0   0.51954978    1.4876041    2.0645206    3.6046604 
 4280000    1.0616266 0.0001099027   0.50008712  0.044287116            0       0.4558    1.5725344    2.0726215    7.6996399 
 4285000     1.061948 9.0580399e-06   0.49425617 0.0074887135            0   0.48676745    1.5730105    2.0672667    2.5310383 
 4290000    1.0376993 -4.4687295e-05   0.52809768 0.0044382102            0   0.52365947     1.537092    2.0651897  -0.22279981 
 4295000     1.027228 -4.2749771e-05   0.53508354  0.026117315            0   0.50896622    1.5215815     2.056665  -0.13212322 
 4300000   0.92628504 -9.1586165e-05   0.68255215  0.027132928            0   0.65541922    1.3720597    2.0546119   -2.6345998 
 4305000   0.94269005 -3.6579952e-05    0.6214801  0.012723383            0   0.60875671    1.3963596    2.0178397   0.14494619 
 4310000   0.98877075 -7.9864601e-05   0.53955585 0.0048595751            0   0.53469627    1.4646167    2.0041725    -2.084895 
 4315000   0.99786256 -8.0921609e-05   0.58707839   0.02170052            0   0.56537787    1.4780839    2.0651623   -2.0780241 
 4320000    1.0151172 -9.5222548e-06   0.54683923 0.0087462215            0   0.53809301    1.5036424    2.0504816    1.5629422 
 4325000    1.0466523 0.00015231591   0.55850792 0.00062042056            0    0.5578875    1.5503537    2.1088616    9.9074363 
 4330000    1.0715603 -8.8080226e-05   0.52126007   0.01295204            0   0.50830803    1.5872487    2.1085087   -2.4011988 
 4335000    1.0206581 -6.9407862e-05   0.61972134  0.018904286            0   0.60081705    1.5118498    2.1315712   -1.4221113 
 4340000    1.0697539 0.00015998666   0.51713548   0.02022026            0   0.49691522    1.5845729    2.1017084    10.293025 
 4345000    1.1026325 -1.2438288e-05   0.45026163 0.0063929543            0   0.44386867    1.6332744     2.083536    1.4466956 
 4350000   0.90064113 -0.00015871559    0.7413852 0.00061092904            0   0.74077427    1.3340747    2.0754599   -6.0507785 
 4355000    1.0358559 -4.2114157e-05   0.53866109 0.0020263258            0   0.53663477    1.5343615    2.0730226 -0.083222262 
 4360000    1.0102413 0.00011565908   0.58215539 0.0047594374            0   0.57739595    1.4964199    2.0785753    8.0003204 
 4365000   0.99685963 6.7116497e-05   0.62315196 0.0039248073            0   0.61922716    1.4765983    2.0997503    5.5361149 
 4370000    1.0900139 -0.0001340177   0.50933073 0.0075110943            0   0.50181964    1.6145831    2.1239138   -4.7377924 
 4375000    1.0263123 -9.2908778e-05    0.5950676  0.012927069            0   0.58214053     1.520225    2.1152926   -2.6416368 
 4380000    1.1399247 -1.5084804e-05   0.45958204 0.0060813194            0   0.45350073    1.6885135    2.1480955    1.3757535 
 4385000    1.0029759 9.9361225e-05   0.67591193  0.035834382            0   0.64007755     1.485658    2.1615699    7.2488647 
 4390000   0.98171208 8.3672743e-05   0.68085237   0.08880969            0   0.59204268     1.454161    2.1350134    6.4190579 
 4395000    1.0871894   -9.905e-05   0.56962891  0.035803176            0   0.53382573    1.6103993    2.1800282   -2.8913318 
 4400000    1.0724732 -8.819396e-05   0.57903328  0.022102074            0    0.5569312    1.5886009    2.1676342   -2.3478965 
 4405000    1.0379768 -8.2090934e-05   0.62963873 0.00091682054            0   0.62872191    1.5375031    2.1671418    -2.035914 
 4410000    1.0283765 5.0555119e-05   0.64390806  0.013161369            0   0.63074669    1.5232827    2.1671907    4.7556128 
 4415000    1.0273522 0.00013337319   0.63405572  0.025032373            0   0.60902334    1.5217654    2.1558211    8.9845287 
 4420000    1.1233338 -1.2390849e-05   0.50307422  0.013968029            0   0.48910619    1.6639382    2.1670124    1.5326009 
 4425000   0.97344455 -9.0818677e-05   0.70278594 0.0078618535            0   0.69492409    1.4419147    2.1447007   -2.5052156 
 4430000     1.029148 4.3617023e-05   0.59026007 0.0069120654            0   0.58334801    1.5244254    2.1146855    4.3478771 
 4435000    1.0993626 1.2952249e-05   0.45505201  0.023491399            0   0.43156062    1.6284308    2.0834828     2.746638 
 4440000   0.97026192 -0.00013133789   0.66126691 0.0047213565            0   0.65654556    1.4372005    2.0984674   -4.6260327 
 4445000    1.0502665 -3.0723934e-05   0.56386825 0.0014027491            0    0.5624655    1.5557072    2.1195755   0.54651008 
 4450000    0.9875898 1.9653406e-05   0.64709017 0.0037134613            0   0.64337671    1.4628674    2.1099576     3.116212 
 4455000    1.0379526 -0.00010269119   0.59398176  0.005672551            0   0.58830921    1.5374673    2.1314491   -3.1263398 
 4460000   0.99154584 -5.0510104e-05   0.64814025  0.014168048            0    0.6339722    1.4687273    2.1168675  -0.46924982 
 4465000   0.94632283 6.8489595e-05   0.69364147  0.036638029            0   0.65700344    1.4017407    2.0953822    5.6020494 
 4470000    1.0317612 7.9428858e-05   0.57650535  0.063501208            0   0.51300415    1.5282963    2.1048016    6.1715591 
 4475000    1.0681488 -2.9224767e-05   0.52592454  0.015145265            0   0.51077928    1.5821953    2.1081199    0.6118118 
 4480000    1.0690806 -1.2111258e-05   0.52724345 0.0040975894            0   0.52314586    1.5835756     2.110819    1.4907226 
 4485000    1.0315144 -2.2563137e-05   0.59280502  0.012498359            0   0.58030666    1.5279307    2.1207357   0.96550311 
 4490000    1.0034993 1.6123864e-05   0.61842304  0.010799518            0   0.60762352    1.4864333    2.1048563    2.9303982 
 4495000   0.98636527 -5.8370099e-05   0.65878987 0.0034132336            0   0.65537664    1.4610536    2.1198434  -0.86870565 
 4500000   0.97429537 -9.248011e-06    0.6384708   0.01268399            0   0.62578681     1.443175    2.0816458    1.6081477 
 4505000    1.0303779 4.5969711e-07    0.5675196  0.027170822            0   0.54034878    1.5262472    2.0937668    2.1173033 
 4510000    1.0960292 -8.108616e-06   0.48798068  0.014487389            0   0.47349329    1.6234933     2.111474    1.6963128 
 4515000    1.0259986 9.0631846e-05   0.57806809  0.012845458            0   0.56522263    1.5197604    2.0978285     6.738179 
 4520000    1.0148479 0.00010115919    0.6021462  0.040301281            0   0.56184492    1.5032435    2.1053897    7.2847401 
 4525000   0.96899431 0.00010439109   0.71127566  0.068718021            0   0.64255764    1.4353228    2.1465985     7.491422 
 4530000    1.0073304  5.05089e-05   0.65782366  0.019721204            0   0.63810246    1.4921081    2.1499318    4.7359875 
 4535000    1.0378762 -3.782109e-06   0.60222892  0.054970099            0   0.54725882    1.5373541     2.139583     1.945939 
 4540000   0.97440041 -8.1390004e-06   0.66277955  0.028152375            0   0.63462718    1.4433306    2.1061102    1.6893933 
 4545000    1.0048671 0.00012413721    0.5991723  0.047775416            0   0.55139688    1.4884593    2.0876316    8.4434566 
 4550000    1.0703849 9.8247953e-05   0.53712169  0.031374109            0   0.50574758    1.5855076    2.1226293    7.1529245 
 4555000   0.97550787 -6.8502682e-05   0.65937967   0.02610552            0   0.63327415     1.444971    2.1043507   -1.4029866 
 4560000    1.0868584 -4.3248093e-05   0.50749933  0.020950749            0   0.48654859     1.609909    2.1174084 -0.096894017 
 4565000    1.0429699 -8.2449743e-06   0.56818535 0.0081508268            0   0.56003452    1.5448991    2.1130845    1.6909418 
 4570000    1.0488442 -5.9112723e-05   0.54197111 0.0058851966            0   0.53608592    1.5536004    2.0955716  -0.93099987 
 4575000    1.0178726 -4.2682225e-05   0.57473467 0.0065335952            0   0.56820107    1.5077239    2.0824585  -0.10287142 
 4580000    1.0306782 4.4551557e-05   0.54627644 0.0037478483            0   0.54252859    1.5266921    2.0729686    4.3540083 
 4585000   0.95860433 5.2007086e-05    0.6464163  0.022389157            0   0.62402714    1.4199327     2.066349    4.7291118 
 4590000    1.0208878 -0.00011112268   0.54810617  0.034729036            0   0.51337714    1.5121901    2.0602963   -3.6291849 
 4595000   0.98531061 -8.4650717e-05   0.57458385  0.014901619            0   0.55968223    1.4594913    2.0340752   -2.3000415 
 4600000   0.96859453 0.00012817141   0.60896313  0.012779073            0   0.59618406    1.4347306    2.0436938    8.6060698 
 4605000    1.0166485 8.3732748e-05    0.5782707   0.01652986            0   0.56174084    1.5059106    2.0841813     6.371298 
 4610000    1.0016153 -9.2579976e-05   0.59869999  0.016748991            0     0.581951    1.4836426    2.0823426   -2.6577522 
 4615000    1.1106598 -4.4397093e-05   0.41941574  0.029165956            0   0.39024978    1.6451648    2.0645806  -0.20855057 
 4620000    1.0906515 -4.3990738e-05   0.47516473  0.016057456            0   0.45910727    1.6155275    2.0906922  -0.16163359 
 4625000   0.99112197 -2.4467507e-05   0.62589188 0.0069928133            0   0.61889907    1.4680994    2.0939913   0.84125496 
 4630000    1.0101144 2.8222176e-05   0.60103235  0.012296155            0   0.58873619     1.496232    2.0972643    3.5422397 
 4635000   0.99000737 8.0849473e-05    0.6427235 0.0056228729            0   0.63710062    1.4664484    2.1091719    6.2486649 
 4640000    1.1269483 3.9860615e-05   0.45580116  0.015992775            0   0.43980839    1.6692921    2.1250933    4.1659568 
 4645000    1.0629557 -2.3740238e-05   0.56439098  0.031404964            0   0.53298602    1.5745031    2.1388941   0.92339393 
 4650000    1.0699147 -6.8176002e-05   0.53509658  0.024538019            0   0.51055856    1.5848111    2.1199077   -1.3707036 
 4655000    1.0292212 -9.7388511e-05    0.5983276  0.025634428            0   0.57269317     1.524534    2.1228616   -2.8634302 
 4660000     1.055286 -4.2029526e-05   0.50827345 0.0041966997            0   0.50407675    1.5631424    2.0714158 -0.080495888 
 4665000    1.0329537 8.8631286e-05   0.54722995 0.0025171518            0    0.5447128    1.5300626    2.0772926    6.6152144 
 4670000   0.99336929 -3.0623525e-05   0.58690811  0.006547781            0   0.58036033    1.4714283    2.0583364    0.4904119 
 4675000   0.94954387 -0.00013697719   0.65017261  0.012594816            0   0.63757779    1.4065119    2.0566845   -4.9565476 
 4680000    1.0893934 7.3065714e-05   0.45890255 0.0072931131            0   0.45160943     1.613664    2.0725666    5.8135311 
 4685000    0.9383796 -4.2590514e-05   0.65189106  0.011490535            0   0.64040053    1.3899748    2.0418658  -0.13876851 
 4690000     1.061177 -7.3423853e-05    0.4927067  0.013273471            0   0.47943323    1.5718684    2.0645751   -1.6947261 
 4695000    1.0687571 -5.0558308e-05   0.49239881 0.0041635546            0   0.48823525    1.5830965    2.0754953  -0.51309006 
 4700000   0.98301856 -3.807119e-05   0.62241649 0.00013226655            0   0.62228422    1.4560962    2.0785127   0.12926779 
 4705000    1.0196213 0.00010192758   0.54388084 0.00090743742            0    0.5429734     1.510314    2.0541949    7.2728868 
 4710000   0.99942226 0.00012917531   0.59548452 0.0019774273            0   0.59350709    1.4803942    2.0758787    8.6896548 
 4715000    1.0822728 4.3408648e-05   0.49472838 0.0060800206            0   0.48864836    1.6031166     2.097845    4.3203677 
 4720000   0.99520484 -5.9781381e-05   0.65253255  0.021667826            0   0.63086472    1.4741472    2.1266797  -0.93412697 
 4725000     1.058814 -0.00010120472   0.54948504  0.029436923            0   0.52004811    1.5683682    2.1178532   -3.0638285 
 4730000    1.0505727 0.00011818412   0.53984943  0.020712739            0   0.51913669    1.5561608    2.0960102    8.1470373 
 4735000    1.0221387 0.00028389919    0.6157713  0.014371453            0   0.60139985    1.5140429    2.1298142    16.665453 
 4740000      1.10913 7.8022061e-05   0.48458067  0.006706139            0   0.47787453    1.6428989    2.1274795    6.1222091 
 4745000    1.1518601 -6.0467189e-05   0.40581497 0.0070541394            0   0.39876083    1.7061928    2.1120078  -0.98391228 
 4750000    1.0239151 -7.0746759e-06   0.61765949  0.017286014            0   0.60037348    1.5166742    2.1343337    1.7721103 
 4755000    1.0299702 -7.7016501e-05   0.61765827  0.019456469            0    0.5982018    1.5256434    2.1433017   -1.7999432 
 4760000    1.0482627 -0.00011458537   0.62232857  0.016456392            0   0.60587218    1.5527392    2.1750677    -3.691703 
 4765000    1.1010454 -5.7718612e-05   0.54069088  0.015693102            0   0.52499778    1.6309235    2.1716144  -0.78357854 
 4770000     1.068533 -4.82906e-05   0.61942698 0.0052438606            0   0.61418312    1.5827645    2.2021915  -0.27028725 
 4775000    1.0797605 -3.5853333e-05   0.58419048  0.017593732            0   0.56659675    1.5993952    2.1835857   0.34789502 
 4780000    1.0102053 -0.00014049181   0.67082164  0.015523632            0   0.65529801    1.4963666    2.1671883   -5.0259927 
 4785000    1.0338403 -0.00015741747   0.63507795  0.015781752            0    0.6192962     1.531376     2.166454   -5.8933207 
 4790000    1.1167253 -6.9830182e-05   0.51239956 0.0096887917            0   0.50271077    1.6541494    2.1665489   -1.4087564 
 4795000    1.0396242 6.8662954e-05   0.59859706  0.012240953            0   0.58635611    1.5399434    2.1385404    5.6540837 
 4800000    1.0825576 0.00013831153   0.51242672  0.029382422            0   0.48304429    1.6035384    2.1159652    9.1975157 
 4805000    1.0496081 -0.00011128173   0.57132636   0.02260507            0   0.54872129     1.554732    2.1260584   -3.5715663 
 4810000    1.0233046 -0.00015938274   0.61416921   0.02592022            0   0.58824899      1.51577    2.1299392   -6.0304571 
 4815000    1.0339035 2.5687095e-05   0.59455262  0.024097133            0   0.57045549    1.5314695    2.1260222    3.4412014 
 4820000    1.0606449 8.2542655e-05   0.56839756  0.038126733            0   0.53027082    1.5710803    2.1394778    6.3656618 
 4825000    1.0859262 5.7347812e-05   0.55192509  0.047796168            0   0.50412892    1.6085281    2.1604532    5.0966612 
 4830000    1.0693731 -8.6541502e-05   0.55683989  0.021434568            0   0.53540532    1.5840089    2.1408488   -2.2900761 
 4835000     1.074349 0.00010125361   0.54357282  0.016112211            0   0.52746061    1.5913794    2.1349522    7.3191373 
 4840000    1.0301779 6.2706945e-05   0.64849303  0.028812479            0   0.61968055     1.525951    2.1744441    5.3850397 
 4845000     1.040657 -0.00011681044   0.63730433   0.01753432            0   0.61977001    1.5414732    2.1787776   -3.8019169 
 4850000     1.057088 -2.9477219e-06    0.5879388 0.0062884298            0   0.58165037    1.5658116    2.1537504     2.002827 
 4855000    1.0956049 -0.00014788426   0.55233585  0.017989093            0   0.53434676    1.6228647    2.1752006   -5.3964737 
 4860000    1.1072432 3.9869647e-07   0.53135009  0.025341801            0   0.50600829     1.640104    2.1714541    2.1918673 
 4865000    1.0025686 8.959658e-05   0.67151403  0.010947127            0   0.66056691    1.4850547    2.1565688    6.7439137 
 4870000    1.0436591 4.4793529e-05   0.60045444  0.017274289            0   0.58318015    1.5459201    2.1463745    4.4398032 
 4875000   0.99659791 1.4042843e-05   0.67399072   0.02762317            0   0.64636755    1.4762106    2.1502014    2.8691949 
 4880000    1.0764651 3.7841947e-05   0.55979669  0.026067004            0   0.53372969    1.5945139    2.1543106    4.0918183 
 4885000    1.1302401 -4.2326764e-05   0.49642147  0.017371687            0   0.47904978    1.6741682    2.1705896 0.0034593198 
 4890000    1.1080408 -1.1092146e-06   0.55756088  0.037890614            0   0.51967027    1.6412854    2.1988463    2.1420545 
 4895000    1.1200759 0.00013111847   0.55183463 0.0089967446            0   0.54283788    1.6591124     2.210947    8.9242129 
 4900000    1.0883063 4.3933312e-05   0.59574576 0.0029437103            0   0.59280205    1.6120537    2.2077995    4.4571851 
 4905000    1.2051679 4.1221663e-05   0.46963095  0.011589455            0    0.4580415    1.7851549    2.2547859     4.365335 
 4910000    1.2048439 0.00014856327   0.48291672  0.039927755            0   0.44298897     1.784675    2.2675918    9.8740314 
 4915000    1.1710601 8.137667e-05   0.54977248 0.0078925418            0   0.54187993    1.7346327    2.2844052    6.4508907 
 4920000    1.1488063 0.00010706229   0.58767652  0.016678138            0   0.57099838    1.7016693    2.2893458    7.7709349 
 4925000    1.1559834 0.00010635567   0.57857942 0.0089481871            0   0.56963123    1.7123005    2.2908799    7.7362904 
 4930000    1.1483617 -6.498122e-05   0.57332917  0.019369808            0   0.55395936    1.7010108      2.27434   -1.0526985 
 4935000    1.0797801 5.9761806e-05   0.64026484  0.068472467            0   0.57179237    1.5994243    2.2396892    5.2994936 
 4940000    1.0824745 6.1775313e-05   0.62486904  0.022394724            0   0.60247432    1.6034154    2.2282844    5.3911804 
 4945000    1.1270846 -0.00012001765   0.58954265  0.032857337            0   0.55668531    1.6694941    2.2590367   -3.8858669 
 4950000    1.1860145 -3.3309086e-05   0.49406213  0.049917556            0   0.44414458     1.756784    2.2508461   0.54542091 
 4955000    1.1540777 0.00013684151   0.52916376  0.038718699            0   0.49044506    1.7094776    2.2386413    9.2449266 
 4960000    1.0699036 -7.3872591e-05   0.65400775  0.060748752            0     0.593259    1.5847947    2.2388024   -1.5434742 
 4965000    1.1630729 -5.0429322e-05   0.53620505  0.034946112            0   0.50125894    1.7228017    2.2590067  -0.32297458 
 4970000    1.0491553 -2.0950524e-05   0.73284358  0.034056715            0   0.69878686    1.5540612    2.2869048     1.214238 
 4975000    1.0426425 -0.00010069347   0.74427816  0.039831281            0   0.70444688    1.5444141    2.2886923   -2.8668135 
 4980000    1.1653407 -4.1386316e-05   0.55378001  0.018162733            0   0.53561728    1.7261609    2.2799409   0.16096155 
 4985000    1.1577562 -8.7874743e-05   0.58295516 0.00015894061            0   0.58279622    1.7149264    2.2978816   -2.2013052 
 4990000    1.1778648 2.0570359e-05   0.54888053 0.00010378568            0   0.54877674    1.7447122    2.2935927    3.3467951 
 4995000    1.1393708 -0.00011052484   0.61358413 0.0096068672            0   0.60397727     1.687693    2.3012772   -3.3575946 
 5000000    1.0971314 -0.0001825691   0.67074438  0.029107092            0   0.64163729    1.6251258    2.2958702   -7.0516679 
 5005000    1.0563721 0.0001101935   0.72611129   0.07673514            0   0.64937615    1.5647511    2.2908624    7.9327697 
 5010000    1.1286664 6.8543459e-05    0.6129186  0.038010456            0   0.57490814    1.6718371    2.2847557    5.7941808 
 5015000    1.2049668 5.2608576e-05   0.50834171   0.01047098            0   0.49787073    1.7848571    2.2931988    4.9867579 
 5020000     1.141116 5.499946e-05   0.63478602  0.015272352            0   0.61951367     1.690278     2.325064    5.1410364 
 5025000    1.1604526 -0.00010964328   0.60550566  0.020620685            0   0.58488497    1.7189204    2.3244261   -3.2893099 
 5030000    1.2440135 9.9109341e-06   0.47147627  0.021723045            0   0.44975323    1.8426949    2.3141712     2.821611 
 5035000    1.1192247 7.8201401e-05   0.67437275  0.030770753            0   0.64360199    1.6578515    2.3322243     6.336136 
 5040000    1.1187961 -8.6880187e-05   0.65731804  0.050462434            0    0.6068556    1.6572168    2.3145348   -2.1337307 
 5045000    1.1479429 -5.2896811e-05   0.58997743  0.034916293            0   0.55506114    1.7003904    2.2903679  -0.41794885 
 5050000    1.1267423 8.5708715e-05   0.60439213  0.015897647            0   0.58849449     1.668987    2.2733791    6.6616653 
 5055000    1.1250032 4.1015564e-05   0.59756503  0.041986646            0   0.55557838    1.6664111    2.2639761     4.363973 
 5060000    1.1390475 7.4105372e-05   0.55739694  0.017785771            0   0.53961117    1.6872142    2.2446111    6.0388062 
 5065000    1.2095041 0.00010804066   0.47494618  0.018113441            0   0.45683274    1.7915779    2.2665241    7.7982057 
 5070000    1.0832464 3.7477687e-05   0.63101402  0.018097262            0   0.61291676    1.6045587    2.2355727    4.1544303 
 5075000    1.0986638 -3.6413698e-05   0.57964425 0.0085362108            0   0.57110804    1.6273958      2.20704   0.34265869 
 5080000    1.1112507 -0.00012103945     0.504937 0.0082398973            0   0.49669711    1.6460402    2.1509772   -4.0462429 
 5085000    1.1412897 -5.9903703e-05   0.48078048 0.0031000311            0   0.47768044    1.6905354    2.1713159  -0.89575374 
 5090000     1.044745 3.2085059e-05   0.62494224  0.025742314            0   0.59919993    1.5475285    2.1724707    3.8152258 
 5095000    1.0541491 1.3623642e-06   0.59982257  0.035852506            0   0.56397006    1.5614584     2.161281     2.231034 
 5100000     1.020358 -0.00011544042   0.65959782  0.049168241            0   0.61042958    1.5114053    2.1710031   -3.7395464 
 5105000    1.1577176 -3.5824962e-05   0.48375556  0.043251002            0   0.44050456    1.7148692    2.1986248   0.36438671 
 5110000    1.1382226 2.4526138e-06   0.54899664  0.010542463            0   0.53845418    1.6859923    2.2349889    2.3605627 
 5115000    1.1585235 -8.1913583e-05   0.54069112  0.014133844            0   0.52655728     1.716063    2.2567541   -1.9372214 
 5120000    1.1058419 -0.00017667583   0.60426512  0.038323013            0   0.56594211    1.6380283    2.2422934   -6.8035093 
 5125000    1.0572285 -0.00026997967    0.6823442  0.025798619            0   0.65654558    1.5660198     2.248364   -11.574595 
 5130000    1.0947924 -5.6418592e-05   0.60660159    0.0141343            0   0.59246729    1.6216612    2.2282628  -0.66036908 
 5135000    1.2072278 9.1539401e-05   0.41656212 0.0031865867            0   0.41337553    1.7882061    2.2047682    6.8915856 
 5140000    1.0328084 0.0001069276   0.68276028  0.002284976            0   0.68047531    1.5298474    2.2126077    7.6873009 
 5145000    1.1346745 0.0001332922   0.52165932 0.0019858857            0   0.51967344    1.6807366    2.2023959    9.0269568 
 5150000    1.1594342 -1.2477919e-05   0.50778748 0.00068787421            0    0.5070996    1.7174119    2.2251994    1.5863299 
 5155000    1.1674353 -0.00016575457   0.53314786 0.0032006384            0   0.52994722    1.7292635    2.2624114   -6.2242227 
 5160000    1.0867892 -3.5372749e-05   0.63708663 0.0061478724            0   0.63093875    1.6098065    2.2468931   0.43580835 
 5165000     1.176369 2.6299298e-05   0.47504543 0.0097923501            0   0.46525308    1.7424965    2.2175419     3.564066 
 5170000    1.0851626 2.2187267e-05    0.5792953   0.04017496            0   0.53912034    1.6073972    2.1866925    3.3226805 
 5175000    1.0629942 -2.7902289e-05   0.61179827  0.033946795            0   0.57785147    1.5745602    2.1863585   0.75776126 
 5180000    1.0936288 0.0001165252   0.58406799  0.019374421            0   0.56469356    1.6199377    2.2040057    8.1700958 
 5185000    1.1214245 0.00011158691   0.52417684  0.022526197            0   0.50165064    1.6611101    2.1852869    7.8985366 
 5190000    1.0635484 -0.00011507026   0.58135651  0.042219235            0   0.53913728     1.575381    2.1567376   -3.7348597 
 5195000    1.0993899 -8.4770592e-05    0.4992442  0.071300028            0   0.42794417    1.6284712    2.1277154   -2.2125389 
 5200000    1.0692877 2.6550286e-05   0.55601025  0.034518788            0   0.52149146    1.5838825    2.1398927    3.4992673 
 5205000    1.0918358 -7.114008e-06   0.49282467  0.029972006            0   0.46285266    1.6172818    2.1101065    1.7458693 
 5210000    1.1062098 0.0001506909    0.4590125  0.024814503            0     0.434198    1.6385733    2.0975858    9.8129599 
 5215000    1.0257367 0.00014940906   0.57420387  0.047030268            0    0.5271736    1.5193725    2.0935764    9.7433203 
 5220000    1.0787818 7.1137143e-05   0.49732972  0.011200132            0   0.48612958    1.5979456    2.0952753     5.737497 
 5225000    1.0337571 3.5927079e-05   0.59717788 0.0087058929            0   0.58847198    1.5312527    2.1284305     3.967897 
 5230000    1.0427537 -9.4418333e-05   0.59340216  0.032482127            0   0.56092004    1.5445789    2.1379811   -2.6962375 
 5235000    1.0778047 -5.8740889e-05   0.52373924   0.03093966            0   0.49279958    1.5964982    2.1202374  -0.88729612 
 5240000    1.0756229 7.0368015e-05   0.53133414  0.016337865            0   0.51499628    1.5932664    2.1246006     5.727443 
 5245000    1.1071397 -1.3764571e-05   0.47748776  0.020174223            0   0.45731354    1.6399506    2.1174384    1.4126923 
 5250000    1.1479244 -0.00015183375   0.42244925 0.0099536099            0   0.41249564     1.700363    2.1228123   -5.6510757 
 5255000    1.0622958 -0.00010019563   0.53444581 0.0035382607            0   0.53090755    1.5735257    2.1079715   -3.0220449 
 5260000    1.0526135 6.1366279e-05   0.56687685 0.0014265395            0   0.56545031    1.5591838    2.1260607    5.2680142 
 5265000    1.1061162 -5.2922553e-06   0.48829144  0.015142405            0   0.47314903    1.6384346     2.126726    1.8557625 
 5270000    1.1299636 8.7724131e-06   0.42103774  0.012077645            0    0.4089601    1.6737586    2.0947964    2.5439439 
 5275000    1.0974162 0.00017302259   0.45214552  0.017054811            0   0.43509071    1.6255477    2.0776932     10.93645 
 5280000    1.1065503 6.6867091e-05   0.46794159  0.023119245            0   0.44482234    1.6390776    2.1070192    5.5306143 
 5285000    1.0207832 -0.00011485866   0.59445384  0.028532036            0    0.5659218    1.5120351    2.1064889   -3.7742747 
 5290000   0.94406687 -0.0001241367   0.70008728  0.056828915            0   0.64325836     1.398399    2.0984863   -4.2573127 
 5295000    1.0824876 -1.5270039e-05   0.52390476  0.047204414            0   0.47670034    1.6034347    2.1273395    1.3455135 
 5300000   0.98712832 0.00014488023   0.70292058  0.056070824            0   0.64684975    1.4621838    2.1651044     9.582972 
 5305000    1.0300518 7.5188186e-05   0.60395253  0.037525552            0   0.56642698    1.5257642    2.1297168    5.9793519 
 5310000    1.0302392 -3.4650425e-05    0.6094716  0.032557462            0   0.57691413    1.5260418    2.1355134   0.36141163 
 5315000    1.0709313 -5.4621736e-05   0.56221335  0.018137553            0    0.5440758    1.5863171    2.1485304  -0.64810246 
 5320000   0.93759724 7.8724427e-05   0.74418556  0.015725374            0   0.72846019    1.3888159    2.1330015    6.1636922 
 5325000     1.044402 2.7658437e-05    0.5508098  0.026128407            0   0.52468139    1.5470204    2.0978303    3.5139422 
 5330000      1.11904 -2.4438925e-05   0.47179055  0.017406606            0   0.45438395     1.657578    2.1293686   0.87809561 
 5335000    1.0320539 -0.00011275945   0.58849596 0.0049257198            0   0.58357024    1.5287299    2.1172258   -3.6560579 
 5340000    1.0220683 -0.00010509011   0.61381782  0.017250926            0    0.5965669    1.5139386    2.1277564   -3.2528569 
 5345000    1.0703532 0.00013629729   0.54332739  0.033079596            0   0.51024779    1.5854607    2.1287881    9.1072093 
 5350000    1.0885901 -5.2455589e-05   0.49589386   0.00733558            0   0.48855828    1.6124741    2.1083679  -0.57735825 
 5355000    1.0344929 -0.00011926282   0.60172695 0.0015467854            0   0.60018017    1.5323426    2.1340696   -3.9721867 
 5360000    1.1128006 -1.5500822e-06   0.49552398 0.0050856038            0   0.49043838    1.6483359    2.1438599    2.0644957 
 5365000    1.1007846 6.511822e-05   0.52273029  0.046114573            0   0.47661572    1.6305371    2.1532674    5.4873203 
 5370000    1.1080031 1.7895425e-06   0.52371911  0.018489325            0   0.50522978    1.6412296    2.1649488    2.2565733 
 5375000     1.088113 -0.000169788   0.53773594 0.0090113118            0   0.52872463    1.6117673    2.1495033   -6.5436424 
 5380000    1.0524891 -1.0153103e-05   0.60868924  0.035006182            0   0.57368306    1.5589995    2.1676888    1.6478499 
 5385000    1.1101795 3.569202e-05   0.49607513  0.043501287            0   0.45257384    1.6444534    2.1405285    3.9679599 
 5390000     1.123518 -1.4327154e-05   0.46487966  0.039324939            0   0.42555472     1.664211    2.1290906    1.3955404 
 5395000    1.0047714 -3.1162112e-05   0.63653761  0.046715079            0   0.58982253    1.4883176    2.1248552    0.5293551 
 5400000   0.98442339 -8.4239619e-06   0.67349708  0.021201401            0   0.65229568    1.4581771    2.1316742    1.7003674 
 5405000    1.0406009 1.3874551e-05   0.61483496 0.0011757219            0   0.61365924      1.54139     2.156225     2.866602 
 5410000    1.1171035 3.6832112e-05    0.5049802 0.0030691639            0   0.50191103    1.6547095    2.1596897    4.0454938 
 5415000    1.0035151 7.435676e-05   0.66303572  0.015174032            0   0.64786168    1.4864568    2.1494925    5.9565586 
 5420000    1.1054919 5.3127655e-05   0.52202102 0.0087274346            0   0.51329358    1.6375099    2.1595309    4.8796669 
 5425000    1.1026182 -9.3344515e-05   0.52381929 0.0045710716            0   0.51924821    1.6332532    2.1570725   -2.6221667 
 5430000    1.1034185 -5.5304475e-05   0.54854025 0.0088741941            0   0.53966606    1.6344387    2.1829789  -0.64861018 
 5435000    1.1471851 1.2380202e-05   0.46905205  0.009710684            0   0.45934136     1.699268      2.16832    2.8021864 
 5440000    1.1502995 4.3133842e-05   0.49707979  0.028473311            0   0.46860648    1.7038811    2.2009609    4.4094136 
 5445000    1.0959527 0.00010437961   0.57476617  0.059165535            0   0.51560063    1.6233799     2.198146     7.542382 
 5450000    1.0793411 1.5925779e-05   0.58751889 0.0043686999            0   0.58315019     1.598774    2.1862929    3.0016928 
 5455000    1.1278117 -4.0481148e-05   0.50247401   0.01682521            0    0.4856488    1.6705711    2.1730451   0.10041035 
 5460000    1.0537237 3.0798554e-05   0.61502245  0.033490213            0   0.58153224    1.5608282    2.1758507    3.7527366 
 5465000    1.1251548 0.00011006179   0.49116213  0.029445377            0   0.46171675    1.6666356    2.1577977    7.7929614 
 5470000    1.0991095 1.6011735e-05   0.51051469  0.017570656            0   0.49294403     1.628056    2.1385707    2.9583715 
 5475000    1.0355041 3.7957929e-05   0.63398546  0.019378646            0   0.61460681    1.5338404    2.1678259    4.1112719 
 5480000      1.12867 -1.5023129e-08   0.44776022  0.026046351            0   0.42171386    1.6718425    2.1196027    2.1188335 
 5485000     1.089866 5.1413385e-05   0.49818875  0.022913385            0   0.47527536     1.614364    2.1125527    4.7449181 
 5490000    1.0654747 3.5905289e-05   0.50754345 0.0036767502            0    0.5038667    1.5782344    2.0857779    3.9241287 
 5495000    1.0150905 -7.1382962e-05   0.61020543 0.0052609956            0   0.60494444    1.5036027    2.1138082   -1.5409995 
 5500000   0.98781853 8.0777369e-05   0.65064424  0.014352088            0   0.63629215    1.4632062    2.1138504    6.2496517 
 5505000    1.0715892 9.3444426e-05   0.55655013  0.010109765            0   0.54644037    1.5872915    2.1438417    6.9281963 
 5510000     1.160962 -5.1213676e-05   0.44638298 0.0022117134            0   0.44417127    1.7196749    2.1660579  -0.45608235 
 5515000    1.0363898 -0.00012047191   0.58573009   0.02067004            0   0.56506005    1.5351525    2.1208825   -4.0472795 
 5520000    1.0374242 -1.9416803e-05   0.58919401   0.02375434            0   0.56543967    1.5366846    2.1258786    1.1317383 
 5525000    1.0517916 0.00010614618   0.54315823 0.0060173076            0   0.53714092    1.5579663    2.1011246    7.5358088 
 5530000    1.0454533 8.2203327e-05   0.54296515 0.0034712904            0   0.53949385    1.5485777    2.0915428    6.3003532 
 5535000     1.092867 1.1956662e-05   0.48767531  0.013911122            0   0.47376419    1.6188093    2.1064846    2.7186657 
 5540000    1.1051931 -4.0613539e-05   0.45082694    0.0173096            0   0.43351734    1.6370673    2.0878943 0.0084810619 
 5545000    1.0738642 2.1015885e-05   0.51911313  0.012112046            0   0.50700109    1.5906613    2.1097744    3.1857878 
 5550000    1.0132027 1.9877744e-06   0.57550587  0.018066611            0   0.55743926    1.5008065    2.0763124    2.1780864 
 5555000    1.0525173 -3.1726453e-05   0.53503309  0.047406225            0   0.48762687    1.5590413    2.0940743   0.46967997 
 5560000    1.0424774 -2.7833848e-05   0.54059477  0.038650165            0    0.5019446    1.5441696    2.0847644   0.65967136 
 5565000    1.0618595 -1.761084e-05   0.50106192  0.030531022            0   0.47053089    1.5728793    2.0739412    1.1722662 
 5570000    1.0328654 6.0643579e-06    0.5312709 0.0094435653            0   0.52182733    1.5299318    2.0612027    2.3716978 
 5575000    1.1060275 -2.4235007e-05   0.42854432 0.00083345858            0   0.42771086    1.6383032    2.0668476   0.82601521 
 5580000    1.0663621 4.396867e-05   0.46344726            0            0   0.46344726    1.5795489    2.0429961     4.294192 
 5585000   0.99881981 5.1783361e-05   0.58366564 4.6535199e-05            0    0.5836191    1.4795018    2.0631675    4.7144756 
 5590000    1.0637029 -6.2176128e-05    0.4726367 0.0011977239            0   0.47143898    1.5756099    2.0482466   -1.1351711 
 5595000    1.0317079 -0.00017881643   0.49799209  0.007746774            0   0.49024532    1.5282174    2.0262094   -7.1291916 
 5600000   0.98183139 -0.00014638974   0.57516652  0.025181118            0    0.5499854    1.4543377    2.0295043   -5.4656504 
 5605000   0.97791864 3.1097975e-05   0.57363592  0.045551291            0   0.52808463     1.448542    2.0221779    3.6143942 
 5610000   0.96773029 9.3967273e-05   0.58847772  0.055550825            0    0.5329269    1.4334505    2.0219282    6.8330526 
 5615000     1.050506 2.5817869e-05   0.48394697  0.057337137            0   0.42660983     1.556062    2.0400089    3.3618838 
 5620000    1.0410558 -0.00014834091   0.49260325  0.023246135            0   0.46935711    1.5420639    2.0346671   -5.5603876 
 5625000   0.96358435 -0.00010258133   0.61947462  0.026390707            0   0.59308392    1.4273093    2.0467839   -3.2053801 
 5630000    1.0695787 6.9037452e-05   0.47167891  0.038463363            0   0.43321554    1.5843135    2.0559924    5.5907099 
 5635000    1.0777716 3.9070589e-05   0.44484902   0.02081175            0   0.42403727    1.5964492    2.0412982    4.0417124 
 5640000   0.93199003 -0.000139356   0.66425854  0.016527036            0   0.64773151    1.3805102    2.0447688   -5.0902583 
 5645000    1.0545719 2.1063288e-05   0.49069382  0.022790724            0    0.4679031    1.5620847    2.0527785    3.1312189 
 5650000    1.0597642 4.2760248e-05   0.46965173  0.005746887            0   0.46390484    1.5697757    2.0394274    4.2287521 
 5655000    1.0517277 3.9295007e-05   0.45218129  0.001179188            0   0.45100211    1.5578717     2.010053    4.0219574 
 5660000   0.95824744 -3.8173795e-05   0.58668462 0.0069604105            0   0.57972421     1.419404    2.0060886  0.051590348 
 5665000   0.93731413 -7.1052192e-05   0.62367461  0.017903577            0   0.60577103    1.3883966    2.0120712   -1.6258011 
 5670000   0.97643157 4.105727e-05   0.55770914  0.065129486            0   0.49257966    1.4463393    2.0040484    4.1061806 
 5675000   0.95647995 -3.9530861e-05   0.56867783  0.022638684            0   0.54603915    1.4167859    1.9854638 -0.038516326 
 5680000   0.99549241 -4.0180777e-05    0.5298104 0.0029825559            0   0.52682784    1.4745731    2.0043835 -0.052872262 
 5685000   0.99456821 4.7624999e-05   0.52831069 0.0040935524            0   0.52421714    1.4732042    2.0015149    4.4399148 
 5690000   0.94593148 4.3193722e-05   0.62053535 0.0059868271            0   0.61454852     1.401161    2.0216964    4.2332149 
 5695000    1.0376791 5.8899521e-05   0.48535056  0.013050361            0   0.47230019    1.5370621    2.0224127    5.0380681 
 5700000    1.0300634 8.4129675e-05   0.49462314  0.012205637            0    0.4824175    1.5257814    2.0204046     6.327844 
 5705000   0.96542993 3.7133528e-05   0.59529501 0.0065443374            0   0.58875067    1.4300431    2.0253381    3.9265747 
 5710000    1.0563962 8.5201229e-05    0.4735931  0.011047883            0   0.46254522    1.5647869      2.03838    6.4006829 
 5715000     1.049826 7.6972096e-05   0.52649425  0.018141615            0   0.50835264    1.5550548     2.081549    6.0225204 
 5720000   0.99886356 -0.00010729572   0.60324656  0.054163418            0   0.54908314    1.4795666    2.0828132   -3.4107277 
 5725000   0.98473499 1.7221299e-05   0.61725136  0.046634794            0   0.57061656    1.4586387    2.0758901    2.9576205 
 5730000    1.0267773 -2.5928086e-05   0.55977238  0.034417542            0   0.52535484    1.5209139    2.0806863   0.75316829 
 5735000    1.0282501 9.1575789e-05    0.5615596  0.031961918            0   0.52959768    1.5230955    2.0846551    6.7733355 
 5740000    0.9592775 0.00016277527   0.60955635  0.016763637            0   0.59279272    1.4209298    2.0304861     10.36458 
 5745000   0.98333825 0.00011752911   0.60138445  0.015802608            0   0.58558184    1.4565698    2.0579542    8.0754444 
 5750000     1.026039 2.8397237e-05   0.51142793 0.0063746756            0   0.50505325    1.5198203    2.0312482    3.4851868 
 5755000   0.98747961 -0.00014205253   0.57322531 0.00079663848            0   0.57242868    1.4627042    2.0359295     -5.23716 
 5760000   0.98528554 -0.00016955527   0.54103252 0.0030305423            0   0.53800198    1.4594542    2.0004867   -6.6807433 
 5765000    1.0111583 -9.885281e-05   0.52592502  0.016269987            0   0.50965503    1.4977782    2.0237032   -3.0375607 
 5770000    0.9883811 -7.6137208e-05   0.56511693  0.033511198            0   0.53160574    1.4640395    2.0291564   -1.8690686 
 5775000   0.93445442 -0.00011643337   0.63536927   0.01866412            0   0.61670515    1.3841606    2.0195299   -3.9418585 
 5780000   0.98070107 -8.073027e-05   0.57207952  0.015091686            0   0.55698783    1.4526635     2.024743   -2.1086469 
 5785000   0.88961275 -2.9642052e-05   0.69656183  0.035390854            0   0.66117098    1.3177389    2.0143007   0.49662766 
 5790000    1.0081413 -1.9233996e-05   0.51720562  0.050829102            0   0.46637652    1.4933094     2.010515    1.0257344 
 5795000    1.0069321 -3.9727895e-05    0.5199464   0.04894273            0   0.47100367    1.4915181    2.0114645  -0.02260371 
 5800000   0.97912573 4.5783552e-05   0.55444496  0.034377737            0   0.52006723      1.45033    2.0047749    4.3488928 
 5805000   0.94313104 8.5085182e-05   0.59623127  0.041707871            0    0.5545234    1.3970129    1.9932441    6.3496055 
 5810000   0.87808581 3.9142382e-05   0.68756394  0.065987734            0   0.62157621    1.3006646    1.9882285    3.9923185 
 5815000   0.97963982 -3.578451e-05    0.5579122  0.020624789            0   0.53728741    1.4510915    2.0090037   0.17683676 
 5820000   0.94643838 8.0935858e-06   0.59420142  0.025722183            0   0.56847924    1.4019119    1.9961133    2.4105049 
 5825000    0.9615021 4.8219839e-05   0.56040177  0.014893278            0    0.5455085     1.424225    1.9846268    4.4534825 
 5830000   0.90527199 -1.1875573e-05   0.63125506  0.013860641            0   0.61739442    1.3409341    1.9721892    1.3641599 
 5835000   0.89308648 1.4638039e-05    0.6538977 0.0093447915            0   0.64455291    1.3228843     1.976782    2.7262496 
 5840000   0.99627545 -3.2850943e-08   0.49509397 0.0035661934            0   0.49152778     1.475733     1.970827     1.969145 
 5845000    0.9903437 1.8979761e-05   0.50662133  0.011677034            0    0.4949443    1.4669466    1.9735679    2.9453317 
 5850000   0.90060043 6.6538022e-06   0.66413918  0.030985115            0   0.63315406    1.3340144    1.9981536    2.3388282 
 5855000   0.97643236 3.4537268e-05   0.54667854  0.018866973            0   0.52781157    1.4463404     1.993019    3.7613271 
 5860000   0.99104354 3.8743498e-08   0.50360758  0.010557088            0   0.49305049    1.4679832    1.9715908    1.9735745 
 5865000   0.99522201 -9.3142178e-05   0.50050784  0.021340467            0   0.47916737    1.4741726    1.9746804   -2.7941991 
 5870000   0.96509953 -0.00013824978   0.57469546  0.010058405            0   0.56463705    1.4295537    2.0042491   -5.0741396 
 5875000    1.0123116 -0.00012773286   0.51413033  0.007437355            0   0.50669297    1.4994865    2.0136169   -4.5263054 
 5880000    1.0091951 -9.1564918e-06   0.53158025 0.0095435541            0    0.5220367    1.4948702    2.0264505    1.5576381 
 5885000   0.97285337 6.5790177e-05    0.5795526  0.020508063            0   0.55904454    1.4410391    2.0205917    5.3890487 
 5890000    1.0212673 3.8815727e-05   0.50140679 0.0098551256            0   0.49155166    1.5127522     2.014159    4.0015242 
 5895000    1.0259901 7.0554342e-05   0.49467423  0.019929401            0   0.47474483    1.5197479    2.0144221    5.6268044 
 5900000   0.97351903 -5.1652935e-05   0.58752312  0.035330738            0   0.55219238    1.4420251    2.0295482  -0.61508211 
 5905000    1.0110922 -9.8827439e-05   0.51021386  0.017554166            0   0.49265969    1.4976803    2.0078941   -3.0520707 
 5910000      1.02957 -7.6471353e-05   0.49599353  0.012754117            0   0.48323941    1.5250505    2.0210441   -1.8942892 
 5915000   0.98083139 -3.4246619e-05   0.58459139 0.0058490087            0   0.57874238    1.4528565    2.0374479   0.28402102 
 5920000    1.0130974 -8.9120924e-06    0.5577687 0.0077660227            0   0.55000268    1.5006505    2.0584192    1.6021201 
 5925000    1.0400031 -2.5046348e-05    0.5017303  0.005206106            0   0.49652419    1.5405046    2.0422349   0.75986189 
 5930000    1.0495173 0.00010066576   0.54120873  0.016135983            0   0.52507275    1.5545975    2.0958063    7.2498934 
 5935000    1.0688722 9.174516e-05   0.50427761  0.033768405            0    0.4705092     1.583267    2.0875446    6.7848968 
 5940000   0.98472269 2.8134667e-05   0.62162287  0.059620911            0   0.56200195    1.4586205    2.0802434    3.5207383 
 5945000   0.97758475 6.9218523e-05   0.63643914  0.047973354            0   0.58846579    1.4480474    2.0844866    5.6284749 
 5950000    1.0778207 4.827722e-05   0.48779867   0.01977232            0   0.46802635    1.5965219    2.0843206    4.5561143 
 5955000    1.0182194 1.1071229e-05   0.57847433 0.0029932559            0   0.57548108    1.5082374    2.0867118    2.6535587 
 5960000    1.0624133 -1.6028304e-05   0.49938556  0.004552552            0   0.49483301    1.5736997    2.0730852    1.2524361 
 5965000   0.99083593 -8.9726877e-05   0.61621773  0.057899376            0   0.55831835    1.4676757    2.0838935   -2.5101226 
 5970000    1.0335067 -6.4442838e-05   0.52456818 0.0050547451            0   0.51951343    1.5308818      2.05545   -1.2440233 
 5975000    1.0538168 3.8474693e-05   0.48967023 0.0073775691            0   0.48229267    1.5609662    2.0506364    4.0205407 
 5980000    1.0041327 3.1613021e-05   0.54838452  0.015167096            0   0.53321742    1.4873715    2.0357561    3.6543427 
 5985000    1.0034146 -7.1217712e-05   0.55592332  0.015090081            0   0.54083324    1.4863079    2.0422312   -1.6041156 
 5990000   0.94141717 -0.000200619   0.64177903   0.02713835            0   0.61464068    1.3944742    2.0362532   -8.2354396 
 5995000   0.97149168 -0.0001425117   0.60123309  0.012250695            0   0.58898239     1.439022    2.0402551   -5.2563439 
 6000000   0.98323822 -2.1459038e-05   0.60125167 0.0016549272            0   0.59959674    1.4564216    2.0576733   0.95897051 
 6005000   0.95854805 5.0456107e-06   0.60876154 0.0043961401            0    0.6043654    1.4198493    2.0286108    2.2869461 
 6010000     1.016151 4.1625827e-05   0.52658821 0.0041840238            0   0.52240419    1.5051736    2.0317618    4.1630042 
 6015000     1.060366 1.0202196e-05   0.47246847 0.0021000593            0   0.47036842    1.5706671    2.0431356     2.565488 
 6020000   0.99207236 -3.5722411e-05   0.56744063 0.0013869027            0   0.56605372    1.4695072    2.0369478   0.20796035 
 6025000   0.93811974 -0.00010731805   0.62378788  0.022764044            0   0.60102384    1.3895899    2.0133778   -3.4813063 
 6030000   0.99431019 -8.2446808e-05   0.56408765   0.02417101            0   0.53991664     1.472822    2.0369096   -2.1843669 
 6035000    1.0017105 -0.00012200137   0.57725983 0.0044438817            0   0.57281595    1.4837837    2.0610435   -4.1854268 
 6040000    1.0344337 -0.00011911642    0.5168432 0.0054162756            0   0.51142692    1.5322549    2.0490981   -4.0496624 
 6045000    1.0170761 0.00011398958   0.54453851 0.0089367316            0   0.53560177     1.506544    2.0510825    7.8873493 
 6050000    1.0223629 5.0480561e-05   0.54583043  0.012328691            0   0.53350174    1.5143751    2.0602055    4.6448103 
 6055000   0.99361992 -3.8133018e-05   0.60870018  0.020014491            0   0.58868569    1.4717995    2.0804997   0.12808916 
 6060000     1.021272 -0.00010251565   0.58595807  0.032355037            0   0.55360303    1.5127592    2.0987172   -3.1500839 
 6065000    1.0448325 -4.5362287e-05   0.52288332  0.010107809            0   0.51277552    1.5476582    2.0705415   -0.2520076 
 6070000     1.065322 0.00011985553   0.49293345 0.0068525229            0   0.48608092    1.5780083    2.0709417    8.2075449 
 6075000   0.99998166 -5.0696081e-05   0.60931168 0.0087974717            0   0.60051421    1.4812228    2.0905345  -0.50510484 
 6080000    1.0401863 -1.7191849e-07   0.57164216  0.022840313            0   0.54880185    1.5407759    2.1124181    2.1036158 
 6085000    1.0653642 -8.6285457e-05   0.53885774 0.0081793102            0   0.53067843    1.5780707    2.1169285   -2.3008869 
 6090000    1.0209602 -5.3485486e-05   0.59113588  0.016886268            0   0.57424961    1.5122972    2.1034331  -0.63502374 
 6095000    1.0385319 -1.7968387e-05   0.56977686  0.023976579            0   0.54580028    1.5383254    2.1081023    1.1881209 
 6100000    1.0080682 -0.00010013647   0.62422411   0.02578649            0   0.59843762     1.493201    2.1174251   -3.0095623 
 6105000    1.0582045 1.7766175e-06   0.53558251  0.030079932            0   0.50550258    1.5674655     2.103048    2.1940108 
 6110000    1.0744118 -3.7985739e-05   0.51827224  0.018693706            0   0.49957853    1.5914725    2.1097447   0.16487485 
 6115000    1.0104549 0.00013936721   0.60585539  0.012274798            0   0.59358059    1.4967364    2.1025918     9.238193 
 6120000    0.9907526 4.2587413e-05   0.62151373 0.0062877808            0   0.61522595    1.4675523     2.089066    4.2695416 
 6125000    1.0756343 -5.7701418e-05   0.49158643  0.018265995            0   0.47332044    1.5932833    2.0848697  -0.86944289 
 6130000    1.0389686 3.9622745e-05   0.55050477  0.024909721            0   0.52559505    1.5389723    2.0894771    4.1181616 
 6135000    1.0688721 -1.4192358e-06   0.47956831 0.0067751103            0    0.4727932    1.5832668    2.0628351    1.9901703 
 6140000    1.0757149 3.0442806e-05   0.46466711  0.021527178            0   0.44313993    1.5934027    2.0580698    3.6167414 
 6145000    1.0213056 9.3937911e-05   0.55612905  0.011137952            0    0.5449911    1.5128089    2.0689379     6.878559 
 6150000   0.94910446 2.0839706e-05   0.63211919 0.0044943776            0   0.62762481     1.405861    2.0379802    3.1049731 
 6155000    1.0904706 5.7055031e-05   0.44151971 0.0024240218            0   0.43909569    1.6152596    2.0567793    4.9779969 
 6160000   0.97318515 -3.9772901e-05   0.63665367  0.006046021            0   0.63060765    1.4415305    2.0781842   0.04181164 
 6165000   0.94706852 -0.00020373723   0.68947055  0.011530722            0   0.67793983    1.4028452    2.0923158   -8.3390304 
 6170000    1.0564726 7.2693496e-05   0.54604277  0.032665515            0   0.51337726       1.5649    2.1109428    5.8328498 
 6175000   0.98983083 0.00020570887   0.66562396  0.054330176            0   0.61129379    1.4661869    2.1318109    12.664105 
 6180000    1.0373185 -4.5295171e-05   0.57809201  0.034426083            0   0.54366593     1.536528      2.11462  -0.20449279 
 6185000    1.0488998 2.5802324e-05    0.5358731  0.022141657            0   0.51373144    1.5536828    2.0895559    3.4106349 
 6190000    1.0751014 0.00013056367   0.51705861  0.012807891            0   0.50425072    1.5924939    2.1095525    8.7944122 
 6195000    1.0068117 4.2446252e-06   0.62853668  0.006002654            0   0.62253402    1.4913399    2.1198765    2.3372014 
 6200000    1.1095801 0.00010119761   0.47358701  0.026317935            0   0.44726907    1.6435656    2.1171526    7.2984701 
 6205000    1.0039258 -5.2510827e-05   0.61633909  0.020896733            0   0.59544236    1.4870651    2.1034042  -0.58515017 
 6210000   0.97794996 -9.6193017e-05   0.67016898  0.022431264            0   0.64773772    1.4485884    2.1187574   -2.8063251 
 6215000    1.0664806 2.0039638e-05   0.53711209   0.03778673            0   0.49932536    1.5797243    2.1168364    3.1428659 
 6220000     1.031462 3.878244e-05   0.58202718  0.028398469            0   0.55362871    1.5278531    2.1098803    4.0955412 
 6225000    1.0286482 -6.908821e-05   0.58368989  0.029856185            0    0.5538337    1.5236852     2.107375   -1.4299413 
 6230000    1.0023585 -0.00013656992   0.65034736  0.058880914            0   0.59146645    1.4847435    2.1350909   -4.8572891 
 6235000   0.99955879 3.1704492e-05   0.65445685  0.027461141            0   0.62699571    1.4805965    2.1350533    3.7583233 
 6240000    1.1921724 0.00011987808   0.36697788  0.017261608            0   0.34971627    1.7659053    2.1328832     8.270641 
 6245000    1.0875512 -4.5087206e-05   0.53817611  0.041377813            0    0.4967983    1.6109352    2.1491114  -0.15935358 
 6250000   0.97823293 -5.3484034e-05   0.69717833  0.032257946            0   0.66492038    1.4490075    2.1461859  -0.59219669 
 6255000     1.130409 3.1949829e-05   0.48277298  0.004871939            0   0.47790104    1.6744184    2.1571913    3.7930226 
 6260000    1.1515155 -5.2476885e-06   0.46792131  0.012737419            0   0.45518389    1.7056823    2.1736037     1.904922 
 6265000    1.0258877 6.7955617e-05   0.61690981  0.048751034            0   0.56815877    1.5195962     2.136506    5.6158336 
 6270000     1.064435 0.00016472145   0.56420715  0.017083721            0   0.54712343    1.5766944    2.1409016     10.57464 
 6275000    1.0899644 -7.2543253e-06   0.53847451  0.027856574            0   0.51061794    1.6145098    2.1529843    1.7815629 
 6280000    1.1794982 1.3144334e-05   0.41668117  0.029785885            0   0.38689528    1.7471317    2.1638129    2.8368028 
 6285000    1.0456873 7.2106242e-05   0.57815299  0.028937403            0   0.54921559    1.5489243    2.1270773    5.8189169 
 6290000   0.96603499 -0.00017217649   0.73502782  0.061307538            0   0.67372028    1.4309393    2.1659671   -6.6494694 
 6295000    1.0576031 -8.5284341e-05   0.60887578  0.067132539            0   0.54174324    1.5665746    2.1754504   -2.1911078 
 6300000    1.1614086 2.7871409e-05   0.45068449  0.030687732            0   0.41999675    1.7203366     2.171021    3.5980372 
 6305000    1.0638632 6.9982639e-05   0.60694761  0.077076476            0   0.52987113    1.5758474     2.182795    5.7659061 
 6310000    1.1135869 0.00018449739   0.55633222  0.019834606            0   0.53649762    1.6495005    2.2058328    11.652099 
 6315000    1.0955802 2.367884e-05   0.57943592 0.0025964315            0   0.57683949    1.6228282    2.2022641    3.4146207 
 6320000    1.1169558 4.4033547e-05    0.5309005  0.027013098            0    0.5038874    1.6544908    2.1853913    4.4399089 
 6325000    1.0472028 -0.00011566305   0.62174864  0.055425303            0   0.56632334    1.5511692    2.1729178   -3.7490305 
 6330000    1.0635001 6.8271749e-06    0.6209279  0.030498796            0   0.59042911    1.5753096    2.1962375    2.5457888 
 6335000    1.1458011 -4.1397024e-05   0.49264477  0.057705232            0   0.43493954    1.6972178    2.1898626  0.070334947 
 6340000    1.1450973 4.6786824e-05   0.50116843  0.044720499            0   0.45644793    1.6961753    2.1973437    4.5928291 
 6345000    1.1212631 5.0259677e-05   0.53188443 0.0033440882            0   0.52854034     1.660871    2.1927554    4.7660509 
 6350000    1.0194648 -9.9203628e-05   0.67554784 0.0097454544            0   0.66580239    1.5100823    2.1856301   -2.8935956 
 6355000    1.1287416 3.2228629e-05   0.52063169  0.026134283            0   0.49449741    1.6719485    2.1925802    3.8426859 
 6360000    1.1223321 5.3343425e-06   0.51823559  0.018946941            0   0.49928865    1.6624544      2.18069    2.4538083 
 6365000    1.1020615 2.0685108e-05   0.54867359  0.033877222            0   0.51479637    1.6324286    2.1811022    3.2401797 
 6370000    1.0991364 0.00012344847   0.57657168  0.024788138            0   0.55178354    1.6280958    2.2046675     8.525229 
 6375000    1.0968207 -2.7823072e-05   0.57721725  0.015472983            0   0.56174427    1.6246657    2.2018829   0.77734169 
 6380000    1.1449579 -3.8485461e-05   0.51101601  0.019547538            0   0.49146847    1.6959689    2.2069849   0.23652931 
 6385000    1.1119164 2.5947664e-05   0.56279379  0.041292933            0   0.52150086    1.6470262      2.20982    3.5383404 
 6390000    1.1746333 -3.0678172e-05   0.47429663   0.01503642            0   0.45926021    1.7399256    2.2142222    0.6434998 
 6395000    1.1886304 4.8004629e-05   0.45678213  0.014717252            0   0.44206487    1.7606588    2.2174409    4.6752779 
 6400000    1.0847001 6.762182e-05   0.60428027  0.020424415            0   0.58385586     1.606712    2.2109922    5.6732295 
 6405000    1.0864136 -8.8350195e-06   0.58005575  0.017163548            0    0.5628922    1.6092502     2.189306     1.736953 
 6410000    1.0840321 -2.8852497e-05   0.59093242  0.026515965            0   0.56441646    1.6057225    2.1966549   0.71940703 
 6415000    1.1858607 1.2225869e-05   0.47500848 0.0057840798            0    0.4692244    1.7565562    2.2315647    2.8575291 
 6420000    1.0317612 6.7986458e-05   0.70570708  0.039564157            0   0.66614292    1.5282962    2.2340033    5.7149099 
 6425000    1.0871051 -2.7713112e-05   0.63705243  0.062351361            0   0.57470107    1.6102745    2.2473269   0.82841558 
 6430000    1.1569672 8.0780006e-06   0.57796667  0.019752306            0   0.55821436    1.7137576    2.2917243    2.7053179 
 6435000    1.1553146 0.0001190816   0.58391556  0.014863219            0   0.56905234    1.7113098    2.2952254    8.3922033 
 6440000     1.135393 7.4007772e-05   0.59669632   0.03661699            0   0.56007933    1.6818009    2.2784972    6.0676952 
 6445000    1.1632941 -1.5772634e-05   0.56786438  0.045588207            0   0.52227617    1.7231294    2.2909937    1.4834349 
 6450000    1.1495552 6.6901962e-05   0.56576892  0.011494208            0   0.55427471    1.7027786    2.2685475     5.693928 
 6455000    1.1163873 5.4687627e-05   0.62815512  0.012170153            0   0.61598496    1.6536487    2.2818038    5.0818103 
 6460000    1.1100186 6.6560861e-05   0.60486124  0.016680203            0   0.58818104    1.6442151    2.2490763    5.6569924 
 6465000    1.0553164 2.485587e-06    0.6474745  0.067462402            0    0.5800121    1.5631875     2.210662     2.337924 
 6470000     1.163902 -3.006272e-05   0.47959185  0.022881792            0   0.45671006    1.7240298    2.2036216   0.66441034 
 6475000    1.0931287 3.1738026e-05   0.59908896   0.01652108            0   0.58256788    1.6191969    2.2182859    3.8432728 
 6480000    1.1670895 -5.488284e-05   0.49898776  0.013328181            0   0.48565958    1.7287512     2.227739   -0.5822624 
 6485000    1.1263214 -2.7906988e-05   0.56621596  0.011957852            0   0.55425811    1.6683635    2.2345795   0.80574175 
 6490000    1.1278173 7.6215543e-05   0.54997608  0.047581888            0   0.50239419    1.6705794    2.2205555    6.1227913 
 6495000    1.1022296 0.0001151098   0.61323062  0.045416326            0   0.56781429    1.6326775    2.2459082      8.13953 
 6500000    1.0921763 -5.8239821e-05   0.61328005  0.014188399            0   0.59909165    1.6177861    2.2310661  -0.75081267 
 6505000    1.0798827 -1.4134773e-06   0.64653086 0.0048835423            0   0.64164732    1.5995762    2.2461071    2.1737371 
 6510000    1.2222121 4.6009527e-05   0.42973037 0.00096417164            0    0.4287662    1.8104017    2.2401321    4.5958199 
 6515000    1.1828594 -0.00012510879   0.48634039 0.0012283033            0   0.48511208    1.7521105    2.2384509   -4.1671191 
 6520000    1.0714891 -0.00023104312   0.63435338 9.4323267e-05            0   0.63425905    1.5871432    2.2214966   -9.6079113 
 6525000    1.0485682 -0.00010981482   0.64646686 0.0027095409            0   0.64375732    1.5531916    2.1996585   -3.4228601 
 6530000    1.0459837 3.7060126e-05   0.65207795  0.027077844            0    0.6250001    1.5493633    2.2014413    4.0989197 
 6535000    1.1232114 -7.0508307e-05   0.53102075  0.017641432            0   0.51337932    1.6637569    2.1947776   -1.4152477 
 6540000    1.1518179 -0.00011683405   0.51105064  0.014514714            0   0.49653593    1.7061303     2.217181   -3.7647226 
 6545000    1.1581078 -5.9993742e-05   0.50289008  0.014576618            0   0.48831346    1.7154471    2.2183372   -0.8533424 
 6550000    1.1139308 -6.5220457e-05   0.58596623  0.016002973            0   0.56996326      1.65001    2.2359762   -1.1033112 
 6555000    1.1206843 0.00013058298   0.61326365  0.032439837            0   0.58082382    1.6600136    2.2732773    8.9591256 
 6560000    1.1425684 0.0001381244   0.57827906 0.0034331645            0    0.5748459    1.6924295    2.2707085     9.342678 
 6565000    1.0847409 6.2962891e-06   0.71039187 0.0019647549            0   0.70842711    1.6067725    2.3171643    2.6395343 
 6570000    1.1588301 3.6313114e-05   0.60636457 0.0020846135            0   0.60427996    1.7165171    2.3228817    4.1821131 
 6575000    1.0936705 -4.4015279e-05   0.68089933 0.0084083788            0   0.67249096    1.6199995    2.3008988  0.047316522 
 6580000    1.1867074 -9.1936075e-05   0.54888077  0.007058142            0   0.54182262    1.7578104    2.3066911   -2.4004359 
 6585000    1.1746499 -2.6365828e-05   0.56820689  0.046086033            0   0.52212086    1.7399501     2.308157   0.95822658 
 6590000    1.2148644 -5.5492514e-05    0.5302402  0.071007613            0   0.45923259    1.7995178     2.329758  -0.51145867 
 6595000     1.133504 -3.9878219e-05   0.65899012  0.018671283            0   0.64031884    1.6790028     2.337993   0.29622814 
 6600000    1.1917412 8.7472954e-06   0.55181409  0.023651736            0   0.52816236    1.7652666    2.3170807    2.7649422 
 6605000    1.1937882 -1.5183421e-05   0.56453791  0.028414595            0   0.53612331    1.7682988    2.3328367    1.5554455 
 6610000    1.1158664 0.0001331101   0.69118141 0.0024289803            0   0.68875243    1.6528771    2.3440586    9.1592955 
 6615000    1.2301615 2.2704835e-06   0.52199003  0.025679988            0   0.49631004    1.8221767    2.3441668    2.4604155 
 6620000    1.1263896 -5.8317539e-06   0.64668886  0.086503717            0   0.56018514    1.6684647    2.3151535    2.0165677 
 6625000    1.1066577 0.00013699611   0.66737981  0.034092146            0   0.63328766    1.6392367    2.3066165    9.3208175 
 6630000    1.1114323 0.00019981437   0.68976784  0.037478376            0   0.65228946    1.6463091    2.3360769    12.566573 
 6635000    1.2241463 -5.9433811e-05   0.49915292  0.021047337            0   0.47810558    1.8132666    2.3124196  -0.73059156 
 6640000    1.1795503 -7.6837132e-05   0.54131494  0.025288822            0   0.51602612    1.7472089    2.2885238   -1.6455373 
 6645000    1.1435311 -7.6446365e-05   0.60789087  0.013210082            0   0.59468079    1.6938554    2.3017463   -1.6123076 
 6650000     1.100367 -0.00022007668   0.64394874  0.039247426            0   0.60470131    1.6299186    2.2738673   -8.9940589 
 6655000    1.1262916 -1.5979883e-05   0.60578646  0.033985521            0   0.57180093    1.6683195    2.2741059    1.4559359 
 6660000    1.1463672 4.4627757e-06   0.57487188  0.027589695            0   0.54728218    1.6980565    2.2729284    2.5014225 
 6665000    1.1660409 -6.092906e-07    0.5424617  0.028006831            0   0.51445487    1.7271981    2.2696598    2.2384642 
 6670000    1.1671512 -9.4995557e-06   0.56462799   0.03897292            0   0.52565507    1.7288427    2.2934707    1.8070935 
 6675000    1.1511791 -4.7741872e-05   0.58364817  0.015653838            0   0.56799433    1.7051841    2.2888323  -0.15555158 
 6680000     1.170732 3.1182635e-05   0.56305266  0.026812544            0   0.53624011    1.7341468    2.2971994    3.8937503 
 6685000    1.1636733 0.00010215978   0.59579878  0.034016877            0    0.5617819     1.723691    2.3194898    7.5500706 
 6690000    1.1713302 -5.1355635e-05   0.57860233 0.0026494701            0   0.57595286    1.7350329    2.3136353  -0.31577325 
 6695000    1.2023932 -0.00011116194   0.51745486 0.0029524802            0   0.51450238    1.7810449    2.2984997   -3.3929918 
 6700000    1.1497675 -6.9039593e-05   0.56775253  0.008267962            0   0.55948456    1.7030931    2.2708456   -1.2639815 
 6705000    1.0775541 -0.00020454738   0.68510397  0.011605131            0   0.67349884    1.5961269    2.2812309   -8.1915948 
 6710000    1.1803787 -0.00012414758   0.53211294  0.010182525            0   0.52193041     1.748436    2.2805489   -4.0758072 
 6715000    1.1711215 -0.00012913737   0.54939175   0.01519413            0   0.53419762    1.7347237    2.2841155    -4.327718 
 6720000    1.1646808 -5.5917654e-05   0.57481197   0.02637846            0   0.54843351    1.7251835    2.2999954  -0.56298845 
 6725000    1.1295224 6.8961561e-05   0.60890823  0.043248605            0   0.56565962    1.6731051    2.2820133    5.8128453 
 6730000    1.1769684 6.5215335e-05   0.55134271  0.055689612            0    0.4956531    1.7433844    2.2947272    5.6337523 
 6735000    1.2418588 0.00011076157    0.4632038  0.071751367            0   0.39145244    1.8395034    2.3027072    7.9736997 
 6740000    1.2186189 4.7678845e-06   0.51157927  0.016074376            0   0.49550489    1.8050793    2.3166585    2.5607742 
 6745000    1.1558474 0.00017231512   0.58268702  0.046441312            0   0.53624571     1.712099     2.294786     11.11732 
 6750000    1.1590595 8.1900988e-05   0.55883624  0.029765243            0   0.52907099    1.7168569    2.2756932    6.4690238 
 6755000    1.1485449 -1.3047558e-06   0.56920768  0.014428692            0   0.55477899    1.7012822    2.2704898    2.2036864 
 6760000    1.2068022 -2.9905609e-05   0.46189149 0.0046307152            0   0.45726077    1.7875758    2.2494673   0.71830016 
 6765000    1.1774095 -9.5501404e-05   0.49406936 0.0026618655            0    0.4914075    1.7440378    2.2381071   -2.6515648 
 6770000    1.1136585 -6.7126371e-05   0.59666904 0.0061496806            0   0.59051936    1.6496066    2.2462757   -1.1905945 
 6775000    1.1258764 -5.9381678e-05   0.58010178 0.0052421227            0   0.57485966    1.6677045    2.2478062  -0.79253569 
 6780000    1.1291472 -4.3410046e-05   0.54855786 0.0072372463            0   0.54132061    1.6725493    2.2211072 -0.0014872144 
 6785000    1.1487116 -4.373932e-05   0.53460719  0.010039999            0   0.52456719    1.7015291    2.2361363 -0.0033169294 
 6790000    1.1002616 -8.0710471e-05   0.63092133   0.02978136            0   0.60113997    1.6297625    2.2606838   -1.8716923 
 6795000    1.1991218 5.7640673e-05   0.46894652  0.022864727            0   0.44608179    1.7761992    2.2451457    5.1963482 
 6800000    1.1444294 9.9195926e-05   0.57263615  0.024506417            0   0.54812974    1.6951861    2.2678223    7.3466537 
 6805000    1.1487208 9.8226136e-05   0.56117371 0.0028292414            0   0.55834447    1.7015427    2.2627164    7.2918946 
 6810000    1.0917252 9.2046788e-06   0.67069099 0.00011827143            0   0.67057272     1.617118     2.287809    2.7590885 
 6815000    1.2133883 -5.3287291e-05   0.49817351 0.0014465633            0   0.49672695    1.7973314    2.2955049  -0.43280435 
 6820000    1.2010881 -0.00012330341   0.52448932  0.016047514            0   0.50844181    1.7791117     2.303601   -4.0095336 
 6825000    1.1495445 -3.6869757e-05   0.59417767   0.04459365            0   0.54958402    1.7027628    2.2969405   0.40920891 
 6830000    1.1825636 3.3701087e-05   0.57211219  0.056027465            0   0.51608473    1.7516724    2.3237846    4.0492802 
 6835000    1.1316961 2.6088895e-05   0.63275957  0.015719171            0    0.6170404    1.6763249    2.3090844    3.6448359 
 6840000    1.2395301 8.6257593e-05    0.4802396  0.027029708            0    0.4532099    1.8360539    2.3162935    6.7326823 
 6845000    1.1129572 -7.5415007e-05   0.64551676  0.056861078            0   0.58865568    1.6485679    2.2940846   -1.5671637 
 6850000    1.1320684 1.5812455e-05   0.58730289  0.016176303            0   0.57112659    1.6768763    2.2641792    3.0737769 
 6855000    1.0621369 -0.00012787465   0.68657384  0.017207869            0   0.66936597    1.5732903    2.2598642   -4.2873179 
 6860000    1.2050445 -3.5069679e-05   0.49495394   0.02705426            0   0.46789968    1.7849722    2.2799261   0.48435854 
 6865000    1.1652371 0.00015030857   0.54699553  0.034862437            0    0.5121331    1.7260074     2.273003    9.9688016 
 6870000    1.1832789 3.8504686e-05   0.52753776   0.01518746            0    0.5123503    1.7527319    2.2802696    4.2517095 
 6875000    1.1509923 -8.1881342e-05    0.5424015  0.001905153            0   0.54049635    1.7049073    2.2473088   -1.9450159 
 6880000    1.0725513 7.4244466e-06    0.6208814  0.017140751            0   0.60374065    1.5887167    2.2095981    2.5897297 
 6885000    1.1795375 0.00010702399   0.46636272  0.010435201            0   0.45592752    1.7471899    2.2135526     7.693181 
 6890000    1.0678124 -3.4558105e-05   0.63132243 0.0012039384            0    0.6301185    1.5816971    2.2130195   0.44364452 
 6895000    1.2185251 -7.5450853e-05   0.41418797 0.0054575179            0   0.40873045    1.8049403    2.2191282   -1.6439554 
 6900000    1.1150691 -4.4157052e-05   0.56103117  0.070435351            0   0.49059582    1.6516961    2.2127273  -0.04811375 
 6905000    1.0673087 -9.8365652e-05     0.647192  0.050633652            0   0.59655835     1.580951     2.228143   -2.8081784 
 6910000    1.1056459 -8.8863723e-05   0.58723738 0.0021817654            0   0.58505562     1.637738    2.2249754   -2.3248472 
 6915000    1.0977516 -4.9108681e-05   0.55579936  0.002774549            0   0.55302481    1.6260446    2.1818439  -0.33252054 
 6920000    1.2058512 0.00011287901   0.37674923 0.0064616823            0   0.37028754    1.7861671    2.1629163    7.9423219 
 6925000    1.0324653 0.00011377268   0.59386651  0.013513269            0   0.58035324    1.5293393    2.1232058    7.9483669 
 6930000    1.0925303 4.3368963e-05   0.51972536  0.015607664            0    0.5041177    1.6183105    2.1380359    4.3585268 
 6935000    1.1602675 -2.7521815e-05   0.40812708  0.018343191            0   0.38978389    1.7186462    2.1267733   0.71765638 
 6940000    1.0526345 -4.266508e-05   0.56875815  0.039382075            0   0.52937608    1.5592149    2.1279731 -0.056479041 
 6945000    1.0197892 -7.7543116e-05   0.60526793  0.032698669            0   0.57256926    1.5105627    2.1158306   -1.8543769 
 6950000    1.0547841 -2.1249314e-06   0.53212423 0.0047721112            0   0.52735212    1.5623989    2.0945231    1.9857266 
 6955000    1.1053889 -7.4869945e-05     0.450139 0.0063156622            0   0.44382333    1.6373573    2.0874963   -1.7458448 
 6960000    1.0837665 -0.00013175271   0.47550477 0.0032400558            0   0.47226472    1.6053292     2.080834   -4.6649049 
 6965000   0.98725812 2.6945523e-05   0.59717851  0.068205924            0   0.52897259    1.4623761    2.0595546    3.4391654 
 6970000    1.0464369 -0.00017062062   0.53679871  0.034048343            0   0.50275037    1.5500347    2.0868334   -6.6489421 
 6975000    1.0657609 -0.0001052301   0.52598429  0.022395324            0   0.50358896    1.5786583    2.1046426   -3.2831385 
 6980000     1.027172 -4.7785969e-05   0.56613408   0.06509343            0   0.50104065    1.5214985    2.0876325  -0.35900905 
 6985000    1.0603446 -6.1694309e-06   0.50101159  0.026449259            0   0.47456233    1.5706355    2.0716471    1.7557722 
 6990000    1.0540084 5.9059907e-05   0.51116828   0.01122354            0   0.49994474    1.5612499    2.0724182    5.0962854 
 6995000    1.0287087 -0.00012675567   0.52480704 0.0076349533            0   0.51717209    1.5237748    2.0485819   -4.4413087 
 7000000    1.0685399 -1.5285776e-05   0.42555424   0.01154856            0   0.41400568    1.5827747    2.0083289    1.2256972 
 7005000    1.0477768 0.00019616787   0.45460515 0.0084551028            0   0.44615005    1.5520193    2.0066245    12.050419 
 7010000    1.0866452 -2.3658755e-05   0.35572838 0.0057634628            0   0.34996492    1.6095933    1.9653216   0.75399341 
 7015000   0.95868585 -9.5111915e-05   0.54822905  0.034090676            0   0.51413837    1.4200534    1.9682825   -2.9014476 
 7020000   0.89308361 3.6335109e-05   0.62442879   0.08069962            0   0.54372917    1.3228801    1.9473089    3.8076665 
 7025000   0.92427195 5.9183297e-05    0.5471219  0.034349009            0   0.51277289    1.3690778    1.9161997    4.9463845 
 7030000   0.98048572 0.00011460251   0.47882871   0.01258403            0   0.46624468    1.4523445    1.9311732    7.7988219 
 7035000   0.90337069 8.5726208e-05   0.59892987 0.0015612075            0   0.59736866    1.3381178    1.9370477    6.3262295 
 7040000   0.95333495 5.5655858e-06   0.50200548  0.014136313            0   0.48786916    1.4121274    1.9141329    2.1990909 
 7045000   0.95060322 8.4078546e-06   0.51970207  0.027523526            0   0.49217854     1.408081    1.9277831    2.3582652 
 7050000    1.0087826 -1.9446228e-05    0.4407533  0.032866079            0   0.40788723    1.4942593    1.9350126   0.93936573 
 7055000   0.99125841 -1.5367106e-05   0.43591666  0.036461116            0   0.39945555    1.4683015    1.9042182    1.1174223 
 7060000   0.95034325 1.2915939e-05   0.49410693  0.011776713            0   0.48233022    1.4076959    1.9018029    2.5630989 
 7065000   0.93519888 -3.449839e-05   0.50311531  0.029734547            0   0.47338077    1.3852633    1.8883787   0.12206109 
 7070000   0.92939279 5.6830491e-06   0.50123598  0.038694839            0   0.46254114    1.3766631    1.8778991    2.1688712 
 7075000   0.96853908 -0.00014931706   0.44068647   0.01279459            0   0.42789188    1.4346485     1.875335   -5.7696987 
 7080000    1.0290871 -0.00014776741    0.3757431 0.0013014804            0   0.37444162    1.5243353    1.9000784   -5.6656131 
 7085000   0.96861104 8.0592995e-05   0.42728523  0.019848826            0    0.4074364    1.4347551    1.8620403    5.9884017 
 7090000   0.92921752 6.4540528e-05   0.49622287  0.021368715            0   0.47485415    1.3764034    1.8726263    5.1771014 
 7095000   0.92796816 9.2619776e-05   0.50673397  0.019485122            0   0.48724884    1.3745528    1.8812868    6.6234194 
 7100000   0.93576234 3.6157115e-05   0.48242606 0.0087908616            0   0.47363519     1.386098     1.868524    3.7197683 
 7105000    1.0379411 5.0762255e-05   0.33952841  0.014019241            0   0.32550917    1.5374502    1.8769786    4.4760061 
 7110000   0.93998275 2.2639102e-05   0.46866324   0.01859264            0    0.4500706    1.3923494    1.8610127    3.0201347 
 7115000   0.93558476 -0.00011596085   0.47663815  0.016645099            0   0.45999305    1.3858349    1.8624731   -4.0747226 
 7120000    0.9201765 -8.0029981e-05   0.46541228 0.0072220984            0   0.45819018    1.3630114    1.8284237   -2.2691113 
 7125000   0.94366084 -7.7189638e-05   0.41407951  0.013418439            0   0.40066107    1.3977976    1.8118771   -2.1402323 
 7130000   0.88242869 3.5551833e-05   0.49933192  0.013395573            0   0.48593635    1.3070975    1.8064294    3.6266833 
 7135000   0.88755849 0.00012809895   0.48293416  0.013082024            0   0.46985213     1.314696    1.7976302    8.3562962 
 7140000   0.94345016 1.8380989e-05   0.39700036  0.029655719            0   0.36734464    1.3974855    1.7944859    2.7355925 
 7145000   0.85666876 6.4607438e-05   0.53101441  0.076894754            0   0.45411966    1.2689406     1.799955    5.1078558 
 7150000   0.87968095 -6.9015156e-05   0.49938272  0.052519326            0   0.44686339    1.3030274    1.8024101   -1.7311659 
 7155000   0.91640618 2.7565597e-05    0.4536655  0.053996267            0   0.39966923    1.3574267    1.8110921    3.2224507 
 7160000   0.88114801 -3.4151974e-05   0.50679234  0.056353064            0   0.45043928    1.3052005    1.8119928  0.063411756 
 7165000    0.9287597 5.8775131e-05   0.41763821  0.030688405            0   0.38694981    1.3757253    1.7933635    4.8026502 
 7170000   0.90100544 0.00017108879   0.46516285  0.025679662            0   0.43948319    1.3346143    1.7997772    10.559523 
 7175000   0.84286107 -2.827026e-05   0.57221858  0.042842685            0   0.52937589     1.248488    1.8207065   0.37326924 
 7180000   0.93146988  6.49443e-05   0.45815352  0.021581539            0   0.43657198    1.3797398    1.8378933    5.1630414 
 7185000    1.0264952 1.1307636e-05   0.31269382  0.010933611            0   0.30176021     1.520496    1.8331898    2.4121408 
 7190000   0.93207044 4.1825514e-05   0.44773016  0.012468516            0   0.43526164    1.3806293    1.8283595    3.9698258 
 7195000   0.92511351 5.9229536e-05   0.45872574 0.0091894168            0   0.44953632    1.3703244    1.8290501    4.8616023 
 7200000    0.8759642 -9.72985e-05   0.51078418  0.015312065            0   0.49547211     1.297522    1.8083062    -3.173377 
 7205000   0.90886539 -0.00012980057   0.45778651 0.0064591793            0   0.45132733    1.3462569    1.8040434   -4.8417458 
 7210000   0.89423353 -8.0882456e-06   0.47562254 0.0075843661            0   0.46803817    1.3245834    1.8002059    1.3860878 
 7215000   0.93693921 4.7653043e-05   0.44493817  0.019015802            0   0.42592236    1.3878412    1.8327794    4.2726152 
 7220000   0.92054024 -0.00012146042   0.45420488  0.018000383            0   0.43620449    1.3635502    1.8177551   -4.4010184 
 7225000    0.8943469 -0.00011503626   0.47086938 0.0072181748            0   0.46365121    1.3247513    1.7956207   -4.0942359 
 7230000   0.88556062 -6.4678806e-05   0.48388966 0.0044065549            0    0.4794831    1.3117367    1.7956263   -1.5159285 
 7235000   0.91103285 4.1639031e-05   0.45695348  0.012305911            0   0.44464757    1.3494674    1.8064209    3.9383393 
 7240000   0.96782317 8.4235692e-05   0.35364192 0.0054502554            0   0.34819166    1.4335881      1.78723    6.1000974 
 7245000   0.86160074 -5.0112703e-06   0.52683025 0.0072183594            0   0.51961189    1.2762461    1.8030763    1.5464993 
 7250000    0.8380103 3.7692896e-05   0.57902186  0.038464173            0   0.54055768    1.2413028    1.8203246    3.7502009 
 7255000   0.97312515 2.7265338e-05    0.3989863  0.027368326            0   0.37161798    1.4414416    1.8404279    3.2364132 
 7260000   0.93234218 -5.9065655e-06   0.45419091  0.003827317            0   0.45036359    1.3810318    1.8352228    1.5328066 
 7265000   0.96512565 8.3717883e-06   0.41537415 0.0041921584            0   0.41118199    1.4295924    1.8449665    2.2736021 
 7270000     0.983403 1.7521593e-06   0.38908874  0.019724761            0   0.36936398    1.4566657    1.8457544     1.935465 
 7275000   0.92992513 2.8214106e-05   0.44160807  0.027257866            0    0.4143502    1.3774516    1.8190597    3.2636219 
 7280000   0.93451456 6.6057258e-05   0.43395182 0.0091776106            0   0.42477421    1.3842497    1.8182015    5.2003331 
 7285000   0.92651521 -5.540311e-05   0.46579881 0.0079593676            0   0.45783944    1.3724006    1.8381995  -0.99843978 
 7290000   0.92147395 -5.4177184e-05   0.47647245 0.0037699861            0   0.47270247    1.3649333    1.8414057  -0.93246606 
 7295000   0.93902386 0.00012064424   0.42749827 0.0017725086            0   0.42572576    1.3909291    1.8184274    7.9954123 
 7300000   0.95433102 9.204228e-05   0.42115385 0.0032587592            0   0.41789509    1.4136028    1.8347567    6.5473214 
 7305000   0.91352821 4.5728573e-05    0.4973378 0.0050455152            0   0.49229228    1.3531637    1.8505015    4.1918044 
 7310000   0.92294961 1.8409952e-05   0.47582521  0.021813797            0   0.45401142    1.3671191    1.8429443    2.7855339 
 7315000   0.90614044 -0.00012706041   0.50025842  0.072708275            0   0.42755015    1.3422205     1.842479   -4.6630139 
 7320000    0.8633214 -2.2047939e-05   0.55739182  0.036411382            0   0.52098044    1.2787948    1.8361866   0.70733217 
 7325000   0.90592485 0.00011312194    0.4992534 0.0083397363            0   0.49091366    1.3419012    1.8411546    7.6329978 
 7330000   0.97437244 5.4362292e-05   0.39157748  0.009429624            0   0.38214786    1.4432892    1.8348667     4.618216 
 7335000   0.94599298 2.161492e-05   0.41540246    0.0064531            0   0.40894936    1.4012521    1.8166546    2.9233385 
 7340000   0.97951192 3.3888896e-06   0.39880981 0.0041775531            0   0.39463226     1.450902    1.8497118     2.023223 
 7345000   0.91486171 2.9893943e-05   0.49525655 0.0044885748            0   0.49076797    1.3551389    1.8503955    3.3809653 
 7350000   0.98142513 1.4262812e-05   0.39643004 0.0074028432            0    0.3890272     1.453736     1.850166     2.580422 
 7355000   0.92403579 -6.4716778e-05   0.46965177  0.029374002            0   0.44027777     1.368728    1.8383798   -1.4751192 
 7360000   0.99298122 -3.2962042e-05   0.41196451  0.030000181            0   0.38196432    1.4708534    1.8828179   0.19516138 
 7365000   0.90732272 7.535249e-05   0.53197208 0.0095438989            0   0.52242818    1.3439718    1.8759439    5.7339913 
 7370000   0.99561129 -1.6991925e-05   0.40031851 0.0088400123            0    0.3914785    1.4747492    1.8750677    1.0050811 
 7375000   0.93331004 -5.9060171e-05    0.4813161 0.0085690053            0    0.4727471    1.3824655    1.8637816   -1.1600991 
 7380000   0.98485705 4.6564739e-05   0.39368644  0.013053905            0   0.38063253    1.4588195    1.8525059    4.2366206 
 7385000   0.87112794 6.7613378e-05   0.55274654  0.014346207            0   0.53840033    1.2903583    1.8431048    5.3049098 
 7390000   0.95916461 3.4129362e-05   0.42990999  0.010537628            0   0.41937237    1.4207626    1.8506726    3.5980959 
 7395000   0.93235227 -0.0001892617   0.47107097  0.015907864            0   0.45516311    1.3810468    1.8521178   -7.8380811 
 7400000   0.95335194 -5.5894738e-05    0.4198755  0.010005259            0   0.40987024    1.4121526    1.8320281   -1.0297825 
 7405000   0.94657858 1.8967925e-05   0.41679977  0.017412769            0     0.399387    1.4021195    1.8189193     2.790077 
 7410000   0.93897056 -9.4553088e-05    0.4293407 0.0024544746            0   0.42688623    1.3908501    1.8201908   -3.0209273 
 7415000   0.91514638 5.4515613e-05    0.4858646 0.0026935628            0   0.48317104    1.3555606    1.8414252    4.6326245 
 7420000   0.95288413 0.00010211267   0.45306766  0.010123914            0   0.44294375    1.4114596    1.8645273    7.0926957 
 7425000   0.89895467 7.4005754e-05   0.51868363 0.0096419038            0   0.50904173    1.3315766    1.8502602    5.6393548 
 7430000   0.87744169 5.0100263e-05   0.56052192   0.04727264            0   0.51324928    1.2997105    1.8602324    4.4253659 
 7435000   0.99224037 -1.7552848e-05   0.40686219  0.021781079            0   0.38508111     1.469756    1.8766182   0.97791241 
 7440000   0.85614799 -2.9925837e-05   0.63900362   0.07562683            0   0.56337679    1.2681692    1.9071728   0.37496999 
 7445000   0.90573789 -0.00011673993   0.57817682  0.071993157            0   0.50618366    1.3416242    1.9198011   -4.0572832 
 7450000   0.98771779 -5.5194712e-05   0.43797331  0.017285164            0   0.42068815     1.463057    1.9010303  -0.92493897 
 7455000   0.93180468 -1.1312919e-05   0.50785608 0.0083710217            0   0.49948506    1.3802357    1.8880918    1.3088703 
 7460000    0.8855928 -8.5565585e-05   0.55260379  0.011649027            0   0.54095476    1.3117843    1.8643881   -2.5165698 
 7465000   0.89229501 9.6377243e-05   0.52382189  0.005947274            0   0.51787462     1.321712    1.8455339    6.7800487 
 7470000   0.94454602 -0.00014533821   0.43866266 0.0092521399            0   0.42941052    1.3991088    1.8377714   -5.6035451 
 7475000   0.95823516 -6.8381326e-06   0.43289829  0.030903056            0   0.40199523    1.4193858    1.8522841    1.5021717 
 7480000   0.93932104 4.2200361e-05   0.45679326  0.045191809            0   0.41160145    1.3913693    1.8481625     4.008821 
 7485000   0.95607151 -4.1702862e-05   0.43480216  0.013282783            0   0.42151937    1.4161809    1.8509831  -0.28420342 
 7490000   0.95674436 -4.40815e-05   0.41843889  0.003392048            0   0.41504684    1.4171776    1.8356165  -0.42135632 
 7495000      0.95335 -3.388083e-05   0.42008143 0.0035877238            0   0.41649371    1.4121497    1.8322311  0.097532607 
 7500000   0.94121758 7.0010156e-05   0.44327476  0.010083509            0   0.43319125    1.3941785    1.8374533    5.4219733 
 7505000   0.93021337 -2.3050771e-05   0.44930064  0.026433522            0   0.42286712    1.3778786    1.8271792   0.64697971 
 7510000   0.91431384 -7.6183167e-05   0.46184687  0.052623306            0   0.40922357    1.3543274    1.8161743   -2.0844039 
 7515000    0.8821495 -0.00016834466   0.52387473  0.017814777            0   0.50605995    1.3066839    1.8305587   -6.7886878 
 7520000   0.98560523 -6.1829005e-05   0.38960606  0.016015614            0   0.37359045    1.4599277    1.8495338   -1.3161112 
 7525000   0.93382574 4.7585676e-05   0.44445853  0.014071664            0   0.43038686    1.3832294    1.8276879    4.2640745 
 7530000   0.89426095 6.2984182e-05     0.501745  0.008339731            0   0.49340527     1.324624     1.826369    5.0511591 
 7535000   0.87311206 2.0957324e-05   0.54248845  0.037049946            0    0.5054385    1.2932972    1.8357857    2.9088007 
 7540000   0.98232927 -6.84592e-05   0.41499833  0.021337431            0    0.3936609    1.4550752    1.8700736   -1.6350375 
 7545000   0.93726749 -0.00015023038   0.48340185   0.01425412            0   0.46914773    1.3883275    1.8717293   -5.8200659 
 7550000   0.94889454 -3.0800522e-05   0.45951995 0.0025807071            0   0.45693924      1.40555      1.86507   0.28808328 
 7555000    0.9705687 6.5926362e-05   0.42829279 0.0030077462            0   0.42528504    1.4376549    1.8659477    5.2413774 
 7560000   0.95131822 5.0308374e-06   0.47369753  0.008141399            0   0.46555613    1.4091401    1.8828376    2.1404165 
 7565000   0.90513227 8.7135837e-05   0.53692515 0.0038780864            0   0.53304706    1.3407272    1.8776523    6.3390072 
 7570000   0.96947271 3.7084068e-05   0.44391324 0.0059665454            0   0.43794669    1.4360315    1.8799447     3.778649 
 7575000   0.98260579 -5.6149672e-05   0.44664236  0.016554823            0   0.43008753    1.4554848    1.9021272  -0.97273601 
 7580000   0.89345004 2.5672368e-06   0.58955269  0.018694642            0   0.57085805    1.3234229    1.9129756    2.0444181 
 7585000   0.93944542 -4.1997349e-05   0.52847225  0.039864765            0   0.48860748    1.3915535    1.9200258  -0.23023851 
 7590000   0.91438261 1.4150718e-05    0.5981052   0.05023534            0   0.54786986    1.3544292    1.9525344    2.6770512 
 7595000   0.94470207 0.00013086807   0.53163012  0.026570419            0    0.5050597    1.3993399    1.9309701    8.6314155 
 7600000    0.9304172 -0.0001164375   0.53728327  0.016882949            0   0.52040033    1.3781805    1.9154638   -4.0461362 
 7605000   0.94343529 -0.00018646939   0.55145458 0.0083233918            0   0.54313119    1.3974635    1.9489181   -7.5983149 
 7610000    1.0724923 5.0924082e-05   0.39343387  0.010641556            0   0.38279232    1.5886292    1.9820631    4.5893761 
 7615000     0.962483 9.7078499e-05   0.54526183 0.0098018644            0   0.53545996    1.4256779    1.9709398    6.9413589 
 7620000   0.96595386 -3.6416246e-05   0.56460149 0.0079204799            0   0.55668101    1.4308192    1.9954207   0.13090888 
 7625000   0.99743283 -3.5919359e-05   0.52826351 0.0085573366            0   0.51970617    1.4774474    2.0057109   0.16663973 
 7630000    1.0214006 -5.5515212e-07   0.49230084 0.0060057973            0   0.48629504    1.5129497    2.0052505    1.9768267 
 7635000   0.98829655 -6.5414893e-05   0.53096091  0.034440693            0   0.49652022    1.4639143    1.9948752   -1.3543673 
 7640000    1.0115901 -9.789476e-06   0.49891357  0.054428997            0   0.44448457    1.4984178    1.9973313    1.4961102 
 7645000   0.99634998 -6.8650538e-05    0.5194645  0.045012343            0   0.47445216    1.4758434    1.9953079   -1.5195996 
 7650000   0.94711424 -1.7498872e-05   0.55180611  0.031971636            0   0.51983448     1.402913    1.9547191    1.0587768 
 7655000   0.99567479 0.00013569419   0.47511361  0.007207647            0   0.46790596    1.4748433    1.9499569    8.8974994 
 7660000   0.91655696 -5.6157262e-05   0.57496884  0.014630039            0    0.5603388      1.35765    1.9326188  -0.94263296 
 7665000    1.0027806 -1.7953311e-05    0.4249917  0.015737497            0    0.4092542    1.4853687    1.9103604    0.9911509 
 7670000   0.96742805  0.000229903   0.50293545 0.0028533238            0   0.50008213    1.4330028    1.9359382    13.706972 
 7675000   0.96129396 4.9060458e-05    0.5317792  0.002342841            0   0.52943636    1.4239167    1.9556959    4.4675913 
 7680000   0.95865402 -0.00010611696   0.58892841  0.030823234            0   0.55810518    1.4200063    2.0089347   -3.4242538 
 7685000    1.0215148 -0.00010149832   0.50307954    0.0406032            0   0.46247634    1.5131188    2.0161984   -3.1805155 
 7690000    1.0181578 -3.6659447e-05   0.50099956  0.022548674            0   0.47845088    1.5081462    2.0091458   0.13218211 
 7695000   0.98469613 -3.6908675e-06   0.58335766  0.017019156            0    0.5663385    1.4585811    2.0419388    1.8529664 
 7700000     1.016395 -4.0255784e-05   0.54047261  0.022100827            0   0.51837178    1.5055352    2.0460078 -0.015088386 
 7705000   0.97475562 3.9006328e-05   0.57778023  0.048909369            0   0.52887086    1.4438568     2.021637     4.018761 
 7710000    1.0481117 0.00014634741   0.47834979  0.032359526            0   0.44599026    1.5525155    2.0308653    9.5238527 
 7715000    1.0508046 6.933697e-06   0.49999059  0.023578429            0   0.47641216    1.5565044    2.0564949    2.4115002 
 7720000    0.9960119 1.264122e-05    0.5626235  0.040413391            0   0.52221011    1.4753426    2.0379661    2.6851966 
 7725000   0.96816121 8.7907407e-05   0.58127675  0.036486323            0   0.54479042    1.4340888    2.0153655    6.5162248 
 7730000   0.94326494 3.300656e-05   0.61030174   0.01999035            0   0.59031139    1.3972112    2.0075129    3.6974488 
 7735000    0.9973894 -3.2674567e-06   0.53216482  0.021542531            0   0.51062229     1.477383    2.0095479    1.8422541 
 7740000   0.99570184 2.1677591e-05   0.51150545  0.018151119            0   0.49335433    1.4748833    1.9863888    3.0962815 
 7745000    0.9547938 4.8492637e-05   0.58372728 0.0092507388            0   0.57447654    1.4142883    1.9980156    4.4808386 
 7750000    1.1065671 8.2355905e-05   0.34375121   0.01317462            0   0.33057659    1.6391026    1.9828538    6.1994761 
 7755000   0.97868264 -5.809791e-06   0.55561633   0.01943786            0   0.53617847    1.4496737      2.00529    1.7078287 
 7760000   0.90726583 -7.7825362e-05   0.64510908  0.045312105            0   0.59979698    1.3438875    1.9889966   -1.9956619 
 7765000    1.0137065 1.4019309e-05   0.46648203  0.039207999            0   0.42727403    1.5015528    1.9680348    2.6858234 
 7770000    1.0580135 3.8236279e-05    0.4015399 0.0086000506            0   0.39293985    1.5671825    1.9687224    3.9264199 
 7775000     1.042379 -2.904669e-05   0.43258614 0.0086391025            0   0.42394704    1.5440239      1.97661   0.48941953 
 7780000   0.93684027 -2.4960649e-05   0.58771721  0.025252006            0    0.5624652    1.3876946    1.9754119   0.69742665 
 7785000   0.96546878 1.7776907e-05   0.50614281  0.032070104            0    0.4740727    1.4301006    1.9362434    2.8464211 
 7790000    1.0754361 -3.132038e-05   0.37340142 0.0062832112            0   0.36711821    1.5929897    1.9663911   0.36278768 
 7795000   0.97475527 1.7727428e-05   0.48569565 0.0066874145            0   0.47900823    1.4438562    1.9295519    2.8371962 
 7800000   0.99420413 8.5227922e-05   0.43255606  0.019655265            0    0.4129008    1.4726649    1.9052209    6.2688905 
 7805000   0.91517207 0.00011091861   0.52726461 0.0058486919            0   0.52141591    1.3555986    1.8828632    7.5618961 
 7810000   0.87558731 0.00013833327   0.54153358   0.01937521            0   0.52215837    1.2969637    1.8384973    8.9211609 
 7815000   0.89495761 0.00016504969   0.50912593  0.030964802            0   0.47816113     1.325656    1.8347819    10.285326 
 7820000   0.93724911 1.8304504e-05   0.46004547  0.047204965            0    0.4128405    1.3883002    1.8483457    2.7855363 
 7825000   0.88304144 -8.2327126e-05   0.56982207  0.041085355            0   0.52873671    1.3080051    1.8778272   -2.3373216 
 7830000   0.95202582 -6.7724324e-06   0.41152213  0.011740504            0   0.39978162    1.4101883    1.8217104    1.4749618 
 7835000   0.95111354 0.00011199547    0.4176596 0.0060304738            0   0.41162912    1.4088369    1.8264965    7.5606645 
 7840000   0.92549369 8.7200877e-05    0.4556096 0.0092657319            0   0.44634387    1.3708875    1.8264971     6.291182 
 7845000   0.89883483 -1.1566142e-05   0.45616245  0.011379781            0   0.44478267    1.3313991    1.7875615    1.1953751 
 7850000   0.87999699 -3.2527746e-05   0.49650757  0.022709987            0   0.47379758    1.3034955    1.8000031    0.1345825 
 7855000   0.90073565 -8.4930256e-05   0.41729849  0.012935262            0   0.40436323    1.3342147    1.7515132   -2.5969159 
 7860000   0.85545366 -6.4242175e-05   0.47303388 0.0064571027            0   0.46657678    1.2671407    1.7401746   -1.5490247 
 7865000   0.87339821 5.2518144e-05   0.47464559 0.0089443858            0    0.4657012    1.2937211    1.7683667    4.4572957 
 7870000   0.93959859 9.8305234e-05   0.36221371  0.015053478            0   0.34716023    1.3917804    1.7539941    6.7872221 
 7875000   0.87411097 1.9258611e-05   0.43761957  0.041285606            0   0.39633397    1.2947769    1.7323964    2.7184373 
 7880000   0.82000819 -8.20321e-05    0.5404749  0.010439647            0   0.53003525    1.2146371     1.755112   -2.4449315 
 7885000   0.92710564 8.6310339e-06   0.38732836  0.004875999            0   0.38245236    1.3732752    1.7606036    2.2025125 
 7890000   0.93288666 -2.7906344e-05   0.39837755 0.0021314528            0    0.3962461    1.3818384    1.7802159   0.35141112 
 7895000   0.89276357 -0.00017241956   0.46241652 0.0026606926            0   0.45975583     1.322406    1.7848226   -7.0430591 
 7900000    0.8803885 -2.3263811e-05   0.46232523  0.020123686            0   0.44220155    1.3040755    1.7664007   0.57529356 
 7905000   0.87744586 0.00010376989   0.45619767  0.020547944            0   0.43564972    1.2997167    1.7559144    7.0689329 
 7910000   0.89483309 2.4147792e-05   0.40936926 0.0048468652            0   0.40452239    1.3254715    1.7348408    2.9712077 
 7915000   0.93128688 1.8988462e-05   0.38733215 0.00025748006            0   0.38707467    1.3794687    1.7668008    2.7390101 
 7920000   0.90487303 4.1903681e-05    0.4497834 0.0018539117            0   0.44792949    1.3403432    1.7901266     3.935595 
 7925000   0.92624634 4.1129701e-05   0.39822857  0.014355314            0   0.38387325    1.3720024     1.770231    3.8760717 
 7930000   0.89161156 1.8749197e-06   0.45512444  0.011268559            0   0.44385588    1.3206996    1.7758241      1.87182 
 7935000   0.87731627 3.8722429e-05   0.47302415  0.015611621            0   0.45741253    1.2995247    1.7725489    3.7551373 
 7940000   0.90041626 -4.6922928e-05   0.44521023  0.013645695            0   0.43156453    1.3337416    1.7789518  -0.62350212 
 7945000   0.86871343 8.5740019e-06   0.48465673 0.0096939224            0    0.4749628    1.2867818    1.7714385    2.2104274 
 7950000   0.88825874 5.9892483e-05   0.44732371  0.015988275            0   0.43133544    1.3157333     1.763057    4.8295521 
 7955000   0.88012962 5.9038741e-05   0.45169376 0.0067271147            0   0.44496664     1.303692    1.7553858    4.7781693 
 7960000   0.86233016 5.651194e-05   0.46904975 0.0012430954            0   0.46780666    1.2773265    1.7463763    4.6397876 
 7965000   0.79829173 9.5587769e-05   0.56602078 0.0031123755            0   0.56290841    1.1824696    1.7484904    6.6425842 
 7970000   0.88228537 -2.8989889e-05    0.4809018  0.037405338            0   0.44349646    1.3068852     1.787787   0.30350471 
 7975000    0.9365208 -6.1543414e-05   0.40662473 0.0028774868            0   0.40374725    1.3872214    1.7938462   -1.3571766 
 7980000   0.85990041 -2.9689537e-05   0.53755694  0.021042592            0   0.51651435    1.2737275    1.8112844   0.29118015 
 7985000   0.95962461 -2.947875e-05   0.37363208  0.017514136            0   0.35611794     1.421444     1.795076   0.28576401 
 7990000   0.98850518 1.0950762e-05   0.36036328 0.0030589158            0   0.35730437    1.4642233    1.8245866    2.3852656 
 7995000   0.85588642 1.847998e-07   0.56028448  0.030009181            0    0.5302753    1.2677818    1.8280662     1.837528 
 8000000   0.93426047 6.268152e-05   0.42483948  0.021194334            0   0.40364514    1.3838733    1.8087128    5.0180066 
 8005000    0.9012847 4.1977538e-05   0.46956899  0.012978284            0   0.45659071     1.335028    1.8045969    3.9538469 
 8010000   0.88823034 -3.9882144e-05    0.4830386  0.051247619            0   0.43179099    1.3156912    1.7987298  -0.24323595 
 8015000   0.90598961 -2.8115225e-05   0.44704286  0.050627155            0   0.39641571    1.3419971      1.78904   0.34954044 
 8020000   0.87542734  1.74787e-05   0.47166466  0.048211781            0   0.42345288    1.2967267    1.7683914    2.6633009 
 8025000   0.84777786 5.8670626e-05   0.49195074 0.0091387438            0   0.48281199     1.255771    1.7477217    4.7516578 
 8030000   0.88145568 -3.2863654e-05    0.4601515  0.005726099            0    0.4544254    1.3056562    1.7658077  0.083188651 
 8035000   0.92703261 3.6032494e-06   0.42876245 0.0032292808            0   0.42553317    1.3731671    1.8019295    1.9864159 
 8040000   0.91013025 9.1945172e-05   0.42686374 0.0016264411            0    0.4252373    1.3481304    1.7749942     6.482587 
 8045000   0.86184979 4.8453995e-05   0.51539376  0.011169012            0   0.50422475     1.276615    1.7920088    4.2728533 
 8050000   0.92724167 3.8805579e-05    0.4410475  0.015978621            0   0.42506888    1.3734767    1.8145242    3.8013699 
 8055000     0.909713 8.0808706e-05   0.47253142  0.017164466            0   0.45536695    1.3475124    1.8200438    5.9574496 
 8060000   0.91358599 3.4044001e-05   0.46526628  0.011474935            0   0.45379135    1.3532492    1.8185155    3.5615684 
 8065000    0.8839645 -5.6210914e-05   0.48284463  0.014655425            0    0.4681892    1.3093724     1.792217   -1.0857818 
 8070000   0.88000158 3.4137638e-05   0.48917055   0.01216075            0    0.4770098    1.3035023    1.7926729    3.5405199 
 8075000   0.89407335 7.4818783e-05   0.43960508  0.007994906            0   0.43161018    1.3243461    1.7639512    5.5946729 
 8080000    0.9084122 -1.7934355e-05   0.40762051  0.013588103            0    0.3940324    1.3455856    1.7532061    0.8349671 
 8085000    0.8451432 -4.1442701e-05   0.52976342  0.010187647            0   0.51957577    1.2518684    1.7816318  -0.34023452 
 8090000   0.87342336 4.6890776e-05   0.52646227 0.00070416264            0    0.5257581    1.2937583    1.8202206    4.2210284 
 8095000   0.89937602 1.2315275e-06   0.48160881  0.002554838            0   0.47905397    1.3322007    1.8138095    1.8768638 
 8100000    0.8910094 -5.281078e-05   0.49186011  0.012555228            0   0.47930488    1.3198077    1.8116678  -0.89224416 
 8105000   0.94899843 4.3350954e-05   0.42079889 0.0095574133            0   0.41124148    1.4057039    1.8265028    4.0460717 
 8110000   0.94725903 0.00011005046   0.44692263  0.002728182            0   0.44419445    1.4031274    1.8500501    7.4846335 
 8115000    1.0148817 8.0306965e-05   0.38714201 0.0012097903            0   0.38593222    1.5032935    1.8904355    6.0021521 
 8120000    1.0013638 6.2402851e-05   0.43589109 0.0023866606            0   0.43350443    1.4832702    1.9191612    5.1141872 
 8125000   0.97872833 8.2341243e-05   0.46972025 0.0064797666            0   0.46324049    1.4497413    1.9194616    6.1353332 
 8130000   0.91610205 -0.00012096935   0.57999937  0.010602513            0   0.56939685    1.3569762    1.9369755    -4.256655 
 8135000   0.99010443 -0.00011607668    0.4623474  0.022289804            0    0.4400576    1.4665922    1.9289396   -4.0141865 
 8140000   0.98012181 4.0608982e-05    0.4807448  0.039758778            0   0.44098602    1.4518054    1.9325502    4.0117301 
 8145000   0.92045246 -2.5732167e-05   0.57022044  0.011655425            0   0.55856501    1.3634202    1.9336407   0.61615368 
 8150000   0.97348771 2.0414014e-05   0.50967975  0.018357757            0   0.49132199    1.4419787    1.9516584    2.9968559 
 8155000    1.0387639 2.0681215e-06   0.40532508  0.013635003            0   0.39169008     1.538669     1.943994    2.0498819 
 8160000   0.97813989 -1.2743875e-05   0.51575615 0.0094385233            0   0.50631763    1.4488697    1.9646259    1.3121395 
 8165000    1.0313372 4.3643311e-05   0.41874682 0.0092363598            0   0.40951046    1.5276682     1.946415    4.1809525 
 8170000     1.019648 -8.6648141e-05   0.44943463  0.012060697            0   0.43737393    1.5103536    1.9597882   -2.4765966 
 8175000   0.99943514 -0.00013587601   0.52681955  0.019540458            0   0.50727909    1.4804133    2.0072329   -4.9496191 
 8180000    1.0138677 1.2257639e-05   0.50612332  0.022754546            0   0.48336878    1.5017915    2.0079148    2.6355059 
 8185000    1.0521622 0.00010912969   0.48065036  0.018499224            0   0.46215114    1.5585153    2.0391656    7.6266059 
 8190000    1.1089985 7.4269731e-05   0.39129406 0.0064794379            0   0.38481462     1.642704    2.0339981    5.8366083 
 8195000    1.0396743 -9.4062978e-05   0.49940455   0.01426208            0   0.48514247    1.5400176    2.0394222   -2.7766023 
 8200000    1.0365409 -3.7777263e-05   0.51340008  0.047869963            0   0.46553012    1.5353763    2.0487764   0.11458052 
 8205000    1.0548337 0.00011166187   0.49168036  0.038500894            0   0.45317947    1.5624724    2.0541528    7.7712406 
 8210000    1.0501633 0.00010210705    0.5032618  0.017163455            0   0.48609835    1.5555544    2.0588162    7.2866971 
 8215000    1.0695374 2.924726e-05   0.46108499 0.0039526631            0   0.45713233    1.5842523    2.0453373     3.542797 
 8220000    1.1196264 -9.966937e-06   0.42966186 0.00011192397            0   0.42954994    1.6584466    2.0881084    1.5778013 
 8225000    1.0979432 -2.0990029e-05   0.44714225 0.0064378678            0   0.44070439    1.6263284    2.0734707   0.99878118 
 8230000    1.0014504 2.9824441e-05   0.58737037  0.029785553            0   0.55758482    1.4833984    2.0707688    3.5977802 
 8235000    1.0196985 3.2243005e-05   0.55138248  0.039395382            0   0.51198709    1.5104283    2.0618108    3.7126527 
 8240000    1.0297415 -8.9319099e-05   0.53555742  0.022055127            0    0.5135023    1.5253047    2.0608621   -2.5122758 
 8245000     0.997868 3.3137765e-05   0.54873164  0.013895735            0   0.53483591     1.478092    2.0268236    3.7234772 
 8250000    1.0598328 9.0089221e-05   0.45691611 0.0035958296            0   0.45332028    1.5698773    2.0267934    6.6393615 
 8255000   0.99561561 -4.1237992e-05   0.52855039  0.023716965            0   0.50483342    1.4747556     2.003306  -0.10807916 
 8260000    1.0216559 0.00010778819   0.46970389  0.025033796            0   0.44467009    1.5133278    1.9830317    7.5017872 
 8265000   0.98618753 0.00026535522   0.51433763  0.011721375            0   0.50261625    1.4607903    1.9751279    15.561315 
 8270000     1.057651 5.4521644e-05   0.39383348 0.0019022207            0   0.39193126    1.5666455     1.960479    4.7519872 
 8275000   0.94227383 -0.00013495021   0.57115051  0.011930882            0   0.55921963    1.3957431    1.9668936   -4.9425571 
 8280000    1.0359207 -8.7410595e-05    0.4399148  0.018516205            0    0.4213986    1.5344575    1.9743723   -2.5010502 
 8285000    1.0824565 7.1824432e-06   0.36589578  0.015973121            0   0.34992266    1.6033887    1.9692844    2.3370255 
 8290000    0.9732147 6.6754442e-06    0.5034954  0.024314874            0   0.47918052    1.4415743    1.9450697    2.2868524 
 8295000    0.9873616 7.1237799e-06   0.47715207 0.0071986158            0   0.46995346    1.4625294    1.9396814     2.304419 
 8300000    1.0838471 -2.8699711e-05   0.33368003  0.014555708            0   0.31912432    1.6054486    1.9391286   0.46970342 
 8305000   0.93697527 1.8984927e-06   0.50638946  0.017841902            0   0.48854756    1.3878946    1.8942841    1.9914869 
 8310000   0.89191733 1.0427451e-05   0.56610779 0.0089711786            0   0.55713662    1.3211526    1.8872603    2.4211458 
 8315000   0.96297277 1.5520241e-06    0.4360653 0.0090967339            0   0.42696857    1.4264034    1.8624687    1.9419324 
 8320000   0.97965651 8.2541227e-05   0.44107146 0.0012832049            0   0.43978826    1.4511162    1.8921877    6.1182985 
 8325000   0.91677053 4.0071423e-05   0.52019504 0.0025601624            0   0.51763487    1.3579663    1.8781614    3.9298183 
 8330000   0.97936347 -6.5612781e-05   0.40671379 0.0049994756            0   0.40171431    1.4506821    1.8573959   -1.5019785 
 8335000   0.95659524 -0.00010586491    0.4521774 0.0070606189            0   0.44511678    1.4169567    1.8691341   -3.5511491 
 8340000   0.90482553 -0.00010493434   0.48708783 0.0086569193            0   0.47843091    1.3402728    1.8273606   -3.5452775 
 8345000   0.94120256 -3.2492614e-05   0.38047996  0.012849873            0   0.36763009    1.3941563    1.7746363   0.11101441 
 8350000   0.92012731 9.6823244e-05   0.40246253  0.011547896            0   0.39091464    1.3629386    1.7654011    6.7227512 
 8355000   0.90473396 6.3579797e-05   0.42304528 0.00089700681            0   0.42214827    1.3401372    1.7631824    5.0184681 
 8360000   0.73842444 3.5542928e-05   0.64720546 0.0034027488            0   0.64380272    1.0937912    1.7409967    3.5607946 
 8365000   0.82963961 4.2548068e-05   0.51013992 0.0068435408            0   0.50329638    1.2289037    1.7390436    3.9175047 
 8370000   0.84927937 -5.0220247e-06   0.47399966 0.0033834932            0   0.47061617    1.2579951    1.7319947    1.4748671 
 8375000   0.88429398 -1.2582355e-05   0.41555841 0.0014389236            0   0.41411949    1.3098605    1.7254189    1.0812023 
 8380000   0.83009734 5.8352896e-05   0.48440666 0.0051355482            0   0.47927111    1.2295817    1.7139883    4.7016566 
 8385000   0.85116162 0.00019157332   0.45182161  0.012215971            0   0.43960564    1.2607832    1.7126048    11.521159 
 8390000   0.82966059 3.5183751e-05    0.5131385   0.03591038            0   0.47722812    1.2289348    1.7420732    3.5434813 
 8395000   0.84934802 -1.1437892e-05   0.48933516  0.021711383            0   0.46762377    1.2580968    1.7474319    1.1618118 
 8400000   0.83597257 -1.017316e-05   0.47802154 0.0039932431            0   0.47402829    1.2382844    1.7163059    1.1954401 
 8405000   0.91074322 -5.2008911e-05   0.37056776 0.0030371005            0   0.36753065    1.3490384    1.7196062   -0.9432501 
 8410000   0.90411669 -1.5961217e-05    0.3963832  0.021789218            0   0.37459399    1.3392229    1.7356061   0.91839174 
 8415000   0.85400231 6.0760493e-05   0.49051896  0.020044764            0   0.47047419    1.2649909    1.7555099    4.8664471 
 8420000   0.87922657 2.1963052e-05   0.47680436 0.0035196472            0   0.47328471    1.3023544    1.7791587     2.903667 
 8425000   0.85381509 -0.00012384937   0.52249044   0.00397201            0   0.51851843    1.2647136     1.787204   -4.5538836 
 8430000   0.79743349 -0.00014984331   0.60231252  0.021150223            0    0.5811623    1.1811984    1.7835109   -5.8884666 
 8435000   0.90827099 9.5027863e-06    0.4546736  0.041494316            0   0.41317928    1.3453764      1.80005    2.2865927 
 8440000   0.89144504 6.8702269e-05   0.47845204 0.0046988376            0    0.4737532     1.320453     1.798905    5.3164612 
 8445000   0.97961255 -3.1930137e-05   0.36761184 0.00099218649            0   0.36661966    1.4510511    1.8186629   0.18383991 
 8450000   0.91991252 -5.2369937e-05   0.45940225  0.005046262            0   0.45435599    1.3626204    1.8220227  -0.85931811 
 8455000    0.9522431 3.2612274e-05   0.41459087  0.010067315            0   0.40452355    1.4105101     1.825101    3.4948494 
 8460000   0.81992216 0.00015044105   0.64010451  0.052417714            0   0.58768679    1.2145097    1.8546142    9.5571959 
 8465000    0.8922903 1.1838985e-05   0.52428276  0.036462899            0   0.48781986     1.321705    1.8459878    2.4521438 
 8470000   0.88459002 -7.0540967e-05   0.53848571  0.025778424            0   0.51270728     1.310299    1.8487847   -1.7629129 
 8475000   0.95790907 -8.7898483e-05   0.43486527  0.023156159            0   0.41170911    1.4189028    1.8537681   -2.6466343 
 8480000   0.88379765 -8.8375896e-06   0.54309699 0.0063843848            0   0.53671261    1.3091253    1.8522223    1.3997377 
 8485000   0.94311647 -3.182829e-05   0.43763443 0.0043558674            0   0.43327856    1.3969913    1.8346257   0.20501726 
 8490000   0.93537841 -5.7694118e-05   0.45324007 0.0063101097            0   0.44692996    1.3855293    1.8387693   -1.1151695 
 8495000   0.89356556 8.4383488e-05   0.53485578 0.0077453708            0   0.52711041     1.323594    1.8584498    6.1788844 
 8500000   0.90930631 0.00010298729   0.51119115 0.0041691777            0   0.50702198      1.34691    1.8581011    7.1310502 
 8505000   0.92821452 3.0481408e-05    0.4688197 0.00025030429            0    0.4685694    1.3749178    1.8437375    3.4043856 
 8510000   0.93491601 1.2515371e-05   0.44565509            0            0   0.44565509    1.3848443    1.8304994    2.4712864 
 8515000   0.88177181 -1.6060858e-05   0.51441017 0.00071481763            0   0.51369535    1.3061245    1.8205347   0.99821873 
 8520000   0.90681968 -3.8402721e-05   0.47778616  0.020657244            0   0.45712891    1.3432266    1.8210128  -0.14520649 
 8525000   0.88270694 -4.2205723e-05   0.50030129  0.030816195            0    0.4694851    1.3075097    1.8078109  -0.35312206 
 8530000   0.88240902 4.1369061e-05   0.47013176 0.0080595353            0   0.46207223    1.3070684    1.7772001     3.895296 
 8535000   0.87950317 0.0001075392   0.47442953  0.030893474            0   0.44353605    1.3027641    1.7771936    7.2832005 
 8540000   0.87748562 -3.0121235e-05   0.49263321 0.0077389114            0    0.4848943    1.2997756    1.7924088   0.25020153 
 8545000   0.89758875 -9.036181e-05     0.466896  0.015542208            0   0.45135379    1.3295533    1.7964493   -2.8300754 
 8550000   0.87569139 -4.0735839e-05   0.50933311   0.02132429            0   0.48800882    1.2971179     1.806451  -0.27922398 
 8555000   0.85625974 1.7240889e-05   0.53161913  0.038728773            0   0.49289036    1.2683347    1.7999539    2.6826874 
 8560000   0.82726527 5.4507829e-05   0.52608928  0.025031858            0   0.50105742    1.2253867     1.751476    4.5422768 
 8565000    0.8682275 -0.00011854219   0.49579438 0.0033379046            0   0.49245647     1.286062    1.7818564   -4.2875039 
 8570000   0.90081638 1.8601341e-05   0.46392358 0.0040263784            0    0.4598972    1.3343343    1.7982578    2.7506465 
 8575000   0.86171325 7.2752799e-05    0.5166582 0.0062287885            0   0.51042941    1.2764127    1.7930709    5.5180143 
 8580000   0.96079903 4.0702432e-05   0.38207726 0.0099321358            0   0.37214512    1.4231836    1.8052608    3.8892253 
 8585000   0.90874362 -6.2856561e-05   0.44598679  0.011678517            0   0.43430827    1.3460765    1.7920633   -1.4261927 
 8590000   0.81952061 -2.7395823e-05   0.58567852  0.018878949            0   0.56679957    1.2139149    1.7995934    0.3969273 
 8595000   0.91022861 0.00014442617   0.43470518  0.028998681            0    0.4057065    1.3482761    1.7829813    9.1776015 
 8600000   0.89863337 6.3791677e-05   0.47365628  0.032618085            0    0.4410382    1.3311007     1.804757    5.0708908 
 8605000   0.86785323 -2.6522638e-06   0.53149998  0.024516725            0   0.50698325    1.2855076    1.8170076    1.6812117 
 8610000   0.90877275 8.5230146e-05   0.46322493   0.01696504            0   0.44625989    1.3461196    1.8093446     6.173128 
 8615000   0.83452774 9.9930504e-05   0.56668053  0.042421394            0   0.52425914    1.2361442    1.8028248    6.9192666 
 8620000   0.87205108 -7.0093938e-05   0.50583232   0.01867983            0    0.4871525    1.2917257     1.797558   -1.7912516 
 8625000   0.92980172 -9.3230779e-05   0.43569471 0.00096233535            0   0.43473237    1.3772688    1.8129635   -2.9604524 
 8630000   0.93721155 8.0828967e-06   0.44480849 0.0019305091            0   0.44287798    1.3882446    1.8330531    2.2468974 
 8635000    0.9079986 6.5095645e-05   0.49663509 0.0071230845            0     0.489512    1.3449729     1.841608    5.1745051 
 8640000   0.84706908 2.2953783e-05   0.57827816  0.012657751            0    0.5656204    1.2547211    1.8329992    3.0082329 
 8645000   0.90515453 -2.7956882e-05   0.49873862  0.023425235            0   0.47531338    1.3407601    1.8394988   0.40810638 
 8650000   0.94598925 5.7267943e-05   0.44666144  0.029428349            0   0.41723309    1.4012466     1.847908    4.7800267 
 8655000   0.90481845 -2.3394337e-05   0.50479301  0.042158803            0   0.46263421    1.3402623    1.8450553   0.64726527 
 8660000   0.87311038 -2.9305422e-05    0.5772388  0.036967518            0   0.54027128    1.2932948    1.8705336   0.37009595 
 8665000   0.95538065 1.8173048e-05   0.46757325  0.023825159            0   0.44374809    1.4151576    1.8827308    2.8131909 
 8670000     1.043075 4.9708763e-05   0.32157076  0.024339953            0   0.29723081    1.5450549    1.8666256    4.4117143 
 8675000   0.95258228 3.4580786e-05   0.47900171 0.0060207405            0   0.47298096    1.4110125    1.8900142    3.6605504 
 8680000   0.93665779 2.3905715e-05   0.49238054 0.0024984908            0   0.48988205    1.3874243    1.8798049    3.1037775 
 8685000   0.96632943 6.2437605e-05   0.45734637 0.0019133785            0   0.45543299    1.4313755    1.8887218    5.0855272 
 8690000    1.0165264 2.9675598e-05   0.37704579 0.0033256276            0   0.37372017    1.5057298    1.8827756    3.4021662 
 8695000   0.95507646 -1.3378208e-05   0.46835331 0.0049843412            0   0.46336897     1.414707    1.8830603    1.1980961 
 8700000   0.89723454 -5.2021458e-05    0.5590351 0.0032742446            0   0.55576085    1.3290287    1.8880638  -0.77543488 
 8705000     1.016154 1.5217717e-05   0.38614804 0.0020461534            0   0.38410189    1.5051782    1.8913262    2.6704733 
 8710000    0.8954987 7.2471983e-05   0.58495147  0.038540261            0   0.54641121    1.3264574    1.9114089    5.6219744 
 8715000   0.99089265 1.6024952e-05   0.44520531  0.022544512            0    0.4226608    1.4677597    1.9129651    2.7334426 
 8720000   0.96093234 -0.00010952186   0.49566192 0.0023296736            0   0.49333224     1.423381    1.9190429   -3.6884765 
 8725000   0.97699039 -8.4406835e-05   0.47710122 0.0092738748            0   0.46782734     1.447167    1.9242682   -2.3973617 
 8730000   0.92997964 -8.9265145e-06   0.53275572  0.028601053            0   0.50415467    1.3775323    1.9102881    1.4532505 
 8735000   0.94217425 -3.1870256e-05   0.51521661  0.021567037            0   0.49364957    1.3955956    1.9108122   0.27905513 
 8740000    1.0109869 -1.2691858e-05   0.44644904  0.014170174            0   0.43227886    1.4975243    1.9439734    1.2941503 
 8745000    1.0387084 1.5173057e-05   0.42214579 0.0095215132            0   0.41262428    1.5385868    1.9607326    2.7375931 
 8750000   0.95206214 -9.5685203e-05   0.56078261 0.0054891326            0   0.55529348     1.410242    1.9710247   -2.9280578 
 8755000    1.0474674 -8.0010364e-05    0.4238787 0.0026340058            0    0.4212447    1.5515611    1.9754398   -2.1210908 
 8760000    1.0319872 3.1360901e-05   0.46050597 0.0027889126            0   0.45771706    1.5286311     1.989137    3.5948152 
 8765000    1.0304816 7.2882154e-05   0.45888373  0.017648634            0   0.44123509    1.5264009    1.9852846    5.7168509 
 8770000   0.97877421 -4.4961423e-06   0.56669614  0.019186246            0   0.54750989    1.4498093    2.0165054    1.7863029 
 8775000    1.0225418 -3.4347311e-05   0.50077729  0.012093466            0   0.48868382      1.51464    2.0154173   0.25683496 
 8780000    1.0859049 -9.9659614e-05     0.452892 0.0069344786            0   0.44595752    1.6084967    2.0613887   -3.0411836 
 8785000   0.99855429 -5.7482195e-05   0.57357861  0.014863956            0   0.55871465    1.4791085    2.0526872  -0.89040125 
 8790000    1.0846467 -1.1689895e-06   0.43308213  0.020746832            0    0.4123353    1.6066329     2.039715    1.9798627 
 8795000     1.020408 -9.1264288e-06   0.51769017  0.028923338            0   0.48876683    1.5114793    2.0291695    1.5618963 
 8800000   0.99654699 -7.490233e-05   0.52688679  0.027120457            0   0.49976633    1.4761352     2.003022   -1.8319773 
 8805000   0.97047981 -0.0001346914   0.57354449  0.013195858            0   0.56034863    1.4375232    2.0110677   -4.8851317 
 8810000     1.049056 6.5186137e-06   0.43941224 0.0016837431            0   0.43772849    1.5539143    1.9933265    2.3270795 
 8815000    1.0381833 5.9930364e-05   0.47710167  0.011829102            0   0.46527257    1.5378089    2.0149106    5.0833453 
 8820000    1.0259901 -2.0623464e-05   0.49318153  0.028143261            0   0.46503827    1.5197478    2.0129293   0.95700795 
 8825000   0.97861305 6.5586717e-05   0.57589521  0.039827618            0   0.53606759    1.4495706    2.0254658    5.3835057 
 8830000    0.9654914 6.9759431e-05   0.59027359  0.031828403            0   0.55844519    1.4301341    2.0204077    5.5920906 
 8835000    1.0350103 1.4748316e-05   0.49187799  0.019827173            0   0.47205082     1.533109     2.024987    2.7801007 
 8840000    1.0178955 -4.1512661e-05   0.54285758  0.016829067            0   0.52602851    1.5077578    2.0506153 -0.074832894 
 8845000    1.0176424 -1.8633892e-06   0.52381635 0.0049917462            0    0.5188246    1.5073827    2.0311991    1.9357936 
 8850000    1.0411231 8.517229e-05   0.48672548 0.0054980389            0   0.48122744    1.5421636    2.0288891    6.3897103 
 8855000    1.0066158 4.3223084e-06   0.54084211  0.016506697            0   0.52433541    1.4910497    2.0318918     2.253194 
 8860000    1.0021837 -4.7724474e-05   0.54990844  0.013893249            0   0.53601519    1.4844846    2.0343931  -0.40910002 
 8865000    1.0570199 2.770022e-05   0.46479259 0.0029789884            0    0.4618136    1.5657108    2.0305034    3.4487546 
 8870000   0.98556037 5.7253577e-05   0.59105379 0.0078279752            0   0.58322582    1.4598613    2.0509151    4.9822982 
 8875000    1.0931089 -9.0297461e-05   0.44800682   0.02511897            0   0.42288785    1.6191675    2.0671743   -2.5560557 
 8880000    1.0351389 -0.0001638589    0.5620576  0.021915778            0   0.54014182    1.5332995    2.0953571   -6.2942185 
 8885000    1.0451209 5.9779829e-05   0.54960283 0.0062732991            0   0.54332953    1.5480853    2.0976881    5.1584154 
 8890000    1.1777864 5.2665042e-05   0.40532042 0.0046487262            0    0.4006717    1.7445961    2.1499166    4.8463667 
 8895000    1.0683681 5.0761837e-05   0.58800197 0.0081982683            0    0.5798037    1.5825202    2.1705222    4.7695282 
 8900000    1.1258381 -6.3292875e-06   0.50944461 0.0036174363            0   0.50582717    1.6676477    2.1770923    1.8530328 
 8905000    1.0644202 -0.0001387145   0.58083069 0.0057744217            0   0.57505626    1.5766724    2.1575031   -4.9446795 
 8910000      1.01711 6.1520026e-05   0.60033891  0.069279163            0   0.53105974    1.5065942    2.1069331    5.2567584 
 8915000    1.0963903 0.0001500601   0.46592115  0.016909276            0   0.44901188    1.6240281    2.0899493    9.7730263 
 8920000    1.0475242 0.00011769272   0.54107309  0.013256268            0   0.52781682    1.5516452    2.0927183    8.1185858 
 8925000    1.0996604 -6.5056641e-05   0.43569073 0.0075672516            0   0.42812348    1.6288719    2.0645626   -1.2663374 
 8930000    1.0450886 -0.00019809213   0.51890007  0.016973821            0   0.50192625    1.5480375    2.0669376   -8.0753794 
 8935000    1.0425905 -3.465174e-05   0.49945549    0.0242651            0   0.47519039    1.5443372    2.0437927    0.2696236 
 8940000     1.055557 3.7080992e-05   0.50256037  0.011923025            0   0.49063735    1.5635439    2.0661042     3.964651 
 8945000    1.0163129 5.2508754e-05   0.53411018  0.025101507            0   0.50900868    1.5054135    2.0395237    4.7279719 
 8950000   0.98132569 -2.7642001e-06   0.57894443  0.010882901            0   0.56806153    1.4535887    2.0325331    1.8910061 
 8955000   0.99512761 -0.00011506349   0.55340231            0            0   0.55340231    1.4740328    2.0274351   -3.8638157 
 8960000    1.0840088 -8.9738563e-05   0.44177706 0.0011637647            0   0.44061329     1.605688    2.0474651   -2.5471493 
 8965000    1.0443071 1.6613988e-05   0.51226462 0.0070821377            0   0.50518248    1.5468799    2.0591445    2.9097806 
 8970000    1.0676022 4.6856416e-05   0.50475117   0.01370442            0   0.49104675    1.5813857    2.0861369    4.4851854 
 8975000    1.0781009 -3.7310405e-05   0.46190541  0.023652205            0    0.4382532    1.5969369    2.0588423   0.14854959 
 8980000   0.95217046 -2.9967081e-05   0.65513777  0.041554522            0   0.61358324    1.4104025    2.0655403   0.53122569 
 8985000   0.98440714 -3.6849974e-05   0.59793712  0.043622204            0   0.55431491    1.4581531    2.0560902   0.16937155 
 8990000   0.98968412 6.0102949e-05   0.56847897  0.057049184            0   0.51142979    1.4659696    2.0344486    5.1117195 
 8995000    1.0037035 0.00021340761   0.56781699  0.013487103            0   0.55432989    1.4867358    2.0545527    12.981022 
 9000000   0.99825988 0.00021349411   0.59432411  0.013187598            0   0.58113651    1.4786724    2.0729966    13.003895 
 9005000    1.0598491 2.2164549e-05   0.54296716  0.020396582            0   0.52257058    1.5699015    2.1128687    3.2476936 
 9010000    1.0344497 -0.00012929972   0.60425564  0.022054568            0   0.58220107    1.5322786    2.1365343   -4.4836114 
 9015000    1.0545251 -7.2280411e-05   0.62220855  0.021495955            0    0.6007126    1.5620154    2.1842239   -1.5165331 
 9020000    1.1178599 2.3623108e-05   0.49910388 0.0086555223            0   0.49044836      1.65583    2.1549338     3.364437 
 9025000    1.0434558 1.0790981e-05   0.61142466   0.02264159            0   0.58878307    1.5456189    2.1570435    2.7095417 
 9030000    1.0555028 0.00011772555   0.59357287  0.056700706            0   0.53687217    1.5634635    2.1570364    8.1845844 
 9035000    1.1476821 0.00013417135    0.4712512  0.067416873            0   0.40383432    1.7000041    2.1712553    9.0408282 
 9040000    1.1075564 1.8934859e-05   0.51274668  0.024705766            0   0.48804091     1.640568    2.1533146    3.1227794 
 9045000     1.092624 -1.2599955e-05   0.54301895  0.010973983            0   0.53204497    1.6184493    2.1614682    1.5163505 
 9050000    1.0548844 -0.00010387247   0.60009937  0.017067881            0   0.58303148    1.5625475    2.1626469   -3.1556235 
 9055000    1.1406881 -9.3387865e-05   0.50394696  0.045049963            0     0.458897    1.6896443    2.1935913   -2.5878674 
 9060000    1.0491803 -1.9035129e-05   0.65074176  0.022986752            0     0.627755    1.5540983    2.2048401    1.2302415 
 9065000    1.0801125 5.5554799e-05   0.58204684  0.028818977            0   0.55322786    1.5999167    2.1819636    5.0263693 
 9070000    1.1236509 -2.0709257e-05   0.51960163  0.015685929            0   0.50391571    1.6644079    2.1840096    1.1236956 
 9075000    1.1766165 2.1984395e-05   0.46393098 0.0017774802            0    0.4621535    1.7428632    2.2067942    3.3323952 
 9080000    1.1444767 8.0334224e-05   0.52498701 0.0049094736            0   0.52007754     1.695256    2.2202431    6.3333553 
 9085000    1.1703138 -0.00010860321   0.51482569  0.014777332            0   0.50004836    1.7335274    2.2483531   -3.3121313 
 9090000    1.1402085 1.1706126e-05   0.57916402  0.035547476            0   0.54361654    1.6889339    2.2680979    2.8674515 
 9095000    1.1526914 -5.8189979e-05   0.54964446  0.028488034            0   0.52115643    1.7074242    2.2570686  -0.72225829 
 9100000    1.1652566 -0.00011610034   0.54960459  0.017808917            0   0.53179567    1.7260363    2.2756409   -3.6686967 
 9105000       1.1945 -3.5218671e-05   0.49486084 0.0061923277            0   0.48866851    1.7693532     2.264214   0.46101803 
 9110000    1.1757204 9.0518013e-06   0.50512403 0.0026540119            0   0.50247002    1.7415358    2.2466598    2.7101121 
 9115000    1.1475523 5.6027743e-06   0.52956637  0.019670412            0   0.50989596    1.6998119    2.2293783    2.5162403 
 9120000    1.0725374 -4.6568682e-05   0.63415954  0.067812759            0   0.56634678     1.588696    2.2228556  -0.16146095 
 9125000    1.1677333 -1.0887059e-06   0.50852965  0.021507157            0   0.48702249    1.7297049    2.2382345    2.1824928 
 9130000    1.1557288 4.5408026e-06   0.53302364  0.038367446            0    0.4946562    1.7119232    2.2449469     2.477436 
 9135000    1.0711077 -3.7553371e-05   0.66016748  0.025863029            0   0.63430445    1.5865782    2.2467457   0.32401309 
 9140000     1.190166 9.2658895e-06   0.48366081  0.019902616            0   0.46375819    1.7629334    2.2465942    2.7210078 
 9145000    1.1699825 0.00013589979   0.49959979  0.028642244            0   0.47095755    1.7330366    2.2326364    9.1907056 
 9150000    1.1143997 0.0001150124   0.55182146  0.026607869            0   0.52521359    1.6507046     2.202526    8.0911609 
 9155000    1.1512047 -1.6335769e-05   0.48562232  0.050686506            0   0.43493581    1.7052219    2.1908442    1.3544529 
 9160000    1.0635373 2.5727501e-05   0.60133719  0.057728651            0   0.54360854    1.5753646    2.1767018    3.4939499 
 9165000    1.0208622 9.4674161e-05   0.64366208  0.025668079            0     0.617994    1.5121522    2.1558143    7.0031313 
 9170000    1.0488728 8.5427866e-05    0.6056766  0.049165993            0   0.55651061    1.5536428    2.1593194    6.5332261 
 9175000    1.0692696 4.8502985e-05   0.55445011  0.023668461            0   0.53078165    1.5838556    2.1383057    4.6216586 
 9180000    1.0050582 4.4989935e-05    0.6651905 0.0077074923            0     0.657483    1.4887425     2.153933    4.4574177 
 9185000   0.98416377 -2.8175736e-05   0.66989108 0.0044402184            0   0.66545086    1.4577926    2.1276837   0.68508596 
 9190000    1.0606479 -4.0415883e-05    0.5653941 0.0094246348            0   0.55596946    1.5710847    2.1364788  0.067185556 
 9195000    1.0402728 4.8952293e-05   0.59304424  0.017115346            0   0.57592889    1.5409041    2.1339484    4.6403058 
 9200000    1.0662475 0.00017907122    0.5268006  0.012271646            0   0.51452895    1.5793791    2.1061797    11.274626 
 9205000    1.0219186 6.2761794e-05    0.5763732  0.010958469            0   0.56541473     1.513717    2.0900902     5.303494 
 9210000    1.0608901 5.7425708e-05   0.50779864  0.025701468            0   0.48209717    1.5714435    2.0792421    5.0194384 
 9215000    1.0835508 2.175022e-05   0.45984613  0.010780011            0   0.44906612    1.6050097    2.0648558    3.1784671 
 9220000    1.0426201 -3.2463537e-05   0.51246576  0.014137271            0   0.49832849     1.544381    2.0568468   0.39471368 
 9225000    1.0390666 -6.4692211e-05    0.5189916  0.015712825            0   0.50327878    1.5391173    2.0581089   -1.2541323 
 9230000    1.0174757 -0.00018971981   0.53365086  0.003878691            0   0.52977217    1.5071358    2.0407867   -7.6728677 
 9235000    1.0460499 -7.618625e-05   0.48778267 0.0011949412            0   0.48658773    1.5494615    2.0372441   -1.8634919 
 9240000   0.98892366 0.00010629472   0.53440889  0.013187314            0   0.52122157    1.4648432    1.9992521    7.4415419 
 9245000    1.0236073 4.2359688e-05   0.46350521  0.023256871            0   0.44024834    1.5162183    1.9797235    4.1485396 
 9250000   0.96390638 -4.9456747e-05   0.53805663  0.016677551            0   0.52137908    1.4277863     1.965843  -0.56634248 
 9255000    1.0478745 -3.2353791e-05   0.42556298  0.024817586            0    0.4007454    1.5521641     1.977727   0.32121292 
 9260000   0.91128371 6.0346066e-05   0.61348369  0.033970152            0   0.57951353     1.349839    1.9633227    5.0530413 
 9265000   0.93567203 -6.6889692e-06    0.5617236  0.016987465            0   0.54473613    1.3859642    1.9476878    1.6052126 
 9270000    1.0289351 -4.9968919e-05   0.42516116 0.0059449496            0   0.41921621    1.5241101    1.9492713  -0.60913738 
 9275000   0.92801647 -6.0868233e-05   0.53517034 0.0073049975            0   0.52786534    1.3746244    1.9097947   -1.2066588 
 9280000   0.90592117 -7.1852332e-05   0.56262194  0.017688381            0   0.54493356    1.3418957    1.9045177   -1.7743217 
 9285000   0.94811156 3.2811764e-05   0.53729772  0.020042666            0   0.51725506    1.4043903     1.941688    3.6216503 
 9290000   0.98658471 -4.9974928e-05   0.48614446 0.0059952118            0   0.48014925    1.4613786    1.9475231  -0.61119328 
 9295000    1.0093319 -0.00021241713   0.48081137 0.0098768488            0   0.47093452    1.4950729    1.9758842   -8.8998729 
 9300000   0.90518465 -0.00013091016   0.60259803  0.010910037            0     0.591688    1.3408048    1.9434028   -4.7591974 
 9305000    1.0100231 4.4206743e-05   0.45607117 0.0087043325            0   0.44736684    1.4960967    1.9521679    4.2155531 
 9310000   0.96414153 0.00013785507   0.54829467  0.012617086            0   0.53567758    1.4281346    1.9764293    9.0346091 
 9315000   0.97619049 3.4479352e-05   0.54642333   0.03046439            0   0.51595894    1.4459822    1.9924055    3.7577483 
 9320000   0.96056403 -2.7358325e-05   0.55808963  0.038360731            0    0.5197289    1.4228355    1.9809251   0.58017884 
 9325000    1.0640263 9.5776533e-05     0.417717  0.012136986            0   0.40558002    1.5760889    1.9938059    6.8975644 
 9330000   0.99328092 0.00014483081   0.52252835  0.017581754            0    0.5049466    1.4712974    1.9938257     9.409163 
 9335000   0.93139045 0.00011350143   0.55704921  0.012425654            0   0.54462355    1.3796221    1.9366713    7.7479445 
 9340000   0.98119073 2.8769369e-05   0.48698992  0.025304977            0   0.46168494    1.4533888    1.9403787    3.4133704 
 9345000    0.9439113 -4.6294044e-05   0.53319185  0.031682175            0   0.50150967    1.3981686    1.9313605  -0.43889459 
 9350000    1.0103963 3.0186472e-05   0.42444882  0.027176064            0   0.39727276    1.4966495    1.9210983    3.4666457 
 9355000   0.92730269 0.00011483889   0.54348076  0.067503381            0   0.47597738    1.3735671    1.9170479    7.7967993 
 9360000   0.98439981 1.5245331e-05   0.46510284   0.10811435            0   0.35698849    1.4581422    1.9232451     2.703806 
 9365000   0.90423064 -0.00010438113   0.57332319  0.058214341            0   0.51510885    1.3393916    1.9127148   -3.4315989 
 9370000   0.82108973 -0.0001012395   0.69150935  0.030624024            0   0.66088533    1.2162392    1.9077485   -3.2757139 
 9375000   0.95190621 3.076658e-05   0.51050048  0.030843941            0   0.47965653    1.4100111    1.9205116    3.4957605 
 9380000   0.90283809 7.7904042e-05   0.58467211  0.042740868            0   0.54193125    1.3373289     1.922001     5.910688 
 9385000   0.87265431 6.5055863e-05   0.64340353  0.039882184            0   0.60352135    1.2926192    1.9360227    5.2668829 
 9390000   0.98199204 -2.817982e-05   0.46834078  0.019818359            0   0.44852242    1.4545757    1.9229165   0.48010969 
 9395000    0.9790496 -0.00017556744   0.47299948 0.0083528358            0   0.46464665    1.4502172    1.9232167   -7.0658364 
 9400000   0.94219214 -0.00019437786   0.52918742  0.012965327            0   0.51622209    1.3956221    1.9248095   -8.0273371 
 9405000    1.0019116 -1.3722758e-05   0.46252007  0.012633412            0   0.44988666    1.4840815    1.9466016    1.2439963 
 9410000   0.96674192 0.00019135135   0.49973588  0.036012308            0   0.46372357    1.4319865    1.9317224    11.728911 
 9415000   0.90344291 0.00014586046   0.57521691  0.035071257            0   0.54014565    1.3382248    1.9134417     9.381497 
 9420000   0.98006876 0.00013807377   0.44725155  0.018304508            0   0.42894704    1.4517269    1.8989784    8.9683554 
 9425000    1.0103812 7.5038202e-05   0.42330001  0.010298795            0   0.41300121    1.4966272    1.9199272    5.7618832 
 9430000   0.92267857 -6.6179084e-05   0.56184735  0.014295707            0   0.54755164    1.3667176     1.928565   -1.4598041 
 9435000   0.97497478 -2.8140006e-06   0.51663793  0.031181155            0   0.48545678    1.4441814    1.9608193    1.8167425 
 9440000   0.94969016 7.7936106e-05   0.55917647  0.022158898            0   0.53701757    1.4067286     1.965905    5.9562336 
 9445000   0.97244691 0.00017935335   0.52096671  0.012889824            0   0.50807689     1.440437    1.9614037    11.144295 
 9450000   0.99180271 0.00017564802   0.51490964   0.01517161            0   0.49973803    1.4691078    1.9840174    10.977196 
 9455000    0.9292065 6.6467078e-05   0.61357674  0.026724319            0   0.58685243    1.3763871    1.9899639    5.3930782 
 9460000   0.97656527 3.5945709e-05   0.52317865  0.023436821            0   0.49974183    1.4465373     1.969716    3.8101363 
 9465000   0.97564035 -2.7340459e-05   0.53587889 0.0044538477            0   0.53142504    1.4451673    1.9810462   0.58121465 
 9470000    0.9911774 6.046047e-05   0.51425506 0.0010436313            0   0.51321143    1.4681815    1.9824366    5.0780127 
 9475000     0.964364 0.00016164977   0.55672217 0.00013991179            0   0.55658226    1.4284642    1.9851864    10.261655 
 9480000   0.99072861 3.4587378e-05    0.5319399 0.0021058182            0   0.52983408    1.4675168    1.9994567    3.7703304 
 9485000   0.97423466 -0.000186545   0.55319694  0.006829418            0   0.54636752    1.4430851     1.996282   -7.5548218 
 9490000   0.95502708 -0.00012583846   0.57557838 0.0054561588            0   0.57012222    1.4146339    1.9902122    -4.452717 
 9495000    1.0634792 7.882253e-05   0.43084578 0.0078112502            0   0.42303453    1.5752786    2.0061244    6.0418379 
 9500000    1.0019542 0.00013364143   0.54303558  0.026184995            0   0.51685059    1.4841447    2.0271803    8.8696217 
 9505000   0.97795347 5.8292768e-05   0.56727554  0.038573859            0   0.52870168    1.4485936    2.0158691    5.0004588 
 9510000     1.017432 -8.425084e-05   0.52153398  0.022026836            0   0.49950714    1.5070711    2.0286051    -2.285038 
 9515000    1.0324118 -5.9858401e-05   0.52078313  0.011584644            0   0.50919849    1.5292599    2.0500431   -1.0147071 
 9520000     1.026295 -9.9293438e-06   0.52948232  0.013738258            0   0.51574406    1.5201994    2.0496817    1.5412993 
 9525000   0.90949952 -3.4036088e-05   0.69556179  0.033837245            0   0.66172455    1.3471962    2.0427579   0.30011025 
 9530000   0.94489979 1.0534622e-05   0.61842788  0.048435649            0   0.56999223    1.3996328    2.0180607    2.5574333 
 9535000   0.94810887 2.8754687e-05   0.60884378   0.04424324            0   0.56460054    1.4043863      2.01323      3.48547 
 9540000   0.96624258 -0.00010613673   0.56083882  0.053434063            0   0.50740475    1.4312468    1.9920856   -3.4421151 
 9545000    1.0700322 -2.5426851e-05   0.42269963  0.038407363            0   0.38429227    1.5849852    2.0076848   0.70583004 
 9550000   0.93633686 0.00011337723   0.58877189  0.021671292            0   0.56710059     1.386949    1.9757209    7.7806348 
 9555000   0.95736304 0.0001904514   0.56676049  0.012108365            0   0.55465212     1.418094    1.9848545    11.735966 
 9560000   0.96970678 0.00010319474    0.5535292 0.0022180055            0   0.55131119    1.4363782    1.9899074    7.2734778 
 9565000   0.98040841 1.6764715e-05   0.53740228  0.011830107            0   0.52557217      1.45223    1.9896322    2.8479857 
 9570000   0.98676552 7.3178318e-05   0.52004922  0.010984326            0    0.5090649    1.4616464    1.9816957    5.7284256 
 9575000   0.95860965 0.00012954926   0.57492685  0.032192989            0   0.54273386    1.4199405    1.9948674    8.6277893 
 9580000   0.95525594 0.0001467573   0.57085799  0.026010724            0   0.54484727    1.4149729    1.9858308    9.4998046 
 9585000    1.0425621 0.00017432089   0.47225325   0.01733082            0   0.45492243    1.5442952    2.0165484    10.941778 
 9590000    1.0098636 0.00015960267   0.51808183  0.022616676            0   0.49546515    1.4958605    2.0139423    10.185599 
 9595000    1.0214399  3.77103e-05   0.49503893 0.0014926612            0   0.49354627    1.5130079    2.0080468    3.9388141 
 9600000    1.0359256 -2.5685561e-05   0.47313905 0.0087930186            0   0.46434603    1.5344648    2.0076038   0.69250308 
 9605000   0.91974945 -1.3963316e-05   0.63211754  0.048526149            0   0.58359139    1.3623789    1.9944964    1.2795746 
 9610000    1.0072752 3.4168245e-05   0.53812797  0.061397091            0   0.47673088    1.4920263    2.0301543    3.7795684 
 9615000    1.0087958 5.3855736e-06   0.56126932  0.024027359            0   0.53724196    1.4942788    2.0555481    2.3312894 
 9620000   0.96045889 -0.00010831485   0.64147118  0.024176361            0   0.61729482    1.4226797    2.0641509   -3.4815694 
 9625000    1.0041074 -3.7816833e-05   0.57693621  0.048905216            0   0.52803099    1.4873341    2.0642703   0.12804845 
 9630000    1.0447663 5.1982289e-05   0.53407002  0.022156688            0   0.51191333    1.5475601    2.0816301    4.7431233 
 9635000    1.0133964 0.00010302618   0.54405375  0.040258752            0     0.503795    1.5010934    2.0451471    7.3200875 
 9640000   0.98910897 -4.6924782e-05   0.56842314  0.009262181            0   0.55916096    1.4651177    2.0335408  -0.36900805 
 9645000    1.0023698 -0.00017954537    0.5418956  0.001867061            0   0.54002854    1.4847603    2.0266559   -7.1660673 
 9650000   0.98780979 4.4121575e-05   0.57590705 0.0059526204            0   0.56995443    1.4631933    2.0391003    4.2981249 
 9655000   0.94425224 0.00019900178    0.6718634  0.033111003            0   0.63875239    1.3986736     2.070537    12.259428 
 9660000    1.0029023 0.00010557186   0.60861249  0.064220868            0   0.54439162     1.485549    2.0941614    7.4994408 
 9665000   0.90850549 1.6857528e-07   0.73590518  0.048749334            0   0.68715585    1.3457238    2.0816289      2.09026 
 9670000    1.0790878 -4.2608823e-05   0.50017462 0.0064406384            0   0.49373398    1.5983988    2.0985734 -0.082998344 
 9675000    1.0666038 7.3842399e-05   0.54166699 0.0044423349            0   0.53722466    1.5799069    2.1215739    5.9023047 
 9680000    1.1147593 4.5353801e-05   0.42992141  0.040423179            0   0.38949823    1.6512372    2.0811586    4.4032732 
 9685000   0.97245252 -8.1385234e-05   0.62078589   0.05753347            0   0.56325242    1.4404453    2.0612312   -2.1056928 
 9690000    1.0051385 -2.9990791e-05   0.56266056  0.022879873            0   0.53978068    1.4888614     2.051522   0.51599349 
 9695000    1.0139203 9.6743723e-05    0.5049433  0.012409063            0   0.49253424    1.5018695    2.0068128    6.9600914 
 9700000    1.0001148 9.7118558e-05   0.49723854  0.030145153            0   0.46709338    1.4814201    1.9786587    6.9511289 
 9705000    1.0021711 2.3340371e-05   0.52529232  0.010241546            0   0.51505078    1.4844659    2.0097582    3.2047852 
 9710000   0.99379976 8.8408173e-06   0.51770807 0.00035879873            0   0.51734927    1.4720659     1.989774    2.4424238 
 9715000   0.95653689 3.4483648e-05     0.568647   0.05090869            0   0.51773831    1.4168703    1.9855173    3.7510801 
 9720000   0.94572946 3.3448291e-05    0.5645181  0.054671724            0   0.50984637    1.4008618    1.9653799    3.6779323 
 9725000    1.0293204 -3.83661e-05    0.4270223 0.0096620882            0   0.41736021    1.5246809    1.9517032 -0.012641181 
 9730000    1.0021771 8.7566887e-05     0.473427  0.013356671            0   0.46007033    1.4844748    1.9579018    6.4413264 
 9735000   0.98289803 7.4791192e-05   0.49934484 0.0049001708            0   0.49444467    1.4559177    1.9552626    5.7845716 
 9740000   0.92447645 8.8529539e-06   0.58397562 0.0048015484            0   0.57917408    1.3693807    1.9533564    2.4066276 
 9745000   0.93052947 -4.5284203e-05   0.60673124 0.0024288605            0   0.60430238    1.3783468     1.985078  -0.33347317 
 9750000   0.94491337 9.0111946e-05    0.5556416  0.030235878            0   0.52540572    1.3996529    1.9552945    6.5690262 
 9755000   0.95577155 0.00011195924   0.55285896  0.079277693            0   0.47358127    1.4157366    1.9685956    7.7009088 
 9760000   0.94166373 5.8205859e-06   0.58115352  0.011165318            0    0.5699882    1.3948394    1.9759929    2.2740069 
 9765000   0.96098335 -9.5702743e-06   0.53182602 0.0042024282            0   0.52762359    1.4234566    1.9552826    1.4652846 
 9770000   0.97757815 3.6303918e-05      0.50612 0.0030335052            0    0.5030865    1.4480376    1.9541576    3.8129182 
 9775000   0.90823977 2.9182912e-05    0.6243634 0.0046384145            0   0.61972499    1.3453302    1.9696936    3.4638587 
 9780000   0.95725496 2.3583889e-05     0.524531  0.027874167            0   0.49665683    1.4179339    1.9424649    3.1499601 
 9785000   0.89468383 -4.2851375e-05    0.5957741  0.027789501            0    0.5679846    1.3252504    1.9210245  -0.27296589 
 9790000   0.98818069 -6.6096539e-05   0.44608725  0.011240472            0   0.43484677    1.4637426    1.9098299   -1.4743129 
 9795000   0.94272314 -9.0538694e-05   0.52577066 0.0042767128            0   0.52149395    1.3964087    1.9221793   -2.7134018 
 9800000    0.9784672 -3.0059323e-05   0.49108718 0.00037991036            0   0.49070727    1.4493545    1.9404417   0.40140438 
 9805000   0.98070102 -7.6702447e-05   0.51270216 0.0060164179            0   0.50668575    1.4526634    1.9653656   -1.9617997 
 9810000   0.94405296 -3.6400659e-05   0.51450167  0.094792379            0   0.41970929    1.3983784    1.9128801  0.049166354 
 9815000   0.88037131 -3.8850949e-05    0.5965823  0.015064443            0   0.58151786      1.30405    1.9006323 -0.088536282 
 9820000   0.97870986 1.5606362e-05   0.45540012  0.011998342            0   0.44340178     1.449714    1.9051141    2.7041598 
 9825000   0.97028634 1.4774472e-05   0.50324495  0.027974854            0   0.47527009    1.4372366    1.9404816    2.6969346 
 9830000   0.97274518 -2.8029649e-06   0.49348445  0.021275587            0   0.47220886    1.4408788    1.9343632    1.7908514 
 9835000   0.97799653 -1.7277484e-05   0.48334714  0.029120344            0    0.4542268    1.4486574    1.9320045    1.0473973 
 9840000   0.94136988 -2.8914679e-05   0.49504352  0.021376329            0   0.47366719    1.3944041    1.8894477   0.40901608 
 9845000   0.92709734 7.9391901e-05   0.52614212  0.048644365            0   0.47749776    1.3732629    1.8994051    5.9642704 
 9850000   0.88939079 5.8141017e-05   0.56593591  0.036433406            0    0.5295025    1.3174101     1.883346    4.8601661 
 9855000   0.94509403 5.0393789e-05   0.46660943 0.0058113955            0   0.46079803    1.3999205      1.86653    4.4466919 
 9860000    1.0281968 3.4916326e-05   0.36127062 0.0076677839            0   0.35360284    1.5230165    1.8842871     3.672003 
 9865000   0.96959924 -2.6979368e-05   0.45126939  0.021150241            0   0.43011915    1.4362189    1.8874883   0.50614464 
 9870000    0.9289356 -7.0222064e-05   0.52488498  0.040227555            0   0.48465742    1.3759859    1.9008708   -1.6944988 
 9875000   0.99595549 -1.0252149e-05    0.4406665   0.03844548            0   0.40222102    1.4752591    1.9159256    1.3910156 
 9880000   0.92922105 -1.3940588e-05   0.52650432 0.0058369483            0   0.52066737    1.3764087     1.902913    1.1891549 
 9885000    1.0226757 -0.00011828076   0.37473153 0.0025709572            0   0.37216057    1.5148384    1.8895699   -4.1664049 
 9890000   0.94979288 -0.00018206181    0.5067628 0.0024887702            0   0.50427403    1.4068807    1.9136435   -7.4079211 
 9895000   0.99006516 -8.8164401e-05      0.43797  0.008669178            0   0.42930083     1.466534     1.904504   -2.6095133 
 9900000    1.0534249 5.7316831e-05   0.35793033  0.010379645            0   0.34755068    1.5603857     1.918316    4.8529377 
 9905000   0.94967658 4.3586007e-05    0.4996701 0.0080172283            0   0.49165287    1.4067084    1.9063785    4.1379821 
 9910000   0.89621726 -0.00012623147   0.54552468 0.0070618037            0   0.53846288    1.3275218    1.8730465   -4.5900049 
 9915000   0.97018111 -8.3966976e-05   0.44435832 0.0066561857            0   0.43770213    1.4370808    1.8814391   -2.4176701 
 9920000   0.90943798 8.0514673e-05   0.55039263  0.020967267            0   0.52942536     1.347105    1.8974976    6.0198489 
 9925000   0.95913651 8.7692719e-05   0.45690204  0.025006502            0   0.43189554     1.420721     1.877623    6.3674902 
 9930000   0.95446935 5.0688476e-05   0.45840175  0.015151205            0   0.44325055    1.4138077    1.8722095    4.4674594 
 9935000   0.91949101 7.6022791e-05   0.48821109  0.011551972            0   0.47665912    1.3619961    1.8502071     5.742574 
 9940000   0.97497093 -3.6446506e-05   0.45221776  0.011734121            0   0.44048363    1.4441757    1.8963935  0.030332359 
 9945000   0.94276884 -8.3101695e-05   0.49958883  0.026378662            0   0.47321017    1.3964763    1.8960652   -2.3587416 
 9950000   0.89832583 -0.0001144673    0.5851588    0.0235255            0    0.5616333    1.3306451    1.9158039   -3.9449217 
 9955000   0.92993285 7.773253e-05   0.50797256  0.029611781            0   0.47836078     1.377463    1.8854356    5.8653411 
 9960000    0.9850211  0.000174417   0.41240172  0.014746688            0   0.39765503    1.4590625    1.8714642    10.801615 
 9965000    1.0182593 -8.0959085e-05   0.36632825 0.0046555706            0   0.36167268    1.5082965    1.8746248   -2.2704804 
 9970000   0.85341776 -0.0001830047   0.61254563  0.023814773            0   0.58873086    1.2641251    1.8766707   -7.4931698 
 9975000     0.914418 -0.00018344013    0.5188553  0.028418205            0   0.49043709    1.3544817     1.873337   -7.5187977 
 9980000   0.90412792 -8.0728279e-05   0.52495486   0.01785347            0   0.50710139    1.3392395    1.8641943   -2.2690935 
 9985000   0.88669255 7.6132078e-05   0.52979951  0.014109028            0   0.51569049    1.3134133    1.8432129    5.7411752 
 9990000   0.95542697 1.2881421e-05   0.42084766 0.0084972172            0   0.41235044    1.4152262    1.8360739    2.4956026 
 9995000   0.90277868 2.0773562e-05   0.50528627 0.0046321273            0   0.50065415    1.3372409    1.8425272    2.9061335 
10000000   0.95753609 4.9424497e-05   0.43633304  0.024427234            0   0.41190581    1.4183503    1.8546834    4.3852176 
10005000   0.92294863 -7.7359118e-05   0.52172532  0.041819404            0   0.47990592    1.3671177     1.888843   -2.0719439 
10010000   0.95325155 -2.7471047e-05   0.48178848  0.007409815            0   0.47437867    1.4120039    1.8937923   0.48727474 
10015000   0.94555179 -6.2169536e-05   0.49821045 0.0019763147            0   0.49623414    1.4005986     1.898809   -1.2842712 
10020000   0.94891521 -2.2761126e-05   0.52365476 0.0026176051            0   0.52103716    1.4055807    1.9292354   0.76386575 
10025000   0.98429663 -6.2503238e-05   0.47758443 0.0016848231            0   0.47589961    1.4579894    1.9355738    -1.264592 
10030000   0.98603355 -2.6274341e-05   0.44362958 0.0024628795            0    0.4411667    1.4605622    1.9041918    0.5589455 
10035000   0.94274041 3.1893277e-05   0.48726972 0.0057151547            0   0.48155457    1.3964342     1.883704    3.5166398 
10040000   0.94795816 -8.534266e-05   0.48037809  0.020003836            0   0.46037426     1.404163    1.8845411   -2.4850031 
10045000   0.85530336 1.3354956e-05   0.65020908  0.070871659            0   0.57933743    1.2669181    1.9171272    2.6009009 
10050000   0.93473594 9.7701683e-05   0.51453883  0.034824766            0   0.47971407    1.3845776    1.8991164    6.9014426 
10055000   0.98487613 3.7287325e-05   0.44834904 0.0085656165            0   0.43978342    1.4588478    1.9071968    3.8163079 
10060000   0.99134985 1.048103e-06   0.50561316 0.0011847881            0   0.50442837     1.468437    1.9740501     2.027713 
10065000   0.98252714 -7.3607759e-05   0.53029129 0.00063873369            0   0.52965256    1.4553683    1.9856596   -1.7830577 
10070000    1.0703834 5.5184906e-05    0.3770409 0.0035844536            0   0.37345645    1.5855054    1.9625463    4.7880135 
10075000    1.0479969 8.0049632e-05   0.41439095  0.014268513            0   0.40012244    1.5523455    1.9667364    6.0652776 
10080000   0.95235592 -1.1449095e-05   0.54202187  0.036399129            0   0.50562274    1.4106772    1.9526991    1.3665054 
10085000   0.96732988 -4.768311e-05    0.5436284  0.050767639            0   0.49286076    1.4328574    1.9764858  -0.46488944 
10090000     1.050987 -4.3126948e-05   0.41287862  0.025198301            0   0.38768032    1.5567745    1.9696531  -0.23844665 
10095000   0.93549294 -3.954024e-05   0.58760902  0.021951529            0   0.56565749    1.3856989    1.9733079 -0.051152334 
10100000    1.0260087 -7.5513788e-05   0.45415056 0.0087458589            0   0.44540471    1.5197753    1.9739259   -1.8923801 
10105000     1.060356 -6.4208489e-05     0.426781  0.018289078            0   0.40849193    1.5706523    1.9974333   -1.2900414 
10110000    1.0250862 2.7612775e-05   0.46627378  0.044268086            0   0.42200569    1.5184089    1.9846827    3.3984568 
10115000    0.9690444 0.00010122909   0.52229718   0.08633729            0   0.43595989     1.435397    1.9576942    7.1406234 
10120000   0.97879207 0.00011270502   0.52476345  0.021666103            0   0.50309734    1.4498357    1.9745992     7.745096 
10125000    1.0193288 5.5133761e-05   0.45172106  0.012355684            0   0.43936538    1.5098808    1.9616019    4.7844504 
10130000   0.99419141 -1.8631897e-05   0.49468246  0.013806168            0   0.48087629     1.472646    1.9673285    1.0133754 
10135000   0.94916099 -2.5749428e-05   0.52882077  0.027159845            0   0.50166092    1.4059447    1.9347655   0.61639478 
10140000    1.0078648 6.1555791e-05   0.46182391  0.030872009            0    0.4309519    1.4928998    1.9547237    5.1063802 
10145000   0.96560663 8.1713833e-07   0.54061053  0.071709335            0    0.4689012    1.4303048    1.9709154    2.0127528 
10150000   0.99702534 -5.2184303e-05   0.51394717   0.02064338            0   0.49330379    1.4768438     1.990791  -0.68104537 
10155000     1.017296 -3.8684693e-05   0.46072162 0.0048416526            0   0.45587997    1.5068696    1.9675913  -0.01306499 
10160000     1.039809 1.6748587e-05    0.4595013 0.0021019074            0   0.45739939    1.5402171    1.9997184     2.857246 
10165000   0.98171724 7.4248976e-05   0.51517803  0.012617932            0    0.5025601    1.4541687    1.9693467    5.7708943 
10170000   0.97475662 -1.0602187e-05   0.53664771  0.029644116            0   0.50700359    1.4438582     1.980506     1.437674 
10175000    1.0202554 -1.4152235e-05   0.44951315  0.051014509            0   0.39849864    1.5112533    1.9607665     1.236172 
10180000   0.94275181 1.4262616e-05   0.55269538  0.076215839            0   0.47647955    1.3964511    1.9491465    2.6793925 
10185000   0.92246925 -6.955299e-05    0.5676808   0.10817242            0   0.45950838    1.3664076    1.9340884   -1.6270247 
10190000    1.0118269 -6.7408214e-07   0.45810135  0.034576173            0   0.42352517    1.4987685    1.9568699    1.9223569 
10195000    1.0615343 -1.3102276e-05   0.37983074  0.010680693            0   0.36915005    1.5723977    1.9522285    1.2813919 
10200000   0.98252926 -5.1227853e-05   0.55208523  0.022094771            0   0.52999046    1.4553715    2.0074567  -0.61540936 
10205000    1.0177356 -7.8662598e-06   0.50735531 0.0073821878            0   0.49997313    1.5075209    2.0148762    1.6121237 
10210000    1.0807453 2.6981639e-05   0.43949438  0.022345949            0   0.41714843     1.600854    2.0403483    3.4218082 
10215000    1.0352624 1.223426e-05   0.52228571  0.058267286            0   0.46401842    1.5334824    2.0557681    2.6821623 
10220000    1.0712106 -2.5104692e-05   0.48961331   0.02259045            0   0.46702286    1.5867307     2.076344   0.79098373 
10225000    1.0470647 -7.1151809e-06   0.52576037  0.023061306            0   0.50269906    1.5509645    2.0767249    1.7124276 
10230000    1.0720936 1.1675791e-05   0.49468201  0.020062551            0   0.47461946    1.5880387    2.0827207    2.6805212 
10235000    1.0841629 3.0017783e-05   0.47992761 0.0094064763            0   0.47052113    1.6059164     2.085844    3.6227545 
10240000    1.1310384 3.3626131e-05   0.42255197 0.0042121169            0   0.41833986    1.6753507    2.0979027    3.8195606 
10245000    1.0445706 -1.6015386e-05   0.53166025   0.03413752            0   0.49752274    1.5472702    2.0789304    1.2589426 
10250000    1.0939337 2.0100616e-05   0.44628843  0.044576632            0    0.4017118    1.6203894    2.0666778    3.0958293 
10255000   0.97305576 -1.6069952e-06   0.61421676  0.089717915            0   0.52449885    1.4413388    2.0555556    1.9732775 
10260000   0.99105524 -0.00011640121     0.631645  0.079616054            0   0.55202895    1.4680006    2.0996456   -3.8600965 
10265000    1.0832416 -0.0001170829   0.53981624  0.010014778            0   0.52980146    1.6045516    2.1443678   -3.8502764 
10270000    1.1135498 8.0611231e-05   0.48510989  0.037880885            0     0.447229    1.6494457    2.1345556    6.2618506 
10275000    1.1417189 9.3313024e-05   0.44124939  0.011878846            0   0.42937054    1.6911711    2.1324205    6.9100473 
10280000    1.1476558 -2.3039515e-05   0.43961803  0.015641011            0   0.42397702    1.6999652    2.1395832   0.95996005 
10285000    1.0907619 -1.1996951e-05    0.5102453  0.021347383            0   0.48889792    1.6156911    2.1259364    1.5116925 
10290000    1.1070165 1.4137532e-05      0.47735 0.0074887737            0   0.46986123    1.6397682    2.1171182    2.8409598 
10295000    1.1122319 -3.3104608e-05   0.47399698  0.019986765            0   0.45401022    1.6474936    2.1214905   0.42653461 
10300000    1.0657871 5.5875651e-05   0.54339809  0.022881532            0   0.52051656    1.5786972    2.1220953    4.9829286 
10305000    1.1187297 0.00011644285    0.4562045  0.011096164            0   0.44510834    1.6571183    2.1133228    8.0751965 
10310000    1.1421394 -4.9016507e-05   0.45483921  0.011363735            0   0.44347547    1.6917939    2.1466331  -0.36301203 
10315000    1.0624613 -9.7097675e-05   0.57265071 0.0007803708            0   0.57187034    1.5737707    2.1464215   -2.8249795 
10320000    1.0902755 0.00011468553   0.50897543  0.005222997            0   0.50375243    1.6149706    2.1239461    7.9958451 
10325000    1.1282395 7.4734368e-05   0.47021609  0.025938336            0   0.44427776    1.6712047    2.1414208    5.9678205 
10330000    1.1154985 -0.00010720472   0.49092792  0.028015705            0   0.46291222    1.6523321    2.1432601   -3.3456214 
10335000    1.1300286 -0.00012711588    0.4911561  0.010197006            0   0.48095909    1.6738549     2.165011   -4.3433223 
10340000    1.1901974 -1.7520464e-05    0.4088239 0.0099081958            0    0.3989157    1.7629799    2.1718038     1.274756 
10345000    1.0688622 8.6358094e-05   0.59636802  0.061467755            0   0.53490026    1.5832522    2.1796202    6.6011546 
10350000    1.0695808 -8.4807846e-05   0.59369726  0.047626495            0   0.54607076    1.5843165    2.1780138   -2.1641479 
10355000    1.0966608 -9.4641607e-05   0.58767609  0.089843493            0    0.4978326    1.6244288    2.2121049   -2.6335454 
10360000    1.1944246 9.3693947e-05   0.44987698  0.025706811            0   0.42417017    1.7692415    2.2191185    7.0162486 
10365000    1.1794495 3.3509432e-05   0.49000545  0.035972729            0   0.45403272    1.7470596    2.2370651     3.952748 
10370000    1.1133063 1.2016228e-05   0.56478161  0.057115138            0   0.50766647    1.6490849    2.2138665    2.8290974 
10375000    1.2484551 -1.9073687e-05    0.4018556  0.023407929            0   0.37844767    1.8492742    2.2511298     1.274557 
10380000    1.1884054 -4.0025336e-05   0.49377078  0.098386756            0   0.39538402    1.7603254    2.2540962   0.20479901 
10385000    1.1543012 6.7163664e-06   0.55430147  0.047170363            0   0.50713111    1.7098086    2.2641101     2.607988 
10390000      1.15188 -9.6012233e-06   0.57080963 0.0089213316            0    0.5618883    1.7062223    2.2770319    1.7854493 
10395000     1.251036 -6.5061184e-05   0.40146618  0.060829015            0   0.34063716    1.8530971    2.2545632   -1.0765694 
10400000    1.2214952 -6.709975e-05   0.44666485  0.012669989            0   0.43399486    1.8093398    2.2560046   -1.1795026 
10405000    1.1700417 7.3792639e-05   0.52645682  0.013851448            0   0.51260537    1.7331243    2.2595811    6.0377642 
10410000    1.2077762 -0.00011335572   0.50979191   0.01862174            0   0.49117017    1.7890185    2.2988104   -3.5050025 
10415000    1.1671182 -0.00010373587   0.56491806  0.030384663            0    0.5345334    1.7287939    2.2937119   -3.0175646 
10420000    1.2070671 6.180191e-05   0.47159778  0.020729722            0   0.45086805    1.7879682     2.259566    5.4238238 
10425000     1.159336 6.2305263e-05   0.53114594  0.016709283            0   0.51443666    1.7172665    2.2484124    5.4384418 
10430000    1.1969318 -3.1715452e-05   0.45999302 0.0095115315            0   0.45048149    1.7729553    2.2329483   0.60911715 
10435000    1.2544952 -9.4585774e-05   0.40657033 0.0022213724            0   0.40434895     1.858221    2.2647913   -2.5780003 
10440000    1.1754315 -2.785004e-05   0.50093788 0.0061090856            0   0.49482879    1.7411079    2.2420458    0.8161237 
10445000    1.2415887 -1.0899913e-05   0.42277907  0.037000935            0   0.38577813    1.8391033    2.2618824    1.7038069 
10450000    1.1068218 -0.00013185961   0.63944052  0.039940556            0   0.59949996    1.6394798    2.2789204   -4.4722916 
10455000    1.1230813 -0.0001026776   0.62051268  0.041668189            0   0.57884449    1.6635642    2.2840769   -2.9730163 
10460000    1.2796503 3.1409339e-05   0.38202462  0.024926987            0   0.35709763     1.895482    2.2775067    3.8856648 
10465000    1.1379537 2.5419812e-05   0.59552381  0.022796131            0   0.57272768    1.6855939    2.2811177    3.5826121 
10470000    1.1991973 1.7360977e-05   0.46952538 0.0051420507            0   0.46438333     1.776311    2.2458364    3.1347184 
10475000    1.1472566 -5.6223618e-05   0.53668549  0.030245251            0   0.50644024    1.6993738    2.2360593  -0.64258997 
10480000    1.1602136 -1.8654625e-05   0.52443568  0.029093508            0   0.49534217    1.7185664    2.2430021    1.2878852 
10485000    1.1425745 0.00014010682   0.55333803 0.0022336556            0   0.55110437    1.6924385    2.2457766     9.419246 
10490000    1.1786068 1.2730721e-05   0.50273561 0.00019196021            0   0.50254365    1.7458113    2.2485469    2.9003598 
10495000    1.2334822 -0.00011450629   0.40742662            0            0   0.40742662    1.8270955    2.2345221      -3.6282 
10500000    1.1825416 -7.6506134e-05   0.51576125            0            0   0.51576125    1.7516398    2.2674011    -1.649713 
10505000    1.1755332 -5.8950241e-05   0.52430865            0            0   0.52430865    1.7412586    2.2655672  -0.75268511 
10510000    1.1893183 5.173429e-05   0.51844644 0.0013867285            0   0.51705971    1.7616777    2.2801242    4.9289198 
10515000    1.1415154 7.1363301e-05   0.53106971  0.015832793            0   0.51523692    1.6908696    2.2219393    5.8757403 
10520000     1.195184 -8.5768594e-05   0.43230399   0.03232711            0   0.39997688    1.7703663    2.2026703   -2.1886818 
10525000    1.1979811 -8.424085e-05   0.43051483  0.021302074            0   0.40921276    1.7745095    2.2050243   -2.1081072 
10530000    1.1411568 0.00010918813   0.51487795  0.017064069            0   0.49781388    1.6903386    2.2052165    7.7956489 
10535000    1.1488305 -2.8590548e-05   0.48258114 0.00086523715            0    0.4817159    1.7017051    2.1842863   0.72045022 
10540000    1.1680123 -1.5062989e-05   0.45006416 0.00091394261            0   0.44915022    1.7301182    2.1801824    1.4089573 
10545000    1.1514794 0.00018040292   0.44822839 0.0099372664            0   0.43829112    1.7056289    2.1538573    11.390487 
10550000    1.1274233 7.2100774e-05   0.49031775  0.014912645            0   0.47540511    1.6699957    2.1603135    5.8518731 
10555000    1.0745252 -4.5443765e-05    0.5883902  0.013347324            0   0.57504288    1.5916405    2.1800307  -0.14669009 
10560000    1.1673432 8.5637173e-05   0.43589214  0.010073417            0   0.42581872    1.7291271    2.1650193    6.5496425 
10565000    1.0929717 5.2247846e-05   0.53326042  0.029765425            0   0.50349499    1.6189644    2.1522248    4.8273145 
10570000    1.0699825 3.9417667e-05   0.52905818  0.043930383            0    0.4851278    1.5849115    2.1139697    4.1321543 
10575000    1.0282208 6.3066216e-05   0.62556585  0.060342174            0   0.56522368    1.5230521    2.1486179    5.3776082 
10580000    1.0861309 1.3171244e-05   0.53728615   0.11504758            0   0.42223857    1.6088314    2.1461176    2.8204852 
10585000    1.0777573 -4.5730487e-06   0.50539793  0.051459818            0   0.45393811     1.596428    2.1018259    1.8676858 
10590000    1.1141159 3.3392177e-05   0.43390009  0.012841696            0    0.4210584    1.6502841    2.0841842    3.7938637 
10595000    1.0717236 1.6387035e-05   0.49044301  0.035654895            0   0.45478812    1.5874907    2.0779337    2.9169499 
10600000    1.1117885 2.0787178e-05   0.45005191   0.02443686            0   0.42561505    1.6468368    2.0968887    3.1611922 
10605000    1.1276507 6.8907614e-05   0.42968063 0.0089988356            0   0.42068179    1.6703327    2.1000133    5.6280831 
10610000    1.0885992 5.8426872e-05   0.48564361  0.011578996            0   0.47406461    1.6124876    2.0981312    5.0895871 
10615000    1.0762536 4.1971204e-05     0.519908  0.010500948            0   0.50940705    1.5942007    2.1141087    4.2630343 
10620000    1.0555228 0.00011530694   0.54235646  0.034452177            0   0.50790428    1.5634931    2.1058496    8.0095647 
10625000    1.0225142 9.6222868e-05   0.57899819  0.078530998            0   0.50046719    1.5145992    2.0935974    7.0202082 
10630000    1.0512789 4.9748921e-05   0.51606428  0.022055683            0   0.49400859    1.5572068    2.0732711    4.6204158 
10635000    1.0766751 -1.3442493e-05   0.46365098  0.021279711            0   0.44237127     1.594825     2.058476    1.3702204 
10640000    1.0715683 -0.00013292474   0.44745443  0.021411247            0   0.42604318    1.5872605    2.0347149   -4.7710315 
10645000    1.0669019 -1.9932752e-05   0.45413527 0.0068940261            0   0.44724124    1.5803485    2.0344838    1.0139269 
10650000   0.95840429 5.4387541e-05   0.59882846  0.082777263            0    0.5160512    1.4196363    2.0184648    4.8031069 
10655000    1.0490042 -3.9174672e-05   0.46604605  0.028199895            0   0.43784616    1.5538375    2.0198836    0.0141404 
10660000    1.0172864 -3.991655e-05   0.49429428 0.0032074844            0    0.4910868    1.5068554    2.0011497 -0.042577675 
10665000    1.0463188 -8.2773442e-05   0.46143087 0.0043285099            0   0.45710236    1.5498597    2.0112906   -2.2267096 
10670000    1.0530482 1.2695221e-05   0.44273447  0.015914719            0   0.42681975    1.5598277    2.0025622    2.6525575 
10675000    1.0559095 4.4107958e-05   0.44996516  0.022560044            0   0.42740511    1.5640659    2.0140311    4.2723585 
10680000    1.0175039 -6.7719642e-05   0.50900672  0.025025817            0    0.4839809    1.5071776    2.0161843   -1.4510614 
10685000    1.1181528 -8.5832952e-05   0.41098592  0.037657937            0   0.37332799    1.6562639    2.0672498   -2.3273973 
10690000    1.0577579 -5.6569868e-05   0.48138852  0.036441063            0   0.44494746    1.5668039    2.0481924  -0.84818485 
10695000    1.0707207 -1.8263749e-05    0.4648854  0.040604412            0   0.42428099    1.5860051    2.0508905    1.1157866 
10700000    1.0560586 8.5010142e-05   0.45457028  0.030064163            0   0.42450612    1.5642868    2.0188571    6.3713763 
10705000   0.99827203 9.4724483e-05   0.51919679  0.036428865            0   0.48276793    1.4786904    1.9978872    6.8477808 
10710000    1.0595018 4.8941957e-05   0.37279054  0.018250467            0   0.35454008    1.5693871    1.9421776    4.4480058 
10715000    0.9709473 2.9923703e-05   0.49235303  0.028803422            0   0.46354961    1.4382157    1.9305687    3.4626623 
10720000    1.0122904 2.0146189e-05   0.47583012  0.056348203            0   0.41948192    1.4994552    1.9752853    3.0067701 
10725000    1.0188545 -2.2739913e-05   0.49772616  0.057080458            0   0.44064571    1.5091783    2.0069044   0.84262087 
10730000    1.0690181 -7.6787739e-05   0.40709469  0.030027806            0   0.37706688    1.5834831    1.9905777   -1.9409545 
10735000    1.0952516 -5.7678852e-05   0.38419414  0.011320085            0   0.37287406    1.6223414    2.0065355  -0.94662169 
10740000    1.0075327 4.8866595e-05   0.50868383 0.0084000816            0   0.50028374    1.4924079    2.0010917    4.5030614 
10745000    1.0150122 5.2292566e-05   0.50739062 0.0079356672            0   0.49945495    1.5034868    2.0108774    4.6882568 
10750000    1.1349507 1.2458237e-05   0.35142254  0.005360725            0   0.34606181    1.6811458    2.0325683      2.67043 
10755000    1.0293929 3.8539451e-05   0.47437458 0.0062512259            0   0.46812335    1.5247882    1.9991628    3.9723827 
10760000    1.0319308 -5.1574039e-06   0.47749858  0.022482245            0   0.45501633    1.5285475    2.0060461     1.741987 
10765000    1.0259166 5.6176689e-06   0.50146345  0.059915117            0   0.44154834     1.519639    2.0211024    2.3087271 
10770000   0.99246335 3.8638268e-05   0.50722603  0.057660529            0    0.4495655    1.4700863    1.9773124    3.9555917 
10775000    1.0682618 -8.191374e-05   0.42668364 0.0088912874            0   0.41779235    1.5823627    2.0090464   -2.1849371 
10780000    1.0427519 -8.1578146e-05   0.48050116 0.0056743308            0   0.47482683    1.5445763    2.0250774   -2.1517236 
10785000    1.0798786 0.00011353286   0.42306507 0.0099459617            0   0.41311911    1.5995702    2.0226352    7.8355179 
10790000    1.0494055 5.1140766e-05   0.42966527  0.005285444            0   0.42437982    1.5544318    1.9840971    4.6025043 
10795000    1.0173394 -3.1539123e-05    0.4596794  0.007918061            0   0.45176134     1.506934    1.9666134   0.35181029 
10800000   0.95337857 0.00010825793   0.52750423  0.007572475            0   0.51993175     1.412192    1.9396962    7.4825023 
10805000    1.0273514 3.1454243e-05   0.41344727  0.014979949            0   0.39846732    1.5217642    1.9352115    3.5456687 
10810000    1.0201627 6.7941345e-05   0.42746304 0.0088634612            0   0.41859958     1.511116    1.9385791    5.4171759 
10815000    1.0496816 3.6386698e-05   0.40570403 0.0020588669            0   0.40364517    1.5548408    1.9605448    3.8235438 
10820000    1.0839899 -4.7515964e-05   0.37996447 0.00069619457            0   0.37926827      1.60566    1.9856245  -0.44719287 
10825000    1.0304767 4.9268359e-06   0.46290523 0.0074875184            0   0.45541771    1.5263936    1.9892988    2.2415528 
10830000    1.0229768 -8.237339e-05   0.48341022  0.013927412            0   0.46948281    1.5152843    1.9986945    -2.218823 
10835000   0.99536897 -5.5421758e-05    0.5349312  0.014212638            0   0.52071856    1.4743903    2.0093215  -0.82827251 
10840000    1.0165468 9.0106813e-05   0.47599107   0.03676701            0   0.43922406      1.50576     1.981751    6.5952199 
10845000    1.0443028 8.3931638e-05   0.41090341  0.027115266            0   0.38378814    1.5468735    1.9577769    6.2550767 
10850000    1.0332184 -3.9603153e-05   0.43437784  0.015316521            0   0.41906132    1.5304548    1.9648326 -0.062848812 
10855000    1.0521008 6.2490573e-05   0.41427569  0.029730705            0   0.38454499    1.5584243       1.9727    5.1722173 
10860000     1.042654 5.573245e-05   0.45974449   0.02514199            0    0.4346025    1.5444313    2.0041758    4.8576772 
10865000    1.0503021 -1.6627975e-05   0.44295574   0.03555574            0       0.4074    1.5557599    1.9987157    1.1473633 
10870000   0.97244705 -3.5214667e-05   0.53087325   0.02502724            0   0.50584601    1.4404372    1.9713104   0.16831947 
10875000    1.0248784 -0.00010068626   0.47481006  0.026965978            0   0.44784408    1.5181012    1.9929113   -3.1622252 
10880000    1.0423589 -9.6526208e-05   0.45485449 0.0066292187            0   0.44822527    1.5439942    1.9988486   -2.9432932 
10885000    1.0157053 -4.9111441e-05   0.48280775   0.02461224            0   0.45819551    1.5045135    1.9873213  -0.52718452 
10890000    0.9832108 4.2185068e-05   0.55228063  0.029588955            0   0.52269168     1.456381    2.0086616    4.1685371 
10895000    1.0091163 8.277888e-05   0.53008761  0.013511347            0   0.51657626    1.4947535    2.0248411    6.2631198 
10900000    1.0961245 2.0087762e-05   0.39760229  0.012543774            0   0.38505852    1.6236344    2.0212367    3.0497301 
10905000    1.0333417 -7.2192268e-06   0.48767056  0.020759065            0    0.4669115    1.5306374    2.0183079    1.6486835 
10910000     0.971036 -9.0508552e-05   0.53447871  0.023748482            0   0.51073023    1.4383471    1.9728258   -2.6612121 
10915000   0.98477861 -7.2907747e-05   0.54169003  0.026694373            0   0.51499565    1.4587033    2.0003933   -1.7324833 
10920000    1.0282338 3.5272843e-05   0.45616294   0.05312143            0   0.40304151    1.5230713    1.9792342    3.7852038 
10925000    1.0734511 7.1329275e-06    0.3724371  0.032409735            0   0.34002737    1.5900495    1.9624866    2.3276925 
10930000   0.98670605 -1.0576804e-05   0.49764905  0.004985482            0   0.49266356    1.4615583    1.9592074     1.417675 
10935000   0.99724039 -2.9576124e-05   0.48934324 0.0099748453            0   0.47936839    1.4771623    1.9665056   0.45220803 
10940000    1.0511372 -2.8534539e-05   0.42042955 0.0076396527            0    0.4127899     1.556997    1.9774265   0.51645814 
10945000     1.053573 -4.1235142e-06    0.4300803  0.019787753            0   0.41029254     1.560605    1.9906853    1.7795614 
10950000    1.0213042 6.3667008e-05   0.50176244  0.027519132            0   0.47424331    1.5128069    2.0145693    5.2743201 
10955000   0.99201121 9.1389772e-05   0.53217391  0.019012647            0   0.51316126    1.4694166    2.0015905    6.6807469 
10960000    1.0413898 7.2227881e-05   0.49584935  0.013726948            0   0.48212241    1.5425586     2.038408    5.7364755 
10965000   0.97852859 0.00010136949   0.56819757  0.014482845            0   0.55371473    1.4494455     2.017643    7.2077608 
10970000    1.0348378 6.9036607e-05   0.46923828   0.01283447            0   0.45640381    1.5328535    2.0020917     5.536766 
10975000    1.0675693 -1.0974932e-05   0.46124286  0.017751748            0   0.44349111    1.5813371      2.04258    1.4806634 
10980000    1.0909714 3.9025022e-05   0.45344466 0.0029023996            0   0.45054226    1.6160015    2.0694461    4.0675273 
10985000     1.022635 6.9215118e-06   0.55383962  0.020313533            0   0.53352609     1.514778    2.0686177    2.4229991 
10990000    1.0826454 3.8674569e-05   0.49360279  0.031836828            0   0.46176596    1.6036685    2.0972713    4.0774093 
10995000    1.0841405 4.8202969e-05   0.51860492   0.02315781            0   0.49544711    1.6058831     2.124488    4.5924801 
11000000    1.1512137 -2.1885422e-05    0.4305496  0.056582322            0   0.37396728    1.7052352    2.1357849    1.0152513 
11005000    1.0920856 -5.2409876e-06   0.51314328   0.02307325            0   0.49007003    1.6176518    2.1307951    1.8624565 
11010000    1.0807478 8.3187202e-05   0.49400036 0.0085299959            0   0.48547036    1.6008577    2.0948581    6.3540428 
11015000   0.99863033 0.00018032526   0.57875529  0.012343558            0   0.56641173    1.4792212    2.0579765     11.29063 
11020000    1.0552455 0.00016863539   0.46534899  0.037633292            0    0.4277157    1.5630824    2.0284314    10.662563 
11025000   0.99351202 2.8800251e-05   0.54039865  0.029293437            0   0.51110521    1.4716397    2.0120383    3.4866112 
11030000   0.95174112 -7.9801286e-05   0.60518919  0.058737247            0   0.54645195    1.4097665    2.0149557   -2.0708701 
11035000   0.94839878 -9.9842864e-05   0.62657952  0.061945367            0   0.56463416    1.4048157    2.0313952   -3.0805594 
11040000    1.0014933 -7.8841037e-05   0.53449555  0.065579473            0   0.46891608    1.4834619    2.0179575   -2.0187036 
11045000   0.99842828 -6.1732084e-06   0.49301433  0.035884731            0    0.4571296    1.4789219    1.9719362     1.655868 
11050000    1.0242121 3.4634754e-05   0.47025538  0.011133641            0   0.45912174    1.5171142    1.9873696     3.760669 
11055000   0.93776437 8.7139526e-05   0.58923655  0.049967583            0   0.53926897    1.3890635       1.9783    6.4398438 
11060000   0.95368586 3.6000223e-05    0.5644995  0.020352716            0   0.54414678    1.4126472    1.9771467    3.8203581 
11065000   0.96847253 8.0266587e-05   0.51724387  0.072445066            0   0.44479881    1.4345499    1.9517938     6.061443 
11070000   0.96066542 -1.3539661e-05   0.50813027  0.020917813            0   0.48721246    1.4229856    1.9311159    1.2378853 
11075000    1.0275981 -7.499934e-05   0.42259261  0.013187848            0   0.40940476    1.5221297    1.9447223    -1.895244 
11080000   0.91026727 -8.1415648e-05   0.59243441  0.013186777            0   0.57924764    1.3483334    1.9407678   -2.2277134 
11085000   0.93648812 1.3866587e-05   0.58450389 0.0018871168            0   0.58261677     1.387173    1.9716769    2.6816462 
11090000    1.0192154 8.1466144e-05   0.46459456  0.016860397            0   0.44773417    1.5097129    1.9743074     6.145374 
11095000   0.98499647 8.2936234e-05   0.52440764  0.018001282            0   0.50640636     1.459026    1.9834337    6.2297689 
11100000   0.97872575 0.00012147449   0.51554026  0.016374119            0   0.49916614    1.4497375    1.9652778    8.1847717 
11105000   0.99981703 -4.4934629e-05   0.46750775  0.031358965            0   0.43614878     1.480979    1.9484867   -0.3521663 
11110000   0.96357998 -0.00012163118   0.50523486   0.04948151            0   0.45575335    1.4273028    1.9325377   -4.2949787 
11115000   0.98036568  2.67962e-05   0.49556766  0.028274112            0   0.46729355    1.4521667    1.9477343    3.3196998 
11120000      0.99337 8.3515391e-05   0.48010062  0.011793177            0   0.46830744    1.4714293    1.9515299    6.2275179 
11125000   0.94032245 -4.5760063e-05   0.55898633  0.014345148            0   0.54464118    1.3928526     1.951839  -0.39107629 
11130000    1.0486302 -0.00013466915    0.3697571 0.0035495109            0   0.36620759    1.5532834    1.9230405     -4.97202 
11135000    0.9533992 -8.5823071e-05   0.50523836 0.0010415746            0   0.50419678    1.4122226    1.9174609   -2.4766803 
11140000   0.98067101 4.8764828e-06    0.4669699  0.035770522            0   0.43119937    1.4526189    1.9195888    2.1692648 
11145000   0.86780175 -2.9624177e-06   0.63531342  0.037926462            0   0.59738696    1.2854313    1.9207448     1.769069 
11150000    1.0034717 -6.5045006e-05    0.4323592  0.018064642            0   0.41429455    1.4863924    1.9187516   -1.4115527 
11155000   0.99489349 1.9833708e-05   0.47482015   0.01101012            0   0.46381003     1.473686    1.9485061     2.963992 
11160000   0.98499492 0.00014046667   0.49191224  0.033573164            0   0.45833907    1.4590237     1.950936    9.1428297 
11165000   0.94211956 0.00017186146    0.5659757   0.04260225            0   0.52337345    1.3955146    1.9614903    10.760797 
11170000   0.96812203 0.00016467585   0.51227147  0.025874542            0   0.48639693    1.4340308    1.9463022    10.377706 
11175000    1.0476507 6.2579141e-05    0.4235531  0.012921842            0   0.41063126    1.5518327    1.9753858    5.1794378 
11180000    0.9522143 -7.700485e-05   0.53627166  0.001750936            0   0.53452072    1.4104674    1.9467391   -1.9959092 
11185000   0.98821161 -4.5350655e-05   0.47478101 0.0041349656            0   0.47064605    1.4637884    1.9385695  -0.38338405 
11190000   0.97503302 6.9185225e-05   0.43860965  0.017817718            0   0.42079193    1.4442677    1.8828773    5.4251608 
11195000   0.97382009 9.1725617e-05   0.48127122  0.025323681            0   0.45594754     1.442471    1.9237422    6.6200938 
11200000   0.96744979 -5.78124e-05   0.49734055  0.019876324            0   0.47746423     1.433035    1.9303756   -1.0296193 
11205000   0.92072645 -3.5670182e-06   0.56729282  0.031382741            0   0.53591008    1.3638261    1.9311189    1.7484875 
11210000   0.97924187 5.0854827e-05   0.47643151  0.024046597            0   0.45238491     1.450502    1.9269335    4.5307007 
11215000    0.9545423 6.2722486e-05   0.51839416  0.049727441            0   0.46866672    1.4139158    1.9323099    5.1437012 
11220000   0.95986805 -4.8539855e-05   0.51521666  0.051325431            0   0.46389123    1.4218045    1.9370212  -0.54821939 
11225000   0.80900545 -0.0001248644   0.73113607  0.054098903            0   0.67703717    1.1983393    1.9294754   -4.4635818 
11230000    1.0111773  1.71072e-05   0.43897659   0.02504967            0   0.41392692    1.4978064     1.936783    2.8126716 
11235000   0.89565813 9.3609075e-05    0.6211626  0.060031597            0     0.561131    1.3266936    1.9478562    6.7406409 
11240000   0.94747832 -2.3598401e-05   0.54542906  0.036639878            0   0.50878918    1.4034523    1.9488813   0.74064321 
11245000   0.98472053 4.8147019e-05   0.47337103  0.025262006            0   0.44810902    1.4586173    1.9319883    4.3971157 
11250000   0.96685472 6.0985832e-05   0.49735601 0.0082267655            0   0.48912924    1.4321535    1.9295096    5.0519842 
11255000   0.97583054 -7.7847303e-05   0.49428067  0.034215276            0    0.4600654     1.445449    1.9397297   -2.0460522 
11260000   0.92992165 1.4146625e-05    0.5480704  0.069855714            0   0.47821469    1.3774464    1.9255168    2.6498241 
11265000   0.89000666 1.3033944e-05   0.60402116  0.011817423            0   0.59220374    1.3183224    1.9223435    2.5896815 
11270000    1.0082167 -2.4876753e-05   0.46669302 0.0058830347            0   0.46080998     1.493421     1.960114   0.68642424 
11275000     1.048689 -1.0421037e-05   0.44573573  0.034409899            0   0.41132583    1.5533706    1.9991063    1.4655492 
11280000      1.04491 6.5901787e-06   0.44789153  0.026813898            0   0.42107764    1.5477729    1.9956645    2.3330816 
11285000    1.0411399 9.1426004e-05   0.47550149  0.050883995            0   0.42461749    1.5421884    2.0176899    6.6987013 
11290000   0.95460268 1.5022731e-06    0.5895512  0.019034757            0   0.57051645    1.4140052    2.0035564    2.0804728 
11295000   0.95551168 -2.8559394e-05   0.57478132  0.011345581            0   0.56343574    1.4153517     1.990133   0.52789202 
11300000    1.0101663 5.0700841e-05   0.46685685 0.0057462538            0   0.46111059    1.4963089    1.9631657    4.5590488 
11305000   0.95443392 2.4595299e-05   0.54498364 0.0042426407            0     0.540741    1.4137552    1.9587389    3.2180182 
11310000   0.90885967 7.3988075e-05   0.58207141 0.0071170803            0   0.57495433    1.3462484    1.9283198    5.7165092 
11315000    1.0352233 8.3766805e-05   0.44111305    0.0117052            0   0.42940785    1.5334245    1.9745375    6.2633979 
11320000    1.0142238 2.3539959e-05    0.4658531 0.0065088277            0   0.45934427     1.502319    1.9681721     3.173418 
11325000    0.9880996 -2.0114069e-06   0.54961242 0.0020888479            0   0.54752358    1.4636225     2.013235    1.9102509 
11330000   0.92096342 -2.7211138e-05   0.63824961  0.033059165            0   0.60519045    1.3641771    2.0024267   0.60921642 
11335000    1.0485063 6.1025418e-05   0.41785964  0.042776009            0   0.37508364       1.5531    1.9709597    5.0954611 
11340000    1.0887884 0.00011497155   0.36856478  0.014233585            0   0.35433119    1.6127679    1.9813326    7.8678759 
11345000    1.0681101 -3.6692895e-05   0.43506021  0.013041773            0   0.42201843    1.5821381    2.0171983   0.13852214 
11350000    1.0033883 -0.00013366113    0.5434358  0.015106363            0   0.52832944     1.486269    2.0297048   -4.8137452 
11355000   0.96928813 -0.00011866842   0.59035919 0.0075237145            0   0.58283548     1.435758    2.0261172    -4.049706 
11360000    1.0903903 5.6737418e-05   0.43564321 0.0049806126            0    0.4306626    1.6151407    2.0507839    4.9557397 
11365000    1.0618041 2.967755e-05   0.47821623 0.0058058516            0   0.47241038    1.5727973    2.0510135    3.5705041 
11370000    1.0444514 7.4652796e-05   0.51980497  0.029398964            0   0.49040601    1.5470936    2.0668986    5.8891217 
11375000    1.0723851 9.3559435e-05   0.48646456   0.03271504            0   0.45374952    1.5884704     2.074935    6.8651781 
11380000    1.0863619 1.0148038e-05   0.48009599  0.022964425            0   0.45713156    1.6091735    2.0892695     2.608849 
11385000    1.0887285 6.5804811e-05   0.49610839  0.044688765            0   0.45141962    1.6126791    2.1087875    5.4779938 
11390000    1.0912338 -8.2663537e-05   0.48639181  0.018140788            0   0.46825102    1.6163901    2.1027819   -2.1295912 
11395000    1.0292962 -5.2556585e-05   0.58954543   0.02150997            0   0.56803546     1.524645    2.1141905  -0.57670669 
11400000    1.0354936 -8.554359e-05   0.55825813  0.045090961            0   0.51316717    1.5338249     2.092083   -2.2877488 
11405000    1.0985022 -2.3612507e-05   0.48818338  0.021292441            0   0.46689093    1.6271564    2.1153398   0.90637944 
11410000     1.120962 -7.0646753e-05   0.44168228  0.019965881            0   0.42171639     1.660425    2.1021073   -1.5150065 
11415000     1.049451 0.0001026886   0.54705409  0.017502014            0   0.52955208    1.5544993    2.1015534    7.3592097 
11420000    1.1085395 -1.9228423e-05   0.45269637   0.01294597            0    0.4397504    1.6420242    2.0947205    1.1102253 
11425000     1.125482 3.6442198e-05   0.42605558  0.028428086            0   0.39762749    1.6671202    2.0931757    3.9590163 
11430000    1.0783739 -5.7400328e-06   0.48777519  0.036173178            0   0.45160202    1.5973413    2.0851165    1.7912268 
11435000    1.0204174 0.00014588752   0.58163762  0.025272428            0    0.5563652    1.5114933    2.0931309    9.5625721 
11440000     1.104758 4.0550365e-05    0.4705452  0.009438986            0   0.46110621    1.6364227    2.1069679    4.1831466 
11445000    1.1155108 -2.3291494e-05   0.44937196   0.01679664            0   0.43257532    1.6523503    2.1017223   0.90919782 
11450000    1.0390894 6.3637853e-05   0.58450887  0.044233434            0   0.54027544    1.5391512      2.12366    5.3819181 
11455000      1.08791 -5.3299101e-05   0.51392264  0.032338803            0   0.48158383    1.6114667    2.1253894  -0.60352459 
11460000    1.1207603 -3.2914097e-05   0.49178739  0.015857525            0   0.47592987    1.6601262    2.1519136   0.46671188 
11465000    1.0762876 -3.5422185e-05   0.57068222 0.0052248733            0   0.56545735    1.5942511    2.1649333   0.35131739 
11470000    1.1668886 -0.00016315055   0.43177848 0.0079154162            0   0.42386306    1.7284538    2.1602322   -6.1930759 
11475000    1.0814427 -0.00014178241   0.54075183  0.018140181            0   0.52261165     1.601887    2.1426388   -5.1166204 
11480000    1.1331402 5.5770353e-05   0.49061401  0.019590015            0   0.47102399     1.678464     2.169078    5.0245201 
11485000     1.182691 -1.150351e-05   0.43556617  0.014477701            0   0.42108847     1.751861    2.1874271    1.5984474 
11490000    1.1780097 5.2021621e-05   0.45363911    0.0144606            0   0.43917851    1.7449269     2.198566     4.862073 
11495000    1.1811905 0.00014305457   0.47240876   0.01251389            0   0.45989487    1.7496384    2.2220471    9.5464409 
11500000     1.189929 4.4438254e-05    0.4594104 0.0061011075            0    0.4533093    1.7625823    2.2219927    4.4972313 
11505000    1.1103889 -2.6968987e-05   0.58746714  0.012350268            0   0.57511688    1.6447636    2.2322307   0.85141858 
11510000    1.1652824 0.00013366599     0.512259  0.034298247            0   0.47796076    1.7260746    2.2383336    9.0820322 
11515000    1.1897952 0.00013814031   0.48828035 0.0092962851            0   0.47898407    1.7623842    2.2506645    9.3234484 
11520000    1.2282206 -3.6480776e-05   0.42745515 0.0069795078            0   0.42047564    1.8193018    2.2467569   0.37894123 
11525000     1.181399 -0.00011405451   0.48540058  0.021069492            0   0.46433109    1.7499473    2.2353479   -3.6042431 
11530000    1.1879143 -3.2153619e-06   0.47785512 0.0076331223            0   0.47022199    1.7595981    2.2374532    2.0728267 
11535000      1.24397 4.0521915e-05   0.41838241            0            0   0.41838241    1.8426305    2.2610129     4.335735 
11540000    1.1944276 -2.9763307e-05   0.48723552            0            0   0.48723552    1.7692459    2.2564814   0.73260011 
11545000    1.1726593 6.0213561e-05   0.49431853 0.0016538849            0   0.49266464    1.7370017    2.2313202    5.3142545 
11550000    1.1206025 0.00014583069   0.56655785   0.01940412            0   0.54715373    1.6598925    2.2264504    9.6929819 
11555000     1.174466 0.00011630363   0.51355126  0.018492775            0   0.49505849    1.7396778    2.2532291    8.2079748 
11560000    1.1152839 8.7612797e-05   0.61926946   0.01507782            0   0.60419164    1.6520142    2.2712837    6.7570589 
11565000    1.2036891 0.00014463582   0.49992719  0.030428089            0    0.4694991    1.7829645    2.2828917    9.6882454 
11570000    1.1793519 2.9283245e-05    0.5370247  0.067956382            0   0.46906832     1.746915    2.2839397    3.7832418 
11575000    1.2425357 3.824863e-05   0.43731847   0.05062452            0   0.38669395    1.8405061    2.2778245    4.2361544 
11580000    1.1479174 6.948848e-05   0.52763085  0.040240041            0   0.48739081    1.7003526    2.2279835    5.7857936 
11585000    1.1888342 -0.00011792806   0.47499021  0.026795573            0   0.44819464    1.7609606    2.2359508   -3.8019658 
11590000    1.2212282 -1.5731795e-05    0.4142907 0.0090197628            0   0.40527093    1.8089443     2.223235    1.4177671 
11595000    1.1176748 4.9199461e-05   0.56900978  0.033068777            0     0.535941    1.6555557    2.2245655    4.7435779 
11600000    1.1203656 -3.87396e-05   0.52334259  0.027908447            0   0.49543414    1.6595415    2.1828841   0.19941663 
11605000     1.280291 -2.622566e-06    0.3060806  0.023424557            0   0.28265605    1.8964311    2.2025117    2.0682363 
11610000    1.1987386 1.4257877e-05    0.4095248 0.0073813588            0   0.40214344    1.7756315    2.1851563    2.9151596 
11615000    1.1309531 1.2538495e-05   0.52585971   0.01706245            0   0.50879725    1.6752243     2.201084    2.8430549 
11620000    1.0467603 -2.5841592e-05   0.66782179  0.032483406            0   0.63533838    1.5505137    2.2183355   0.89524594 
11625000    1.1614401 7.3807182e-05   0.51780385  0.014452938            0   0.50335091    1.7203831    2.2381869    6.0171147 
11630000    1.1399583 4.5781958e-05   0.52649829  0.016593011            0   0.50990528    1.6885632    2.2150615    4.5590978 
11635000    1.1538481 9.7968274e-05   0.50078649  0.048132562            0   0.45265392    1.7091375    2.2099239    7.2258996 
11640000    1.1033318 7.1802068e-05   0.54761012    0.0333175            0   0.51429262    1.6343102    2.1819203    5.8581862 
11645000   0.97946446 -5.6491867e-05    0.7005172  0.049677581            0   0.65083962    1.4508317    2.1513489  -0.74103464 
11650000    1.1378548 2.9303734e-05   0.45741219  0.022334786            0   0.43507741    1.6854475    2.1428596    3.6432108 
11655000     1.104403 9.3425191e-06   0.48894077  0.051941357            0   0.43699942     1.635897    2.1248378    2.6031748 
11660000    1.0643262 -9.0149506e-05   0.53178768  0.018154893            0   0.51363279    1.5765331    2.1083208   -2.5073339 
11665000    1.0422774 -4.514638e-05   0.54199261 0.0048159795            0   0.53717663    1.5438734     2.085866  -0.22562861 
11670000    1.0563135 4.5283164e-05   0.56792934   0.03021969            0   0.53770965    1.5646644    2.1325937    4.4510917 
11675000    1.1440058 0.00010346634   0.45256986   0.05546327            0   0.39710659    1.6945586    2.1471285    7.4446052 
11680000    1.0251854 5.0908518e-05   0.60176635  0.050303643            0   0.55146271    1.5185558    2.1203222    4.7268383 
11685000    1.1019206 3.7447306e-05   0.47162471 0.0090840619            0   0.46254065    1.6322199    2.1038446    4.0211466 
11690000    1.1504064 2.0020247e-05   0.39387894 1.2119678e-05            0   0.39386682    1.7040394    2.0979184     3.122955 
11695000     1.114131 -1.9678743e-05   0.44757232            0            0   0.44757232    1.6503065    2.0978788    1.0903272 
11700000    1.0967451 -3.1795961e-05   0.51226435            0            0   0.51226435    1.6245536     2.136818   0.50886475 
11705000    1.0446475 7.3545506e-05   0.57144844 0.0012844883            0   0.57016396    1.5473841    2.1188326    5.8843625 
11710000    1.1105484 6.3675133e-05   0.46435524 0.0069933364            0    0.4573619    1.6449999    2.1093551    5.3695219 
11715000    1.0837682 1.1522054e-05   0.49722974  0.026413731            0     0.470816    1.6053316    2.1025613    2.6924905 
11720000   0.99292582 -0.00018636746   0.59940153  0.056413695            0   0.54298783    1.4707714    2.0701729    -7.471841 
11725000    1.0939745 -0.00014346724   0.45850299  0.034710347            0   0.42379265    1.6204497    2.0789527   -5.2665698 
11730000      1.07563 4.6434422e-06   0.49002869  0.024011011            0   0.46601768     1.593277    2.0833057    2.3210499 
11735000     1.024761 9.3548704e-05   0.56152227   0.01075389            0   0.55076838    1.5179273    2.0794496    6.8691432 
11740000    1.0694492 -4.6481286e-05      0.52328  0.039645014            0   0.48363499    1.5841216    2.1074016  -0.27244021 
11745000    1.0794162 -0.00015598752   0.52287856  0.076144761            0    0.4467338    1.5988853    2.1217638   -5.8647974 
11750000    1.1041367 -6.8789446e-05   0.49455096   0.03481369            0   0.45973727    1.6355025    2.1300535   -1.3919661 
11755000   0.98698969 9.3803249e-05   0.63618193 0.0038208404            0   0.63236109    1.4619785    2.0981604    6.9008868 
11760000      1.04901 -2.8502973e-05   0.50893948   0.01909786            0   0.48984162    1.5538461    2.0627856   0.60343338 
11765000    1.0823608 -7.659654e-05   0.50801117  0.032506844            0   0.47550433    1.6032469     2.111258   -1.8104848 
11770000    1.0425811 -1.4624999e-05   0.57893762  0.014230304            0   0.56470731    1.5443233    2.1232609    1.3744609 
11775000    1.0867969 -1.0323369e-05   0.53933971  0.017263196            0   0.52207651     1.609818    2.1491577    1.6206012 
11780000    1.0253405 -6.5724437e-06   0.63088584  0.034713437            0    0.5961724    1.5187856    2.1496714    1.8131623 
11785000     1.146494 -0.00010022609   0.45670626 0.0090689483            0   0.44763731    1.6982442    2.1549505   -2.9766254 
11790000    1.1307578 -0.000103077   0.48773976   0.01418718            0   0.47355258    1.6749351    2.1626748   -3.1148676 
11795000    1.1405156 9.1789628e-05   0.50403994  0.010091468            0   0.49394847    1.6893887    2.1934286    6.8930576 
11800000    1.0221788 0.00020177671   0.66254575  0.012362852            0    0.6501829    1.5141023    2.1766481    12.507616 
11805000    1.1489206 5.7183512e-05   0.48988444  0.008827848            0   0.48105659    1.7018386    2.1917231    5.1195188 
11810000    1.1109828 -2.8722862e-05   0.52629644 0.0023282637            0   0.52396818    1.6456433    2.1719397   0.70132922 
11815000     1.140484 5.4928401e-05   0.49185986  0.015279354            0   0.47658051     1.689342    2.1812018    4.9935359 
11820000    1.0702913 3.5965602e-05   0.56611457   0.01375728            0   0.55235729     1.585369    2.1514836    3.9929224 
11825000    1.0231062 -3.1794884e-05    0.6590502  0.030353562            0   0.62869664    1.5154761    2.1745263   0.54662823 
11830000    1.0645489 -2.4043607e-05   0.57394254 0.0095498628            0   0.56439268     1.576863    2.1508055   0.91977285 
11835000    1.1407158 -4.1059537e-06   0.49269203 0.0077176275            0    0.4849744    1.6896854    2.1823774    1.9721526 
11840000     1.072914 -1.285299e-05   0.58283884  0.018190356            0   0.56464848    1.5892538    2.1720927    1.5140196 
11845000    1.0717619 6.2228097e-05   0.56444358   0.01819405            0   0.54624953    1.5875473    2.1519909    5.3380695 
11850000    1.1075479  7.84452e-05     0.485404 0.0076000319            0   0.47780397    1.6405553    2.1259593    6.1423535 
11855000     1.102538 -0.00013529449   0.52056094  0.013954194            0   0.50660675    1.6331344    2.1536953   -4.7733826 
11860000    1.0930314 -0.00012550471   0.52840467  0.034666684            0   0.49373798    1.6190527    2.1474574   -4.2783839 
11865000    1.0676056 3.6378253e-05    0.5812564  0.041124153            0   0.54013225    1.5813909    2.1626473    4.0252138 
11870000    1.0086876 8.2720485e-05    0.6561739  0.047175008            0   0.60899889    1.4941185    2.1502924    6.3855812 
11875000    1.0775919 8.1494758e-05   0.59357713  0.021174504            0   0.57240263    1.5961831    2.1897602    6.3622918 
11880000    1.1151174 -8.6869996e-06   0.53799738  0.024931038            0   0.51306634    1.6517677     2.189765    1.7449907 
11885000      1.09412 3.530548e-05   0.56377329  0.025378213            0   0.53839508    1.6206652    2.1844385     3.992079 
11890000    1.0995563 -5.5606231e-06   0.55047438   0.03600328            0    0.5144711    1.6287178    2.1791921    1.8944882 
11895000    1.1108545 0.00013936525   0.53606916  0.049421505            0   0.48664766    1.6454532    2.1815224    9.3170233 
11900000    1.1320656 0.00010241339   0.51187178  0.015913061            0   0.49595872    1.6768722    2.1887439    7.4323098 
11905000    1.0589915 -7.790979e-05   0.62961407  0.010761693            0   0.61885238    1.5686312    2.1982453    -1.790736 
11910000      1.02491 8.1223547e-05   0.68140767  0.027789111            0   0.65361855    1.5181479    2.1995556    6.3582012 
11915000     1.116131 4.9095119e-05   0.55698651  0.026018223            0   0.53096829     1.653269    2.2102555    4.7239256 
11920000    1.0576523 -0.00011873152   0.61845582  0.041576165            0   0.57687966    1.5666475    2.1851033   -3.8939508 
11925000    1.1460858 -3.6507223e-05   0.47371303  0.012084638            0   0.46162839    1.6976396    2.1713526   0.30218277 
11930000    1.1436574 2.6425783e-05    0.4923632  0.021053977            0   0.47130922    1.6940425    2.1864057    3.5394058 
11935000    1.0831268 3.7398726e-05   0.56512359  0.025980883            0   0.53914271    1.6043816    2.1695051    4.0843199 
11940000    1.1161173 -2.0673077e-05   0.53036238  0.041944452            0   0.48841792    1.6532488    2.1836112    1.1251497 
11945000    1.0283979 -8.931486e-05   0.66082991 0.0083533681            0   0.65247655    1.5233144    2.1841443   -2.3887765 
11950000    1.0736786 -2.6215684e-05   0.58185947  0.013081614            0   0.56877785    1.5903864    2.1722458   0.83000283 
11955000    1.0702033 2.2404324e-05   0.61903251 0.0038762241            0   0.61515628    1.5852386    2.2042711    3.3513725 
11960000    1.1368385 1.6691091e-05   0.54938251 0.0058643552            0   0.54351815    1.6839421    2.2333246    3.0879085 
11965000    1.0780133 5.4524429e-05   0.62494329 0.0027978752            0   0.62214542    1.5968072    2.2217505    5.0134013 
11970000    1.1814532 0.00011521021   0.50356809 0.0016160408            0   0.50195204    1.7500275    2.2535956    8.1523585 
11975000    1.1560392 7.0434594e-05   0.55727514 0.0067630605            0   0.55051208    1.7123831    2.2696582    5.8759094 
11980000    1.1290298 -3.017652e-05   0.59805153  0.031549372            0   0.56650215    1.6723755     2.270427   0.72538917 
11985000    1.0609831 1.8725337e-05   0.68465566   0.02416163            0   0.66049403    1.5715812    2.2562369    3.2149741 
11990000    1.1819938 -3.349307e-05   0.51903895  0.028879691            0   0.49015926    1.7508284    2.2698673   0.55502215 
11995000    1.0909875 -0.00011432371   0.66921548  0.045721865            0   0.62349361    1.6160253    2.2852407   -3.5681332 
12000000    1.1316403 -6.68381e-05   0.59843271  0.018533642            0   0.57989907    1.6762422    2.2746749   -1.1474358 
12005000     1.134484 -1.1825043e-05   0.61502557            0            0   0.61502557    1.6804545      2.29548    1.6900379 
12010000    1.1902779 -9.1594177e-05   0.48954951 0.00014478565            0   0.48940472    1.7630991    2.2526486   -2.4369733 
12015000    1.1852127 -5.7108574e-05   0.52556236 0.0036449379            0   0.52191742    1.7555963    2.2811587  -0.64280035 
12020000    1.1366262 0.00010701752    0.5825106 0.0089080004            0    0.5736026    1.6836275    2.2661381    7.7454352 
12025000    1.1203333 0.00012419185   0.56422893 0.0066779016            0   0.55755103    1.6594938    2.2237227    8.5823452 
12030000    1.1388712 6.4177436e-06   0.55359956 0.0079250971            0   0.54567446     1.686953    2.2405525     2.569141 
12035000    1.1358527 -6.6740767e-05   0.55198997  0.022926532            0   0.52906344    1.6824819    2.2344718   -1.1826554 
12040000    1.0421247 -4.8110753e-06   0.67013068   0.03197007            0   0.63816061    1.5436472    2.2137779    1.9674508 
12045000    1.1526578 -1.0567554e-05   0.48464551  0.022690696            0   0.46195482    1.7073744      2.19202    1.6509612 
12050000    1.1244672 9.9908995e-05   0.53902066  0.050631476            0   0.48838919     1.665617    2.2046377    7.3199782 
12055000    1.0072719 0.00013183171    0.6909165   0.02346831            0   0.66744819    1.4920215     2.182938    8.9327217 
12060000    1.0378226 -2.7316384e-05   0.62937866 0.0093081734            0   0.62007048    1.5372747    2.1666534   0.76805449 
12065000     1.079718 -0.00010881985   0.52996789  0.015256099            0   0.51471179    1.5993323    2.1293002   -3.4422761 
12070000    1.0788285 -0.00011128544   0.53052554  0.020450326            0   0.51007521    1.5980147    2.1285402   -3.5692745 
12075000     1.063092 -5.82267e-05   0.54255467   0.03356084            0   0.50899383     1.574705    2.1172596   -0.8639474 
12080000     1.025699 -1.4652477e-05   0.60928277  0.013965881            0   0.59531689    1.5193166    2.1285993    1.3783925 
12085000     1.084042 -1.767029e-07   0.52759444 0.0035725146            0   0.52402193    1.6057373    2.1333317    2.1242845 
12090000    1.0315837 -1.7073299e-05   0.59991543  0.011236925            0   0.58867851    1.5280334    2.1279488     1.253796 
12095000    1.0434037 2.6600723e-05     0.604189  0.016577485            0   0.58761152    1.5455417    2.1497307    3.5116877 
12100000    1.0643596 6.354989e-05   0.52675315 0.00089747487            0   0.52585567    1.5765827    2.1033358    5.3570902 
12105000    1.0939093 -3.9459597e-05   0.49359699 0.0036321176            0   0.48996487    1.6203532    2.1139502  0.093618831 
12110000    1.0372922 -0.00013523315   0.59037096  0.011328005            0   0.57904296    1.5364891      2.12686   -4.7970772 
12115000    1.0728176 -7.9454042e-05   0.54696765   0.02359543            0   0.52337222    1.5891111    2.1360787   -1.9319683 
12120000    1.0983833 1.1674617e-05   0.52064754  0.047359619            0   0.47328793    1.6269803    2.1476278    2.7453682 
12125000    1.0616291 -2.1788773e-06   0.54158694  0.025326198            0   0.51626074    1.5725381    2.1141251    2.0025666 
12130000      1.06111  3.75753e-05   0.57787913 0.0063576782            0   0.57152146    1.5717691    2.1496483    4.0735036 
12135000    1.0900986 2.5436464e-05   0.53505732   0.03064712            0    0.5044102    1.6147086    2.1497659    3.4521128 
12140000    1.0498821 4.0269034e-06   0.61054813  0.043824508            0   0.56672362    1.5551379     2.165686    2.3718635 
12145000    1.0419229 9.510185e-05   0.63028306  0.016188907            0   0.61409415    1.5433483    2.1736314    7.0428461 
12150000    1.0510505 0.00013564544   0.62014002  0.013616346            0   0.60652368    1.5568685    2.1770085    9.1220551 
12155000    1.1180126 5.2395374e-05   0.53031753  0.033158916            0   0.49715862    1.6560562    2.1863738    4.8690169 
12160000    1.0820647 5.5558717e-05     0.601139  0.039795737            0   0.56134327    1.6028083    2.2039473    5.0485537 
12165000    1.1156899 5.6102691e-05   0.59615374  0.006798615            0   0.58935512    1.6526157    2.2487695    5.1212272 
12170000    1.1020035 2.0720061e-05    0.5972627 0.0078784127            0   0.58938429    1.6323427    2.2296054    3.2904725 
12175000    1.1743976 5.4954989e-05   0.49292726   0.01058066            0    0.4823466    1.7395765    2.2325037    5.0461991 
12180000    1.0317837 -1.9389205e-05   0.69279468  0.020223886            0   0.67257079    1.5283296    2.2211243     1.228397 
12185000    1.0667928 1.4766559e-05   0.64342957  0.025167022            0   0.61826254    1.5801868    2.2236163    2.9796642 
12190000    1.1174305 0.00017483788   0.57078824  0.010299183            0   0.56048906    1.6551939    2.2259822    11.177682 
12195000    1.1305484 8.2431328e-05   0.54182944 0.0026039067            0   0.53922553    1.6746249    2.2164543    6.4369383 
12200000    1.1312794 -4.179294e-05   0.54538751  0.005269073            0   0.54011844    1.6757076    2.2210951  0.081296633 
12205000    1.1430552 -7.3671954e-05   0.56470459  0.008574442            0   0.55613014    1.6931505    2.2578551   -1.5141489 
12210000    1.1539931 1.1191819e-05   0.55309909 0.0076221935            0    0.5454769    1.7093523    2.2624514    2.8354726 
12215000    1.1447428 0.00012595825   0.54913079  0.011169744            0   0.53796104    1.6956503     2.244781    8.6938435 
12220000     1.134253 0.00011412099   0.53778077  0.021583322            0   0.51619744    1.6801123    2.2178931    8.0608876 
12225000    1.1122584 -3.3266267e-05   0.59826316  0.022027301            0   0.57623586    1.6475327    2.2457959   0.54256297 
12230000    1.2249938 8.3282284e-05   0.43070406  0.025894268            0   0.40480979    1.8145221    2.2452261     6.509279 
12235000    1.1373833 6.7237114e-05   0.56741105  0.060736115            0   0.50667493     1.684749    2.2521601    5.6947003 
12240000    1.0923315 -7.4757427e-05   0.62092296  0.036774518            0   0.58414845    1.6180161    2.2389391   -1.5886412 
12245000    1.1694874 -3.5766212e-05   0.52017578 0.00071213806            0   0.51946364    1.7323032     2.252479   0.42124895 
12250000    1.1374504 -2.0344391e-05    0.5293904 0.0024673339            0   0.52692307    1.6848484    2.2142388     1.172606 
12255000    1.1130766 -9.8618646e-06   0.55674525 0.0079867228            0   0.54875852    1.6487448      2.20549    1.7005625 
12260000    1.0945433 -2.9321572e-05   0.62394693  0.016705185            0   0.60724175    1.6212922    2.2452392   0.74397465 
12265000     1.102121 2.4884334e-05   0.62136681  0.016390566            0   0.60497624    1.6325167    2.2538835    3.5279614 
12270000    1.0658458 5.696389e-05   0.61779235  0.014990965            0   0.60280138    1.5787841    2.1965764    5.1131276 
12275000    1.0946717 1.4018192e-05   0.55504697 0.0037563213            0   0.55129065    1.6214825    2.1765295    2.8942609 
12280000    1.1670574 9.4673736e-05   0.46265709 0.0047680764            0   0.45788902    1.7287038    2.1913609    7.0386561 
12285000    1.0380278 9.6331589e-05   0.68369545 0.0066658147            0   0.67702963    1.5375787    2.2212741    7.1534515 
12290000    1.0963982 -5.3681189e-05   0.56534281 0.0028180763            0   0.56252473    1.6240399    2.1893827  -0.55909417 
12295000    1.1068376 -3.1848527e-05    0.5207631 0.0080472138            0   0.51271588    1.6395032    2.1602663   0.52962174 
12300000    1.0577187 3.2103619e-05   0.59140892  0.030878068            0   0.56053086    1.5667459    2.1581548    3.8018601 
12305000    1.0143821 -2.9167038e-05   0.63626965  0.019311542            0   0.61695811    1.5025534    2.1388231   0.64547075 
12310000    1.1567421 1.5766613e-05   0.41424393 0.0024981069            0   0.41174582    1.7134243    2.1276682    2.9349188 
12315000    1.0729915 -0.0001238556   0.53802122 0.0081092777            0   0.52991194    1.5893687    2.1273899   -4.2140168 
12320000    1.0755525 -8.8809004e-05   0.53218686  0.014352511            0   0.51783435    1.5931621     2.125349    -2.421672 
12325000    1.0299455 5.4750182e-05   0.57077752 0.0071806294            0   0.56359689    1.5256067    2.0963843    4.8995936 
12330000    1.0635936 -5.6886869e-05   0.53319518 0.0095061388            0   0.52368904    1.5754481    2.1086432  -0.80396447 
12335000    1.0252681 6.5851174e-05    0.5677734 0.0070438172            0   0.56072959    1.5186783    2.0864517    5.4580318 
12340000   0.99018346 2.0847079e-05   0.63337156  0.023001965            0    0.6103696    1.4667093    2.1000808    3.1674512 
12345000    1.0547674 -3.6467855e-05   0.49551407  0.027470843            0   0.46804323    1.5623742    2.0578883   0.19073412 
12350000    1.0197255 9.6927099e-05   0.53494296  0.017514676            0   0.51742828    1.5104684    2.0454114    7.0080789 
12355000    1.0659331 2.2100098e-05   0.47132465  0.009570732            0   0.46175392    1.5789134    2.0502381    3.1817631 
12360000   0.97288102 -3.036388e-05   0.57350548  0.015727185            0   0.55777829      1.44108    2.0145855   0.45995482 
12365000    0.9822844 0.00014355463   0.56003081  0.019954878            0   0.54007593    1.4550088    2.0150396    9.3650365 
12370000    1.0019414 -1.2262867e-05   0.51118971  0.016619953            0   0.49456976    1.4841257    1.9953154    1.3674566 
12375000    1.0688803 2.5073558e-06   0.43278525  0.019962916            0   0.41282234    1.5832789    2.0160642    2.1444408 
12380000     1.049802 -9.5511049e-06   0.44311032 0.0083810738            0   0.43472924    1.5550193    1.9981296     1.509113 
12385000   0.87197985 -8.4021635e-05    0.6556815 0.0050386628            0   0.65064283    1.2916201    1.9473016   -2.3546061 
12390000    1.0020981 1.3740625e-05   0.48053112 0.0066031467            0   0.47392798    1.4843578    1.9648889    2.6684089 
12395000    1.0046701 -4.1833409e-05   0.48713529  0.019774928            0   0.46736036    1.4881676    1.9753029  -0.16656763 
12400000    1.0045981 2.5530212e-06    0.4772119  0.011713732            0   0.46549817    1.4880609    1.9652728    2.0959875 
12405000    1.0508851 2.6583506e-05   0.42438481  0.004272854            0   0.42011196    1.5566236    1.9810084    3.3420839 
12410000    0.9663313 3.9278602e-05   0.55350179  0.019031018            0   0.53447077    1.4313782      1.98488    3.9959444 
12415000   0.97849987 3.3730028e-05   0.52581806  0.031644547            0   0.49417352    1.4494029     1.975221    3.7021984 
12420000   0.93064954 -1.5645716e-05   0.58597644 0.0066992149            0   0.57927722    1.3785246    1.9645011    1.1634404 
12425000    1.0071477 -6.7070548e-05   0.49596462 0.0083658292            0   0.48759879    1.4918375    1.9878021   -1.4462099 
12430000    1.0214067 1.210264e-05   0.49692444  0.021182669            0   0.47574177    1.5129587    2.0098831    2.6295383 
12435000   0.93356521 -5.8944707e-06   0.56877873  0.017871843            0   0.55090689    1.3828435    1.9516222    1.6498253 
12440000    0.9463767 8.8578699e-05   0.53760168  0.032122025            0   0.50547966    1.4018205    1.9394222    6.4746516 
12445000   0.94760728 0.00011766819   0.55039053  0.037515479            0   0.51287505    1.4036433    1.9540338    7.9786452 
12450000    0.9561405 7.3646428e-05   0.55465302  0.012970999            0   0.54168202    1.4162831    1.9709361    5.7416332 
12455000   0.99169881 -6.217833e-05   0.52132027 0.0066203699            0    0.5146999    1.4689539    1.9902741   -1.1932564 
12460000   0.97767698 -9.8192182e-05   0.55412518  0.017367854            0   0.53675733     1.448184    2.0023092   -3.0251305 
12465000    1.0631905 5.2340912e-05   0.41166562  0.027576516            0    0.3840891    1.5748509    1.9865165    4.6663712 
12470000   0.93337976 0.00016379665   0.58262667  0.024368251            0   0.55825842    1.3825688    1.9651954    10.351584 
12475000   0.99362113 4.282601e-05    0.5186188  0.010763811            0   0.50785499    1.4718013    1.9904201    4.1831118 
12480000     1.039434 -7.9616574e-05   0.43767564  0.014057928            0   0.42361772    1.5396616    1.9773372   -2.0990313 
12485000   0.97417893 -4.6874888e-05   0.53559986  0.031580614            0   0.50401925    1.4430025    1.9786024  -0.42139187 
12490000   0.95292587 0.00010873731   0.55827706  0.024713565            0    0.5335635    1.4115215    1.9697985    7.5371487 
12495000   0.89998164 6.3212041e-05   0.62114517  0.022792206            0   0.59835297    1.3330978     1.954243    5.1906995 
12500000   0.91621902 5.2483735e-05   0.58693664  0.037626562            0   0.54931008    1.3571494    1.9440861    4.6312533 
12505000    1.0089781 6.5307178e-05     0.461098  0.024909188            0   0.43618882    1.4945488    1.9556468    5.2993743 
12510000   0.98357168 -0.00013000514   0.46226345  0.015250681            0   0.44701277    1.4569156     1.919179   -4.7370841 
12515000   0.95194559 -5.525682e-05   0.50438132  0.036808676            0   0.46757265    1.4100694    1.9144507  -0.91469847 
12520000   0.95161875 0.00011221975    0.5224976  0.017682805            0   0.50481479    1.4095853    1.9320829    7.6777341 
12525000   0.90754915 6.1976199e-05   0.58700201   0.01596445            0   0.57103756    1.3443072    1.9313092    5.1044906 
12530000   0.90575708 -6.2241486e-05   0.58745744  0.013704732            0   0.57375271    1.3416527    1.9291101    -1.257654 
12535000   0.92827013 6.2390043e-05   0.56190279  0.013612174            0   0.54829062    1.3750001    1.9369029    5.1312731 
12540000     0.989156 3.2694495e-05    0.4674307  0.023122643            0   0.44430805    1.4651873     1.932618    3.6065762 
12545000   0.94022596 -8.1611031e-05   0.54046695  0.024275964            0   0.51619098    1.3927097    1.9331766   -2.2453081 
12550000   0.91522857 9.3722099e-05   0.54050421  0.008743116            0   0.53176109    1.3556823    1.8961865     6.694758 
12555000   0.94459088 6.8602532e-05   0.50954372 0.0044821252            0   0.50506159    1.3991752     1.908719    5.4211686 
12560000   0.95809006 -4.5973821e-05   0.46895055  0.010396314            0   0.45855424    1.4191709    1.8881215  -0.46573819 
12565000   0.96190818 -9.2661151e-05   0.47191361 0.0033618793            0   0.46855173    1.4248265    1.8967401   -2.8475108 
12570000   0.91868739 4.8517613e-05   0.54048762  0.004945074            0   0.53554254    1.3608057    1.9012933    4.3853951 
12575000   0.93350428 7.4089449e-05   0.53080248 0.0084248155            0   0.52237766    1.3827532    1.9135557    5.7069355 
12580000   0.93737577 -1.3287816e-05   0.52651058  0.012305436            0   0.51420514    1.3884879    1.9149984    1.2346623 
12585000   0.95577861 -2.0968469e-05   0.52657724  0.016921272            0   0.50965597    1.4157471    1.9423243   0.86873871 
12590000    1.0253987 -2.7819731e-05   0.43296254  0.012375831            0   0.42058671    1.5188719    1.9518344   0.52746416 
12595000    1.0185868 6.3308736e-05   0.45818824  0.011702679            0   0.44648556    1.5087816    1.9669699    5.2083771 
12600000   0.92475536 -4.3100358e-06    0.6073512 0.0055626773            0   0.60178852    1.3697939    1.9771451    1.7564712 
12605000   0.93010379 5.1235726e-05   0.62769012 0.0020730146            0   0.62561711    1.3777162    2.0054064    4.6286756 
12610000   0.95071372 0.00014048538   0.58928645 8.372143e-05            0   0.58920273    1.4082447    1.9975311    9.1903829 
12615000    1.0048619 -0.00017985725    0.5141415 0.0020051951            0   0.51213631    1.4884517    2.0025932   -7.2060979 
12620000    1.0023289 1.6626855e-05    0.5367824   0.01421579            0   0.52256661    1.4846997    2.0214821    2.8727771 
12625000   0.91510152 -8.4843062e-05   0.64869233  0.012724833            0   0.63596749    1.3554941    2.0041864   -2.3397783 
12630000   0.93224048 -3.2535153e-05   0.61475939 0.0062131945            0   0.60854619    1.3808812    1.9956406   0.32984079 
12635000     1.052873 2.2679374e-05   0.46597369  0.010656247            0   0.45531744    1.5595681    2.0255418    3.1867258 
12640000   0.98386031 5.889857e-05   0.57312994 0.0038709265            0   0.56925901    1.4573431     2.030473    5.0460798 
12645000    1.0346849 3.2244743e-05   0.50544559 0.00083419381            0    0.5046114     1.532627    2.0380726    3.6890034 
12650000   0.97464628 1.7798379e-05   0.58445101 0.0062529652            0   0.57819804    1.4436948    2.0281458    2.9394228 
12655000    1.0205183 8.8155438e-05   0.51953451  0.021333042            0   0.49820147    1.5116427    2.0311773    6.5447357 
12660000    1.0686715 -8.077985e-05    0.4435112 0.0089868117            0   0.43452439    1.5829696    2.0264808   -2.1094475 
12665000    1.0176027 -7.5843387e-05   0.48082479  0.014248981            0   0.46657581     1.507324    1.9881488   -1.8950326 
12670000   0.99888407 -7.7014103e-05   0.50164539  0.016805423            0   0.48483997     1.479597    1.9812424   -1.9618796 
12675000   0.93641562 0.00011011996   0.61633663 0.0028352681            0   0.61350136    1.3870656    2.0034023    7.6415441 
12680000     0.964357 -0.00011455712   0.54770407 0.0066995748            0    0.5410045    1.4284538    1.9761579   -3.8891666 
12685000   0.97366194 7.7290081e-05   0.55532433  0.015087962            0   0.54023637    1.4422368    1.9975611    5.9548133 
12690000   0.94776794 -4.2647342e-05   0.60719773 0.0091471631            0   0.59805056    1.4038813     2.011079  -0.17246492 
12695000    1.0138039 5.843953e-05   0.54041179 0.00057158799            0    0.5398402     1.501697    2.0421088    5.0342127 
12700000   0.99690692 -7.0006597e-05   0.56418465 9.7560187e-05            0   0.56408709    1.4766684     2.040853   -1.5434847 
12705000     1.010569 -9.6091839e-06   0.54986592  0.025668814            0    0.5241971    1.4969054    2.0467713    1.5547811 
12710000     1.011443 -5.8409428e-05   0.56326654   0.05423589            0   0.50903065    1.4981999    2.0614665  -0.92909622 
12715000   0.99539988 6.642056e-05   0.59835027 0.0099563451            0   0.58839392    1.4744361    2.0727863     5.473519 
12720000    1.0874743 -3.3457672e-05   0.50037142 0.0050236722            0   0.49534774    1.6108213    2.1111928   0.39815997 
12725000    1.0020557  -3.8303e-05   0.61479649   0.02394246            0   0.59085403     1.484295    2.0990915   0.13797793 
12730000    1.0591119 -6.8970827e-05   0.55446655  0.018030711            0   0.53643584    1.5688095    2.1232761   -1.4080303 
12735000    1.0831973 1.0841362e-05   0.55621052  0.022459826            0   0.53375069     1.604486    2.1606965    2.7157742 
12740000    1.0732465 -2.7476054e-05    0.5572753  0.029307667            0   0.52796763    1.5897464    2.1470217   0.74024776 
12745000    1.1621483 0.0001140036   0.44609018 0.0084357571            0   0.43765443    1.7214321    2.1675223    8.0045066 
12750000    1.0477305 -4.2346518e-05   0.57717235  0.013944537            0   0.56322782    1.5519509    2.1291232 -0.039018515 
12755000    1.0481102 0.00011575566   0.54198214  0.033484849            0   0.50849729    1.5525132    2.0944953    8.0211852 
12760000    1.0490053 -8.0241415e-05   0.51757414  0.022782317            0   0.49479183    1.5538391    2.0714133   -2.0369472 
12765000     1.047109 -5.9672169e-05   0.49974587  0.023399085            0   0.47634679    1.5510302     2.050776    -1.004439 
12770000   0.95257999 0.00012152286   0.65513582 0.0033543624            0   0.65178146    1.4110091    2.0661449    8.2881153 
12775000    1.0286528 6.377436e-05   0.55282782   0.01254163            0   0.54028619     1.523692    2.0765198     5.341767 
12780000    1.0047962 -7.0140458e-05   0.57309405  0.014893103            0   0.55820094    1.4883544    2.0614485    -1.529743 
12785000    1.0126711 -5.8625509e-05   0.55536914 0.0047538191            0   0.55061532    1.5000191    2.0553882  -0.94623785 
12790000   0.95824273 6.9848747e-06   0.61887947 0.0080345253            0   0.61084495     1.419397    2.0382765    2.3959021 
12795000    1.1168255 -4.1732464e-05   0.40795049 0.0032081317            0   0.40474236    1.6542977    2.0622482 -0.074453941 
12800000   0.97307977 -3.065724e-05   0.59073893 0.0044503964            0   0.58628853    1.4413744    2.0321133   0.46246266 
12805000    1.0665358 2.154172e-05   0.45303875 0.0042621398            0   0.44877661    1.5798062    2.0328449     3.135781 
12810000    1.0746001 0.00013006793    0.4627331 0.0072187327            0   0.45551437    1.5917514    2.0544845    8.7139626 
12815000    1.0030977 -2.6057874e-05   0.58086406  0.014040623            0   0.56682344    1.4858385    2.0667026   0.73253941 
12820000    1.0710435 -0.00011983806   0.47483807  0.025855435            0   0.44898263    1.5864831    2.0613212   -4.0743877 
12825000   0.96569233 2.8716116e-05    0.6282171 0.0080568741            0   0.62016023    1.4304318    2.0586489     3.528914 
12830000    1.0550713 -9.2288392e-05   0.50171113  0.017081423            0   0.48462971    1.5628244    2.0645355   -2.6606302 
12835000   0.93771598 -0.00011652416    0.6468028  0.039888624            0   0.60691418    1.3889918    2.0357946   -3.9302423 
12840000    1.0211395 8.1151292e-05   0.49565507  0.011170188            0   0.48448488    1.5125628    2.0082179    6.1631641 
12845000   0.89273471 0.00012475723   0.66356884   0.01271766            0   0.65085118    1.3223633    1.9859321    8.3735024 
12850000     1.022315 -3.2635447e-05   0.46010967  0.007897665            0     0.452212     1.514304    1.9744137   0.30347881 
12855000    0.9565001 -0.00015427235   0.59799191  0.016508021            0   0.58148388    1.4168158    2.0148077   -5.8839368 
12860000    1.0132149 7.3859105e-06   0.50423958 0.0059655775            0     0.498274    1.5008246    2.0050642    2.3832228 
12865000    1.0870113 0.00011577988   0.43299474 0.00011421249            0   0.43288053    1.6101356    2.0431303    7.9710601 
12870000   0.95522649 6.4773927e-05   0.61283296 0.00060259097            0   0.61223037    1.4149292    2.0277622    5.3441872 
12875000    1.0300391 2.796401e-05   0.49619092  0.001381634            0   0.49480928    1.5257455    2.0219364    3.4536937 
12880000     1.003752 1.1320925e-05     0.525696 0.0047359302            0   0.52096007    1.4868077    2.0125037     2.592135 
12885000    1.0010686 2.9858473e-05     0.544839 0.0057117446            0   0.53912725    1.4828328    2.0276718    3.5564256 
12890000    1.0866738 -1.3638741e-05   0.38319663  0.001739904            0   0.38145673    1.6096355    1.9928322    1.2945286 
12895000   0.94872359 -1.1023315e-05    0.5851874 0.0015326934            0   0.58365471    1.4052968    1.9904842    1.4260905 
12900000   0.97614374 -6.182763e-05   0.55258974 0.0045539052            0   0.54803583    1.4459129    1.9985027    -1.167072 
12905000    1.0743643 8.7347548e-05   0.40356124  0.027407523            0   0.37615372    1.5914021    1.9949633    6.4671578 
12910000    1.0234692 0.0001063008   0.47621607  0.027744678            0   0.44847139    1.5160137    1.9922297    7.4348308 
12915000   0.96620467 3.4780305e-05   0.55734335  0.015914703            0   0.54142864    1.4311907     1.988534    3.7692856 
12920000   0.97572175 9.5944576e-05   0.55347589  0.025305466            0   0.52817042    1.4452878    1.9987637    6.9111261 
12925000    1.0547497 5.1144866e-05   0.43730621  0.035046473            0   0.40225974     1.562348    1.9996543    4.6182714 
12930000    0.9767598 0.00010403822   0.52004993  0.018051178            0   0.50199875    1.4468255    1.9668754    7.2936321 
12935000   0.90723946 -0.0001344711   0.61917918  0.030122063            0   0.58905712    1.3438484    1.9630276   -4.9218927 
12940000   0.95296374 -7.0595632e-07    0.5432852 0.0043046835            0   0.53898052    1.4115775    1.9548627    1.9187178 
12945000    1.0094871 9.2736181e-05   0.42083969 0.0074728497            0   0.41336684    1.4953027    1.9161424    6.6642349 
12950000   0.96251335 -3.0448025e-05   0.52137474  0.027826148            0   0.49354859    1.4257229    1.9470976   0.38815874 
12955000   0.95322391 1.2541487e-05   0.50243327  0.014487796            0   0.48794547    1.4119629    1.9143962    2.5565203 
12960000    0.9247415 -2.3349099e-05    0.5410762 0.0038849589            0   0.53719124    1.3697733    1.9108495   0.71537565 
12965000   0.91346884 2.4284638e-07    0.5850473  0.016297922            0   0.56874938    1.3530757     1.938123    1.9505567 
12970000   0.96660036  6.59981e-05   0.51656381  0.029518649            0   0.48704517    1.4317768    1.9483406    5.3274433 
12975000   0.97674381 3.5150674e-05   0.53409568  0.019460668            0   0.51463501    1.4468018    1.9808974    3.7806119 
12980000   0.95185415 0.00010486779   0.55945913  0.010326609            0   0.54913252     1.409934    1.9693931    7.3386241 
12985000     1.025605 -0.00014243569    0.4541334 0.0016490149            0   0.45248439    1.5191774    1.9733108   -5.3193964 
12990000   0.92333249 -0.00020673159   0.56317439  0.005929183            0   0.55724521    1.3676863    1.9308606    -8.653797 
12995000   0.94821951 7.653205e-05   0.53149591  0.011598242            0   0.51989767    1.4045502    1.9360461     5.854487 
13000000   0.98274162 -2.4842577e-05   0.50459214  0.010668473            0   0.49392366     1.455686    1.9602782   0.68833824 
13005000    1.0154048 -9.1492791e-05   0.46346777 0.0056761728            0    0.4577916    1.5040683    1.9675361   -2.7168948 
13010000   0.92403941 2.8789905e-05   0.57552962 0.0047325052            0   0.57079711    1.3687334     1.944263    3.4183061 
13015000   0.96665249 -0.000110033    0.5031334 0.0073070257            0   0.49582637     1.431854    1.9349874   -3.6987022 
13020000   0.92590563 -9.2406096e-05   0.54544019  0.010238044            0   0.53520214    1.3714977    1.9169379   -2.8142542 
13025000   0.95864979 -6.8803904e-06   0.52045634 0.0049462198            0   0.51551012         1.42    1.9404563    1.5881804 
13030000   0.95897929 -9.1884848e-05   0.50040415 0.0099733425            0    0.4904308    1.4204881    1.9208922    -2.783612 
13035000     1.012251 1.8564784e-05   0.45920771 0.0029744442            0   0.45623326    1.4993968    1.9586045    2.9091214 
13040000   0.99873728 -1.9720777e-05   0.50389767  0.025845749            0   0.47805192    1.4793796    1.9832773   0.97357349 
13045000   0.93906518 -6.4943003e-05   0.54701287  0.036416745            0   0.51059612    1.3909903    1.9380032   -1.3870786 
13050000   0.98056068 2.0532468e-05   0.47062853  0.014541211            0   0.45608732    1.4524555     1.923084    2.9743464 
13055000    0.9566523 0.00013426495   0.50871232  0.014561154            0   0.49415117    1.4170412    1.9257535    8.8001191 
13060000    1.0203476 7.0085666e-05   0.40410977  0.012947108            0   0.39116267    1.5113899    1.9154997    5.5038858 
13065000    0.9385216 -2.0109303e-05   0.50023769  0.016083359            0   0.48415434    1.3901851    1.8904228   0.86082648 
13070000   0.94258177 2.2602189e-05   0.51997467 0.0078966144            0   0.51207805    1.3961992    1.9161739     3.073406 
13075000   0.94486774 -2.8895896e-05   0.50928907 0.0068436403            0   0.50244543    1.3995853    1.9088744   0.42940453 
13080000   0.97761724 -1.6070867e-05   0.45523325  0.013520885            0   0.44171236    1.4480955    1.9033288    1.0805004 
13085000   0.88320451 -9.8650295e-05   0.57633477  0.011210158            0   0.56512461    1.3082467    1.8845815   -3.1663137 
13090000   0.97407554 6.640038e-05   0.42348976   0.01855317            0   0.40493659    1.4428494    1.8663392    5.2660386 
13095000    0.9401293 7.8450217e-05   0.50833442 0.0094260893            0   0.49890833    1.3925665    1.9009009     5.917552 
13100000   0.94317031 5.4436884e-05   0.47674966  0.017194038            0   0.45955562     1.397071    1.8738207    4.6609891 
13105000   0.90950344 4.2233026e-05   0.50530094   0.02793608            0   0.47736486     1.347202    1.8525029    4.0148338 
13110000   0.88369932 -8.7794686e-05   0.55182401  0.020647402            0   0.53117661    1.3089796    1.8608036   -2.6342843 
13115000   0.95543192 -9.7937346e-05   0.45732648  0.033325328            0   0.42400115    1.4152335      1.87256   -3.1418321 
13120000   0.92839062 4.0936312e-06   0.50817964 0.0097029999            0   0.49847664    1.3751786    1.8833582    2.0929522 
13125000   0.95442308 0.00010307751   0.48502226 0.00096127301            0   0.48406098    1.4137392    1.8987614    7.1763302 
13130000    0.9036099 7.0773561e-06   0.52720371 4.3936422e-05            0   0.52715977    1.3384722    1.8656759    2.2280365 
13135000   0.95994466 -8.0831011e-05   0.41798482 4.650726e-05            0   0.41793831     1.421918    1.8399028   -2.2986449 
13140000   0.92722579 -3.2391354e-05   0.46877938 0.00031920139            0   0.46846017    1.3734532    1.8422326   0.18379525 
13145000   0.92604514 9.9295977e-05    0.4771791 0.00070655576            0   0.47647255    1.3717044    1.8488835    6.9328375 
13150000   0.93347081 0.00013661025   0.49573776 0.00021875004            0   0.49551901    1.3827036    1.8784414     8.872886 
13155000   0.94245833 -0.0001839454   0.49439739  0.024729345            0   0.46966805    1.3960164    1.8904138   -7.5275908 
13160000   0.87087276 -0.0001995075   0.59992511  0.048243701            0   0.55168141    1.2899803    1.8899054   -8.3248788 
13165000   0.94116849 5.3481098e-05   0.49905473  0.022342903            0   0.47671182    1.3941058    1.8931606    4.6313928 
13170000     1.004402 2.5311001e-05   0.44367045 0.0067311449            0   0.43693931    1.4877704    1.9314409    3.2273641 
13175000    1.0456782 -7.3030832e-05   0.40463754 0.0022635104            0   0.40237403    1.5489109    1.9535484   -1.7856302 
13180000    1.0264852 -1.1530325e-05   0.45190777 0.0051055594            0   0.44680221    1.5204811    1.9723889    1.3820363 
13185000    1.0150113 8.4158508e-05   0.43952728 0.0042204618            0   0.43530682    1.5034854    1.9430127    6.2519283 
13190000   0.98199344 -9.4062169e-05    0.4949567 0.0085452102            0   0.48641149    1.4545778    1.9495345   -2.8664486 
13195000   0.97825653 -8.0492647e-05   0.49349538  0.018207496            0   0.47528788    1.4490425    1.9425379   -2.1786857 
13200000    1.0082969 9.4698859e-05    0.4552553  0.012555177            0   0.44270012    1.4935397     1.948795    6.7973766 
13205000    1.0573658 -5.4394331e-06   0.38930492 0.00084346082            0   0.38846146    1.5662232    1.9555281    1.6770291 
13210000   0.97513958 -7.9580134e-05   0.52748712  0.013439549            0   0.51404757    1.4444255    1.9719126   -2.1025902 
13215000    1.0005699 5.0286074e-05   0.47823527  0.065520295            0   0.41271498    1.4820942    1.9603295    4.5349765 
13220000   0.94789878 2.8392931e-05    0.5536231  0.029074995            0    0.5245481    1.4040751    1.9576982    3.4114162 
13225000    1.0198389 -7.6114092e-05   0.42034478  0.018520071            0   0.40182471    1.5106364    1.9309812   -1.9660603 
13230000   0.96910182 -2.2639114e-05   0.47595531  0.022941169            0   0.45301414    1.4354821    1.9114374   0.75231473 
13235000   0.91122381 0.0001086392   0.59191718  0.060470589            0   0.53144659    1.3497503    1.9416674    7.5039945 
13240000   0.95635831 0.00010468728   0.53628928  0.052873002            0   0.48341628    1.4166057     1.952895    7.3128838 
13245000    1.0066327 -5.7756577e-05   0.46001896  0.040781128            0   0.41923783    1.4910746    1.9510936   -1.0060432 
13250000    1.0262466 -8.1109213e-06   0.43184348 0.0057577401            0   0.42608574    1.5201277    1.9519712     1.536692 
13255000    0.9658163 9.8063107e-05   0.50541086 0.0028740362            0   0.50253683    1.4306154    1.9360263    6.9568574 
13260000   0.97038318 1.9884715e-05   0.46754888 0.0047471445            0   0.46280174    1.4373801     1.904929    2.9230264 
13265000   0.99764091 -8.505409e-05   0.44796808 0.0073677444            0   0.44060033    1.4777556    1.9257237   -2.4290457 
13270000   0.95886647 -0.00012152731   0.46225601 0.0037825581            0   0.45847345     1.420321     1.882577    -4.339621 
13275000   0.91840286 -4.2213283e-05   0.52916575 0.0034728186            0   0.52569293    1.3603842      1.88955  -0.27177008 
13280000    1.0230645 5.1965426e-05   0.39065438  0.022482286            0    0.3681721    1.5154142    1.9060686    4.5666984 
13285000    1.0038186 9.1833922e-05   0.41417522  0.020624727            0   0.39355049    1.4869063    1.9010815    6.6029783 
13290000   0.92394416 5.390618e-05   0.54870378  0.041811586            0    0.5068922    1.3685923    1.9172961    4.6772925 
13295000   0.89311175 -2.2104908e-05   0.57730874  0.025618686            0   0.55169005    1.3229218    1.9002305   0.76845924 
13300000   0.95216848 -0.00011063895   0.46152288 0.0094254061            0   0.45209747    1.4103996    1.8719224    -3.792792 
13305000    0.9940111 -5.114002e-05   0.39073014 0.00069275986            0   0.39003738    1.4723789    1.8631091  -0.75525991 
13310000   0.93627341 9.5075831e-05   0.48911276 0.0037669086            0   0.48534586     1.386855    1.8759678    6.7438503 
13315000   0.91447451 -4.5174494e-05   0.51255079  0.022356861            0   0.49019392    1.3545654    1.8671162  -0.44581795 
13320000     1.007226 -3.0856701e-05   0.39195228 0.0094825075            0   0.38246977    1.4919535    1.8839058   0.30404268 
13325000    1.0219853 -6.0851949e-05   0.36392367  0.011279956            0   0.35264371    1.5138157    1.8777393   -1.2378805 
13330000   0.93269038 1.4468461e-05   0.49804057  0.033517787            0   0.46452278    1.3815476    1.8795882    2.6203734 
13335000    0.9401939 0.00013618185   0.47364345 0.0049931853            0   0.46865026    1.3926622    1.8663057    8.8388166 
13340000   0.96566477 5.0191991e-05   0.44500793 0.0058243097            0   0.43918362    1.4303909    1.8753989    4.4452288 
13345000   0.93642747 -6.1779525e-05   0.48363403  0.010680102            0   0.47295393    1.3870832    1.8707172   -1.2923944 
13350000    1.0136907 -8.912924e-05   0.37219279   0.01394402            0   0.35824877    1.5015293    1.8737221    -2.689695 
13355000   0.87337685 -3.9840337e-05   0.55075405  0.015925376            0   0.53482868    1.2936895    1.8444435  -0.19538173 
13360000   0.95905651 -1.1621969e-05   0.41576503  0.011204845            0   0.40456018    1.4206025    1.8363675    1.2413227 
13365000   0.92383332 5.1493609e-05   0.46347435 0.0052439578            0   0.45823039    1.3684281    1.8319024    4.4683752 
13370000   0.95868002 7.3356322e-05   0.43841308 0.0012974674            0   0.43711561    1.4200448    1.8584579    5.6143015 
13375000   0.91041918 1.0500339e-06   0.49924501 0.0001073475            0   0.49913767    1.3485584    1.8478034    1.9015652 
13380000    0.9553209 -3.634387e-05   0.43682818 0.0012619074            0   0.43556627    1.4150691    1.8518973 -0.0089089119 
13385000   0.95257787 5.9140412e-05    0.4454369 0.0025973602            0   0.44283954     1.411006    1.8564429    4.8844319 
13390000   0.94156997 3.2299804e-05   0.44579743 0.0053270283            0   0.44047041    1.3947005     1.840498    3.4942479 
13395000   0.95461473 2.3151202e-05   0.46689782 0.0039786497            0   0.46291917    1.4140231    1.8809209    3.0662624 
13400000   0.98177083 7.502183e-05   0.45785425 0.0047896434            0   0.45306461     1.454248    1.9121023      5.75322 
13405000   0.92574789 -0.00013883597   0.55069568  0.033295933            0   0.51739975    1.3712641    1.9219597   -5.1864421 
13410000    1.0650017 8.8658011e-07   0.34438535   0.01687261            0   0.32751274    1.5775338    1.9219191     1.967312 
13415000   0.96575041 8.5357374e-05   0.49847345 0.0049643091            0   0.49350914    1.4305178    1.9289912    6.2992888 
13420000   0.99082222 1.1637019e-06    0.4690778  0.026411456            0   0.44266635    1.4676554    1.9367332    1.9963148 
13425000   0.94759041 9.3809344e-06   0.53695299  0.035641532            0   0.50131146    1.4036183    1.9405713    2.4208751 
13430000   0.98274216 7.2902949e-05   0.50676809 0.0089254503            0   0.49784264    1.4556868    1.9624549    5.6950859 
13435000    0.9947096 3.639061e-05   0.50163608  0.016911937            0   0.48472414    1.4734136    1.9750497    3.8382489 
13440000   0.99613249 -3.4491044e-05   0.46348962 0.0079481095            0   0.45554151    1.4755213    1.9390109   0.17306943 
13445000   0.99803561 -6.0610184e-05   0.47469523  0.010101026            0    0.4645942    1.4783403    1.9530355   -1.1502059 
13450000   0.99710519 1.1076729e-05   0.46296676  0.029221999            0   0.43374476    1.4769621    1.9399288    2.5070573 
13455000   0.94178826 -4.8374946e-05   0.52940899  0.012169212            0   0.51723978    1.3950239    1.9244328   -0.5523644 
13460000    1.0120581 8.9118753e-06   0.43043494  0.006317164            0   0.42411778    1.4991111     1.929546     2.385834 
13465000    0.9772876 6.1728159e-05   0.52421875 0.0013666612            0   0.52285209    1.4476073     1.971826    5.1323077 
13470000    1.0412729 8.060547e-07    0.4112899 0.0011310271            0   0.41015887    1.5423855    1.9536754    1.9949454 
13475000   0.98148836 -3.1247079e-06   0.50064658 0.0043744264            0   0.49627215    1.4538296    1.9544762    1.7944912 
13480000   0.97167598 0.00015284823    0.5311044   0.01359141            0   0.51751299    1.4392951    1.9703995    9.7962288 
13485000   0.97352851 0.00016500534   0.51318231  0.018781531            0   0.49440078    1.4420391    1.9552214    10.403495 
13490000    1.0032326 0.00010974041   0.44966192 0.0077071958            0   0.44195473    1.4860383    1.9357002     7.554409 
13495000   0.94949116 4.9681068e-05    0.5313732 0.0056624518            0   0.52571075    1.4064338     1.937807    4.4814777 
13500000   0.96725777 -1.1642134e-05   0.53118993 0.0088220234            0    0.5223679    1.4327506    1.9639405    1.3678633 
13505000   0.99617354 9.5378174e-06   0.46830239  0.020437654            0   0.44786474    1.4755821    1.9438844    2.4322207 
13510000   0.98162256 9.387975e-06   0.47936684  0.038417093            0   0.44094975    1.4540284    1.9333953    2.4140596 
13515000   0.92584532 1.0808594e-06    0.5718397 0.0094785352            0   0.56236117    1.3714084    1.9432481    1.9985881 
13520000   0.98924109 -4.8528385e-05   0.45679846  0.020139446            0   0.43665901    1.4653134    1.9221118   -0.5625415 
13525000    0.9730405 -7.6214417e-06   0.47994457  0.026990393            0   0.45295418    1.4413162    1.9212608     1.531043 
13530000   0.98894638 2.5763425e-05   0.47373969 0.0076336814            0   0.46610601    1.4648768    1.9386165    3.2577039 
13535000   0.99020016 -6.9109364e-05   0.48023305 0.0067590954            0   0.47347395     1.466734     1.946967   -1.5914324 
13540000   0.97378885 -5.959862e-05    0.5041865 0.0024405969            0    0.5017459    1.4424247    1.9466112   -1.1048381 
13545000    1.0145955 -4.6119697e-06   0.44299498 0.00061188679            0   0.44238309    1.5028696    1.9458646    1.7097317 
13550000    1.0084481 3.2346261e-05   0.46564891 0.0059413279            0   0.45970758    1.4937637    1.9594126    3.6155412 
13555000    0.9737951 2.8434991e-05   0.52676541  0.022483599            0   0.50428181     1.442434    1.9691994    3.4250709 
13560000    1.0303531 1.7478725e-05    0.4791609  0.038931984            0   0.44022891    1.5262105    2.0053714    2.9002821 
13565000    1.0175253 -1.1451433e-05    0.4699062  0.019171828            0   0.45073437    1.5072093    1.9771155    1.3908021 
13570000   0.96747767 -4.4644799e-05   0.53972291  0.013360826            0   0.52636208    1.4330763    1.9727992  -0.31301448 
13575000    1.0193442 8.5900573e-05    0.4461154 0.0049624527            0   0.44115295    1.5099036     1.956019    6.3541283 
13580000    1.0390293 3.8192158e-05   0.45553188 0.0034117341            0   0.45212014    1.5390622    1.9945941    3.9500325 
13585000    1.0117754 -7.5470416e-05   0.49426222 0.0099924086            0   0.48426981    1.4986924    1.9929546   -1.8711307 
13590000    1.0488621 -2.2612015e-05   0.43509437 0.0041640035            0   0.43093036     1.553627    1.9887214   0.83098623 
13595000    1.0983963 2.8402337e-05   0.40428557 0.0015575523            0   0.40272802    1.6269995    2.0312851    3.4854848 
13600000   0.94712065 7.0508068e-05   0.59862134 0.0050993549            0   0.59352198    1.4029225    2.0015438    5.6115569 
13605000    1.0203303 4.8692493e-05   0.46420268  0.011763524            0   0.45243916    1.5113643     1.975567    4.4686227 
13610000    1.0339054 -3.5762177e-05   0.43412895 0.0055081629            0   0.42862079    1.5314724    1.9656014   0.13457793 
13615000   0.99794783 3.1366161e-05   0.51104874 0.0018244501            0   0.50922429    1.4782102     1.989259    3.5952064 
13620000   0.97093226 -1.4283312e-06   0.54672397  0.010932257            0   0.53579172    1.4381934    1.9849174    1.9117868 
13625000    1.0211404 -3.9516498e-06   0.50930891  0.016616996            0   0.49269191    1.5125642    2.0218731    1.8195486 
13630000    1.0164348 -2.0076572e-05   0.53945289 0.0075261524            0   0.53192674     1.505594    2.0450469    1.0171265 
13635000    1.0227184 -1.8668651e-05   0.52448642  0.012390356            0   0.51209606    1.5149016     2.039388     1.083553 
13640000     0.993167 6.0911153e-06   0.54975618  0.072979922            0   0.47677626    1.4711286    2.0208848    2.3327499 
13645000    1.0159575 2.5018231e-05   0.52439582  0.053775439            0   0.47062038     1.504887    2.0292828    3.3102163 
13650000   0.98996593 -3.9197293e-05   0.54656433  0.027048284            0   0.51951604     1.466387    2.0129514 0.0060499397 
13655000    1.1000558 -7.4630806e-05   0.38141733  0.014122445            0   0.36729489    1.6294577     2.010875   -1.8102222 
13660000    0.9944909 2.8914959e-05    0.5222473  0.091379405            0   0.43086789    1.4730896    1.9953369    3.4757829 
13665000   0.98058205 9.4113465e-06   0.55241683  0.032954823            0     0.519462    1.4524872     2.004904    2.4867649 
13670000    1.0066587 8.0138659e-05   0.53752356 0.0076990914            0   0.52982447    1.4911132    2.0286367    6.1317361 
13675000    1.0087316 1.8242579e-05    0.5063654  0.029618453            0   0.47674695    1.4941837    2.0005491    2.9345692 
13680000    1.0564385 -3.6071161e-05   0.45770295  0.043628591            0   0.41407436    1.5648496    2.0225525   0.17570912 
13685000   0.94469685 0.00010688356   0.61910179  0.064458647            0   0.55464314    1.3993322     2.018434    7.4908724 
13690000    0.9911349 3.695253e-05   0.57384398  0.018361663            0   0.55548232    1.4681186    2.0419625    3.9339321 
13695000    1.0453291 -5.1028755e-05   0.48463778 0.00045696832            0   0.48418081    1.5483937    2.0330315   -0.5796408 
13700000    1.1019914 -7.7650775e-06   0.41127389 0.0026833856            0   0.40859051    1.6323248    2.0435987    1.6460267 
13705000    1.1026294 7.1326535e-05   0.43104073  0.015904262            0   0.41513647    1.6332699    2.0643106    5.7162292 
13710000    1.0094393 8.947446e-05   0.53952844 0.0099968086            0   0.52953164    1.4952319    2.0347604    6.6158527 
13715000    1.0385611 -1.1322723e-05   0.48022101 0.0033002964            0   0.47692071    1.5383687    2.0185897    1.4388663 
13720000     1.110234 1.1851335e-05   0.38094577 0.0045464425            0   0.37639933    1.6445341    2.0254799    2.6322682 
13725000   0.98478758 0.00011576602   0.53539664   0.01396446            0   0.52143218    1.4587166    1.9941132    7.9213336 
13730000    1.0492069 2.2950433e-05   0.41010262  0.016869533            0   0.39323308    1.5541378    1.9642404    3.1393026 
13735000    1.0011051 -0.00015802412   0.47751119  0.010198882            0   0.46731231    1.4828869    1.9603981    -6.130437 
13740000    1.0282691 -6.0217354e-05   0.48000605  0.002141886            0   0.47786416    1.5231237    2.0031297   -1.0799988 
13745000    1.0113117 0.00014945756   0.50768205 0.0018655574            0   0.50581649    1.4980055    2.0056875    9.6579147 
13750000    1.0335029 0.00012118938   0.49665319   0.01778099            0    0.4788722    1.5308762    2.0275294    8.2324254 
13755000    1.0134304 1.2007872e-05   0.54516894  0.032597236            0    0.5125717    1.5011438    2.0463128    2.6611158 
13760000    1.0786189 3.7075555e-05   0.42309872 0.00085572422            0     0.422243    1.5977043     2.020803    3.9190714 
13765000    1.0662494 2.3328899e-05    0.4320231  0.000993444            0   0.43102966    1.5793819     2.011405    3.2058446 
13770000   0.97647517 -5.1568132e-05    0.5741694  0.013974432            0   0.56019496    1.4464038    2.0205732  -0.61971512 
13775000   0.98529275 6.8447656e-05   0.56823589  0.033245892            0      0.53499    1.4594649    2.0277008    5.5322208 
13780000    1.0989411 0.00014994651   0.41636488  0.027450281            0    0.3889146    1.6278065    2.0441714    9.7214327 
13785000    1.0937216 -5.3580508e-06   0.42112568  0.011689016            0   0.40943666    1.6200752    2.0412009    1.7668686 
13790000   0.98914813 -5.4637711e-05   0.55567023  0.044681575            0   0.51098865    1.4651757    2.0208459   -0.7766049 
13795000   0.99522854 9.6974303e-06   0.55461213  0.032113542            0   0.52249859    1.4741823    2.0287944    2.5253028 
13800000     1.033343 1.2550631e-06    0.5040123 0.0094638826            0   0.49454842    1.5306393    2.0346516    2.0989108 
13805000    1.1340513 -4.3685672e-05   0.36530228  0.011588061            0   0.35371422    1.6798135    2.0451158  -0.19159063 
13810000    1.0597086 -5.0433337e-05   0.49724298 0.0091621559            0   0.48808083    1.5696933    2.0669363  -0.51525052 
13815000    1.0517541 5.5620218e-06   0.49329648 0.0015425661            0   0.49175391    1.5579108    2.0512073    2.3359828 
13820000    1.0814197 1.4121762e-05   0.46264505  0.014258159            0   0.44838689     1.601853     2.064498    2.7875322 
13825000      1.04694 -3.7664269e-05   0.52847757  0.032550453            0   0.49592711    1.5507799    2.0792574   0.15084689 
13830000    1.1137591 -4.1123099e-05   0.43503643  0.009698398            0   0.42533804    1.6497557    2.0847922 -0.020710505 
13835000    1.0302298 -6.712453e-05   0.57905064  0.011261089            0   0.56778955    1.5260279    2.1050786   -1.3316974 
13840000    1.1301288 1.9844136e-05   0.43302684  0.025725837            0     0.407301    1.6740033    2.1070302    3.1230499 
13845000    1.0161113 3.9667307e-05   0.57880521   0.03525827            0   0.54354694    1.5051149    2.0839201    4.1148862 
13850000    1.0856049 4.0969086e-05   0.50064612  0.022751587            0   0.47789453    1.6080523    2.1086984    4.2063156 
13855000    1.1270803 -1.3973659e-05   0.43263604  0.027899752            0   0.40473629    1.6694878    2.1021238    1.3866725 
13860000   0.99781017 7.9352719e-05   0.61695828  0.050811686            0   0.56614659    1.4780063    2.0949646    6.1578238 
13865000    1.0336966 -4.7417709e-05   0.55081177  0.059345115            0   0.49146665    1.5311632    2.0819749  -0.34581175 
13870000    1.0654793 2.0336364e-06   0.53580967  0.025772434            0   0.51003724    1.5782412    2.1140509    2.2181731 
13875000    1.0326862 0.00011230834   0.58904178  0.013568634            0   0.57547315    1.5296664    2.1187082    7.8688951 
13880000    1.1207678 -4.8222808e-05   0.48426017 0.0094689207            0   0.47479125    1.6601373    2.1443975  -0.32461026 
13885000    1.2018823 6.9748837e-06   0.38090085 0.0033804464            0    0.3775204    1.7802881     2.161189     2.518303 
13890000    1.0327859 8.5750543e-05   0.63648089 0.0077047564            0   0.62877614    1.5298141     2.166295    6.5567228 
13895000    1.1389763 -7.5531363e-05   0.47804481  0.018241935            0   0.45980288    1.6871086    2.1651534   -1.7020523 
13900000     1.059949 -5.578555e-05   0.56114637  0.013063229            0   0.54808314    1.5700495    2.1311959  -0.72502426 
13905000    1.0098397 7.9473903e-05    0.6403958  0.015197451            0   0.62519835     1.495825    2.1362208    6.2052847 
13910000    1.1084954 4.1731456e-06   0.52120577  0.023789852            0   0.49741592    1.6419588    2.1631645    2.3768296 
13915000    1.1256293 -3.6085477e-05   0.50449375  0.031401614            0   0.47309213    1.6673384    2.1718322   0.32425575 
13920000    1.1384776 6.9021368e-06   0.47654059  0.012445776            0   0.46409482      1.68637    2.1629106       2.5163 
13925000     1.106998 -5.0168624e-05   0.49840588 0.0053418816            0     0.493064    1.6397408    2.1381467  -0.43048687 
13930000    1.0944643 -6.1731962e-05   0.52313521  0.010163251            0   0.51297196    1.6211753    2.1443105    -1.016366 
13935000     1.017196 9.2408183e-05   0.59594191   0.02818303            0   0.56775888    1.5067216    2.1026635    6.8339625 
13940000    1.0888569 1.7536062e-05   0.48268014  0.040772298            0   0.44190784    1.6128693    2.0955495    2.9933959 
13945000    1.0790529 1.3931753e-05   0.50814337  0.051796839            0   0.45634653    1.5983471    2.1064904    2.8197962 
13950000     1.008563 0.00015802596   0.63755061   0.07197644            0   0.56557417    1.4939339    2.1314846    10.222414 
13955000    1.0115449 -2.8285035e-05   0.60241838  0.040772189            0   0.56164619    1.4983509    2.1007692   0.65257544 
13960000    1.0747326 -7.9289172e-06   0.48082488  0.032499931            0   0.44832495    1.5919476    2.0727725     1.666812 
13965000    1.1392012 3.3226968e-05    0.3619224  0.012138978            0   0.34978342    1.6874417    2.0493641    3.7505849 
13970000    1.0790439 7.9655114e-06   0.43459335 0.0044417216            0   0.43015163    1.5983338    2.0329271    2.4407613 
13975000    1.0913409 4.1936249e-05   0.42483289 0.0063958364            0   0.41843706    1.6165487    2.0413816    4.1885175 
13980000    1.0612108 -0.00011805907    0.4640713  0.027114993            0   0.43695631    1.5719185    2.0359898   -4.0086343 
13985000    1.0278569 6.3971252e-06   0.51763251  0.023234293            0   0.49439822     1.522513    2.0401455    2.3676783 
13990000     1.155741 3.1458681e-05    0.3310855 0.0041080777            0   0.32697742    1.7119414    2.0430269    3.6537114 
13995000     1.069935 -4.0059523e-05   0.42428948  0.011765475            0   0.41252401    1.5848413    2.0091307 -0.041916841 
14000000    1.0252418 -5.249212e-05    0.4950877  0.015669991            0    0.4794177    1.5186395    2.0137272  -0.67386934 
14005000    1.1105873 8.015297e-05   0.40985254  0.017439479            0   0.39241306    1.6450574    2.0549099     6.158742 
14010000    1.1085244 8.8654369e-05   0.43330893   0.03077839            0   0.40253054    1.6420018    2.0753108    6.6144145 
14015000    1.0605239 7.3776488e-05   0.50150589  0.027823394            0    0.4736825     1.570901    2.0724069    5.8497631 
14020000    1.1119363 8.1257636e-06   0.39979537  0.025727314            0   0.37406806    1.6470557    2.0468511    2.4628902 
14025000    1.0602585 -2.7435203e-05   0.45995787  0.023330445            0   0.43662742    1.5705079    2.0304658   0.62578336 
14030000     1.027386 3.4114911e-05   0.51242812   0.01931671            0   0.49311141    1.5218156    2.0342437    3.7809271 
14035000    1.0089981 -9.3757982e-05   0.54202183 0.0066179871            0   0.53540384    1.4945784    2.0366002   -2.7638084 
14040000      1.02066 -1.5052207e-06   0.50865478  0.005657416            0   0.50299737    1.5118527    2.0205075    1.9434402 
14045000    1.0114863 5.7571121e-05    0.5351588 0.0060825258            0   0.52907627    1.4982641    2.0334229    4.9810643 
14050000   0.98163211 -2.949072e-05   0.52749104 0.0017766212            0   0.52571442    1.4540426    1.9815336   0.47160875 
14055000    1.0678406 -3.4895842e-05   0.38609062 0.00063983891            0   0.38545078    1.5817389    1.9678295    0.1811624 
14060000   0.99034831 -6.5907974e-05   0.52605102 0.0047995589            0   0.52125146    1.4669534    1.9930044   -1.3814838 
14065000   0.96001364 -8.1446599e-05   0.54301697  0.032462126            0   0.51055484    1.4220202    1.9650372   -2.2050287 
14070000   0.96921727 7.2920791e-06   0.50613193  0.011923636            0   0.49420829    1.4356531     1.941785    2.3151395 
14075000   0.95585783 4.2123896e-06   0.51220592  0.018777267            0   0.49342865    1.4158644    1.9280703    2.1437447 
14080000   0.99862661 -7.5561913e-05   0.46899253  0.012547515            0   0.45644502    1.4792157    1.9482082   -1.9205618 
14085000    1.0026092 -2.6494462e-06   0.43502711 0.0051294208            0   0.42989769    1.4851149     1.920142    1.7844904 
14090000   0.98080251 9.900773e-05   0.46983581 0.0049181958            0   0.46491762    1.4528137    1.9226495    6.9918453 
14095000    1.0043852 -7.499236e-05   0.42905421 0.0031866485            0   0.42586756    1.4877455    1.9167998    -1.922809 
14100000    1.0198417 -7.4287172e-05   0.40782024 0.0024808254            0   0.40533941    1.5106405    1.9184608   -1.8850424 
14105000   0.94340132 4.1634555e-05   0.51658101  0.005032847            0   0.51154816    1.3974132    1.9139942    4.0456834 
14110000   0.94896154 7.324362e-06   0.48392954  0.018193377            0   0.46573617    1.4056493    1.8895788    2.2645862 
14115000   0.96787738 5.8317601e-05   0.46509264   0.04985706            0   0.41523558    1.4336684     1.898761    4.8846222 
14120000   0.93543951 5.4098575e-06   0.51714678  0.075386078            0   0.44176071    1.3856198    1.9027666    2.1797513 
14125000   0.98557352 0.00017810701   0.42150413   0.04724694            0   0.37425719    1.4598808    1.8813849    11.000464 
14130000   0.99514619 -7.6432204e-05   0.42766641  0.045153874            0   0.38251254    1.4740603    1.9017267   -2.0116021 
14135000    1.0277327 -5.9164456e-05   0.37175672    0.0199728            0   0.35178392    1.5223291    1.8940858   -1.1351343 
14140000    1.0361677 0.00012947146   0.35750646 0.0080085887            0   0.34949787    1.5348234    1.8923299    8.5212685 
14145000    1.0210064 0.00012076968   0.38790523 0.0080451821            0   0.37986005    1.5123657     1.900271    8.0836785 
14150000   0.97788426 2.0495259e-05   0.46288388  0.014608829            0   0.44827505    1.4484911    1.9113749    2.9607322 
14155000   0.93838051 6.8977367e-05   0.50246414  0.042004626            0   0.46045952    1.3899761    1.8924403    5.4240815 
14160000    1.0176984 9.142169e-05    0.4156246  0.019257518            0   0.39636709    1.5074657    1.9230903    6.6038808 
14165000    1.0016419 -0.00010158727   0.43057212  0.012855476            0   0.41771664     1.483682    1.9142542   -3.2870141 
14170000   0.94528199 -0.00016391142    0.4653024 0.0024353947            0   0.46286701    1.4001989    1.8655014   -6.5267633 
14175000   0.93231214 -6.9996879e-06   0.47798186 0.00069626208            0    0.4772856    1.3809874    1.8589692    1.5005852 
14180000   0.93100647 8.4891863e-05   0.49236098 0.0045350804            0   0.48782589    1.3790533    1.8714143    6.2178777 
14185000   0.99911303 3.0068368e-05   0.41492968  0.012960296            0   0.40196939    1.4799362    1.8948659    3.4343663 
14190000    1.0384003 -8.593488e-05   0.39880867 0.0080025166            0   0.39080615    1.5381304    1.9369391   -2.4629267 
14195000   0.95585867 -7.4220962e-05   0.49178552 0.0062417104            0   0.48554381    1.4158656    1.9076512   -1.8924621 
14200000   0.96481454 -3.9753944e-06   0.49807685  0.022342293            0   0.47573456    1.4291315    1.9272084    1.7236682 
14205000   0.93378255 7.3983427e-05   0.51867129  0.042302395            0    0.4763689    1.3831654    1.9018367    5.6897881 
14210000   0.95040183 3.2521299e-05   0.49664363  0.047998958            0   0.44864468    1.4077827    1.9044263    3.5695168 
14215000   0.95542307 -3.2768765e-05   0.48135817  0.018585413            0   0.46277276    1.4152204    1.8965786   0.21881782 
14220000    1.0212285 1.9987198e-05   0.35894788 0.00051627044            0   0.35843161    1.5126947    1.8716426    2.8949871 
14225000   0.94884069 2.2535597e-05   0.46807237 0.00048865421            0   0.46758372    1.4054703    1.8735426    3.0273652 
14230000   0.98081346 1.1999446e-05   0.45197778 0.00024851982            0   0.45172926    1.4528299    1.9048077    2.5191794 
14235000   0.96959241 -3.5057399e-05    0.4610364 0.0026361911            0   0.45840021    1.4362088    1.8972452   0.10230633 
14240000   0.84741064 -0.00012122522     0.640715 0.0067242211            0   0.63399078     1.255227     1.895942   -4.3107894 
14245000   0.92908441 -6.4787738e-05   0.56199904  0.026764294            0   0.53523474    1.3762063    1.9382053   -1.3789269 
14250000   0.96466635 5.3076678e-06   0.48892458  0.020230262            0   0.46869432     1.428912    1.9178366    2.1895892 
14255000   0.97246715 5.5977732e-05   0.50015372  0.010304573            0   0.48984915     1.440467    1.9406207    4.8066806 
14260000    0.9476952 -2.8774222e-05   0.56002158  0.036506723            0   0.52351485    1.4037735    1.9637951   0.49055491 
14265000   0.97754999 4.6704277e-05   0.51928397  0.025245742            0   0.49403823    1.4479959    1.9672799    4.3585388 
14270000    1.0270308 1.6022672e-05   0.48633074 0.0035197736            0   0.48281097    1.5212893      2.00762    2.8279809 
14275000    1.0286482 -6.2530687e-05   0.49452132  0.013238234            0   0.48128309    1.5236852    2.0182065   -1.1833647 
14280000    1.0319613 -7.3773562e-05   0.50885683  0.012344165            0   0.49651266    1.5285927    2.0374495   -1.7397569 
14285000    1.0049091 -5.0411563e-05   0.54884232 0.0053035605            0   0.54353876    1.4885216    2.0373639  -0.54370807 
14290000    1.0295175 -5.1394747e-05   0.53938541  0.018659612            0    0.5207258    1.5249728    2.0643582  -0.56705279 
14295000    1.0688394 -4.7445363e-05   0.47617285  0.030069261            0   0.44610359    1.5832184    2.0593912  -0.36981135 
14300000    1.1117021 1.8919206e-05   0.43499882  0.013644776            0   0.42135404    1.6467087    2.0817075    3.0503708 
14305000    1.0223093 -1.6796253e-06   0.54506565  0.022557175            0   0.52250847    1.5142957    2.0593613    1.9733645 
14310000    1.0562049 -0.00012561538   0.50036469  0.015657984            0   0.48470671    1.5645036    2.0648683   -4.3666391 
14315000    1.1184322 -5.4610446e-05   0.38787206 0.0010106422            0   0.38686142    1.6566777    2.0445497  -0.75150509 
14320000    1.1042172 2.8951711e-05   0.42815226 0.00014563891            0   0.42800662    1.6356217     2.063774    3.5461016 
14325000    1.0395019 9.1529156e-05   0.50668249 0.0012493814            0   0.50543311    1.5397621    2.0464446    6.7327374 
14330000    1.0101159 5.3619579e-05   0.55142355 0.0086018299            0   0.54282172    1.4962342    2.0476578    4.7929802 
14335000    1.1017953 -6.3814107e-05   0.40700269  0.013267129            0   0.39373556    1.6320343     2.039037   -1.2282453 
14340000    1.0429273 3.8853988e-05    0.4909292  0.013089762            0   0.47783944    1.5448361    2.0357653    4.0250895 
14345000   0.96044533 6.2523686e-05   0.61219822  0.017792381            0   0.59440584    1.4226596    2.0348579    5.2360706 
14350000    1.0184174 0.00012727522   0.54798494  0.012981412            0   0.53500352    1.5085308    2.0565158    8.5730071 
14355000    1.1003215 -4.0819641e-05   0.43988809   0.01884289            0    0.4210452    1.6298513    2.0697394 -0.020226236 
14360000    1.1028713 -0.00011621933    0.3886631  0.023473578            0   0.36518952    1.6336282    2.0222913   -3.9281385 
14365000    1.0339968 2.0621521e-05   0.50414803 0.0033715197            0   0.50077651    1.5316078    2.0357558    3.0915777 
14370000    1.0358659 4.6809451e-05   0.51239468 0.0060494289            0   0.50634525    1.5343764    2.0467711     4.443415 
14375000    1.0759581 7.9425858e-05    0.4578886  0.014391524            0   0.44349708     1.593763    2.0516516    6.1182555 
14380000    1.0633128 0.00015818249   0.49365926 0.0094802714            0   0.48417899    1.5750321    2.0686914    10.167635 
14385000    1.0692436 0.0001051405   0.48423938  0.039336901            0   0.44490247    1.5838171    2.0680565    7.4512501 
14390000     1.147135 -5.8327814e-05   0.38677868  0.014789163            0   0.37198952    1.6991937    2.0859724  -0.90041167 
14395000    1.0028028 -0.00015291188   0.58819621 0.0034906124            0    0.5847056    1.4854017    2.0735979   -5.7554904 
14400000    1.0457407 -4.8692733e-05   0.50152124 0.0056583138            0   0.49586292    1.5490034    2.0505247  -0.44254325 
14405000     1.028258 0.00011328629   0.54567809  0.070236759            0   0.47544133    1.5231071    2.0687852    7.8690434 
14410000    1.0977286 4.7347761e-05   0.45193125  0.037104441            0   0.41482681    1.6260105    2.0779418    4.5021471 
14415000    1.0224608 -3.9015025e-05   0.53195041  0.019071464            0   0.51287895    1.5145201    2.0464705  0.048901245 
14420000    1.0018535 -5.3651999e-05   0.57921544  0.015373378            0   0.56384206    1.4839956     2.063211  -0.68377135 
14425000    1.1782336 -9.6201884e-05   0.36187281 0.0034040827            0   0.35846873    1.7452585    2.1071314   -2.8184051 
14430000    1.1280741 -4.0610572e-05   0.40307394  0.009244111            0   0.39382983    1.6709598    2.0740337 -0.0052276103 
14435000   0.97410612 8.9456407e-05   0.60457495  0.026922315            0   0.57765264    1.4428947    2.0474696    6.6276377 
14440000    1.0611742 0.00013284632   0.47373831  0.019471382            0   0.45426693    1.5718643    2.0456026     8.847334 
14445000    1.0480954 -1.1597601e-05   0.50846837 0.0098670099            0   0.49860136    1.5524914    2.0609598    1.4671626 
14450000    1.0434044 -9.6765117e-05   0.51879081  0.016328191            0   0.50246262    1.5455428    2.0643336   -2.8900404 
14455000    1.0696249 -9.2010149e-05   0.45287214 0.0078728395            0    0.4449993    1.5843818     2.037254   -2.6736656 
14460000   0.96241287 -8.0849066e-05   0.60645039  0.013208049            0   0.59324234    1.4255741    2.0320244   -2.1074477 
14465000    1.0712296 5.0862222e-05   0.41520453   0.01246177            0   0.40274276    1.5867589    2.0019634    4.6061092 
14470000    1.0369335 4.2954646e-06   0.49004546   0.04889232            0   0.44115314    1.5359578    2.0260032     2.245931 
14475000   0.96400298 -9.9362895e-06   0.57484182   0.09558523            0   0.47925659    1.4279294    2.0027712    1.4940332 
14480000    1.0242079 3.2292887e-05   0.45710053  0.011027878            0   0.44607265    1.5171079    1.9742084    3.6276042 
14485000   0.95333645 4.3558128e-05   0.59044305  0.029608067            0   0.56083499    1.4121296    2.0025727    4.2327488 
14490000     1.097356 7.177811e-05   0.37905963  0.047444071            0   0.33161556    1.6254586    2.0045182    5.6795574 
14495000    1.0947992 -4.9271906e-05   0.38569031  0.032242114            0    0.3534482    1.6216713    2.0073616  -0.51535998 
14500000    1.0271965 -5.9647791e-05    0.4673346    0.0346295            0    0.4327051    1.5215348    1.9888694   -1.0650975 
14505000    0.9966316 -2.441467e-05   0.53153695  0.013992304            0   0.51754464    1.4762606    2.0077975   0.75776639 
14510000    1.0963309 -2.737601e-05   0.40359388 0.0022055715            0    0.4013883    1.6239401     2.027534   0.62588229 
14515000    1.0178208 -1.1019956e-06   0.51245067  0.010516867            0    0.5019338    1.5076471    2.0200978    1.9636756 
14520000    1.0381905 -2.037968e-05   0.46653989   0.02707842            0   0.43946147    1.5378196    2.0043595    0.9609199 
14525000   0.94624503 4.7072107e-05    0.6009183  0.022942822            0   0.57797548    1.4016255    2.0025438    4.4126356 
14530000    1.0467397  8.13221e-05   0.43130687 0.0054852279            0   0.42582164    1.5504833    1.9817901    6.1454816 
14535000   0.98036684 6.1571533e-05   0.53071186 0.0067510162            0   0.52396085    1.4521684    1.9828802    5.1353427 
14540000   0.99848645 -2.1013057e-05   0.48826352  0.023745785            0   0.46451773    1.4790081    1.9672716   0.89140307 
14545000   0.97566976 -9.0547527e-05   0.50881866  0.051885501            0   0.45693316    1.4452108    1.9540295   -2.6820039 
14550000   0.99671867 -3.5565819e-05   0.49544782  0.020255775            0   0.47519204    1.4763895    1.9718373   0.15086743 
14555000   0.95621245 -0.00010874775   0.55681609  0.056476344            0   0.50033974    1.4163897    1.9732058   -3.5946788 
14560000   0.95802789 -0.00010145172   0.58295196  0.061464208            0   0.52148775    1.4190788    2.0020308   -3.1922973 
14565000    1.0264988 -2.3091331e-05   0.51409672   0.05291392            0    0.4611828    1.5205013     2.034598   0.85232185 
14570000    1.0807568 2.1810679e-05   0.45122824  0.032816964            0   0.41841128     1.600871    2.0520992     3.168806 
14575000    0.9678121 0.00013500719   0.60837995  0.043033446            0   0.56534651    1.4335717    2.0419516    8.9543195 
14580000    1.0083046 0.00011006016   0.54664193   0.08143362            0   0.46520831    1.4935512    2.0401932    7.6752731 
14585000    1.0193419 -3.0213613e-05   0.51190857  0.020609725            0   0.49129885    1.5099001    2.0218087   0.47487172 
14590000    1.0953535 -0.00010886816   0.38880462  0.018591989            0   0.37021263    1.6224924     2.011297    -3.562753 
14595000    1.0239934 -6.9946607e-05   0.49023061  0.018003894            0   0.47222671    1.5167903    2.0070209   -1.5742454 
14600000   0.97521758 -8.400758e-05    0.5653988  0.030948259            0   0.53445054     1.444541    2.0099398   -2.2912482 
14605000    1.0694798 -3.8445358e-05   0.42286882  0.039746876            0   0.38312195     1.584167    2.0070358  0.038633459 
14610000    1.0116952 -4.730447e-05   0.50531507  0.029098629            0   0.47621644    1.4985735    2.0038886  -0.41810029 
14615000     1.027667 -8.7070205e-05   0.45701628  0.026138095            0   0.43087819    1.5222318    1.9792481   -2.4787464 
14620000    0.9906332 0.00011493214   0.50257622  0.039743703            0   0.46283252    1.4673754    1.9699516    7.8544771 
14625000    1.0108695 0.00010908579   0.46238502   0.02857328            0   0.43381174    1.4973505    1.9597355    7.5449279 
14630000    1.0081266 -4.7533957e-05   0.47551779  0.036983456            0   0.43853433    1.4932875    1.9688053  -0.46493336 
14635000   0.98019488 -5.3459099e-05   0.51111982  0.034663496            0   0.47645633    1.4519137    1.9630335   -0.7740724 
14640000   0.93255329 -9.3074563e-05   0.58265082  0.028138214            0   0.55451261    1.3813446    1.9639954   -2.8014222 
14645000   0.94341647 -0.00015719324    0.5747004  0.022791379            0   0.55190902    1.3974356    1.9721361   -6.0761577 
14650000    1.0061205 2.036905e-05   0.50286639 0.0088260965            0   0.49404029     1.490316    1.9931823    3.0360777 
14655000    1.0166524 6.7299775e-05   0.47604148  0.014013431            0   0.46202804    1.5059163    1.9819578    5.4277063 
14660000    1.0436087 4.2582165e-06   0.43454967  0.026470231            0   0.40807944    1.5458454    1.9803951    2.1984157 
14665000   0.98947717 9.4548698e-05   0.51821983  0.021656134            0    0.4965637    1.4656631    1.9838829    6.8247762 
14670000   0.99813748 0.00010271893   0.53752145    0.0241899            0   0.51333155    1.4784911    2.0160126    7.2752219 
14675000     1.027232 -2.6427826e-05   0.49376357  0.018107948            0   0.47565562    1.5215874    2.0153509   0.66224625 
14680000    1.0630383 -9.7653323e-05   0.45106457  0.010362402            0   0.44070217    1.5746254      2.02569   -2.9741601 
14685000    1.0375608 -5.331361e-05   0.49638078 0.0066937139            0   0.48968706    1.5368869    2.0332677  -0.69638909 
14690000    1.0961967 2.6647745e-05   0.39201857 0.0070745576            0   0.38494401    1.6237413    2.0157599    3.3801245 
14695000    1.0102758 0.00012435088   0.51205242  0.015517677            0   0.49653474    1.4964711    2.0085235    8.3752884 
14700000    1.0009189 8.5793396e-05   0.51203467  0.043817678            0   0.46821699    1.4826112    1.9946458    6.3872677 
14705000   0.98733343 -1.809964e-05   0.51067104  0.046300737            0   0.46437031    1.4624876    1.9731587    1.0464571 
14710000   0.98096203 -7.0124046e-05   0.54021803  0.024984826            0    0.5152332      1.45305     1.993268   -1.5970831 
14715000   0.93146495 -0.00013428667   0.62944328  0.016743462            0   0.61269982    1.3797325    2.0091757   -4.8663019 
14720000     1.081368 -0.00011257337   0.40144678  0.010276227            0   0.39117056    1.6017764    2.0032232   -3.7605335 
14725000    1.0791621 -4.7339785e-05   0.42058131  0.029532191            0   0.39104912    1.5985089    2.0190902  -0.40470678 
14730000   0.98194433 5.8631131e-05    0.5763358  0.063264563            0   0.51307123     1.454505    2.0308408    5.0327548 
14735000     1.044663 9.9926376e-05    0.4611703   0.03556216            0   0.42560814    1.5474071    2.0085774    7.1248078 
14740000   0.96336304 6.2278097e-05   0.60773491  0.035205122            0   0.57252979    1.4269815    2.0347164     5.223355 
14745000   0.97933622 0.0001467763   0.57489199  0.020068092            0    0.5548239    1.4506418    2.0255338    9.5404802 
14750000    1.0672627 0.00012286342    0.4663664  0.015138443            0   0.45122795    1.5808828    2.0472492    8.3378561 
14755000    1.0646175 4.0049648e-06   0.46617787  0.012502098            0   0.45367577    1.5769647    2.0431426    2.2481968 
14760000    1.0353359 -1.3123028e-05   0.52091029  0.023907479            0   0.49700281    1.5335913    2.0545016    1.3826025 
14765000    1.0387258 7.0283793e-05   0.50873488  0.028410112            0   0.48032477    1.5386126    2.0473475    5.6458777 
14770000    1.0488299 7.2593433e-05    0.4680594  0.042629796            0    0.4254296    1.5535793    2.0216387    5.7384225 
14775000   0.96056709 -2.8876441e-06   0.59115783  0.058407938            0    0.5327499      1.42284    2.0139978    1.8661505 
14780000     1.026337 -2.6682293e-05   0.46741013  0.036161946            0   0.43124819    1.5202617    1.9876718   0.62153839 
14785000   0.99147035 -9.6526469e-05   0.50591452  0.023787133            0   0.48212739    1.4686155      1.97453   -2.9676252 
14790000   0.98097332 -0.00011262989   0.51061467  0.013679173            0   0.49693549    1.4530667    1.9636814   -3.8029688 
14795000    1.0030681 -4.2594481e-05    0.4854799   0.02286421            0   0.46261569    1.4857945    1.9712745  -0.20956296 
14800000   0.96798405 -1.4616121e-06   0.51877287  0.031576439            0   0.48719643    1.4338264    1.9525992    1.8777647 
14805000   0.94829242 2.7824715e-05   0.54167239  0.024434237            0   0.51723815    1.4046582    1.9463305     3.370956 
14810000   0.96130452 9.3177316e-06   0.54857437  0.022559904            0   0.52601447    1.4239323    1.9725067    2.4495745 
14815000   0.92813181 -2.3451921e-05   0.60013323  0.051054561            0   0.54907867    1.3747952    1.9749285   0.77419014 
14820000    1.0181058 -6.179462e-05   0.44313288 0.0067100537            0   0.43642282    1.5080692    1.9512021   -1.2126824 
14825000    1.0199693 -6.0504936e-05   0.42337151 0.0032607244            0   0.42011079    1.5108295     1.934201   -1.1636517 
14830000    1.0087199 -4.4835488e-05   0.45034248 0.00081268466            0    0.4495298    1.4941664    1.9445089   -0.3510681 
14835000    1.0043808 -5.087605e-05   0.49600678 0.00090786367            0   0.49509891     1.487739    1.9837458  -0.62110792 
14840000   0.96455158 -3.4228954e-05   0.56030587 0.0073031508            0   0.55300272     1.428742    1.9890479   0.23652544 
14845000    1.0098757 -1.6662987e-05   0.48305196  0.034662864            0   0.44838909    1.4958783    1.9789303    1.1257853 
14850000   0.93393943 7.8974801e-05   0.58645221  0.056052526            0   0.53039969    1.3833978      1.96985    6.0133598 
14855000    0.9390992 8.8817917e-05   0.58064369 0.0058481886            0   0.57479551    1.3910407    1.9716844    6.5191617 
14860000    1.0154498 -7.7240716e-06   0.47204029  0.042601583            0   0.42943871     1.504135    1.9761753    1.5807028 
14865000   0.99585506 3.5069167e-05   0.52181149  0.023337082            0   0.49847441    1.4751103    1.9969218    3.7924632 
14870000   0.96046958 4.8747663e-05   0.58826385  0.011776359            0   0.57648749    1.4226956    2.0109594    4.5068397 
14875000    1.0236688 5.7303381e-06   0.49511074  0.014344849            0    0.4807659    1.5163094    2.0114201    2.3048134 
14880000    1.0106197 -2.4953084e-06   0.54823301  0.016537215            0   0.53169579    1.4969805    2.0452135    1.9174537 
14885000   0.93829085 -3.9616712e-05   0.66753928  0.029770001            0   0.63776928    1.3898433    2.0573826  0.029006938 
14890000    1.0260054 -5.7795615e-05   0.55387674  0.046823591            0   0.50705315    1.5197704    2.0736472  -0.88548829 
14895000    1.0269997 1.8036331e-05   0.52866184  0.023941927            0   0.50471992    1.5212434    2.0499052    2.9733654 
14900000   0.97648665 9.1972932e-05   0.58583504 0.0091395014            0   0.57669554    1.4464208    2.0322559      6.74127 
14905000    1.0036296 5.5709527e-05   0.55735037  0.014298808            0   0.54305156    1.4866263    2.0439767    4.8963045 
14910000    1.0160457 2.9033553e-06   0.50090577  0.026535713            0   0.47437006    1.5050177    2.0059235    2.1545753 
14915000   0.89913722 3.6838702e-05    0.6611452  0.033700504            0    0.6274447     1.331847    1.9929922    3.8791337 
14920000   0.96514396 0.00011778209   0.55345626  0.008602557            0   0.54485371    1.4296195    1.9830758     8.013519 
14925000   0.94525434 -2.0993441e-05   0.60315827 0.0075989032            0   0.59555937     1.400158    2.0033163   0.92845207 
14930000   0.95967089 -9.4335944e-05   0.54848885  0.016092102            0   0.53239675    1.4215125    1.9700014    -2.859999 
14935000   0.94335094 -3.0059116e-05   0.56259208 0.0039875589            0   0.55860452    1.3973386    1.9599306    0.4209039 
14940000   0.87201366 1.3324988e-05   0.69890907  0.012193442            0   0.68671563    1.2916702    1.9905793    2.6728187 
14945000   0.96920237 -8.8982434e-05   0.56748843  0.022313309            0   0.54517512     1.435631    2.0031194   -2.5527812 
14950000   0.97977741 -0.00013812554   0.54780993  0.010719059            0   0.53709087    1.4512953    1.9991052   -5.0729224 
14955000   0.91875227 3.3389012e-05   0.64069205 0.0055500411            0   0.63514201    1.3609018    2.0015939    3.7111113 
14960000   0.95973599 6.2031639e-05   0.57504902  0.012417338            0   0.56263169    1.4216089     1.996658    5.1726779 
14965000    1.0307574 -1.8818508e-05   0.48195552 0.0089597016            0   0.47299582    1.5268094    2.0087649    1.0452573 
14970000    1.0170658 -3.1272019e-05   0.51145391  0.004116276            0   0.50733764    1.5065287    2.0179826   0.41685519 
14975000   0.93637371 3.872847e-05   0.65315487   0.01484687            0     0.638308    1.3870036    2.0401584    4.0230561 
14980000   0.93339757 0.00011859053   0.65395846  0.052413052            0   0.60154541    1.3825952    2.0365536    8.1083887 
14985000   0.89945551 1.8985869e-05   0.67614504      0.01876            0   0.65738505    1.3323185    2.0084635      2.98054 
14990000   0.99397455 -7.5100907e-05   0.54313994 0.0048643935            0   0.53827554    1.4723248    2.0154647   -1.8297017 
14995000    1.0349348 6.3851457e-05   0.49415635 0.0051610284            0   0.48899533    1.5329972    2.0271536    5.2963482 
15000000    1.0043623 7.6616513e-05   0.54361959  0.016589798            0   0.52702979    1.4877116    2.0313312    5.9540967 
15005000   0.98991679 6.3916741e-07   0.56935416  0.039302813            0   0.53005135    1.4663142    2.0356684    2.0683938 
15010000   0.92241087 2.1127712e-05    0.6554525 0.0099070346            0   0.64554547    1.3663211    2.0217736    3.1035124 
15015000    1.0166774 7.7567157e-05   0.50549871 0.0084021495            0   0.49709656    1.5059534    2.0114521    5.9828905 
15020000   0.97917294 1.2275861e-06   0.55653134  0.026193672            0   0.53033767    1.4503999    2.0069313    2.0697837 
15025000   0.94002196 -1.1896834e-05    0.6407758  0.013977717            0   0.62679808    1.3924075    2.0331833    1.4240654 
15030000   0.97678155 9.4623757e-05    0.6070247  0.030309134            0   0.57671557    1.4468577    2.0538824    6.8986188 
15035000    1.0451148 0.00014380773   0.52233132  0.040466241            0   0.48186508    1.5480763    2.0704076    9.4333633 
15040000   0.99541506 8.4062954e-05   0.56676427   0.01167515            0   0.55508912    1.4744586    2.0412228    6.3452461 
15045000   0.97738888 -7.7333498e-05   0.57820899  0.029594022            0   0.54861496    1.4477573    2.0259663   -1.9335089 
15050000    1.0192798 -2.4186445e-05   0.53770079 0.0052466386            0   0.53245415    1.5098082     2.047509   0.80916299 
15055000    1.0500237 3.4410779e-06   0.47291988 0.0035133761            0    0.4694065    1.5553476    2.0282674    2.2044506 
15060000    1.0623611 0.00010468782   0.49814734  0.048053736            0    0.4500936    1.5736224    2.0717698    7.4317863 
15065000    0.9999247 0.00012512873   0.59747007  0.060016837            0   0.53745323    1.4811385    2.0786085    8.4851995 
15070000   0.93614097 -3.0487377e-05    0.6539205  0.028995617            0   0.62492488    1.3866588    2.0405793    0.4796256 
15075000    1.0124202 4.6948887e-05   0.54213815  0.031893583            0   0.51024457    1.4996475    2.0417856    4.4455686 
15080000   0.95281969 7.0149754e-05     0.599982  0.046086414            0   0.55389558    1.4113642    2.0113462    5.6030135 
15085000    1.0370109 3.0578095e-05   0.49419724  0.011158279            0   0.48303896    1.5360724    2.0302696    3.5958681 
15090000   0.92930921 -0.00021302376   0.65887838 0.0066750426            0   0.65220333    1.3765393    2.0354177   -8.8713991 
15095000    1.0499708 -5.3514085e-06   0.46107239 0.0034394701            0   0.45763292    1.5552693    2.0163417    1.7423496 
15100000    0.9891327 -1.9301947e-05   0.58217967 0.0032577953            0   0.57892188    1.4651528    2.0473325    1.0590728 
15105000    1.0729533 -6.1570848e-05   0.47674098   0.01903636            0   0.45770462    1.5893121    2.0660531   -1.0863744 
15110000    1.0073494 1.8498028e-05   0.58037641  0.040423976            0   0.53995244    1.4921363    2.0725127    3.0196118 
15115000     0.964482 -0.00021574338   0.64159078   0.02090614            0   0.62068464     1.428639    2.0702297   -8.9758314 
15120000    1.0464637 -5.4644182e-05   0.51856952 0.0045712335            0   0.51399829    1.5500744    2.0686439  -0.72913822 
15125000    1.0525123 1.7711835e-05   0.50694201  0.013557541            0   0.49338447    1.5590338    2.0659758    2.9728218 
15130000      1.01908 -2.3292679e-05   0.54519577  0.049011512            0   0.49618426    1.5095123    2.0547081   0.86212291 
15135000    1.0266111 0.00012552003   0.54271975  0.029068196            0   0.51365156    1.5206677    2.0633874    8.4900128 
15140000   0.95984208 3.9790414e-05     0.657486  0.033292957            0   0.62419305    1.4217661    2.0792521    4.1165213 
15145000      1.08155 -4.529558e-05   0.47824636 0.0079949065            0   0.47025146     1.602046    2.0802923  -0.23884138 
15150000    1.0724011 0.00011137337   0.50948894  0.019877278            0   0.48961166    1.5884942    2.0979831    7.8002998 
15155000   0.99761798 -7.5618745e-06   0.60620803  0.039665532            0   0.56654249    1.4777216    2.0839297    1.6967617 
15160000   0.97346459 -0.00022351653   0.62719226  0.051630134            0   0.57556213    1.4419444    2.0691367   -9.3749094 
15165000    1.0436393 -7.2204323e-05   0.52104763  0.026482726            0    0.4945649    1.5458907    2.0669383    -1.629923 
15170000    1.0118277 8.6143093e-05    0.5603065  0.033370589            0   0.52693591    1.4987698    2.0590763    6.4696026 
15175000   0.98691616 8.4549258e-05   0.56633631  0.018611142            0   0.54772517    1.4618696    2.0282059    6.3571279 
15180000   0.96191547 7.6780227e-05   0.56823523  0.016363095            0   0.55187214    1.4248373    1.9930725    5.9242202 
15185000   0.92311598 3.0443371e-05   0.64813713  0.034168805            0   0.61396833    1.3673655    2.0155027    3.5742033 
15190000   0.97761913 -3.8180965e-05   0.55886118  0.052989817            0   0.50587136    1.4480983    2.0069595  0.052094095 
15195000   0.92792132 -2.7635978e-05   0.64718434  0.037863845            0    0.6093205    1.3744835    2.0216678   0.60670571 
15200000    0.9731583 0.00011752712    0.5620844  0.023654353            0   0.53843004    1.4414907    2.0035751    8.0209635 
15205000    1.0304249 6.3766177e-05   0.49847177  0.027575132            0   0.47089664    1.5263169    2.0247887     5.289617 
15210000   0.95530127 -0.00012507285   0.59563506  0.020470346            0   0.57516472      1.41504    2.0106751   -4.3930547 
15215000    1.0314978 -5.4146832e-05    0.4795808  0.022427079            0   0.45715372    1.5279061    2.0074869  -0.76483095 
15220000   0.99823268 9.7366169e-05   0.53970483  0.045827444            0   0.49387738    1.4786322     2.018337    7.0034849 
15225000    1.0079875 0.00011780921   0.53051955  0.021569681            0   0.50894987    1.4930815    2.0236011    8.0554328 
15230000    1.0055955 -4.693938e-05   0.53021158   0.01152968            0    0.5186819    1.4895384      2.01975   -0.3835463 
15235000    1.0322598 -1.7174885e-05   0.47826798  0.011159693            0   0.46710829    1.5290348    2.0073027    1.1279487 
15240000   0.94967804 -1.7361713e-05   0.58025331  0.053417864            0   0.52683545    1.4067106    1.9869639    1.0980442 
15245000   0.97571236 -8.1874526e-05   0.53444116  0.019713722            0   0.51472744    1.4452739    1.9797151   -2.2122606 
15250000   0.92561976 4.1557469e-05   0.61427503 0.0046580586            0   0.60961697    1.3710743    1.9853493    4.1130917 
15255000   0.98011827 -6.0586974e-05   0.51164974 0.0099149968            0   0.50173474    1.4518002    1.9634499   -1.1386031 
15260000    1.0081959 -7.3411168e-05   0.47206527  0.027087323            0   0.44497795    1.4933901    1.9654554   -1.7931964 
15265000   0.96233698 -0.00013179107   0.53891884  0.020239388            0   0.51867945    1.4254617    1.9643805   -4.7833224 
15270000   0.91543336 -0.00011665172   0.61976502  0.011208409            0   0.60855661    1.3559857    1.9757507   -3.9968172 
15275000    0.9415038 0.00010093159   0.54842795 0.0081685413            0   0.54025941    1.3946025    1.9430305    7.1107277 
15280000   0.94186192 6.3725922e-05   0.54492589  0.013835193            0    0.5310907     1.395133    1.9400589    5.2028261 
15285000   0.91619862 8.9179739e-06   0.59730086  0.019473352            0   0.57782751    1.3571192    1.9544201    2.4110203 
15290000   0.97608803 6.4688338e-06   0.48009453  0.021531248            0   0.45856328    1.4458304    1.9259249    2.2571292 
15295000   0.93388355 0.00014292325   0.53498746   0.01915397            0   0.51583349     1.383315    1.9183025    9.2359727 
15300000   0.95207777  3.20086e-05   0.52752057  0.011874129            0   0.51564645    1.4102652    1.9377858    3.5766261 
15305000   0.94903482 -9.9230413e-05   0.55755818  0.016613379            0    0.5409448    1.4057578     1.963316   -3.1172811 
15310000   0.96865983 -8.24066e-05   0.53687734  0.018273462            0   0.51860387    1.4348274    1.9717047   -2.2475132 
15315000    1.0006419 -0.00010646258   0.51157963  0.024186043            0   0.48739359    1.4822008    1.9937804   -3.4571039 
15320000    1.0100032 -2.5598203e-05   0.49559336  0.029065619            0   0.46652774    1.4960672    1.9916606   0.68103258 
15325000    1.0210716 -7.6425379e-06   0.49169639  0.013925094            0   0.47777129    1.5124624    2.0041587    1.6128608 
15330000   0.95853074 8.5317015e-05   0.57959575  0.075806305            0   0.50378945    1.4198237    1.9994194    6.3676506 
15335000   0.97788561 0.00012745823   0.52904806  0.035779706            0   0.49326835    1.4484931    1.9775411    8.5034023 
15340000   0.95199983 -3.03821e-06   0.55463383 0.0044403252            0   0.55019351    1.4101497    1.9647836    1.8092272 
15345000     1.098268 -5.803865e-05    0.3513473 0.0014360963            0    0.3499112    1.6268095    1.9781568  -0.99342208 
15350000   0.97541297 5.2883775e-05   0.49123087 0.00082933845            0   0.49040153    1.4448305    1.9360613    4.6437106 
15355000    0.9069141 5.1570328e-05   0.59828967  0.015222528            0   0.58306714    1.3433665    1.9416562     4.582057 
15360000   0.99984232 -1.1765577e-05   0.48537407  0.034021289            0   0.45135278    1.4810164    1.9663905     1.363993 
15365000    0.9924264 -3.8713603e-05   0.50248492  0.041833696            0   0.46065122    1.4700316    1.9725165 -0.0096199504 
15370000   0.93582464 -5.6596934e-05   0.56251281  0.077104798            0   0.48540801    1.3861902    1.9487031     -0.94906 
15375000   0.99450995 -5.1030412e-05   0.47408846  0.015519773            0   0.45856868    1.4731179    1.9472063  -0.66555077 
15380000     1.001399 -4.658696e-05   0.48700982 0.0025610837            0   0.48444874    1.4833223    1.9703321  -0.41492026 
15385000    1.0467816 -6.7118555e-05    0.4519064 0.0023402605            0   0.44956614    1.5505452    2.0024516   -1.4340184 
15390000    1.0226337 -9.033821e-05   0.46164949  0.011138712            0   0.45051077    1.5147761    1.9764256   -2.6488907 
15395000   0.95127076 -4.0886461e-05   0.59746391   0.03404775            0   0.56341616    1.4090698    2.0065337 -0.086853061 
15400000   0.98952402 -4.920927e-06   0.55828248  0.018983206            0   0.53929927    1.4657324    2.0240149    1.7720635 
15405000    1.0093089 -0.00011861946   0.53158065 0.0027120985            0   0.52886856    1.4950388    2.0266195   -4.0466968 
15410000   0.97155247 -8.8896069e-05   0.59566166  0.017302333            0   0.57835932    1.4391121    2.0347737    -2.516705 
15415000   0.98406489 -3.7446552e-05   0.58184547 0.0083004616            0   0.57354501    1.4576461    2.0394916   0.12222813 
15420000    1.0501843 -9.3424001e-05   0.49843884 0.0029753003            0   0.49546354    1.5555854    2.0540243   -2.7292845 
15425000    1.0291621 9.1612149e-06   0.50663306  0.015467245            0   0.49116581    1.5244463    2.0310794    2.5001336 
15430000    1.0185532 0.00012000153   0.53617033  0.030448274            0   0.50572206    1.5087319    2.0449023    8.1889804 
15435000    1.0575385 6.8313975e-05   0.48801289  0.024097204            0   0.46391569    1.5664788    2.0544917    5.5521672 
15440000    0.9950989 -2.036986e-06   0.57579757  0.015539501            0   0.56025807    1.4739902    2.0497878    1.9454941 
15445000    1.0601321 -9.1781996e-05   0.45006155  0.021823443            0   0.42823811    1.5703206    2.0203822    -2.678856 
15450000   0.92451358 -1.8523731e-05   0.65016462  0.054228087            0   0.59593654    1.3694357    2.0196004    1.0711854 
15455000    1.0298843 -1.8833708e-05    0.4895929  0.029826014            0   0.45976689    1.5255162    2.0151091    1.0508232 
15460000    1.0175596 -3.813424e-05   0.49129336 0.0038677246            0   0.48742563    1.5072602    1.9985536  0.046080485 
15465000    1.0016053 6.7808093e-05   0.50312918 0.0016137409            0   0.50151544    1.4836279    1.9867571    5.4585314 
15470000    1.0237479 -5.4430504e-05   0.46924417 7.3121938e-05            0   0.46917104    1.5164266    1.9856708  -0.80117104 
15475000    0.9395519 -0.00014577686   0.58462905 0.0044789904            0   0.58015006    1.3917113    1.9763403   -5.4874351 
15480000    1.0340989 -8.2406156e-05   0.41887535 0.0095557367            0   0.40931961     1.531759    1.9506344   -2.2685608 
15485000   0.92294192 7.4823927e-05   0.58162721  0.014329277            0   0.56729793    1.3671077    1.9487349      5.77972 
15490000    0.9389874 7.0241932e-05   0.53354818  0.038690217            0   0.49485797    1.3908751    1.9244233    5.5208102 
15495000   0.91731808 4.2068039e-05   0.54513202  0.017799396            0   0.52733263    1.3587774    1.9039094     4.057793 
15500000   0.87964773 0.00011320121    0.5778017  0.038693876            0   0.53910783    1.3029782    1.8807799    7.6766819 
15505000   0.93320791 8.848198e-05   0.49970874  0.033559392            0   0.46614935    1.3823142    1.8820229    6.4123003 
15510000   0.92757102 5.947003e-05   0.48042663  0.017506245            0   0.46292038    1.3739646    1.8543912    4.8992567 
15515000   0.89380281 1.2193515e-05   0.56311298  0.023819032            0   0.53929395    1.3239454    1.8870584    2.5113664 
15520000   0.94511996 7.0711185e-05   0.49697931 0.0078560653            0   0.48912324    1.3999589    1.8969383    5.5173509 
15525000   0.86357175 -3.0547842e-05   0.62601297  0.001935693            0   0.62407728    1.2791657    1.9051786   0.34112911 
15530000   0.94438631 -4.8973808e-05   0.51096368 0.0012371707            0   0.50972651    1.3988722    1.9098359  -0.59762308 
15535000   0.89648187 -8.2604103e-05   0.59460139  0.017897138            0   0.57670425    1.3279138    1.9225152   -2.3068149 
15540000    1.0403181 6.871336e-06   0.38608501  0.067332967            0   0.31875204    1.5409711    1.9270561    2.2788685 
15545000   0.88626272 0.00010942576   0.61978706  0.047602072            0   0.57218499    1.3127766    1.9325637    7.5351627 
15550000   0.99485198 0.00018895145   0.49632933  0.031466169            0   0.46486317    1.4736245    1.9699538    11.644268 
15555000   0.96797607 6.1166781e-05   0.52165606  0.051918503            0   0.46973755    1.4338145    1.9554706    5.0872098 
15560000   0.99035312 -7.2465457e-05    0.4920831  0.028751305            0   0.46333179    1.4669606    1.9590436   -1.7511878 
15565000   0.95053846 -0.00018334721   0.56603482 0.0030050863            0   0.56302973    1.4079851    1.9740199   -7.4133572 
15570000   0.98548376 -0.00011189022   0.54306021 0.00076876237            0   0.54229145    1.4597478     2.002808   -3.7259712 
15575000    1.0922619 -2.5774893e-05   0.38119743 0.0038182446            0   0.37737919    1.6179129    1.9991103   0.67943578 
15580000    1.0029413 -3.1140827e-05   0.49451516 0.0083546981            0   0.48616046    1.4856068    1.9801219   0.38571155 
15585000   0.95998945 9.1851182e-05   0.55162614  0.016109718            0   0.53551642    1.4219844    1.9736105     6.676391 
15590000   0.94438954 1.9445626e-05   0.50278822  0.019289888            0   0.48349833     1.398877    1.9016652    2.8972813 
15595000   0.96749106 -6.6858728e-05   0.45496274  0.019441271            0   0.43552147    1.4330961    1.8880589    -1.535108 
15600000   0.95162962 -6.4634255e-05   0.50051575  0.037334389            0   0.46318136    1.4096014    1.9101171   -1.3991567 
15605000    0.9180911 -6.9012423e-05   0.54020132  0.041703745            0   0.49849757    1.3599224    1.9001238   -1.6333123 
15610000   0.93720637 1.8249933e-05   0.51250474  0.040872512            0   0.47163223    1.3882369    1.9007417    2.8351383 
15615000   0.98937495 3.2786673e-05   0.44020573  0.020164354            0   0.42004137    1.4655116    1.9057174     3.584395 
15620000   0.98608929 -5.9289539e-05   0.44165988   0.03722118            0    0.4044387    1.4606448    1.9023046   -1.1333198 
15625000   0.93861858 -5.5349723e-05   0.54299401  0.035878202            0    0.5071158    1.3903288    1.9333228  -0.90058305 
15630000   0.94000201 5.9932336e-05   0.54106921  0.026238485            0   0.51483072     1.392378    1.9334472    5.0019828 
15635000   0.94298869 3.6621674e-05   0.55658019  0.025557925            0   0.53102226     1.396802    1.9533822    3.8284119 
15640000   0.94325986 -8.8859174e-05   0.56776888  0.025231632            0   0.54253725    1.3972037    1.9649725   -2.5846172 
15645000   0.96842773 -0.00015842194    0.5016557 0.0015499896            0   0.50010571    1.4344836    1.9361393   -6.1750638 
15650000   0.96783403 -0.00010795087   0.45672205            0            0   0.45672205    1.4336042    1.8903262   -3.6367583 
15655000   0.96937464 1.4262977e-06   0.42925153 0.00027990966            0   0.42897162    1.4358862    1.8651377    1.9381642 
15660000   0.98605015 -2.8800312e-05   0.40704811 0.0043977947            0   0.40265031    1.4605868    1.8676349   0.39305893 
15665000   0.88945429 -1.0389929e-05   0.53844625   0.03212947            0   0.50631678    1.3175042    1.8559504     1.323986 
15670000     0.968964 -7.2827689e-06   0.44185085  0.027273468            0   0.41457738    1.4352779    1.8771288     1.504251 
15675000   0.93641483 -8.3365133e-06   0.49395127  0.024047399            0   0.46990387    1.3870645    1.8810157    1.4541863 
15680000    1.0104877 4.0052033e-05   0.37829946   0.01543819            0   0.36286127    1.4967849    1.8750843    3.9257484 
15685000   0.89909366 2.9340781e-05   0.54216692  0.011718081            0   0.53044884    1.3317825    1.8739494    3.3761974 
15690000   0.94370198 -7.2922287e-05   0.50041978  0.029169444            0   0.47125034    1.3978586    1.8982783   -1.8353427 
15695000   0.96479462 7.8276307e-06   0.45442191  0.030959038            0   0.42346288     1.429102    1.8835239    2.2842986 
15700000     1.041102 4.6008863e-05   0.36058803 0.0097702078            0   0.35081783    1.5421323    1.9027203    4.2583741 
15705000   0.97286399 2.9173885e-06   0.43820644 0.0030047491            0   0.43520169    1.4410548    1.8792612    2.0286315 
15710000   0.99984077 6.8675767e-05   0.42533532  0.010934918            0   0.41440041    1.4810141    1.9063495    5.4225488 
15715000    1.0417222 5.6236774e-05   0.39392303 0.0050307411            0   0.38889229     1.543051    1.9369741    4.8162969 
15720000    1.0013268 -0.00011511177   0.44724542 0.0061024303            0   0.44114299    1.4832153    1.9304607   -3.9632618 
15725000    1.0134764 -7.0839119e-05   0.46419497  0.014597058            0   0.44959791    1.5012119    1.9654068   -1.6615561 
15730000    1.0422036 0.00010959674   0.40324192 0.0084616877            0   0.39478023    1.5437641    1.9470061    7.5583593 
15735000     1.068522 7.571782e-05   0.38649318  0.013188429            0   0.37330475    1.5827482    1.9692414    5.8459938 
15740000    1.0277878 5.9875213e-06   0.45828052  0.030116944            0   0.42816358    1.5224106    1.9806911    2.2872522 
15745000   0.95046593 2.8707429e-05   0.58689502  0.066702007            0   0.52019301    1.4078777    1.9947727    3.4645931 
15750000   0.97580116 7.8847243e-05   0.52946704  0.032979544            0   0.49648749    1.4454055    1.9748725    6.0118514 
15755000    1.0364974 8.0690804e-05   0.45439516  0.032692442            0   0.42170272    1.5353118     1.989707    6.1210761 
15760000    1.0352145 -2.4579357e-05   0.47081444   0.02321818            0   0.44759626    1.5334114    2.0042259   0.74576282 
15765000   0.98625722 -2.4617458e-05   0.54895204   0.02585172            0   0.52310032    1.4608935    2.0098455   0.74943168 
15770000    1.0172311 4.8251527e-05   0.47630804  0.020423215            0   0.45588482    1.5067736    1.9830817    4.4535598 
15775000    1.0204717 8.7217208e-05   0.46705603 0.0047887473            0   0.46226729    1.5115738    1.9786298    6.4441508 
15780000   0.98848946 -4.9737936e-05   0.50736633 0.0046055196            0   0.50276081       1.4642    1.9715663    -0.575016 
15785000    1.0036932 -0.00017424857   0.50131736 0.0076368834            0   0.49368048    1.4867205    1.9880379   -6.9334887 
15790000    1.0400298 -7.4693548e-05   0.44550544  0.027396033            0    0.4181094    1.5405441    1.9860495   -1.8382601 
15795000   0.93099468 4.838794e-05   0.58727548  0.035878339            0   0.55139714    1.3790359    1.9663113    4.4437739 
15800000    1.0629311 7.326226e-05   0.36876885 0.0062676155            0   0.36250123    1.5744667    1.9432356    5.6942633 
15805000     1.018904 -2.2057859e-05   0.42200081 0.0037684015            0   0.41823241    1.5092515    1.9312523   0.80188992 
15810000    0.9741722 -0.00010053236   0.48383976   0.01137857            0   0.47246119    1.4429926    1.9268323   -3.2204247 
15815000    0.9354434 -6.7945445e-05   0.53707336 0.0076788117            0   0.52939454    1.3856255    1.9226989   -1.5561079 
15820000   0.92039289 1.842065e-05   0.53824512  0.018180781            0   0.52006434     1.363332    1.9015771    2.8447144 
15825000   0.93326925 -3.3982753e-05   0.50195474  0.031309896            0   0.47064484    1.3824051    1.8843598   0.14444287 
15830000   0.93152867 -3.4965412e-05   0.49696461  0.020434894            0   0.47652972    1.3798268    1.8767914  0.086562342 
15835000   0.89993701 9.5601326e-06   0.51214998 0.0095355661            0   0.50261442    1.3330317    1.8451817    2.3346605 
15840000   0.88569397 5.6262449e-05   0.51326818  0.013364721            0   0.49990346    1.3119342    1.8252024    4.7058398 
15845000   0.89968421 0.00010841131   0.50132551  0.037732765            0   0.46359275    1.3326572    1.8339827    7.3846418 
15850000   0.93728397 5.8928214e-05    0.4422577  0.021075686            0   0.42118201    1.3883519    1.8306096    4.8477342 
15855000   0.88062459 6.8643377e-05   0.53954695   0.02517129            0   0.51437566    1.3044252    1.8439721     5.358513 
15860000   0.93951766 0.00016683603   0.46000621  0.016657025            0   0.44334919    1.3916605    1.8516667    10.393672 
15865000   0.95662841 7.7357006e-05   0.44534651 0.0020163047            0   0.44333021    1.4170058    1.8623524    5.8230311 
15870000   0.87902885 9.1261454e-06    0.5529179 0.00096248623            0   0.55195541    1.3020615    1.8549794     2.322238 
15875000    0.8745888 4.0062463e-05   0.52001888  0.014648311            0   0.50537057    1.2954847    1.8155035    3.8667017 
15880000   0.92784274 -3.6911046e-05   0.46773897  0.023679087            0   0.44405989    1.3743671     1.842106  -0.04773951 
15885000   0.88883787 -1.994247e-05   0.53276211  0.014777379            0   0.51798473    1.3165911    1.8493532   0.82829873 
15890000   0.90012024 2.098816e-05    0.4977336  0.012078374            0   0.48565523    1.3333031    1.8310367    2.9056305 
15895000   0.87883521 2.4381103e-05   0.52938876  0.018528356            0   0.51086041    1.3017747    1.8311634    3.0794759 
15900000   0.93324834 4.2862602e-05   0.48097447  0.021748802            0   0.45922567    1.3823741    1.8633486    4.0579138 
15905000   0.92602498 -5.0355216e-05   0.50823928  0.028449182            0    0.4797901    1.3716745    1.8799138   -0.6982733 
15910000   0.92410648 -2.0595969e-05   0.52198382  0.079418522            0    0.4425653    1.3688327    1.8908165   0.83630294 
15915000   0.90238457 5.0652617e-05   0.53987044  0.036886821            0   0.50298362    1.3366572    1.8765276    4.4699416 
15920000   0.94722175 -4.3869158e-05   0.49304652  0.012566897            0   0.48047962    1.4030722    1.8961187  -0.34998217 
15925000   0.95697575 -1.9362888e-05   0.48290853    0.0184099            0   0.46449863    1.4175203    1.9004289   0.90904896 
15930000   0.97387737 2.6929459e-06   0.47379536   0.04313469            0   0.43066067    1.4425559    1.9163512    2.0542301 
15935000   0.89446837 -4.8739223e-05   0.58497955  0.022158896            0   0.56282065    1.3249313    1.9099108  -0.58553737 
15940000    1.0096689 3.461366e-05   0.44431611  0.011313302            0   0.43300281     1.495572    1.9398881    3.7121075 
15945000    1.0193461 -2.3935381e-05   0.43011764  0.025354349            0   0.40476329    1.5099063     1.940024   0.71453248 
15950000   0.96699646 -0.00011168637   0.51708321  0.042645591            0   0.47443762    1.4323635    1.9494467   -3.7688956 
15955000   0.91379284 5.9783777e-05   0.61035344  0.021152005            0   0.58920143    1.3535556    1.9639091    5.0248385 
15960000   0.94052919 8.7067053e-05   0.58660902  0.044107267            0   0.54250175    1.3931589    1.9797679     6.437601 
15965000   0.93631227 -1.6427476e-05   0.59819553  0.048916046            0   0.54927949    1.3869125    1.9851081    1.1440213 
15970000    1.0338699 -2.5134585e-05   0.48371625  0.010849901            0   0.47286635    1.5314198    2.0151361   0.72824533 
15975000    1.0342981 3.7567891e-05   0.48159714 0.0038479227            0   0.47774922     1.532054    2.0136512    3.9371272 
15980000     1.122746 0.0001257166   0.33876997 0.0029801908            0   0.33578978    1.6630676    2.0018375    8.4385276 
15985000    0.9191899 0.00013780311   0.61448306 0.0036949762            0   0.61078808      1.36155    1.9760331    9.0315522 
15990000    1.0144171 5.9482354e-05   0.51119253 0.0054906917            0   0.50570183    1.5026053    2.0137978    5.0592943 
15995000    1.0608252 -5.9858256e-05   0.44145422 0.0035607225            0   0.43789349    1.5713473    2.0128015   -1.0519412 
16000000    1.0210141 -0.00011054694   0.48777894 0.0035683801            0   0.48421056    1.5123771     2.000156   -3.6598475 
16005000   0.99955186 1.0532763e-05   0.48190266  0.033670172            0   0.44823248    1.4805862    1.9624889    2.5017663 
16010000   0.83707383 0.00010966909   0.70829998  0.092951996            0   0.61534799    1.2399156    1.9482156    7.5632732 
16015000       0.9846 6.4852058e-05   0.48420592  0.035864689            0   0.44834123    1.4584387    1.9426447      5.26307 
16020000   0.96306757 -5.9907504e-05   0.52479345  0.017708109            0   0.50708534    1.4265438    1.9513373   -1.1159269 
16025000   0.96653455 -7.7206024e-05   0.49599441  0.021085878            0   0.47490853    1.4316793    1.9276737   -2.0252747 
16030000   0.99390008 1.4505456e-05   0.44219524  0.022127156            0   0.42006808    1.4722145    1.9144097    2.6570891 
16035000   0.94623684 8.5902194e-05   0.48536552  0.018681126            0   0.46668439    1.4016133    1.8869788    6.2851712 
16040000   0.91388519 4.1037006e-05   0.53013918 0.0066057668            0   0.52353341    1.3536924    1.8838316    3.9849263 
16045000   0.89259158 -6.0345213e-06   0.57132202  0.001666178            0   0.56965584    1.3221513    1.8934733    1.5845058 
16050000   0.96119112 1.6960234e-05   0.49298445 0.0017860549            0   0.49119839    1.4237643    1.9167488    2.7851128 
16055000    1.0013528 2.2677022e-05   0.44372449 0.0046570507            0   0.43906744    1.4832538    1.9269783    3.0880418 
16060000   0.89458577 -1.7384944e-05   0.61611108  0.016962739            0   0.59914834    1.3251052    1.9412163    1.0511071 
16065000    1.0105593 -7.4493703e-05   0.46047102  0.043616447            0   0.41685458     1.496891    1.9573621   -1.8567156 
16070000   0.93573659 -0.00010615893   0.54739121  0.049854004            0   0.49753721    1.3860598     1.933451   -3.5018861 
16075000    0.9390847 -0.00011710426   0.54246791  0.031332352            0   0.51113556    1.3910192    1.9334871   -4.0622508 
16080000     0.872259 1.4188125e-05     0.655594  0.038161752            0   0.61743225    1.2920336    1.9476276    2.6740596 
16085000   0.93929992 0.00015453048   0.54597685  0.018609892            0   0.52736696     1.391338    1.9373149    9.8492755 
16090000   0.99610272 8.1482808e-05   0.49281653 0.0046816479            0   0.48813488    1.4754772    1.9682937    6.1402134 
16095000     1.015562 0.00012013183   0.46222046 0.0039900182            0   0.45823044    1.5043012    1.9665217    8.1172716 
16100000   0.93189364 6.4626544e-05   0.57380552 0.0034234042            0   0.57038212    1.3803674     1.954173     5.263052 
16105000   0.96895818 -1.9690148e-05   0.50679383 0.0025317608            0   0.50426207    1.4352693    1.9420631   0.93392756 
16110000   0.96980269 3.7270716e-05   0.47881624 0.00049043806            0    0.4783258    1.4365202    1.9153365    3.8235971 
16115000   0.94746333 7.5339637e-06   0.51339892 0.0044578804            0   0.50894104    1.4034301     1.916829    2.3025679 
16120000   0.91182623 2.1661229e-05   0.55995878   0.02532833            0   0.53463045    1.3506426    1.9106014    3.0196563 
16125000   0.94528918 9.6646478e-05   0.49724614  0.013121533            0    0.4841246    1.4002096    1.8974557    6.8457554 
16130000   0.98089945 6.3684382e-05   0.45122853  0.021999911            0   0.42922862    1.4529573    1.9041858    5.1648262 
16135000     0.985758 -2.8157611e-05   0.41321964  0.036801988            0   0.37641765     1.460154    1.8733737     0.431704 
16140000   0.95521352 -0.00011593922    0.4906478 0.0055941675            0   0.48505364      1.41491    1.9055578   -4.0305304 
16145000   0.96992615 1.2718904e-06   0.47196921  0.017483271            0   0.45448594    1.4367031    1.9086723    1.9737931 
16150000   0.98022909 -5.9735834e-05   0.46625837  0.014783053            0   0.45147531    1.4519643    1.9182227    -1.140252 
16155000   0.94435995 -8.9831561e-05   0.52833616 0.0070375157            0   0.52129865    1.3988332    1.9271693   -2.6722066 
16160000   0.98194789 -1.0960651e-05   0.50279966 0.0098105574            0   0.49298911    1.4545103      1.95731    1.3961247 
16165000    1.0357611 -1.3281187e-05   0.45003617 0.0041462164            0   0.44588995    1.5342211    1.9842573    1.3042605 
16170000    1.0361464 3.8066453e-05    0.4356158 0.0055441228            0   0.43007168    1.5347918    1.9704076      3.91941 
16175000   0.98991337 2.219447e-05   0.47986974  0.024928757            0   0.45494098    1.4663092    1.9461789    3.0825358 
16180000   0.98253041 -0.00013248845   0.50089953  0.029243288            0   0.47165625    1.4553732    1.9562727   -4.8271361 
16185000    1.0304254 -0.0001076824   0.44568956 0.0068580344            0   0.43883153    1.5263177    1.9720072   -3.5413319 
16190000    1.0535732 0.00015414878   0.44372568 8.0984708e-05            0   0.44364469    1.5606053     2.004331    9.8967488 
16195000    1.0367392 0.00014479734   0.47055864            0            0   0.47055864    1.5356699    2.0062285    9.4198524 
16200000    1.0595518 -2.2588706e-05   0.42424371 0.0011470152            0    0.4230967    1.5694612    1.9937049   0.83716313 
16205000   0.97453831 5.5247569e-05   0.53795402  0.018162328            0   0.51979169    1.4435349    1.9814889    4.8101644 
16210000   0.96121912 2.782989e-05   0.56393046  0.022589081            0   0.54134138    1.4238058    1.9877363    3.4126266 
16215000    1.0631543 5.2613254e-05   0.41857258  0.014748464            0   0.40382411    1.5747974    1.9933699    4.6871686 
16220000   0.95169521 0.00016976636   0.57915607  0.020602966            0    0.5585531    1.4096985    1.9888546    10.680892 
16225000    1.0145994 9.1350433e-06    0.4867723  0.011402298            0      0.47537    1.5028754    1.9896477    2.4573619 
16230000    1.0200129 -5.1252829e-05   0.46986639 0.0074948237            0   0.46237157    1.5108941    1.9807605  -0.64338438 
16235000    1.0990673 2.4216248e-06   0.35340446  0.003926963            0   0.34947749    1.6279935    1.9813979    2.1053851 
16240000     1.037565 -7.1375993e-05   0.46092643 0.00024398287            0   0.46068245    1.5368931    1.9978195   -1.6566313 
16245000    1.0363555 3.8638456e-05   0.49147931 0.0074282068            0    0.4840511    1.5351016    2.0265809    4.0048699 
16250000   0.98121721 2.7059362e-05   0.58555767  0.076414063            0    0.5091436     1.453428    2.0389857     3.424425 
16255000    1.1263268 3.5471466e-05   0.36446447  0.011305884            0   0.35315858    1.6683715     2.032836    3.8489751 
16260000    1.0242217 6.7021774e-05     0.504976  0.038370897            0   0.46660511    1.5171284    2.0221044    5.4536192 
16265000   0.93738236 5.3110359e-05   0.62194518  0.038815958            0   0.58312923    1.3884976    2.0104428    4.7296932 
16270000   0.95847244 4.9202237e-05   0.56934172  0.019187685            0   0.55015404    1.4197373     1.989079    4.5082335 
16275000    1.0642652 9.2232937e-05   0.42476819 0.0040669263            0   0.42070126    1.5764428     2.001211    6.7235374 
16280000    1.0443132 -1.4980509e-06   0.46697891  0.005594547            0   0.46138437     1.546889    2.0138679    1.9371677 
16285000    1.0185132 -2.9210318e-05   0.48425893 0.0029740059            0   0.48128493    1.5086727    1.9929316   0.49736328 
16290000    1.0793581 -9.2744121e-06   0.42426003 0.00067750601            0   0.42358253    1.5987992    2.0230592    1.5482093 
16295000    1.0111414 -3.6481369e-05   0.53476932  0.011406184            0   0.52336314    1.4977532    2.0325226   0.16467646 
16300000    1.0939557 4.860691e-05    0.4014249  0.018027145            0   0.38339775    1.6204219    2.0218468    4.5105206 
16305000    1.0586316 -3.2458226e-05   0.47906462 0.0052761123            0    0.4737885    1.5680981    2.0471627   0.38530153 
16310000    1.0221398 -5.0304395e-05   0.51376321 0.0014422166            0   0.51232099    1.5140446    2.0278079  -0.54777718 
16315000    1.0616936 -7.5934724e-05   0.47843686 0.00060549858            0   0.47783136    1.5726336    2.0510705   -1.8367874 
16320000    1.0389097 -0.00012502008   0.52809727 0.0032396175            0   0.52485766     1.538885    2.0669823   -4.3340457 
16325000    1.0706235 -1.0641738e-05   0.52044108  0.010639761            0   0.50980132    1.5858611    2.1063022    1.5614452 
16330000    1.1295248 4.0455656e-05   0.42370394  0.020217564            0   0.40348638    1.6731086    2.0968126    4.1681422 
16335000    1.0742461 1.0487707e-05   0.48697642  0.030948387            0   0.45602803    1.5912271    2.0782035    2.6151741 
16340000    1.0592747 6.4804806e-05    0.4878355 0.0072830053            0   0.48055249    1.5690506    2.0568861    5.3748922 
16345000    1.0213096 0.00010333244   0.52602452  0.019283221            0    0.5067413    1.5128149    2.0388394    7.3294605 
16350000    1.0529413 6.1751901e-05    0.4639656  0.012530337            0   0.45143526    1.5596693    2.0236349    5.1853322 
16355000    1.1042684 -9.6520079e-07   0.38516075 0.00090912005            0   0.38425163    1.6356976    2.0208584    1.9714401 
16360000    1.0565349 5.9151379e-05   0.46624238 0.0040862408            0   0.46215613    1.5649923    2.0312347    5.0597853 
16365000    1.0393106 7.1882802e-05   0.50945832  0.010546754            0   0.49891156    1.5394788    2.0489371    5.7293366 
16370000    1.0671182 -4.3171249e-05   0.48778941  0.014210556            0   0.47357885    1.5806688    2.0684582  -0.14190977 
16375000    1.1148636 -0.00011381992   0.43688832  0.011397847            0   0.42549047    1.6513917      2.08828   -3.7392998 
16380000    1.0727012 -5.4485459e-05   0.46099902  0.018792922            0    0.4422061    1.5889386    2.0499377  -0.73971784 
16385000    1.0276055 5.6916578e-05   0.51671486  0.034812004            0   0.48190286    1.5221406    2.0388554    4.9529843 
16390000    1.0798749 2.689401e-05   0.44774331  0.012926697            0   0.43481662    1.5995647     2.047308    3.4242813 
16395000    1.0876946 -1.6133062e-05   0.43156713 0.0012881153            0   0.43027901    1.6111476    2.0427148     1.216702 
16400000    1.1373224 6.3512144e-05   0.38067098 0.0034699012            0   0.37720108    1.6846588    2.0653298    5.3171516 
16405000    1.0259998 8.7951363e-05   0.51862207 0.0093014809            0   0.50932059    1.5197622    2.0383842     6.541494 
16410000     1.115712 6.1145781e-05   0.42796262   0.01260256            0   0.41536006    1.6526484     2.080611     5.211275 
16415000    1.0930516 1.3899886e-05   0.48617096 0.0081458836            0   0.47802508    1.6190826    2.1052536    2.8169278 
16420000    1.1277273 7.9387317e-05   0.47542365  0.010974572            0   0.46444907    1.6704461    2.1458698    6.2105004 
16425000    1.1573834 4.8872853e-05   0.41877987  0.026742493            0   0.39203738    1.7143742    2.1331541    4.6354442 
16430000    1.0602206 -9.3499363e-05   0.57390863  0.012732064            0   0.56117656    1.5704517    2.1443603    -2.642807 
16435000     1.115749 -3.6464119e-05   0.49806316 0.0030352344            0   0.49502792    1.6527032    2.1507664   0.28380351 
16440000    1.1333185 6.6722027e-05   0.46168615  0.007400889            0   0.45428526     1.678728    2.1404142     5.556582 
16445000    1.1030107 5.5182053e-05   0.50412535  0.010463684            0   0.49366167    1.6338347      2.13796    4.9632811 
16450000    1.1315877 0.00010460357   0.49042297   0.00697469            0   0.48344828    1.6761642    2.1665872    7.5222902 
16455000    1.1522026 0.00013291413   0.46123034   0.02376741            0   0.43746293    1.7067001    2.1679304    8.9731338 
16460000    1.1127205 -1.4378493e-05   0.50440731 0.0049436672            0   0.49946364    1.6482172    2.1526245    1.4164457 
16465000    1.1232739 1.139315e-05   0.47381026 0.0022778847            0   0.47153237    1.6638494    2.1376597     2.720989 
16470000    1.1531808 -1.2805012e-05   0.44606735 0.0090682516            0    0.4369991    1.7081491    2.1542165    1.4985999 
16475000    1.1444569 -5.5291861e-05    0.4824338  0.015367444            0   0.46706635    1.6952268    2.1776606  -0.65328271 
16480000    1.0878159 -7.3535139e-05   0.57683654  0.031706197            0   0.54513035    1.6113273    2.1881638   -1.5768353 
16485000    1.1554565 -5.6845101e-05   0.47091343  0.015661093            0   0.45525234    1.7115199    2.1824334  -0.72803584 
16490000    1.1411719 9.5622652e-06   0.49172757 0.0060407401            0   0.48568683    1.6903608    2.1820884    2.6716764 
16495000    1.2020431 4.8902021e-05   0.39606966  0.014704609            0   0.38136505    1.7805263     2.176596    4.6803794 
16500000    1.0704183 -0.0001014035   0.57972875  0.029516439            0   0.55021231    1.5855571    2.1652858   -3.0265734 
16505000    1.2298853 1.6718489e-05   0.34928193  0.021545563            0   0.32773636    1.8217676    2.1710495    3.0270362 
16510000    1.0941485 4.259787e-05   0.53813075  0.030731035            0   0.50739972    1.6207075    2.1588383    4.3398492 
16515000    1.0293541 -0.00010623599   0.60068989  0.024430735            0   0.57625916    1.5247308    2.1254207   -3.3138622 
16520000    1.0975842 -6.5091562e-05   0.50551356  0.011256358            0    0.4942572    1.6257967    2.1313102   -1.2013778 
16525000    1.1669989 -4.8370205e-05   0.38274474  0.025291787            0   0.35745296    1.7286171    2.1113619  -0.36519266 
16530000     1.086143 -2.4051551e-05   0.45932119  0.011369585            0    0.4479516    1.6088493    2.0681705    0.8367311 
16535000    1.0894902 -1.6489413e-05    0.4351341 0.0090048903            0   0.42612921    1.6138073    2.0489414    1.2046834 
16540000    1.0641912 2.8759265e-05   0.49155792  0.053812396            0   0.43774552    1.5763333    2.0678912    3.5403656 
16545000     1.070864 0.00010640975   0.47556861  0.048401856            0   0.42716676    1.5862173    2.0617859    7.5099651 
16550000     1.017224 4.7562858e-05   0.56197254  0.010440004            0   0.55153254     1.506763    2.0687356    4.5039539 
16555000    1.0255898 -3.274444e-05   0.52601562 0.0046982891            0   0.52131733    1.5191548    2.0451705   0.36865511 
16560000    1.0591055 -8.2254683e-05   0.46231788 0.0012482368            0   0.46106964       1.5688    2.0311179   -2.1803218 
16565000     1.044552 -2.1017591e-05    0.5295151 0.0026886648            0   0.52682644    1.5472427    2.0767578    1.0006571 
16570000    1.0838392 1.1456193e-05   0.47293245  0.017671816            0   0.45526064    1.6054368    2.0783693    2.6649264 
16575000    1.0860754 -5.3542209e-05   0.45825013   0.02067363            0    0.4375765    1.6087492    2.0669993  -0.67436182 
16580000     1.078525 -4.5614153e-06   0.50320997  0.011153536            0   0.49205644    1.5975652    2.1007751    1.8672307 
16585000    1.0114154 -9.5605714e-05   0.57706021  0.027812382            0   0.54924783     1.498159    2.0752192   -2.8197933 
16590000   0.97835565 4.9178086e-05   0.62835788  0.062308067            0   0.56604982    1.4491893    2.0775472    4.5954652 
16595000    1.0807466 7.5119264e-05   0.48130499  0.033042429            0   0.44826256    1.6008559    2.0821609    5.9282672 
16600000    1.0518782 -0.00010160089   0.53684192  0.051923679            0   0.48491824    1.5580945    2.0949364   -3.1070291 
16605000    1.1356333 3.4715156e-05   0.44737158  0.023598966            0   0.42377262    1.6821568    2.1295284    3.9069444 
16610000    1.0769752 7.0465538e-05   0.51439234  0.011205749            0    0.5031866    1.5952694    2.1096618    5.7174974 
16615000    1.1065723 -2.3495678e-05   0.48391578  0.012571157            0   0.47134462    1.6391102     2.123026   0.92004722 
16620000    1.0308858 -5.3328859e-05   0.59932804   0.01710857            0   0.58221947    1.5269996    2.1263277   -0.6041099 
16625000    1.1528966 -1.6820847e-05   0.44280535  0.014737894            0   0.42806746    1.7077281    2.1505334    1.2893061 
16630000    1.0492943 3.2476783e-05   0.62353632  0.020088958            0   0.60344736    1.5542672    2.1778035    3.8406148 
16635000    1.1353022 5.174151e-06   0.51753714  0.011171725            0   0.50636541    1.6816664    2.1992036    2.4641201 
16640000     1.115571 4.7943808e-05   0.53688647  0.000488952            0   0.53639752    1.6524396    2.1893261     4.644049 
16645000    1.1937867 1.1421181e-05   0.43457639 0.00054463236            0   0.43403175    1.7682965    2.2028729    2.7876374 
16650000    1.1190625 -0.00014552801   0.56868312  0.025214287            0   0.54346883    1.6576113    2.2262944   -5.2247399 
16655000     1.143365 -8.0084693e-05   0.52221666  0.012172304            0   0.51004436    1.6936094     2.215826   -1.8845102 
16660000     1.127328 1.8842418e-05   0.56106869 0.00027007939            0   0.56079861    1.6698546    2.2309233    3.1956551 
16665000    1.0730226 -3.1579222e-05   0.63341426 0.0023985883            0   0.63101568    1.5894148    2.2228291   0.60597289 
16670000    1.1616163 -1.0186664e-05   0.52023365 0.0055150436            0   0.51471861    1.7206442    2.2408778    1.7193206 
16675000    1.1260813 1.7576478e-06   0.54202255  0.017049346            0    0.5249732     1.668008    2.2100305    2.3000221 
16680000    1.1583447 -6.2593976e-06   0.49645554  0.039177827            0   0.45727772    1.7157981    2.2122537    1.8917725 
16685000    1.1078381 -0.00010162211   0.59772476  0.025898569            0   0.57182619    1.6409852    2.2387099   -2.9643421 
16690000    1.1351356 -2.4896977e-05   0.60002928  0.042910966            0   0.55711831    1.6814197    2.2814489    1.0067237 
16695000    1.1216262 -3.280929e-06   0.63107909   0.05264784            0   0.57843125    1.6614087    2.2924878    2.1245043 
16700000    1.0685082 -3.5182022e-05   0.72811746  0.042842646            0   0.68527481    1.5827278    2.3108453   0.50952576 
16705000    1.1566366 -1.9799875e-05   0.58070322  0.028299609            0   0.55240361     1.713268    2.2939712    1.2802176 
16710000    1.2206755 6.0649464e-05   0.48180429 0.0053997753            0   0.47640452    1.8081256    2.2899299    5.3951824 
16715000    1.2114194 2.8305011e-05   0.51309894 0.0062049937            0   0.50689394    1.7944149    2.3075139    3.7567304 
16720000    1.1712386 -5.1985792e-05   0.58411492 0.0021081418            0   0.58200678    1.7348971     2.319012  -0.34266054 
16725000    1.2394003 3.373308e-05   0.46898083 0.0071618899            0   0.46181894    1.8358617    2.3048426    4.0319763 
16730000    1.2483547 3.2534171e-05   0.46038995 0.0050872857            0   0.45530266    1.8491254    2.3095154    3.9752649 
16735000    1.1160715 6.4195659e-05   0.64004979   0.00602177            0   0.63402802    1.6531809    2.2932307    5.5800484 
16740000     1.132891 0.00013154258   0.61088155  0.016637446            0    0.5942441    1.6780947    2.2889763    9.0239563 
16745000    1.0350974 4.9035259e-05   0.72222768  0.031274256            0   0.69095342     1.533238    2.2554657    4.7660709 
16750000     1.123399 1.406585e-05   0.56854458  0.015706186            0   0.55283839    1.6640348    2.2325794    2.9527509 
16755000    1.1784129 8.4365457e-05   0.48115257  0.019263471            0    0.4618891    1.7455241    2.2266767    6.5461881 
16760000    1.1070242 -4.0944615e-05   0.57701098 0.0062659016            0   0.57074508    1.6397796    2.2167905   0.12042623 
16765000    1.0814421 -3.8105709e-05   0.60016357 0.0096168318            0   0.59054673    1.6018861    2.2020497   0.25103737 
16770000    1.1187392 0.00011080894   0.52460262 0.0095689828            0   0.51503364    1.6571324     2.181735    7.8551525 
16775000     1.123067 4.0749797e-05   0.52046985 0.0093659639            0   0.51110388     1.663543    2.1840128    4.2704024 
16780000    1.0204068 -0.00014185378   0.70063956  0.027600634            0   0.67303893    1.5114776    2.2121171   -5.0507962 
16785000    1.0787206 -0.00019530452   0.62350908  0.058968365            0   0.56454072    1.5978549     2.221364   -7.7782275 
16790000    1.0957356 -0.00010807132   0.60733698  0.038570192            0   0.56876679    1.6230584    2.2303954   -3.3028564 
16795000    1.1140671 7.7099137e-05   0.58309132  0.015005445            0   0.56808587    1.6502119    2.2333032     6.180779 
16800000    1.1309487 2.1672221e-05   0.59742803   0.02422732            0   0.57320071    1.6752177    2.2726458    3.3822635 
16805000    1.1477671 -9.0052928e-06   0.57889588  0.023320878            0     0.555575      1.70013    2.2790259    1.8179549 
16810000    1.1218778 5.1522387e-05   0.60912018  0.019920785            0   0.58919939    1.6617815    2.2709017    4.9088479 
16815000    1.1733381 6.8670741e-05   0.53081565 0.0053071515            0    0.5255085     1.738007    2.2688227    5.7847646 
16820000    1.0902121 -7.5737705e-06   0.67875099 0.00048795029            0   0.67826304    1.6148766    2.2936276    1.9058506 
16825000    1.1025066 -4.4854328e-05    0.6500454 0.0002854057            0   0.64975999    1.6330879    2.2831333 -0.013408314 
16830000    1.1540624 0.00010526871   0.56775745 0.0013558627            0   0.56640159    1.7094549    2.2772123    7.6669703 
16835000    1.1996242 0.00017067378   0.53740142 0.0055967408            0   0.53180468    1.7769434    2.3143448    11.052842 
16840000    1.1700053 4.853104e-05   0.60208376 0.0095351575            0    0.5925486    1.7330703    2.3351541    4.8199433 
16845000    1.1732632 -8.9300369e-05   0.58474153  0.010625421            0   0.57411611    1.7378961    2.3226377   -2.2495412 
16850000    1.1296833 -0.00017225019   0.65088188  0.019604777            0    0.6312771    1.6733434    2.3242253   -6.4949845 
16855000    1.1558783 -0.00011057849   0.60064281  0.013421058            0   0.58722175    1.7121447    2.3127875    -3.348831 
16860000    1.1717603 1.345453e-05   0.60193589  0.010845115            0   0.59109078    1.7356699    2.3376058    3.0264778 
16865000     1.212436 6.9931886e-05    0.5840878 0.0029710772            0   0.58111673    1.7959209    2.3800087    5.9605213 
16870000    1.2921979 9.1063965e-05   0.48262186 5.2994415e-05            0   0.48256886    1.9140681      2.39669     7.059165 
16875000    1.2566075 -9.8418979e-06   0.53085992 0.0073180991            0   0.52354182    1.8613499    2.3922099    1.8883047 
16880000     1.124645 -4.8445161e-05   0.73273515  0.039180931            0   0.69355422    1.6658804    2.3986156 -0.081776652 
16885000    1.1443408 9.8910696e-06   0.70511961  0.020419277            0   0.68470033    1.6950547    2.4001744    2.9065971 
16890000    1.2817385 7.0266343e-05   0.49782904  0.026742459            0   0.47108658    1.8985752    2.3964042     5.994041 
16895000      1.20518 8.8088046e-05   0.60501646  0.025219105            0   0.57979735    1.7851729    2.3901893    6.9002973 
16900000    1.2304413 5.6375446e-05   0.57525036  0.016256525            0   0.55899384    1.8225912    2.3978416    5.2842644 
16905000    1.2242741 5.9298711e-05   0.56614949  0.025567968            0   0.54058152     1.813456    2.3796055    5.4156995 
16910000    1.2240361 -2.6672338e-05    0.5778294  0.028163853            0   0.54966554    1.8131034    2.3909328    1.0253091 
16915000    1.2395045 -4.7488374e-05    0.5640644  0.046070705            0    0.5179937    1.8360161    2.4000805 -0.031324266 
16920000    1.1961578 4.3341445e-05   0.62517155  0.033147526            0   0.59202402    1.7718088    2.3969803    4.6160623 
16925000    1.2519959 -7.6016156e-05   0.53670568  0.020750944            0   0.51595474     1.854519    2.3912247   -1.5008025 
16930000     1.141514 -7.514405e-05   0.70571444  0.022861629            0   0.68285281    1.6908676     2.396582   -1.4507933 
16935000    1.1732032 5.4967414e-05   0.67107189  0.079118292            0    0.5919536    1.7378073    2.4088792    5.2232108 
16940000    1.2198951 1.4319426e-05   0.59005897  0.034277801            0   0.55578116    1.8069696    2.3970286    3.1301832 
16945000    1.3012206 6.2774383e-05   0.45896045  0.014688042            0    0.4442724     1.927433    2.3863934    5.6004418 
16950000    1.2359011 4.633976e-05   0.55149888 0.0068345564            0   0.54466432    1.8306785    2.3821774    4.7547731 
16955000    1.2027496 -2.6111366e-05   0.58278657  0.017482149            0   0.56530442    1.7815728    2.3643594    1.0274574 
16960000    1.1601622 -8.3575196e-05   0.65347064 0.0017885989            0   0.65168204    1.7184902    2.3719609   -1.9070892 
16965000     1.277496 -4.6281677e-05   0.47574598 0.0015690812            0    0.4741769     1.892291     2.368037 -0.0015849027 
16970000    1.2390753 1.1007969e-05   0.51141829  0.018296868            0   0.49312143    1.8353803    2.3467986    2.9104066 
16975000    1.2282659 -5.0918726e-05   0.51771925  0.030789349            0    0.4869299    1.8193688    2.3370881  -0.26995066 
16980000    1.1568413 6.4506547e-05   0.61879703  0.019996475            0   0.59880056    1.7135712    2.3323683    5.6351035 
16985000    1.1835205 0.00019604646   0.57399785  0.020042381            0   0.55395547    1.7530897    2.3270876    12.364666 
16990000    1.1467614 0.00013366869   0.67523737  0.037636158            0   0.63760121    1.6986403    2.3738777    9.2177147 
16995000     1.154512 2.2936311e-05   0.66912582  0.057586265            0   0.61153956    1.7101209    2.3792467    3.5535858 
17000000    1.2378869 -7.5754578e-05   0.55731881 0.0036660133            0    0.5536528    1.8336199    2.3909387   -1.4876957 
17005000     1.221135 2.0105419e-05   0.57726968  0.020522185            0    0.5567475    1.8088062    2.3860759    3.4154733 
17010000     1.145263 3.615429e-05   0.71553503  0.093092354            0   0.62244267    1.6964208    2.4119558    4.2630555 
17015000    1.2145961 -2.3589541e-05   0.58350071  0.051129476            0   0.53237123    1.7991204    2.3826211    1.1748366 
17020000    1.2013694 -2.8610079e-05   0.62184459  0.019900724            0   0.60194387    1.7795284     2.401373   0.93653691 
17025000    1.2108142 -7.7381729e-06    0.5990324   0.01407581            0   0.58495659    1.7935185    2.3925509    1.9963565 
17030000    1.1907348 -2.9097274e-05    0.6379685  0.013201427            0   0.62476707     1.763776    2.4017445   0.91196404 
17035000    1.2829131 2.1055517e-05   0.48878733 0.0092897076            0   0.47949762     1.900315    2.3891023    3.4671448 
17040000    1.1696817 2.3083097e-05   0.67716698   0.00942967            0   0.66773731     1.732591    2.4097579    3.5916125 
17045000    1.2016158 -5.1881728e-05   0.61526868  0.015743764            0   0.59952492    1.7798934    2.3951621  -0.26118234 
17050000     1.163419 -8.4151345e-06   0.65719305  0.021875557            0   0.63531749    1.7233145    2.3805075    1.9496526 
17055000    1.2080837 3.0760228e-05   0.58726828  0.013837874            0    0.5734304    1.7894739    2.3767422    3.9516659 
17060000    1.1565936 -3.6155349e-06   0.66916573 0.0092968554            0   0.65986887    1.7132043      2.38237    2.1972546 
17065000    1.2924352 7.3060179e-05   0.46710837 0.0044234387            0   0.46268493    1.9144197    2.3815281    6.1222092 
17070000    1.1926748 7.6649708e-05   0.59327299 0.0026422831            0   0.59063071    1.7666496    2.3599226    6.2843876 
17075000    1.2950008 -1.6494864e-05   0.45874059 0.00018994117            0   0.45855065    1.9182199    2.3769605    1.5324235 
17080000    1.1899532 -4.9318459e-05    0.6044873 0.00028892274            0   0.60419838    1.7626181    2.3671054  -0.15799968 
17085000     1.159399 -8.8228794e-05   0.61033053 0.0040131124            0   0.60631741    1.7173597    2.3276902    -2.189624 
17090000     1.151268 -2.5829234e-05    0.6624586  0.017832182            0   0.64462641    1.7053157    2.3677743    1.0453175 
17095000    1.2676105 -7.9085702e-06   0.52283591  0.021297197            0   0.50153871    1.8776481     2.400484    1.9955652 
17100000    1.2535469 -7.4519545e-05   0.56497497  0.031529719            0   0.53344525    1.8568163    2.4217913   -1.3936094 
17105000    1.2534984 2.013578e-06   0.55259677 0.0059471929            0   0.54664957    1.8567445    2.4093413    2.5124365 
17110000    1.2452364 0.00012361137    0.5724951  0.028632536            0   0.54386256    1.8445064    2.4170015    8.7459034 
17115000    1.2659774 7.442279e-05   0.52774203  0.016514671            0   0.51122736     1.875229    2.4029711    6.2134179 
17120000    1.1607895 -9.882713e-05   0.68194326  0.033910821            0   0.64803244    1.7194195    2.4013628   -2.6585863 
17125000    1.1188383 -6.7697994e-05   0.70579824  0.081978855            0   0.62381939    1.6572792    2.3630774   -1.1030599 
17130000    1.1759973 1.8808324e-05   0.63796988  0.058241984            0   0.57972789    1.7419459    2.3799158     3.342902 
17135000    1.2051884 -6.1254713e-06   0.59815403  0.015396579            0   0.58275745    1.7851853    2.3833393    2.0697152 
17140000    1.1859674 5.4743598e-05   0.61711915  0.013202568            0   0.60391658    1.7567142    2.3738333    5.1767056 
17145000       1.1983 0.00018891567   0.61627806  0.025158367            0   0.59111969    1.7749819      2.39126    12.063742 
17150000    1.2533752 -3.4777532e-06   0.57062567  0.033934438            0   0.53669123     1.856562    2.4271877    2.2491267 
17155000    1.1860902 -9.9099949e-05   0.68343004  0.047773538            0    0.6356565    1.7568961    2.4403262   -2.6335913 
17160000    1.1250922 -9.3358005e-05   0.73290486  0.034851823            0   0.69805303    1.6665428    2.3994476   -2.3804822 
17165000    1.1723491 -0.00012552209   0.66252619  0.073090573            0   0.58943561    1.7365422    2.3990684   -4.0276628 
17170000    1.2058565 1.5626382e-05   0.58793199  0.044888808            0   0.54304318    1.7861749    2.3741069    3.1741776 
17175000    1.1618373  8.31666e-05   0.64615038  0.020098162            0   0.62605222    1.7209715    2.3671219    6.6252518 
17180000    1.1850143 9.7576582e-06   0.60337597  0.031505315            0   0.57187066    1.7553024    2.3586784    2.8582705 
17185000    1.1447237 -5.995496e-05   0.62842082  0.022205681            0   0.60621514     1.695622    2.3240428  -0.74565109 
17190000    1.0839874 -0.00012063062   0.71838321  0.034875516            0    0.6835077    1.6056564    2.3240396    -3.852248 
17195000    1.0858128 -0.00011564687   0.71335036  0.021759837            0   0.69159053    1.6083602    2.3217106    -3.599409 
17200000    1.1808216 -1.2710327e-05   0.57086393 0.0069612001            0   0.56390273    1.7490919    2.3199559    1.6691871 
17205000     1.078583 -9.2582088e-05   0.70705778  0.048898561            0   0.65815922    1.5976511    2.3047089   -2.4354941 
17210000     1.094112 -2.5137275e-05   0.66945927  0.016337019            0   0.65312225    1.6206534    2.2901126    1.0030842 
17215000    1.1706108 0.00011943524   0.54180668 0.0065142266            0   0.53529246    1.7339673    2.2757739    8.3908583 
17220000    1.1263332 0.00014547374   0.61200079  0.026991426            0   0.58500936     1.668381    2.2803818    9.7286372 
17225000    1.1036103 -5.0345582e-05   0.61027922  0.017744916            0   0.59253431    1.6347227    2.2450019  -0.33269185 
17230000     1.185095 -0.00012151975   0.51020056  0.033235231            0   0.47696533    1.7554219    2.2656225   -3.9561888 
17235000    1.1053171 2.1373673e-05   0.61534798  0.041025084            0   0.57432289    1.6372509    2.2525989    3.3469309 
17240000    1.1118235 -6.6302703e-05   0.64334267  0.022155586            0   0.62118708    1.6468886    2.2902313   -1.1044671 
17245000    1.1597366 -7.8621254e-05   0.55500945  0.015229285            0   0.53978016    1.7178598    2.2728692    -1.752539 
17250000    1.0853034 -9.3409297e-06   0.65523236    0.0409026            0   0.61432977    1.6076056     2.262838    1.7845824 
17255000    1.1616821 5.5976189e-06   0.54041645  0.035403345            0    0.5050131    1.7207416    2.2611581    2.5477562 
17260000    1.1224633 -1.1999981e-05   0.56412702  0.064020721            0    0.5001063    1.6626487    2.2267758    1.6123767 
17265000    1.0354109 9.2803962e-05   0.70805597  0.053997792            0   0.65405818    1.5337025    2.2417584    6.9933213 
17270000     1.103301 0.00014037867    0.6191253  0.066991301            0     0.552134    1.6342646    2.2533899    9.4407781 
17275000    1.1305019 6.4317832e-05   0.59731679  0.056412069            0   0.54090472    1.6745559    2.2718727    5.5649457 
17280000    1.1871355 -4.8035527e-05   0.49514287  0.015729122            0   0.47941375    1.7584445    2.2535873  -0.20583166 
17285000    1.0368949 -7.4664674e-05   0.70349663  0.018361427            0    0.6851352    1.5359006    2.2393972   -1.5834341 
17290000     1.058354 -0.00011001465   0.69294957  0.029403996            0   0.66354557    1.5676868    2.2606364   -3.3721136 
17295000    1.1405857 -7.0475698e-05   0.54254795  0.026543478            0   0.51600447    1.6894926    2.2320405   -1.3763152 
17300000    1.1320922 0.0001435952   0.58507424  0.023154608            0   0.56191963    1.6769116    2.2619859    9.6140599 
17305000    1.1534027 8.6047482e-05   0.57299619  0.016015402            0   0.55698078    1.7084778     2.281474    6.6871051 
17310000    1.1875409 -9.4434117e-05   0.53774554 0.0074739062            0   0.53027163     1.759045    2.2967905   -2.5382363 
17315000    1.1478498 -0.00018040146   0.60971718  0.015763005            0   0.59395418    1.7002525    2.3099697   -6.9265853 
17320000    1.1693285 -0.00027272735    0.6016416  0.027822136            0   0.57381947    1.7320678    2.3337094   -11.629931 
17325000    1.0446339 -9.9621337e-05   0.80364333  0.026290809            0   0.77735252     1.547364    2.3510073   -2.7496051 
17330000    1.1599872 9.8177844e-05   0.61010389  0.060519395            0    0.5495845    1.7182311     2.328335    7.3550406 
17335000    1.2586539 2.7249265e-05    0.5176232  0.023746606            0   0.49387659    1.8643811    2.3820043    3.7771667 
17340000    1.2471628 8.8157225e-06   0.53443749  0.034034708            0   0.50040278    1.8473599    2.3817974    2.8331624 
17345000    1.1262061 5.8659319e-05    0.6923065  0.098063871            0   0.59424263    1.6681928    2.3604993    5.3638564 
17350000    1.1854332 -5.4019232e-06   0.58963056  0.037303233            0   0.55232733     1.755923    2.3455535     2.068975 
17355000    1.2298872 -5.1511888e-06   0.52067771  0.043512728            0   0.47716498    1.8217704    2.3424481    2.0787073 
17360000    1.1692202 2.1541119e-05   0.60564546   0.02085354            0   0.58479192    1.7319075    2.3375529    3.4404582 
17365000    1.1523083 2.3351722e-05    0.6649698  0.056476815            0   0.60849299    1.7068567    2.3718265    3.5674347 
17370000    1.1603089 -9.441478e-05   0.67012898  0.019940548            0   0.65018843    1.7187076    2.3888365   -2.4452002 
17375000    1.2357255 -5.0196188e-06   0.58211208 0.0094317987            0   0.57268028    1.8304183    2.4125304    2.1555259 
17380000    1.2589606 5.6151019e-05    0.5283063  0.036896746            0   0.49140955    1.8648354    2.3931417    5.2680738 
17385000    1.1249568 -1.392828e-05   0.74397576   0.05426618            0   0.68970958    1.6663422     2.410318    1.6971901 
17390000    1.1685711 -7.0751601e-05   0.64493131  0.039558251            0   0.60537306    1.7309459    2.3758772   -1.2466048 
17395000    1.1704379 -9.6377114e-05   0.63496253   0.03452583            0    0.6004367    1.7337112    2.3686737   -2.5658345 
17400000    1.1870947 -3.728792e-05   0.62245414  0.053091217            0   0.56936292    1.7583841    2.3808382   0.47169672 
17405000    1.1879586 8.4840635e-05   0.62879438  0.032255204            0   0.59653918    1.7596636     2.388458    6.7322985 
17410000     1.038643 5.7825904e-05   0.82800679   0.10573909            0   0.72226771      1.53849    2.3664967     5.327183 
17415000    1.1521195 -4.0183623e-05   0.65141047  0.043201624            0   0.60820885     1.706577    2.3579874   0.30058597 
17420000    1.2177746 -6.3843178e-05   0.57192447 0.0050961998            0   0.56682827    1.8038286    2.3757531   -0.8930176 
17425000    1.1244597 6.4797168e-05   0.68555826 0.0026122671            0     0.682946     1.665606    2.3511643    5.6687792 
17430000    1.1480063 8.3548974e-05     0.628576  0.006575598            0    0.6220004    1.7004843    2.3290603    6.6067678 
17435000    1.1154822 -2.3314777e-05   0.63960296  0.014195598            0   0.62540736    1.6523081     2.291911    1.0981945 
17440000     1.073107 -6.7225067e-05   0.71153539  0.039863843            0   0.67167155    1.5895397    2.3010751   -1.1408483 
17445000    1.1497234 3.4635488e-05   0.64488663  0.038011364            0   0.60687526    1.7030277    2.3479143    4.1212513 
17450000     1.107395 -1.3181373e-05   0.69643552  0.068815169            0   0.62762035    1.6403289    2.3367644    1.6618781 
17455000    1.1220329 -4.0797715e-05     0.662976  0.079197207            0   0.58377879    1.6620112    2.3249872   0.23614418 
17460000    1.2117913 4.7397133e-05   0.53240282  0.022852306            0   0.50955052    1.7949658    2.3273687    4.7541019 
17465000    1.1758935 -1.3745919e-05   0.59426971 0.0014063072            0   0.59286341    1.7417923     2.336062     1.632271 
17470000    1.2541649 -0.00013481941   0.50270898 0.00037762637            0   0.50233135    1.8577318    2.3604408   -4.5423131 
17475000    1.2113744 -0.00012755847   0.56504555 7.7149096e-07            0   0.56504478    1.7943484    2.3593939   -4.1715997 
17480000    1.2351465 3.4570298e-05   0.53373195 0.00043495072            0     0.533297    1.8295608    2.3632927     4.133292 
17485000    1.1829859 -3.3004745e-05   0.64331799  0.020636155            0   0.62268183    1.7522979    2.3956159   0.70577295 
17490000    1.1898512 -4.3200257e-05   0.61870744  0.050299016            0   0.56840842    1.7624671    2.3811745   0.16932135 
17495000    1.1442352 7.0078977e-05   0.71230068  0.019089932            0   0.69321075    1.6948983     2.407199    5.9952427 
17500000    1.1613792 -0.00012879706   0.68179312 0.0086598839            0   0.67313324    1.7202929     2.402086   -4.1923236 
17505000     1.255911 -3.1060811e-05   0.57969007  0.008911783            0   0.57077829    1.8603182    2.4400082   0.84969472 
17510000    1.2099954 0.00017836389   0.62787171  0.016581252            0   0.61129046    1.7923057    2.4201774    11.552408 
17515000    1.1867777 -8.2506934e-05   0.62851032 0.0069999318            0   0.62151039    1.7579145    2.3864248   -1.8379302 
17520000    1.1845049 -8.3278939e-08   0.56640801 0.0017860752            0   0.56462194    1.7545479     2.320956    2.3166921 
17525000    1.1684371 9.6501395e-05   0.59683378 0.0012947837            0     0.595539    1.7307475    2.3275813    7.2684527 
17530000    1.1985668 1.3269522e-05   0.51180737 0.0016114068            0   0.51019596    1.7753771    2.2871844     2.966584 
17535000    1.1773806 6.1575154e-05   0.55873256 0.0069451038            0   0.55178746     1.743995    2.3027276    5.4553755 
17540000    1.0792812 -7.368352e-06   0.70197402 0.0099487812            0   0.69202524    1.5986853    2.3006593    1.9233997 
17545000    1.2072718 5.3706707e-06   0.53946469  0.018433102            0   0.52103159    1.7882714    2.3277361    2.6027144 
17550000    1.1601723 -6.8338386e-05   0.57152294  0.020234068            0   0.55128887    1.7185052    2.2900282   -1.2088972 
17555000    1.1499604 4.8050575e-05   0.59875664  0.014807661            0   0.58394898    1.7033788    2.3021355    4.7623249 
17560000    1.0836703 6.7244551e-05    0.6873522  0.089291391            0   0.59806081    1.6051867    2.2925389    5.7354599 
17565000     1.160392 0.0001039931   0.56698418   0.05673468            0    0.5102495    1.7188307    2.2858149    7.6102614 
17570000    1.1935973 8.9470038e-05   0.49806306 0.0092968234            0   0.48876624    1.7680159     2.266079    6.8469449 
17575000    1.1506014 -6.2819304e-05   0.56162426  0.025339045            0   0.53628522    1.7043283    2.2659526  -0.95039582 
17580000     1.175591 1.1519379e-05   0.55892438  0.031893754            0   0.52703063    1.7413442    2.3002685    2.8900607 
17585000    1.0592269 -0.00010533794   0.73291157  0.026047608            0   0.70686396    1.5689798    2.3018913   -3.0914114 
17590000    1.1238952 -0.00012615765    0.6333863   0.00403174            0   0.62935456    1.6647697     2.298156   -4.1611159 
17595000    1.1900969 -2.351422e-05   0.55732738 0.0081404403            0   0.54918694     1.762831    2.3201584    1.1162303 
17600000    1.1156594 -6.540003e-05   0.66525054 0.0082112174            0   0.65703932    1.6525705    2.3178211   -1.0306605 
17605000    1.1610672 4.410148e-05   0.58024132 0.0032234214            0    0.5770179    1.7198308    2.3000722    4.5580679 
17610000    1.1577128 -2.1183273e-05   0.56690646 0.0018590588            0    0.5650474    1.7148621    2.2817686     1.197185 
17615000    1.1635728 -7.3210575e-05    0.5456969 0.0042567595            0   0.54144014    1.7235422    2.2692391   -1.4791424 
17620000    1.0909071 -0.00010804764   0.63866578 0.0080952587            0   0.63057052    1.6159062     2.254572   -3.2774673 
17625000    1.1001655 -1.1319776e-05   0.61486524 0.0056688272            0   0.60919641    1.6296202    2.2444854    1.6649129 
17630000    1.1099778 8.3993353e-05   0.56223697 0.0032980595            0   0.55893891    1.6441547    2.2063916    6.5068513 
17635000    1.0450747 -1.7833614e-05   0.66041616  0.025706409            0   0.63470975     1.548017    2.2084331    1.2953521 
17640000    1.0244402 -7.3234415e-05   0.70096352  0.039415179            0   0.66154834    1.5174521    2.2184156   -1.5311864 
17645000    1.0424047 -0.0001301437   0.65580916  0.061292202            0   0.59451696    1.5440619    2.1998711   -4.4634866 
17650000    1.0714633 5.8921235e-05   0.60680343  0.022685439            0     0.584118     1.587105    2.1939084    5.2106757 
17655000    1.0576855 7.079009e-05   0.62491487 0.0045058463            0   0.62040903    1.5666966    2.1916115    5.8160641 
17660000    1.0195641 -4.1522003e-05   0.70077506  0.025869411            0   0.67490565    1.5102293    2.2110043  0.085077771 
17665000    1.0426786 -5.1394846e-05   0.65763813  0.025325173            0   0.63231296    1.5444676    2.2021058  -0.42931034 
17670000   0.99397574 -0.0001641048   0.73080002  0.021164247            0   0.70963578    1.4723266    2.2031266   -6.1990391 
17675000    1.0454446 -0.00010541524   0.67823598 0.0023126922            0   0.67592329    1.5485648    2.2268008   -3.1704596 
17680000    1.1024233 1.9715963e-05   0.55950827  0.011259258            0   0.54824901    1.6329646    2.1924729    3.2019301 
17685000    1.0376881 6.2677211e-05   0.66733592  0.024252532            0   0.64308339    1.5370755    2.2044114    5.4134846 
17690000    1.0184634 4.619389e-05   0.70593596  0.043188994            0   0.66274696     1.508599    2.2145349    4.5796621 
17695000    1.0680862 -0.00010232642   0.62139263  0.062396608            0   0.55899603    1.5821026    2.2034953   -3.0356174 
17700000    1.0776978 -0.00015426549   0.62299733   0.01108479            0   0.61191254    1.5963399    2.2193372   -5.6790557 
17705000    1.0677492 -4.7186782e-05   0.61756983 0.00076190815            0   0.61680792    1.5816035    2.1991734  -0.21678985 
17710000    1.1379234 -3.0039313e-05   0.54866558 0.0063462552            0   0.54231932    1.6855491    2.2342147   0.69620184 
17715000     1.057558 -4.0177376e-05   0.66302214 0.0093826463            0    0.6536395    1.5665077    2.2295299   0.17244826 
17720000    1.0835213 -7.6478038e-05    0.6120041  0.010198057            0   0.60180604    1.6049659      2.21697   -1.6987056 
17725000    1.0576173 6.237819e-06   0.63826706 0.0075885431            0   0.63067851    1.5665956    2.2048627     2.524239 
17730000    1.0249646 0.0001494364   0.70660628  0.031157955            0   0.67544833    1.5182288    2.2248351    9.8759786 
17735000     1.110224 2.3158642e-05   0.55764102  0.054264261            0   0.50337676    1.6445193    2.2021603    3.3878827 
17740000   0.99285058 -7.2698206e-05   0.75256379  0.017936487            0    0.7346273    1.4706599    2.2232237   -1.4989245 
17745000    1.1299148 0.00010505235   0.53826226 0.0043868053            0   0.53387546    1.6736863    2.2119486    7.5906291 
17750000    1.1687729 0.00011651211   0.46478996  0.008876664            0    0.4559133    1.7312449    2.1960349     8.161455 
17755000     1.056437 8.6565845e-06   0.65452393  0.024305746            0   0.63021818    1.5648473    2.2193712    2.6625883 
17760000    1.0314425 1.8303485e-05   0.71093692  0.045743631            0   0.66519328    1.5278242    2.2387611    3.1758996 
17765000    1.1270794 -7.8060612e-05   0.58220118  0.020963037            0   0.56123814    1.6694863    2.2516875   -1.7450158 
17770000    1.1894804 -5.342143e-05   0.48293986  0.010516322            0   0.47242354    1.7619178    2.2448577  -0.49031951 
17775000    1.0597079 7.1982108e-05   0.68161824  0.006407662            0   0.67521058    1.5696923    2.2513105    5.9367944 
17780000    1.0030409 -6.6925428e-05   0.76428705 0.0048935121            0   0.75939354    1.4857543    2.2500414   -1.1765405 
17785000    1.0750997 -0.00012187264    0.6567338 0.0067658362            0   0.64996797    1.5924914    2.2492252   -3.9906538 
17790000    1.1646537 4.5322872e-05   0.53997174 0.0026563094            0   0.53731543    1.7251433     2.265115    4.5856461 
17795000    1.0057692 9.512161e-05   0.72824782  0.007212056            0   0.72103576    1.4897957    2.2180435    7.0882699 
17800000     1.019707 -5.083935e-05   0.71976293  0.027512046            0   0.69225088     1.510441     2.230204  -0.37277073 
17805000    1.0555384 -0.00015442904   0.64991122  0.017817753            0   0.63209347    1.5635162    2.2134274   -5.6933395 
17810000    1.0366922 -9.1951668e-05   0.70369593 0.0019946034            0   0.70170133    1.5356004    2.2392963   -2.4686291 
17815000    1.0890175 -7.2820091e-05   0.61571914  0.033878164            0   0.58184097    1.6131072    2.2288263   -1.4995624 
17820000    1.0286341 -6.4317727e-05    0.6946796  0.044200051            0   0.65047955    1.5236643    2.2183439   -1.0747237 
17825000   0.93632152 2.6174553e-05    0.8038922  0.081723964            0   0.72216824    1.3869262    2.1908185    3.5309556 
17830000    1.1071634 2.0607711e-05    0.5649682  0.043041543            0   0.52192665    1.6399858     2.204954    3.2600688 
17835000    1.1148929 -6.3390819e-05   0.53964531  0.035396648            0   0.50424866    1.6514351    2.1910804   -1.0545295 
17840000    1.0220067 8.1803633e-05   0.70122774  0.024662821            0   0.67656492    1.5138474    2.2150752    6.4034212 
17845000    1.0538072 9.0739853e-05   0.68152535  0.010903646            0   0.67062171     1.560952    2.2424773    6.8883578 
17850000    1.1065486 -2.9718122e-05   0.60095488  0.031392869            0   0.56956201    1.6390752      2.24003   0.71846217 
17855000    1.0586008 -3.3678268e-05   0.65632276  0.050273743            0   0.60604902    1.5680524    2.2243752   0.50004787 
17860000    1.0087126 -2.911187e-05   0.73725831  0.036209884            0   0.70104842    1.4941556    2.2314139   0.74088616 
17865000    1.0986296 -6.4635507e-06   0.60284983  0.025141942            0   0.57770789     1.627345    2.2301948    1.8992611 
17870000    1.0773406 -0.00013114813   0.61224859  0.012964988            0    0.5992836    1.5958108    2.2080594    -4.506725 
17875000    1.1214643 5.2617549e-05   0.55315393  0.013820617            0   0.53933331     1.661169     2.214323    4.9083414 
17880000     1.074867 4.147814e-05   0.59750608  0.042063163            0   0.55544292    1.5921467    2.1896528    4.3133335 
17885000    1.0574998 -0.00017273404   0.62853766  0.057333156            0    0.5712045    1.5664216    2.1949592   -6.6490238 
17890000    0.9469853 5.6696578e-05   0.76191498  0.056920111            0   0.70499486     1.402722    2.1646369    5.0675017 
17895000   0.97516314 5.9148102e-05   0.71956935  0.041364798            0   0.67820455    1.4444604    2.1640297    5.1924126 
17900000   0.96643928 2.2132119e-07   0.72304366  0.041601081            0   0.68144257    1.4315382    2.1545818    2.1659135 
17905000    1.0585431 -4.7436472e-05   0.59673244  0.023906459            0   0.57282599     1.567967    2.1646995  -0.26404791 
17910000   0.97807631 -0.00015443873   0.69030361  0.017628254            0   0.67267536    1.4487755    2.1390791   -5.7681836 
17915000    1.0615338 -3.2968241e-05   0.60109183  0.021617277            0   0.57947456     1.572397    2.1734888   0.48551489 
17920000    1.0442309 2.1956058e-06    0.6157936  0.011695145            0   0.60409845    1.5467671    2.1625606    2.2749757 
17925000    1.0056171 1.9161403e-05   0.66393339 0.0046192189            0   0.65931417    1.4895703    2.1535037    3.1345676 
17930000    1.0622139 6.6440574e-05   0.53945429  0.022983687            0    0.5164706    1.5734044    2.1128587    5.5146161 
17935000    1.0310533 5.7608559e-05   0.57852323  0.024823535            0    0.5536997    1.5272477    2.1057709    5.0553291 
17940000   0.99952388 -6.7828114e-05   0.60736704 0.0053120604            0   0.60205497    1.4805447    2.0879118   -1.3848876 
17945000   0.97796846 -7.6070478e-05   0.63207556   0.04453359            0   0.58754197    1.4486158    2.0806913   -1.8141171 
17950000   0.93220989 -9.8097283e-05   0.71885041  0.019479172            0   0.69937124    1.3808359    2.0996863   -2.9228946 
17955000    0.9737489 -0.00019104845   0.68175166  0.013268189            0   0.66848347    1.4423656    2.1241172   -7.6575633 
17960000   0.99601812 -5.733721e-05   0.63822723   0.01249524            0   0.62573199    1.4753518    2.1135791  -0.82208607 
17965000    1.0395199 4.0905402e-05   0.58484173  0.020959025            0    0.5638827    1.5397888    2.1246306    4.2189872 
17970000   0.96629118 -0.00012342943   0.67058437  0.028305909            0   0.64227846    1.4313188    2.1019032   -4.2176836 
17975000    0.9267176 -2.1613532e-05   0.68673619  0.017723072            0   0.66901312    1.3727005    2.0594366   0.95282383 
17980000    1.0776621 7.5230382e-05   0.47456021  0.013651601            0   0.46090861     1.596287    2.0708472    5.9226428 
17985000   0.85875672 3.1988836e-05   0.76479782  0.025230167            0   0.73956765    1.2720334    2.0368312    3.6746596 
17990000    1.0086378 7.6813765e-05   0.53717054   0.00954417            0   0.52762637    1.4940447    2.0312152      5.96408 
17995000    1.0332859 7.2634411e-05   0.48876907 0.0055708096            0   0.48319826    1.5305548    2.0193238    5.7382057 
18000000   0.92938743 -0.00010950406    0.6488009 0.0085752733            0   0.64022563    1.3766551     2.025456   -3.5811517 
18005000   0.94113315 -0.00011157709    0.5928046 0.0090705167            0   0.58373408    1.3940535    1.9868581   -3.7258887 
18010000   0.87037551 3.3985559e-05   0.67353321  0.003104778            0   0.67042844    1.2892437    1.9627769    3.7028375 
18015000   0.92208103 -6.748936e-06    0.6079769  0.014396006            0    0.5935809    1.3658325    1.9738094    1.6282639 
18020000   0.85437241 -0.00013097132   0.69424335  0.086879355            0     0.607364    1.2655391    1.9597825   -4.7459492 
18025000   0.93297729 -6.4434547e-05   0.55771749  0.034738625            0   0.52297886    1.3819726    1.9396901   -1.3593587 
18030000   0.91271905 -2.2631782e-05   0.57278528  0.023919298            0   0.54886599    1.3519651    1.9247504   0.76600315 
18035000   0.91682961 -3.6618836e-05   0.55328455  0.031197353            0    0.5220872    1.3580539    1.9113384  0.036454024 
18040000   0.86854791 7.8952711e-05   0.59834321  0.051593181            0   0.54675002    1.2865366    1.8848798    5.9272586 
18045000   0.83902171 2.6924888e-05    0.6340718  0.025053024            0   0.60901878    1.2428009    1.8768727     3.255427 
18050000   0.83512519 -2.2038682e-05   0.66197156   0.02246284            0   0.63950872    1.2370292    1.8990007   0.77062024 
18055000   0.89856859 4.7232129e-05    0.5947511   0.01288393            0   0.58186717    1.3310047    1.9257558    4.3440408 
18060000   0.95340145 0.00012228805   0.51986641  0.012130459            0   0.50773595    1.4122259    1.9320923    8.1932405 
18065000   0.93738121 -1.907293e-06   0.54655996  0.047073651            0   0.49948631    1.3884959    1.9350559    1.8374025 
18070000    1.0102466 -5.9766183e-05   0.44859875  0.017065161            0   0.43153359    1.4964277    1.9450265   -1.1150021 
18075000   0.92982344 -3.9810393e-05   0.57325817  0.018505299            0   0.55475287     1.377301    1.9505591 -0.087732955 
18080000   0.94094999 -4.7816294e-05   0.53674012  0.014073799            0   0.52266632    1.3937822    1.9305223  -0.51767195 
18085000   0.94394336 4.6145704e-06   0.55740081  0.010843189            0   0.54655762    1.3982161    1.9556169    2.1918829 
18090000   0.97436435 6.0314463e-05   0.51986286  0.004451981            0   0.51541088    1.4432772      1.96314    5.0512406 
18095000   0.94285213 -6.4285264e-05   0.55922396 0.00055994753            0   0.55866401    1.3965997    1.9558237   -1.3355818 
18100000   0.89856012 -6.009292e-05    0.6242451 0.0037515563            0   0.62049354    1.3309922    1.9552373   -1.1215202 
18105000   0.90673626 -0.00010701171    0.5878097  0.010655963            0   0.57715373    1.3431031    1.9309128   -3.5480868 
18110000   0.95072098 3.7285369e-05   0.50726801 0.0099054671            0   0.49736254    1.4082555    1.9155235    3.8245344 
18115000   0.91189464 3.9238753e-05   0.57348187   0.01583788            0   0.55764399    1.3507439    1.9242258      3.93325 
18120000   0.94539333 8.1337654e-05   0.51807872  0.019948746            0   0.49812997    1.4003639    1.9184426    6.0829305 
18125000   0.79988596 -5.4571992e-05    0.7216852   0.01995653            0   0.70172867    1.1848311    1.9065163   -0.8875697 
18130000   0.86181003 -3.6182381e-05   0.61907934  0.050553678            0   0.56852566    1.2765561    1.8956354  0.043097538 
18135000   0.98827781 8.8111405e-05   0.43755078  0.022612323            0   0.41493846    1.4638865    1.9014373    6.4127412 
18140000   0.94609289 -0.00014241093   0.50728199  0.013667463            0   0.49361453    1.4014001    1.9086821   -5.3827573 
18145000   0.96116294 -0.00015192591   0.48436342  0.011358542            0   0.47300488    1.4237226     1.908086   -5.8705204 
18150000   0.85959027 -9.1524609e-05   0.63784644  0.049245471            0   0.58860097    1.2732681    1.9111145   -2.7749454 
18155000   0.92601469 -5.9655916e-05   0.54434255  0.031631011            0   0.51271154    1.3716593    1.9160018   -1.1383811 
18160000   0.88803314 7.3689339e-05   0.62376381  0.012521494            0   0.61124232    1.3153991    1.9391629    5.7120571 
18165000    0.8699944 -0.00011215617   0.64908239 0.0070511162            0   0.64203127    1.2886792    1.9377616   -3.8046345 
18170000    1.0371469 -7.7998051e-05    0.3855016 0.0030500911            0   0.38245151    1.5362739    1.9217755   -2.0717247 
18175000   0.93931795 -6.3875053e-05   0.55624541 0.0041546673            0   0.55209074    1.3913647    1.9476101   -1.3227926 
18180000   0.87702362 -6.0659693e-05   0.65354925  0.029469065            0   0.62408019    1.2990912    1.9526405   -1.1531358 
18185000   0.90484974 0.00014200457   0.59255998  0.067955068            0   0.52460492    1.3403087    1.9328687    9.2035028 
18190000    0.9769331 7.1965282e-05   0.48356873  0.014983315            0   0.46858541    1.4470822    1.9306509    5.6152733 
18195000   0.88290863 -1.5054644e-05   0.64640148  0.014721331            0   0.63168015    1.3078084    1.9542099    1.1834121 
18200000    0.9489046 7.245807e-05   0.55993517  0.014660942            0   0.54527423    1.4055649    1.9655001    5.6753533 
18205000   0.99086481 -5.8104748e-05   0.52719152  0.010319434            0   0.51687209    1.4677185      1.99491  -0.98005306 
18210000    1.0145708 -4.6385294e-05   0.49141793 0.0057779171            0   0.48564001    1.5028331     1.994251  -0.38067605 
18215000   0.95650454 -1.6448728e-05   0.57228007  0.013798723            0   0.55848134    1.4168224    1.9891024    1.1469275 
18220000    1.0294824 -1.8512542e-05   0.48693746  0.024516766            0    0.4624207    1.5249208    2.0118583    1.0640161 
18225000   0.93717227 3.247663e-05   0.63307794  0.032720839            0    0.6003571    1.3881864    2.0212644    3.6840678 
18230000   0.97190228 2.7879667e-05   0.58450226  0.013319225            0   0.57118304    1.4396303    2.0241325    3.4515715 
18235000     0.972758 8.4221224e-05   0.57748997 0.0039241428            0   0.57356583    1.4408978    2.0183878    6.3305144 
18240000    1.0376925 0.00010228302    0.5072794  0.014270058            0   0.49300934    1.5370821    2.0443615    7.2812519 
18245000    0.9852083 3.5720904e-05   0.62248607   0.02689716            0   0.59558891    1.4593398    2.0818259    3.9107362 
18250000    1.0468004 -1.874417e-05   0.49953129  0.013558336            0   0.48597296    1.5505731    2.0501044    1.0904029 
18255000    1.0507945 -3.5523707e-05   0.50637533 0.0081003914            0   0.49827494    1.5564894    2.0628647   0.24405093 
18260000   0.94841363 -2.4957132e-05   0.62304123   0.02858939            0   0.59445184    1.4048377    2.0278789   0.75007376 
18265000   0.97083625 8.2454973e-05   0.58431685  0.026681385            0   0.55763547    1.4380512    2.0223681    6.2440627 
18270000   0.98035688 5.8406877e-05   0.55758598  0.026241878            0    0.5313441    1.4521536    2.0097396    5.0001717 
18275000   0.95524004 -2.116515e-05   0.60222909  0.031072852            0   0.57115624    1.4149493    2.0171784    0.9335227 
18280000   0.98877244 -3.8016785e-05   0.57754225  0.013724609            0   0.56381765    1.4646192    2.0421614  0.095702044 
18285000   0.96838331 0.00010784193   0.62837142 0.0072022809            0   0.62116914    1.4344178    2.0627892    7.5842962 
18290000    1.0068294 -3.3211046e-05   0.58637192 0.0021761518            0   0.58419577    1.4913661     2.077738   0.37733247 
18295000    1.0453944 -1.9869458e-05   0.54112232 7.6804297e-05            0   0.54104552    1.5484905    2.0896128    1.0722966 
18300000     1.072158 0.00013365163   0.50007977 0.0045986615            0   0.49548111     1.588134    2.0882138     8.931177 
18305000    1.0270742 -1.805095e-05   0.58087355  0.014427423            0   0.56644613    1.5213536    2.1022272    1.1780185 
18310000     1.059401 -7.0292742e-05    0.5113162  0.015922875            0   0.49539332    1.5692378     2.080554   -1.5184344 
18315000   0.96533458 0.00011437569   0.63838715  0.013060166            0   0.62532698    1.4299018     2.068289    7.9243242 
18320000     1.021324 0.00010018285   0.51874483  0.013556671            0   0.50518816    1.5128362     2.031581    7.1609428 
18325000    1.0119572 2.0856519e-05   0.54344096  0.010646985            0   0.53279397    1.4989616    2.0424025    3.1102563 
18330000   0.93174101 -0.0001100097   0.64352936  0.029230442            0   0.61429892    1.3801414    2.0236707   -3.6088259 
18335000   0.96534582 -0.00014440422   0.59516461 0.0052365282            0   0.58992808    1.4299185    2.0250831    -5.368413 
18340000   0.95551464 6.9511173e-05   0.62432773 0.0070885438            0   0.61723919    1.4153561    2.0396838    5.5986558 
18345000   0.95270364 6.6978943e-05   0.62783136  0.012336723            0   0.61549464    1.4111923    2.0390236    5.4683455 
18350000   0.96304034 9.7889377e-06   0.61769407  0.014170985            0   0.60352309    1.4265035    2.0441976    2.5453912 
18355000   0.96493824 -2.5510673e-05   0.60830318  0.037184768            0   0.57111841    1.4293148    2.0376179   0.73147146 
18360000    1.0182601 5.9062319e-05   0.56819143  0.030030665            0   0.53816076    1.5082978    2.0764892    5.1004799 
18365000    1.0437076 0.00011251382   0.53071977  0.006897776            0   0.52382199    1.5459919    2.0767117    7.8374192 
18370000    1.0234616 4.8984975e-06   0.54511085 0.0035203409            0    0.5415905    1.5160025    2.0611133    2.3119164 
18375000    1.0602979 7.3600995e-05   0.49480537 0.0066439697            0    0.4881614    1.5705663    2.0653716    5.8337426 
18380000    1.0530688 -2.8565848e-05   0.52055221 0.0060134575            0   0.51453876    1.5598582    2.0804104   0.61783899 
18385000     1.071321 4.9369807e-06   0.50327331  0.011759695            0   0.49151362    1.5868942    2.0901675    2.3429409 
18390000    1.0750934 9.1808074e-05   0.45663287  0.018754683            0   0.43787819    1.5924821    2.0491149    6.7496883 
18395000    1.0500798 4.8664366e-05   0.49917375  0.025268521            0   0.47390523    1.5554306    2.0546044    4.5462199 
18400000    1.0014851 2.959355e-05   0.60841926  0.026350877            0   0.58206838    1.4834498    2.0918691    3.6070589 
18405000    1.0626379 -4.0873767e-05   0.52858382 0.0027899305            0   0.52579388    1.5740324    2.1026162 0.0098793406 
18410000    1.0341145 1.1847698e-05   0.58096651 0.0096020836            0   0.57136442     1.531782    2.1127486    2.7193507 
18415000    1.0511378 5.1546845e-05    0.5755777  0.016243146            0   0.55933456    1.5569978    2.1325755     4.771774 
18420000   0.95108718 -7.6891772e-05   0.71473067  0.013800605            0   0.70093007    1.4087979    2.1235286   -1.8133302 
18425000    1.0328712 -2.1902435e-05   0.58849749  0.048220396            0   0.54027709    1.5299404    2.1184379   0.99703324 
18430000    0.9585556 9.045345e-05   0.70578022   0.03751443            0   0.66826579    1.4198605    2.1256407    6.7568573 
18435000    0.9601656 5.5401679e-05   0.65842339  0.065803253            0   0.59262014    1.4222453    2.0806687    4.9172346 
18440000    1.0667208 0.00017524386   0.48187478  0.044459181            0    0.4374156    1.5800802     2.061955    11.034441 
18445000   0.88534758 0.00022399911   0.78939621  0.011025423            0   0.77837079    1.3114211    2.1008173    13.569572 
18450000   0.93711922 0.0001067619   0.69842627  0.043275166            0   0.65515111    1.3881078    2.0865341    7.5527434 
18455000   0.94109391 8.4643959e-05   0.68932092  0.023553679            0   0.66576724    1.3939954    2.0833163     6.417087 
18460000     1.072715 8.3387912e-05   0.44608081 0.0065404013            0   0.43954041    1.5889591    2.0350399     6.304501 
18465000    1.0325749 2.5168349e-06   0.50939143  0.017635256            0   0.49175617    1.5295015     2.038893    2.1677549 
18470000   0.97381014 -1.4944674e-05    0.6091093  0.087900727            0   0.52120857    1.4424563    2.0515656    1.2863983 
18475000    0.9238699 1.3610345e-05   0.65953147  0.046166455            0   0.61336501    1.3684823    2.0280138    2.7248634 
18480000    0.9188542 -4.0037493e-05   0.68112894   0.01967539            0   0.66145355    1.3610528    2.0421817 -0.0077379079 
18485000   0.97824113 -2.7068792e-05     0.576979  0.047629467            0   0.52934953    1.4490197    2.0259987   0.64007655 
18490000   0.95621589 3.5730565e-05   0.60619433   0.04583165            0   0.56036268    1.4163948    2.0225891    3.8519941 
18495000   0.97242325 4.884217e-05   0.60154057 0.0032196474            0   0.59832093    1.4404019    2.0419425    4.5426616 
18500000   0.98049211 7.6276405e-05   0.61533168 0.0030963758            0    0.6122353    1.4523539    2.0676856    5.9730376 
18505000    1.0696816 6.2933842e-05   0.49863519  0.010483217            0   0.48815198    1.5844659    2.0831011    5.3053138 
18510000    1.0172675 -9.8584625e-05     0.562583   0.01708954            0   0.54549346    1.5068275    2.0694105   -2.9781223 
18515000   0.99862692 -0.000156459   0.58887528  0.017524382            0    0.5713509    1.4792161    2.0680914   -5.9426095 
18520000    1.0351564 3.6374471e-05   0.54878885 0.0037793735            0   0.54500948    1.5333254    2.0821142    3.9444872 
18525000   0.95153355 -1.1646114e-05   0.66016003  0.001110719            0   0.65904932    1.4094591    2.0696191    1.4733381 
18530000    1.0635097 -0.00013805322   0.48665096 0.0024339771            0   0.48421698    1.5753238    2.0619748   -5.0063503 
18535000   0.99013287 1.7034613e-05   0.56939284 0.0061658805            0   0.56322696    1.4666343    2.0360272    2.9081994 
18540000    1.0285689 2.6863718e-05   0.51672051  0.013874258            0   0.50284625    1.5235677    2.0402882    3.4157106 
18545000   0.94813726 -7.6621168e-05   0.60824988 0.0057388237            0   0.60251106    1.4044283    2.0126782   -1.9103256 
18550000    1.0265139 8.064951e-05   0.50998104 0.0010003533            0   0.50898069    1.5205237    2.0305048    6.1597597 
18555000    1.0038934 0.00016358354   0.54757781 0.0037183299            0   0.54385948    1.4870171    2.0345949    10.410072 
18560000    1.0368938 -3.7153592e-05   0.51242398 0.0068110223            0   0.50561296     1.535899     2.048323   0.14605904 
18565000   0.93150294 -9.1761271e-05   0.63669493  0.017318173            0   0.61937676    1.3797887    2.0164837   -2.6816934 
18570000    0.9901838 4.0848763e-05   0.54627273  0.014651219            0   0.53162151    1.4667098    2.0129825    4.1044391 
18575000    0.9750122 1.1365457e-05    0.5351109  0.015740644            0   0.51937025    1.4442368    1.9793477    2.5612591 
18580000   0.93196389 0.00014560199   0.60998352  0.048282614            0   0.56170091    1.3804715     1.990455    9.4452767 
18585000   0.90509834 -3.6529686e-05   0.65094617  0.070515482            0   0.58043069    1.3406769    1.9916231   0.12130315 
18590000   0.95844478 9.8709746e-06   0.59283474   0.08778749            0   0.50504725    1.4196963    2.0125311     2.517925 
18595000   0.89646971 0.00011782506   0.65655289  0.057985385            0    0.5985675    1.3278958    1.9844487    8.0170917 
18600000   0.96792752 6.3174523e-05   0.55075505  0.018958285            0   0.53179677    1.4337426    1.9844977    5.2190333 
18605000    1.0372343 -6.3724431e-05   0.47419389  0.028264947            0   0.44592894    1.5364033    2.0105971   -1.2520937 
18610000   0.96158522 -0.00012846251   0.57791227    0.0152246            0   0.56268768    1.4243481    2.0022604   -4.5750201 
18615000   0.99985936 0.00011227877   0.51932874 0.0027560487            0   0.51657269    1.4810417    2.0003704    7.7490434 
18620000    1.0420632 6.6260742e-05    0.4518993 0.0013149948            0    0.4505843    1.5435561    1.9954554    5.3880054 
18625000    1.0030368  -4.6305e-05   0.53120937 5.9707653e-06            0    0.5312034    1.4857483    2.0169576  -0.35385835 
18630000    1.0060517 -0.00014220598   0.51770112 0.0050736628            0   0.51262746     1.490214    2.0079152   -5.2730308 
18635000   0.97532292 -5.4483576e-05   0.55919632   0.04564609            0   0.51355023    1.4446971    2.0038934  -0.78566568 
18640000   0.94449672 9.2429116e-06   0.60837384 0.0099721843            0   0.59840166    1.3990358    2.0074096    2.4806467 
18645000   0.99085826 -1.0328095e-05   0.54934726 0.0070576447            0   0.54228961    1.4677088    2.0170561    1.4882576 
18650000   0.94287736 0.00013744474   0.62849882  0.043355545            0   0.58514327    1.3966371    2.0251359    9.0623063 
18655000    1.0012433 4.8405831e-05   0.55733632  0.016119635            0   0.54121668    1.4830917     2.040428    4.5188065 
18660000   0.96563855 -9.2691637e-05   0.61718609 0.0059861481            0   0.61119994    1.4303521    2.0475382   -2.6982736 
18665000   0.98244595 2.5843074e-05   0.56671948  0.011241971            0    0.5554775    1.4552481    2.0219675    3.3451329 
18670000   0.98062576 1.6852243e-05   0.55313848  0.026253093            0   0.52688538    1.4525519    2.0056904    2.8685252 
18675000   0.97587762 4.7754596e-05   0.56791522  0.027995205            0   0.53992002    1.4455187     2.013434    4.4584693 
18680000    1.0121501 -4.4393549e-05   0.50774618  0.018650673            0   0.48909551    1.4992473    2.0069935  -0.26595619 
18685000   0.98410415 6.0676505e-05   0.55146132  0.029354809            0   0.52210651    1.4577043    2.0091656    5.1158027 
18690000   0.91405593 0.00025351863   0.64507016   0.03301538            0   0.61205478    1.3539453    1.9990155    14.979169 
18695000   0.94283841 -2.0162144e-05   0.60605291  0.039426227            0   0.56662668    1.3965794    2.0026323   0.97033052 
18700000   0.97507653 -0.00016645758   0.57685499  0.031672365            0   0.54518262    1.4443321    2.0211871    -6.501441 
18705000    1.0721561 -7.7552561e-05   0.44620563 0.0053106797            0   0.44089495    1.5881312    2.0343369   -1.9363543 
18710000   0.97596657 1.9780762e-05   0.57913349 0.0015114291            0   0.57762206    1.4456505     2.024784     3.037559 
18715000   0.92792208 4.6010512e-05   0.62605177  0.003535606            0   0.62251617    1.3744846    2.0005363    4.3562746 
18720000   0.97613648 6.9982907e-05   0.59405911 0.0056258492            0   0.58843326    1.4459022    2.0399613    5.6230861 
18725000     0.882786 8.9737645e-05   0.72848657 0.0069047658            0   0.72158181    1.3076268    2.0361133    6.6306808 
18730000   0.88846381 0.00013994238   0.68202476  0.029511798            0   0.65251296     1.316037    1.9980618    9.1631118 
18735000   0.96274941 9.2226597e-05   0.56823444  0.028727163            0   0.53950728    1.4260726     1.994307    6.7163088 
18740000    1.0322591 4.5433071e-05   0.47380742  0.010161305            0   0.46364612    1.5290337    2.0028411    4.3290144 
18745000   0.97483417 1.1085145e-05   0.56709698 0.0085921154            0   0.55850487    1.4439731    2.0110701    2.5786295 
18750000   0.85652579 -0.00011654087   0.71915897  0.016978037            0   0.70218093    1.2687288    1.9878878   -3.9790046 
18755000    1.0214285 -4.7286949e-05   0.47552264  0.018028432            0   0.45749421     1.512991    1.9885137  -0.43257812 
18760000   0.99028769 5.2595479e-06   0.53750097  0.014750908            0   0.52275006    1.4668636    2.0043646    2.2736535 
18765000   0.93513602 -1.481247e-05    0.6143768  0.054862797            0     0.559514    1.3851702     1.999547    1.2411486 
18770000   0.98653082 -3.6219076e-05   0.57429684  0.020078271            0   0.55421857    1.4612988    2.0355956   0.18117892 
18775000    1.0556221 -6.1862653e-06   0.47660833 0.0062805697            0   0.47032776    1.5636403    2.0402486    1.7235118 
18780000    0.9468142 0.00011779795   0.63400335  0.015944468            0   0.61805889    1.4024685    2.0364719     8.067727 
18785000   0.97637651 0.00020327686   0.61645359   0.03755999            0    0.5788936    1.4462577    2.0627113    12.470486 
18790000    1.0246316 7.9355667e-05   0.58184939  0.046757494            0    0.5350919    1.5177355    2.0995849    6.1625951 
18795000    1.0055029 -7.5927969e-07   0.63674456  0.024522906            0   0.61222166    1.4894012    2.1261458    2.0872707 
18800000    1.0136796 -6.9168335e-05   0.57550173 0.0073166903            0   0.56818504     1.501513    2.0770147   -1.4644041 
18805000   0.93106649 7.0474022e-05   0.70658216  0.012633627            0   0.69394853    1.3791422    2.0857244    5.6939943 
18810000   0.98104587 -5.4401518e-06   0.65678375   0.01733942            0   0.63944433    1.4531742    2.1099579    1.8314222 
18815000   0.98454881 -3.6250913e-06   0.61667271  0.022975844            0   0.59369686    1.4583629    2.0750356     1.889431 
18820000   0.99218278 0.00011568585   0.59932976  0.013995307            0   0.58533445    1.4696707    2.0690005     7.992116 
18825000   0.91400532 5.7132162e-05   0.72740116  0.032520827            0   0.69488033    1.3538704    2.0812715    5.0064382 
18830000     1.064459 7.9774168e-05   0.51272807  0.011178134            0   0.50154993    1.5767299    2.0894579    6.1738954 
18835000    1.0578651 5.5031086e-05   0.51093129 0.00034547508            0   0.51058582    1.5669627     2.077894    4.8954856 
18840000    1.0080668 -0.00013669167   0.58040862 0.0037320619            0   0.57667656     1.493199    2.0736076   -4.9250059 
18845000   0.99805071 -5.9935954e-05   0.59124074  0.031171507            0   0.56006923    1.4783626    2.0696034  -0.99911751 
18850000   0.96811465 4.7158463e-05   0.67047423  0.045540657            0   0.62493357    1.4340198     2.104494    4.5190074 
18855000    0.9847978   1.0688e-05   0.61671509  0.014211253            0   0.60250384    1.4587317    2.0754468    2.6226724 
18860000   0.98865351 -3.0145478e-06   0.59323275  0.011239624            0   0.58199312     1.464443    2.0576758    1.9033309 
18865000   0.96760676 8.2079803e-05    0.6223069  0.014291398            0    0.6080155    1.4332675    2.0555744    6.2580604 
18870000   0.98165759 0.00012247329   0.61099565  0.012116319            0   0.59887933    1.4540803     2.065076    8.3357083 
18875000    1.0223721 -6.4808428e-05   0.55153675 0.0088620874            0   0.54267466    1.5143886    2.0659253   -1.2522662 
18880000   0.96918687 -0.00018246197   0.63754192 0.0096433112            0   0.62789861    1.4356081      2.07315   -7.2689027 
18885000   0.97944839 1.9017506e-06   0.60290411 0.0077986727            0   0.59510543    1.4508079     2.053712    2.1510817 
18890000   0.95446267 0.00024223354      0.66082 0.0097387651            0   0.65108124    1.4137978    2.0746178    14.476975 
18895000    1.0112756 0.00018766868   0.59575559 0.0073670671            0   0.58838852     1.497952    2.0937076    11.702344 
18900000    1.0075033 7.9867185e-05   0.58143911  0.008478048            0   0.57296106    1.4923643    2.0738034    6.1630033 
18905000    1.0465509 2.9360919e-05   0.51137091  0.026906332            0   0.48446458    1.5502035    2.0615744    3.5648534 
18910000     0.987546 -0.00010677924   0.61006333  0.026160867            0   0.58390246    1.4628025    2.0728658   -3.3942315 
18915000    1.0157774 -8.0049405e-05     0.560364  0.018534962            0   0.54182904    1.5046203    2.0649843   -2.0335453 
18920000    1.0233904 -4.4234328e-05   0.56053035  0.022511121            0   0.53801923     1.515897    2.0764274  -0.18837023 
18925000    1.0599106 5.6985957e-05   0.51321896 0.0025137113            0   0.51070524    1.5699925    2.0832115    5.0008925 
18930000    1.1064996 3.9561731e-05   0.47616119 0.00032219303            0     0.475839    1.6390025    2.1151637    4.1407243 
18935000   0.93712557 -2.7057753e-05   0.73733993  0.005287957            0   0.73205197    1.3881172    2.1254572   0.74010021 
18940000    1.0728821 8.1652497e-05   0.54986423  0.026405751            0   0.52345848    1.5892066    2.1390708    6.3196786 
18945000    1.0459432 -1.2629649e-06   0.58559209  0.033809781            0   0.55178231    1.5493034    2.1348955    2.0702317 
18950000    1.0261154 -3.1703298e-05   0.62959884  0.018508934            0    0.6110899    1.5199335    2.1495323   0.52632345 
18955000    1.0725254 2.9915413e-05   0.55260735  0.013535821            0   0.53907153    1.5886783    2.1412856    3.6729548 
18960000    1.0785042 -1.6112203e-05   0.55715787  0.010452954            0   0.54670491    1.5975343    2.1546922    1.3297474 
18965000    1.0919173 7.7909734e-06   0.51838088 0.0038508058            0   0.51453007    1.6174024    2.1357833    2.5346811 
18970000    1.0020058 9.0375414e-05   0.58622265 0.0016385478            0    0.5845841    1.4842211    2.0704437    6.6976649 
18975000   0.99940741 0.00012533202   0.61160525 0.0091385518            0    0.6024667    1.4803722    2.0919775    8.5089766 
18980000   0.96621865 0.00013057099   0.62360632  0.026026848            0   0.59757947    1.4312114    2.0548177    8.7400523 
18985000   0.94218174 1.6970269e-05   0.67032522  0.018796213            0   0.65152901    1.3956067    2.0659319    2.9348097 
18990000     1.008667 -6.3610183e-05   0.57516104 0.0037599131            0   0.57140113     1.494088    2.0692491   -1.1875923 
18995000    1.0292937 4.2198945e-05   0.55306027  0.023913772            0   0.52914649    1.5246412    2.0777015    4.2382875 
19000000    0.9214772 0.00013000149   0.69587582  0.015245814            0   0.68063001    1.3649381    2.0608139      8.71689 
19005000   0.91807033  3.95196e-05   0.70788379 0.0050207218            0   0.70286306    1.3598917    2.0677755     4.091179 
19010000    1.0382117 -8.3296954e-05    0.5257881  0.034622397            0   0.49116571    1.5378511    2.0636392   -2.2011648 
19015000    1.0374373 -2.9031804e-05   0.54307851  0.052387594            0   0.49069092     1.536704    2.0797826   0.59335422 
19020000    1.0148672 3.5945265e-05   0.58797735  0.035493031            0   0.55248432     1.503272    2.0912494     3.931647 
19025000    1.0240544 -2.4521652e-06   0.61338738  0.026291688            0   0.58709569    1.5168805    2.1302679    2.0047171 
19030000    1.0764949 -2.2308235e-05   0.52891267   0.01129069            0   0.51762198     1.594558    2.1234707   0.98128906 
19035000     1.073112 -1.4599511e-05    0.5098733 0.0038752527            0   0.50599805    1.5895471    2.0994204    1.3519254 
19040000     1.047359 6.7430418e-06   0.54090744 0.00057932343            0   0.54032811    1.5514005    2.0923079    2.4375517 
19045000   0.97225131 4.1833949e-05   0.65482771 0.0049267613            0   0.64990095    1.4401473     2.094975    4.2368732 
19050000   0.97252684 1.5150615e-06   0.64062651  0.033380855            0   0.60724565    1.4405554    2.0811819     2.158753 
19055000   0.98282189 -5.4340112e-05    0.6329921  0.038345714            0   0.59464638    1.4558049     2.088797  -0.69341674 
19060000    1.0147854 5.8492344e-05   0.59645666  0.013414204            0   0.58304246    1.5031509    2.0996076    5.0944156 
19065000    1.0358061 0.00013651418   0.57057982 0.0034397171            0    0.5671401    1.5342878    2.1048676    9.0943935 
19070000    1.0579274 8.436199e-05   0.53962499 9.0444096e-06            0   0.53961595     1.567055      2.10668    6.4260138 
19075000    1.0797659 1.5550951e-05   0.49144543 0.0027038701            0   0.48874156    1.5994032    2.0908486    2.8870573 
19080000    1.0059029 -5.0975049e-05   0.57507537  0.015035217            0   0.56004015    1.4899937    2.0650691  -0.54485343 
19085000    1.0361946 -4.6381629e-05   0.52331669 0.0055187075            0   0.51779798    1.5348632    2.0581799  -0.31655948 
19090000   0.98484794 2.3990199e-06   0.60866993  0.015359375            0   0.59331056     1.458806    2.0674759    2.1903058 
19095000    1.0092251 -8.760953e-06   0.55389393 0.0080026567            0   0.54589127    1.4949147    2.0488086    1.6002478 
19100000   0.96355318 -7.0409332e-05   0.62147832 0.0021362773            0   0.61934204    1.4272631    2.0487415   -1.5562163 
19105000   0.99923298 -0.00013720511   0.56602929  0.010420085            0   0.55560921    1.4801138    2.0461431   -4.9787584 
19110000   0.95714323 -9.3273188e-05   0.60588326  0.048478921            0   0.55740434    1.4177684    2.0236517   -2.7519355 
19115000     1.007209 1.1152016e-05   0.54197955   0.03930379            0   0.50267576    1.4919283    2.0339079    2.6048911 
19120000   0.99988566 4.0902461e-05   0.57575042  0.021845664            0   0.55390476    1.4810806    2.0568311    4.1510371 
19125000    1.0187534 -2.5613164e-05   0.54385686  0.032452891            0   0.51140397    1.5090284    2.0528853   0.74149128 
19130000    1.0381477 1.1741194e-05   0.50163158  0.036410535            0   0.46522105    1.5377563    2.0393879     2.640537 
19135000    0.9674603 -1.5112649e-05   0.61527053  0.044010533            0      0.57126    1.4330506    2.0483211    1.2745535 
19140000    1.0664397 9.5199184e-05   0.46738327  0.051713591            0   0.41566968    1.5796639    2.0470471    6.9212454 
19145000    1.0064773 8.1593756e-05   0.58011267  0.025415145            0   0.55469753    1.4908446    2.0709572    6.2485576 
19150000   0.96270632 5.3779887e-05   0.64467954     0.031978            0   0.61270154    1.4260087    2.0706883    4.8242185 
19155000    1.0692987 1.5996678e-05    0.4628876 0.0095568369            0   0.45333076    1.5838987    2.0467863    2.8658163 
19160000    1.0645536 -0.00014024578   0.46051265  0.014064297            0   0.44644835      1.57687    2.0373827   -5.1432015 
19165000   0.94921311 -0.00014075694   0.61642927   0.02326228            0   0.59316699    1.4060219    2.0224512   -5.1843042 
19170000   0.97806217 5.537584e-05   0.53041359  0.016648148            0   0.51376544    1.4487546    1.9791682    4.8144112 
19175000   0.91280282 0.00019073608   0.61090373  0.022190024            0   0.58871371    1.3520892    1.9629929     11.72868 
19180000   0.95185555 4.6114718e-05   0.53851969  0.023326434            0   0.51519325     1.409936    1.9484557    4.3095293 
19185000   0.94015798 -6.30452e-05   0.54850311  0.019708166            0   0.52879495     1.392609    1.9411121   -1.2868021 
19190000   0.94966181 -0.00012197784   0.56752477  0.036609269            0    0.5309155    1.4066866    1.9742113   -4.2710543 
19195000   0.92191824 -9.8892479e-05   0.60375049  0.024943896            0    0.5788066    1.3655914    1.9693419   -3.0939531 
19200000    1.0009285 7.2889994e-06   0.54278946 0.0040786364            0   0.53871082    1.4826253    2.0254148    2.3986115 
19205000   0.98077238 -1.0959363e-05    0.5641385  0.008309263            0   0.55582923    1.4527691    2.0169076    1.4557882 
19210000   0.98871673 -5.5752285e-05    0.5505572  0.016182907            0    0.5343743    1.4645367    2.0150939  -0.83942313 
19215000   0.98840278 -4.1063331e-05   0.54602354  0.017763975            0   0.52825957    1.4640716    2.0100952 -0.092347392 
19220000    1.0310332 3.5697706e-05   0.48142337 0.0047977932            0   0.47662557    1.5272179    2.0086413    3.8363638 
19225000   0.95727577 0.00011299352   0.61106895  0.014410876            0   0.59665808    1.4179647    2.0290337    7.8143018 
19230000   0.87702689 7.701959e-05   0.72773881  0.061861861            0   0.66587695    1.2990961    2.0268349    5.9702379 
19235000    1.0041199 -3.1648216e-06   0.55049401  0.062999027            0   0.48749498    1.4873525    2.0378465    1.8758077 
19240000     1.032067 -7.7508911e-05   0.48898705  0.034323677            0   0.45466337    1.5287492    2.0177362     -1.95072 
19245000   0.96259897 -7.0594501e-05   0.58690709 0.0020419981            0   0.58486509    1.4258497    2.0127568   -1.6016816 
19250000   0.98661163 -6.810801e-05   0.56204866            0            0   0.56204866    1.4614185    2.0234671    -1.463663 
19255000    1.0226112 -6.8214299e-05   0.45361365 0.0011493726            0   0.45246428    1.5147428    1.9683564   -1.5242157 
19260000     0.964758 -3.6448497e-05   0.53735134 0.0036891628            0   0.53366218    1.4290478    1.9663991   0.10023607 
19265000   0.95209277 1.8471675e-05   0.53133979  0.011150326            0   0.52018947    1.4102874    1.9416272     2.887377 
19270000   0.90783204 6.2233876e-05   0.60334759   0.03985415            0   0.56349344    1.3447262    1.9480738    5.1344483 
19275000   0.90150093 8.0271955e-05   0.61093365  0.011378251            0    0.5995554    1.3353482    1.9462819     6.056206 
19280000   0.96229966 0.00014020628   0.51071355 0.0085972542            0    0.5021163    1.4254064    1.9361199    9.1146814 
19285000   0.99319199 8.6311792e-05   0.48453743  0.014117107            0   0.47042032    1.4711656    1.9557031    6.3748668 
19290000   0.93361447 1.7196688e-05   0.54580703 0.0096267719            0   0.53618026    1.3829164    1.9287235    2.8091939 
19295000   0.98996818 2.6605763e-05   0.44612373 0.0070518755            0   0.43907185    1.4663904    1.9125141    3.2747292 
19300000   0.96127551 -3.7656556e-05   0.50253742  0.015009575            0   0.48752785    1.4238894    1.9264268 -0.0015889094 
19305000   0.93742517 7.7788551e-05   0.52601694  0.010470225            0   0.51554672     1.388561     1.914578    5.8973518 
19310000   0.97441509 0.00011571811   0.41969242 0.00079548747            0   0.41889693    1.4433524    1.8630448    7.7878119 
19315000   0.89827355 -3.6930487e-05   0.53397602 0.00037085916            0   0.53360516    1.3305677    1.8645437 -0.026297243 
19320000   0.91460612 -3.0218938e-05   0.50184516 0.0061803392            0   0.49566482    1.3547603    1.8566055   0.30939583 
19325000   0.94696174 -1.0556236e-05   0.48734985  0.026773829            0   0.46057602    1.4026871    1.8900369    1.3495576 
19330000   0.88462212 -1.3972279e-05   0.57760932  0.052917976            0   0.52469135    1.3103465    1.8879558    1.1725751 
19335000   0.91161562 -3.7774047e-05   0.53092609  0.027003887            0    0.5039222    1.3503306    1.8812567 -0.052774496 
19340000    1.0016852 -0.00012262431   0.38725375 0.0060551662            0   0.38119858    1.4837462    1.8709999   -4.4073648 
19345000   0.88964696 -4.1692579e-05   0.50891379  0.012227969            0   0.49668583    1.3177896    1.8267034  -0.30795669 
19350000   0.86416624 1.3626343e-05   0.55296002  0.023055155            0   0.52990487    1.2800462    1.8330063     2.530675 
19355000   0.89779315 2.0865606e-05   0.47450152 0.0081015714            0   0.46639994    1.3298561    1.8043576    2.8726766 
19360000    0.8457691 4.2921187e-05   0.55053707 0.0043785298            0   0.54615854    1.2527955    1.8033325    4.0008973 
19365000    0.9150954 -4.6548904e-05   0.41425225 0.0068056857            0   0.40744656    1.3554851    1.7697373  -0.61356658 
19370000   0.82727528 -7.8138465e-05   0.50921526  0.010804829            0   0.49841043    1.2254015    1.7346168   -2.2660727 
19375000   0.88873211 6.6543036e-05   0.43913977  0.022421287            0   0.41671848    1.3164344    1.7555742    5.1625776 
19380000   0.90155315 0.00015386199   0.43026708  0.018094698            0   0.41217238    1.3354256    1.7656927    9.6434264 
19385000   0.86748669 7.2781658e-05   0.49581148  0.006551665            0   0.48925981    1.2849647    1.7807761     5.507197 
19390000   0.86269032 -2.6919677e-05   0.51732339  0.005515104            0   0.51180828      1.27786    1.7951834   0.41689595 
19395000   0.88074572 -9.3102213e-05   0.51347861  0.027835296            0   0.48564331    1.3046046    1.8180832   -2.9487501 
19400000   0.88475123 -3.631747e-05   0.49556281  0.030379848            0   0.46518296    1.3105378    1.8061006 -0.053353895 
19405000   0.83341005 4.3241086e-05    0.5867067  0.011049601            0    0.5756571    1.2344886    1.8211953    4.0351389 
19410000    0.9082843 -1.1300497e-05    0.4590236  0.013598308            0    0.4454253    1.3453961    1.8044197    1.2258343 
19415000   0.87696916 -6.1116723e-06    0.5529168  0.041880649            0   0.51103615    1.2990106    1.8519274    1.5390097 
19420000   0.93584474 -2.1035223e-05   0.49517853  0.011800687            0   0.48337785      1.38622    1.8813986   0.80439511 
19425000   0.90013515 -6.9125129e-05   0.56252325  0.030495587            0   0.53202766    1.3333252    1.8958484   -1.6433581 
19430000   0.93312239 -0.00010511628   0.51846659  0.034703755            0   0.48376284    1.3821875    1.9006541   -3.4812993 
19435000   0.94807943 -4.7098592e-05   0.47697646  0.033726868            0   0.44324959    1.4043427    1.8813191  -0.53012879 
19440000   0.89150468 1.7473382e-05   0.54089377  0.055304577            0    0.4855892    1.3205413    1.8614351    2.7560722 
19445000   0.92574308 0.00013610722   0.51641314  0.022460451            0   0.49395269    1.3712569    1.8876701    8.8563595 
19450000   0.92018087 0.00010634519   0.52157968  0.026534293            0   0.49504538    1.3630179    1.8845976    7.3294716 
19455000   0.96334331 -1.1133709e-05   0.44544085 0.0082535958            0   0.43718725    1.4269523    1.8723931    1.3023473 
19460000   0.91684698 5.2711693e-06   0.52167035 0.0075406576            0    0.5141297    1.3580796    1.8797499    2.1496338 
19465000   0.93257772 -6.2230361e-05   0.53343907  0.021397163            0   0.51204191    1.3813807    1.9148198   -1.2713747 
19470000   0.92594867 -4.1450275e-05   0.56635052 0.0065209511            0   0.55982956    1.3715615     1.937912   -0.1843421 
19475000   0.93545005   0.00016177   0.53221603  0.018606536            0   0.51360949    1.3856354    1.9178514    10.200475 
19480000   0.92723098 5.552849e-05    0.5640396  0.056156345            0   0.50788326    1.3734609    1.9375005    4.7805592 
19485000   0.96113702 -6.3002189e-05   0.52769634  0.022548203            0   0.50514814    1.4236842    1.9513806   -1.2743315 
19490000    0.9429873 -0.00013619138   0.52855654 0.0032495302            0   0.52530701    1.3967999    1.9253565   -5.0476421 
19495000   0.97035176 -0.00013481975   0.48169482  0.030116857            0   0.45157796    1.4373335    1.9190284   -4.9837429 
19500000   0.89747851 -3.1660759e-05   0.55765967   0.02648808            0   0.53117159      1.32939    1.8870497   0.26601886 
19505000   0.93706934 4.6005401e-05   0.49076811  0.016866713            0   0.47390139     1.388034    1.8788021    4.2342786 
19510000   0.94995643 0.00011750848   0.46810074  0.010310257            0   0.45779049     1.407123    1.8752237     7.891658 
19515000   0.96102142 -3.0891145e-05   0.46965196   0.01141246            0    0.4582395     1.423513    1.8931649   0.31153833 
19520000   0.89183745 -1.4091067e-05   0.56181317  0.024812596            0   0.53700058    1.3210342    1.8828474    1.1613848 
19525000   0.88313148 3.3819238e-05   0.59536108  0.042082325            0   0.55327876    1.3081385    1.9034996    3.6350446 
19530000   0.87743196 -6.2406544e-05   0.56886106  0.035660362            0   0.53320069    1.2996961    1.8685571   -1.3266579 
19535000   0.96409272 8.1592859e-05   0.48271408  0.026661456            0   0.45605263    1.4280623    1.9107764    6.0883308 
19540000   0.98834595 0.00015937424   0.45717805 0.0068669101            0   0.45031114    1.4639874    1.9211655    10.081126 
19545000   0.97130885 0.0001350323   0.49778474  0.011538522            0   0.48624622    1.4387512     1.936536    8.8501896 
19550000    1.0262519 0.00018634617    0.4242677  0.021480699            0     0.402787    1.5201356    1.9444033    11.485327 
19555000   0.99070372 5.5517903e-05    0.4538667   0.01596485            0   0.43790184    1.4674799    1.9213466    4.7638632 
19560000   0.98480888 -5.5410256e-05   0.46719582  0.027496566            0   0.43969926    1.4587481     1.925944  -0.91106112 
19565000   0.98296699 -8.463852e-05    0.4382417  0.029201484            0   0.40904022    1.4560199    1.8942616   -2.4392307 
19570000   0.93056176 -2.6385476e-05   0.49519564  0.011616543            0    0.4835791    1.3783946    1.8735902   0.52265386 
19575000   0.95185883 -2.5090208e-06   0.47664291 0.0083927654            0   0.46825014    1.4099409    1.8865838    1.7581219 
19580000   0.87124096 0.00010270473   0.57646007  0.042497355            0   0.53396271    1.2905257    1.8669857    7.1254678 
19585000   0.89520085 0.00010770387   0.52901433  0.026828723            0    0.5021856    1.3260163    1.8550306    7.3694686 
19590000   0.92125228 3.4108464e-05    0.5009455  0.033424616            0   0.46752088    1.3646049    1.8655504    3.6119038 
19595000   0.95895144 -4.538991e-05   0.47651784  0.039964567            0   0.43655327    1.4204468    1.8969647  -0.42699874 
19600000    0.9127597 -4.7767968e-05   0.55057732   0.03757187            0   0.51300545    1.3520253    1.9026026  -0.54311734 
19605000   0.96785551 3.1224051e-05   0.48702739  0.022997062            0   0.46403033     1.433636    1.9206634    3.5193348 
19610000   0.97667818 2.0016883e-05   0.47428135  0.011056428            0   0.46322492    1.4467046    1.9209859    2.9458503 
19615000   0.97917672 4.4656552e-05   0.45014643  0.027846304            0   0.42230013    1.4504055    1.9005519    4.1869674 
19620000   0.94482619 0.00013816946   0.51906757  0.018680757            0   0.50038682    1.3995238    1.9185914    8.9928679 
19625000   0.98383085 6.7357108e-05   0.45372536  0.031349067            0   0.42237629    1.4572994    1.9110248    5.3597087 
19630000   0.89931283 -0.00010222958   0.56116208 0.0090682027            0   0.55209388    1.3321071    1.8932692   -3.3408855 
19635000   0.96470261 -7.4852248e-05   0.45651381 0.0053858827            0   0.45112793    1.4289657    1.8854796   -1.9469556 
19640000    1.0292878 -3.7716581e-05   0.34809863  0.012997863            0   0.33510077    1.5246325    1.8727311 -0.058357811 
19645000   0.92838403 5.7275129e-05    0.4923379  0.015288303            0   0.47704959    1.3751688    1.8675067    4.7999934 
19650000   0.93266272 0.00014156745   0.48859542  0.024913766            0   0.46368165    1.3815067    1.8701021    9.1183556 
19655000   0.92010676 0.00012893637   0.50663535 0.0078197409            0    0.4988156    1.3629081    1.8695435    8.4710854 
19660000   0.93042904 5.639749e-05   0.53935222 0.0029626678            0   0.53638955     1.378198    1.9175502    4.8051017 
19665000    1.0418171 1.9688491e-05   0.37745322  0.010110508            0   0.36734271    1.5431915    1.9206447    2.9286955 
19670000   0.94640159 6.6654095e-06   0.52104029  0.022218689            0    0.4988216    1.4018574    1.9228977    2.2641666 
19675000    0.9834377 -2.7173078e-05   0.46863152  0.021104872            0   0.44752665    1.4567171    1.9253486   0.53408701 
19680000   0.91134529 -0.00012054921   0.53828841   0.03897843            0   0.49930998    1.3499302    1.8882186   -4.2839009 
19685000   0.91408753 -2.0288842e-05   0.53062885  0.024224097            0   0.50640476    1.3539922     1.884621   0.84583232 
19690000   0.97613926 5.398631e-05   0.41409352  0.018827363            0   0.39526616    1.4459063    1.8599998    4.6240989 
19695000   0.97616038 -3.9271191e-05   0.41657889  0.046251829            0   0.37032706    1.4459376    1.8625164  -0.14816852 
19700000   0.93579153 -0.00012075929   0.47657079  0.042103229            0   0.43446756    1.3861412     1.862712   -4.3201636 
19705000   0.93971285 -8.3565097e-05   0.48011245  0.023239814            0   0.45687264    1.3919497    1.8720621   -2.4064708 
19710000   0.94769455 4.2984343e-05   0.48608257  0.018781557            0   0.46730102    1.4037726    1.8898551    4.0906535 
19715000   0.88967149 0.00014955566   0.56987122   0.02036586            0   0.54950536    1.3178259    1.8876971    9.5449468 
19720000    1.0201865 0.00012359721   0.38236971  0.020388339            0   0.36198137    1.5111513     1.893521    8.2216982 
19725000   0.96997715 -1.9707909e-05   0.46469376  0.036906196            0   0.42778757    1.4367787    1.9014724    0.8924275 
19730000   0.90511676 -6.4888849e-06   0.56096129  0.033027819            0   0.52793347    1.3407042    1.9016655    1.5694346 
19735000   0.97923639 2.3421025e-05   0.49289051  0.032904059            0   0.45998645    1.4504939    1.9433844    3.1425409 
19740000    0.9327906 -3.453493e-05   0.54185709  0.037250833            0   0.50460625    1.3816961    1.9235532   0.15536475 
19745000   0.96005965 3.8448607e-05   0.49094937  0.037612812            0   0.45333656    1.4220884    1.9130377    3.8816064 
19750000   0.95306424 6.9530912e-05   0.48388715  0.013826217            0   0.47006093    1.4117264    1.8956136    5.4555962 
19755000   0.95045906 -3.3642109e-05   0.48634295  0.011561196            0   0.47478176    1.4078675    1.8942104   0.17173447 
19760000   0.93459771 -8.7772931e-05   0.50589257  0.043085457            0   0.46280712    1.3843729    1.8902654   -2.6037086 
19765000    1.0049387 -9.5460526e-05   0.39460985  0.027968639            0   0.36664121    1.4885654    1.8831753   -3.0044037 
19770000    0.9369506 -9.0422849e-05   0.48903181 0.0030489028            0   0.48598291    1.3878581    1.8768899     -2.75276 
19775000   0.97578191 -4.237353e-05   0.45949889  0.010424403            0   0.44907449     1.445377    1.9048759  -0.26464888 
19780000   0.89093974 -7.8991701e-05    0.5907016  0.028118757            0   0.56258284    1.3197045    1.9104061    -2.133969 
19785000    0.9257707 -7.0680973e-05   0.52618202  0.039693242            0   0.48648878    1.3712979    1.8974799    -1.721386 
19790000   0.96513464 8.3518582e-05    0.4461299  0.015840279            0   0.43028962    1.4296057    1.8757356     6.151887 
19795000   0.99368917 7.8027813e-05   0.43772279 0.0032582968            0   0.43446449    1.4719021    1.9096249    5.9046489 
19800000   0.93611282 7.4970792e-05   0.50904745 0.0017372298            0   0.50731022    1.3866171    1.8956646    5.7341691 
19805000   0.95620093 -8.912751e-06   0.46957545 0.0013609688            0   0.46821448    1.4163726    1.8859481    1.4296152 
19810000    1.0370899 -5.1686055e-05    0.3633553 0.0010037948            0   0.36235151    1.5361894    1.8995447  -0.74678132 
19815000   0.98521642 -1.6969485e-05   0.43950064 0.0070322333            0    0.4324684    1.4593518    1.8988525    1.0300148 
19820000   0.85988151 -0.00010593678   0.58806146  0.014767692            0   0.57329377    1.2736995    1.8617609   -3.5622023 
19825000   0.99619397 3.5183181e-05   0.39248556 0.0028671762            0   0.38961839    1.4756123    1.8680979    3.6694767 
19830000   0.99142387 5.709734e-05    0.4097519 0.0073521227            0   0.40239978    1.4685466    1.8782985    4.8016823 
19835000   0.90293312 -9.1975097e-05   0.51906101  0.027743025            0   0.49131798    1.3374697    1.8565307   -2.8525943 
19840000   0.93205945 -6.0139819e-05    0.4816581  0.037019486            0   0.44463862    1.3806131    1.8622712   -1.2168876 
19845000   0.94973206 -1.8212585e-05   0.48211406   0.01381481            0   0.46829925    1.4067906    1.8889047   0.95642035 
19850000   0.98494013 -2.5276265e-05   0.43305154  0.016657693            0   0.41639385    1.4589426    1.8919941   0.59784936 
19855000   0.95521162 2.4291004e-05   0.50012514 0.0052174483            0   0.49490769    1.4149072    1.9150323    3.1587318 
19860000   0.94322472 -3.4130073e-05   0.51182971  0.062835172            0   0.44899454    1.3971516    1.9089813    0.1615216 
19865000    1.0142812 -0.0001063516   0.40505175  0.027466446            0   0.37758531     1.502404    1.9074558   -3.5377462 
19870000   0.91528069 -6.3647671e-05   0.56162987  0.036542581            0   0.52508729    1.3557595    1.9173894   -1.3413714 
19875000     0.878242 -8.2520164e-05   0.62333033  0.022549948            0   0.60078039     1.300896    1.9242263   -2.3008061 
19880000    1.0193254 -3.3874551e-05   0.42436512  0.023097182            0   0.40126794    1.5098758    1.9342409   0.19986388 
19885000   0.99497268 -0.00012357594   0.46291449 0.0026449532            0   0.46026954    1.4738033    1.9367178   -4.3903704 
19890000    0.9653695 5.6145064e-05   0.49239996 0.0089907802            0   0.48340918    1.4299536    1.9223535    4.7969808 
19895000   0.93747878 0.00019940899    0.5129227  0.020200402            0   0.49272229    1.3886405    1.9015631    12.111303 
19900000    1.0285671 -2.3284765e-06   0.41203044  0.017896113            0   0.39413433     1.523565    1.9355954    1.8163775 
19905000   0.97613809 -5.268461e-05   0.49939549  0.026564342            0   0.47283115    1.4459045       1.9453  -0.75215203 
19910000     1.021221 8.6783888e-05   0.43527319  0.020600436            0   0.41467275    1.5126836    1.9479568    6.3912918 
19915000    0.9751882 7.5781063e-05   0.50038042  0.021594229            0   0.47878619    1.4444975    1.9448779    5.8248684 
19920000    1.0138693 2.8662873e-07   0.45228779  0.013841863            0   0.43844592    1.5017939    1.9540817    1.9687571 
19925000    1.0409311 -9.2629277e-05   0.42322115  0.024395903            0   0.39882524    1.5418792    1.9651004   -2.7775186 
19930000    0.9573446 -0.00011804973   0.53659747  0.024509068            0   0.51208841    1.4180667    1.9546642   -4.0894823 
19935000    1.0266668 0.0001492021   0.43545398   0.03228677            0   0.40316721    1.5207503    1.9562042     9.595352 
19940000   0.99158212 0.00012376652   0.45951072  0.013825314            0   0.44568541     1.468781    1.9282917    8.2651376 
19945000    1.0171278 -4.3220881e-05   0.40413096  0.014423261            0   0.38970769    1.5066206    1.9107515   -0.3021576 
19950000   0.94727334 6.1042917e-06   0.48887944  0.021756903            0   0.46712254    1.4031486    1.8920281    2.2045678 
19955000    1.0228526 2.4174272e-05    0.3970595  0.014290614            0   0.38276888    1.5151005      1.91216    3.1498827 
19960000   0.94339748 4.2575561e-05   0.50160906  0.014068783            0   0.48754027    1.3974075    1.8990166    4.0788853 
19965000    0.9261793 8.3104343e-05   0.51887862  0.010187282            0   0.50869134    1.3719031    1.8907817    6.1457241 
19970000   0.93189012 0.00014607066    0.5027635 0.0023584834            0   0.50040502    1.3803622    1.8831257    9.3619433 
19975000    1.0374884 0.00015741696   0.34437038 0.0068521213            0   0.33751826    1.5367796      1.88115    9.9408982 
19980000   0.97034385 -4.9472388e-05    0.4684054  0.045554407            0     0.422851    1.4373218    1.9057272  -0.62725902 
19985000   0.95921766 -0.00013996153   0.47173338  0.036427478            0    0.4353059    1.4208412    1.8925745   -5.2734558 
19990000   0.98122187 -6.9145059e-05   0.42472302 0.0084022358            0   0.41632078    1.4534349    1.8781579   -1.6620691 
19995000    1.0069372 4.1416074e-05   0.37975594  0.044236395            0   0.33551955    1.4915257    1.8712816    3.9917847 
20000000   0.84770857 0.00010806783   0.60773911  0.015926718            0   0.59181239    1.2556683    1.8634074    7.3964801 
Loop time of 204.767 on 1 procs for 20000000 steps with 80 atoms

Performance: 84388.727 tau/day, 97672.138 timesteps/s
98.5% CPU use with 1 MPI tasks x no OpenMP threads

MPI task timing breakdown:
Section |  min time  |  avg time  |  max time  |%varavg| %total
---------------------------------------------------------------
Pair    | 9.2038     | 9.2038     | 9.2038     |   0.0 |  4.49
Bond    | 26.412     | 26.412     | 26.412     |   0.0 | 12.90
Neigh   | 23.265     | 23.265     | 23.265     |   0.0 | 11.36
Comm    | 55.644     | 55.644     | 55.644     |   0.0 | 27.17
Output  | 0.53539    | 0.53539    | 0.53539    |   0.0 |  0.26
Modify  | 82.151     | 82.151     | 82.151     |   0.0 | 40.12
Other   |            | 7.555      |            |       |  3.69

Nlocal:        80.0000 ave          80 max          80 min
Histogram: 1 0 0 0 0 0 0 0 0 0
Nghost:        0.00000 ave           0 max           0 min
Histogram: 1 0 0 0 0 0 0 0 0 0
Neighs:        27.0000 ave          27 max          27 min
Histogram: 1 0 0 0 0 0 0 0 0 0

Total # of neighbors = 27
Ave neighs/atom = 0.3375
Ave special neighs/atom = 5.8500000
Neighbor list builds = 3922
Dangerous builds = 0
write_restart restart.equil
System init for write_restart ...
WARNING: Communication cutoff 1.4200000000000002 is shorter than a bond length based estimate of 1.8. This may lead to errors. (../comm.cpp:667)
#--------------End of Input file ------------------
Total wall time: 0:03:24
