LAMMPS (29 Oct 2020)
###################### polyelectrolyte complexation ######################
clear

#Initialization
#------------------------------------
units				lj
dimension			3
atom_style			full
boundary			p p p

#Atom Definition
#-------------------------------------
read_data			data.complexation
Reading data file ...
  orthogonal box = (-120.00000 -120.00000 -120.00000) to (120.00000 120.00000 120.00000)
  1 by 1 by 1 MPI processor grid
  reading atoms ...
  200 atoms
  scanning bonds ...
  1 = max bonds/atom
  reading bonds ...
  199 bonds
Finding 1-2 1-3 1-4 neighbors ...
  special bond factors lj:    0.0      0.0      0.0     
  special bond factors coul:  0.0      0.0      0.0     
     2 = max # of 1-2 neighbors
     2 = max # of 1-3 neighbors
     4 = max # of 1-4 neighbors
     6 = max # of special neighbors
  special bonds CPU = 0.000 seconds
  read_data CPU = 0.003 seconds

#Force definition
#----------------------------------------------
#Bond definition
bond_style			harmonic
bond_coeff			1 5000 1
#Pair definition
special_bonds	lj 0 1 1
Finding 1-2 1-3 1-4 neighbors ...
  special bond factors lj:    0.0      1.0      1.0     
  special bond factors coul:  0.0      0.0      0.0     
     2 = max # of 1-2 neighbors
     2 = max # of 1-3 neighbors
     4 = max # of 1-4 neighbors
     6 = max # of special neighbors
  special bonds CPU = 0.000 seconds
pair_style		 lj/cut 1.12
pair_modify 		 shift yes
pair_coeff	1 1 1 1 1.12

#Timestep etc
#--------------------------------------------
timestep		1e-05
run_style		verlet
velocity		all	create	1	13

#Fix
#---------------------------------------
group polymers type 1
200 atoms in group polymers
fix 1 all nve
fix 2 all langevin 1	1	10	13
fix 3 polymers recenter INIT INIT INIT units box

#Dump
#------------------------------------------------
compute  1 all gyration
variable  myRg2 equal c_1
variable  i equal step
fix  mythermofile all print 5000 "$i ${myRg2}" file radius_of_gyration.dat screen no

thermo_style		 custom step temp press pe evdwl ecoul ebond ke etotal enthalpy
thermo 	5000
dump	3 all custom 5000 dump.lammpstrj id mol type xu yu zu
run		20000000
Neighbor list info ...
  update every 1 steps, delay 10 steps, check yes
  max neighbors/atom: 2000, page size: 100000
  master list distance cutoff = 1.42
  ghost atom cutoff = 1.42
  binsize = 0.71, bins = 339 339 339
  1 neighbor lists, perpetual/occasional/extra = 1 0 0
  (1) pair lj/cut, perpetual
      attributes: half, newton on
      pair build: half/bin/newton
      stencil: half/bin/3d/newton
      bin: standard
WARNING: Communication cutoff 1.4200000000000002 is shorter than a bond length based estimate of 1.8. This may lead to errors. (../comm.cpp:667)
Per MPI rank memory allocation (min/avg/max) = 165.7 | 165.7 | 165.7 Mbytes
Step Temp Press PotEng E_vdwl E_coul E_bond KinEng TotEng Enthalpy 
       0            1 1.4395255e-05            0            0            0            0       1.4925       1.4925       2.4875 
    5000   0.79368843 -0.00023774726   0.34456939            0            0   0.34456939      1.18458    1.5291494   -14.903941 
   10000   0.40702276 -0.00054737185   0.93756894            0            0   0.93756894   0.60748147    1.5450504   -36.289292 
   15000   0.67621544 -0.00029706504   0.53265705            0            0   0.53265705    1.0092515    1.5419086   -18.991227 
   20000    0.7238069 -0.00020981162   0.47149293            0            0   0.47149293    1.0802818    1.5517747   -12.950404 
   25000   0.54038032 -0.00044979753   0.74663123            0            0   0.74663123   0.80651763    1.5531489   -29.536856 
   30000   0.65866884 -0.00036356708    0.5800946            0            0    0.5800946   0.98306324    1.5631578   -23.566599 
   35000   0.81177972 -0.00015512593   0.36008406            0            0   0.36008406    1.2115812    1.5716653    -9.150639 
   40000   0.68166569 -0.00031262453   0.55991281            0            0   0.55991281     1.017386    1.5772989   -20.031309 
   45000   0.61209208 -0.00039990756   0.67648979            0            0   0.67648979   0.91354743    1.5900372   -26.051574 
   50000   0.74930545 -0.00024603154    0.4645007            0            0    0.4645007    1.1183384    1.5828391   -15.422861 
   55000    0.6860534 -0.00022115561   0.54422914            0            0   0.54422914    1.0239347    1.5681638   -13.718112 
   60000    0.6909401 -0.00025275441   0.53213228            0            0   0.53213228    1.0312281    1.5633604   -15.907024 
   65000   0.72167346 -0.00031852024   0.48660838            0            0   0.48660838    1.0770976     1.563706   -20.452413 
   70000   0.73844345 -0.00021600382   0.48514794            0            0   0.48514794    1.1021269    1.5872748   -13.342909 
   75000   0.75002844 -0.00015700757   0.46032665            0            0   0.46032665    1.1194174    1.5797441   -9.2726194 
   80000   0.76843864 -0.00019990474   0.43157025            0            0   0.43157025    1.1468947    1.5784649   -12.238951 
   85000   0.75320745 -0.00026676097   0.45879156            0            0   0.45879156    1.1241621    1.5829537   -16.855565 
   90000   0.75049331 -0.0001589704   0.46501134            0            0   0.46501134    1.1201113    1.5851226   -9.4029116 
   95000     0.763473 -0.00013280605    0.4426883            0            0    0.4426883    1.1394834    1.5821717   -7.5973825 
  100000   0.79337812 -0.00014341234   0.39968982            0            0   0.39968982    1.1841168    1.5838067   -8.3288544 
  105000   0.78170007 -0.00013646018   0.41996771            0            0   0.41996771    1.1666874    1.5866551   -7.8454723 
  110000   0.76111257 -0.00021033371   0.44291185            0            0   0.44291185    1.1359605    1.5788724   -12.959394 
  115000   0.80464404 -0.00014772855   0.38350206            0            0   0.38350206    1.2009312    1.5844333   -8.6265641 
  120000   0.84317353 -6.8810299e-05   0.33886346            0            0   0.33886346    1.2584365       1.5973   -3.1588679 
  125000   0.83611266 -0.00012679117   0.34779682            0            0   0.34779682    1.2478981     1.595695   -7.1681107 
  130000    0.7873329 -0.00015504846   0.42993955            0            0   0.42993955    1.1750944    1.6050339   -9.1119157 
  135000   0.81807724 -7.5148073e-05   0.38170745            0            0   0.38170745    1.2209803    1.6026877   -3.5915471 
  140000    0.8483157 -5.6436594e-05   0.34727394            0            0   0.34727394    1.2661112    1.6133851   -2.2875123 
  145000   0.83531278 -8.8974235e-05   0.35074733            0            0   0.35074733    1.2467043    1.5974516   -4.5524475 
  150000   0.82660849 -0.00010264379   0.36287421            0            0   0.36287421    1.2337132    1.5965874   -5.4981511 
  155000   0.87139816 -8.1239626e-05   0.30207205            0            0   0.30207205    1.3005618    1.6026338   -4.0126491 
  160000   0.84244731 -4.3072298e-05   0.33761915            0            0   0.33761915    1.2573526    1.5949718   -1.3821855 
  165000   0.86961926 -4.3168688e-05    0.3080964            0            0    0.3080964    1.2979067    1.6060031   -1.3778165 
  170000   0.83397988 -0.00010399444   0.37711269            0            0   0.37711269     1.244715    1.6218277   -5.5662681 
  175000   0.88322456 -4.0751204e-05   0.30792633            0            0   0.30792633    1.3182126     1.626139   -1.1905842 
  180000   0.89355517 -4.2953272e-07   0.30975816 7.9355093e-05            0   0.30967881    1.3336311    1.6433893       1.6137 
  185000   0.91052012 -3.693078e-05   0.28801492 0.00032089094            0   0.28769403    1.3589513    1.6469662  -0.90568929 
  190000   0.89492079 -6.9742229e-05   0.33549403 0.00049230707            0   0.33500173    1.3356693    1.6711633   -3.1494195 
  195000   0.87585515 -5.9461478e-05   0.37707573 0.00035517703            0   0.37672055    1.3072138    1.6842895   -2.4256878 
  200000   0.91541228 -1.3019116e-05   0.33280523 0.00020059888            0   0.33260464    1.3662528    1.6990581   0.79917679 
  205000   0.88247909 -5.6331303e-05   0.37740356            0            0   0.37740356       1.3171    1.6945036   -2.1991161 
  210000   0.91760854 -5.9712245e-05   0.30877142            0            0   0.30877142    1.3695307    1.6783022   -2.4490082 
  215000   0.90311208 -3.1354862e-05   0.32334287            0            0   0.32334287    1.3478948    1.6712376  -0.49601045 
  220000    0.9167659 -7.8011953e-06   0.30284769            0            0   0.30284769    1.3682731    1.6711208    1.1319022 
  225000   0.91077678 -4.1074454e-05   0.29451835            0            0   0.29451835    1.3593343    1.6538527   -1.1852136 
  230000   0.90969848 -2.6752591e-05   0.30678962            0            0   0.30678962     1.357725    1.6645146  -0.18462449 
  235000   0.87085281 -2.3881357e-05   0.37050794            0            0   0.37050794    1.2997478    1.6702558  0.019576341 
  240000   0.92220326 -3.2589735e-05   0.30978381            0            0   0.30978381    1.3763884    1.6861722  -0.56643032 
  245000   0.92092716 -2.0624388e-05   0.31749253 0.00012141038            0   0.31737112    1.3744838    1.6919763   0.26641859 
  250000   0.90664743 -1.3058679e-05   0.34501585 0.0011107162            0   0.34390513    1.3531713    1.6981871   0.79557122 
  255000   0.90899923 -1.8926219e-05   0.34829756 0.0035904992            0   0.34470706    1.3566814    1.7049789   0.39679868 
  260000   0.92257245 -2.4306963e-05   0.31204336 0.0010245131            0   0.31101885    1.3769394    1.6889827 0.0088854539 
  265000    0.9138042 -1.9837916e-05   0.31005652 6.7518873e-05            0     0.309989    1.3638528    1.6739093   0.30271251 
  270000   0.89968859 1.3181489e-05   0.33807311            0            0   0.33807311    1.3427852    1.6808583    2.5919628 
  275000   0.87082352 -7.4673949e-05   0.36730041            0            0   0.36730041    1.2997041    1.6670045   -3.4944588 
  280000   0.88960943 -6.1689088e-06   0.34437397            0            0   0.34437397    1.3277421    1.6721161    1.2457211 
  285000   0.89106514 2.8537857e-05   0.32895743            0            0   0.32895743    1.3299147    1.6588722    3.6314089 
  290000   0.88286965 -5.6563062e-05   0.33632812            0            0   0.33632812    1.3176829    1.6540111   -2.2556278 
  295000   0.90387702 -6.5927969e-05    0.3064323 1.9520761e-05            0   0.30641277    1.3490365    1.6554687   -2.9014725 
  300000   0.90775445 7.1790166e-05   0.31775353 0.0007322626            0   0.31702127    1.3548235    1.6725771    6.6347133 
  305000   0.88424343 -3.3923832e-05   0.32691297 0.00092717779            0   0.32598579    1.3197333    1.6466463  -0.69816897 
  310000   0.87494434 -6.2101843e-05   0.34504639 0.00067302005            0   0.34437337    1.3058544    1.6509008   -2.6415785 
  315000   0.90097409 2.0494113e-05   0.29937584 0.0001825721            0   0.29919326    1.3447038    1.6440797    3.0606328 
  320000   0.86530359 1.3941386e-05   0.34583888            0            0   0.34583888    1.2914656    1.6373045    2.6009331 
  325000   0.83357403 -3.3203328e-05   0.37617357            0            0   0.37617357    1.2441092    1.6202828  -0.67473119 
  330000    0.8400342 -4.9214132e-05   0.36890904 1.2754968e-05            0   0.36889628     1.253751    1.6226601   -1.7790207 
  335000   0.83701446 1.5604834e-05    0.3732429 0.00045017429            0   0.37279272    1.2492441     1.622487    2.7010931 
  340000   0.81470802 -6.5008106e-06   0.40604808 0.0030365402            0   0.40301153    1.2159517    1.6219998    1.1726638 
  345000   0.86790113 -4.5214888e-05   0.33222147 0.0020223213            0   0.33019915    1.2953424    1.6275639   -1.4976892 
  350000   0.86451528 -1.2060924e-05   0.33427574 0.00026815164            0   0.33400759     1.290289    1.6245648   0.79091374 
  355000   0.86079408 3.0741961e-05   0.35604511            0            0   0.35604511    1.2847352    1.6407803    3.7656646 
  360000   0.87484657 -4.2883892e-05   0.32857595            0            0   0.32857595    1.3057085    1.6342845   -1.3298501 
  365000   0.88636874 -1.2387394e-05   0.32930913            0            0   0.32930913    1.3229053    1.6522145    0.7959978 
  370000   0.86751494 -3.9109926e-05    0.3769729            0            0    0.3769729    1.2947661     1.671739   -1.0315391 
  375000   0.89687651 3.0375853e-05   0.34987678            0            0   0.34987678    1.3385882     1.688465    3.7880439 
  380000   0.84926611 -6.2906724e-05   0.40677324            0            0   0.40677324    1.2675297    1.6743029   -2.6738098 
  385000   0.89632851 -3.7608663e-05   0.34558414            0            0   0.34558414    1.3377703    1.6833544  -0.91615631 
  390000    0.8708654 8.1923666e-05   0.37814636            0            0   0.37814636    1.2997666     1.677913    7.3404768 
  395000   0.90208888 -7.0663726e-05   0.33339914            0            0   0.33339914    1.3463677    1.6797668     -3.20451 
  400000   0.90720404 -2.2696848e-05   0.35586847            0            0   0.35586847     1.354002    1.7098705   0.14106435 
  405000   0.92915815 7.9193054e-05   0.33724683            0            0   0.33724683    1.3867685    1.7240154    7.1978392 
  410000   0.91185629 -0.00014042024   0.36852678            0            0   0.36852678    1.3609455    1.7294723   -7.9763749 
  415000   0.90936363 4.6735549e-05   0.37402134            0            0   0.37402134    1.3572252    1.7312466    4.9616077 
  420000   0.89874154 -5.8053738e-06   0.37611581            0            0   0.37611581    1.3413718    1.7174876    1.3162201 
  425000   0.90629113 -8.8536838e-05   0.34879701 0.00049715484            0   0.34829986    1.3526395    1.7014365   -4.4182297 
  430000   0.89983361 5.3230541e-05   0.36777643 0.0010520644            0   0.36672436    1.3430017    1.7107781    5.3900731 
  435000   0.85877802 -2.2619683e-05   0.42546193 0.0010679978            0   0.42439393    1.2817262    1.7071881   0.14371564 
  440000   0.87047249 -5.9472402e-05   0.40976505 0.00020650478            0   0.40955854    1.2991802    1.7089452   -2.4017872 
  445000   0.91277586 5.5055954e-06   0.33993575            0            0   0.33993575     1.362318    1.7022537    2.0828005 
  450000   0.90119058 4.4238219e-05   0.34626358            0            0   0.34626358    1.3450269    1.6912905    4.7490362 
  455000   0.90989806 -9.9157264e-05   0.34568031            0            0   0.34568031    1.3580229    1.7037032   -5.1500469 
  460000   0.93005759 -9.8988277e-06    0.3044021            0            0    0.3044021     1.388111    1.6925131    1.0083061 
  465000   0.92063838 5.5492613e-05   0.31455203            0            0   0.31455203    1.3740528    1.6886048    5.5242542 
  470000   0.88511459 -9.1049796e-05    0.3625957            0            0    0.3625957    1.3210335    1.6836292   -4.6097327 
  475000    0.9170114 1.9295904e-05   0.32554231            0            0   0.32554231    1.3686395    1.6941818    3.0279147 
  480000    0.9193314 2.5148445e-05   0.32724807            0            0   0.32724807    1.3721021    1.6993502    3.4376107 
  485000   0.88574353 -6.4504393e-05   0.37500277            0            0   0.37500277    1.3219722     1.696975   -2.7615687 
  490000   0.87596823 3.1672287e-05   0.38787602            0            0   0.38787602    1.3073826    1.6952586    3.8844471 
  495000    0.9160722 -3.8162577e-05   0.33760384            0            0   0.33760384    1.3672378    1.7048416  -0.93295571 
  500000   0.89415452 -2.1183806e-05    0.3791036            0            0    0.3791036    1.3345256    1.7136292   0.24940457 
  505000   0.89962873 -3.684919e-05   0.40418529            0            0   0.40418529    1.3426959    1.7468812  -0.80013482 
  510000   0.93275867 1.9442888e-05   0.34879774            0            0   0.34879774    1.3921423    1.7409401    3.0848324 
  515000   0.92313581 -3.77512e-05   0.36109511 8.2033842e-06            0   0.36108691    1.3777802    1.7388753  -0.87048767 
  520000   0.90739163 -3.1857034e-05   0.39579507 0.00065462006            0   0.39514045     1.354282    1.7500771   -0.4518811 
  525000   0.91618012 -1.4389947e-05   0.37902329 0.00074558461            0   0.37827771    1.3673988    1.7464221   0.75178901 
  530000   0.94677584 3.2144813e-06   0.34560895 0.00025148809            0   0.34535746    1.4130629    1.7586719    1.9808568 
  535000   0.92253972 -1.6616427e-05   0.37790703 2.8092546e-05            0   0.37787893    1.3768905    1.7547976   0.60627009 
  540000   0.87233313 -2.7159442e-05   0.45439999 0.00046528722            0    0.4539347    1.3019572    1.7563572  -0.12090347 
  545000   0.88129681 -1.3238135e-05   0.41750226  0.001081685            0   0.41642057    1.3153355    1.7328378   0.81781789 
  550000   0.90836912 2.4953536e-05    0.3821835 0.0003724618            0   0.38181104    1.3557409    1.7379244    3.4627128 
  555000   0.89545855 -9.4340131e-05   0.42233004 0.0001962984            0   0.42213374    1.3364719    1.7588019   -4.7619879 
  560000   0.93553674 6.641752e-05   0.36598822 0.00046456606            0   0.36552365    1.3962886    1.7622768    6.3530558 
  565000   0.92558622 2.315114e-06   0.37304059 0.00044066825            0   0.37259992    1.3814374     1.754478    1.9144987 
  570000   0.92626635 -7.3807459e-05   0.38768386 0.00027681546            0   0.38740705    1.3824525    1.7701364   -3.3314352 
  575000   0.95918087 7.5795737e-05   0.36479905 0.00044147985            0   0.36435757    1.4315775    1.7963765    7.0353778 
  580000   0.92647853 -6.2626929e-05   0.41090173 0.0001946367            0    0.4107071    1.3827692    1.7936709   -2.5351024 
  585000   0.92745186 -1.0701728e-05   0.41793777            0            0   0.41793777    1.3842219    1.8021597    1.0624562 
  590000   0.98371057 1.5030095e-05   0.33798031            0            0   0.33798031     1.468188    1.8061683    2.8450485 
  595000   0.96913557 -3.578011e-05   0.38310559            0            0   0.38310559    1.4464348    1.8295404  -0.64358081 
  600000   0.94910164 5.526516e-05   0.41302273            0            0   0.41302273    1.4165342    1.8295569    5.6494848 
  605000   0.97252979 -7.1156094e-05   0.37458224            0            0   0.37458224    1.4515007    1.8260829   -3.0922263 
  610000    0.9586256 9.9077512e-05   0.40384308            0            0   0.40384308    1.4307487    1.8345918    8.6828294 
  615000   0.90159631 -0.00011715087   0.50021878            0            0   0.50021878    1.3456325    1.8458513   -6.2516171 
  620000    0.9788154 6.7584566e-05   0.39748071            0            0   0.39748071     1.460882    1.8583627    6.5298079 
  625000   0.94139638 -2.313635e-05   0.44423535 0.00038753557            0   0.44384782    1.4050341    1.8492695   0.25008497 
  630000   0.96158562 -5.3985427e-05   0.42956423 0.0022008618            0   0.42736337    1.4351665    1.8647308    -1.866742 
  635000   0.98148912 3.6008585e-05   0.40782637 0.0015089842            0   0.40631739    1.4648725    1.8726989    4.3616123 
  640000    1.0082815 -1.6446555e-05   0.36778164 4.8084237e-05            0   0.36773355    1.5048601    1.8726417   0.73585584 
  645000   0.97625828 -4.9924702e-05   0.43036878            0            0   0.43036878    1.4570655    1.8874343   -1.5633611 
  650000   0.97061266 7.1104551e-05   0.42078944            0            0   0.42078944    1.4486394    1.8694288    6.7841754 
  655000   0.98717322 -5.9697242e-05   0.40094403            0            0   0.40094403     1.473356    1.8743001   -2.2519733 
  660000   0.93460477 2.3301225e-05   0.47249312            0            0   0.47249312    1.3948976    1.8673907    3.4779714 
  665000   0.99439486 3.6692349e-06   0.37903764 0.0002091953            0   0.37882844    1.4841343     1.863172    2.1167895 
  670000   0.97998527 -8.3237547e-05   0.40150981 0.0023561447            0   0.39915367     1.462628    1.8641378   -3.8892414 
  675000   0.95495637 0.0001155872   0.44957005 0.0029110438            0   0.44665901    1.4252724    1.8748424    9.8642297 
  680000   0.93016827 -0.00014619265    0.4639834 0.0013756577            0   0.46260774    1.3882761    1.8522595   -8.2525767 
  685000   0.97733506 6.4448666e-05   0.38469956 0.0049089973            0   0.37979056    1.4586726    1.8433721     6.298064 
  690000     0.954706 1.4013407e-05   0.42860951 0.0058109602            0   0.42279855    1.4248987    1.8535082    2.8221149 
  695000   0.95485791 -6.2330179e-05    0.4242204 0.00087256683            0   0.42334783    1.4251254    1.8493458   -2.4589162 
  700000   0.96809393 5.2570931e-05   0.40270956 1.6130363e-05            0   0.40269343    1.4448802    1.8475897    5.4812925 
  705000   0.99725483 -2.7375953e-05   0.38113084 0.0004590538            0   0.38067178    1.4884028    1.8695337 -0.022692214 
  710000     0.986893 -1.9732394e-05   0.41110583 0.00092506667            0   0.41018076    1.4729378    1.8840436   0.52014053 
  715000   0.98118928 -1.5326745e-06   0.41605097 0.0021216272            0   0.41392934     1.464425     1.880476    1.7745375 
  720000   0.98169565 1.8054251e-05    0.4167919  0.010246433            0   0.40654546    1.4651808    1.8819727    3.1298825 
  725000   0.94415385 -6.1898446e-05   0.47567849 0.0069793758            0   0.46869912    1.4091496    1.8848281   -2.3935925 
  730000   0.95691937 6.0574976e-06   0.45540342 0.0043378947            0   0.45106552    1.4282022    1.8836056    2.3022998 
  735000   0.95673688 2.5470495e-05   0.46353038 0.0020849667            0   0.46144541    1.4279298    1.8914602    3.6519808 
  740000   0.99589068 -4.2487766e-05   0.40950846 0.0038774334            0   0.40563103    1.4863668    1.8958753   -1.0408791 
  745000   0.99865138 8.4332466e-06    0.4010013 0.0042132686            0   0.39678803    1.4904872    1.8914885    2.4743945 
  750000   0.97632595 -8.8329637e-07   0.46731024  0.002185396            0   0.46512484    1.4571665    1.9244767    1.8634233 
  755000    1.0053464 -1.6471545e-05   0.42093073 0.0032946185            0   0.41763611    1.5004795    1.9214103   0.78289707 
  760000    1.0203542 -2.8044791e-05    0.4070608  0.012431813            0   0.39462899    1.5228786    1.9299394 -0.0085165436 
  765000    0.9929629 5.6252616e-05   0.45709163 0.0030164059            0   0.45407522    1.4819971    1.9390888    5.8272696 
  770000   0.96090398 -3.5819882e-05   0.47467824 0.0010575259            0   0.47362072    1.4341492    1.9088274  -0.56704278 
  775000    1.0078001 -4.1087067e-05   0.40828298 0.0016135002            0   0.40666948    1.5041417    1.9124246  -0.92751345 
  780000   0.96910942 2.9853908e-05   0.46009607 0.00029389095            0   0.45980218    1.4463958    1.9064919     3.969994 
  785000   0.96081284 -2.6790559e-05   0.46393782            0            0   0.46393782    1.4340132     1.897951  0.046187559 
  790000   0.98297665 -8.241324e-06   0.44363889            0            0   0.44363889    1.4670927    1.9107315    1.3410912 
  795000    0.9866046 2.6634578e-06   0.44569307            0            0   0.44569307    1.4725074    1.9182004    2.1022986 
  800000    0.9413875 -6.1235482e-05   0.49831941            0            0   0.49831941    1.4050208    1.9033402   -2.3292562 
  805000   0.99077064 5.7351555e-05   0.43249313 0.00012196116            0   0.43237117    1.4787252    1.9112183    5.8753578 
  810000   0.95086194 -9.0797787e-05   0.47001051  0.005973452            0   0.46403706    1.4191614     1.889172   -4.3867711 
  815000   0.93616173 7.6955017e-05    0.4912989 0.0084064978            0    0.4828924    1.3972214    1.8885203    7.2076511 
  820000   0.98587007 -5.3346349e-05   0.40324902 0.0014738201            0    0.4017752    1.4714111    1.8746601   -1.8126396 
  825000   0.94498951 -3.5882926e-05   0.44812392 0.00014196964            0   0.44798195    1.4103968    1.8585208  -0.62170709 
  830000   0.90103232 2.0398299e-05   0.50418999            0            0   0.50418999    1.3447907    1.8489807    3.2589111 
  835000   0.91092678 -7.1358904e-05   0.48772885            0            0   0.48772885    1.3595582    1.8472871   -3.0850404 
  840000   0.91407658 0.00010130603   0.47887728            0            0   0.47887728    1.3642593    1.8431366    8.8454096 
  845000   0.96185558 -3.5177259e-05   0.41467895            0            0   0.41467895    1.4355695    1.8502484  -0.58120375 
  850000   0.94533285 -5.4740449e-05   0.44188699            0            0   0.44188699    1.4109093    1.8527963   -1.9308636 
  855000   0.95456942 2.0889753e-05   0.42991919 9.6290425e-06            0   0.42990956    1.4246949     1.854614    3.2985138 
  860000   0.93101467 -8.2762273e-05   0.47191041 2.1978455e-05            0   0.47188843    1.3895394    1.8614498   -3.8590785 
  865000   0.90782008 4.5412666e-05   0.49720451            0            0   0.49720451    1.3549215     1.852126    4.9910495 
  870000   0.93175667 -2.48555e-05   0.46024148            0            0   0.46024148    1.3906468    1.8508883   0.13287616 
  875000   0.97071908 8.3643392e-06   0.41045912 7.1432407e-05            0   0.41038769    1.4487982    1.8592573    2.4374005 
  880000   0.93719931 -3.0684489e-05   0.46523874 0.00067467415            0   0.46456407      1.39877    1.8640087  -0.25690319 
  885000   0.97637379 -6.5825219e-05   0.42049496 0.0039514027            0   0.41654355    1.4572379    1.8777328   -2.6721063 
  890000   0.96779004 5.5742387e-05   0.43765241 0.0035165185            0   0.43413589    1.4444266     1.882079    5.7349928 
  895000   0.92810985 -6.2185789e-05   0.50988177  0.001240808            0   0.50864096     1.385204    1.8950857    -2.403196 
  900000   0.96588149 -2.6342405e-06   0.46237707 0.00019373084            0   0.46218334    1.4415781    1.9039552    1.7218765 
  905000   0.96972491 -4.4141804e-05   0.45502265 9.7143332e-05            0   0.45492551    1.4473144    1.9023371   -1.1487444 
  910000   0.99093149 -4.0529185e-05   0.42383823 9.9601435e-06            0   0.42382827    1.4789652    1.9028035  -0.89857381 
  915000    1.0138255 7.5677101e-06   0.38932559            0            0   0.38932559    1.5131345    1.9024601    2.4255403 
  920000   0.98801755 -5.122228e-06   0.44182653 0.0005765396            0   0.44124999    1.4746162    1.9164427    1.5623943 
  925000   0.95769003 -3.2926987e-05   0.49141177 0.0010094744            0    0.4904023    1.4293524    1.9207641  -0.35514923 
  930000   0.93348296 -1.5866726e-05   0.54084809 0.0035314231            0   0.53731667    1.3932233    1.9340714    0.8373633 
  935000   0.93114681 -3.7517098e-06    0.5112904 0.00044979048            0   0.51084061    1.3897366     1.901027    1.6417088 
  940000   0.99487653 3.4899876e-05   0.42997299 3.4746436e-07            0   0.42997265    1.4848532    1.9148262    4.3271056 
  945000   0.97233037 -5.5162465e-05   0.46249015 3.4618813e-05            0   0.46245554    1.4512031    1.9136932   -1.8991363 
  950000    0.9624947 4.1693154e-05   0.48021884            0            0   0.48021884    1.4365233    1.9167422     4.798573 
  955000   0.94759231 -9.0558876e-05   0.50275343 6.9323116e-05            0   0.50268411    1.4142815     1.917035   -4.3423946 
  960000   0.97093587 4.854846e-05   0.46484845 8.4673269e-05            0   0.46476378    1.4491218    1.9139702    5.2696398 
  965000   0.98360913 -5.1995092e-05   0.46563538 0.00035997182            0   0.46527541    1.4680366     1.933672   -1.6602287 
  970000   0.98730729 -3.108153e-05   0.46263846 0.0011481046            0   0.46149035    1.4735561    1.9361946  -0.21216074 
  975000    1.0025946 7.7004874e-05   0.46843991 0.0014675169            0   0.46697239    1.4963725    1.9648124    7.2873893 
  980000    1.0078942 9.807834e-07   0.45383163 0.0010319271            0    0.4527997     1.504282    1.9581136    2.0259054 
  985000    1.0041344 -9.2687663e-06   0.48350731 0.00089441036            0    0.4826129    1.4986705    1.9821778    1.3415207 
  990000   0.99574171 -6.3243725e-05   0.50312278 0.00058031901            0   0.50254246    1.4861445    1.9892673    -2.382139 
  995000      1.00334 -2.27421e-05   0.49980114 3.3900419e-05            0   0.49976724     1.497485    1.9972861   0.42535217 
 1000000   0.98864542 1.7602892e-05   0.51869326            0            0   0.51869326    1.4755533    1.9942465    3.2109584 
 1005000   0.99330024 -5.235517e-06   0.51603679 1.2383965e-06            0   0.51603555    1.4825006    1.9985374    1.6366585 
 1010000    1.0371054 -2.882013e-05   0.45826144 0.0016273246            0   0.45663412    1.5478798    2.0061412  0.014093828 
 1015000    1.0636492 5.2085581e-05   0.42768093 0.0032420898            0   0.42443884    1.5874964    2.0151773    5.6153327 
 1020000   0.97982231 -8.1980223e-05   0.56250883 0.00092479532            0   0.56158403    1.4623848    2.0248936   -3.6415794 
 1025000    1.0374513 7.1285442e-05   0.46716712 0.00061639286            0   0.46655072     1.548396    2.0155631    6.9428129 
 1030000    1.0283264 -1.8144561e-05   0.48439806  0.011654062            0     0.472744    1.5347771    2.0191752   0.76502315 
 1035000    1.0247491 -1.9469052e-05   0.49437321 0.0035453417            0   0.49082787     1.529438    2.0238112   0.67811032 
 1040000    1.0515354 -2.2666697e-05   0.46272518  0.004232139            0   0.45849304    1.5694166    2.0321418   0.46541968 
 1045000     1.021433 2.8896243e-05   0.51274505  0.011844006            0   0.50090104    1.5244888    2.0372338    4.0345421 
 1050000    1.0494599 -5.6330786e-05   0.47970225 0.0064269504            0    0.4732753     1.566319    2.0460212   -1.8475627 
 1055000     1.017796 1.276903e-05   0.53149228  0.003225822            0   0.52826645    1.5190605    2.0505528    2.9331482 
 1060000    1.0449611 -4.9487025e-05   0.47211234 0.0018453526            0   0.47026698    1.5596044    2.0317168   -1.3888264 
 1065000    1.0094252 4.7928659e-05   0.54312005 0.0034254034            0   0.53969465    1.5065672    2.0496872    5.3625162 
 1070000    1.0150491 2.7934828e-05   0.50551783 0.0014069693            0   0.50411086    1.5149608    2.0204786    3.9513339 
 1075000    1.0643262 -5.069027e-06   0.44503028 0.00033403877            0   0.44469624    1.5885068    2.0335371     1.683166 
 1080000    1.0073324 1.9151337e-05   0.52600118 0.00011820225            0   0.52588298    1.5034436    2.0294448    3.3531852 
 1085000   0.98594437 -5.1057761e-05   0.53582016 0.00028342172            0   0.53553674     1.471522    2.0073421   -1.5217703 
 1090000    1.0225284 3.4529262e-05   0.49465039 0.00013706254            0   0.49451333    1.5261236     2.020774    4.4074366 
 1095000    1.0532795 -2.4875064e-06   0.44761023 4.5307169e-06            0    0.4476057    1.5720197    2.0196299    1.8476935 
 1100000    1.0197109 1.2675658e-05   0.50887099 0.0012057681            0   0.50766522    1.5219185    2.0307895     2.906931 
 1105000    1.0657189 -3.3591406e-05    0.4401954 0.0041662811            0   0.43602912    1.5905854    2.0307808   -0.2910572 
 1110000    1.0304347 1.3770942e-06   0.48770851 0.0056454566            0   0.48206305    1.5379239    2.0256324    2.1208171 
 1115000   0.99479659 1.2539727e-05   0.53910657  0.014576844            0   0.52452973    1.4847339    2.0238405    2.8905864 
 1120000    1.0107169 1.1923305e-05   0.50436251 0.0021953555            0   0.50216715     1.508495    2.0128575    2.8369964 
 1125000    1.0429636 8.1993483e-05   0.46063523 0.0054736174            0   0.45516161    1.5566232    2.0172585     7.684648 
 1130000   0.98931256 -5.5111997e-05   0.52705214  0.015765236            0   0.51128691     1.476549    2.0036011   -1.8057401 
 1135000   0.99688258 6.2739658e-05   0.50535161 0.0042541931            0   0.50109741    1.4878473    1.9931989     6.329764 
 1140000   0.99947217 -5.9173914e-05   0.49386573            0            0   0.49386573    1.4917122    1.9855779    -2.104523 
 1145000    1.0031831 9.3323116e-05   0.50480713            0            0   0.50480713    1.4972508    2.0020579    8.4525517 
 1150000    1.0114352 -4.8953911e-06   0.49933576  0.001130369            0   0.49820539    1.5095671    2.0089028    1.6705334 
 1155000     1.027005 -1.606899e-05   0.49640655  0.001695627            0   0.49471092     1.532805    2.0292116   0.91852296 
 1160000    1.0645501 5.4045311e-05   0.43929838 0.0015788525            0   0.43771952    1.5888411    2.0281394    5.7637514 
 1165000    1.0038837 -1.0716895e-05   0.53599132 0.0035921376            0   0.53239918    1.4982965    2.0342878     1.293536 
 1170000    1.0238911 -9.1392107e-06   0.53337952 0.0036418617            0   0.52973766    1.5281575     2.061537    1.4298347 
 1175000    1.1099116 -1.6651008e-05    0.4010041 0.0014462689            0   0.39955783    1.6565431    2.0575472   0.90662956 
 1180000    1.0421869 5.0686013e-05   0.50398061 0.0088898258            0   0.49509079     1.555464    2.0594446    5.5628618 
 1185000    1.0451495 -9.2424033e-06    0.4879629  0.010794411            0   0.47716849    1.5598856    2.0478485    1.4090136 
 1190000    1.0847119 5.8302025e-05   0.43287848 0.00084845921            0   0.43203002    1.6189325     2.051811    6.0816469 
 1195000    1.0400567 -5.3677217e-05   0.49942022 0.00055217429            0   0.49886804    1.5522847    2.0517049   -1.6584643 
 1200000    1.0633551 -3.3024213e-05   0.46821914 0.0032923136            0   0.46492683    1.5870575    2.0552766  -0.22735702 
 1205000    1.0271276 4.8517908e-05   0.51523562 0.0025579417            0   0.51267768     1.532988    2.0482236    5.4017814 
 1210000    1.0378086 -4.7016443e-05   0.49159779 0.00093195893            0   0.49066583    1.5489293    2.0405271   -1.2092494 
 1215000    1.0416015 1.8642071e-05   0.49255809 0.0015442228            0   0.49101387    1.5545902    2.0471483    3.3356882 
 1220000    1.0706857 -1.6826084e-05   0.44961903 0.0040823795            0   0.44553665    1.5979984    2.0476175   0.88459852 
 1225000    1.0745556 2.7418279e-05   0.45338729  0.022114393            0   0.43127289    1.6037742    2.0571615     3.952313 
 1230000    1.0308674 3.4391146e-05   0.51816925  0.017887065            0   0.50028218    1.5385696    2.0567388    4.4338549 
 1235000    1.0652587 -4.2492981e-06   0.46541887 1.0863724e-05            0     0.465408    1.5898986    2.0553174    1.7616059 
 1240000    1.0560821 -6.3701469e-05   0.48183524            0            0   0.48183524    1.5762026    2.0580378   -2.3450077 
 1245000     1.088194 4.3212366e-05    0.4398417            0            0    0.4398417    1.6241295    2.0639712    5.0508099 
 1250000    1.0313075 -0.00012476483    0.5267609 4.3210597e-05            0   0.52671769    1.5392264    2.0659873   -6.5577577 
 1255000    1.0548157 2.2249142e-06   0.47732107            0            0   0.47732107    1.5743124    2.0516335    2.2054195 
 1260000     1.013681 -2.7873218e-05   0.55255833 0.0040980605            0   0.54846027    1.5129189    2.0654772   0.13888034 
 1265000    1.0511737 -4.9564009e-05   0.50201817  0.011614483            0   0.49040369    1.5688767    2.0708949   -1.3549694 
 1270000    1.0587152 -1.6369193e-05   0.47733451 0.00056572562            0   0.47676878    1.5801324    2.0574669    0.9260283 
 1275000    1.0568007 6.6696822e-05   0.48305132 0.0029019285            0   0.48014939    1.5772751    2.0603264    6.6704107 
 1280000    1.0330929 -6.7860645e-05   0.51847272 0.0054074706            0   0.51306525    1.5418911    2.0603639   -2.6301639 
 1285000    1.0546144 5.2184979e-05   0.47282764   0.01076054            0    0.4620671     1.574012    2.0468397    5.6538655 
 1290000    1.0697206 -5.6669944e-05   0.47799505 0.0033279888            0   0.47466706    1.5965581    2.0745531   -1.8424734 
 1295000    1.0898196 -1.9341026e-05   0.44775332 0.00050857635            0   0.44724474    1.6265557    2.0743091   0.73745735 
 1300000    1.0627952 2.0763191e-05   0.47483501 0.0039983603            0   0.47083665    1.5862218    2.0610568    3.4962086 
 1305000    1.0597084 8.7902652e-06   0.50106902 0.0058322249            0    0.4952368    1.5816147    2.0826837    2.6902669 
 1310000    1.1114857 3.4632514e-05   0.42015577  0.019085439            0   0.40107033    1.6588924    2.0790482    4.4728476 
 1315000    1.0896618 -2.5925209e-06   0.45352481 0.0085906778            0   0.44493414    1.6263202     2.079845    1.9006499 
 1320000     1.056319 -6.6288718e-05   0.50579143 0.00025337032            0   0.50553806    1.5765561    2.0823475   -2.4995286 
 1325000    1.0363758 -9.7914395e-06   0.51455764 0.0022227022            0   0.51233494    1.5467909    2.0613485    1.3845642 
 1330000    1.0133059 -1.7403276e-06   0.52956768 0.0058667534            0   0.52370093    1.5123591    2.0419267    1.9216353 
 1335000   0.99436813 -1.9688966e-05   0.54310342 0.0031065186            0    0.5399969    1.4840944    2.0271979   0.66629651 
 1340000    1.0585018 1.1970132e-05   0.43223085 0.00023220048            0   0.43199865    1.5798139    2.0120448    2.8394203 
 1345000      1.01228 -0.00010023259   0.51529381 0.00083527609            0   0.51445854    1.5108279    2.0261217    -4.901955 
 1350000   0.97935645 4.9676409e-05    0.5934902 0.0065012275            0   0.58698897    1.4616895    2.0551797    5.4888131 
 1355000    1.0543484 -3.7226889e-05    0.4794826 0.0066239611            0   0.47285864     1.573615    2.0530976  -0.52002498 
 1360000    1.0535307 2.7021933e-05   0.48675445  0.008110665            0   0.47864378    1.5723946     2.059149     3.926905 
 1365000    1.0227076 1.0661257e-05   0.51623794  0.017165848            0    0.4990721     1.526391     2.042629    2.7795351 
 1370000    1.0597789 -6.3504608e-05   0.47990315  0.010029488            0   0.46987367      1.58172    2.0616232   -2.3278154 
 1375000    1.0579151 1.3947217e-05   0.45866379  0.014854442            0   0.44380935    1.5789384    2.0376021    3.0016338 
 1380000   0.99387971 6.210397e-07   0.54402612 0.0018722895            0   0.54215383    1.4833655    2.0273916    2.0703178 
 1385000   0.98781938 2.2113777e-05   0.53803329 0.00021574564            0   0.53781754    1.4743204    2.0123537     3.540858 
 1390000    1.0209157 -3.6470997e-05   0.48205746 0.00094322835            0   0.48111423    1.5237167    2.0057741  -0.51510121 
 1395000   0.98591684 2.4346779e-05   0.54396706 0.0042893925            0   0.53967766    1.4714809    2.0154479    3.6982973 
 1400000   0.96624278 -5.8247175e-05   0.55964916 0.0087827572            0    0.5508664    1.4421173    2.0017665   -2.0242782 
 1405000   0.96200941 2.1505878e-05   0.57256715 0.0048204005            0   0.56774675     1.435799    2.0083662    3.4948525 
 1410000   0.99404885 -7.1223316e-05   0.51960878   0.00081459            0   0.51879419    1.4836179    2.0032267   -2.9197289 
 1415000    1.0275078 5.0403141e-05   0.47208848 0.00017491113            0   0.47191357    1.5335554    2.0056439     5.489509 
 1420000    1.0430909 -3.2624455e-05   0.45722776 0.00095568589            0   0.45627208    1.5568132    2.0140409  -0.24096138 
 1425000    1.0120967 1.2190811e-05   0.51370841 0.0011300106            0    0.5125784    1.5105544    2.0242628    2.8668916 
 1430000    1.0104706 -6.2177723e-05   0.52389577  0.001147894            0   0.52274788    1.5081274    2.0320232    -2.265701 
 1435000    1.0174567 9.8785773e-06    0.5103454 0.0030458613            0   0.50729954    1.5185541    2.0288995    2.7117067 
 1440000    1.0282508 1.5034646e-05   0.47768626 0.0064196117            0   0.47126665    1.5346643    2.0123506    3.0515453 
 1445000    1.0384347 -2.0607286e-05   0.45450431 0.0035856298            0   0.45091868    1.5498638    2.0043681   0.57999251 
 1450000   0.98475186 -2.9265523e-05   0.52225616 0.0012046091            0   0.52105155    1.4697422    1.9919983 -0.030834617 
 1455000    1.0426635 -2.5827317e-06   0.44583458 0.0036807761            0    0.4421538    1.5561752    2.0020098    1.8234914 
 1460000    1.0402732 4.4877716e-05   0.44583121  0.013936936            0   0.43189428    1.5526077    1.9984389    5.1003866 
 1465000   0.98490561 -5.0668621e-06   0.51848433 0.0093396683            0   0.50914466    1.4699716     1.988456    1.6382345 
 1470000    1.0418514 -5.2014294e-05    0.4211471 0.0017214686            0   0.41942563    1.5549633    1.9761103   -1.6191177 
 1475000    1.0217049 3.3531482e-05   0.42548644 0.0060001754            0   0.41948627    1.5248945     1.950381     4.268077 
 1480000   0.95170698 -2.6583907e-05   0.53374242  0.010984848            0   0.52275757    1.4204227    1.9541651   0.11668541 
 1485000    1.0159556 1.1302293e-05   0.44882149 0.0036506636            0   0.44517083    1.5163138    1.9651353    2.7463498 
 1490000   0.98202148 -6.7827542e-05   0.50980172 0.0065352043            0   0.50326652    1.4656671    1.9754688   -2.7127709 
 1495000    1.0098189 3.3928668e-05    0.4735907 0.0043505056            0    0.4692402    1.5071547    1.9807454     4.325895 
 1500000   0.99449409 1.3267989e-05   0.49939431 0.0013640677            0   0.49803024    1.4842824    1.9836767    2.9007602 
 1505000   0.98885438 -4.1188287e-05   0.49663552 0.0019291744            0   0.49470634    1.4758652    1.9725007   -0.8744337 
 1510000   0.98145718 3.4993492e-05   0.52070856 0.0027685098            0   0.51794005    1.4648248    1.9855334    4.4042836 
 1515000    1.0022579 -4.0020579e-05   0.51228918 0.0013018458            0   0.51098733    1.4958699    2.0081591  -0.75806334 
 1520000    1.0028473 5.473305e-05   0.49505078 0.0036775529            0   0.49137322    1.4967496    1.9918004    5.7749488 
 1525000   0.97296275 -3.7476361e-05    0.5406996 0.0028730697            0   0.53782653    1.4521469    1.9928465   -0.5975196 
 1530000    1.0400499 -1.2353616e-05   0.45134359 0.0094369254            0   0.44190666    1.5522745    2.0036181    1.1497362 
 1535000   0.99897238 -2.490359e-05   0.51207056  0.014958227            0   0.49711233    1.4909663    2.0030368   0.28170069 
 1540000    1.0179739 -1.1900785e-05    0.4863203 0.0047783103            0   0.48154199    1.5193261    2.0056464    1.1830642 
 1545000    1.0034553 5.3868455e-05   0.50580468 0.0073910011            0   0.49841368    1.4976571    2.0034618    5.7268494 
 1550000    1.0225001 4.0930669e-05   0.48511383 0.0050306213            0   0.48008321    1.5260814    2.0111952    4.8403231 
 1555000    1.0245932 -7.7865179e-06   0.46200646 0.0033335268            0   0.45867293    1.5292053    1.9912118    1.4530077 
 1560000   0.99070744 4.2829542e-05   0.50396669  0.011677073            0   0.49228962    1.4786308    1.9825975    4.9429755 
 1565000   0.99453256 -6.6694425e-05   0.49762685  0.022239471            0   0.47538738    1.4843398    1.9819667   -2.6279519 
 1570000    1.0398187 -8.1162331e-06    0.4170995 0.0044746243            0   0.41262488    1.5519294    1.9690289    1.4080349 
 1575000   0.99852748 -3.2987602e-05   0.47283329 0.00036675277            0   0.47246654    1.4903023    1.9631356  -0.31696746 
 1580000    1.0378713 -9.2938409e-06    0.4212019 0.0023755961            0   0.41882631    1.5490229    1.9702248    1.3278345 
 1585000    1.0884116 -7.2835269e-06   0.35699438 0.0039819604            0   0.35301242    1.6244543    1.9814487    1.4780113 
 1590000     1.044335 3.433745e-05    0.4359653  0.002704203            0    0.4332611      1.55867    1.9946353    4.3680399 
 1595000   0.99240592 -1.4112503e-06   0.49304741 0.0021152637            0   0.49093215    1.4811658    1.9742132    1.8766676 
 1600000    1.0329938 -3.3668601e-05   0.44621732 0.0058374475            0   0.44037988    1.5417432    1.9879605  -0.33921322 
 1605000   0.97985552 -3.5017275e-05   0.50585021 0.0089589622            0   0.49689125    1.4624344    1.9682846  -0.45210946 
 1610000    1.0417541 3.0366002e-05   0.41996391 0.0059866181            0   0.41397729     1.554818    1.9747819      4.07368 
 1615000   0.97495815 7.3025593e-06   0.50415335 0.0057739121            0   0.49837943     1.455125    1.9592784    2.4640313 
 1620000    1.0110116 4.7598838e-06   0.42927116 0.0035080425            0   0.42576312    1.5089348     1.938206    2.2672092 
 1625000   0.95209653 -6.4145494e-05   0.50370554 0.0024284756            0   0.50127706    1.4210041    1.9247096    -2.509027 
 1630000   0.99843018 2.8967519e-05   0.43622307 0.0020996659            0    0.4341234     1.490157    1.9263801     3.928615 
 1635000    1.0039972 -1.1252681e-05   0.43109001 0.0029826653            0   0.42810734    1.4984659    1.9295559    1.1517706 
 1640000    0.9716406 5.1562997e-05   0.47446156 0.0025686679            0   0.47189289    1.4501736    1.9246351    5.4886695 
 1645000   0.96570671 -3.3732189e-05   0.46715487 0.0072594891            0   0.45989539    1.4413173    1.9084721  -0.42309674 
 1650000   0.97710412 -6.4475735e-05    0.4554282 0.0092555686            0   0.44617263    1.4583279    1.9137561   -2.5428067 
 1655000   0.98166512 -2.5522864e-05   0.45160122 0.0072384509            0   0.44436277    1.4651352    1.9167364   0.15259609 
 1660000   0.98667774 4.1510411e-05   0.42636524 0.0047299583            0   0.42163528    1.4726165    1.8989818    4.7681813 
 1665000   0.97407698 -4.3498045e-05   0.43626854 0.0019967073            0   0.43427183    1.4538099    1.8900784   -1.1165064 
 1670000   0.99428946 -1.7000728e-05   0.40782962 0.0025119957            0   0.40531763     1.483977    1.8918066   0.71671633 
 1675000   0.95900053 8.2206849e-06   0.46566841   0.01093833            0   0.45473008    1.4313083    1.8969767    2.4651904 
 1680000   0.98354451 -5.2629396e-05   0.44821053 0.0044640997            0   0.44374643    1.4679402    1.9161507   -1.7215932 
 1685000   0.97665957 6.2998394e-06   0.43974355  0.017476223            0   0.42226733    1.4576644     1.897408    2.3328529 
 1690000   0.99702684 -5.6903025e-05   0.38857246  0.010026629            0   0.37854583    1.4880626     1.876635    -2.056502 
 1695000   0.97361456 -6.7079683e-06    0.4205062  0.015145847            0   0.40536035    1.4531197    1.8736259    1.4099712 
 1700000   0.97238855 -3.7379422e-05   0.41940929  0.014517377            0   0.40489192    1.4512899    1.8706992  -0.71296647 
 1705000   0.93498356 2.6952221e-06   0.46830127  0.018438999            0   0.44986227     1.395463    1.8637642     2.050058 
 1710000   0.98382735 1.6239052e-05   0.40005939  0.016061785            0   0.38399761    1.4683623    1.8684217     2.990865 
 1715000   0.96709009 2.0757672e-05   0.40634147 0.0029876787            0   0.40335379     1.443382    1.8497234    3.2844937 
 1720000   0.94185157 -3.909454e-05   0.46325212 0.0074155644            0   0.45583655    1.4057135    1.8689656    -0.833249 
 1725000   0.95344338 9.8378307e-06   0.45933618  0.014921231            0   0.44441495    1.4230142    1.8823504    2.5623413 
 1730000   0.97120704 7.2088968e-06   0.44925067 0.0034851246            0   0.44576554    1.4495265    1.8987772    2.3970561 
 1735000   0.98190983 -3.1898254e-05   0.41885077 0.0038373845            0   0.41501338    1.4655004    1.8843512  -0.32045613 
 1740000   0.96514195 1.2193753e-05   0.42656096 0.0064717204            0   0.42008924    1.4404744    1.8670353    2.7098676 
 1745000   0.95492204 9.6885169e-06   0.43228688  0.010583823            0   0.42170306    1.4252211     1.857508    2.5271783 
 1750000   0.92633455 -4.1347339e-05   0.44056233 0.0012406155            0   0.43932171    1.3825543    1.8231166   -1.0348114 
 1755000   0.92326314 -2.965372e-05   0.43873431 0.0078179295            0   0.43091638    1.3779702    1.8167045  -0.23296056 
 1760000   0.93318729 -2.8758568e-05   0.42576948 0.0095617239            0   0.41620776     1.392782    1.8185515  -0.16924072 
 1765000    0.9440246 -3.7337914e-07   0.40737556  0.016863599            0   0.39051196    1.4089567    1.8163323    1.7905243 
 1770000   0.89064822 -2.2390695e-05   0.47964343  0.015865071            0   0.46377836    1.3292925    1.8089359   0.26129104 
 1775000   0.90416169 -2.5795136e-05   0.44537011  0.012554992            0   0.43281512    1.3494613    1.7948314  0.011871653 
 1780000   0.90172611 7.4611859e-05   0.44089017 0.0093638336            0   0.43152634    1.3458262    1.7867164    6.9438881 
 1785000    0.9391776 9.5217522e-06   0.40298096  0.007496737            0   0.39548422    1.4017226    1.8047035     2.462847 
 1790000   0.94223808 -2.7910896e-05   0.41656176 0.0055454962            0   0.41101626    1.4062903    1.8228521  -0.10634905 
 1795000   0.93292653 2.4118932e-05   0.43365704 0.0059153007            0   0.42774174    1.3923928    1.8260499    3.4931505 
 1800000   0.89965345 -5.7773513e-05   0.47491549 0.0087994617            0   0.46611603    1.3427328    1.8176483   -2.1756569 
 1805000   0.92158687 3.1570669e-05   0.45583822 0.0016116859            0   0.45422653    1.3754684    1.8313066    4.0134712 
 1810000   0.98286552 -3.1361824e-05   0.37105264 0.00027982781            0   0.37077281    1.4669268    1.8379794  -0.32974981 
 1815000   0.91046779 7.2086725e-06   0.47910268 2.540099e-05            0   0.47907727    1.3588732    1.8379759    2.3362393 
 1820000   0.93972528 -1.5116885e-05   0.43459351 0.0003014605            0   0.43429204      1.40254    1.8371335   0.79225442 
 1825000   0.94393348 -7.0722951e-05   0.42309136 0.0017916303            0   0.42129973    1.4088207    1.8319121   -3.0564583 
 1830000   0.93056521 1.031084e-06   0.43184589  0.014188628            0   0.41765726    1.3888686    1.8207145     1.891983 
 1835000   0.91989638 1.1688031e-05   0.44242524 0.0091989964            0   0.43322624    1.3729453    1.8153706    2.6232473 
 1840000   0.95305621 -5.4072975e-06   0.39792872  0.019518227            0    0.3784105    1.4224364    1.8203651    1.4466127 
 1845000   0.93498149 -3.7929828e-05   0.42697718 0.0096830848            0    0.4172941    1.3954599    1.8224371  -0.79927263 
 1850000   0.91798099 4.8578751e-05   0.45755487 0.00052613687            0   0.45702873    1.3700866    1.8276415    5.1854048 
 1855000   0.90435722 -3.3113298e-05   0.48561265 0.0011276748            0   0.48448498    1.3497532    1.8353658  -0.45342537 
 1860000   0.95163912 2.3579535e-05   0.40856651 0.0050769594            0   0.40348955    1.4203214    1.8288879    3.4587054 
 1865000   0.89576102 -2.4290516e-05   0.49232355 0.0075038013            0   0.48481975    1.3369233    1.8292469   0.15028639 
 1870000   0.89290341 -1.886654e-05    0.4709268 0.0033190192            0   0.46760778    1.3326583    1.8035851   0.49952988 
 1875000   0.91309072 8.6691542e-06   0.42911527  0.012609123            0   0.41650615    1.3627879    1.7919032    2.3911151 
 1880000   0.89635892 -5.2935723e-05   0.43217829 0.0035222287            0   0.42865607    1.3378157     1.769994   -1.8889232 
 1885000   0.90703075 -1.6408687e-05   0.42747472 0.0011828093            0   0.42629191    1.3537434    1.7812181   0.64704968 
 1890000   0.86823588 2.1704235e-05   0.48462353 0.0046242277            0   0.47999931    1.2958421    1.7804656    3.2806623 
 1895000   0.89299879 3.316104e-05   0.43601525 0.0094831998            0   0.42653205    1.3328007    1.7688159     4.060907 
 1900000   0.88662441 -8.6801083e-05   0.46998779   0.01056537            0   0.45942242    1.3232869    1.7932747   -4.2064161 
 1905000   0.89356268 5.0535299e-05   0.45696589   0.01220436            0   0.44476153    1.3336423    1.7906082    5.2836081 
 1910000   0.92212873 1.1570287e-05   0.41115931  0.013286559            0   0.39787275    1.3762771    1.7874364    2.5871747 
 1915000   0.87347878 -1.3243402e-05   0.48797985 0.0033967574            0    0.4845831    1.3036671    1.7916469   0.87626297 
 1920000   0.91865018 2.1201362e-05   0.43210339 0.0071073848            0   0.42499601    1.3710854    1.8031888    3.2686269 
 1925000   0.91255877 -2.2187359e-05   0.45862125  0.013778754            0    0.4448425     1.361994    1.8206152   0.28702498 
 1930000   0.89702982 6.0593815e-06   0.45266264  0.004766239            0    0.4478964     1.338817    1.7914797    2.2103041 
 1935000   0.91399719 -6.7737164e-07   0.43516667 0.0011142079            0   0.43405247    1.3641408    1.7993075    1.7524876 
 1940000   0.90587747 -4.3671114e-05   0.45245804 0.0015128875            0   0.45094515    1.3520221    1.8044802   -1.2140672 
 1945000   0.94577913 -8.0697653e-07   0.41128406 0.0021546976            0   0.40912936    1.4115753    1.8228594    1.7670812 
 1950000   0.87097241 2.5057973e-07   0.51782373 0.0022557579            0   0.51556797    1.2999263      1.81775    1.8350701 
 1955000   0.89568889 1.8138403e-05   0.50021433 0.0031033256            0   0.49711101    1.3368157      1.83703    3.0907564 
 1960000   0.90414348 -6.6955541e-05   0.48417393 0.0022612885            0   0.48191264    1.3494341    1.8336081   -2.7943589 
 1965000   0.90747057 -3.4927215e-06   0.47836388 0.0022406112            0   0.47612327    1.3543998    1.8327637    1.5913468 
 1970000   0.92010771 8.977742e-06   0.44169964 0.0010077293            0   0.44069191    1.3732608    1.8149604    2.4355019 
 1975000   0.89833672 6.0236455e-06   0.49419598 0.0020867745            0   0.49210921    1.3407676    1.8349635    2.2513179 
 1980000   0.90846332 4.5331619e-05   0.50509099  0.011673591            0    0.4934174    1.3558815    1.8609725     4.994294 
 1985000   0.89212486 -1.8479807e-07   0.52146676 0.0093625466            0   0.51210421    1.3314964    1.8529631    1.8401899 
 1990000   0.92159495 -2.3590792e-05   0.49737034 0.0092578347            0   0.48811251    1.3754805    1.8728508   0.24225526 
 1995000    0.9657987 4.7241684e-05   0.43710364  0.026600007            0   0.41050363    1.4414546    1.8785582    5.1439034 
 2000000   0.95763022 1.4277926e-06   0.46627952  0.021603506            0   0.44467601    1.4292631    1.8955426    1.9942316 
 2005000   0.95626966 6.3418971e-05   0.46447521 0.0047497998            0   0.45972541    1.4272325    1.8917077     6.275227 
 2010000   0.96370442 -1.0371966e-05   0.48500911 0.0044224179            0   0.48058669    1.4383288     1.923338    1.2064277 
 2015000   0.97132557 -1.3770411e-05   0.45639721  0.010137175            0   0.44626003    1.4497034    1.9061006   0.95428985 
 2020000   0.95382755 -5.3518703e-05   0.46742236   0.01550463            0   0.45191773    1.4235876      1.89101   -1.8082028 
 2025000   0.96557833 4.519825e-05   0.44726357 0.0049354679            0    0.4423281    1.4411257    1.8883892    5.0124923 
 2030000   0.97701722 -4.5494308e-06   0.43455363  0.001553906            0   0.43299973    1.4581982    1.8927518    1.5782952 
 2035000   0.95978847 -4.9846704e-05   0.45381552 0.00092854024            0   0.45288698    1.4324843    1.8862998   -1.5591043 
 2040000    1.0023716 -4.9665237e-05   0.41155613 0.0039171086            0   0.40763902    1.4960396    1.9075957   -1.5252654 
 2045000   0.94602009 4.3468476e-05   0.49172549  0.015794733            0   0.47593076     1.411935    1.9036605    4.9082015 
 2050000   0.95681216 2.6705802e-05   0.48525515 0.0076818528            0    0.4775733    1.4280422    1.9132973    3.7592024 
 2055000    0.9544313 -3.0177166e-05    0.4895799 0.00030576028            0   0.48927414    1.4244887    1.9140686  -0.17177711 
 2060000   0.98622879 2.7458447e-05   0.43250873 0.00070757139            0   0.43180116    1.4719465    1.9044552     3.802383 
 2065000   0.92240836 -5.125927e-05   0.52737949 0.0022023635            0   0.52517712    1.3766945     1.904074   -1.6389668 
 2070000   0.95490915 -3.9418781e-05   0.48274495 0.0039782393            0   0.47876671    1.4252019    1.9079469  -0.81667926 
 2075000   0.98161494 -1.6278859e-05   0.46158789 0.0036760062            0   0.45791188    1.4650603    1.9266482   0.80145346 
 2080000   0.93978331 -2.2941581e-06   0.50978673 0.0069151964            0   0.50287154    1.4026266    1.9124133    1.7538411 
 2085000   0.94464894 4.5985401e-05   0.48271464  0.010886852            0   0.47182779    1.4098886    1.8926032    5.0711141 
 2090000   0.88180687 -2.167026e-06   0.56554267 0.0090289946            0   0.55651368    1.3160967    1.8816394    1.7318546 
 2095000    1.0031355 -2.7718863e-05   0.37659376 0.0020167794            0   0.37457698    1.4971797    1.8737734 -0.042154405 
 2100000   0.93086417 5.9346046e-05   0.49398565 0.0010767098            0   0.49290894    1.3893148    1.8833004    5.9852991 
 2105000   0.90133995 -7.0869882e-05   0.56125554 0.0041923627            0   0.55706317    1.3452499    1.9065054   -2.9920208 
 2110000   0.94215502 8.0799335e-07    0.5058402 0.0099693062            0    0.4958709    1.4061664    1.9120066    1.9678551 
 2115000   0.94536692 4.4936841e-05   0.50790116 0.0069739494            0   0.50092721    1.4109601    1.9188613    5.0248957 
 2120000   0.96088126 3.7731306e-05   0.48430133 0.0020009613            0   0.48230036    1.4341153    1.9184166    4.5264045 
 2125000    0.9601607 1.0391441e-05    0.4819221 0.0020025882            0   0.47991951    1.4330398    1.9149619    2.6332183 
 2130000   0.91858622 -4.2660777e-05   0.54688299 0.0056530637            0   0.54122992    1.3709899    1.9178729     -1.03084 
 2135000   0.95388474 7.1593665e-05   0.49342121 0.0012884838            0   0.49213273     1.423673    1.9170942    6.8656483 
 2140000   0.98927676 3.4614249e-05   0.44733788 0.00022384988            0   0.44711403    1.4764956    1.9238334    4.3163703 
 2145000    0.9696535 -1.2425353e-05   0.48806018 0.0022713162            0   0.48578886    1.4472079     1.935268    1.0764276 
 2150000   0.94266477 2.3159578e-06   0.50687042  0.011530264            0   0.49534015    1.4069272    1.9137976    2.0738766 
 2155000   0.96719188 -8.1269718e-05    0.4951213  0.015651698            0   0.47946961    1.4435339    1.9386552   -3.6787077 
 2160000   0.97371267 1.2325383e-05   0.48039972 0.0089252395            0   0.47147448    1.4532662    1.9336659    2.7855964 
 2165000   0.97397779 5.0564651e-05   0.47706567 0.0049351873            0   0.47213048    1.4536618    1.9307275    5.4257562 
 2170000   0.98263769 -1.9656997e-05   0.44715907  0.011309198            0   0.43584987    1.4665867    1.9137458   0.55505416 
 2175000   0.97920814 1.1434123e-05   0.46211841  0.015392767            0   0.44672565    1.4614682    1.9235866    2.7139131 
 2180000   0.93906673 4.4386618e-05   0.51646538  0.013433889            0   0.50303149    1.4015571    1.9180225    4.9860255 
 2185000   0.95780783 1.0747838e-05   0.49387849 0.0060269603            0   0.48785153    1.4295282    1.9234067    2.6662973 
 2190000   0.94401592 -2.8308354e-07   0.51373367 0.0079149018            0   0.50581877    1.4089438    1.9226774    1.9031107 
 2195000   0.98658058 2.2702676e-05   0.46345596  0.019293269            0   0.44416269    1.4724715    1.9359275    3.5051365 
 2200000   0.97370826 -5.3286475e-06   0.49440904  0.011232262            0   0.48317678    1.4532596    1.9476686    1.5793525 
 2205000   0.95066581 3.8061034e-05   0.49673512  0.013095645            0   0.48363948    1.4188687    1.9156039    4.5463825 
 2210000    0.9957822 8.1135533e-06    0.4404262 0.0073631282            0   0.43306307    1.4862049    1.9266311    2.4874399 
 2215000    1.0014257 -3.3771332e-05   0.44500649  0.008134185            0   0.43687231    1.4946278    1.9396343  -0.39464019 
 2220000    1.0165407 3.4692644e-05   0.43853155 0.0098163092            0   0.42871524    1.5171869    1.9557185     4.353674 
 2225000    1.0076034 3.1889566e-05   0.46669852  0.013436287            0   0.45326223    1.5038481    1.9705466    4.1747534 
 2230000   0.98239501 9.4263651e-06   0.49603959  0.016712772            0   0.47932682    1.4662245    1.9622641    2.6138145 
 2235000    1.0132704 -2.851766e-05   0.44761225  0.010103274            0   0.43750897    1.5123061    1.9599183 -0.011222346 
 2240000    1.0152362 1.4624511e-05   0.43851349 0.00063245904            0   0.43788104      1.51524    1.9537535    2.9645997 
 2245000   0.98050424 -2.4854961e-05   0.49993767  0.010729384            0   0.48920829    1.4634026    1.9633402   0.24536533 
 2250000   0.98248187 5.531039e-05    0.5039863 0.0071374845            0   0.49684882    1.4663542    1.9703405    5.7933946 
 2255000    0.9770496 -5.3036547e-05   0.50557502 0.0010930215            0     0.504482    1.4582465    1.9638215   -1.7020646 
 2260000    1.0219145 -3.2051777e-05   0.45483543 0.0052471368            0    0.4495883    1.5252074    1.9800429  -0.23537597 
 2265000     1.024851 -5.5317461e-06   0.47511049 0.0070769945            0    0.4680335    1.5295902    2.0047007    1.6223464 
 2270000     1.023856 -4.3868068e-05   0.46156848 0.00091052154            0   0.46065795     1.528105    1.9896735   -1.0424873 
 2275000    1.0341736 -1.5167304e-05    0.4594687 0.0015153652            0   0.45795334    1.5435042    2.0029729    0.9546088 
 2280000    1.0298623 3.3076227e-05   0.46933615 0.0031258909            0   0.46621026    1.5370695    2.0064056    4.2926344 
 2285000      1.06567 2.619829e-05   0.43286093 0.0094258856            0   0.42343505    1.5905125    2.0233734    3.8341992 
 2290000    1.0211045 -2.6599713e-05    0.4913716  0.020590631            0   0.47078097    1.5239985    2.0153701   0.17679799 
 2295000    1.0242493 -4.355337e-05   0.50506685  0.010770284            0   0.49429657     1.528692    2.0337589  -0.97665004 
 2300000    1.0573456 -6.1826693e-05    0.4562506  0.010223962            0   0.44602664    1.5780883    2.0343389   -2.2391221 
 2305000    1.0767372 4.4948919e-05   0.40854977 0.0015830758            0    0.4069667    1.6070303    2.0155801    5.1224494 
 2310000    1.0085127 -2.3102553e-05   0.50462318 0.0014161653            0   0.50320701    1.5052052    2.0098284   0.41297995 
 2315000    1.0306787 5.2110443e-05   0.48860511  0.015575202            0    0.4730299     1.538288    2.0268931    5.6287669 
 2320000    1.0291972 -1.7270581e-05   0.49286603  0.021737752            0   0.47112828    1.5360768    2.0289429   0.83520029 
 2325000     1.039032 -5.1087914e-05   0.48389048 0.0058795266            0   0.47801096    1.5507553    2.0346457   -1.4965509 
 2330000    1.0147307 -1.3240111e-05   0.52588128  0.010434533            0   0.51544675    1.5144856    2.0403669    1.1252104 
 2335000    1.0024195 -6.6539369e-05   0.54874769 0.0094416709            0   0.53930602    1.4961112    2.0448588   -2.5543423 
 2340000    1.0610522 2.3810583e-05   0.45813601  0.014511862            0   0.44362415    1.5836205    2.0417565     3.687544 
 2345000    1.0471909 -1.3004075e-05   0.47748801  0.032974944            0   0.44451306    1.5629324    2.0404204    1.1415787 
 2350000    1.0180391 -7.2146958e-05    0.5243551  0.014675657            0   0.50967944    1.5194234    2.0437785   -2.9430192 
 2355000    1.0935334 3.9347021e-05   0.41693823  0.011609253            0   0.40532898    1.6320985    2.0490368    4.7687028 
 2360000    1.0799129 3.7082289e-05   0.44029845 0.0093173487            0   0.43098111    1.6117701    2.0520685    4.6151963 
 2365000    1.0565017 -4.0653428e-05   0.47534499 0.0025891928            0   0.47275579    1.5768288    2.0521737  -0.75779123 
 2370000    1.0853368 2.7298585e-05   0.45525348 0.0005421812            0    0.4547113    1.6198652    2.0751187    3.9619969 
 2375000    1.0428207 -8.1861278e-06   0.53671623 0.0017152072            0   0.53500102    1.5564099    2.0931261     1.527301 
 2380000    1.0960718 3.2479625e-06   0.44977301 0.0031833243            0   0.44658969    1.6358872    2.0856602    2.3101594 
 2385000    1.1098436 4.2272316e-05   0.42492748 0.0068765903            0   0.41805089    1.6564415     2.081369    5.0032314 
 2390000    1.0875571 -1.8713201e-05   0.46304655  0.007061022            0   0.45598553     1.623179    2.0862255   0.79276906 
 2395000    1.0479113 -1.9556808e-05   0.52757878 0.0069779296            0   0.52060085    1.5640077    2.0915864   0.73981988 
 2400000    1.0630993 -2.4883954e-05   0.51732119 0.0050520002            0   0.51226919    1.5866756    2.1039968   0.38401793 
 2405000    1.1040676 2.7717946e-05   0.45290818  0.015331022            0   0.43757716     1.647821    2.1007291    4.0165935 
 2410000    1.0639563 -4.8515116e-06    0.4950471  0.025554208            0   0.46949289    1.5879547    2.0830018    1.7476653 
 2415000    1.0859723 -1.074205e-05   0.44836693   0.01980509            0   0.42856184    1.6208136    2.0691806    1.3266901 
 2420000    1.0569356 -1.5164433e-05   0.48940806 0.0038658157            0   0.48554224    1.5774763    2.0668844    1.0187187 
 2425000    1.1123701 -1.5930114e-05   0.40563903 0.0002627166            0   0.40537631    1.6602123    2.0658514   0.96476187 
 2430000    1.0649753 1.4341594e-05   0.46440982 0.00055489903            0   0.46385492    1.5894757    2.0538855    3.0451764 
 2435000    1.1271311 -3.5899741e-05   0.39499402 0.0048471376            0   0.39014688    1.6822432    2.0772373  -0.40415288 
 2440000    1.0684166 2.8199737e-05   0.50449296  0.020529358            0   0.48396361    1.5946117    2.0991047    4.0482705 
 2445000    1.1079827 2.9114207e-05   0.44959966  0.036211114            0   0.41338855    1.6536642    2.1032639    4.1156378 
 2450000    1.0646881 4.4635392e-06   0.51336218  0.025402715            0   0.48795947     1.589047    2.1024092     2.410929 
 2455000    1.1344907 -1.0887472e-05   0.40852577 0.0055366355            0   0.40298914    1.6932274    2.1017532    1.3492111 
 2460000    1.0547817 1.6129815e-05   0.52482711 0.00012079578            0   0.52470632    1.5742617    2.0990888    3.2139816 
 2465000     1.091079 -4.3617924e-05   0.47913923 0.0027285309            0    0.4764107    1.6284354    2.1075746  -0.90729632 
 2470000    1.0966083 -3.465931e-05   0.48587417 0.0083885281            0   0.47748565    1.6366879    2.1225621  -0.27308945 
 2475000    1.1227853 4.621513e-05   0.45021451 0.0015593877            0   0.44865512    1.6757571    2.1259716    5.3203613 
 2480000     1.117487 1.0009554e-05   0.44971551 0.0059343979            0   0.44378111    1.6678494    2.1175649    2.8094252 
 2485000    1.1088588 -1.3029699e-05   0.45014092 0.0036224391            0   0.44651848    1.6549717    2.1051126    1.2044998 
 2490000    1.1357503 -6.6346264e-06   0.44148289  0.002662548            0   0.43882034    1.6951073    2.1365902    1.6780048 
 2495000    1.1586335 3.4111609e-06   0.41025677 0.0057409177            0   0.40451585    1.7292605    2.1395173    2.3752967 
 2500000    1.1169402 -6.8343791e-05    0.4855753   0.02932766            0   0.45624764    1.6670332    2.1526085   -2.5713143 
 2505000    1.1262099 -3.9443548e-05   0.45351135  0.025427321            0   0.42808402    1.6808683    2.1343797  -0.59195834 
 2510000    1.1263773 6.0808995e-05   0.43894385  0.023895056            0   0.41504879    1.6811182     2.120062    6.3231797 
 2515000    1.0718815 -5.7794168e-05   0.51925817  0.019293968            0    0.4999642    1.5997831    2.1190412   -1.8756917 
 2520000    1.1028119 6.7221057e-05   0.46372622  0.018951175            0   0.44477504    1.6459468     2.109673    6.7559925 
 2525000    1.1086472 -2.8183681e-05    0.4559131  0.027012235            0   0.42890087     1.654656    2.1105691   0.16251303 
 2530000    1.1121139 -2.5406317e-05   0.45449573 0.0076700797            0   0.44682565    1.6598299    2.1143257   0.35824104 
 2535000    1.0608366 1.5284064e-05   0.54484928  0.012049113            0   0.53280017    1.5832986    2.1281479    3.1845824 
 2540000    1.1088704 -3.87718e-05    0.4803882  0.023228548            0   0.45715965    1.6549891    2.1353773  -0.54452947 
 2545000    1.1398107 4.0351652e-05   0.44501659  0.013003032            0   0.43201356    1.7011675    2.1461841    4.9352902 
 2550000    1.1341936 -6.4693363e-06    0.4643189 0.0046744169            0   0.45964448     1.692784    2.1571029    1.7099423 
 2555000    1.0980006 -3.7430397e-05   0.52222625  0.012520461            0   0.50970579    1.6387659    2.1609922  -0.42619687 
 2560000    1.1259713 6.8020457e-05   0.47465775  0.017398019            0   0.45725973    1.6805121    2.1551699    6.8567439 
 2565000    1.1195198 -3.2065925e-05   0.50526535 0.0057702613            0   0.49949509    1.6708833    2.1761486 -0.040248068 
 2570000    1.1406514 -5.5401267e-05     0.468465  0.012487676            0   0.45597733    1.7024223    2.1708873   -1.6584483 
 2575000    1.1084097 3.1347749e-06    0.5226699  0.022609177            0   0.50006073    1.6543014    2.1769713     2.393647 
 2580000    1.1666683 -3.0482428e-05   0.44533094 0.0049318704            0   0.44039907    1.7412524    2.1865833  0.079637894 
 2585000    1.1292272 -2.0260755e-06   0.48941911   0.00395613            0   0.48546298    1.6853716    2.1747907    2.0347484 
 2590000    1.1633781 -3.1681417e-05   0.44300495 0.0045528953            0   0.43845206    1.7363419    2.1793468 -0.010472692 
 2595000    1.1610041 3.4562023e-05    0.4710709 0.0020507815            0   0.46902012    1.7327986    2.2038695    4.5927965 
 2600000    1.1191329 5.4647574e-07   0.52631953 0.0063299265            0    0.5199896    1.6703059    2.1966254    2.2343978 
 2605000    1.0623823 -2.0021385e-05   0.59994551  0.029659182            0   0.57028633    1.5856056    2.1855511   0.80167298 
 2610000    1.1326658 5.2317487e-05   0.50317672  0.017682614            0    0.4854941    1.6905037    2.1936804    5.8098651 
 2615000    1.1063552 -3.571641e-05   0.54634212  0.010597608            0   0.53574451    1.6512351    2.1975772  -0.27114106 
 2620000    1.1346766 1.899587e-05   0.49005945 0.0070922093            0   0.48296724    1.6935049    2.1835643    3.4965589 
 2625000    1.1135498 -1.5807723e-05   0.52240989 0.0047215088            0   0.51768838    1.6619731     2.184383    1.0917532 
 2630000    1.1445394 2.7046754e-05    0.4813802  0.020533934            0   0.46084627    1.7082251    2.1896053    4.0590769 
 2635000    1.1195819 -7.0471835e-05   0.52921197  0.016968043            0   0.51224392     1.670976    2.2001879   -2.6708253 
 2640000    1.1338858 -8.4060124e-06   0.51125868  0.013889855            0   0.49736882    1.6923245    2.2035832    1.6225596 
 2645000    1.1577594 3.1154474e-05   0.47270217 0.0083312149            0   0.46437096    1.7279559    2.2006581    4.3540554 
 2650000    1.1196242 -2.7317246e-05   0.53856816  0.017928403            0   0.52063975    1.6710392    2.2096073   0.32143933 
 2655000    1.1268921 3.5262549e-05   0.50527848  0.019353781            0    0.4859247    1.6818864    2.1871649    4.6245123 
 2660000     1.096457 5.4434531e-05   0.53699425 0.0092038805            0   0.52779037     1.636462    2.1734563     5.935971 
 2665000    1.1057273 -4.5343614e-05    0.5314961 0.0046233824            0   0.52687272     1.650298    2.1817941  -0.95235652 
 2670000    1.1192839 5.6354183e-05   0.47366353 0.00050306812            0   0.47316046    1.6705313    2.1441948    6.0393959 
 2675000    1.0865456 -4.7784694e-06   0.51242508 0.00059117527            0    0.5118339    1.6216692    2.1340943    1.8038065 
 2680000     1.102139 -6.766802e-06   0.47788276 0.00018148011            0   0.47770128    1.6449425    2.1228252    1.6551039 
 2685000     1.037079 -3.2376811e-05   0.57597651 0.0085743492            0   0.56740216    1.5478405     2.123817  -0.11406821 
 2690000    1.0359887 -3.9831469e-05   0.60211059  0.020593718            0   0.58151688    1.5462131    2.1483237  -0.60482743 
 2695000    1.0515757 -2.7156671e-05   0.58712335  0.034623499            0   0.55249985    1.5694768    2.1566002   0.27953108 
 2700000    1.0991419 1.927355e-05   0.50752276  0.012337281            0   0.49518548    1.6404693    2.1479921    3.4801798 
 2705000    1.0794093 1.1080976e-05   0.53071605 0.0089228564            0    0.5217932    1.6110183    2.1417344    2.9076514 
 2710000    1.1293878 -4.0489824e-07   0.47961181 0.0023228568            0   0.47728896    1.6856113    2.1652232    2.1372366 
 2715000    1.0950753 6.1385575e-06   0.51247373 0.0087106546            0   0.50376308    1.6343999    2.1468736    2.5711707 
 2720000    1.0370809 2.8553718e-05   0.60414377  0.020980159            0   0.58316361    1.5478432     2.151987      4.12562 
 2725000     1.079026 6.676429e-05   0.52135309 0.0089383283            0   0.51241476    1.6104463    2.1317994    6.7465471 
 2730000    1.1471951 5.3048602e-05   0.43713671 0.0096140644            0   0.42752265    1.7121887    2.1493254    5.8160448 
 2735000     1.086122 -1.4607291e-05   0.51703812   0.02789505            0   0.48914307     1.621037    2.1380751    1.1284192 
 2740000    1.0803772 -2.894478e-06   0.53750991  0.016455803            0   0.52105411     1.612463    2.1499729    1.9499066 
 2745000    1.1195748 4.5467327e-05   0.48050064  0.018033775            0   0.46246686    1.6709653     2.151466    5.2941676 
 2750000    1.0725229 1.394321e-05   0.55405944  0.021500116            0   0.53255933    1.6007405    2.1547999    3.1185546 
 2755000    1.0622712 -1.9468701e-05   0.56985964  0.010627251            0   0.55923239    1.5854398    2.1552994   0.80962281 
 2760000    1.1224099 -3.2963345e-05   0.47303401 0.0061906605            0   0.46684335    1.6751968    2.1482308  -0.13019563 
 2765000    1.0827434 1.4396513e-05   0.53359746 0.0073772567            0   0.52622021    1.6159945     2.149592    3.1446789 
 2770000    1.0870419 3.7894311e-05   0.51943519  0.012558415            0   0.50687678      1.62241    2.1418452       4.7611 
 2775000    1.0740335 6.0335277e-07   0.52728109 0.0081186807            0   0.51916241    1.6029949     2.130276    2.1719798 
 2780000    1.0532124 2.5007835e-05   0.55301112 0.0054652909            0   0.54754583    1.5719195    2.1249306    3.8534722 
 2785000     1.038944 -3.78862e-05   0.55414739 0.0087344096            0   0.54541298     1.550624    2.1047714  -0.51392275 
 2790000    1.0815768 -4.662162e-05   0.50195287  0.010498581            0   0.49145429    1.6142533    2.1162062   -1.1062802 
 2795000    1.0671568 4.4032922e-05   0.53207407  0.018227441            0   0.51384663    1.5927316    2.1248057    5.1683612 
 2800000    1.0932469 1.506438e-05   0.50566097 0.0044299213            0   0.50123104     1.631671    2.1373319    3.1785819 
 2805000    1.0818687 2.5613027e-05    0.5156525  0.019792949            0   0.49585956     1.614689    2.1303415     3.900714 
 2810000    1.1222479 1.0312468e-05   0.46341638  0.016878716            0   0.44653767     1.674955    2.1383713    2.8511691 
 2815000     1.137797 -6.2815513e-05   0.44273772 0.0096617326            0   0.43307599     1.698162    2.1408998   -2.2009085 
 2820000     1.110483 -5.0851883e-05   0.47065281 0.0041176695            0   0.46653514    1.6573959    2.1280488   -1.3868334 
 2825000    1.0935236 -8.4492515e-07   0.49582199  0.014078352            0   0.48174364    1.6320839    2.1279059    2.0695047 
 2830000    1.1015484 2.4881231e-05    0.4798442  0.008444034            0   0.47140017    1.6440609    2.1239051    3.8436958 
 2835000    1.0899509 2.5562896e-05   0.49293505  0.012720762            0   0.48021428    1.6267517    2.1196868    3.8865941 
 2840000    1.0795521 -4.9338535e-05   0.51283326 0.0055204722            0   0.50731279    1.6112316    2.1240648   -1.2862147 
 2845000    1.0807031 4.2431128e-05   0.53381937 0.0076948051            0   0.52612457    1.6129494    2.1467687    5.0796083 
 2850000    1.0792667 -2.2353375e-07   0.54498542  0.010209584            0   0.53477583    1.6108055     2.155791    2.1403403 
 2855000    1.0586754 -1.4130781e-05   0.56715725  0.020476516            0   0.54668073     1.580073    2.1472302    1.1705107 
 2860000    1.1215838 7.7527403e-06   0.46801255  0.022531077            0   0.44548148    1.6739638    2.1419763    2.6778457 
 2865000    1.0888904 -1.1231293e-05    0.5093313   0.02688175            0   0.48244955    1.6251688    2.1345002    1.3581932 
 2870000    1.1322887 1.3932023e-05   0.45158354 0.0090263766            0   0.44255717    1.6899408    2.1415244    3.1045058 
 2875000     1.115291 -3.5827036e-05   0.46555534 0.0054082503            0   0.46014709    1.6645718    2.1301272  -0.34623756 
 2880000    1.1271193 -8.5580405e-06   0.44557765 0.0059820737            0   0.43959557    1.6822255    2.1278032    1.5362714 
 2885000    1.1201383 -1.3379244e-05   0.46168846 0.0087138612            0    0.4529746    1.6718064    2.1334949    1.2087215 
 2890000     1.121637 -1.8906279e-05   0.45669626 0.0066719248            0   0.45002434    1.6740432    2.1307394   0.82393741 
 2895000    1.1065959 1.3654221e-05   0.48210107 0.0079856113            0   0.47411546    1.6515944    2.1336954    3.0774752 
 2900000    1.0373197 -5.6953849e-05   0.57733325  0.024107704            0   0.55322555    1.5481997     2.125533   -1.8111171 
 2905000    1.1302444 1.8487383e-05   0.43068021  0.007524031            0   0.42315618    1.6868898      2.11757    3.3954179 
 2910000    1.0915474 8.9073431e-05   0.49201435 0.0077071425            0    0.4843072    1.6291346    2.1211489    8.2779045 
 2915000    1.1312594 -5.5386463e-05   0.44893068 0.0067136078            0   0.44221707    1.6884047    2.1373353    -1.690977 
 2920000    1.1501921 2.1435477e-05   0.41861774  0.010449703            0   0.40816803    1.7166617    2.1352794    3.6168996 
 2925000    1.0891573 8.1371493e-05   0.49761726  0.012919722            0   0.48469754    1.6255672    2.1231845    7.7475821 
 2930000    1.1100519 -4.5334936e-05   0.47575103 0.0092503669            0   0.46650066    1.6567525    2.1325035   -1.0010473 
 2935000    1.1422112 4.1795929e-05   0.44505663 0.0069341499            0   0.43812248    1.7047502    2.1498068    5.0387415 
 2940000    1.0704907 5.0052446e-05   0.53551606  0.021326743            0   0.51418932    1.5977074    2.1332235    5.5928486 
 2945000    1.1014228 6.1868081e-05   0.45452693  0.028450489            0   0.42607644    1.6438736    2.0984005    6.3747223 
 2950000    1.0878033 -8.5895433e-05   0.48545562  0.019838184            0   0.46561743    1.6235464     2.109002   -3.8280903 
 2955000    1.0859308 2.4962829e-05   0.50582877  0.012432913            0   0.49339585    1.6207517    2.1265804    3.8520111 
 2960000    1.1355016 -2.9373518e-05     0.415877 0.0056663541            0   0.41021064    1.6947362    2.1106132  0.080315602 
 2965000    1.1005975 -4.9794559e-06   0.46020663  0.007946647            0   0.45225999    1.6426418    2.1028484    1.7586684 
 2970000    1.1110523 -1.6908467e-05   0.45009437  0.014656723            0   0.43543765    1.6582456      2.10834   0.93962677 
 2975000    1.0967108 -7.5361064e-05    0.4578696  0.013424887            0   0.44444471    1.6368409    2.0947105   -3.1142463 
 2980000    1.0705157 9.2996094e-05   0.49685268  0.018371816            0   0.47848086    1.5977447    2.0945974    8.5224874 
 2985000    1.1087284 -5.0512932e-05   0.44108078  0.011486376            0    0.4295944    1.6547771    2.0958579   -1.3955959 
 2990000    1.1012148 2.9657438e-05   0.45364954  0.010112859            0   0.44353668    1.6435632    2.0972127    4.1471348 
 2995000    1.0556742 -1.9223576e-05   0.51176783  0.015361148            0   0.49640668    1.5755937    2.0873615   0.75862791 
 3000000    1.1195669 -5.8878836e-06    0.3987001   0.01326765            0   0.38543245    1.6709536    2.0696537    1.6626832 
 3005000    1.0887819 2.3301445e-05   0.43362926 0.0055076331            0   0.42812163     1.625007    2.0586363    3.6692322 
 3010000    1.0901166 -3.344941e-05   0.45467384 0.0053993571            0   0.44927449    1.6269991    2.0816729  -0.23035028 
 3015000    1.1009661 1.2942719e-05   0.44957446 0.0024915835            0   0.44708288    1.6431919    2.0927663    2.9873671 
 3020000    1.0827182 -2.1954583e-05   0.47806318 0.0023873608            0   0.47567582     1.615957    2.0940201   0.57651937 
 3025000    1.1264542 -8.4149826e-06   0.42535769 0.0041527183            0   0.42120497    1.6812328    2.1065905    1.5249469 
 3030000    1.0753712 -1.3923631e-05   0.52224096  0.015202055            0   0.50703891    1.6049915    2.1272325    1.1648311 
 3035000    1.0861131 -1.4983169e-06   0.49561906  0.014048755            0    0.4815703    1.6210238    2.1166428    2.0130792 
 3040000    1.0440763 8.3737975e-05   0.53705555  0.017337741            0   0.51971781    1.5582839    2.0953395    7.8833083 
 3045000    1.0584334 -2.8990911e-05   0.50525841  0.011598346            0   0.49366006    1.5797119    2.0849703  0.081118505 
 3050000    1.1035286 -4.8479996e-05   0.44889358  0.015849351            0   0.43304423    1.6470165    2.0959101   -1.2550273 
 3055000    1.1028691 -2.2528334e-05   0.45545519  0.016444523            0   0.43901066    1.6460322    2.1014874    0.5443289 
 3060000    1.1165308 -1.6213797e-05   0.45397667 0.0061221197            0   0.44785455    1.6664222    2.1203988   0.99970116 
 3065000    1.0918118 1.135778e-05   0.47076975  0.018317167            0   0.45245259    1.6295292    2.1002989    2.8853487 
 3070000    1.0410076 -1.5578688e-05   0.54527073  0.021753628            0    0.5235171    1.5537039    2.0989746    1.0221757 
 3075000    1.0201831 5.3791617e-05   0.57622757  0.029849363            0    0.5463782    1.5226232    2.0988508    5.8169274 
 3080000    1.0356443 -3.1022518e-05    0.5374349  0.032755448            0   0.50467945    1.5456991     2.083134 -0.061142437 
 3085000    1.1005233 9.8599506e-06    0.4427408  0.013205955            0   0.42953485     1.642531    2.0852718    2.7667915 
 3090000    1.0621133 1.6376769e-05   0.49743802  0.011316805            0   0.48612122    1.5852041    2.0826422    3.2146045 
 3095000    1.0901849 -3.2710202e-05   0.45528434 0.0030117954            0   0.45227254    1.6271009    2.0823853  -0.17854388 
 3100000    1.0883386 2.1550701e-05   0.44515341 0.0018834037            0   0.44327001    1.6243454    2.0694988    3.5590832 
 3105000    1.0502854 5.9921211e-06   0.48507721 0.0016004946            0   0.48347671     1.567551    2.0526282    2.4668036 
 3110000    1.0275364 -7.5345242e-06   0.49930847 0.0090285474            0   0.49027993    1.5335981    2.0329065    1.5121202 
 3115000    1.0380646 1.0342456e-05   0.47622093  0.018529995            0   0.45769093    1.5493114    2.0255324     2.740403 
 3120000    1.0400804 -1.1562086e-05   0.46272445 0.0040818822            0   0.45864257      1.55232    2.0150444     1.215873 
 3125000    1.0198917 1.7992549e-05   0.49090029 0.0061089877            0   0.48479131    1.5221883    2.0130886    3.2567336 
 3130000    1.0243948 -4.6891014e-05   0.48517831 0.0034034809            0   0.48177482    1.5289093    2.0140876   -1.2270194 
 3135000    1.0382179 -2.1143491e-05   0.47185103  0.008044837            0   0.46380619    1.5495403    2.0213913   0.55995318 
 3140000    1.0250492 4.2460613e-05   0.46985078 0.0055322732            0   0.46431851    1.5298859    1.9997366    4.9346142 
 3145000    1.0189836 1.3284459e-05   0.48257124 0.0057221768            0   0.47684906    1.5208331    2.0034043    2.9216261 
 3150000     1.009859 -3.6286059e-06   0.49851374   0.02020699            0   0.47830675    1.5072145    2.0057282     1.754919 
 3155000    1.0377835 -2.8530591e-05   0.47508975  0.015590035            0   0.45949971    1.5488918    2.0239815  0.051947069 
 3160000     1.028225 4.5251393e-05   0.50723199 0.0085986355            0   0.49863335    1.5346258    2.0418578    5.1696341 
 3165000    1.0467229 6.1330719e-05   0.47946617 0.0071379545            0   0.47232821     1.562234    2.0417002    6.2808795 
 3170000    1.0422192 -2.4572136e-05   0.49717426  0.023399513            0   0.47377475    1.5555122    2.0526864   0.35426041 
 3175000    1.0197627 -6.2941749e-05   0.52228734  0.024413618            0   0.49787372    1.5219959    2.0442832   -2.3062505 
 3180000    1.0352084 -1.4837489e-05   0.49819708 0.0045182256            0   0.49367885    1.5450485    2.0432456    1.0176783 
 3185000    1.0537392 2.2286549e-05   0.45027351 0.0082840357            0   0.44198947    1.5727058    2.0229793    3.5634256 
 3190000    1.0810097 3.4762601e-05   0.41097889 0.0045483184            0   0.40643057     1.613407    2.0243859    4.4271769 
 3195000    1.0704457 -5.4352134e-05   0.44194916  0.001412861            0    0.4405363    1.5976403    2.0395894   -1.7172301 
 3200000    1.0297423 4.6637015e-07   0.52340192 0.0037738832            0   0.51962804    1.5368903    2.0602923    2.0925278 
 3205000    1.0956871 -1.6510336e-05   0.42091235 0.0060918864            0   0.41482046     1.635313    2.0562254   0.91503092 
 3210000    1.0356748 -3.797554e-05   0.50776435 0.0066144567            0   0.50114989    1.5457446     2.053509  -0.57136032 
 3215000    1.0362978 1.1250359e-05   0.52015094 0.0033540104            0   0.51679693    1.5466745    2.0668254    2.8444503 
 3220000    1.1027478 -6.1747129e-06   0.40743499 0.00031385297            0   0.40712114    1.6458511    2.0532861      1.62649 
 3225000    1.0563304 -7.3741132e-07   0.49147429 0.0032410173            0   0.48823327    1.5765731    2.0680474    2.0170775 
 3230000    1.0413113 5.1400568e-05   0.50117783  0.011077534            0   0.49010029    1.5541571    2.0553349    5.6081421 
 3235000    1.0499566 -2.5179498e-05   0.51213425  0.014693903            0   0.49744035    1.5670603    2.0791945    0.3387876 
 3240000    1.0453319 -6.6758358e-05   0.51619786  0.034474611            0   0.48172325    1.5601578    2.0763557    -2.537982 
 3245000    1.0618137 -5.6569544e-05   0.50207968  0.024857715            0   0.47722197    1.5847569    2.0868366   -1.8232503 
 3250000    1.0755479 3.8114934e-06   0.46150275 0.0027470329            0   0.45875572    1.6052553     2.066758    2.3302085 
 3255000    1.0938332 2.2307103e-05   0.44015214 0.0040618797            0   0.43609026     1.632546    2.0726982    3.6145651 
 3260000    1.0632309 -5.6339577e-06   0.50413947  0.020948949            0   0.48319052    1.5868722    2.0910116    1.7015925 
 3265000    1.0832557 -1.344835e-05   0.46732714  0.029581314            0   0.43774582    1.6167591    2.0840863    1.1545363 
 3270000    1.0716169 6.0285228e-05    0.4808873  0.017367911            0   0.46351938    1.5993882    2.0802755    6.2471905 
 3275000    1.0898945 -9.5750337e-06   0.47206324  0.031919036            0   0.44014421    1.6266676    2.0987308    1.4369045 
 3280000    1.1154689 1.2987117e-06   0.45541372  0.021225068            0   0.43418865    1.6648373     2.120251     2.210018 
 3285000    1.1099603 3.536053e-05   0.44305013 0.0065523825            0   0.43649775    1.6566158    2.0996659    4.5437858 
 3290000     1.096242 -2.5985916e-05   0.46391947 0.0046778861            0   0.45924159    1.6361412    2.1000607   0.30391413 
 3295000    1.1217515 4.4901634e-05   0.43186559 0.0071049541            0   0.42476063    1.6742142    2.1060798    5.2096807 
 3300000    1.0677502 -3.6107847e-05   0.50169132  0.018272731            0   0.48341859    1.5936171    2.0953084  -0.40046593 
 3305000    1.0939714 -1.2842473e-05   0.42710513 0.0091441343            0   0.41796099    1.6327523    2.0598575    1.1721857 
 3310000    1.0891458 1.6637645e-05    0.4401618 0.0098000098            0   0.43036179    1.6255501    2.0657119    3.2157059 
 3315000    1.0566348 -1.490065e-05   0.49662122  0.013342921            0    0.4832783    1.5770275    2.0736487    1.0437158 
 3320000    1.0570774 -1.2198579e-05   0.50388634  0.011304401            0   0.49258194     1.577688    2.0815743    1.2384086 
 3325000    1.0811852 -2.4646553e-05   0.47665628  0.018607031            0   0.45804925     1.613669    2.0903253   0.38675548 
 3330000    1.0791951 -3.5551099e-05   0.47714882  0.025425273            0   0.45172354    1.6106987    2.0878475   -0.3694445 
 3335000    1.0896057 2.729907e-05   0.46209839   0.02620699            0    0.4358914    1.6262366     2.088335    3.9752467 
 3340000    1.0828979 -4.0914685e-05   0.48824431  0.012141475            0   0.47610284    1.6162251    2.1044695  -0.72355356 
 3345000    1.0955313 4.8228593e-05   0.45521998 0.0070995112            0   0.44812047    1.6350805    2.0903004    5.4238608 
 3350000    1.0895356 8.8585396e-06   0.44507931 0.0020358629            0   0.44304345    1.6261319    2.0712112    2.6835134 
 3355000    1.0947678 -5.2899868e-05   0.42702914  0.006653338            0    0.4203758    1.6339409      2.06097   -1.5954689 
 3360000    1.0763051 -5.4160054e-05    0.4449637  0.009270439            0   0.43569326    1.6063853     2.051349   -1.6921939 
 3365000    1.0684852   4.1308e-05   0.47042005 0.0086117208            0   0.46180833    1.5947142    2.0651342    4.9203432 
 3370000    1.0601504 -4.6230781e-05   0.48215304  0.014244243            0   0.46790879    1.5822744    2.0644274   -1.1310442 
 3375000    1.0913096 2.2280541e-05   0.42816944 0.0025980511            0   0.42557138    1.6287796     2.056949      3.59698 
 3380000    1.1132872 1.3250999e-05   0.39568636 0.0016710429            0   0.39401531    1.6615812    2.0572675    2.9731766 
 3385000    1.0349966 -6.4970964e-05   0.49223436  0.009157298            0   0.48307706    1.5447324    2.0369667   -2.4538263 
 3390000    1.0329977 4.5689688e-05     0.486889 0.0094141691            0   0.47747483    1.5417491    2.0286381    5.1867094 
 3395000    1.0913769 6.0538219e-06   0.40067305 0.0094302553            0   0.39124279      1.62888    2.0295531    2.4479933 
 3400000    1.0352236 -9.4737736e-06   0.48525834 0.0068669218            0   0.47839142    1.5450712    2.0303295    1.3755023 
 3405000    1.0578755 3.4049667e-05   0.43974704   0.02000263            0   0.41974441    1.5788792    2.0186262    4.3721392 
 3410000    1.0580196 -7.3385093e-05   0.43708149  0.022423892            0    0.4146576    1.5790942    2.0161757    -3.056202 
 3415000    1.0305618 -1.8961459e-05   0.48704583 0.0012914834            0   0.48575435    1.5381135    2.0251594   0.71454329 
 3420000    1.0416285 -2.681908e-06    0.4551772 0.0037469258            0   0.45143027    1.5546306    2.0098078    1.8244343 
 3425000     1.047703 -4.2108415e-05   0.48198704 0.0065497888            0   0.47543725    1.5636967    2.0456837  -0.86484995 
 3430000    1.0711786 1.4652554e-05   0.46055278  0.016888356            0   0.44366442     1.598734    2.0592868    3.0720714 
 3435000    1.0249424 -2.921103e-05    0.5099372  0.030353627            0   0.47958357    1.5297265    2.0396637   0.02059734 
 3440000    1.0290901 -5.899155e-08   0.49824752 0.0061470576            0   0.49210046    1.5359169    2.0341645     2.030087 
 3445000     1.063915 3.490344e-05   0.44392691 0.0037677739            0   0.44015913    1.5878931      2.03182    4.4443458 
 3450000    1.0403654 3.8148417e-05   0.47003061 0.0084798147            0   0.46155079    1.5527454     2.022776    4.6595945 
 3455000    1.0057986 8.8251021e-06   0.53667894  0.014697038            0    0.5219819    1.5011544    2.0378333    2.6478244 
 3460000    1.0264621 2.1219681e-05   0.50421061  0.022156306            0   0.48205431    1.5319946    2.0362052    3.5029096 
 3465000    1.0979078 1.8641434e-05    0.4256768 0.0044969243            0   0.42117988    1.6386274    2.0643042    3.3528002 
 3470000    1.0650328 -1.501189e-05   0.46293185  0.018688065            0   0.44424379    1.5895614    2.0524933    1.0148714 
 3475000   0.98865446 4.1444784e-05   0.55334202  0.035527208            0   0.51781481    1.4755668    2.0289088    4.8935723 
 3480000    1.0222704 -2.1610944e-05   0.51011792  0.017831835            0   0.49228608    1.5257386    2.0358565   0.54210807 
 3485000    1.0300269 -1.1028558e-05   0.50166345  0.016018731            0   0.48564472    1.5373151    2.0389786    1.2766847 
 3490000    1.0741911 1.7765009e-05   0.44700593 0.0026328312            0    0.4443731    1.6032303    2.0502362    3.2781536 
 3495000    1.0533578 2.3228265e-05   0.47680944 0.0029782399            0    0.4738312    1.5721365     2.048946    3.6544837 
 3500000    1.0468461 1.2096986e-05    0.4688673 0.0038254305            0   0.46504187    1.5624178    2.0312851    2.8674287 
 3505000    1.0374337 -7.2384842e-05    0.4763045 0.0044589473            0   0.47184555    1.5483698    2.0246743    -2.978566 
 3510000    1.0325593 1.7605226e-05   0.49919685  0.037522734            0   0.46167411    1.5410948    2.0402916    3.2571649 
 3515000    1.0716486 3.3286915e-05   0.46630523  0.016973409            0   0.44933182    1.5994355    2.0657408    4.3665323 
 3520000    1.0684156 -3.950231e-05   0.47444199 0.0093342013            0   0.46510779    1.5946103    2.0690523  -0.66134738 
 3525000    1.0464219 -3.9723426e-05   0.48315414  0.012611967            0   0.47054217    1.5617847    2.0449389  -0.70074435 
 3530000    1.0257725 -6.1873299e-05   0.51319906 0.0097506746            0   0.50344839    1.5309655    2.0441646   -2.2325179 
 3535000    1.0554735 2.8477756e-05    0.4757579  0.012807052            0   0.46295085    1.5752941     2.051052    4.0194345 
 3540000    1.0284701 -6.694933e-06   0.49665397  0.022174979            0   0.47447899    1.5349916    2.0316456    1.5688918 
 3545000   0.99807241 5.8896242e-05   0.53547833  0.042891791            0   0.49258653    1.4896231    2.0251014    6.0960096 
 3550000    1.0093047 7.0600418e-06   0.51245986 0.0071373049            0   0.50532256    1.5063873    2.0188472    2.5068373 
 3555000    1.0010719 -6.0940818e-05   0.51732882 0.0061301966            0   0.51119863    1.4940998    2.0114286   -2.2008007 
 3560000    1.0500301 3.192482e-05   0.46126138  0.006395138            0   0.45486624      1.56717    2.0284313    4.2350749 
 3565000    1.0574525 -3.2611322e-07   0.44811072 0.0044773938            0   0.44363332    1.5782478    2.0263586    2.0038176 
 3570000    1.0073488 -8.3393118e-06   0.53839721 0.0039446883            0   0.53445252    1.5034681    2.0418653    1.4654521 
 3575000   0.99221704 -2.7678342e-05    0.5311424  0.012947648            0   0.51819475    1.4808839    2.0120263  0.098899344 
 3580000     1.045901 2.4203556e-05   0.44189272   0.01904112            0    0.4228516    1.5610072       2.0029    3.6758497 
 3585000    1.0145614 1.654221e-05   0.49469107  0.018366641            0   0.47632443    1.5142328    2.0089239    3.1523214 
 3590000   0.97652176  7.36805e-05   0.54881573 0.0026813897            0   0.54613434    1.4574587    2.0062745    7.0990707 
 3595000     1.031871 -3.4117121e-05     0.470851 0.0019862283            0   0.46886477    1.5400675    2.0109185  -0.34725693 
 3600000    1.0046986 -3.3886912e-06   0.49411613 0.0043980073            0   0.48971812    1.4995127    1.9936288    1.7594025 
 3605000   0.99938137 -2.2103241e-05   0.49854859 0.0077220465            0   0.49082654    1.4915767    1.9901253   0.46234928 
 3610000    0.9977529 -1.797373e-05   0.47093586  0.013159015            0   0.45777685    1.4891462    1.9600821   0.71773786 
 3615000   0.98659566 1.3317311e-05   0.48643196  0.010816586            0   0.47561537     1.472494     1.958926    2.8794185 
 3620000   0.99314225 -4.2705483e-05   0.49881768  0.010708493            0   0.48810919    1.4822648    1.9810825  -0.97072048 
 3625000     1.009267 -3.8116962e-05   0.47673373  0.014004689            0   0.46272904     1.506331    1.9830648  -0.65157962 
 3630000   0.99136409 6.737276e-05   0.51438712  0.009157627            0    0.5052295    1.4796109     1.993998    6.6508032 
 3635000    1.0128271 -3.0243978e-05   0.49515399 0.0064682288            0   0.48868576    1.5116444    2.0067984 -0.083665354 
 3640000    1.0362566 -3.7295624e-05    0.4452752 0.0093111005            0   0.43596409     1.546613    1.9918882  -0.58598534 
 3645000    1.0219043 7.0942799e-06   0.43972221 0.0053175765            0   0.43440464    1.5251921    1.9649144     2.455271 
 3650000   0.99183154 -9.012026e-05   0.49273951 0.0054851383            0   0.48725437    1.4803086    1.9730481   -4.2560643 
 3655000    1.0060021 8.3940398e-06   0.48297465  0.012583736            0   0.47039091    1.5014581    1.9844327    2.5646287 
 3660000   0.97589683 4.3995554e-05    0.5431909  0.015091671            0   0.52809923     1.456526    1.9997169    5.0406896 
 3665000    1.0469666 1.4255731e-05   0.42799291  0.016194843            0   0.41179806    1.5625977    1.9905906    2.9759467 
 3670000   0.97143196 -1.1442714e-05   0.53429889 0.0073084306            0   0.52699046    1.4498622    1.9841611    1.1932407 
 3675000     1.046457 5.5492038e-05   0.42914261 0.0048256828            0   0.42431692     1.561837    1.9909796    5.8265893 
 3680000    1.0128128 -2.5248274e-05   0.49132755 0.0047156041            0   0.48661194    1.5116231    2.0029506   0.25778991 
 3685000   0.99010855 -4.1934481e-05    0.5394624  0.011527844            0   0.52793456     1.477737    2.0171994  -0.88131188 
 3690000    1.0480531 -1.9167912e-05   0.45263185  0.020773136            0   0.43185871    1.5642192    2.0168511   0.69196496 
 3695000    1.0391635 -4.0714027e-05   0.47949112 0.0066558324            0   0.47283529    1.5509516    2.0304427  -0.78371089 
 3700000    1.0410179 3.0537511e-05   0.47781751 0.0071279503            0   0.47068956    1.5537192    2.0315367    4.1422895 
 3705000    1.0022179 -4.5039886e-05   0.52509429 0.0073432477            0   0.51775104    1.4958102    2.0209045   -1.0922525 
 3710000     1.029462 9.4254947e-06    0.4597725 0.0096214985            0     0.450151     1.536472    1.9962445    2.6477347 
 3715000    1.0143611 -1.6370345e-05   0.48750521  0.002892771            0   0.48461244    1.5139339    2.0014391   0.86992087 
 3720000    1.0375892 -2.5863579e-05   0.44176055 0.0020737044            0   0.43968685    1.5486019    1.9903624   0.20267184 
 3725000    1.0045803 -1.0350722e-06   0.49876552 0.0063644568            0   0.49240106     1.499336    1.9981016    1.9265574 
 3730000   0.97357981 9.2567818e-05   0.54490541 0.0040340313            0   0.54087138    1.4530679    1.9979733    8.3962608 
 3735000    1.0054523 -4.6616025e-05   0.50345126 0.0034885306            0   0.49996273    1.5006375    2.0040888   -1.2180108 
 3740000    1.0149433 -1.0502571e-05   0.49033666 0.0049322164            0   0.48540444    1.5148029    2.0051396    1.2792019 
 3745000    1.0359628 -1.3927332e-05   0.44446145  0.013226423            0   0.43123503    1.5461745    1.9906359    1.0279788 
 3750000   0.99699256  1.57723e-05   0.51818297 0.0099590796            0   0.50822389    1.4880114    2.0061944    3.0963757 
 3755000    1.0299862 1.4669984e-06   0.48067002  0.013617028            0   0.46705299    1.5372545    2.0179245    2.1193234 
 3760000    1.0304288 1.7077864e-05   0.48148222   0.01433679            0   0.46714543     1.537915    2.0193972    3.1998192 
 3765000    1.0114675 1.1355753e-05   0.49455153  0.015821818            0   0.47872971    1.5096153    2.0041668    2.7890764 
 3770000   0.99995629 -6.8147219e-07   0.49184896 0.0082916301            0   0.48355733    1.4924348    1.9842837    1.9371804 
 3775000   0.97594535 -1.4541152e-05   0.51315331  0.014440755            0   0.49871256    1.4565984    1.9697517   0.96466728 
 3780000    1.0191993 -1.6089347e-05   0.46201763  0.005861432            0    0.4561562    1.5211549    1.9831725   0.87107687 
 3785000    1.0139649 2.8904187e-05   0.47333359 0.0031906776            0   0.47014291    1.5133426    1.9866762    3.9845336 
 3790000    1.0263089 -7.9094058e-06   0.44129094 0.0031231407            0    0.4381678     1.531766    1.9730569    1.4263588 
 3795000    1.0086894 -4.015785e-06   0.46925947 0.0021798485            0   0.46707962     1.505469    1.9747285    1.6971574 
 3800000   0.99620191 1.0488612e-05   0.48129801 0.0031849009            0   0.47811311    1.4868314    1.9681294    2.6931022 
 3805000   0.97934363 -2.2686474e-05   0.51607757 0.0044770396            0   0.51160053    1.4616704    1.9777479   0.40965888 
 3810000   0.97243724 2.4125951e-05   0.51861226  0.009008008            0   0.50960426    1.4513626    1.9699748    3.6375606 
 3815000   0.98838216 -5.8530357e-06   0.49380453  0.017860871            0   0.47594365    1.4751604    1.9689649    1.5644031 
 3820000   0.99339419 -1.6229855e-05    0.4905729  0.020357775            0   0.47021512    1.4826408    1.9732137   0.85140617 
 3825000   0.97842409 1.0910984e-05   0.50077902 0.0087999899            0   0.49197903     1.460298     1.961077    2.7152442 
 3830000   0.95179006 -9.7696641e-06   0.53845639 0.0095940673            0   0.52886232    1.4205467    1.9590031    1.2837239 
 3835000   0.96842135 3.5060235e-05   0.50733081  0.010574306            0   0.49675651    1.4453689    1.9526997    4.3760631 
 3840000    0.9662022 8.7331828e-06   0.51968791  0.016789148            0   0.50289877    1.4420568    1.9617447    2.5653823 
 3845000   0.95945998 -5.6936506e-06   0.54065026 0.0089731111            0   0.53167715     1.431994    1.9726443    1.5790992 
 3850000    1.0107658 -7.296594e-06   0.46464113 0.0057200967            0   0.45892103    1.5085679    1.9732091    1.4688685 
 3855000   0.97708112 8.1227783e-06   0.53633932 0.0088428089            0   0.52749651    1.4582936    1.9946329    2.5560793 
 3860000   0.97866237 -4.550296e-06   0.52825703 0.0052039332            0   0.52305309    1.4606536    1.9889106    1.6743942 
 3865000    1.0132529 6.7669784e-06   0.47509461 0.0090267123            0   0.46606789      1.51228    1.9873746    2.4551082 
 3870000   0.98766539 -1.712426e-05   0.51275941 0.0081553515            0   0.50460406    1.4740906      1.98685   0.80322114 
 3875000   0.99142612 -7.2469412e-05      0.49141 0.00044759401            0   0.49096241    1.4797035    1.9711135   -3.0379723 
 3880000   0.99511441 -4.6858086e-05   0.49184701 0.0021561585            0   0.48969085    1.4852083    1.9770553   -1.2617757 
 3885000   0.99068722 1.375871e-05   0.50124084  0.010464846            0   0.49077599    1.4786007    1.9798415    2.9308435 
 3890000   0.95096488 1.2112636e-05   0.56127101  0.016390579            0   0.54488043    1.4193151    1.9805861    2.8178115 
 3895000   0.95044855 2.7557708e-05   0.55108035 0.0077730317            0   0.54330732    1.4185445    1.9696248    3.8744136 
 3900000   0.96553178 5.8802213e-05   0.51727768  0.014339775            0   0.50293791    1.4410562    1.9583339    6.0227428 
 3905000   0.92726868 9.7709334e-05   0.56255123  0.017705707            0   0.54484553    1.3839485    1.9464997    8.7001689 
 3910000   0.93238365 -2.2499053e-05    0.5360974  0.012772046            0   0.52332535    1.3915826      1.92768   0.37254547 
 3915000   0.93711809 -2.4094658e-05   0.53063598  0.013345617            0   0.51729036    1.3986487    1.9292847   0.26386196 
 3920000   0.99041677 9.9869339e-05   0.46724322  0.016274419            0   0.45096881     1.478197    1.9454403     8.848409 
 3925000   0.92609007 4.2378208e-05   0.55108475  0.025284426            0   0.52580033    1.3821894    1.9332742    4.8624559 
 3930000   0.95307712 4.3013958e-06   0.53453605 0.0067935102            0   0.52774254    1.4224676    1.9570037    2.2543161 
 3935000   0.94352679 -4.5024099e-05   0.54343055  0.014011943            0   0.52941861    1.4082137    1.9516443   -1.1604214 
 3940000    0.9832587 -8.0912576e-05   0.47594475  0.020516799            0   0.45542795    1.4675136    1.9434584   -3.6492189 
 3945000   0.99538216 -7.2741274e-06   0.46967696  0.016282816            0   0.45339414    1.4856079    1.9552848    1.4524971 
 3950000   0.94296785 6.7507748e-05    0.5431645 0.0075820319            0   0.53558247    1.4073795     1.950544    6.6166796 
 3955000   0.98971411 -5.5890836e-06   0.47479726 0.0044553133            0   0.47034195    1.4771483    1.9519456    1.5656281 
 3960000   0.94267408 -2.5359685e-05    0.5528009 0.0051762662            0   0.54762463    1.4069411     1.959742   0.20688055 
 3965000     0.995386 4.4035037e-05   0.46370084 0.0069817593            0   0.45671908    1.4856136    1.9493144    4.9930162 
 3970000   0.99317865 -6.0929085e-07   0.45298294 0.0044278304            0   0.44855511    1.4823191    1.9353021    1.8931879 
 3975000   0.92469793 -6.3411174e-05    0.5448224  0.012731298            0    0.5320911    1.3801117    1.9249341   -2.4580462 
 3980000   0.94127991 -1.7167474e-05   0.53495415 0.0069354726            0   0.52801868    1.4048603    1.9398144   0.75319863 
 3985000   0.95720048 7.5422272e-06   0.52276266 0.0083546043            0   0.51440805    1.4286217    1.9513844    2.4727031 
 3990000   0.94174919 -3.3511778e-05   0.54579723 0.0092331432            0   0.53656409    1.4055607    1.9513579  -0.36497622 
 3995000   0.98026401 -3.019856e-05    0.5015257 0.0070744807            0   0.49445121     1.463044    1.9645697  -0.12275473 
 4000000   0.96417286 -2.1503394e-05   0.53319873 0.0030308083            0   0.53016793     1.439028    1.9722267   0.48591214 
 4005000   0.98422445 3.5687155e-05   0.51720434 0.0028076029            0   0.51439673     1.468955    1.9861593    4.4528555 
 4010000   0.95447184 5.2013581e-06   0.56173488 0.0024241205            0   0.55931076    1.4245492    1.9862841     2.345802 
 4015000    0.9476224 5.1579919e-05   0.55524537 0.0044052491            0   0.55084012    1.4143264    1.9695718    5.5347758 
 4020000   0.97358004 -6.8711451e-06   0.51598269  0.006492316            0   0.50949037    1.4530682    1.9690509    1.4941173 
 4025000   0.94864239 -3.8339492e-05   0.54244764 0.0080448553            0   0.53440278    1.4158488    1.9582964  -0.69172928 
 4030000    0.9538318 -3.2720066e-06   0.54924577 0.0050713162            0   0.54417446     1.423594    1.9728397    1.7466786 
 4035000   0.97020098 -5.6081739e-05   0.51969445 0.0032322336            0   0.51646222     1.448025    1.9677194   -1.9086503 
 4040000   0.94902346 2.0723802e-05   0.55980981  0.012565148            0   0.54724466    1.4164175    1.9762273    3.4086565 
 4045000   0.96989917 -2.4189715e-05   0.53050611  0.035442208            0    0.4950639    1.4475745    1.9780806   0.30608752 
 4050000   0.93984644 -4.6528142e-05     0.580347 0.0078686542            0   0.57247835    1.4027208    1.9830678   -1.2329574 
 4055000   0.98362394 2.8611469e-05   0.52533996  0.006262693            0   0.51907727    1.4680587    1.9933987    3.9710234 
 4060000    0.9775432 -7.4818169e-05   0.55936838 0.0080579064            0   0.55131048    1.4589832    2.0183516   -3.1530802 
 4065000    1.0094097 -2.3735281e-05   0.50210605 0.0055949294            0   0.49651112    1.5065439      2.00865   0.36806741 
 4070000   0.98695625 -1.1500701e-05   0.53748592  0.018398054            0   0.51908786    1.4730322    2.0105181    1.2155897 
 4075000   0.95242993 -1.0442069e-06   0.60559359  0.030446667            0   0.57514692    1.4215017    2.0270953    1.9549197 
 4080000   0.98960315 7.0917006e-05   0.54907877 0.0058005524            0   0.54327822    1.4769827    2.0260615    6.9278449 
 4085000    1.0197739 1.0234627e-05   0.48954264 0.0045982311            0   0.48494441    1.5220126    2.0115552    2.7189726 
 4090000   0.97352144 -3.129714e-05   0.56560206  0.003182765            0   0.56241929    1.4529807    2.0185828   -0.1446755 
 4095000    1.0168422 3.7712438e-05   0.49849931 0.0054335601            0   0.49306575    1.5176369    2.0161362      4.62282 
 4100000   0.92494174 8.5889866e-06   0.60552442  0.012498138            0   0.59302628    1.3804755        1.986    2.5796707 
 4105000    1.0210476 -6.8702592e-05   0.46067449  0.016805702            0   0.44386879    1.5239135     1.984588   -2.7641351 
 4110000   0.97746485 -1.6454309e-05   0.52936203 0.0082748556            0   0.52108717    1.4588663    1.9882283   0.85090648 
 4115000   0.96147609 -2.1683845e-05   0.57358465  0.019173326            0   0.55441132    1.4350031    2.0085877   0.50980036 
 4120000    1.0144481 4.3240412e-06    0.4872244  0.017635036            0   0.46958937    1.5140638    2.0012882    2.3001659 
 4125000    1.0212234 9.0418418e-05   0.48319645  0.014629032            0   0.46856742     1.524176    2.0073724    8.2570935 
 4130000    0.9839628 1.6788874e-06   0.54064544  0.011782002            0   0.52886344    1.4685645    2.0092099    2.1252546 
 4135000    0.9975576 -3.7609189e-05   0.52176982  0.013808751            0   0.50796107    1.4888547    2.0106245  -0.58892261 
 4140000    1.0081318 -9.1835228e-07   0.52581063  0.018701928            0    0.5071087    1.5046368    2.0304474    1.9669709 
 4145000    1.0071623 -9.6047979e-06   0.51178708   0.01678598            0    0.4950011    1.5031898    2.0149769    1.3510932 
 4150000   0.96808486 6.5521089e-06   0.55700359  0.016608209            0   0.54039538    1.4448666    2.0018702     2.454752 
 4155000    1.0003383 2.6991525e-06   0.50826494  0.018598444            0    0.4896665    1.4930049    2.0012698    2.1878352 
 4160000   0.98319281 1.7408614e-06   0.53221413  0.017635391            0   0.51457874    1.4674153    1.9996294    2.1199577 
 4165000    1.0007688 2.2436424e-05   0.51086676 0.0056815454            0   0.50518522    1.4936475    2.0045143    3.5553199 
 4170000    0.9792226 1.4674754e-05   0.54761233 0.0089709889            0   0.53864134    1.4614897    2.0091021     3.023421 
 4175000    1.0104565 5.2869393e-08   0.50296203  0.022776485            0   0.48018555    1.5081064    2.0110684    2.0147227 
 4180000    1.0196846 6.3275839e-06   0.48352989  0.014673594            0   0.46885629    1.5218793    2.0054091    2.4427717 
 4185000   0.98284731 -1.9524762e-05    0.5351214  0.020766341            0   0.51435506    1.4668996     2.002021   0.65246946 
 4190000   0.97842482 1.8093719e-05    0.5403698  0.015978009            0   0.52439179    1.4602991    2.0006689    3.2513067 
 4195000     1.011717 5.7578624e-05   0.49437632  0.011156897            0   0.48321943    1.5099877     2.004364    5.9841985 
 4200000   0.98432098 -4.2369292e-05   0.54191454  0.014574102            0   0.52734043    1.4690991    2.0110136  -0.91755187 
 4205000    1.0376299 -7.3045448e-06    0.4737143 0.0072037265            0   0.46651057    1.5486627     2.022377    1.5174868 
 4210000    1.0159445 -3.2519569e-05   0.49800457   0.01113395            0   0.48687062    1.5162972    2.0143018  -0.23345085 
 4215000   0.98596145 -3.4902772e-05   0.58342011  0.010806089            0   0.57261402    1.4715475    2.0549676  -0.35751202 
 4220000    1.0157057 2.0157049e-05   0.54137552  0.018443192            0   0.52293233    1.5159408    2.0573163    3.4505716 
 4225000    1.0140829 4.0225342e-07   0.53296366  0.021954052            0    0.5110096    1.5135187    2.0464823    2.0742861 
 4230000    1.0746871 -4.5996811e-06   0.42958985 0.0093890192            0   0.42020083    1.6039705    2.0335603    1.7156304 
 4235000    1.0317119 -3.9504511e-05   0.49312093 0.0063994925            0   0.48672144      1.53983    2.0329509  -0.69760088 
 4240000    1.0512327 1.7398574e-05   0.45797265   0.01935755            0    0.4386151    1.5689649    2.0269375     3.229527 
 4245000    1.0251452 6.7248522e-05   0.47736134  0.029439783            0   0.44792156    1.5300292    2.0073905    6.6556084 
 4250000    1.0334436 4.1199091e-05   0.49228436  0.014173542            0   0.47811082    1.5424146     2.034699    4.8823801 
 4255000    1.0435913 2.0035513e-05   0.46869567  0.019963334            0   0.44873234    1.5575601    2.0262558    3.4111104 
 4260000   0.98975285 -0.0001019713   0.55269393  0.021510709            0   0.53118322    1.4772061       2.0299   -5.0183562 
 4265000    1.0606893 -9.3136599e-06   0.43107026  0.018398814            0   0.41267145    1.5830788     2.014149    1.3703889 
 4270000   0.99132715 8.6250247e-05   0.53442374 0.0080123149            0   0.52641142    1.4795558    2.0139795    7.9755966 
 4275000    1.0202627 8.5725045e-06   0.46611407  0.010486392            0   0.45562768    1.5227421    1.9888561    2.5813877 
 4280000    1.0103805 -5.591551e-05   0.45906216 0.0096800598            0    0.4493821    1.5079928     1.967055   -1.8978251 
 4285000    0.9569987 -3.5896251e-06   0.53972576  0.007798956            0   0.53192681    1.4283206    1.9680463    1.7199314 
 4290000    1.0200366 -2.1321358e-07   0.44022723  0.016034008            0   0.42419322    1.5224046    1.9626318    1.9478945 
 4295000   0.97963943 2.7854257e-05   0.49066625  0.022559536            0   0.46810671    1.4621119    1.9527781    3.8780643 
 4300000   0.96183983 -7.7539616e-06   0.50600796  0.011914814            0   0.49409315    1.4355459    1.9415539    1.4056001 
 4305000   0.97553912 -5.5044667e-05   0.47851916 0.0089992888            0   0.46951987    1.4559921    1.9345113   -1.8701761 
 4310000   0.98578728 -3.2435079e-05   0.44084978  0.014918821            0   0.42593096    1.4712875    1.9121373  -0.32977537 
 4315000   0.95723356 -1.5350324e-05   0.46428307  0.029302707            0   0.43498037    1.4286711    1.8929542   0.83193978 
 4320000    0.9547653 3.6371612e-05    0.4623097  0.016212411            0   0.44609729    1.4249872    1.8872969    4.4013028 
 4325000   0.92401456 3.4043069e-05   0.49976729 0.00074583381            0   0.49902145    1.3790917     1.878859    4.2319159 
 4330000   0.98301283 3.5868186e-05   0.40863516 0.0020765655            0    0.4065586    1.4671466    1.8757818    4.3549908 
 4335000   0.95395953 2.7514719e-05    0.4759691 0.0034737772            0   0.47249532    1.4237846    1.8997537    3.8015711 
 4340000   0.91324435 -2.8674183e-05   0.51412023  0.005043004            0   0.50907723    1.3630172    1.8771374  -0.10482213 
 4345000    0.9182897 -1.8326752e-05   0.49162874 0.0051145908            0   0.48651415    1.3705474    1.8621761   0.59543106 
 4350000   0.93674291 2.7838745e-05   0.47256284 0.0083965664            0   0.46416627    1.3980888    1.8706516    3.7948657 
 4355000   0.90207881 5.074276e-05    0.5128256  0.017338733            0   0.49548686    1.3463526    1.8591782    5.3665178 
 4360000   0.92991492 5.3599774e-07   0.47158365  0.017842782            0   0.45374086     1.387898    1.8594817    1.8965298 
 4365000   0.94207146 -4.7234775e-06   0.45205512  0.015818586            0   0.43623653    1.4060417    1.8580968      1.53161 
 4370000    0.9543888 2.4428814e-06   0.45137925  0.018666818            0   0.43271243    1.4244253    1.8758045    2.0446565 
 4375000   0.95435675 1.2925939e-05   0.46109214  0.011869753            0   0.44922239    1.4243775    1.8854696    2.7789105 
 4380000   0.94057022 6.9505865e-05   0.46876442  0.011608685            0   0.45715573    1.4038011    1.8725655    6.6768109 
 4385000    0.9612208 9.303487e-06   0.42929584  0.017194457            0   0.41210138     1.434622    1.8639179    2.5069749 
 4390000   0.92529925 5.4682603e-06   0.47752617  0.019219173            0   0.45830699    1.3810091    1.8585353    2.2365015 
 4395000   0.93831446 1.2048784e-05   0.47202333  0.021248364            0   0.45077496    1.4004343    1.8724577    2.7052696 
 4400000   0.94252654 -5.6676552e-05    0.4622388   0.01584195            0   0.44639685    1.4067209    1.8689597   -2.0485236 
 4405000     0.956972 -2.0687104e-06   0.43762833  0.013842654            0   0.42378568    1.4282807     1.865909    1.7229198 
 4410000   0.94666391 8.8806767e-06   0.45017997 0.0087759934            0   0.44140397    1.4128959    1.8630759    2.4769082 
 4415000   0.94367335 -1.0870313e-05   0.44287771 0.0038915001            0   0.43898621    1.4084325    1.8513102    1.0999542 
 4420000   0.92399609 -7.4483543e-05   0.49084127 0.0061157034            0   0.48472556    1.3790642    1.8699054   -3.2783971 
 4425000    0.9481865 -4.991275e-05   0.44849152  0.018485611            0   0.43000591    1.4151684    1.8636599   -1.5863094 
 4430000   0.90664991 -8.2821845e-06   0.49693977  0.008975943            0   0.48796382     1.353175    1.8501148    1.2776502 
 4435000   0.97222544 1.8477843e-05   0.40900085  0.015352539            0   0.39364831    1.4510465    1.8600473    3.1372358 
 4440000   0.95017599 2.1520732e-05   0.43627554  0.030469554            0   0.40580599    1.4181377    1.8544132    3.3419262 
 4445000   0.92266346 1.2253135e-05   0.51070735  0.017374216            0   0.49333313    1.3770752    1.8877826    2.7347193 
 4450000   0.92124163 -8.9808276e-05   0.50756051  0.017362874            0   0.49019764    1.3749531    1.8825136   -4.3250344 
 4455000   0.95092713 -2.2123998e-05   0.46063693   0.01627391            0   0.44436302    1.4192587    1.8798957   0.35068494 
 4460000   0.94817542 -3.5673667e-05   0.44851772  0.017919569            0   0.43059815    1.4151518    1.8636695  -0.60209434 
 4465000   0.97452437 -5.8614326e-05   0.43338138  0.013093976            0   0.42028741    1.4544776     1.887859   -2.1635632 
 4470000   0.94484307 -7.3220489e-06   0.47777259  0.022397596            0     0.455375    1.4101783    1.8879509    1.3818508 
 4475000   0.91440669 -8.5049687e-06   0.52186617  0.016658823            0   0.50520735     1.364752    1.8866182    1.2987547 
 4480000   0.94025793 -4.6503639e-05   0.49478252  0.013485254            0   0.48129726     1.403335    1.8981175    -1.316214 
 4485000   0.95449452 -7.2743421e-05   0.46751696  0.017816136            0   0.44970082    1.4245831       1.8921   -3.1359252 
 4490000   0.96787713 -5.4621394e-05   0.45466904  0.014785053            0   0.43988398    1.4445566    1.8992257   -1.8762051 
 4495000   0.96529277 -1.3129533e-07   0.45267365  0.024672692            0   0.42800096    1.4406995    1.8933731     1.884298 
 4500000   0.94400375 1.2918146e-05   0.48176122  0.015229694            0   0.46653153    1.4089256    1.8906868    2.7835891 
 4505000   0.93710608 -2.9025522e-05   0.50459434  0.026355446            0   0.47823889    1.3986308    1.9032252  -0.10301895 
 4510000   0.95878135 -4.2275802e-05    0.4785555  0.024053306            0   0.45450219    1.4309812    1.9095367   -1.0125668 
 4515000   0.97457551 -4.2907444e-05   0.45934946 0.0067709648            0    0.4525785     1.454554    1.9139034   -1.0518591 
 4520000   0.93639709 1.3922923e-05   0.51660093 0.0033299884            0   0.51327095    1.3975727    1.9141736     2.876526 
 4525000    1.0223221 2.2404271e-05   0.40659884 0.0071036014            0   0.39949524    1.5258158    1.9324146    3.4809978 
 4530000    1.0079668 8.2457697e-06   0.45109469  0.023267745            0   0.42782695    1.5043904    1.9554851    2.5254327 
 4535000   0.97946213 -5.6725153e-05   0.50223612  0.033026178            0   0.46920994    1.4618472    1.9640833   -1.9567592 
 4540000   0.94850848 2.0979893e-05   0.55959652  0.038671752            0   0.52092476    1.4156489    1.9752454    3.4253756 
 4545000    1.0009318 3.6646529e-05   0.50129038  0.014963725            0   0.48632666    1.4938908    1.9951812    4.5281892 
 4550000    1.0307309 -2.1046863e-06    0.4722772  0.015112836            0   0.45716436    1.5383658     2.010643    1.8651671 
 4555000    1.0244218 -3.0141814e-05   0.49065844  0.010290916            0   0.48036752    1.5289495    2.0196079 -0.063794268 
 4560000    1.0119785 -3.7585696e-05   0.50605049  0.022544359            0   0.48350613    1.5103778    2.0164283  -0.58149497 
 4565000   0.99341985 -6.7542947e-06   0.55334221  0.032991526            0   0.52035068    1.4826791    2.0360213    1.5691645 
 4570000    1.0569178 1.5705161e-05   0.47505434  0.035848375            0   0.43920597    1.5774498    2.0525041    3.1380448 
 4575000    1.0091896 -1.5794223e-05   0.53648821  0.019586174            0   0.51690204    1.5062155    2.0427037   0.95100703 
 4580000    1.0075024 3.1750807e-05   0.53149399  0.010067665            0   0.52142632    1.5036973    2.0351913     4.229807 
 4585000   0.99632403 -4.4904449e-05   0.52746439  0.008214677            0   0.51924972    1.4870136     2.014478   -1.0893175 
 4590000   0.97734456 3.6768707e-05   0.54445532  0.012842008            0   0.53161331    1.4586868    2.0031421    4.5445951 
 4595000    1.0039427 1.3499295e-06   0.50631511  0.017153743            0   0.48916137    1.4983845    2.0046996    2.0980067 
 4600000    1.0279146 -2.1718202e-05   0.50672742   0.04043057            0   0.46629685    1.5341626      2.04089   0.53972788 
 4605000    1.0132183 4.9457025e-05   0.52365888  0.019095358            0   0.50456352    1.5122284    2.0358873    5.4543568 
 4610000     1.005663 1.9639628e-05   0.52374852   0.01054006            0   0.51320846     1.500952    2.0247006    3.3821916 
 4615000   0.99858255 -2.2612692e-05   0.52683464  0.017459764            0   0.50937487    1.4903845    2.0172191   0.45422983 
 4620000     1.046207 -3.1273456e-05   0.46567061 0.0073483436            0   0.45832226    1.5614639    2.0271345  -0.13448672 
 4625000    1.0282786 7.9975555e-06   0.49250754 0.0070348818            0   0.48547266    1.5347058    2.0272134    2.5800044 
 4630000    1.0215631 5.000389e-05   0.51042628  0.011610602            0   0.49881568    1.5246829    2.0351092    5.4913781 
 4635000    1.0692136 5.0025843e-05        0.426  0.009288539            0   0.41671147    1.5958013    2.0218013    5.4795876 
 4640000    1.0184165 1.5780437e-05   0.48238733  0.010250475            0   0.47213686    1.5199866    2.0023739    3.0931177 
 4645000    1.0322518 1.8244994e-05   0.45205416  0.011517067            0   0.44053709    1.5406358    1.9926899    3.2537839 
 4650000    1.0336842 -2.4681125e-05    0.4574311     0.014547            0    0.4428841    1.5427736    2.0002047   0.29424537 
 4655000    1.0269454 -1.7293243e-05   0.45728863  0.025332398            0   0.43195624     1.532716    1.9900047   0.79469574 
 4660000   0.99019345 2.1704996e-05   0.50676045  0.014077101            0   0.49268335    1.4778637    1.9846242    3.4848735 
 4665000    0.9924153 1.876427e-05   0.51000819  0.025528982            0   0.48447921    1.4811798     1.991188    3.2881744 
 4670000    1.0079718 -1.166111e-06   0.47948804  0.010203326            0   0.46928471    1.5043979    1.9838859    1.9032843 
 4675000   0.97640071 4.5970594e-05   0.52773142 0.0097793874            0   0.51795204    1.4572781    1.9850095    5.1624969 
 4680000    0.9525142 7.3810499e-06   0.58099217  0.033897397            0   0.54709477    1.4216274    2.0026196    2.5127978 
 4685000    1.0254134 9.2750789e-06   0.47506208  0.011632967            0   0.46342912    1.5304295    2.0054916     2.646585 
 4690000    1.0446538 -2.1844481e-06   0.43601037 0.0068681126            0   0.42914226    1.5591458    1.9951561    1.8441671 
 4695000    1.0129922 -3.0346413e-05   0.47951772 0.0060289918            0   0.47348873    1.5118908    1.9914085  -0.10613556 
 4700000   0.99529475 1.2099155e-05   0.51052758 0.0096015436            0   0.50092604    1.4854774     1.996005    2.8322986 
 4705000    1.0379157 5.1111182e-05   0.45556857  0.011877537            0   0.44369103    1.5490892    2.0046577    5.5374626 
 4710000    1.0028405 7.1312174e-06   0.47582279  0.010640221            0   0.46518257    1.4967394    1.9725622     2.465472 
 4715000    0.9598804 -4.0691701e-06   0.52191067  0.020498455            0   0.50141221    1.4326215    1.9545322    1.6732711 
 4720000   0.96836358 7.8213873e-05   0.51920393  0.013466523            0    0.5057374    1.4452826    1.9644866    7.3706295 
 4725000   0.99483919 -9.7699637e-07   0.47106529  0.017750672            0   0.45331462    1.4847975    1.9558628    1.8883328 
 4730000   0.97448754 -3.2630684e-05   0.49028453 0.0088947433            0   0.48138979    1.4544227    1.9447072  -0.31072567 
 4735000   0.98977193 -1.4670341e-06   0.46619755 0.0078072259            0   0.45839032    1.4772346    1.9434322    1.8420308 
 4740000   0.99903117 1.1955492e-05   0.44670354  0.011819393            0   0.43488415     1.491054    1.9377576    2.7641212 
 4745000   0.99508341 -6.0334034e-05   0.46071249  0.027720164            0   0.43299233     1.485162    1.9458745   -2.2244139 
 4750000   0.99951384 -6.4551658e-06   0.46564482  0.023191024            0    0.4424538    1.4917744    1.9574192    1.5112382 
 4755000   0.96252298 3.4063436e-05   0.51003763 0.0069831567            0   0.50305447    1.4365656    1.9466032    4.3010679 
 4760000   0.94772866 6.7360808e-07    0.5312786  0.024793115            0   0.50648548     1.414485    1.9457636    1.9923234 
 4765000   0.97805661 -2.7952697e-07   0.47972419  0.031084172            0   0.44864001    1.4597495    1.9394737    1.9201528 
 4770000    1.0059017 -2.873453e-05   0.43506949  0.032585214            0   0.40248428    1.5013082    1.9363777 -0.049753003 
 4775000    0.9719483 -1.4821345e-05   0.46809064  0.025800242            0    0.4422904    1.4506328    1.9187235   0.89427209 
 4780000   0.94695299 -1.2101451e-05   0.50528237  0.019039242            0   0.48624312    1.4133273    1.9186097    1.0821574 
 4785000   0.98760721 3.845547e-06   0.44266907 0.0019561967            0   0.44071288    1.4740038    1.9166728     2.182477 
 4790000    1.0206335 5.8272549e-05   0.37031642 0.0061758581            0   0.36414056    1.5232956     1.893612    5.9214106 
 4795000   0.98253642 3.8815142e-05      0.43218 0.0093698054            0   0.42281019    1.4664356    1.8986156    4.5815182 
 4800000   0.98274634 4.7231873e-06   0.42951093 0.0095656993            0   0.41994523    1.4667489    1.8962598    2.2227265 
 4805000   0.95153687 -3.8540827e-05   0.48900261  0.021576679            0   0.46742593    1.4201688    1.9091714  -0.75477055 
 4810000   0.93947283 -3.3797546e-05   0.48608245  0.019333541            0   0.46674891    1.4021632    1.8882456  -0.44784075 
 4815000   0.98689057 -1.4622783e-06   0.42971361  0.019890849            0   0.40982276    1.4729342    1.9026478    1.8015751 
 4820000   0.93566071 -2.9369237e-05   0.48571176  0.024176067            0    0.4615357    1.3964736    1.8821854  -0.14781632 
 4825000   0.97688609   1.7822e-05   0.42192009  0.017959782            0   0.40396031    1.4580025    1.8799226    3.1117792 
 4830000   0.98891973 -4.1484388e-05   0.42720313  0.016066681            0   0.41113645    1.4759627    1.9031658  -0.96423506 
 4835000   0.96291347 -3.9582348e-06    0.4599328  0.013669953            0   0.44626285    1.4371484    1.8970812     1.623488 
 4840000   0.97726451 5.9682841e-06   0.44817631  0.020487921            0   0.42768839    1.4585673    1.9067436    2.3192714 
 4845000   0.91534529 -6.6761833e-05   0.50794823   0.01292922            0   0.49501901    1.3661529    1.8741011   -2.7404769 
 4850000   0.96275503 5.1129593e-05   0.44720272  0.018980473            0   0.42822225    1.4369119    1.8841146    5.4181921 
 4855000   0.94744634 7.4263306e-05   0.45983142  0.029695254            0   0.43013617    1.4140637    1.8738951    7.0069748 
 4860000   0.96071449 2.6411399e-05   0.42685901  0.017089479            0   0.40976953    1.4338664    1.8607254    3.6862813 
 4865000   0.95514575 -2.9843271e-06   0.42084953 0.0031664071            0   0.41768312     1.425555    1.8464046    1.6401279 
 4870000   0.93211152 -3.6483901e-05   0.47602874  0.017416447            0   0.45861229    1.3911764    1.8672052  -0.65456206 
 4875000   0.93636727 -2.1272338e-05   0.46742685  0.024940478            0   0.44248637    1.3975282     1.864955   0.39461102 
 4880000   0.91996887 -3.1478479e-05   0.50090698  0.027915467            0   0.47299151    1.3730535    1.8739605  -0.30183196 
 4885000   0.97348997 -1.1755748e-05   0.44213347  0.019794398            0   0.42233907    1.4529338    1.8950673      1.08251 
 4890000   0.99752033 1.181889e-05   0.40234136   0.01172282            0   0.39061854    1.4887991    1.8911404    2.7080621 
 4895000   0.91083401 -6.9880717e-05   0.53447864  0.039614046            0   0.49486459    1.3594198    1.8938984   -2.9362567 
 4900000   0.93076952 -5.8798284e-05   0.50189481  0.013961262            0   0.48793355    1.3891735    1.8910683   -2.1730691 
 4905000   0.96354408 5.673173e-06   0.43917402 0.0085645115            0   0.43060951    1.4380895    1.8772636    2.2693933 
 4910000   0.95754178  4.87387e-05   0.44620485 0.0058058995            0   0.44039895    1.4291311     1.875336    5.2441549 
 4915000   0.93227491 3.4451355e-05   0.47775836 0.0068523946            0   0.47090596    1.3914203    1.8691787    4.2504563 
 4920000   0.96216547 4.598707e-05   0.45146278 0.0025392976            0   0.44892348     1.436032    1.8874947     5.066121 
 4925000   0.93925969 3.9073426e-05   0.48247372 0.0009217675            0   0.48155195    1.4018451    1.8843188     4.585074 
 4930000    1.0141786 2.4489801e-05   0.37938377 0.0024514431            0   0.37693233    1.5136616    1.8930454    3.5857804 
 4935000   0.94868328 3.1312402e-05   0.45924508   0.01052754            0   0.44871754    1.4159098    1.8751549    4.0394681 
 4940000   0.94307399 9.6961684e-06   0.48067489  0.015713926            0   0.46496096    1.4075379    1.8882128     2.558412 
 4945000   0.95587137 2.1877827e-05   0.45363121  0.014769471            0   0.43886174     1.426638    1.8802692    3.3924646 
 4950000   0.95907262 -7.8140503e-06   0.46232564  0.021117597            0   0.44120805    1.4314159    1.8937415    1.3536344 
 4955000   0.95114796 -2.0662731e-05   0.45720465 0.0072761573            0   0.44992849    1.4195883     1.876793   0.44858499 
 4960000   0.93989655 5.863398e-05   0.47116739 0.0019673522            0   0.46920003    1.4027956     1.873963    5.9267436 
 4965000   0.97655132 -2.9229219e-05   0.41847223 0.0020441296            0    0.4164281    1.4575028    1.8759751  -0.14434855 
 4970000   0.96799693 -5.4180566e-05    0.4436743 0.0045887659            0   0.43908553    1.4447354    1.8884097    -1.856551 
 4975000    0.9784917 -5.6598422e-05   0.43563205  0.015502972            0   0.42012908    1.4603989    1.8960309    -2.016052 
 4980000   0.96826244 -1.4331513e-05   0.45910709  0.019019319            0   0.44008777    1.4451317    1.9042388   0.91364458 
 4985000    1.0016632 3.6237765e-05    0.4072669  0.009762708            0   0.39750419    1.4949823    1.9022492    4.4070035 
 4990000      1.01167 -6.6143363e-07   0.41236182 0.0048530196            0    0.4075088    1.5099174    1.9222793     1.876561 
 4995000   0.97019062 2.5786617e-05   0.47140527 0.0073790397            0   0.46402623    1.4480095    1.9194148    3.7017857 
 5000000   0.98583593 -2.8831368e-05   0.43739624  0.025351787            0   0.41204446    1.4713601    1.9087564 -0.084067761 
 5005000    1.0116272 -1.161036e-05    0.3897678  0.015751952            0   0.37401585    1.5098535    1.8996214    1.0971133 
 5010000   0.95117063 3.5915392e-08     0.475328  0.011683754            0   0.46364425    1.4196222    1.8949502    1.8974326 
 5015000    0.9480893 -5.0670837e-05   0.49644994  0.021470325            0   0.47497962    1.4150233    1.9114732    -1.590895 
 5020000   0.98608857 3.9901509e-05   0.43619834  0.017168162            0   0.41903018    1.4717372    1.9079355    4.6659279 
 5025000   0.98851437 -3.5543304e-05   0.44594467  0.018141679            0   0.42780299    1.4753577    1.9213024  -0.53545077 
 5030000   0.94747494 4.1700331e-06   0.49406821  0.034705051            0   0.45936316    1.4141063    1.9081746    2.1964072 
 5035000   0.94382758 -9.2137961e-06   0.48112828  0.037166447            0   0.44396183    1.4086627    1.8897909    1.2529333 
 5040000     1.003746 -1.8461172e-05   0.42025608  0.011755797            0   0.40850029    1.4980909     1.918347   0.64231077 
 5045000    1.0192045 1.6186267e-05   0.40140616 0.0073765581            0    0.3940296    1.5211627    1.9225688    3.0413636 
 5050000     1.006973 -6.9133024e-06   0.42105987 0.0037880611            0   0.41727181    1.5029072     1.923967    1.4461196 
 5055000   0.97649831 2.5400717e-06   0.49555719 0.0075250531            0   0.48803214    1.4574237    1.9529809    2.1285507 
 5060000   0.95917315 4.9086847e-07   0.49865668 0.0076208185            0   0.49103586    1.4315659    1.9302226    1.9641514 
 5065000    1.0221162 -1.420512e-05   0.40791847  0.012234345            0   0.39568413    1.5255085     1.933427   0.95156908 
 5070000    1.0091404 -7.1618303e-05   0.44379627 0.0097762201            0   0.43402005     1.506142    1.9499383   -3.0003188 
 5075000   0.97828275 -4.6221959e-05   0.50643033  0.010089311            0   0.49634101     1.460087    1.9665173   -1.2283445 
 5080000    1.0595924 -3.4598095e-05   0.39249122 0.0043968035            0   0.38809441    1.5814417    1.9739329  -0.41748744 
 5085000    1.0128226 -1.9325486e-05   0.46893682 0.0018817343            0   0.46705508    1.5116378    1.9805746   0.64479701 
 5090000    1.0182385 1.4826718e-05   0.47795375 0.0064791464            0    0.4714746     1.519721    1.9976747    3.0224975 
 5095000   0.99423637 9.4095939e-06    0.5104551  0.015310536            0   0.49514456    1.4838978    1.9943529     2.644744 
 5100000    1.0219196 -6.3865184e-05   0.46535679 0.0091340359            0   0.45622275     1.525215    1.9905718   -2.4237897 
 5105000    1.0005313 1.3164333e-06   0.48033145 0.0073701306            0   0.47296132     1.493293    1.9736245    2.0646164 
 5110000    1.0695636 -7.7483357e-06   0.36697959   0.01092056            0   0.35605903    1.5963237    1.9633032    1.4277383 
 5115000    1.0096024 1.5759394e-05   0.47660491  0.013304199            0   0.46330071    1.5068315    1.9834364    3.0727257 
 5120000     1.012973 1.0889984e-05   0.47898024  0.010281496            0   0.46869875    1.5118623    1.9908425    2.7435582 
 5125000    1.0366585 -6.3897084e-05   0.43158098  0.025039869            0   0.40654111    1.5472129    1.9787938   -2.4377726 
 5130000    1.0033849 -1.31935e-05   0.46483739  0.015281309            0   0.44955608    1.4975519    1.9623893    1.0504546 
 5135000   0.98595419 8.2989569e-06   0.48272773 0.0072044915            0   0.47552324    1.4715366    1.9542644    2.5278883 
 5140000   0.99114437 -6.8740716e-05   0.48574694  0.019575051            0   0.46617189     1.479283    1.9650299   -2.7863284 
 5145000   0.99296942 2.9607437e-05   0.47920079  0.031368302            0   0.44783249    1.4820069    1.9612076    4.0076737 
 5150000   0.96052067 4.6105327e-05   0.52248459 0.0077863217            0   0.51469827    1.4335771    1.9560617    5.1428619 
 5155000    0.9646895 -3.4429927e-05   0.51859747 0.0084211091            0   0.51017636    1.4397991    1.9583966  -0.42140002 
 5160000   0.96423971 -8.099509e-06   0.50978972  0.011814345            0   0.49797538    1.4391278    1.9489175    1.3890794 
 5165000    1.0194774 3.872593e-05   0.42958121   0.01197175            0   0.41760946      1.52157    1.9511512    4.6278875 
 5170000   0.96005322 -4.9484602e-05   0.52188089  0.015531589            0    0.5063493    1.4328794    1.9547603   -1.4656154 
 5175000    0.9656044 -3.6191885e-06   0.52450075  0.016789271            0   0.50771148    1.4411646    1.9656653     1.715507 
 5180000   0.99033075 -4.3370088e-05   0.48711212  0.005593084            0   0.48151904    1.4780686    1.9651808   -1.0325597 
 5185000    1.0073344 1.1764791e-05   0.46788922  0.012238552            0   0.45565067    1.5034465    1.9713358    2.7845182 
 5190000    1.0324693 5.9211798e-05   0.45702835  0.019993395            0   0.43703495    1.5409604    1.9979888    6.0907082 
 5195000    1.0306687 3.818511e-05   0.46055281  0.012605552            0   0.44794726     1.538273    1.9988259    4.6381806 
 5200000    1.0242586 -6.2211467e-05   0.45511895 0.0068284235            0   0.44829053     1.528706    1.9838249   -2.3162317 
 5205000   0.96131189 2.8745812e-05   0.53936917  0.014600975            0   0.52476819     1.434758    1.9741272    3.9610377 
 5210000    1.0042494 -2.3041368e-05   0.47020744  0.020737057            0   0.44947039    1.4988422    1.9690496   0.37643026 
 5215000   0.95072966 -4.5232509e-05   0.52911325  0.015822978            0   0.51329027     1.418964    1.9480773   -1.1783937 
 5220000   0.95878741 2.1756945e-06   0.51385131 0.0070092633            0   0.50684205    1.4309902    1.9448415    2.0952255 
 5225000    0.9438164 -1.5635487e-05   0.54405609 0.0030146599            0   0.54104143     1.408646    1.9527021   0.87197722 
 5230000   0.96998435 -4.2704903e-06   0.49872059  0.010111108            0   0.48860948    1.4477016    1.9464222    1.6512459 
 5235000   0.98586789 5.4843012e-05   0.47739136 0.0095505189            0   0.46784084    1.4714078    1.9487992    5.7395482 
 5240000   0.97528863 3.8107903e-05   0.49137857 0.0073276731            0   0.48405089    1.4556183    1.9469968    4.5810151 
 5245000   0.98629451 -5.1181738e-05   0.45065486 0.0093398622            0     0.441315    1.4720446    1.9226994   -1.6149823 
 5250000   0.90740929 -2.2429661e-05   0.56854545  0.010192164            0   0.55835329    1.3543084    1.9228538   0.37251563 
 5255000    0.9831638 4.0230956e-05   0.45065827  0.016397197            0   0.43426107     1.467372    1.9180302    4.6987939 
 5260000   0.92980067 -2.4753368e-07   0.51761604  0.012293323            0   0.50532272    1.3877275    1.9053435     1.888234 
 5265000   0.93417285 -2.8007619e-05   0.52398611 0.0063725725            0   0.51761353     1.394253    1.9182391 -0.017647546 
 5270000   0.93500413 -3.6648916e-05   0.51983027 0.0079436969            0   0.51188657    1.3954937    1.9153239  -0.61784913 
 5275000   0.94406243 -2.1461954e-05   0.52983549  0.021187848            0   0.50864764    1.4090132    1.9388487   0.45539841 
 5280000   0.98121969 1.9375394e-05   0.46970656  0.020483725            0   0.44922284    1.4644704    1.9341769    3.2734042 
 5285000   0.91756951 -4.7291568e-05   0.55743402  0.012310316            0    0.5451237    1.3694725    1.9269065   -1.3418867 
 5290000    1.0014315 4.0784894e-05   0.42954292 0.0076619091            0   0.42188101    1.4946366    1.9241795    4.7432314 
 5295000   0.94607226 -4.5930221e-05    0.5163482 0.0049405505            0   0.51140765    1.4120128     1.928361   -1.2463358 
 5300000   0.94295004 -5.964318e-05   0.50849751 0.0062914255            0   0.50220608    1.4073529    1.9158504   -2.2066862 
 5305000   0.91496594 -2.0507078e-07   0.53358161  0.033836195            0   0.49974542    1.3655867    1.8991683    1.8849938 
 5310000   0.88288978 -9.4062985e-05   0.55787592  0.015218909            0   0.54265702     1.317713    1.8755889   -4.6260446 
 5315000   0.92137637 4.1598645e-05    0.5303094 0.0056649225            0   0.52464448    1.3751542    1.9054636     4.780762 
 5320000   0.94583933 -5.6917167e-05   0.49278031  0.011116195            0   0.48166411    1.4116652    1.9044455   -2.0296691 
 5325000   0.95455114 4.0622922e-06   0.48233943  0.028700275            0   0.45363915    1.4246676     1.907007    2.1877926 
 5330000   0.94286195 -5.0469166e-05   0.48315816  0.021031164            0   0.46212699    1.4072215    1.8903796   -1.5980492 
 5335000   0.93865561 -1.9155931e-05   0.47371628 0.0062450626            0   0.46747122    1.4009435    1.8746598   0.55060179 
 5340000   0.90546406 1.2848583e-05   0.50975275 0.0059798872            0   0.50377286    1.3514051    1.8611579    2.7492519 
 5345000   0.88621502 1.1435662e-05   0.53179044  0.021398581            0   0.51039185    1.3226759    1.8544664    2.6448993 
 5350000   0.89748253 4.6123781e-05   0.50505006  0.010563903            0   0.49448616    1.3394927    1.8445427    5.0326185 
 5355000   0.90273934 -2.6818373e-05   0.49143938 0.0022060242            0   0.48923335    1.3473385    1.8387778 -0.014908097 
 5360000   0.89328508 -6.5036074e-05   0.50857572 0.0039956302            0   0.50458009     1.333228    1.8418037   -2.6534897 
 5365000   0.93034995 9.1718555e-06   0.45742913  0.016819808            0   0.44060932    1.3885473    1.8459764    2.4799351 
 5370000   0.92450301 -5.0507574e-06   0.48942944  0.006697982            0   0.48273145    1.3798207    1.8692502    1.5201418 
 5375000   0.92547087 -6.8650984e-05   0.49693915 0.0049390312            0   0.49200012    1.3812653    1.8782044   -2.8669516 
 5380000   0.96217727 -2.0325784e-05   0.44506755  0.015686104            0   0.42938145    1.4360496    1.8811171   0.47619896 
 5385000   0.87284055 1.6002463e-05   0.57110218  0.017950973            0    0.5531512    1.3027145    1.8738167     2.979907 
 5390000   0.90966631 -5.7024866e-05   0.52600118  0.018296365            0   0.50770482     1.357677    1.8836782   -2.0578806 
 5395000   0.90537696 1.8699969e-05   0.53140593  0.013007307            0   0.51839862    1.3512751     1.882681    3.1752229 
 5400000   0.95214448 -8.4636528e-06    0.4639159 0.0016967037            0   0.46221919    1.4210756    1.8849915    1.2999838 
 5405000   0.92111434 1.3554255e-05    0.5016595 0.0081348781            0   0.49352462    1.3747632    1.8764227    2.8132928 
 5410000    0.9099746 -5.1473659e-05   0.53458042  0.018354331            0   0.51622609    1.3581371    1.8927175   -1.6651418 
 5415000   0.93042838 2.4589318e-05    0.4869292  0.026640148            0   0.46028905    1.3886644    1.8755936    3.5752072 
 5420000   0.92055771 -1.1385141e-05   0.49841949 0.0076130971            0    0.4908064    1.3739324    1.8723519    1.0854109 
 5425000   0.89851712 1.1338482e-05   0.51790975 0.0041970444            0   0.51371271    1.3410368    1.8589466    2.6426624 
 5430000   0.89218871 4.4969354e-06   0.50712784 0.0095939057            0   0.49753393    1.3315916    1.8387195    2.1495477 
 5435000   0.87076387 3.9072222e-05   0.54314507  0.025131682            0   0.51801339    1.2996151    1.8427602    4.5434321 
 5440000   0.92146252 -6.6396294e-05   0.48961477  0.013370253            0   0.47624452    1.3752828    1.8648976   -2.7244142 
 5445000   0.91742792 2.8574969e-05   0.50274717  0.029200678            0    0.4735465    1.3692612    1.8720083    3.8471102 
 5450000    0.9456402 -8.2416526e-07   0.46075343  0.014916944            0   0.44583649     1.411368    1.8721214    1.8151551 
 5455000   0.92534671 -1.1181068e-05   0.48910967 0.0096162051            0   0.47949346      1.38108    1.8701896    1.0973542 
 5460000   0.91499762 -4.7890484e-05    0.5190656 0.0020374884            0   0.51702812     1.365634    1.8846996   -1.4254907 
 5465000   0.93969599 2.2150836e-05   0.48353595 0.00077002171            0   0.48276593    1.4024963    1.8860322     3.417098 
 5470000   0.92111073 -8.2700198e-05   0.51331541 0.0026226804            0   0.51069273    1.3747578    1.8880732   -3.8281645 
 5475000   0.96367115 -4.4699623e-05   0.45009443 0.0053662478            0   0.44472819    1.4382792    1.8883736   -1.2012643 
 5480000   0.87593267 3.7064622e-05   0.57001386  0.011061101            0   0.55895276    1.3073295    1.8773434      4.43925 
 5485000   0.96806166 4.4356547e-05   0.43118724  0.022991201            0   0.40819604     1.444832    1.8760193    4.9419438 
 5490000   0.98296071 2.7866374e-05   0.42483796 0.0090436861            0   0.41579428    1.4670689    1.8919068    3.8180306 
 5495000   0.95174837 3.9420217e-05   0.46563486  0.012750188            0   0.45288467    1.4204844    1.8861193    4.6108447 
 5500000   0.95126132 -4.7827993e-05   0.45805411  0.012873571            0   0.44518054    1.4197575    1.8778116   -1.4280592 
 5505000   0.98031415 2.3793361e-05   0.42244478 0.0043914714            0   0.41805331    1.4631189    1.8855637    3.5301607 
 5510000   0.98354327 5.1222669e-05   0.41496236 0.0074911996            0   0.40747117    1.4679383    1.8829007    5.4234116 
 5515000    0.9219013 -9.762277e-06   0.51121254 0.0070095348            0     0.504203    1.3759377    1.8871502    1.2123816 
 5520000   0.96388885 -6.4626792e-06   0.45364403 0.0089577939            0   0.44468623    1.4386041    1.8922481    1.4455478 
 5525000   0.90452702 -2.618296e-05   0.54802775  0.015287953            0    0.5327398    1.3500066    1.8980343  0.088268126 
 5530000   0.96733793 -4.858831e-05   0.47462673  0.020164127            0   0.45446261    1.4437519    1.9183786   -1.4400454 
 5535000   0.92285826 -2.2513389e-05   0.53092632  0.018764791            0   0.51216153     1.377366    1.9082923   0.35216683 
 5540000   0.94109995 -1.2200484e-05     0.497944  0.030620645            0   0.46732336    1.4045917    1.9025357    1.0592382 
 5545000   0.90346653 6.0843258e-05   0.54783237  0.018808681            0   0.52902369    1.3484238    1.8962562    6.1017421 
 5550000   0.95947833 -4.0288555e-05   0.47637176  0.013555045            0   0.46281671    1.4320214    1.9083932  -0.87635174 
 5555000   0.99620799 9.8766701e-06   0.43471264  0.011194405            0   0.42351823    1.4868404    1.9215531    2.6042285 
 5560000   0.94497904 1.3853912e-05   0.49343962  0.018023719            0    0.4754159    1.4103812    1.9038208    2.8614033 
 5565000   0.93809567 3.6280815e-05    0.5162292  0.022016122            0   0.49421307    1.4001078     1.916337    4.4240669 
 5570000   0.94376133 7.0600178e-06   0.50769602  0.011811508            0   0.49588451    1.4085638    1.9162598    2.4042482 
 5575000    0.9292301 -2.584877e-05   0.52554038 0.0083863513            0   0.51715403    1.3868759    1.9124163    0.1257493 
 5580000   0.90525909 1.7891101e-05   0.56299932    0.0153744            0   0.54762492    1.3510992    1.9140985    3.1507314 
 5585000   0.95721504 1.3048009e-05   0.48483641  0.039326314            0    0.4455101    1.4286434    1.9134799    2.8153583 
 5590000   0.92596319 2.6981841e-05   0.52957148  0.011902162            0   0.51766932    1.3820001    1.9115715    3.7765564 
 5595000   0.92748001 -1.7346817e-05   0.53728121 0.0077679697            0   0.52951324    1.3842639    1.9215451   0.72253311 
 5600000   0.95977382 -1.7759888e-05   0.50361203  0.020160197            0   0.48345183    1.4324624    1.9360745   0.70851103 
 5605000   0.95670348 -9.6280231e-06   0.50755602 0.0093242916            0   0.49823173    1.4278799     1.935436     1.269947 
 5610000   0.94987064 3.4357807e-07   0.49313567  0.012401268            0    0.4807344    1.4176819    1.9108176    1.9345657 
 5615000   0.97217771 7.7758364e-05   0.45751874  0.016318987            0   0.44119975    1.4509752     1.908494    7.2831521 
 5620000      0.94456 1.1590876e-05   0.51346108 0.0089366087            0   0.50452447    1.4097558    1.9232169    2.7243782 
 5625000   0.97698253 -6.0011057e-05    0.4746343  0.020757574            0   0.45387672    1.4581464    1.9327807   -2.2151835 
 5630000   0.92517791 -4.4067643e-08   0.53828863  0.013502581            0   0.52478605     1.380828    1.9191167    1.9160707 
 5635000   0.91430075 4.1122575e-05    0.5640121 0.0093533932            0   0.55465871    1.3645939     1.928606    4.7709984 
 5640000   0.92583649 1.5887478e-05   0.55509496 0.0077639839            0   0.54733097     1.381811    1.9369059    3.0350484 
 5645000   0.94120107 2.4048018e-05   0.52341022  0.018899155            0   0.50451106    1.4047426    1.9281528    3.5903518 
 5650000   0.93855843 -4.9667806e-05   0.52446329  0.015733185            0    0.5087301    1.4007985    1.9252617    -1.507777 
 5655000   0.96510348 -3.6923658e-05   0.46181004  0.015826256            0   0.44598379    1.4404169     1.902227  -0.64993624 
 5660000   0.90072606 2.9605245e-05   0.56293908  0.024848617            0   0.53809046    1.3443337    1.9072727    3.9535872 
 5665000    0.9561205 6.1009381e-05   0.47064031  0.015987817            0   0.45465249    1.4270098    1.8976501    6.1146186 
 5670000   0.93037819 -2.2455188e-05   0.50860799  0.017644853            0   0.49096313    1.3885895    1.8971974   0.34509484 
 5675000    0.9422606 -5.6711776e-07    0.4982272 0.0047570711            0   0.49347013     1.406324    1.9045512     1.865352 
 5680000   0.96708495 -3.0301624e-05   0.46321407 0.0081871269            0   0.45502694    1.4433743    1.9065884  -0.18785991 
 5685000   0.91564477 -5.0397707e-05   0.53441012 0.0085538689            0   0.52585625    1.3665998    1.9010099   -1.5824796 
 5690000   0.87642171 -5.6950921e-05   0.59563276 0.0099615291            0   0.58567124    1.3080594    1.9036922   -2.0327555 
 5695000   0.91150461 8.9365074e-06   0.53419028 0.0048876897            0   0.52930259    1.3604206    1.8946109    2.5123023 
 5700000   0.94561104 -1.2402912e-05   0.48667827 0.0060764157            0   0.48060185    1.4113245    1.8980027    1.0407135 
 5705000   0.95508053 5.5133817e-07   0.49294455  0.012693438            0   0.48025112    1.4254577    1.9184022    1.9565107 
 5710000   0.94412133 4.6275763e-05   0.49854052  0.010183232            0   0.48835729    1.4091011    1.9076416    5.1062223 
 5715000   0.95003532 -3.5408581e-05   0.49276024   0.01015566            0   0.48260458    1.4179277     1.910688  -0.53675314 
 5720000   0.94585354 -3.0211521e-05   0.49236206   0.01651661            0   0.47584545    1.4116864    1.9040485  -0.18417184 
 5725000   0.92075039 -1.6784062e-05   0.51847213  0.018562984            0   0.49990915      1.37422    1.8926921    0.7325777 
 5730000   0.96354961 -2.3615647e-05   0.45317001   0.01655469            0   0.43661532    1.4380978    1.8912678   0.25895426 
 5735000   0.93945522 2.2974861e-06   0.51302798  0.010484381            0   0.50254359    1.4021369    1.9151649    2.0739671 
 5740000   0.99103405 3.1361129e-05   0.44261032 0.0036505488            0   0.43895977    1.4791183    1.9217286    4.0894099 
 5745000   0.91760278 -5.6502898e-07   0.56281568 0.0056873025            0   0.55712837    1.3695222    1.9323378     1.893283 
 5750000   0.96546576 -3.5477997e-05   0.48606668 0.0058073876            0    0.4802593    1.4409576    1.9270243   -0.5252148 
 5755000    0.9492743 4.7059945e-05   0.49693797 0.0090983972            0   0.48783957    1.4167919    1.9137299    5.1665132 
 5760000   0.95885616 2.4170064e-05    0.4815189   0.01925649            0   0.46226241    1.4310928    1.9126117    3.5832466 
 5765000    0.9434623 9.1593699e-06   0.50144656  0.026143225            0   0.47530334    1.4081175     1.909564    2.5426597 
 5770000   0.92200231 -7.7215385e-06   0.54404481  0.015067898            0   0.52897691    1.3760885    1.9201333    1.3864205 
 5775000    0.9129609 2.8407197e-05   0.56190515 0.0045752418            0   0.55732991    1.3625941    1.9244993    3.8880048 
 5780000   0.95769172 -1.0114504e-06   0.49793695 0.0033223094            0   0.49461465    1.4293549    1.9272919    1.8573804 
 5785000   0.94135705 7.5206422e-06     0.518448 0.0040756093            0   0.51437239    1.4049754    1.9234234    2.4432502 
 5790000   0.91630708 -2.5620839e-05      0.53976 0.0063096231            0   0.53345038    1.3675883    1.9073483   0.13643589 
 5795000   0.93953071 -1.1905389e-05   0.49954304 0.0081968263            0   0.49134622    1.4022496    1.9017926    1.0788922 
 5800000   0.94490677 -1.5602306e-05   0.49035433  0.011409927            0    0.4789444    1.4102734    1.9006277   0.82219629 
 5805000   0.94527066 -4.1375644e-05   0.51843302  0.011952861            0   0.50648016    1.4108165    1.9292495  -0.93063504 
 5810000   0.93602002 -4.3383895e-05   0.53332824  0.012486635            0    0.5208416    1.3970099    1.9303381   -1.0683567 
 5815000   0.96090022 -1.504518e-05     0.510277  0.011446857            0   0.49883014    1.4341436    1.9444206   0.90449775 
 5820000   0.96445175 -2.7425316e-05   0.50782828 0.0065303787            0    0.5012979    1.4394442    1.9472725  0.051634703 
 5825000   0.91876225 -8.6791911e-06   0.56416485 0.0027937066            0   0.56137114    1.3712527    1.9354175    1.3355118 
 5830000   0.94226198 -4.5715952e-05   0.53490025 0.0017213488            0    0.5331789     1.406326    1.9412263   -1.2186603 
 5835000   0.97838632 -3.3054673e-05   0.47800419 0.0042475855            0   0.47375661    1.4602416    1.9382458  -0.34649319 
 5840000   0.91549102 4.3919221e-05    0.5618595 0.0033386932            0   0.55852081    1.3663703    1.9282299    4.9639264 
 5845000   0.91963485 -1.2808589e-05   0.58040486 0.0037853622            0    0.5766195     1.372555    1.9529599    1.0676302 
 5850000   0.91696856 -2.8186008e-05   0.55111031  0.021116808            0    0.5299935    1.3685756    1.9196859 -0.028531014 
 5855000    0.8912961 6.9735457e-06   0.61619507  0.042605211            0   0.57358986    1.3302594    1.9464545     2.428466 
 5860000   0.94195061 -3.147136e-05   0.53226552  0.053964106            0   0.47830142    1.4058613    1.9381268  -0.23717362 
 5865000   0.98898204 -5.0811864e-05   0.46871382  0.013491769            0   0.45522205    1.4760557    1.9447695   -1.5673465 
 5870000   0.90546226 1.476547e-05   0.58510086  0.012843095            0   0.57225776    1.3514024    1.9365033    2.9570926 
 5875000   0.94445347 -1.1359623e-05   0.52828955 0.0063049011            0   0.52198465    1.4095968    1.9378864    1.1527092 
 5880000   0.96932091 -3.3019569e-05   0.49843927 0.0093633971            0   0.48907587    1.4467115    1.9451507  -0.33716185 
 5885000   0.95091245 1.1505264e-05   0.53639216  0.031758987            0   0.50463317    1.4192368     1.955629    2.7508728 
 5890000   0.94464914 1.7831786e-05      0.54008  0.018283639            0   0.52179636    1.4098888    1.9499688    3.1825019 
 5895000   0.96916009 -3.4541699e-07   0.50231425  0.019487624            0   0.48282663    1.4464714    1.9487857    1.9249105 
 5900000   0.90326502 -7.3148994e-05   0.58306199  0.012226899            0   0.57083509     1.348123     1.931185   -3.1248734 
 5905000   0.91598259 2.1692484e-05   0.55115515  0.016360674            0   0.53479447     1.367104    1.9182592    3.4176437 
 5910000   0.98252216 6.117488e-05   0.45711817 0.0099962875            0   0.44712188    1.4664143    1.9235325    6.1519402 
 5915000   0.92722797 -1.1246597e-05   0.53699741 0.0068233729            0   0.53017403    1.3838877    1.9208851    1.1435204 
 5920000   0.92832905 -3.303136e-05    0.5317697 0.0093212039            0    0.5224485    1.3855311    1.9173008  -0.36582678 
 5925000   0.98596108 -2.8077086e-06   0.45206547 0.0073129127            0   0.44475256    1.4715469    1.9236124    1.7295436 
 5930000   0.96507466 -1.2339682e-05   0.48954815 0.0089787542            0    0.4805694    1.4403739    1.9299221    1.0770032 
 5935000    0.9714661 -2.8350595e-05   0.50639995 0.0072654619            0   0.49913448    1.4499132    1.9563131 -0.0032800399 
 5940000   0.94825502 3.4845632e-05   0.52815685 0.0086127775            0   0.51954408    1.4152706    1.9434275    4.3519576 
 5945000   0.96551305 4.4509354e-06   0.50497838  0.010172013            0   0.49480637    1.4410282    1.9460066    2.2536553 
 5950000   0.95636415 -2.2016489e-05   0.53668985  0.010745036            0   0.52594481    1.4273735    1.9640633   0.44228362 
 5955000    1.0390916 6.4395113e-05   0.41038151 0.0072829831            0   0.40309852    1.5508442    1.9612257    6.4122159 
 5960000   0.94745197 7.1302676e-05   0.56576561 0.0037684315            0   0.56199718    1.4140721    1.9798377    6.9082786 
 5965000   0.97908064 -6.4024886e-05   0.50686843 0.0015474722            0   0.50532095    1.4612779    1.9681463   -2.4572539 
 5970000    1.0035688 -5.6188547e-05   0.47020212  0.007346537            0   0.46285559    1.4978265    1.9680286   -1.9157238 
 5975000    1.0019782 3.0794206e-05   0.49047557 0.0036887252            0   0.48678684    1.4954524     1.985928    4.1144235 
 5980000    1.0321703 -6.7687375e-06    0.4681175 0.0035971573            0   0.46452035    1.5405141    2.0086316    1.5407765 
 5985000   0.99355821 -9.555703e-06   0.50799783  0.013417728            0   0.49458011    1.4828856    1.9908835    1.3303933 
 5990000   0.99245167 2.9147868e-06   0.49442465  0.016046167            0   0.47837848    1.4812341    1.9756588    2.1771288 
 5995000   0.99357565 1.3588236e-05   0.48118581  0.022365319            0   0.45882049    1.4829117    1.9640975    2.9033163 
 6000000    1.0092346 -1.1811808e-05   0.45574035 0.0050932249            0   0.45064712    1.5062826     1.962023    1.1455909 
 6005000   0.96615014 -3.3707664e-05   0.52728329 0.0033259905            0    0.5239573    1.4419791    1.9692624  -0.36061139 
 6010000    1.0266553 3.0327513e-05   0.45069755  0.014848713            0   0.43584884    1.5322831    1.9829807    4.0792184 
 6015000    1.0474076 -1.186212e-05   0.42008277  0.012161576            0   0.40792119    1.5632559    1.9833386    1.1634289 
 6020000    0.9920161 -4.8154398e-05   0.50505553  0.013379541            0   0.49167599     1.480584    1.9856396   -1.3427924 
 6025000   0.97349333 -3.4379605e-05   0.53059138  0.021169946            0   0.50942143    1.4529388    1.9835302  -0.39278812 
 6030000   0.98168786 2.0028721e-05   0.51566447  0.043832578            0   0.47183189    1.4651691    1.9808336    3.3652188 
 6035000    1.0077708 -2.0587578e-05   0.47109511  0.031817794            0   0.43927732     1.504098    1.9751931   0.55217969 
 6040000    1.0218667 -4.7938165e-05   0.45087755  0.015082463            0   0.43579509    1.5251361    1.9760136   -1.3374724 
 6045000   0.98893305 7.9761549e-06   0.51139405 0.0076849267            0   0.50370913    1.4759826    1.9873766    2.5386885 
 6050000   0.99001029 9.5735719e-06   0.51000943  0.013626391            0   0.49638304    1.4775904    1.9875998    2.6493251 
 6055000   0.96380732 -3.8751368e-05   0.58348784  0.024735457            0   0.55875238    1.4384824    2.0219703  -0.65652427 
 6060000   0.99944512 -5.4814398e-07   0.53358494  0.020125764            0   0.51345918    1.4916718    2.0252568    1.9873691 
 6065000    1.0791175 7.8163884e-07   0.42938689  0.026742461            0   0.40264443    1.6105829    2.0399698    2.0939967 
 6070000    1.0259289 -4.449198e-05   0.51382077 0.0093012478            0   0.50451953    1.5311988    2.0450196    -1.030266 
 6075000    1.0681873 3.6033842e-07   0.44322539 0.0069399471            0   0.43628544    1.5942696     2.037495    2.0624016 
 6080000   0.99203425 9.3993853e-06   0.54624825  0.012450077            0   0.53379817    1.4806111    2.0268594    2.6765449 
 6085000    1.0219831 7.0027345e-06   0.51968113  0.010002673            0   0.50967846    1.5253098     2.044991      2.52902 
 6090000    1.0577846 3.5378521e-05   0.47882177  0.017432739            0   0.46138904    1.5787436    2.0575654    4.5029287 
 6095000    1.0308421 2.8862501e-05   0.53120532  0.020046478            0   0.51115884    1.5385319    2.0697372    4.0647133 
 6100000     1.025296 3.8158098e-05   0.53191326 0.0078636442            0   0.52404961    1.5302543    2.0621676    4.6996554 
 6105000    1.0726166 1.772667e-06   0.43797485 0.0077386918            0   0.43023616    1.6008803    2.0388551    2.1613819 
 6110000   0.95423222 -1.3177286e-05   0.60486155 0.0089991863            0   0.59586237    1.4241916    2.0290531    1.1182391 
 6115000     1.005832 4.3354205e-05   0.51788891   0.01272764            0   0.50516127    1.5012043    2.0190932    5.0157359 
 6120000    1.0062515 -3.2119319e-05   0.49421867 0.0045046763            0   0.48971399    1.5018304    1.9960491  -0.22403822 
 6125000    1.0301091 -3.1747531e-05   0.44922673  0.012300215            0   0.43692652    1.5374378    1.9866645  -0.20772486 
 6130000   0.97121726 1.0685632e-06   0.52987375  0.034756277            0   0.49511747    1.4495418    1.9794155    2.0532746 
 6135000   0.92723329 -2.1841649e-05   0.59263306  0.031608316            0   0.56102474    1.3838957    1.9765287   0.46683399 
 6140000   0.95113337 -7.8483088e-06   0.56086529   0.02110593            0   0.53975936    1.4195666    1.9804319    1.4379567 
 6145000    1.0246806 1.7966011e-06   0.46173858 0.0075258274            0   0.45421275    1.5293358    1.9910743    2.1152554 
 6150000    0.9860337 6.3752961e-06   0.52091084 0.0060218635            0   0.51488898    1.4716553    1.9925661    2.4332266 
 6155000    1.0026619 1.5981484e-05     0.500968 0.0015462739            0   0.49942172    1.4964729    1.9974409    3.1020811 
 6160000    0.9935208 1.1439998e-05   0.51526821 0.0028335117            0    0.5124347    1.4828298     1.998098    2.7888307 
 6165000   0.98124476 2.4447296e-06   0.53140199 0.0050409947            0   0.52636099    1.4645078    1.9959098    2.1648895 
 6170000    0.9750735 -4.4478734e-05   0.51384017 0.0024677794            0   0.51137239    1.4552972    1.9691374   -1.1052327 
 6175000   0.99286844 -3.4716833e-05   0.46308337 0.0023935767            0    0.4606898    1.4818561    1.9449395  -0.45468798 
 6180000   0.95453916 4.7521857e-05   0.53450269 0.0023524199            0   0.53215027    1.4246497    1.9591524    5.2438632 
 6185000   0.96609002 5.2290469e-05   0.52129307  0.008715245            0   0.51257782    1.4418894    1.9631824    5.5774997 
 6190000    0.9776697 -8.8604836e-05   0.51407864  0.016260125            0   0.49781851     1.459172    1.9732507   -4.1511156 
 6195000   0.96157326 1.0692177e-05   0.52195352 0.0068169753            0   0.51513654    1.4351481    1.9571016    2.6961449 
 6200000    1.0178469 8.0937764e-06   0.45487635 0.0093393437            0   0.44553701    1.5191366    1.9740129    2.5334547 
 6205000   0.98512519 6.5989754e-06   0.50792584 0.0066222466            0   0.50130359    1.4702993    1.9782252    2.4343464 
 6210000   0.92328384 1.187996e-07   0.60355714  0.018907342            0    0.5846498    1.3780011    1.9815583    1.9897697 
 6215000    1.0559883 4.3788144e-05    0.4145717  0.020362423            0   0.39420928    1.5760625    1.9906342    5.0172708 
 6220000    1.0167073 1.4047868e-05   0.47991064 0.0094810322            0   0.47042961    1.5174357    1.9973464     2.968335 
 6225000    1.0102871 -2.9279303e-05   0.51179788  0.016515715            0   0.49528216    1.5078535    2.0196514 -0.0041339975 
 6230000    1.0357746 -3.6810858e-05    0.4773148  0.012663437            0   0.46465136    1.5458936    2.0232083  -0.52115814 
 6235000   0.97285298 -2.3271809e-05   0.57613243 0.0081198904            0   0.56801253    1.4519831    2.0281155   0.41956806 
 6240000    1.0357631 -8.6040851e-06    0.4733078  0.017950968            0   0.45535683    1.5458765    2.0191843    1.4244699 
 6245000   0.99229739 -4.9891302e-06   0.54813316  0.020682547            0   0.52745062    1.4810039     2.029137    1.6842883 
 6250000    1.0057186 -1.4191711e-05   0.52785231  0.016704233            0   0.51114808     1.501035    2.0288873    1.0479562 
 6255000    1.0635966 -1.6931437e-05   0.47895424   0.01150437            0   0.46744987    1.5874179    2.0663722   0.89607125 
 6260000    1.0151791 -1.5146797e-05   0.54257917  0.016173723            0   0.52640545    1.5151548    2.0577339    1.0107873 
 6265000    1.0476234 -4.4755152e-05    0.5430236  0.027731199            0    0.5152924    1.5635779    2.1066015  -0.98687458 
 6270000    1.0138865 -2.0391515e-05    0.5863385  0.024118787            0   0.56221971    1.5132255     2.099564    0.6901025 
 6275000    1.0873826 3.3045118e-05   0.45030602   0.01130799            0   0.43899803    1.6229186    2.0732246    4.3573032 
 6280000    1.0488921 1.9419048e-05   0.51527536  0.015819736            0   0.49945562    1.5654715    2.0807468    3.4229914 
 6285000     1.040631 -3.2835629e-05   0.51105207  0.021812358            0   0.48923971    1.5531418    2.0641938  -0.20540481 
 6290000   0.99787998 -8.6498259e-06   0.57601768  0.018202139            0   0.55781554    1.4893359    2.0653535    1.4674776 
 6295000    1.0415273 2.8231914e-05    0.4975131  0.016566506            0   0.48094659    1.5544795    2.0519926    4.0033825 
 6300000    1.0635771 -1.5738176e-05   0.47938094  0.016122673            0   0.46325827    1.5873888    2.0667697   0.97894701 
 6305000   0.98991599 1.019471e-05   0.58224625  0.010659388            0   0.57158686    1.4774496    2.0596959    2.7643542 
 6310000    1.0501423 4.8474786e-05   0.49436737  0.014569338            0   0.47979803    1.5673374    2.0617048    5.4122819 
 6315000    1.0583918 2.8622129e-05   0.47824211  0.016216975            0   0.46202514    1.5796497    2.0578918    4.0362534 
 6320000   0.99618186   2.7476e-05   0.55568322 0.0069474235            0   0.54873579    1.4868014    2.0424846    3.9416257 
 6325000    1.0470241 2.8987345e-05   0.48417156  0.022343087            0   0.46182848    1.5626835     2.046855    4.0504603 
 6330000    1.0510753 4.3763747e-05   0.48689448   0.02236789            0   0.46452659    1.5687299    2.0556244    5.0805746 
 6335000    1.0279299 2.4822833e-05   0.51326004  0.015938116            0   0.49732193    1.5341854    2.0474454    3.7631996 
 6340000    1.0350644 2.4141832e-05   0.50719909  0.019285871            0   0.48791322    1.5448336    2.0520327    3.7207162 
 6345000     1.008514 7.0831303e-05   0.55000626 0.0069938799            0   0.54301238    1.5052072    2.0552135    6.9510731 
 6350000    1.0213691 -4.3605425e-05   0.50993015 0.0080110335            0   0.50191912    1.5243935    2.0343236  -0.97968337 
 6355000    1.0321214 -7.0212306e-06   0.52040331  0.018588255            0   0.50181505    1.5404412    2.0608445    1.5755371 
 6360000    1.0723796 -4.7895398e-05   0.46696619 0.0086803063            0   0.45828588    1.6005266    2.0674928   -1.2430372 
 6365000    1.0462831 -4.0042875e-05   0.49347217  0.011949746            0   0.48152243    1.5615775    2.0550496   -0.7127139 
 6370000    1.0372794 4.4229289e-05   0.52125023  0.036183062            0   0.48506717    1.5481395    2.0693897    5.1265182 
 6375000    1.0266254 -3.5426445e-05   0.53335642  0.013209982            0   0.52014644    1.5322384    2.0655948  -0.38308108 
 6380000    1.0351403 -7.3932886e-05   0.51483844  0.018908886            0   0.49592955    1.5449469    2.0597853   -3.0504558 
 6385000     1.031553 -4.5122267e-05   0.52980728  0.030329307            0   0.49947797    1.5395929    2.0694002    -1.049451 
 6390000   0.99295232 1.5394614e-05   0.57683007  0.013207384            0   0.56362268    1.4819813    2.0588114    3.1228871 
 6395000    1.0505896 2.340343e-05    0.5022336  0.021276691            0   0.48095691    1.5680049    2.0702385    3.6878836 
 6400000    1.0382772 -4.3874382e-05    0.5270272  0.030568875            0   0.49645833    1.5496287    2.0766559  -0.95594134 
 6405000    1.0342378 1.5756331e-05   0.54930739  0.017753542            0   0.53155385       1.5436    2.0929074    3.1819849 
 6410000    1.0174418 7.1571381e-05   0.57543969  0.012639251            0   0.56280044    1.5185319    2.0939716    7.0409855 
 6415000    1.0467472 -3.0141061e-05   0.49868983  0.018295444            0   0.48039438    1.5622702      2.06096 -0.022390126 
 6420000     1.038573 2.2668369e-05     0.503169 0.0091941094            0   0.49397489    1.5500702    2.0532392    3.6200768 
 6425000    1.0147272 -4.0748293e-06   0.54852999   0.02084993            0   0.52768006    1.5144804    2.0630104    1.7813582 
 6430000    1.0181817 -2.5418768e-05   0.54301336   0.03550113            0   0.50751223    1.5196363    2.0626496   0.30570435 
 6435000     1.007744 -7.0683751e-06   0.54443088  0.012835062            0   0.53159582    1.5040579    2.0484887    1.5599227 
 6440000     1.055162 -8.3135413e-06   0.46679698  0.010540945            0   0.45625603    1.5748293    2.0416263    1.4669943 
 6445000   0.99140202 -1.983961e-05   0.55139616  0.031691761            0    0.5197044    1.4796675    2.0310637   0.65974982 
 6450000   0.98535062 5.3856411e-06   0.57512839  0.018883619            0   0.55624477    1.4706358    2.0457642    2.4180197 
 6455000    1.0011322 -2.3549884e-05   0.55506286  0.020291544            0   0.53477132    1.4941897    2.0492526   0.42148462 
 6460000    1.0345405 -3.4608217e-06   0.50192559 0.0088656913            0    0.4930599    1.5440518    2.0459773    1.8067654 
 6465000     1.021189 1.9741478e-05   0.53700052  0.002921205            0   0.53407932    1.5241246    2.0611252    3.4256562 
 6470000   0.97038573 -6.624019e-05   0.61255058 0.00064655188            0   0.61190403    1.4483007    2.0608513   -2.5176707 
 6475000    1.0388758 5.0719714e-05   0.50735062  0.003831996            0   0.50351862    1.5505221    2.0578727    5.5636194 
 6480000   0.99075384 1.7641947e-05   0.56253705  0.025714169            0   0.53682289    1.4787001    2.0412372    3.2606486 
 6485000    1.0098292 -3.5647621e-05   0.52079472  0.030196199            0   0.49059852      1.50717    2.0279648  -0.43599881 
 6490000    1.0125335 -6.9044501e-06   0.50332491 0.0071617931            0   0.49616312    1.5112063    2.0145312    1.5372956 
 6495000   0.97520588 -1.3395449e-05    0.5650264  0.017596397            0   0.54743001    1.4554948    2.0205212    1.0946277 
 6500000    1.0176562 1.7140923e-05   0.51731484  0.014863594            0   0.50245125    1.5188519    2.0361668    3.2209473 
 6505000    1.0191955 9.794119e-05   0.49799381  0.010286042            0   0.48770777    1.5211493    2.0191432    8.7888382 
 6510000     1.013981 -5.0498899e-06   0.50592009 0.0052711446            0   0.50064895    1.5133667    2.0192868    1.6702384 
 6515000   0.94431729 -3.887953e-05   0.59162766  0.028267278            0   0.56336038    1.4093936    2.0010212   -0.6863319 
 6520000   0.98549641 7.0708151e-05   0.54076856  0.031569204            0   0.50919935    1.4708534    2.0116219    6.8989693 
 6525000   0.97196615 5.2550686e-05   0.56465642  0.011944426            0     0.552712    1.4506595    2.0153159    5.6476193 
 6530000   0.99155022 -1.6519984e-05   0.53999871  0.023377232            0   0.51662148    1.4798887    2.0198874   0.87802615 
 6535000    1.0097522 1.9790066e-05   0.50304504  0.021890403            0   0.48115464    1.5070552    2.0101003    3.3779896 
 6540000   0.97974194 -5.1024873e-05   0.55581682  0.016710828            0   0.53910599    1.4622648    2.0180817   -1.5087576 
 6545000    1.0023575 -5.4026948e-05   0.52145149  0.016637325            0   0.50481416    1.4960185      2.01747   -1.7168727 
 6550000    1.0514717 -2.3477121e-05   0.45060609 0.0091044434            0   0.44150164    1.5693214    2.0199275   0.39718895 
 6555000   0.97297907 1.5512769e-05   0.56690993  0.019438621            0   0.54747131    1.4521713    2.0190812    3.0913238 
 6560000    0.9782096 3.0286708e-05   0.58049135  0.024028322            0   0.55646303    1.4599778    2.0404692    4.1338864 
 6565000    1.0144667 3.9623823e-05   0.51132735    0.0237394            0   0.48758795    1.5140915    2.0254189    4.7642175 
 6570000   0.97667586 5.3476492e-05   0.57695793  0.023772335            0   0.55318559    1.4576887    2.0346466    5.7309418 
 6575000    1.0610769 5.7715551e-06   0.43012796  0.021387531            0   0.40874043    1.5836573    2.0137853    2.4127152 
 6580000    1.0208571 1.5204896e-06   0.50481807  0.022915806            0   0.48190227    1.5236292    2.0284473    2.1335436 
 6585000    1.0128225 8.2953419e-05   0.52459282  0.011595247            0   0.51299758    1.5116375    2.0362304    7.7699707 
 6590000   0.99392373 3.7331577e-05   0.54475846 0.0074898698            0   0.53726859    1.4834312    2.0281896    4.6085482 
 6595000     1.018927 -6.4268736e-05   0.51828085 0.0060229752            0   0.51225788    1.5207485    2.0390293   -2.4032256 
 6600000    1.0485303 -2.6876315e-05   0.47556945 0.0093405951            0   0.46622886    1.5649314    2.0405009   0.18280998 
 6605000    0.9561046 -1.479256e-05    0.5962162  0.017830035            0   0.57838617    1.4269861    2.0232023    1.0007406 
 6610000    1.0008454 -4.752222e-05    0.5327415  0.016180163            0   0.51656134    1.4937617    2.0265032   -1.2582326 
 6615000   0.98222832 4.7549463e-05   0.55233166  0.015633661            0     0.536698    1.4659758    2.0183074    5.3049263 
 6620000    1.0046889 5.9779746e-06   0.50708154 0.0086202349            0   0.49846131    1.4994982    2.0065797    2.4197773 
 6625000   0.98679857 -2.8897881e-05   0.55087874  0.016381729            0   0.53449701    1.4727969    2.0236756  0.026254063 
 6630000   0.98516146 -2.4053078e-05   0.56047304  0.020805055            0   0.53966799    1.4703535    2.0308265    0.3682778 
 6635000    1.0349295 -3.7548761e-05   0.48893129  0.013630961            0   0.47530032    1.5446323    2.0335635  -0.56180682 
 6640000   0.99491632 -2.7820411e-05    0.5674641  0.023545757            0   0.54391834    1.4849126    2.0523767    0.1294299 
 6645000    1.0011949 -3.7749698e-05   0.57504919   0.01227261            0   0.56277658    1.4942834    2.0693325   -0.5399266 
 6650000    1.0310564 4.7139402e-06   0.52686415 0.0021183222            0   0.52474583    1.5388516    2.0657158    2.3915433 
 6655000   0.99884923 -3.5733353e-05   0.56417075 0.00045973378            0   0.56371102    1.4907825    2.0549532  -0.41493615 
 6660000    1.0228713 -1.800519e-05   0.52688381 0.0042219893            0   0.52266182    1.5266355    2.0535193   0.80900056 
 6665000    1.0361737 -3.5187798e-05    0.5059796  0.024274368            0   0.48170523    1.5464893    2.0524689  -0.37971169 
 6670000    1.0549864 -3.4027543e-05   0.47595605  0.022929266            0   0.45302679    1.5745672    2.0505232  -0.30146058 
 6675000    1.0117233 -4.5340873e-06   0.55488669  0.007303761            0   0.54758293     1.509997    2.0648837    1.7514876 
 6680000   0.94371447 -7.585595e-06   0.65072796  0.016650878            0   0.63407708    1.4084938    2.0592218    1.5349055 
 6685000    1.0414065 5.7056394e-05   0.50990592  0.011839262            0   0.49806666    1.5542992    2.0642051    6.0079431 
 6690000    1.0178056 -2.0720265e-05   0.55644408  0.010749297            0   0.54569478    1.5190749     2.075519   0.64333424 
 6695000    1.0158085 -2.5497734e-05   0.54195596  0.015859777            0   0.52609618    1.5160942    2.0580501   0.29564679 
 6700000   0.99533843 -5.178556e-05   0.56532268  0.027806472            0   0.53751621    1.4855426    2.0508653   -1.5285526 
 6705000    1.0662577 4.5580948e-05   0.45517874  0.022709143            0   0.43246959    1.5913896    2.0465683    5.1971234 
 6710000   0.97767856 3.3590754e-05   0.58711605  0.012781843            0   0.57433421    1.4591853    2.0463013    4.3680943 
 6715000    1.0150797 -3.650774e-06   0.53541401  0.014793961            0   0.52062005    1.5150065    2.0504205     1.798079 
 6720000   0.97919412 -1.606465e-05   0.56859589  0.022834314            0   0.54576157    1.4614472    2.0300431   0.91965448 
 6725000    1.0315098 -1.7037729e-05   0.50414387 0.0094255853            0   0.49471828    1.5395284    2.0436723   0.86602446 
 6730000    1.0505484 5.0785188e-06   0.48114972 0.0061889249            0   0.47496079    1.5679435    2.0490932    2.4001204 
 6735000   0.96965363 -2.3017352e-05   0.60088279  0.013235797            0   0.58764699     1.447208    2.0480908   0.45713144 
 6740000    1.0130886 -3.3812928e-05   0.52776359 0.0090187791            0   0.51874481    1.5120348    2.0397984  -0.29735121 
 6745000   0.98944018 2.0619843e-06   0.56319972  0.023477685            0   0.53972204    1.4767395    2.0399392    2.1824635 
 6750000   0.94567509 2.5241674e-05    0.6224298   0.01128116            0   0.61114864    1.4114201    2.0338499    3.7785544 
 6755000    1.0154439 2.7627911e-05   0.52972741 0.0023269861            0   0.52740043      1.51555    2.0452775    3.9549186 
 6760000    1.0497645 4.4413371e-05   0.47525123 0.0039892524            0   0.47126198    1.5667735    2.0420247     5.111877 
 6765000    1.0023635 2.1279553e-05   0.55351922 0.0071978295            0   0.54632139    1.4960275    2.0495467    3.5203894 
 6770000   0.98129182 -1.3938515e-05    0.5859738  0.011642743            0   0.57433106     1.464578    2.0505518    1.0871217 
 6775000    1.0084521 -2.1169728e-05   0.53743035  0.011186017            0   0.52624433    1.5051147    2.0425451   0.57929345 
 6780000   0.98735908 1.8732435e-06   0.56268665  0.012220771            0   0.55046587    1.4736334    2.0363201    2.1657987 
 6785000    1.0187688 2.2076263e-05   0.53038481 0.0043569142            0    0.5260279    1.5205125    2.0508973    3.5768086 
 6790000    1.0120901 3.8461615e-05   0.52999543  0.012016653            0   0.51797877    1.5105445      2.04054    4.6990068 
 6795000   0.96940334 5.8387089e-06   0.59670631  0.022062527            0   0.57464379    1.4468345    2.0435408    2.4471124 
 6800000    1.0293079 1.6384995e-06   0.51441685 0.0082779089            0   0.50613894     1.536242    2.0506589     2.163912 
 6805000    1.0150093 3.0465001e-05    0.5610923 0.0079162005            0    0.5531761    1.5149013    2.0759936    4.1817345 
 6810000   0.99866072 -2.9787253e-05   0.57787182  0.010656213            0   0.56721561    1.4905011    2.0683729 0.0094780156 
 6815000    1.0053151 -1.2034542e-05   0.58240427 0.0067503392            0   0.57565394    1.5004328     2.082837    1.2510095 
 6820000    1.0365326 9.4347071e-05   0.53643734  0.007427778            0   0.52900956    1.5470249    2.0834622    8.6047318 
 6825000    1.0326535 1.2592012e-05   0.53151083 0.0076433577            0   0.52386747    1.5412353    2.0727461     2.943106 
 6830000     1.015436 -3.5156272e-06   0.54591836  0.011990149            0   0.53392821    1.5155382    2.0614565    1.8184564 
 6835000    1.0725378 -1.4442771e-06   0.47326058  0.017507103            0   0.45575348    1.6007627    2.0740232    1.9741948 
 6840000     1.068849 -5.8835308e-05   0.48215537  0.023251798            0   0.45890357    1.5952571    2.0774125    -1.989284 
 6845000     1.047931 -2.5202719e-05   0.49201847  0.018225755            0   0.47379272     1.564037    2.0560555   0.31404353 
 6850000    1.0002326 2.2300054e-05    0.5578501  0.016165412            0   0.54168469    1.4928472    2.0506973     3.592077 
 6855000    1.0199707 5.2659596e-05    0.5249752 0.0028673939            0    0.5221078    1.5223063    2.0472814    5.6871127 
 6860000   0.99232672 3.2930388e-05   0.57235443 0.0066257363            0    0.5657287    1.4810476    2.0534021    4.3295504 
 6865000    1.0095067 -4.3118016e-05   0.53646007  0.023311467            0   0.51314861    1.5066887    2.0431488  -0.93716842 
 6870000   0.99316181 -3.7624559e-05   0.55571862  0.025134541            0   0.53058408     1.482294    2.0380126  -0.56259692 
 6875000    1.0166529 1.3132112e-05   0.51060926  0.016169127            0   0.49444014    1.5173545    2.0279637    2.9356553 
 6880000    1.0223572 -5.0409332e-05   0.51177224 0.0089551614            0   0.50281708    1.5258681    2.0376404   -1.4466526 
 6885000    1.0520874 -2.6547093e-06   0.47171719 0.0076546388            0   0.46406255    1.5702404    2.0419576    1.8584641 
 6890000    1.0170563 1.5395057e-05   0.53289054  0.008362955            0   0.52452759    1.5179565     2.050847    3.1149534 
 6895000    1.0706971 -2.5072422e-05   0.45530378   0.01178862            0   0.44351516    1.5980155    2.0533192   0.32031341 
 6900000    1.0250638 -3.1725364e-05   0.52757547  0.015836371            0    0.5117391    1.5299078    2.0574832  -0.13537394 
 6905000   0.97618983 -7.1766305e-05   0.60936301  0.033813524            0   0.57554949    1.4569633    2.0663263   -2.8941607 
 6910000    1.0575257 -3.420819e-05   0.48610499  0.010560329            0   0.47554466    1.5783571    2.0644621  -0.30000797 
 6915000    1.0264409 1.7487223e-05   0.53425095  0.012815068            0   0.52143588     1.531963     2.066214    3.2749308 
 6920000    1.0623966 1.9764352e-06   0.47974462 0.0058487708            0   0.47389585     1.585627    2.0653716    2.2019828 
 6925000    1.0299333 -3.3052123e-05    0.5279113  0.023998102            0   0.50391319    1.5371755    2.0650868  -0.21947591 
 6930000    1.0234933 4.6432381e-05    0.5621768  0.018620855            0   0.54355595    1.5275638    2.0897406    5.2991467 
 6935000    1.0487717 3.6330756e-05   0.50364492  0.012066807            0   0.49157811    1.5652917    2.0689366    4.5801185 
 6940000    1.0222181 1.1071973e-05   0.54901561  0.010780861            0   0.53823475    1.5256605    2.0746761    2.8399709 
 6945000    1.0342751 1.3382107e-05   0.53311789  0.023288887            0   0.50982901    1.5436556    2.0767735    3.0017448 
 6950000    1.0029229 -1.5467417e-06   0.58157399  0.029045764            0   0.55252822    1.4968624    2.0784364    1.9715256 
 6955000    1.0019574 8.6146527e-05   0.59557231  0.023817109            0   0.57175521    1.4954214    2.0909937    8.0454416 
 6960000    1.0473291 1.952264e-05    0.5134214  0.024532848            0   0.48888856    1.5631387    2.0765601     3.425965 
 6965000     1.094315  2.37666e-05    0.4420798  0.015892882            0   0.42618692    1.6332652     2.075345    3.7180924 
 6970000    1.0126743 6.1580146e-05   0.57122254  0.023409449            0   0.54781309    1.5114163    2.0826389    6.3390586 
 6975000    1.0491289 1.8949252e-05    0.5328529  0.022756553            0   0.51009634    1.5658249    2.0986778    3.4084502 
 6980000    1.0298877 4.9281783e-05   0.53276347  0.016240236            0   0.51652323    1.5371073    2.0698708    5.4762276 
 6985000    1.0465238 6.2562749e-05   0.50195763  0.021090046            0   0.48086758    1.5619368    2.0638944    6.3882316 
 6990000    1.0451252 1.9176364e-05   0.51137471  0.028067776            0   0.48330694    1.5598493     2.071224    3.3966943 
 6995000    1.0592145 -4.6668822e-05   0.50002609  0.012017504            0   0.48800859    1.5808776    2.0809037   -1.1448452 
 7000000    1.0063874 2.3896488e-06    0.5826521  0.010699991            0   0.57195211    1.5020332    2.0846853    2.2498579 
 7005000    1.0105962 5.672958e-05   0.57186024  0.029025724            0   0.54283452    1.5083148     2.080175    6.0013236 
 7010000    1.0511308  2.85444e-05   0.50790484  0.022071868            0   0.48583297    1.5688127    2.0767175    4.0497064 
 7015000     1.092985 -4.7127288e-05   0.43352228 0.0093796937            0   0.42414259    1.6312801    2.0648024   -1.1926357 
 7020000    1.0007397 -7.5420345e-05   0.56308666  0.017638344            0   0.54544832     1.493604    2.0566907   -3.1563635 
 7025000    1.0452196 4.3427211e-05   0.50655258 0.0065754218            0   0.49997716    1.5599902    2.0665428    5.0682316 
 7030000    1.0847447 1.9221859e-05   0.48183649 0.0034480734            0   0.47838842    1.6189815     2.100818    3.4294328 
 7035000    1.0460724 -5.2891888e-05   0.55688558 0.0044893145            0   0.55239627    1.5612631    2.1181487   -1.5377386 
 7040000    1.0133509 -2.4072665e-05   0.60078482 0.0065509792            0   0.59423384    1.5124261     2.113211   0.44930837 
 7045000     1.117991 2.1913282e-05   0.45453706 0.0098802047            0   0.44465685    1.6686016    2.1231386    3.6377847 
 7050000    1.0596297 2.9581467e-05   0.54096572  0.014888709            0   0.52607701    1.5814974    2.1224631    4.1671341 
 7055000    1.0282386 1.561264e-05   0.56829065  0.028378513            0   0.53991214    1.5346461    2.1029367    3.1820824 
 7060000   0.99646524 -1.9820317e-05   0.61653082  0.037343673            0   0.57918714    1.4872244    2.1037552   0.73377489 
 7065000     1.065754 -9.4228597e-06   0.48972127  0.017102747            0   0.47261852    1.5906378    2.0803591     1.429051 
 7070000    1.0125989 -2.0489477e-05   0.56287829  0.016255803            0   0.54662249    1.5113039    2.0741822   0.65794953 
 7075000      1.02388 3.9666581e-05   0.54383069  0.025507161            0   0.51832353    1.5281409    2.0719716    4.8137257 
 7080000    1.0360417 1.7547793e-05   0.53061544  0.034689242            0    0.4959262    1.5462922    2.0769076    3.2898111 
 7085000    0.9950392 -1.0132616e-05    0.5866369  0.029548537            0   0.55708836     1.485096    2.0717329    1.3713665 
 7090000    1.0458756 8.4737801e-06   0.51480032  0.024746387            0   0.49005393    1.5609693    2.0757696    2.6614773 
 7095000    1.0273464 -7.3488801e-06   0.52926622  0.029140117            0    0.5001261    1.5333145    2.0625808    1.5546262 
 7100000    1.0380851 4.0443033e-05   0.50746153  0.040335467            0   0.46712606     1.549342    2.0568035     4.852226 
 7105000   0.97387782 -4.1985105e-05   0.59291523  0.020548577            0   0.57236666    1.4535126    2.0464279   -0.8555826 
 7110000    1.0199077 9.8365773e-06   0.53657862  0.025604991            0   0.51097363    1.5222122    2.0587908     2.738695 
 7115000     1.013431 3.1941079e-05   0.54496271  0.024506784            0   0.52045593    1.5125457    2.0575084    4.2652758 
 7120000   0.99798425 5.9456474e-05   0.55982377   0.01611317            0    0.5437106    1.4894915    2.0493153    6.1589467 
 7125000   0.99406288 6.3938852e-05   0.55305003  0.013539761            0   0.53951027    1.4836389    2.0366889    6.4561423 
 7130000    1.0329773 -3.0396801e-05   0.50836346  0.012819344            0   0.49554412    1.5417186     2.050082  -0.05094482 
 7135000    1.0236434 -3.172008e-05   0.51454242   0.01708618            0   0.49745624    1.5277877    2.0423301  -0.15016181 
 7140000   0.98708295 -2.9626531e-05   0.56255886  0.020682264            0   0.54187659    1.4732213    2.0357802 -0.012005687 
 7145000   0.96284864 -3.9220785e-05   0.59742332   0.01283989            0   0.58458343    1.4370516    2.0344749  -0.67646575 
 7150000   0.99474997 2.3813965e-05   0.53035747  0.031759793            0   0.49859768    1.4846643    2.0150218    3.6610431 
 7155000    0.9950545 1.050834e-05   0.52676767  0.024236312            0   0.50253136    1.4851188    2.0118865     2.738223 
 7160000    1.0288045 -4.7288555e-05   0.49845995  0.012116836            0   0.48634312    1.5354907    2.0339507   -1.2346342 
 7165000    1.0198483 -1.1318295e-05   0.50090966 0.0083146735            0   0.49259499    1.5221236    2.0230332    1.2407127 
 7170000   0.94443943 6.9103616e-06   0.61922542  0.013196592            0   0.60602883    1.4095759    2.0288013    2.5064455 
 7175000    1.0758517 -1.3521226e-05   0.44052367 0.0027350032            0   0.43778866    1.6057087    2.0462323    1.1116452 
 7180000   0.99700605 -2.0792961e-05   0.56013665 0.0048788695            0   0.55525778    1.4880315    2.0481682   0.61095872 
 7185000    1.0208488 -1.0056583e-06   0.49679377  0.016511223            0   0.48028255    1.5236168    2.0204106    1.9508995 
 7190000    1.0023264 -1.9991377e-05   0.51034287  0.018861081            0   0.49148179    1.4959721     2.006315   0.62451102 
 7195000    0.9106655 -7.101932e-05   0.65143296  0.013229324            0   0.63820364    1.3591683    2.0106012   -2.8982542 
 7200000   0.98229628 -5.4744466e-05   0.54181941  0.014612334            0   0.52720708    1.4660772    2.0078966   -1.7760409 
 7205000    0.9689173 -4.5139889e-05   0.55804184  0.012984853            0   0.54505698    1.4461091    2.0041509   -1.1159182 
 7210000   0.99330613 -2.9028109e-06   0.52213149  0.016427087            0   0.50570441    1.4825094    2.0046409    1.8039986 
 7215000   0.97288689 2.5281423e-05   0.56225401 0.0090115087            0   0.55324251    1.4520337    2.0142877    3.7617396 
 7220000   0.93100581 6.9602344e-06   0.61604282  0.013638367            0   0.60240445    1.3895262     2.005569    2.4866604 
 7225000    0.9370351 5.9874523e-06   0.61114381  0.019568825            0   0.59157498    1.3985249    2.0096687    2.4235214 
 7230000   0.97585948 1.2652713e-05   0.52944348  0.015222476            0     0.514221    1.4564703    1.9859137    2.8604693 
 7235000   0.99885913 2.1187926e-05   0.48919233  0.010103986            0   0.47908835    1.4907972    1.9799896     3.444499 
 7240000   0.99359327 3.7787607e-06   0.49451554  0.014652882            0   0.47986266    1.4829379    1.9774535    2.2386414 
 7245000    0.9327012 -5.1916954e-05   0.59015647  0.018105541            0   0.57205093    1.3920565     1.982213   -1.6062869 
 7250000   0.95262124 3.0458746e-06   0.57742532  0.012938617            0    0.5644867    1.4217872    1.9992125    2.2097434 
 7255000   0.95639758 -6.9750116e-05   0.57516179 0.0057997971            0   0.56936199    1.4274234    2.0025852   -2.8185428 
 7260000   0.98483694 -4.5797833e-05   0.50746985 0.0028292239            0   0.50464063    1.4698691     1.977339   -1.1882072 
 7265000   0.95770865 3.9142466e-05   0.55237165  0.012518341            0   0.53985331    1.4293802    1.9817518    4.6872791 
 7270000   0.97351462 -4.2729097e-05   0.52891317  0.018074089            0   0.51083908    1.4529706    1.9818837  -0.97155143 
 7275000   0.90690864 -5.1968729e-05   0.65150733  0.014962938            0   0.63654439    1.3535611    2.0050685   -1.5870101 
 7280000   0.98320823 5.890783e-06   0.51907506  0.011364515            0   0.50771055    1.4674383    1.9865133    2.3936843 
 7285000    1.0076651 -2.7808806e-05   0.47536142  0.010914466            0   0.46444695    1.5039401    1.9793016  0.057156872 
 7290000   0.97454335 -2.341427e-05   0.50553668  0.012597006            0   0.49293968     1.454506    1.9600426    0.3416483 
 7295000   0.93326637 -1.3568777e-05   0.56011574  0.012732483            0   0.54738326    1.3929001    1.9530158    1.0151419 
 7300000   0.99293863 -1.4559444e-05   0.48597904  0.011887252            0   0.47409178    1.4819609    1.9679399   0.96159118 
 7305000   0.92401756 2.2235224e-06   0.59970126  0.033235957            0   0.56646531    1.3790962    1.9787975    2.1324873 
 7310000   0.99234052 1.5043169e-05   0.51513976  0.013743381            0   0.50139637    1.4810682     1.996208    3.0359918 
 7315000   0.95026677 -5.1822289e-07   0.59092839 0.0092670127            0   0.58166137    1.4182731    2.0092015     1.973382 
 7320000   0.95291045 1.8378075e-06   0.58978252  0.019640213            0   0.57014231    1.4222188    2.0120014    2.1390306 
 7325000   0.94195045 -2.6402403e-05   0.59983731    0.0197061            0   0.58013121     1.405861    2.0056984   0.18076425 
 7330000    0.9778935  4.30366e-05   0.53570925  0.018834922            0   0.51687433     1.459506    1.9952153    4.9699051 
 7335000   0.92947042 1.3057472e-05   0.59137712  0.021717659            0   0.56965946    1.3872346    1.9786117    2.8811442 
 7340000   0.94701074 3.2519808e-05   0.56221664  0.020332189            0   0.54188445    1.4134135    1.9756302    4.2233993 
 7345000    1.0221659 6.6046506e-05   0.44979544   0.01421435            0   0.43558109    1.5255826    1.9753781    6.5405125 
 7350000   0.94807067 4.0322307e-05   0.55215891 0.0050800732            0   0.54707884    1.4149955    1.9671544    4.7542323 
 7355000   0.98449954 -5.7956399e-06   0.51684699  0.002100264            0   0.51474673    1.4693656    1.9862126    1.5856179 
 7360000   0.97769713 -3.3409305e-05   0.54594362 0.0059132249            0   0.54003039     1.459213    2.0051566  -0.30409454 
 7365000    1.0088335 -1.0786802e-06   0.51891086  0.028013372            0   0.49089749    1.5056841    2.0245949    1.9500366 
 7370000    1.0134305 -2.288823e-05   0.50392536  0.013678689            0   0.49024667    1.5125451    2.0164704   0.43443596 
 7375000    0.9693741 -6.7172661e-05   0.55815985  0.023513132            0   0.53464672    1.4467908    2.0049507   -2.6380236 
 7380000   0.99255293 4.3115184e-07   0.50417658   0.01766573            0   0.48651085    1.4813853    1.9855618     2.015363 
 7385000   0.96742557 1.1436815e-05   0.53009495 0.0057013646            0   0.52439358    1.4438827    1.9739776    2.7644902 
 7390000   0.97362099 -1.3002086e-06   0.52285982 0.00070147523            0   0.52215834    1.4531293    1.9759892    1.8861187 
 7395000   0.95621514 -1.5523371e-05   0.55285103 0.0033264896            0   0.54952454    1.4271511    1.9800021    0.9070267 
 7400000   0.97134315 -6.0916186e-05   0.52734684 0.0088078592            0   0.51853898    1.4497296    1.9770765   -2.2334503 
 7405000   0.94535032 -4.4425824e-05   0.54733479 0.0080273611            0   0.53930743    1.4109354    1.9582701   -1.1124428 
 7410000   0.96189228 -3.3750844e-05   0.53110741  0.010184373            0   0.52092304    1.4356242    1.9667316  -0.36612672 
 7415000   0.95647996 1.8604731e-05    0.5452362  0.016848674            0   0.52838753    1.4275463    1.9727825    3.2587416 
 7420000   0.95419264 1.5108769e-05   0.55923765  0.018681523            0   0.54055613    1.4241325    1.9833702    3.0276883 
 7425000   0.95053665 -5.2703318e-05   0.57587499  0.026450532            0   0.54942445     1.418676    1.9945509   -1.6483024 
 7430000   0.93990441 -5.4015455e-05   0.58419083  0.031587748            0   0.55260308    1.4028073    1.9869982   -1.7465501 
 7435000     0.992834 -4.3845703e-05   0.50972843  0.030679991            0   0.47904844    1.4818047    1.9915332   -1.0390818 
 7440000   0.99091715 -1.7557496e-05   0.52434068  0.015742344            0   0.50859833    1.4789438    2.0032845   0.78971042 
 7445000    1.0068646 -7.0144233e-05    0.5060038  0.011051184            0   0.49495262    1.5027454    2.0087492   -2.8396201 
 7450000   0.99217848 -9.0531688e-05   0.52249776  0.017467314            0   0.50503045    1.4808264    2.0033241   -4.2542261 
 7455000   0.99851559 -1.1236956e-05   0.52429849  0.026168226            0   0.49813027    1.4902845     2.014583    1.2378846 
 7460000    1.0523821 -2.0809182e-05   0.45811423  0.018586557            0   0.43952767    1.5706803    2.0287945   0.59046383 
 7465000    1.0649172 -2.5801375e-05   0.47254587 0.0089917615            0   0.46355411    1.5893889    2.0619348   0.27854372 
 7470000    1.0318699 -7.6041177e-05   0.54195411 0.0079961737            0   0.53395794    1.5400658    2.0820199   -3.1739463 
 7475000    1.0254863 3.3487427e-05   0.54489522  0.018303365            0   0.52659186    1.5305383    2.0754335    4.3900844 
 7480000   0.97933709 0.00010288414   0.58651608  0.024303083            0   0.56221299    1.4616606    2.0481767    9.1595281 
 7485000      1.01699 -3.4300607e-05   0.52250457  0.017645543            0   0.50485903    1.5178575    2.0403621  -0.33049588 
 7490000    1.0118131 1.5454944e-05   0.51357241  0.020991449            0   0.49258096     1.510131    2.0237034    3.0919492 
 7495000    1.0197928 6.9378339e-06   0.52278902  0.024499334            0   0.49828969    1.5220407    2.0448297    2.5243728 
 7500000    1.0112724 -1.3995614e-05   0.54142308  0.022324773            0   0.51909831     1.509324    2.0507471    1.0833703 
 7505000    1.0063276 -6.8113166e-06   0.55400548  0.038367135            0   0.51563835     1.501944    2.0559494    1.5851512 
 7510000    1.0143385 -1.3099479e-05   0.54263179  0.025530164            0   0.51710163    1.5139002    2.0565319     1.151096 
 7515000    1.0339575 6.2189669e-05   0.53726974  0.028494339            0    0.5087754    1.5431815    2.0804513    6.3790012 
 7520000   0.97800949 -1.409889e-06   0.62602717  0.027757003            0   0.59827016    1.4596792    2.0857063    1.9882548 
 7525000    1.0126438 -3.6154405e-05   0.56830624  0.011731258            0   0.55657498    1.5113709    2.0796772  -0.41931529 
 7530000    1.0424021 -1.9524043e-05   0.51584685  0.033636554            0    0.4822103    1.5557852     2.071632   0.72213017 
 7535000    1.0195546 3.8591885e-05   0.52028333  0.019723225            0   0.50056011    1.5216853    2.0419686    4.7094397 
 7540000    1.0272183 7.4948033e-05   0.51408272    0.0411516            0   0.47293112    1.5331232     2.047206     7.227614 
 7545000    1.0149804 -2.4521554e-05   0.51537077  0.015758513            0   0.49961226    1.5148583    2.0302291    0.3352993 
 7550000    1.0321361 -5.6281715e-05   0.49849135 0.0058467046            0   0.49264465    1.5404632    2.0389545   -1.8512376 
 7555000    1.0307251 8.9393411e-06   0.51670936 0.0072889605            0    0.5094204    1.5383571    2.0550665    2.6729538 
 7560000   0.98286416 3.7493885e-05   0.56984722  0.010168482            0   0.55967874    1.4669248     2.036772    4.6283493 
 7565000   0.96194841 -1.6424748e-05   0.60115704  0.023481659            0   0.57767538     1.435708     2.036865   0.90158646 
 7570000   0.96654511 -3.1633433e-05   0.59324539  0.012566414            0   0.58067898    1.4425686     2.035814  -0.15068893 
 7575000    1.0318844 -2.4556566e-05   0.50853971 0.0097566447            0   0.49878306    1.5400875    2.0486272   0.35127734 
 7580000    1.0022783 6.6870041e-06   0.55845333  0.025467888            0   0.53298544    1.4959004    2.0543538    2.5165595 
 7585000    1.0110058 1.3556858e-05   0.55474156  0.018679744            0   0.53606181    1.5089261    2.0636676    3.0007177 
 7590000   0.97378525 -6.2361692e-05   0.61361838  0.022940478            0    0.5906779    1.4533745    2.0669929   -2.2434473 
 7595000    1.0497443 -3.4918897e-05    0.5043475  0.013288738            0   0.49105876    1.5667433    2.0710908   -0.3425033 
 7600000    1.0214634 -2.2178664e-05   0.53324886  0.021542199            0   0.51170666    1.5245342     2.057783   0.52479381 
 7605000    1.0103089 2.9120735e-06   0.55779119 0.0092827601            0   0.54850843    1.5078861    2.0656773    2.2669598 
 7610000    1.0504805 4.6996329e-05   0.48122249 0.0042901889            0    0.4769323    1.5678421    2.0490646    5.2974509 
 7615000    1.0185674 3.4235259e-05    0.5242335  0.018801529            0   0.50543198    1.5202119    2.0444454    4.4107865 
 7620000    1.0105892 -2.9086501e-05   0.54279587  0.021300875            0     0.521495    1.5083044    2.0511003  0.040641309 
 7625000    1.0152911 -5.5630334e-05   0.52680426  0.016472434            0   0.51033182     1.515322    2.0421263   -1.8030424 
 7630000    1.0339586 -6.64239e-05   0.50991829  0.021423514            0   0.48849478    1.5431832    2.0531015   -2.5381185 
 7635000    1.0027226 -2.0032818e-05   0.54067837  0.018536258            0   0.52214212    1.4965635    2.0372418   0.65257347 
 7640000    1.0136027 1.5742671e-05   0.51979423  0.018002578            0   0.50179165    1.5128021    2.0325963    3.1207297 
 7645000    1.0269491 1.1133141e-05   0.50069651  0.033261974            0   0.46743453    1.5327215     2.033418    2.8029407 
 7650000    1.0112059 -8.7667625e-06   0.54279271  0.015159866            0   0.52763285    1.5092248    2.0520175    1.4460589 
 7655000    1.0199215 6.1173557e-06   0.50995267 0.0057315865            0   0.50422109    1.5222329    2.0321856    2.4550172 
 7660000    1.0358093 2.0663913e-06   0.50249478  0.010495842            0   0.49199894    1.5459453    2.0484401    2.1912691 
 7665000    1.0042975 1.6709783e-05    0.5297275 0.0056385419            0   0.52408895     1.498914    2.0286415    3.1836217 
 7670000    1.0076628 4.7212226e-05    0.5291774 0.0018941734            0   0.52728323    1.5039367    2.0331141    5.2964231 
 7675000   0.99926495 2.1709676e-06   0.53994956 0.0067804123            0   0.53316915    1.4914029    2.0313525    2.1814098 
 7680000    1.0057237 -3.3464368e-05   0.54390928  0.014718989            0   0.52919029    1.5010426    2.0449518  -0.26810525 
 7685000      1.04718 -6.3360467e-05   0.48223714  0.006277352            0   0.47595979    1.5629162    2.0451533   -2.3343222 
 7690000    1.0557556 9.1520289e-06   0.49267342  0.011294408            0   0.48137901    1.5757152    2.0683886    2.7009768 
 7695000    1.0448626 -2.4228091e-05   0.50536252  0.014169572            0   0.49119295    1.5594574    2.0648199   0.39017424 
 7700000    1.0046843 -2.381986e-05   0.54666218 0.0093913639            0   0.53727082    1.4994914    2.0461536   0.39972485 
 7705000    1.0539674 2.2908684e-05   0.48080691 0.0079864154            0   0.47282049    1.5730463    2.0538532    3.6373014 
 7710000     1.028972 -1.2538541e-05   0.52400439   0.01954706            0   0.50445733    1.5357408    2.0597451    1.1930812 
 7715000    1.0276547 6.2369075e-06   0.52550974  0.027411396            0   0.49809835    1.5337746    2.0592843    2.4903794 
 7720000    1.0400234 8.8414736e-06   0.48517224  0.021909645            0    0.4632626     1.552235    2.0374072    2.6485299 
 7725000    1.0110874 -4.3355412e-05   0.51665507  0.021462429            0   0.49519264    1.5090479     2.025703  -0.97102309 
 7730000    1.0537527 -1.1599746e-05   0.44625132   0.01550097            0   0.43075035    1.5727259    2.0189772    1.2172028 
 7735000    1.0023418 2.7313848e-06   0.52711844  0.028693447            0   0.49842499    1.4959951    2.0231135    2.2119069 
 7740000    1.0286337 -2.5681484e-05   0.47670298  0.013906327            0   0.46279665    1.5352358    2.0119387   0.23683454 
 7745000   0.99562984 -2.6055522e-05   0.51390367  0.019180172            0    0.4947235    1.4859775    1.9998812   0.19892353 
 7750000   0.99157445 9.9820874e-06   0.52028337  0.015927052            0   0.50435631    1.4799249    2.0002082    2.6901701 
 7755000   0.96717201 4.2278888e-05   0.55411384 0.0094077213            0   0.54470612    1.4435042    1.9976181    4.9199348 
 7760000    1.0297864 -5.9049613e-07   0.46081753  0.021187186            0   0.43963035    1.5369562    1.9977737    1.9569586 
 7765000   0.97623253 1.1040679e-05   0.53302062  0.064182959            0   0.46883766     1.457027    1.9900477    2.7531794 
 7770000   0.93839157 -1.3690337e-05   0.57477007  0.032018697            0   0.54275137    1.4005494    1.9753195    1.0290434 
 7775000   0.94427568 -4.8363573e-05   0.56174302 0.0087838211            0    0.5529592    1.4093315    1.9710745   -1.3718157 
 7780000    1.0316974 1.5292307e-06    0.4317122 0.0066874868            0   0.42502471    1.5398084    1.9715206     2.077221 
 7785000   0.96810869 -2.1276939e-05   0.53877138 0.0078433752            0   0.53092801    1.4449022    1.9836736    0.5130116 
 7790000   0.97435518 -6.6110613e-06   0.53983974  0.031892083            0   0.50794766    1.4542251    1.9940648    1.5371083 
 7795000   0.98812473 2.6568683e-05   0.51552865  0.007928698            0   0.50759996    1.4747762    1.9903048    3.8267322 
 7800000   0.96433474 -6.6622295e-05   0.53455235 0.0041829778            0   0.53036937    1.4392696    1.9738219   -2.6311111 
 7805000   0.99061573 -1.7597547e-05   0.50686664  0.019759697            0   0.48710695     1.478494    1.9853606   0.76901819 
 7810000   0.96569952 3.357274e-05   0.54861218  0.032916012            0   0.51569617    1.4413065    1.9899187    4.3104665 
 7815000   0.98809197 5.8237438e-05   0.51516562 0.0076801401            0   0.50748548    1.4747273    1.9898929    6.0152646 
 7820000    0.9336172 4.8085731e-05   0.59341812  0.010021813            0   0.58339631    1.3934237    1.9868418    5.3105275 
 7825000   0.98490132 3.8667918e-05   0.51392321  0.029827922            0   0.48409529    1.4699652    1.9838884    4.6566149 
 7830000    1.0083852 -1.4917801e-05   0.49492824  0.011889561            0   0.48303868    1.5050149    1.9999431   0.96882476 
 7835000   0.94572521 -8.4905014e-05   0.55247945 0.0089212123            0   0.54355824    1.4114949    1.9639743   -3.9046602 
 7840000   0.97106944 -9.1369496e-05   0.52805179 0.0093771679            0   0.51867462    1.4493211    1.9773729   -4.3380866 
 7845000    0.9481196 -9.2584131e-05   0.55100971 0.0099931339            0   0.54101658    1.4150685    1.9660782   -4.4333369 
 7850000    0.9982249 -1.1818193e-05   0.49357692   0.01174369            0   0.48183323    1.4898507    1.9834276    1.1665541 
 7855000   0.94267227 5.9566599e-05   0.57001747  0.019089116            0   0.55092835    1.4069384    1.9769558    6.0941991 
 7860000    0.9672932 1.3445809e-05    0.5265976  0.026435979            0   0.50016162    1.4436851    1.9702827     2.899657 
 7865000   0.93884288 -1.0049449e-06   0.56898076  0.021682844            0   0.54729791     1.401223    1.9702038     1.900742 
 7870000   0.95475458 5.8451787e-05   0.54474548  0.017593483            0   0.52715199    1.4249712    1.9697167    6.0099042 
 7875000   0.99680872 3.4543855e-05   0.47454353  0.020311541            0   0.45423198     1.487737    1.9622805    4.3499518 
 7880000   0.96738135 -3.9184471e-05    0.5147781  0.015634858            0   0.49914324    1.4438167    1.9585948  -0.74983584 
 7885000    1.0124497 -2.1362199e-05   0.44829923  0.013194332            0    0.4351049    1.5110812    1.9593804   0.48282525 
 7890000   0.95485033 2.0963534e-05   0.54113935 0.0093985553            0    0.5317408    1.4251141    1.9662535    3.4152529 
 7895000    1.0468245 -1.3248206e-05   0.42567786 0.0057664981            0   0.41991137    1.5623855    1.9880634    1.0723474 
 7900000   0.98878324 -2.0080208e-05   0.51794012  0.012561772            0   0.50537835     1.475759    1.9936991   0.60575511 
 7905000    0.9873476 -2.2034454e-05   0.52696935  0.019202928            0   0.50776642    1.4736163    2.0005856   0.47756419 
 7910000   0.97290611 4.0840759e-05   0.54339664  0.026376752            0   0.51701989    1.4520624     1.995459    4.8183722 
 7915000     1.044455 1.1834359e-05   0.44116733  0.010562476            0   0.43060485    1.5588492    2.0000165    2.8180074 
 7920000   0.94479473 -6.8583638e-05   0.59693369 0.0026365007            0   0.59429719    1.4101061    2.0070398   -2.7334613 
 7925000   0.97365253 -2.7697173e-06   0.52926921 0.0067699466            0   0.52249926    1.4531764    1.9824456    1.7910028 
 7930000   0.97687448 3.8094247e-05    0.5284359  0.020565395            0    0.5078705    1.4579852    1.9864211    4.6194954 
 7935000   0.93952621 3.0129239e-05     0.598034  0.040436056            0   0.55759794    1.4022429    2.0002769    4.0828098 
 7940000   0.98000173 -2.3943948e-08   0.54126863  0.030230527            0    0.5110381    1.4626526    2.0039212    2.0022662 
 7945000   0.96801009 1.9018899e-05   0.55744278  0.013989505            0   0.54345327    1.4447551    2.0021978    3.3167842 
 7950000    1.0088916 -5.073661e-06   0.49676993  0.020499443            0   0.47627048    1.5057706    2.0025406    1.6518491 
 7955000   0.98419102 6.4523104e-05   0.53704693  0.018379153            0   0.51866777    1.4689051     2.005952    6.4657889 
 7960000   0.98417485 -7.536002e-07    0.5186885   0.01119693            0   0.50749157     1.468881    1.9875695    1.9354806 
 7965000   0.97210036 -7.2934667e-05   0.56313971 0.0088171021            0   0.55432261    1.4508598    2.0139995   -3.0272447 
 7970000   0.95648964 4.0846198e-06   0.58349846   0.01314007            0   0.57035839    1.4275608    2.0110592    2.2933882 
 7975000    0.9915312 2.5819254e-05   0.54280756  0.022811691            0   0.51999587    1.4798603    2.0226679    3.8072947 
 7980000   0.99289143 5.0895102e-05    0.5195351  0.019245497            0    0.5002896    1.4818905    2.0014256     5.519295 
 7985000   0.98683944 -1.9831584e-05   0.54238748 0.0099915367            0   0.53239594    1.4728579    2.0152453   0.64448627 
 7990000   0.97922919 -4.2733152e-05   0.55340613  0.019432942            0   0.53397319    1.4614996    2.0149057  -0.93880977 
 7995000   0.98315277 9.5461575e-06   0.55718433  0.029221443            0   0.52796288    1.4673555    2.0245398    2.6843702 
 8000000   0.99086345 -8.4306006e-05   0.55365542  0.010363651            0   0.54329177    1.4788637    2.0325191    -3.794712 
 8005000    1.0195826 -7.9818324e-05   0.50291322  0.014492233            0   0.48842099    1.5217271    2.0246403   -3.4924022 
 8010000    1.0368733 7.0694017e-06   0.48231959  0.017270536            0   0.46504905    1.5475334    2.0298529      2.51849 
 8015000   0.96035094 -4.3701538e-05   0.58453652  0.007126963            0   0.57740956    1.4333238    2.0178603     -1.00279 
 8020000   0.98644611 3.6058138e-05   0.55559055 0.0097214209            0   0.54586913    1.4722708    2.0278614    4.5201999 
 8025000   0.95318555 5.0498647e-06   0.59130318   0.01102172            0   0.58028146    1.4226294    2.0139326    2.3629793 
 8030000   0.99136863 3.0207975e-06   0.51623226 0.0064325312            0   0.50979972    1.4796177    1.9958499    2.2046475 
 8035000    1.0014944 -6.6847769e-06   0.51165537 0.0062586086            0   0.50539676    1.4947303    2.0063857    1.5443339 
 8040000    1.0185174 -6.0317805e-05   0.48641398  0.020887968            0   0.46552601    1.5201372    2.0065512   -2.1626155 
 8045000    1.0046325 1.0523043e-05   0.52291528 0.0055815262            0   0.51733375     1.499414    2.0223292     2.749682 
 8050000     1.006536 8.9022867e-05   0.52623979  0.017166249            0   0.50907354     1.502255    2.0284948    8.1817554 
 8055000    0.9552624 -9.3508162e-06    0.6031408  0.039588207            0    0.5635526    1.4257291    2.0288699    1.3825415 
 8060000    1.0334154 7.1641753e-08    0.4965602  0.021025892            0   0.47553431    1.5423725    2.0389327    2.0438846 
 8065000    1.0575095 -2.4269408e-05   0.47683507  0.030284503            0   0.44655057    1.5783329     2.055168   0.37766644 
 8070000   0.99330229 -4.1899039e-05    0.5915566  0.032622402            0   0.55893419    1.4825037    2.0740603  -0.82200132 
 8075000    1.0353995 1.7452618e-05   0.53770625  0.043580998            0   0.49412525    1.5453337      2.08304     3.289365 
 8080000    0.9563342 -6.1369866e-05     0.646315  0.057409405            0    0.5889056    1.4273288    2.0736438   -2.1682414 
 8085000   0.99927328 3.2157463e-06   0.60042654  0.028317345            0   0.57210919    1.4914154    2.0918419    2.3141143 
 8090000    1.0762891 5.7424132e-05    0.4948198 0.0079759227            0   0.48684388    1.6063614    2.1011812    6.0703373 
 8095000    1.0493081 1.4747712e-05   0.54468869  0.011368466            0   0.53332023    1.5660924     2.110781    3.1301429 
 8100000    1.0860528 1.6443314e-05   0.48100873  0.013669853            0   0.46733888    1.6209338    2.1019426    3.2385045 
 8105000    1.0623613 -3.6440628e-05   0.51219189 0.0049669154            0   0.50722497    1.5855742    2.0977661  -0.42101016 
 8110000    1.0737159 2.0065765e-05   0.50004422 0.0079646453            0   0.49207957    1.6025209    2.1025651    3.4895108 
 8115000    1.0176216 5.3306322e-05   0.60708858  0.016684293            0   0.59040428    1.5188003    2.1258888    5.8104218 
 8120000    1.0431838 4.9480273e-06   0.58756715  0.046034674            0   0.54153248    1.5569518     2.144519    2.4865266 
 8125000    1.0209724 -1.2598367e-05   0.59476138  0.040957937            0   0.55380344    1.5238012    2.1185626    1.2477635 
 8130000     1.018437 1.4932211e-05    0.5955276  0.043274067            0   0.55225353    1.5200173    2.1155449    3.1476593 
 8135000    1.1060937 4.1697001e-05   0.49872076  0.034251255            0    0.4644695    1.6508448    2.1495656    5.0316623 
 8140000    1.0241721 2.6544526e-05   0.62125958  0.024631469            0   0.59662811    1.5285768    2.1498364    3.9845941 
 8145000    1.0187979 1.810804e-05   0.62887897  0.013928386            0   0.61495058    1.5205559    2.1494348    3.4010626 
 8150000    1.0887105 2.2811429e-05   0.53233851  0.015597651            0   0.51674086    1.6249005     2.157239     3.733965 
 8155000    1.0461145 7.2591755e-05   0.55768958  0.017366832            0   0.54032275    1.5613259    2.1190154    7.1365576 
 8160000    1.0974423 2.0500473e-05   0.47044356  0.023276637            0   0.44716693    1.6379327    2.1083763     3.525369 
 8165000    1.0275079 -5.324092e-05   0.54556941  0.035692166            0   0.50987724    1.5335556     2.079125   -1.6008874 
 8170000    1.0042985 1.8186312e-05   0.59493985  0.026506016            0   0.56843383    1.4989155    2.0938554    3.3508933 
 8175000    1.0473447 4.251716e-05   0.55182817  0.011931864            0   0.53989631     1.563162    2.1149901    5.0537763 
 8180000    1.0620436 7.0778367e-05    0.5307823  0.012813517            0   0.51796879       1.5851    2.1158823     7.008083 
 8185000    1.0548948 1.8701892e-05   0.55345193  0.022806464            0   0.53064547    1.5744304    2.1278824    3.4205571 
 8190000    1.0757843 -1.8469945e-06   0.52280876  0.013206236            0   0.50960252     1.605608    2.1284168    2.0007525 
 8195000    1.0138769 -3.8475509e-05   0.60464712  0.022708906            0   0.58193821    1.5132113    2.1178584  -0.54156879 
 8200000    1.0266664 -3.4660489e-05   0.57901512  0.021395396            0   0.55761972    1.5322997    2.1113148  -0.28441825 
 8205000    1.0733637 -5.8358094e-05   0.51100859  0.014041795            0   0.49696679    1.6019953    2.1130039   -1.9207076 
 8210000     1.067704 3.8513401e-06   0.53734841  0.015404067            0   0.52194434    1.5935482    2.1308966    2.3971013 
 8215000    1.0831702 6.2161578e-05   0.52388342  0.015049379            0   0.50883404    1.6166315    2.1405149    6.4371232 
 8220000    1.0695741 -2.4893596e-06   0.56089428  0.027549925            0   0.53334435    1.5963394    2.1572336    1.9851691 
 8225000    1.0189927 -5.4745265e-05   0.61027351  0.029986956            0   0.58028656    1.5208466    2.1311201   -1.6528727 
 8230000     1.065248 -3.0220279e-05   0.56205615  0.018359542            0    0.5436966    1.5898826    2.1519387  0.063112999 
 8235000    1.0297003 7.5112499e-05    0.5895893  0.027719695            0   0.56186961    1.5368278    2.1264171     7.318193 
 8240000    1.0388292 1.0539023e-05   0.57956505  0.013972342            0   0.56559271    1.5504525    2.1300176    2.8584748 
 8245000    1.0889519 -6.0151775e-05   0.52673375  0.022751196            0   0.50398256    1.6252608    2.1519945   -2.0056962 
 8250000    1.0328207 -3.2581884e-05    0.6182157  0.040706885            0   0.57750882    1.5414848    2.1597005 -0.092359301 
 8255000    1.0697018 1.070369e-05   0.54762822  0.015137494            0   0.53249073    1.5965299    2.1441582    2.8839972 
 8260000    1.0746503 -1.6435381e-05   0.51972143  0.012961675            0   0.50675976    1.6039156     2.123637   0.98762348 
 8265000    1.0943285 -1.0190859e-05   0.49345241 0.0067233097            0    0.4867291    1.6332854    2.1267378    1.4223456 
 8270000    1.0139552 -1.5838276e-05   0.58885181 0.0046842138            0   0.58416759    1.5133281    2.1021799    1.0074383 
 8275000    1.0122692 -4.9945098e-05   0.59593951  0.042556022            0   0.55338349    1.5108118    2.1067513   -1.3454538 
 8280000    1.0257687 1.6683162e-05   0.59544752  0.020531799            0   0.57491572    1.5309598    2.1264073    3.2795475 
 8285000     1.082333 1.0365027e-05   0.50264489  0.014563015            0   0.48808187     1.615382    2.1180269    2.8344576 
 8290000    1.0362921 -6.534565e-05   0.58792882  0.011254634            0   0.57667419     1.546666    2.1345948   -2.3820965 
 8295000    1.0485376 -1.37279e-05   0.57506232  0.011753608            0   0.56330871    1.5649424    2.1400047    1.1911322 
 8300000     1.044058 -9.7781352e-06   0.58111012  0.012608231            0   0.56850189    1.5582566    2.1393667     1.463502 
 8305000    1.0750312 2.4858906e-05   0.55777655 0.0089430667            0   0.54883348    1.6044841    2.1622607    3.8805083 
 8310000    1.0921578 6.9414013e-05   0.53475267  0.020687369            0    0.5140653    1.6300456    2.1647982    6.9626948 
 8315000    1.0774644 3.9421974e-05   0.57829976  0.014925629            0   0.56337413    1.6081156    2.1864154    4.9112622 
 8320000    1.0963481 -5.5616995e-05   0.58385869 0.0057769028            0   0.57808179    1.6362995    2.2201582   -1.6240885 
 8325000    1.1369626 -6.5853756e-05    0.5266977  0.023400056            0   0.50329765    1.6969166    2.2236143   -2.3281973 
 8330000    1.0248418 -1.9892554e-05   0.67482208  0.022699782            0    0.6521223    1.5295764    2.2043985   0.82942518 
 8335000    1.0993877 -1.8329136e-05   0.54947432 0.0072012095            0   0.54227312    1.6408362    2.1903105   0.92340063 
 8340000    1.1098689 -1.0015651e-05   0.55690604  0.011144657            0   0.54576138    1.6564793    2.2133854    1.5211036 
 8345000    1.0685641 8.2944579e-06   0.60235551  0.019723144            0   0.58263236    1.5948319    2.1971874    2.7705003 
 8350000    1.0733188 -2.0123856e-06    0.6135626  0.015583963            0   0.59797863    1.6019283    2.2154909    2.0763948 
 8355000    1.0802259 -1.1788483e-05   0.59351542 0.0094510994            0   0.58406432    1.6122371    2.2057525    1.3909326 
 8360000    1.0978719 8.982103e-06   0.57359186  0.017618067            0   0.55597379    1.6385739    2.2121657    2.8330087 
 8365000    1.1273353 2.5418487e-06    0.5302666  0.011921471            0   0.51834513     1.682548    2.2128146    2.3885072 
 8370000    1.1116278 -1.5364813e-05   0.55721014  0.027858907            0   0.52935123    1.6591044    2.2163146    1.1542987 
 8375000    1.0469215 2.1395344e-05   0.66110477  0.028847398            0   0.63225737    1.5625304    2.2236352    3.7024813 
 8380000     1.153906 5.6765557e-05   0.50015808  0.013549355            0   0.48660873    1.7222047    2.2223628    6.1459981 
 8385000    1.1493041 2.9763752e-05   0.49962207  0.023987934            0   0.47563414    1.7153363    2.2149584    4.2722289 
 8390000    1.0980819 -4.2378819e-05    0.5740869  0.022033522            0   0.55205337    1.6388872    2.2129741  -0.71624994 
 8395000    1.1047641 -5.1646545e-05    0.5496647  0.020982668            0   0.52868203    1.6488604    2.1985251   -1.3712841 
 8400000    1.1399541 -6.6183485e-06   0.51780089  0.017215905            0   0.50058499    1.7013815    2.2191824    1.7617222 
 8405000    1.0930292 1.7254493e-06    0.5911115  0.025620135            0   0.56549137    1.6313461    2.2224576    2.3417207 
 8410000    1.0907705 -1.766453e-05    0.5897685  0.024437247            0   0.56533125    1.6279749    2.2177434   0.99677112 
 8415000    1.0776542 5.4079257e-06   0.58399579  0.028761765            0   0.55523402    1.6083989    2.1923947    2.5661905 
 8420000    1.0987223 4.3619279e-05   0.55974343   0.02644819            0   0.53329524     1.639843    2.1995865     5.214551 
 8425000    1.0799516 -3.221079e-05   0.57956022   0.03360446            0   0.54595576    1.6118278     2.191388 -0.035021817 
 8430000    1.0276815 -4.8363091e-05   0.65149001  0.061615812            0    0.5898742    1.5338147    2.1853047   -1.1575522 
 8435000    1.1085901 -3.0711359e-06   0.53931088  0.027232672            0   0.51207821    1.6545707    2.1938816    1.9816047 
 8440000    1.0808082 -1.0233971e-05   0.57154595  0.023180409            0   0.54836554    1.6131062    2.1846522    1.4772801 
 8445000    1.0656354 -2.0677068e-05    0.5909129  0.033780079            0   0.55713282    1.5904609    2.1813738   0.75217488 
 8450000    1.0800537 3.1761006e-05   0.56419924  0.029074392            0   0.53512485    1.6119801    2.1761794    4.3715001 
 8455000    1.1110087 6.9135619e-05   0.50358539  0.015002291            0    0.4885831    1.6581805    2.1617659    6.9404198 
 8460000    1.0176686 3.6826531e-05   0.65320699  0.034725825            0   0.61848116    1.5188703    2.1720773    4.7175271 
 8465000    1.0327924 -6.6834942e-06   0.62319729  0.025124097            0   0.59807319    1.5414426    2.1646399    1.7026768 
 8470000    1.0495691 4.4606593e-05   0.59567307  0.032949715            0   0.56272336    1.5664819    2.1621549    5.2453627 
 8475000    1.0338311 4.3342504e-05   0.60904161  0.027733469            0   0.58130815    1.5429929    2.1520345    5.1478684 
 8480000    1.0344352 0.00010330956   0.60262931  0.017341099            0   0.58528821    1.5438946    2.1465239    9.2872806 
 8485000    1.0666949 1.5050255e-05   0.54158384  0.023556985            0   0.51802686    1.5920422     2.133626    3.1738996 
 8490000    1.0381193 -1.9228921e-05   0.57161686  0.026362253            0   0.54525461    1.5493931    2.1210099   0.79190692 
 8495000    1.0231345 7.1068236e-06   0.58859393  0.022464992            0   0.56612894    1.5270283    2.1156222    2.6068459 
 8500000    1.0568937 -1.8109835e-05     0.531244  0.027765334            0   0.50347866    1.5774139    2.1086579   0.85690609 
 8505000    1.0517986 -5.3464011e-05   0.51215781  0.015142475            0   0.49701534    1.5698095    2.0819673   -1.6134652 
 8510000     1.028366 3.2654003e-05   0.55568697  0.012033893            0   0.54365308    1.5348363    2.0905233    4.3475679 
 8515000    1.0326346 6.3875103e-05   0.54624227 0.0070558926            0   0.53918637    1.5412071    2.0874494    6.5024965 
 8520000    1.0129076 -1.2121402e-05   0.56327067   0.01615048            0   0.54712019    1.5117647    2.0750353     1.237204 
 8525000    1.0036284 -2.8891222e-05   0.58193011  0.016398346            0   0.56553177    1.4979154    2.0798455  0.082884266 
 8530000    1.0423142 -4.7573972e-05   0.51781925  0.035391268            0   0.48242798     1.555654    2.0734732   -1.2148397 
 8535000   0.99938482 -4.3451087e-05   0.56998728  0.032534088            0   0.53745319    1.4915818    2.0615691  -0.94177004 
 8540000    1.0241537 -2.5684266e-06   0.54416135  0.013673477            0   0.53048788    1.5285494    2.0727107    1.8951811 
 8545000    1.0410619 2.4089577e-05   0.53417032   0.02262781            0    0.5115425    1.5537848    2.0879552    3.7530267 
 8550000   0.99809724 9.4329389e-06   0.58412301  0.017933624            0   0.56618938    1.4896601    2.0737831    2.7257879 
 8555000   0.96817282 -3.9158635e-05   0.64115218  0.011271713            0   0.62988047    1.4449979    2.0861501  -0.62049472 
 8560000    1.0259842 6.7735329e-05   0.55052921  0.010736049            0   0.53979316    1.5312814    2.0818106    6.7636765 
 8565000     1.058024 7.762282e-05   0.48741302  0.013281432            0   0.47413159    1.5791009    2.0665139    7.4318032 
 8570000   0.99658137 2.210585e-05   0.55443282  0.024241445            0   0.53019138    1.4873977    2.0418305    3.5697869 
 8575000    1.0052574 -4.2234839e-05   0.53777472  0.045982408            0   0.49179231    1.5003467    2.0381214  -0.88115061 
 8580000   0.97902059 -9.3739911e-05   0.57081389  0.033365873            0   0.53744802    1.4611882    2.0320021   -4.4473005 
 8585000    1.0323426 -4.6391785e-05    0.4959813  0.011299977            0   0.48468133    1.5407714    2.0367527   -1.1698475 
 8590000   0.97680606 -1.2521319e-07    0.5612267  0.014834972            0   0.54639173     1.457883    2.0191097     2.010455 
 8595000   0.93481077 3.4186262e-05   0.63181929  0.017789382            0   0.61402991    1.3952051    2.0270244    4.3899788 
 8600000    1.0324798 5.667861e-05   0.48213054  0.015152802            0   0.46697774    1.5409761    2.0231066    5.9407322 
 8605000    0.9814462 7.0345346e-05   0.55762917  0.010388914            0   0.54724026    1.4648084    2.0224376    6.8847079 
 8610000    1.0421372 1.5853694e-05   0.47031108 0.0064071273            0   0.46390396    1.5553898    2.0257009    3.1215083 
 8615000   0.98685377 -2.3139428e-05   0.55254703  0.016185286            0   0.53636174    1.4728793    2.0254263   0.42602904 
 8620000    1.0196443 1.0579982e-05   0.48990768  0.012901191            0   0.47700648    1.5218191    2.0117267    2.7430151 
 8625000    0.9779565 -6.6090214e-06   0.56688417  0.024323456            0   0.54256071    1.4596001    2.0264842    1.5696687 
 8630000    1.0481828 8.9221539e-07   0.48227093  0.033633984            0   0.44863694    1.5644129    2.0466838    2.1083537 
 8635000    1.0393091 -1.4758315e-05   0.49060257  0.016297632            0   0.47430494    1.5511689    2.0417715    1.0216767 
 8640000    1.0231352 -2.2567052e-05   0.52861504 0.0098852256            0   0.51872981    1.5270292    2.0556443   0.49580963 
 8645000    1.0287635 6.6853867e-06   0.53111228 0.0088433909            0   0.52226889    1.5354295    2.0665418    2.5286357 
 8650000    1.0506353 -1.763458e-05   0.50265162 0.0076191308            0   0.49503249    1.5680731    2.0707247   0.85182256 
 8655000    1.0538855 -3.7707524e-05   0.50505908  0.008951195            0   0.49610789     1.572924    2.0779831  -0.52836092 
 8660000    1.0452039 1.7613239e-05   0.52138343  0.022109797            0   0.49927363    1.5599668    2.0813502    3.2987773 
 8665000    1.0534141 -1.0454848e-05   0.50482338  0.033182955            0   0.47164042    1.5722205    2.0770439    1.3544048 
 8670000    1.0050271 -2.615473e-05   0.59665595  0.037571733            0   0.55908422     1.500003     2.096659   0.28884405 
 8675000    1.0979837 4.6212537e-05   0.49172342  0.034997953            0   0.45672546    1.6387406     2.130464    5.3246746 
 8680000    1.0797534 2.478793e-08   0.53242249  0.023852848            0   0.50856965    1.6115319    2.1439544    2.1456678 
 8685000    1.1026879 1.2251716e-05   0.52170054  0.017229866            0   0.50447068    1.6457617    2.1674622    3.0143009 
 8690000    1.0800638 2.1324328e-05   0.54041017  0.019243748            0   0.52116642    1.6119952    2.1524053    3.6263429 
 8695000    1.0685057 -4.0303596e-05   0.55988795  0.015322924            0   0.54456503    1.5947448    2.1546327  -0.63115188 
 8700000    1.0403202 1.9041401e-05   0.61039073  0.017776415            0   0.59261432    1.5526778    2.1630686    3.4792102 
 8705000    1.0789325 3.9723502e-05   0.55424731   0.01122374            0   0.54302357    1.6103067     2.164554    4.9102425 
 8710000    1.0802771 2.0275783e-05   0.55859958  0.021400596            0   0.53719898    1.6123136    2.1709132    3.5723753 
 8715000    1.0501354 -4.2532441e-05   0.58007403  0.020274717            0   0.55979931     1.567327    2.1474011  -0.79244124 
 8720000    1.1300189 9.9818026e-06   0.46371525 0.0076579957            0   0.45605725    1.6865533    2.1502685    2.8402107 
 8725000    1.0989418 2.4017634e-05   0.51388735  0.017439033            0   0.49644832    1.6401707     2.154058    3.8141569 
 8730000    1.0693899 2.0308246e-05   0.54830875  0.018421595            0   0.52988716    1.5960645    2.1443732    3.5480792 
 8735000    1.1136631 4.7880856e-05   0.49443351  0.013529169            0   0.48090434    1.6621422    2.1565757    5.4661005 
 8740000    1.0493475 1.4622882e-05   0.58594974  0.011606658            0   0.57434308    1.5661512    2.1521009    3.1628346 
 8745000    1.0922106 -3.3198628e-05   0.53690969   0.01649154            0   0.52041815    1.6301244    2.1670341  -0.12765511 
 8750000    1.1183897 -1.7416075e-05    0.5050781   0.01464387            0   0.49043423    1.6691966    2.1742747   0.97047561 
 8755000      1.04155 -2.1807809e-06   0.62043609  0.024171077            0   0.59626501    1.5545134    2.1749495    2.0242139 
 8760000    1.0404903 -1.2528753e-05   0.61697751  0.045372533            0   0.57160497    1.5529318    2.1699093    1.3039219 
 8765000     1.076677 7.5871559e-06   0.55670029  0.035596917            0   0.52110337    1.6069404    2.1636407    2.6880649 
 8770000    1.0813201 1.8079193e-05   0.56862029  0.018216216            0   0.55040408    1.6138702    2.1824905    3.4321243 
 8775000    1.0677802 4.4415825e-05   0.57370132  0.035532511            0   0.53816881    1.5936619    2.1673632    5.2373851 
 8780000    1.0956926 7.5447133e-05    0.5444419  0.022996672            0   0.52144523    1.6353213    2.1797632     7.394669 
 8785000     1.095543 2.4314211e-05   0.53099618  0.011554815            0   0.51944137     1.635098    2.1660942    3.8466924 
 8790000    1.1110313 5.5683163e-06   0.49988367  0.035406968            0   0.46447671    1.6582142    2.1580978    2.5429799 
 8795000    1.0307635 1.030541e-06   0.61710379  0.046410313            0   0.57069348    1.5384145    2.1555183    2.2267493 
 8800000    1.0660111 9.7034411e-06   0.57523975  0.024697035            0   0.55054271    1.5910216    2.1662613    2.8369632 
 8805000    1.0650506 1.2393444e-05   0.58188791  0.013796346            0   0.56809156     1.589588    2.1714759    3.0281107 
 8810000    1.0834214 -6.1067541e-05   0.54806687  0.015817576            0   0.53224929    1.6170064    2.1650732   -2.0559152 
 8815000    1.0832443 2.8321556e-05   0.52714591  0.036404638            0   0.49074127    1.6167421     2.143888    4.1014739 
 8820000    1.0948691 -2.1412206e-05   0.50699942  0.026597913            0   0.48040151    1.6340922    2.1410916   0.66107992 
 8825000    1.0202987 -5.2335733e-05   0.60356321  0.014684254            0   0.58887896    1.5227959    2.1263591   -1.4910868 
 8830000     1.075789 5.0807147e-06   0.51496499  0.027554304            0   0.48741068    1.6056151      2.12058     2.471759 
 8835000    1.0266977 -9.5802897e-06   0.57011516  0.035825736            0   0.53428943    1.5323464    2.1024615    1.4402719 
 8840000    1.0564127 -2.6214472e-05   0.52806035 0.0083579456            0    0.5197024    1.5766959    2.1047562   0.29281197 
 8845000    1.0793355 -4.8575182e-07   0.50660028 0.0066677376            0   0.49993254    1.6109083    2.1175085    2.0839334 
 8850000    1.0722093 4.0936102e-05   0.52075612  0.011746817            0    0.5090093    1.6002723    2.1210284    4.9505318 
 8855000    1.0294231 -1.1009841e-05   0.58161888   0.03782776            0   0.54379112    1.5364139    2.1180328    1.3570326 
 8860000     1.071028 -2.0900694e-06   0.54232294  0.036130311            0   0.50619263    1.5985093    2.1408322    1.9963666 
 8865000    1.1027379 -5.1590555e-05   0.48279535  0.022706277            0   0.46008907    1.6458364    2.1286317   -1.4373074 
 8870000    1.0640477 -0.00010882742   0.54757563  0.014025607            0   0.53355003    1.5880912    2.1356669   -5.3864842 
 8875000    1.0594439 -3.9221024e-05   0.53550102  0.022434634            0   0.51306639      1.58122    2.1167211  -0.59423608 
 8880000    1.0861597 7.5396065e-06   0.49819073    0.0268369            0   0.47135383    1.6210933     2.119284    2.6404216 
 8885000    1.0338889 1.0382983e-05   0.58747636  0.023605706            0   0.56387065    1.5430792    2.1305555    2.8482273 
 8890000    1.0442188 -4.6047688e-05   0.56285055  0.042195209            0   0.52065534    1.5584965    2.1213471   -1.0614691 
 8895000    1.0277347 -3.3989498e-05   0.56900063  0.034842613            0   0.53415802     1.533894    2.1028946  -0.24645948 
 8900000    1.0759971 -2.8078808e-05   0.50118194  0.028120794            0   0.47306115    1.6059257    2.1071076   0.16630044 
 8905000    1.0659591 -6.135087e-05    0.5085168  0.021071685            0   0.48744511     1.590944    2.0994608   -2.1411114 
 8910000     1.085872 3.6325616e-06   0.48864806  0.041447939            0   0.44720012    1.6206639     2.109312    2.3603946 
 8915000    1.0610904 6.3993534e-06   0.53408303  0.031853759            0   0.50222927    1.5836774    2.1177604    2.5600838 
 8920000    1.0703118 -6.2919027e-06   0.52171394   0.01983155            0   0.50188239    1.5974404    2.1191544     1.684258 
 8925000    1.0613526 -9.5754442e-06   0.54156465  0.031502942            0   0.51006171    1.5840687    2.1256334    1.4637787 
 8930000    1.0852343 5.0139742e-06   0.53706899  0.025581973            0   0.51148702    1.6197121    2.1567811     2.503347 
 8935000    1.0908682 3.8690985e-05   0.53370773   0.03045199            0   0.50325574    1.6281207    2.1618285    4.8361494 
 8940000    1.0728502 1.9793353e-05   0.58446615   0.01690517            0   0.56756098     1.601229    2.1856951    3.5538117 
 8945000    1.1341488 -9.8636788e-06   0.48576262   0.01306098            0   0.47270165     1.692717    2.1784796    1.4967022 
 8950000    1.0767672 -1.2261312e-05   0.57409885  0.021367545            0    0.5527313     1.607075    2.1811739     1.333672 
 8955000    1.1408513 -5.9862098e-05   0.48477575 0.0097631987            0   0.47501255    1.7027206    2.1874963   -1.9501719 
 8960000    1.1019317 -1.8226674e-05   0.51637264 0.0097996785            0   0.50657296     1.644633    2.1610056   0.90117795 
 8965000    1.1368477 1.8920848e-05   0.45587396  0.011095028            0   0.44477894    1.6967451    2.1526191    3.4604281 
 8970000    1.0989857 1.0238968e-06   0.50964592  0.016796181            0   0.49284974    1.6402362    2.1498821    2.2206538 
 8975000    1.0609791 6.4820615e-06   0.57479304   0.02338314            0    0.5514099    1.5835113    2.1583043    2.6063444 
 8980000    1.0627499 3.3308869e-05   0.56635201  0.039369287            0   0.52698272    1.5861542    2.1525062    4.4548152 
 8985000    1.0995962 2.8757018e-05   0.52769451  0.015385646            0   0.51230887    1.6411473    2.1688418    4.1565269 
 8990000    1.1477786 -1.7288106e-05   0.45519059   0.01232152            0   0.44286907    1.7130595    2.1682501   0.97329622 
 8995000    1.0748311 4.3355769e-05   0.55656423  0.027927576            0   0.52863665    1.6041855    2.1607497    5.1575004 
 9000000    1.0771254 -7.5624995e-06    0.5516165  0.054007221            0   0.49760928    1.6076097    2.1592262    1.6365062 
 9005000    1.0877974 5.3765446e-07   0.54192758  0.039433094            0   0.50249449    1.6235375    2.1654651    2.2026278 
 9010000    1.1363967 2.3526304e-05   0.47311042  0.010072162            0   0.46303826     1.696072    2.1691825    3.7953206 
 9015000    1.1036304 -8.202374e-06   0.51151245 0.0090221811            0   0.50249027    1.6471684    2.1586808    1.5917327 
 9020000    1.1175161 -3.543829e-05    0.5078546  0.010044737            0   0.49780987    1.6678928    2.1757474  -0.27374717 
 9025000    1.0959828 -1.1590512e-05   0.52335694   0.01084344            0    0.5125135    1.6357543    2.1591112    1.3579751 
 9030000    1.0702472 8.0950228e-06   0.56827793  0.010769504            0   0.55750842     1.597344    2.1656219    2.7251499 
 9035000    1.1138048 -1.7030661e-05   0.50504982  0.025332604            0   0.47971722    1.6623537    2.1674035   0.99024421 
 9040000    1.1434298 -2.0612529e-05   0.46270256  0.021138426            0   0.44156413    1.7065689    2.1692715   0.74453345 
 9045000    1.0960548 2.1049001e-05   0.55603166  0.027234541            0   0.52879712    1.6358617    2.1918934    3.6468003 
 9050000    1.1428987 5.5552315e-05   0.50792634  0.020968839            0    0.4869575    1.7057763    2.2137027    6.0534786 
 9055000    1.0973952 -3.1525082e-05   0.56309169  0.023506497            0   0.53958519    1.6378624    2.2009541  0.021940384 
 9060000     1.144644 -4.6482436e-05   0.47772022  0.021601568            0   0.45611865    1.7083811    2.1861013   -1.0267646 
 9065000    1.1404942 2.5286191e-05   0.47303213  0.021844009            0   0.45118812    1.7021875    2.1752196    3.9230012 
 9070000    1.1181471 6.2584693e-07   0.50211595  0.029462558            0   0.47265339    1.6688346    2.1709505    2.2142091 
 9075000    1.1089837 8.3185574e-06   0.49344948  0.013964664            0   0.47948482    1.6551581    2.1486076    2.7235863 
 9080000    1.0713554 4.5509034e-05   0.55808271  0.038567611            0    0.5195151    1.5989979    2.1570806     5.302665 
 9085000    1.0468163 2.6787349e-05   0.57176581  0.043352391            0   0.52841342    1.5623733    2.1341391    3.9856807 
 9090000    1.1048622 2.1427917e-05   0.47896198  0.030690853            0   0.44827113    1.6490068    2.1279688    3.6090664 
 9095000     1.060321 -1.6147825e-05   0.54440937  0.025171649            0   0.51923772     1.582529    2.1269384    1.0108007 
 9100000    1.0387015 2.720081e-05   0.58037721  0.038519689            0   0.54185752     1.550262    2.1306392    4.0107591 
 9105000    1.0868755 -3.2824735e-06   0.49551694  0.013010824            0   0.48250612    1.6221617    2.1176786     1.890794 
 9110000    1.0443083 -3.1361005e-05    0.5508128  0.017450876            0   0.53336192    1.5586302     2.109443  -0.05822972 
 9115000    1.0377666 -2.7193687e-06    0.5451986 0.0073309823            0   0.53786761    1.5488667    2.0940653    1.9061025 
 9120000    1.0755195 -2.5077777e-05   0.51524008  0.015662712            0   0.49957737    1.6052129     2.120453   0.38707703 
 9125000    1.0866472 2.455786e-05   0.50239755  0.013741696            0   0.48865585    1.6218209    2.1242184    3.8216577 
 9130000    1.1101342 2.5230855e-05   0.46720251  0.021755438            0   0.44544707    1.6568753    2.1240778    3.8680344 
 9135000    1.0662963 3.3892421e-06   0.52450255  0.024217704            0   0.50028485    1.5914472    2.1159497    2.3502141 
 9140000    1.0371349 2.1638353e-05   0.56982795 0.0054241191            0   0.56440383    1.5479238    2.1177518    3.6133947 
 9145000    1.1479251 1.6452803e-05   0.41717889 0.0077108847            0   0.40946801    1.7132782    2.1304571    3.2676749 
 9150000    1.0778845 -4.0773809e-06   0.54791244  0.034905864            0   0.51300657    1.6087425     2.156655    1.8748264 
 9155000    1.0712993 -4.7244443e-05    0.5613827  0.033721314            0   0.52766139    1.5989143     2.160297    -1.105239 
 9160000    1.0764018 -4.1638472e-05   0.56529403   0.03402831            0   0.53126572    1.6065297    2.1718237  -0.70622744 
 9165000    1.0706313 1.0575818e-05   0.56483389  0.019155181            0   0.54567871    1.5979172     2.162751    2.8937516 
 9170000    1.0407152 1.694335e-05   0.58650353  0.017918703            0   0.56858482    1.5532675     2.139771    3.3108953 
 9175000    1.0079207 -6.449739e-05   0.62298527  0.050395954            0   0.57258931    1.5043216    2.1273069   -2.3307527 
 9180000    1.0490755 -6.3301466e-05   0.54573014  0.056554147            0   0.48917599    1.5657452    2.1114754   -2.2639219 
 9185000    1.0192763 1.928485e-05   0.60004123  0.029570854            0   0.57047037    1.5212699    2.1213111    3.4542799 
 9190000    1.0522819 -2.0024074e-05   0.55907238  0.023274845            0   0.53579753    1.5705308    2.1296032    0.7455392 
 9195000    1.0642589 -2.1683307e-05   0.54914978  0.022389445            0   0.52676033    1.5884063    2.1375561   0.63880595 
 9200000    1.0510285 1.889788e-05   0.57192279  0.034942971            0   0.53697982      1.56866    2.1405828    3.4468043 
 9205000     1.046522 2.3191129e-05   0.56604673  0.017385241            0   0.54866149    1.5619341    2.1279808    3.7309517 
 9210000    1.0574456 -5.6542416e-05   0.55366752 0.0094133441            0   0.54425417    1.5782375     2.131905   -1.7763068 
 9215000    1.1108923 4.7708649e-06   0.47076996 0.0057560867            0   0.46501387    1.6580067    2.1287766    2.4585388 
 9220000    1.0279203 1.3933387e-06   0.58126651 0.0087544609            0   0.57251205    1.5341711    2.1154376    2.2117452 
 9225000   0.98564323 -2.6053718e-05   0.65875659   0.01733574            0   0.64142085    1.4710725    2.1298291   0.32899611 
 9230000    1.1003968 5.3063445e-05      0.51047  0.021144524            0   0.48932547    1.6423422    2.1528122    5.8205575 
 9235000    1.0916331 4.2351787e-05    0.5194093  0.027676902            0    0.4917324    1.6292623    2.1486716    5.0760272 
 9240000    1.0895779 2.4201236e-07   0.52544462  0.017776572            0   0.50766805    1.6261951    2.1516397    2.1683676 
 9245000    1.0588793 1.9343685e-05   0.56299673 0.0063400941            0   0.55665664    1.5803773     2.143374    3.4804095 
 9250000    1.0699367 3.9953133e-05   0.52460546 0.0088142281            0   0.51579124    1.5968805     2.121486    4.8830465 
 9255000    1.0477815 -5.7299573e-05   0.55974831  0.010968956            0   0.54877936    1.5638139    2.1235622   -1.8369842 
 9260000    1.0168118 -1.5273097e-05   0.61338305  0.032770154            0    0.5806129    1.5175916    2.1309747    1.0752982 
 9265000    1.0323116 3.700301e-07   0.59574493  0.040902127            0    0.5548428     1.540725    2.1364699    2.1620464 
 9270000    1.1289207 -1.3059818e-05   0.43493988  0.014143637            0   0.42079624    1.6849142    2.1198541    1.2171595 
 9275000     1.075316 4.1288038e-05   0.52270125  0.017160584            0   0.50554067    1.6049092    2.1276104    4.9814396 
 9280000    1.0464642 1.7536142e-05   0.57090878  0.026414322            0   0.54449446    1.5618478    2.1327566    3.3448547 
 9285000    1.0043148 -2.3400252e-05    0.6494556  0.023025778            0   0.62642982    1.4989399    2.1483955   0.53097002 
 9290000    1.0727304 -2.8422086e-05   0.52484839  0.024415149            0   0.50043324    1.6010501    2.1258985   0.16136395 
 9295000    1.0708579 4.1598934e-05   0.53196935  0.014760195            0   0.51720915    1.5982554    2.1302247    5.0055431 
 9300000    1.0278125 3.9611249e-06   0.56372893  0.017307228            0    0.5464217    1.5340101    2.0977391     2.371532 
 9305000    1.0059126 -5.0861282e-05   0.57312405  0.018590897            0   0.55453315    1.5013245    2.0744486   -1.4410832 
 9310000    1.0388059 -1.9562733e-05   0.50396462  0.010357303            0   0.49360732    1.5504178    2.0543825   0.70220634 
 9315000    1.0413702 -9.4182488e-06   0.50160623  0.011894327            0   0.48971191     1.554245    2.0558512    1.4048619 
 9320000   0.99186172 1.2272332e-05   0.58718679  0.016851018            0   0.57033577    1.4803536    2.0675404     2.915804 
 9325000    1.0464502 6.1986949e-05   0.52501742  0.015960931            0   0.50905649    1.5618269    2.0868443    6.3713822 
 9330000     1.037981 -5.3526221e-07   0.54396227  0.015996799            0   0.52796547    1.5491866    2.0931489    2.0561516 
 9335000    1.0410786 -5.214231e-05   0.55419226  0.011909278            0   0.54228298    1.5538098    2.1080021   -1.4960744 
 9340000    1.0532512 3.9563878e-06   0.53232874   0.02482293            0   0.50750581    1.5719774    2.1043062    2.3777717 
 9345000    1.0063268 8.6780439e-07   0.58222871  0.022307208            0    0.5599215    1.5019428    2.0841715    2.1441542 
 9350000    1.0958979 -6.0249264e-05   0.44132923  0.010292912            0   0.43103632    1.6356276    2.0769568   -2.0874723 
 9355000    1.0308696 1.509584e-05   0.55066597  0.014976578            0    0.5356894    1.5385729    2.0892389    3.1326633 
 9360000    1.0612953 -2.3653241e-09   0.51030558   0.01093954            0   0.49936604    1.5839832    2.0942888    2.0941253 
 9365000     1.060438 -7.1774571e-05   0.52653775 0.0099008681            0   0.51663688    1.5827037    2.1092414   -2.8518169 
 9370000    1.0124174 -1.9139503e-05    0.5981495  0.014852798            0    0.5832967     1.511033    2.1091825   0.78626012 
 9375000    1.0557278 -9.9879845e-06   0.52622936  0.029420835            0   0.49680853    1.5756738    2.1019031    1.4115336 
 9380000      1.07881 1.2588904e-05   0.49495847  0.028625854            0   0.46633262     1.610124    2.1050824    2.9752274 
 9385000    1.0319948 2.905564e-05   0.56209659  0.011396105            0   0.55070048    1.5402522    2.1023488    4.1106746 
 9390000    1.0906908 4.0693442e-05   0.49345051 0.0070283891            0   0.48642212     1.627856    2.1213065    4.9340372 
 9395000    1.0718196 -3.3626596e-05   0.54648749  0.022894573            0   0.52359292    1.5996907    2.1461782  -0.17809208 
 9400000    1.0960842 -3.9209639e-05   0.52815028  0.025429122            0   0.50272116    1.6359057     2.164056  -0.54611427 
 9405000     1.052622 -2.6333933e-05   0.59142095  0.025912379            0   0.56550857    1.5710383    2.1624592   0.34225781 
 9410000    1.0535847 -9.1876584e-06   0.57150127  0.026051303            0   0.54544997    1.5724752    2.1439764    1.5089255 
 9415000    1.0758005 -7.7373614e-06   0.51525708  0.023974915            0   0.49128217    1.6056323    2.1208894     1.586083 
 9420000    1.0662777 -1.1482358e-05   0.54262944 0.0091497115            0   0.53347972    1.5914195    2.1340489    1.3403883 
 9425000    1.0733398 -1.1013012e-05   0.52074278  0.022604715            0   0.49813807    1.6019596    2.1227024     1.361483 
 9430000    1.0354217 -2.533262e-06   0.57829481  0.029398097            0   0.54889671    1.5453669    2.1236617    1.9485626 
 9435000    1.0803847 8.9763513e-05   0.50813907 0.0088283539            0   0.49931072    1.6124742    2.1206132    8.3250672 
 9440000    1.0658808 -1.3859314e-05   0.52577656 0.0031617145            0   0.52261485    1.5908271    2.1166037    1.1586479 
 9445000    1.0816324 -7.2183243e-05   0.49849066  0.022880693            0   0.47560997    1.6143364    2.1128271   -2.8764787 
 9450000    1.0541557 -3.4042357e-05    0.5533269  0.013061865            0   0.54026504    1.5733274    2.1266543  -0.22635341 
 9455000    1.0051799 -2.79642e-05    0.6226953  0.020728127            0   0.60196717     1.500231    2.1229263   0.19004084 
 9460000    1.0656804 5.9623916e-05   0.53790048  0.012519683            0    0.5253808     1.590528    2.1284284    6.2496335 
 9465000    1.0828905 1.5204696e-05   0.51624422  0.017720295            0   0.49852393    1.6162141    2.1324583    3.1834069 
 9470000    1.0958654 -4.5228146e-05   0.51190934   0.02006115            0   0.49184819    1.6355791    2.1474884  -0.97868105 
 9475000    1.1013533 -2.581909e-05   0.49957318  0.014211209            0   0.48536197    1.6437698     2.143343   0.35872744 
 9480000    1.0586786 2.1644233e-05   0.55102482  0.026982349            0   0.52404247    1.5800778    2.1311027    3.6271521 
 9485000    1.0563417 4.3130235e-05   0.54177174  0.032225295            0   0.50954645      1.57659    2.1183617    5.0995236 
 9490000    1.0548286 2.4586445e-06   0.53806237  0.017739035            0   0.52032333    1.5743317     2.112394    2.2823355 
 9495000    1.0825742 -6.5289451e-06   0.48621448  0.019432501            0   0.46678198    1.6157419    2.1019564    1.6506757 
 9500000    1.0947361 1.9169031e-05   0.45234989  0.022747712            0   0.42960218    1.6338936    2.0862434    3.4112069 
 9505000    1.0025068 6.2175635e-05   0.56666772  0.035065532            0   0.53160219    1.4962414    2.0629091     6.360489 
 9510000   0.94672823 9.2689587e-06   0.64646977  0.035958864            0   0.61051091    1.4129919    2.0594617    2.7001321 
 9515000    1.0109175 2.4844897e-05   0.54549352  0.026403544            0   0.51908998    1.5087943    2.0542879    3.7715671 
 9520000    1.0652633 -9.7717739e-06   0.47305462  0.011630744            0   0.46142388    1.5899055    2.0629601    1.3875351 
 9525000    1.0333586 -4.6125376e-05   0.51978291   0.03396899            0   0.48581392    1.5422877    2.0620706   -1.1261154 
 9530000    1.0630505 -2.1109731e-05   0.48198432  0.017883904            0   0.46410042    1.5866028    2.0685872   0.60948255 
 9535000    1.0112884 2.6728903e-05   0.55605431  0.011920064            0   0.54413425    1.5093479    2.0654022     3.912904 
 9540000    1.0227183 1.7314397e-05   0.53939844   0.01033501            0   0.52906343     1.526407    2.0658054    3.2625766 
 9545000    1.0333436 -1.5392867e-05   0.53034349  0.010563322            0   0.51978017    1.5422653    2.0726088    1.0086538 
 9550000    1.0718991 4.950103e-05   0.46866341  0.029886844            0   0.43877656    1.5998094    2.0684728    5.4899841 
 9555000   0.97800881 6.8093018e-06   0.59553055  0.034134283            0   0.56139627    1.4596781    2.0552087    2.5258676 
 9560000    1.0137858 -6.754823e-05   0.55395207  0.031542283            0   0.52240979    1.5130753    2.0670273   -2.6019063 
 9565000    1.0000428 -1.8021684e-05   0.57151647  0.027782549            0   0.54373392    1.4925638    2.0640803   0.81842146 
 9570000    1.0518823 8.2647034e-06   0.49575861  0.011162927            0   0.48459568    1.5699343    2.0656929    2.6369492 
 9575000    1.0241576 -1.0985069e-05   0.56451911 0.0070411933            0   0.55747792    1.5285552    2.0930743    1.3337864 
 9580000    1.0380044 -2.3980821e-05   0.53754634  0.023975052            0   0.51357128    1.5492215    2.0867679   0.42921352 
 9585000    1.0135381 -3.9763661e-05    0.5855726   0.02893314            0   0.55663946    1.5127057    2.0982783  -0.65018598 
 9590000    1.0416589 -1.7132055e-05   0.53215504  0.011792912            0   0.52036213    1.5546759     2.086831   0.90266337 
 9595000    1.0668112 -3.6244861e-05   0.50051938  0.017129191            0   0.48339019    1.5922157    2.0927351  -0.41250975 
 9600000    1.0198596 -8.7219776e-07   0.53881917     0.016631            0   0.52218817    1.5221404    2.0609596    2.0006733 
 9605000     1.019233 3.9807025e-05   0.53569388  0.020374251            0   0.51531963    1.5212052    2.0568991    4.8083606 
 9610000    1.0048587 -1.3550737e-05   0.56752251 0.0079988613            0   0.55952365    1.4997517    2.0672742    1.1306472 
 9615000    1.0453388 6.4760544e-05   0.51770965 0.0091554627            0   0.50855419    1.5601681    2.0778778    6.5541265 
 9620000    1.0286681 5.278056e-05   0.53493401  0.018491238            0   0.51644277    1.5352872    2.0702212    5.7184135 
 9625000     1.033032 -6.915151e-05   0.52720191  0.025578625            0   0.50162329    1.5418002    2.0690021   -2.7107502 
 9630000    1.0372232 2.9615934e-05   0.53309672   0.02798924            0   0.50510748    1.5480556    2.0811523    4.1282057 
 9635000    1.0683135 6.4697245e-05   0.48575222  0.012617928            0   0.47313429    1.5944579    2.0802101    6.5520837 
 9640000    1.0312219 2.9612562e-05   0.52609684  0.012857801            0   0.51323904    1.5390987    2.0651955    4.1120158 
 9645000    1.0274757 2.3528845e-05   0.52710389  0.029240286            0   0.49786361    1.5335075    2.0606114    3.6869252 
 9650000    1.0176363 -3.8449935e-06   0.53769069  0.041605277            0   0.49608542    1.5188222    2.0565129    1.7907469 
 9655000     1.003791 -1.1507258e-05   0.56278605  0.024250812            0   0.53853523     1.498158    2.0609441    1.2655624 
 9660000   0.99162535 1.0152085e-05   0.59333871  0.015068891            0   0.57826982    1.4800008    2.0733395    2.7750517 
 9665000    1.0915944 6.5061461e-06   0.45160398  0.010151664            0   0.44145232    1.6292047    2.0808087    2.5305135 
 9670000    1.0254378 -2.4864915e-05   0.52182595   0.01229036            0   0.50953559    1.5304659    2.0522918   0.33362893 
 9675000     1.041033 -3.4564197e-05   0.51031506  0.020514934            0   0.48980012    1.5537417    2.0640567  -0.32502055 
 9680000    1.0214693 3.4498752e-05   0.52584999  0.022474623            0   0.50337537    1.5245429    2.0503929    4.4349467 
 9685000    1.0003504 1.352548e-05   0.55007666  0.032640181            0   0.51743648     1.493023    2.0430996    2.9779808 
 9690000    1.0212291 -2.2467925e-05   0.51556821    0.0213336            0   0.49423461    1.5241844    2.0397526   0.48676971 
 9695000   0.98769372 3.2351201e-05   0.56154141  0.017913489            0   0.54362792    1.4741329    2.0356743    4.2717893 
 9700000    1.0104664 2.2940155e-05    0.5226077  0.015379143            0   0.50722855    1.5081211    2.0307288    3.6163524 
 9705000    1.0598082 3.1978819e-05   0.44564387 0.0074994388            0   0.43814443    1.5817637    2.0274076    4.2377836 
 9710000    0.9741879 -5.6408455e-06   0.55800277 0.0074059316            0   0.55059684    1.4539754    2.0119782     1.622083 
 9715000   0.95789526 -3.4595829e-05   0.57817545 0.0036795393            0   0.57449591    1.4296587    2.0078341  -0.38342956 
 9720000   0.98057478 -2.4314236e-05    0.5372799  0.018990755            0   0.51828914    1.4635079    2.0007878   0.32018779 
 9725000     1.015586 -2.612585e-05   0.49940186  0.025251706            0   0.47415016    1.5157622     2.015164   0.20934528 
 9730000   0.97445044 -3.6314352e-05   0.57863154  0.012979571            0   0.56565197    1.4543673    2.0329988  -0.47704918 
 9735000    1.0152096 7.8055499e-06   0.52136633  0.026227816            0   0.49513851    1.5152003    2.0365666    2.5760862 
 9740000    1.0365458 2.6855813e-05   0.50054903  0.010561242            0   0.48998779    1.5470446    2.0475937    3.9038674 
 9745000    1.0313788 4.7870495e-06   0.50637452  0.006076757            0   0.50029777    1.5393328    2.0457074    2.3765882 
 9750000   0.99146866 4.2447775e-05   0.56896088  0.014822755            0   0.55413813     1.479767    2.0487279    4.9827181 
 9755000    1.0127883 -6.1315191e-06   0.50970689  0.022949264            0   0.48675763    1.5115865    2.0212934    1.5974828 
 9760000   0.99674817 -3.9816754e-05   0.52569908  0.033333476            0   0.49236561    1.4876466    2.0133457  -0.73878834 
 9765000   0.98387979 3.3670166e-05   0.53128464  0.024204501            0   0.50708014    1.4684406    1.9997252    4.3270071 
 9770000   0.96140494 -1.5584528e-05   0.54857513  0.027716437            0   0.52085869    1.4348969     1.983472    0.9062694 
 9775000   0.94724739 -7.0115168e-05   0.57061136   0.01323486            0    0.5573765    1.4137667    1.9843781   -2.8619823 
 9780000   0.99646907 -5.7914763e-07   0.50785638  0.018591836            0   0.48926455    1.4872301    1.9950865    1.9550558 
 9785000    1.0182789 2.4799889e-05     0.480241  0.008906662            0   0.47133433    1.5197813    2.0000223    3.7141906 
 9790000   0.94567731 5.4018174e-05    0.5903712  0.019155066            0   0.57121614    1.4114234    2.0017946    5.7355308 
 9795000   0.97117505 2.6423017e-05   0.56397836  0.027710221            0   0.53626814    1.4494788    2.0134571     3.839816 
 9800000    1.0405309 1.4680681e-05   0.46128395 0.0094996721            0   0.45178427    1.5529924    2.0142763     3.029005 
 9805000     1.019711 -6.2999697e-05   0.49000901 0.0061604493            0   0.48384857    1.5219187    2.0119277   -2.3426114 
 9810000   0.98449117 -8.7750801e-05   0.55079062  0.016616513            0   0.53417411    1.4693531    2.0201437   -4.0451917 
 9815000    1.0169626 -4.7432419e-05   0.49733215   0.01455454            0   0.48277761    1.5178167    2.0151489   -1.2633799 
 9820000    1.0042594 6.2358349e-06   0.52121216 0.0098894669            0    0.5113227    1.4988572    2.0200694    2.4510903 
 9825000    1.0250802 4.7848018e-05   0.49278918   0.01028973            0   0.48249945    1.5299322    2.0227214    5.3299764 
 9830000   0.98424943 2.2983078e-05   0.54737159 0.0090356151            0   0.53833598    1.4689923    2.0163639    3.6049542 
 9835000    1.0025948 2.7264882e-05   0.51073926 0.0051496625            0    0.5055896    1.4963728    2.0071121    3.8916607 
 9840000   0.99459043 7.7097954e-05   0.52590477  0.015911599            0   0.50999317    1.4844262     2.010331    7.3393416 
 9845000     1.025145 -5.82355e-06   0.48918472   0.02646329            0   0.46272143    1.5300289    2.0192136    1.6166899 
 9850000   0.99921637 -0.00010504842   0.53075137  0.017958463            0   0.51279291    1.4913304    2.0220818   -5.2388647 
 9855000    1.0025535 -1.4376372e-05   0.52712866  0.023779123            0   0.50334954     1.496311    2.0234397    1.0297449 
 9860000    1.0313436 1.8839047e-05   0.47603197 0.0096101186            0   0.46642185    1.5392804    2.0153124    3.3174673 
 9865000   0.98542518 2.4514541e-06   0.53635342  0.013797393            0   0.52255603    1.4707471    2.0071005     2.176545 
 9870000   0.98480906 -2.8560563e-05   0.55121333  0.032928622            0   0.51828471    1.4698275    2.0210408  0.046934732 
 9875000   0.99562794 -3.4058048e-05   0.53356434    0.0262178            0   0.50734654    1.4859747     2.019539  -0.33455322 
 9880000   0.97911313 1.8117512e-05   0.56874609  0.026775177            0   0.54197091    1.4613263    2.0300724    3.2823549 
 9885000    1.0339436 2.3874532e-05   0.48962722 0.0089456979            0   0.48068153    1.5431609    2.0327881    3.6829957 
 9890000     1.069387 -2.3810613e-05   0.44032599 0.0064631515            0   0.43386284    1.5960601    2.0363861    0.3905965 
 9895000    1.0384456 2.6714082e-07   0.48170655 0.0049274731            0   0.47677908      1.54988    2.0315865    2.0500513 
 9900000    1.0448293 5.556807e-05   0.46379451 0.0043336525            0   0.45946086    1.5594077    2.0232022    5.8640672 
 9905000    1.0030499 2.7382693e-05   0.52330267 0.0099974448            0   0.51330522    1.4970519    2.0203546    3.9130463 
 9910000   0.99977421 1.9010695e-05   0.53489545  0.010824264            0   0.52407118     1.492163    2.0270584    3.3410777 
 9915000    1.0185206 2.2847073e-05    0.4937783  0.017251395            0   0.47652691    1.5201419    2.0139202    3.5931099 
 9920000     1.030725 -1.7453435e-05   0.50184787 0.0081383159            0   0.49370956    1.5383571    2.0402049   0.83382347 
 9925000    1.0233593 8.5920554e-06    0.5240603 0.0095575743            0   0.51450272    1.5273637     2.051424    2.6453069 
 9930000    1.0064315 6.3694674e-05   0.55691254  0.017361262            0   0.53955128    1.5020991    2.0590116    6.4615875 
 9935000     1.040397 1.9506985e-05   0.49241892  0.031386278            0   0.46103264    1.5527925    2.0452114    3.3935342 
 9940000    0.9964587 -1.5929015e-05   0.55713028  0.012122022            0   0.54500825    1.4872146    2.0443449   0.94333135 
 9945000    1.0146299 2.0443684e-05   0.53548301  0.005978186            0   0.52950483    1.5143351    2.0498181    3.4628855 
 9950000    1.0092324 4.0380719e-05   0.54202201 0.0097086043            0   0.53231341    1.5062794    2.0483014    4.8394167 
 9955000   0.98061146 7.4920131e-05   0.56383912  0.022050407            0   0.54178871    1.4635626    2.0274017    7.2058812 
 9960000   0.94803826 -8.2182471e-06   0.59157183  0.037645865            0   0.55392596    1.4149471    2.0065189    1.4384737 
 9965000   0.98020814 -6.1419457e-05   0.52962477   0.03233005            0   0.49729472    1.4629606    1.9925854   -2.2527274 
 9970000   0.98116926 1.4659709e-05   0.53468471  0.027840384            0   0.50684433    1.4643951    1.9990798    3.0123589 
 9975000   0.96277667 2.386815e-05   0.56577895  0.043836218            0   0.52194273    1.4369442    2.0027231    3.6524897 
 9980000    1.0378312 8.6599587e-07   0.44769168  0.021622843            0   0.42606884     1.548963    1.9966547    2.0565123 
 9985000    1.0089172 -3.2538045e-05   0.49726566 0.0078135999            0   0.48945206    1.5058089    2.0030746   -0.2459551 
 9990000   0.97324452 -1.5739628e-05   0.54850345 0.0097773594            0   0.53872609    1.4525675    2.0010709   0.91314779 
 9995000    1.0034677 6.2092057e-05   0.49317169  0.038271761            0   0.45489993    1.4976755    1.9908472    6.2826502 
10000000   0.99631616 3.7433621e-05   0.50509512  0.026610349            0   0.47848477    1.4870019     1.992097    4.5795089 
10005000   0.96034809 -2.5836641e-05    0.5647639  0.022924086            0   0.54183981    1.4333195    1.9980834    0.2122548 
10010000   0.95837524 -4.7050251e-06   0.54091541  0.018137837            0   0.52277757     1.430375    1.9712905    1.6460791 
10015000   0.95633534 -1.5298647e-05     0.533466  0.012053883            0   0.52141211    1.4273305    1.9607965   0.90335401 
10020000   0.99554886 -2.0007756e-05   0.48251879 0.0096964185            0   0.47282237    1.4858567    1.9683755    0.5854394 
10025000   0.92449508 2.7114955e-07   0.57341969 0.0084362411            0   0.56498345    1.3798089    1.9532286    1.9719705 
10030000    0.9820516 -3.0680107e-06   0.49274189 0.0046320674            0   0.48810982     1.465712    1.9584539     1.746393 
10035000    0.9846536 3.400238e-05   0.50596024  0.011915475            0   0.49404476    1.4695955    1.9755557    4.3258002 
10040000    0.9635884 6.6748121e-05   0.52905927  0.035365497            0   0.49369377    1.4381557     1.967215    6.5808451 
10045000   0.93514261 6.6814548e-06   0.56920779  0.025402333            0   0.54380546    1.3957003    1.9649081    2.4267303 
10050000   0.98688416 -2.4609652e-05   0.48367788    0.0282715            0   0.45540638    1.4729246    1.9566025   0.25558337 
10055000   0.95840969 -7.5106817e-06     0.518062   0.02294306            0   0.49511894    1.4304265    1.9484885    1.4293501 
10060000    1.0118058 -6.7692836e-05   0.43817607  0.021022828            0   0.41715324    1.5101202    1.9482962   -2.7306326 
10065000   0.94166307 -4.0029971e-05   0.53056542 0.0083996659            0   0.52216575    1.4054321    1.9359976  -0.83087404 
10070000   0.96241466 7.119285e-05   0.48879586 0.0037620593            0   0.48503381    1.4364039    1.9251997    6.8460495 
10075000   0.95564874 -1.0228756e-05   0.49563089  0.010514427            0   0.48511647    1.4263057    1.9219366     1.214925 
10080000   0.97755614 -3.651326e-05   0.46779456  0.031340967            0   0.43645359    1.4590025    1.9267971  -0.59699943 
10085000   0.94292517 7.5118751e-05   0.52908079  0.021247898            0   0.50783289    1.4073158    1.9363966    7.1286047 
10090000   0.96622732 -2.6761091e-05   0.49656536 0.0045364584            0    0.4920289    1.4420943    1.9386596  0.088932995 
10095000   0.94071083 -6.2122739e-05    0.5342302 0.0046072718            0   0.52962293    1.4040109    1.9382411   -2.3556826 
10100000   0.96842974 7.1257875e-06   0.50816094 0.0096651888            0   0.49849575    1.4453814    1.9535423    2.4460768 
10105000    0.9965433 1.6187818e-05   0.45659365  0.029900646            0     0.426693    1.4873409    1.9439345    3.0628365 
10110000   0.99728255 -2.0521584e-05   0.47717003    0.0337649            0   0.44340513    1.4884442    1.9656142   0.54716236 
10115000   0.93471355 -7.1627565e-06   0.54889171  0.023457546            0   0.52543417      1.39506    1.9439517     1.448862 
10120000   0.97833136 -4.0074375e-05   0.47210973 0.0065020329            0    0.4656077    1.4601596    1.9322693  -0.83767154 
10125000   0.92349673 -5.1571432e-05   0.54979679  0.011199017            0   0.53859778    1.3783189    1.9281157   -1.6365017 
10130000   0.96123848 -4.6232485e-05   0.49049187   0.01457623            0   0.47591564    1.4346484    1.9251403    -1.270449 
10135000   0.96713662 -1.2240907e-05   0.48356376  0.011040092            0   0.47252366    1.4434514    1.9270152    1.0809237 
10140000   0.96281609 6.6680263e-06   0.49104452  0.017822767            0   0.47322175     1.437003    1.9280475    2.3889415 
10145000   0.95724471 2.6253104e-05    0.5009235  0.033369407            0   0.46755409    1.4286877    1.9296112    3.7442258 
10150000   0.98901955 1.2518121e-05   0.45665178  0.013063307            0   0.44358847    1.4761117    1.9327635     2.798016 
10155000   0.96768869 -5.4230902e-05   0.49505144  0.012969464            0   0.48208198    1.4442754    1.9393268   -1.8091131 
10160000   0.94313887 -1.9453387e-05   0.54302993  0.055626712            0   0.48740322    1.4076348    1.9506647   0.60604657 
10165000   0.94081893 3.6936171e-05   0.54079093  0.053541499            0   0.48724943    1.4041723    1.9449632    4.4979913 
10170000   0.98088345 6.651387e-05   0.48359717   0.02124309            0   0.46235408    1.4639685    1.9475657    6.5450044 
10175000    1.0050652 3.6191798e-05     0.454055  0.041560149            0   0.41249486    1.5000598    1.9541148    4.4556919 
10180000   0.96888649 2.7433883e-05   0.50994874  0.023451986            0   0.48649676    1.4460631    1.9560118    3.8522418 
10185000   0.95538797 2.9299501e-05   0.55124705 0.0056931651            0   0.54555389    1.4259165    1.9771636    4.0023451 
10190000   0.97497966 -2.6691429e-05   0.50593677  0.015671808            0   0.49026496    1.4551571    1.9610939   0.11618233 
10195000   0.99195879 -2.6229044e-05   0.47387988  0.014279401            0   0.45960048    1.4804985    1.9543784   0.14142682 
10200000   0.96595177 -3.307677e-05   0.50562755 0.0040423168            0   0.50158523     1.441683    1.9473106   -0.3389558 
10205000   0.96588702 1.079283e-05   0.50428804  0.014643231            0    0.4896448    1.4415864    1.9458744    2.6918748 
10210000   0.98596907 4.3052617e-06   0.49124159  0.034978961            0   0.45626263    1.4715588    1.9628004    2.2603801 
10215000   0.97177111 2.3198884e-05   0.50855045  0.033451477            0   0.47509898    1.4503684    1.9589188    3.5624257 
10220000   0.92645638 3.0546529e-05   0.55635903  0.033754043            0   0.52260499    1.3827362    1.9390952    4.0504713 
10225000    1.0114198 -4.2592321e-05   0.43985383  0.025766714            0   0.41408712     1.509544    1.9493978  -0.99458342 
10230000   0.90582663 -6.6908819e-05   0.61075095  0.023295685            0   0.58745527    1.3519462    1.9626972   -2.6620404 
10235000    1.0006811 -2.8914427e-05   0.47191209  0.029095042            0   0.44281705    1.4935165    1.9654286 -0.033136548 
10240000    1.0008813 -2.8661029e-05   0.49123189  0.032199092            0    0.4590328    1.4938154    1.9850473 0.0039969531 
10245000   0.96878102 -1.7199024e-05   0.55764408  0.024668664            0   0.53297541    1.4459057    2.0035497   0.81475321 
10250000    1.0087014 3.0838738e-05   0.47838567  0.014029833            0   0.46435584    1.5054869    1.9838726    4.1154462 
10255000    0.9775572 1.4980142e-05    0.5364919  0.016225676            0   0.52026622    1.4590041     1.995496    3.0309234 
10260000    1.0220636 6.0060366e-05   0.45793508  0.013803301            0   0.44413178    1.5254299     1.983365    6.1347374 
10265000    1.0128726 2.5986737e-05   0.45951823  0.016035693            0   0.44348254    1.5117124    1.9712306    3.7674339 
10270000   0.95201289 -3.5929353e-05   0.54054446  0.024474258            0    0.5160702    1.4208792    1.9614237  -0.52201322 
10275000   0.98732277 -2.0030866e-05   0.47509548  0.011577349            0   0.46351813    1.4735792    1.9486747   0.56414126 
10280000    1.0248875 2.8835803e-05   0.41795343  0.011411925            0    0.4065415    1.5296446     1.947598    3.9407287 
10285000   0.97773374 2.7808422e-05   0.48424153  0.022728146            0   0.46151339    1.4592676    1.9435091    3.8656272 
10290000   0.94900094 1.9769089e-05   0.53603012  0.028139747            0   0.50789037    1.4163839     1.952414    3.3188535 
10295000   0.93728205 9.679577e-06    0.5202009  0.021736075            0   0.49846482    1.3988935    1.9190944    2.5881467 
10300000   0.99976275 2.4598028e-06   0.43976646   0.02331301            0   0.41645345    1.4921459    1.9319124    2.1019339 
10305000    0.9492612 -1.7670265e-05   0.49930423   0.01896191            0   0.48034232    1.4167723    1.9160766   0.69470786 
10310000   0.94445584 -3.2317159e-05   0.52143625  0.014349942            0   0.50708631    1.4096003    1.9310366  -0.30272545 
10315000   0.97976639 2.1442714e-05   0.46563006  0.013619203            0   0.45201086    1.4623013    1.9279314    3.4100518 
10320000   0.94933607 -1.1568899e-05   0.53218645  0.013240287            0   0.51894617    1.4168841    1.9490705    1.1494282 
10325000   0.97501865 -2.3814291e-05   0.48093824  0.015838686            0   0.46509956    1.4552153    1.9361536   0.29010976 
10330000   0.98176576 -4.5003347e-05   0.47734404  0.023396314            0   0.45394773    1.4652854    1.9426294   -1.1680019 
10335000    1.0082053 -3.665228e-05   0.41689092  0.032221475            0   0.38466944    1.5047464    1.9216374  -0.61176825 
10340000   0.90154335 1.3633714e-05   0.57102839   0.04348458            0   0.52754382    1.3455535    1.9165819    2.8589442 
10345000   0.96612055 3.111222e-05    0.4923656  0.023128805            0    0.4692368    1.4419349    1.9343005    4.0847772 
10350000   0.97132481 -1.3944155e-06   0.47942302  0.012282921            0    0.4671401    1.4497023    1.9291253    1.8327433 
10355000   0.98477315 9.5230577e-06   0.44037219  0.013756062            0   0.42661613    1.4697739    1.9101461    2.5683799 
10360000   0.90770062 -1.9455479e-06   0.55654985  0.024596693            0   0.53195316    1.3547432     1.911293    1.7768168 
10365000   0.95385683 3.1282607e-06   0.48543186  0.029580358            0   0.45585151    1.4236313    1.9090632    2.1252886 
10370000   0.93665587 -5.9511105e-05   0.50309131  0.014818774            0   0.48827254    1.3979589    1.9010502   -2.2123574 
10375000   0.94418135 -2.979453e-05   0.48940646 0.0077052934            0   0.48170116    1.4091907    1.8985971  -0.16080078 
10380000    1.0008855 4.4145916e-05   0.41111158  0.012846574            0     0.398265    1.4938217    1.9049332     4.956299 
10385000   0.91358378 1.7905799e-05   0.53043578  0.025825978            0   0.50460981    1.3635238    1.8939596    3.1316084 
10390000    0.9289285 1.1473642e-05   0.51939699  0.009235742            0   0.51016124    1.3864258    1.9058228    2.6988809 
10395000   0.98120046 4.9884727e-06   0.43195449  0.012500288            0   0.41945421    1.4644417    1.8963962    2.2411994 
10400000   0.93162368 -3.4328541e-05   0.52344491  0.018555672            0   0.50488924    1.3904483    1.9138933  -0.45889551 
10405000   0.94291419 -4.5610219e-05   0.51203865   0.02078976            0   0.49124889    1.4072994    1.9193381   -1.2332402 
10410000   0.93609647 5.3696045e-06   0.53200346  0.031460939            0   0.50054252     1.397124    1.9291274    2.3002745 
10415000   0.94659811 -6.6179041e-06   0.52204151  0.036821635            0   0.48521988    1.4127977    1.9348392    1.4774097 
10420000   0.98427222 -9.2477234e-06   0.47655697  0.015322134            0   0.46123484    1.4690263    1.9455833    1.3063806 
10425000    1.0178074 3.8530853e-05    0.4385592  0.029321276            0   0.40923793    1.5190775    1.9576367    4.6208893 
10430000    1.0201066 -4.2520707e-05   0.43581794  0.035201265            0   0.40061667    1.5225091     1.958327  -0.98070429 
10435000   0.96222094 -2.5467189e-05   0.50708222  0.026127359            0   0.48095486    1.4361148     1.943197    0.1829049 
10440000   0.99131414 5.4315892e-05   0.47603185  0.025981369            0   0.45005048    1.4795364    1.9555682    5.7098827 
10445000   0.94311789 4.5867167e-05   0.54210178  0.015356733            0   0.52674504    1.4076035    1.9497052    5.1200438 
10450000   0.95511361 5.4516892e-05   0.52321351  0.010053764            0   0.51315975    1.4255071    1.9487206    5.7169281 
10455000   0.95024028 2.4769912e-05   0.52656583  0.031141651            0   0.49542418    1.4182336    1.9447994    3.6568958 
10460000   0.98206244 -2.5115159e-05   0.49221279  0.028870201            0   0.46334259    1.4657282     1.957941   0.22198119 
10465000    1.0045235 -3.1564709e-05   0.49158648  0.026947583            0    0.4646389    1.4992513    1.9908378  -0.19091493 
10470000   0.98322071 -5.4215146e-05   0.51315113  0.012205568            0   0.50094556    1.4674569     1.980608   -1.7667429 
10475000   0.94049456 -3.9602116e-05   0.57071585  0.008418416            0   0.56229743    1.4036881     1.974404   -0.7628943 
10480000   0.96992539 6.346655e-06   0.50966499  0.014857345            0   0.49480764    1.4476136    1.9572786    2.3959594 
10485000   0.97263094 2.3886348e-06   0.50711799  0.015973677            0   0.49114431    1.4516517    1.9587697    2.1238721 
10490000   0.97450652 -2.801235e-06   0.49396769  0.011462081            0   0.48250561     1.454451    1.9484187    1.7547973 
10495000   0.95334209 -1.7212695e-06    0.5375768 0.0086341577            0   0.52894265    1.4228631    1.9604399    1.8414657 
10500000   0.98461215 -1.5269639e-06   0.49118827  0.016218996            0   0.47496927    1.4695336    1.9607219    1.8551782 
10505000    1.0420545 1.269834e-06   0.40001356  0.028601762            0    0.3714118    1.5552663    1.9552799    2.0430508 
10510000   0.98739334 -1.0954329e-05   0.49576227  0.034125315            0   0.46163696    1.4736846    1.9694468    1.2122836 
10515000    1.0218135 1.9568346e-06   0.44798593  0.009776797            0   0.43820913    1.5250566    1.9730426     2.108299 
10520000    0.9745756 8.1662811e-05   0.53898599  0.017535071            0   0.52145092    1.4545541    1.9935401    7.6380736 
10525000    1.0098669 9.0965278e-05   0.50300015   0.01825448            0   0.48474567    1.5072264    2.0102265    8.2977466 
10530000   0.97972847 -5.5318766e-06   0.54567972  0.033976106            0   0.51170362    1.4622447    2.0079245    1.6255612 
10535000    1.0296618 -2.9703564e-05   0.45454676  0.023935865            0    0.4306109    1.5367702    1.9913169 -0.061793387 
10540000   0.96369034 -6.9505076e-06   0.52769576  0.012021396            0   0.51567437    1.4383078    1.9660036    1.4855845 
10545000   0.96980772 -2.856669e-06   0.52117802  0.033253471            0   0.48792455     1.447438     1.968616    1.7711631 
10550000   0.97752477 3.828642e-05   0.51458232  0.013688166            0   0.50089416    1.4589557     1.973538    4.6198954 
10555000   0.98974178 3.7785157e-05    0.5096333   0.01260789            0   0.49702541    1.4771896    1.9868229    4.5985329 
10560000   0.99690223 -6.4246573e-06   0.50102147  0.018296779            0   0.48272469    1.4878766     1.988898    1.5448257 
10565000   0.95800517 7.5286823e-06   0.53798574  0.017491781            0   0.52049396    1.4298227    1.9678085     2.488191 
10570000    1.0183598 4.3096764e-05   0.43922512  0.012000476            0   0.42722464     1.519902    1.9591271    4.9379754 
10575000    1.0090737 6.235038e-05   0.46126515  0.012750755            0    0.4485144    1.5060426    1.9673077     6.276966 
10580000   0.92779291 -6.1953502e-06   0.56225651   0.01947354            0   0.54278297    1.3847309    1.9469874    1.5187648 
10585000   0.96545449 -4.72808e-06    0.5151244  0.011388557            0   0.50373585    1.4409408    1.9560652    1.6292603 
10590000    1.0165028 2.1131052e-06   0.44900062  0.012823846            0   0.43617677    1.5171305    1.9661311    2.1121889 
10595000   0.94765973 -4.3667108e-05    0.5428518  0.039517228            0   0.50333457    1.4143822    1.9572339   -1.0610366 
10600000   0.94841673 -5.4562537e-05   0.54932072  0.041440239            0   0.50788048     1.415512    1.9648327   -1.8065299 
10605000   0.97706002 -3.7884884e-05   0.52304534  0.023564199            0   0.49948114    1.4582621    1.9813074  -0.63729578 
10610000    0.9877853 2.5090276e-06   0.50748288 0.0076131268            0   0.49986976    1.4742696    1.9817524    2.1551764 
10615000   0.97990242 3.1294073e-05   0.52826035  0.012615744            0    0.5156446    1.4625044    1.9907647     4.153811 
10620000    1.0387879 4.9631868e-05    0.4431684  0.015026983            0   0.42814142     1.550391    1.9935594    5.4241141 
10625000   0.94138241 4.0142229e-05   0.58912382  0.021500626            0    0.5676232    1.4050132    1.9941371    4.7687679 
10630000   0.96041503 -4.6310826e-06   0.55216481  0.027936574            0   0.52422823    1.4334194    1.9855842    1.6654838 
10635000    1.0391385 5.6722478e-06   0.42916202 0.0083953429            0   0.42076668    1.5509143    1.9800763    2.3721421 
10640000   0.95935244 -3.0019436e-06   0.53167162  0.010344885            0   0.52132674    1.4318335    1.9635051    1.7560108 
10645000    1.0186643 3.8638669e-05   0.46089662  0.014116489            0   0.44678013    1.5203565    1.9812531    4.6519579 
10650000    0.9867973 5.5425818e-05   0.51914181 0.0080732756            0   0.51106853     1.472795    1.9919368    5.8229693 
10655000   0.97084836 2.6661038e-06   0.54108137 0.0050351139            0   0.53604625    1.4489912    1.9900726    2.1743536 
10660000   0.95125077 -1.4910029e-05   0.56789618  0.010933602            0   0.55696258    1.4197418     1.987638   0.95705672 
10665000   0.97205978 1.7300596e-05   0.55707707  0.025046181            0   0.53203089    1.4507992    2.0078763    3.2036935 
10670000   0.99276602 6.1408898e-05    0.5288054  0.021776746            0   0.50702865    1.4817033    2.0105087    6.2550917 
10675000   0.97183183 2.528331e-05   0.55526546  0.015999726            0   0.53926573     1.450459    2.0057245    3.7533069 
10680000     1.001175 -4.2831746e-05   0.53973881   0.02619763            0   0.51354118    1.4942537    2.0339925  -0.92653778 
10685000    1.0168503 -2.6531261e-05   0.51527382  0.015243686            0   0.50003014     1.517649    2.0329228   0.19908211 
10690000    1.0466642 -4.509283e-05    0.5050564 0.0079197253            0   0.49713668    1.5621464    2.0672028   -1.0496136 
10695000     1.024468 -3.920879e-05   0.53485828  0.011384257            0   0.52347403    1.5290186    2.0638768  -0.64623475 
10700000   0.98109669 -1.3639108e-05   0.60684709 0.0074599797            0   0.59938711    1.4642868    2.0711339    1.1283987 
10705000    1.0430268 -4.3712197e-05   0.51688301  0.011989556            0   0.50489346    1.5567176    2.0736006   -0.9477865 
10710000    1.0239244 -6.6204277e-05   0.54787285  0.023191943            0   0.52468091    1.5282072    2.0760801   -2.4999595 
10715000    1.0634242 1.3832159e-06   0.48480774  0.015031309            0   0.46977643    1.5871607    2.0719684    2.1675763 
10720000    1.0679888 5.6660772e-05   0.51025479  0.010385451            0   0.49986934    1.5939732     2.104228    6.0206206 
10725000    1.0687946 3.0289427e-05   0.51756021  0.012515288            0   0.50504492    1.5951759    2.1127361    4.2063413 
10730000    1.0451396 3.8364329e-05   0.53568418  0.020670369            0   0.51501381    1.5598708     2.095555    4.7472974 
10735000     1.006958 -1.2384656e-06   0.60889541  0.046332103            0   0.56256331    1.5028848    2.1117802    2.0261775 
10740000     1.032519 -2.2384178e-05   0.57943697  0.021994829            0   0.55744214    1.5410346    2.1204716   0.57327721 
10745000    1.0698887 1.0679521e-05   0.51350274 0.0064200218            0   0.50708272    1.5968089    2.1103116    2.8484801 
10750000    1.0706921 -2.5690462e-05   0.50109068  0.018673841            0   0.48241683    1.5980079    2.0990986   0.32337386 
10755000    1.1023929 4.5931337e-05   0.45179622  0.023720074            0   0.42807615    1.6453214    2.0971176    5.2718916 
10760000    1.0852618 4.5364479e-05   0.47732713  0.010019907            0   0.46730722    1.6197532    2.0970804    5.2326731 
10765000    1.0326276 1.5371528e-05    0.5464959  0.026838634            0   0.51965726    1.5411968    2.0876927    3.1501727 
10770000    1.0656053 3.6132298e-05   0.50931833  0.016038239            0    0.4932801    1.5904159    2.0997343    4.5971987 
10775000   0.99747572 2.9641958e-05   0.59654008  0.031326175            0   0.56521391    1.4887325    2.0852726    4.1341248 
10780000    1.0132439 6.5546647e-05   0.57862037  0.013057372            0     0.565563    1.5122665    2.0908869    6.6214711 
10785000    1.0293142 3.2125385e-06   0.55574052  0.010018654            0   0.54572187    1.5362514    2.0919919    2.3140426 
10790000    1.0179995 2.3631471e-06   0.58876917   0.02554541            0   0.56322376    1.5193642    2.1081334    2.2714741 
10795000    1.0437563 7.4388323e-05   0.55861565  0.032791738            0   0.52582392    1.5578062    2.1164219    7.2581428 
10800000    1.0980977 5.699843e-05   0.46452109  0.037118072            0   0.42740302    1.6389109     2.103432    6.0431635 
10805000     1.066094 -3.8256075e-05   0.51789685  0.038020054            0    0.4798768    1.5911452    2.1090421  -0.53521779 
10810000    1.0708942 -1.5173792e-05   0.51267337  0.029389232            0   0.48328414    1.5983096     2.110983    1.0621705 
10815000   0.99312254 -4.6670419e-06   0.63513411  0.055833604            0   0.57930051    1.4822354    2.1173695    1.7947836 
10820000    1.0730997 -2.3728489e-05   0.54164579  0.052908716            0   0.48873707    1.6016013     2.143247   0.50313387 
10825000    1.0759694 -4.9277561e-05   0.53617743  0.010776408            0   0.52540102    1.6058843    2.1420617   -1.2640033 
10830000    1.0507707 -2.8997547e-05   0.57236154 0.0057500396            0    0.5666115    1.5682753    2.1406369   0.13632644 
10835000    1.0871807 -2.8475925e-05    0.5124581 0.0096937426            0   0.50276435    1.6226172    2.1350753   0.16681935 
10840000    1.0825045 -4.6179223e-05   0.52005363  0.013225872            0   0.50682775     1.615638    2.1356916   -1.0562163 
10845000   0.99941558 -1.3632188e-05   0.61506942  0.023799219            0    0.5912702    1.4916278    2.1066972    1.1644403 
10850000    1.0882891 -3.4167453e-05   0.49613062  0.019092654            0   0.47703797    1.6242714     2.120402  -0.24125233 
10855000    1.0693312 -9.133206e-06   0.51081242   0.02898341            0   0.48182901    1.5959768    2.1067893    1.4755021 
10860000      1.06981 4.0396247e-05   0.53288681  0.029746306            0   0.50314051    1.5966915    2.1295783    4.9217669 
10865000    1.0710293 6.043522e-06   0.53587347  0.025836416            0   0.51003705    1.5985112    2.1343847     2.552113 
10870000    1.0527501 -4.142437e-05   0.55004229   0.02470474            0   0.52533755    1.5712295    2.1212718  -0.74198068 
10875000    1.0295648  2.58079e-06   0.56366984  0.027733364            0   0.53593648    1.5366255    2.1002954    2.2786796 
10880000    1.0478807 2.2303595e-05   0.55234438  0.019288591            0   0.53305579    1.5639619    2.1163063    3.6579307 
10885000    1.0478599 1.6655557e-06    0.5477253  0.022613956            0   0.52511134    1.5639309    2.1116562    2.2267794 
10890000    1.0075451 1.2861808e-05   0.61248449  0.039170427            0   0.57331406    1.5037611    2.1162456    3.0052538 
10895000    1.0432204 -3.4977838e-05   0.56383675  0.026446188            0   0.53739057    1.5570064    2.1208432    -0.296825 
10900000    1.0453998 1.4283055e-05   0.58081857  0.029820814            0   0.55099775    1.5602592    2.1410778    3.1283226 
10905000    1.0690277 4.9879867e-05   0.55110359  0.033934542            0   0.51716905    1.5955239    2.1466275    5.5943239 
10910000    1.0751451 9.2810972e-05   0.52862354   0.04633194            0    0.4822916     1.604654    2.1332776    8.5483719 
10915000    1.0186342 -2.9849163e-05   0.60803132  0.042294937            0   0.56573638    1.5203116    2.1283429   0.06516882 
10920000    1.0929337 -4.1193403e-05   0.49659088  0.018564145            0   0.47802674    1.6312036    2.1277945  -0.71949354 
10925000    1.0652921 4.3390895e-05   0.55004122 0.0071890524            0   0.54285217    1.5899485    2.1399897    5.1391684 
10930000    1.0596441 -1.9954053e-05   0.55145523  0.019029497            0   0.53242574    1.5815189    2.1329741   0.75374997 
10935000    1.0391264 1.0154193e-05   0.56306689  0.019492553            0   0.54357433    1.5508962    2.1139631    2.8158209 
10940000    1.0660568 4.0214891e-05    0.5319512  0.015792005            0    0.5161592    1.5910897    2.1230409    4.9026942 
10945000    1.0927912 -3.0225497e-05   0.49148942 0.0023329849            0   0.48915644    1.6309909    2.1224804  0.033294013 
10950000    1.0316344 -1.7751431e-05   0.55230986  0.012613634            0   0.53969622    1.5397144    2.0920242   0.86504531 
10955000    1.0807272 -3.1241974e-05   0.46478006  0.021767159            0    0.4430129    1.6129854    2.0777654 -0.081679799 
10960000    1.0374825 1.5892634e-06   0.53414668  0.035299109            0   0.49884757    1.5484426    2.0825893    2.1924392 
10965000    1.0329694 7.6412952e-06   0.53749639  0.028681748            0   0.50881464    1.5417068    2.0792032    2.6073695 
10970000      1.03895 -4.8831984e-05   0.54925735  0.034707406            0   0.51454995    1.5506329    2.0998903   -1.2753765 
10975000    1.0485261 6.4925634e-05    0.5065913  0.025196475            0   0.48139482    1.5649252    2.0715165    6.5591763 
10980000    1.0615568 4.5421764e-05   0.48217863  0.019953693            0   0.46222494    1.5843736    2.0665522    5.2061045 
10985000    1.0276166 -3.5774226e-06   0.53652366  0.025628908            0   0.51089476    1.5337178    2.0702414      1.82297 
10990000    1.0032963 9.544479e-06   0.56791873  0.017272436            0   0.55064629    1.4974198    2.0653385    2.7250529 
10995000     1.002907 2.4374299e-05   0.56620345     0.010914            0   0.55528946    1.4968387    2.0630421    3.7477937 
11000000   0.98767953 4.1623208e-05   0.59114797   0.01391717            0    0.5772308    1.4741117    2.0652597    4.9422558 
11005000    1.0232396 -3.1522337e-05   0.53382183  0.024609098            0   0.50921273    1.5271851     2.061007  -0.11781696 
11010000    1.0000491 -3.2562234e-05   0.55312753  0.016709018            0   0.53641851    1.4925733    2.0457008  -0.20500084 
11015000    1.0325548 -1.7666275e-05    0.4858847  0.015223121            0   0.47066158     1.541088    2.0269727   0.80587982 
11020000   0.96227773 -9.601127e-06   0.59245716    0.0182077            0   0.57424946    1.4361995    2.0286567    1.3650268 
11025000    1.0611367 6.3929745e-05   0.47987146  0.014755759            0    0.4651157    1.5837465     2.063618     6.482442 
11030000    1.0058943 5.9384847e-05   0.56076006  0.016924092            0   0.54383597    1.5012972    2.0620573    6.1667379 
11035000     1.054163 -2.2850869e-05   0.49135042   0.01533399            0   0.47601643    1.5733383    2.0646887   0.48523663 
11040000    1.0184187 1.638825e-05    0.5268093  0.021128587            0   0.50568071    1.5199899    2.0467992     3.179555 
11045000    1.0225318 1.6708131e-05   0.52428622  0.017752528            0   0.50653369    1.5261288     2.050415     3.205281 
11050000    1.0769328 1.4094266e-05   0.41824824  0.016164515            0   0.40208373    1.6073222    2.0255704    2.9997661 
11055000    1.0008643 -3.256395e-05   0.51341174  0.012557631            0   0.50085411      1.49379    2.0072018   -0.2436185 
11060000   0.99001822 -1.3233246e-05   0.51902571   0.02744595            0   0.49157976    1.4776022    1.9966279    1.0819459 
11065000   0.97089846 2.9993976e-05   0.55101372   0.03116261            0   0.51985111    1.4490659    2.0000797    4.0732633 
11070000   0.97748833 4.1770799e-05   0.52908782  0.022373622            0   0.50671419    1.4589013    1.9879891    4.8751868 
11075000    1.0006187 1.7570956e-05   0.49407348  0.019446318            0   0.47462716    1.4934235    1.9874969    3.2020014 
11080000   0.96157652 -3.8512416e-05    0.5452675  0.023179463            0   0.52208804     1.435153    1.9804205  -0.68155772 
11085000   0.99097905 1.8594094e-05   0.51783045  0.013410865            0   0.50441959    1.4790362    1.9968667    3.2820905 
11090000    1.0337901 2.7948307e-05   0.44014362 0.0055443876            0   0.43459923    1.5429318    1.9830754    3.9148624 
11095000   0.99118358 8.5905891e-06   0.49149877  0.011242217            0   0.48025655    1.4793415    1.9708403    2.5646218 
11100000   0.98750743 6.2631171e-05    0.5078204   0.02255377            0   0.48526663    1.4738548    1.9816752    6.3107418 
11105000   0.97214502 -4.7194813e-05   0.51501286  0.028038843            0   0.48697401    1.4509264    1.9659393   -1.2961661 
11110000   0.96260148 -3.069512e-05   0.55206409   0.02745652            0   0.52460757    1.4366827    1.9887468  -0.13289989 
11115000   0.98142864 -3.4095433e-05   0.52076876  0.014337364            0   0.50643139    1.4647822     1.985551  -0.37112534 
11120000    1.0119128 6.2836517e-06   0.48709434  0.014063085            0   0.47303126    1.5102799    1.9973742    2.4317002 
11125000    0.9829151 1.9146678e-05   0.54084971 0.0084128834            0   0.53243682    1.4670008    2.0078505    3.3312689 
11130000      1.01687 -2.645007e-05   0.49189524  0.014955935            0    0.4769393    1.5176784    2.0095736   0.18134479 
11135000    1.0272348 4.1818035e-05   0.47598826  0.012665712            0   0.46332255     1.533148    2.0091362    4.8995988 
11140000    1.0228375 7.2794552e-05   0.50294672 0.0065118986            0   0.49643482     1.526585    2.0295317    7.0610911 
11145000    1.0521325 -2.8250593e-05    0.4573476 0.0029076839            0   0.45443991    1.5703078    2.0276554    0.0749744 
11150000    1.0144086 -5.1584185e-05   0.51988245  0.010906789            0   0.50897566    1.5140049    2.0338873   -1.5316115 
11155000    1.0444931 1.2460099e-06   0.46412554 0.0070174352            0    0.4571081    1.5589059    2.0230315    2.1091557 
11160000    1.0057824 -4.1485889e-06   0.53143417 0.0097429725            0   0.52169119    1.5011302    2.0325644    1.7458139 
11165000    1.0371122 1.0174795e-05   0.48247212 0.0085124479            0   0.47395967    1.5478899    2.0303621    2.7336439 
11170000   0.97785266 4.3948879e-05   0.57261623  0.034868511            0   0.53774772    1.4594451    2.0320613    5.0698078 
11175000    1.0233597 -5.7365877e-06   0.51197878  0.020926646            0   0.49105213    1.5273643    2.0393431    1.6428302 
11180000    1.0038068 -2.8966496e-05   0.54025517  0.013845474            0    0.5264097    1.4981817    2.0384368  0.036272648 
11185000    0.9682765 -4.5460068e-05   0.56524507  0.011962744            0   0.55328232    1.4451527    2.0103977   -1.1318022 
11190000      1.01494 1.3278678e-05   0.48894163  0.016867812            0   0.47207382    1.5147979    2.0037395    2.9215618 
11195000    0.9736928 3.5689405e-05   0.55934799  0.030319342            0   0.52902864    1.4532365    2.0125845    4.4794362 
11200000    1.0331044 4.5690402e-05   0.43503337  0.029477912            0   0.40555545    1.5419083    1.9769417    5.1350623 
11205000    1.0184467 3.3663903e-05    0.4853478  0.017119072            0   0.46822873    1.5200317    2.0053795    4.3322285 
11210000    1.0339275 -1.1763482e-05   0.46720492 0.0081519186            0   0.45905301    1.5431367    2.0103417    1.1972498 
11215000    1.0147554 -6.5932817e-05   0.52099728  0.021912734            0   0.49908454    1.5145224    2.0355197   -2.5217566 
11220000    1.0086059 -4.8382407e-05   0.54273301  0.022907739            0   0.51982527    1.5053442    2.0480773   -1.2961147 
11225000    1.0352039 8.8906652e-05   0.49058063  0.020361302            0   0.47021932    1.5450418    2.0356225    8.1808502 
11230000   0.99169946 7.5825058e-05    0.5587245  0.018051144            0   0.54067336    1.4801114    2.0388359    7.2798639 
11235000    1.0449632 3.4584235e-05    0.4619008  0.011340962            0   0.45055984    1.5596076    2.0215084    4.4119707 
11240000   0.98596195 1.1440505e-05   0.54606048  0.010740676            0    0.5353198    1.4715482    2.0176087    2.8083764 
11245000   0.98877443 -1.7813285e-05   0.52239288  0.023853418            0   0.49853946    1.4757458    1.9981387   0.76688448 
11250000   0.99221884 -1.8092399e-05   0.51541431   0.04346034            0   0.47195397    1.4808866    1.9963009   0.74575432 
11255000     1.033645 1.3450669e-05   0.45917843  0.026620711            0   0.43255772    1.5427152    2.0018936    2.9316039 
11260000   0.98632322 3.1631913e-05   0.52331229  0.014400991            0   0.50891129    1.4720874    1.9953997    4.1817975 
11265000    1.0093358 -7.7482932e-06   0.50466653  0.029909427            0    0.4747571    1.5064337    2.0111002    1.4755382 
11270000    1.0167217 -3.2581709e-05   0.48193209  0.026802424            0   0.45512967    1.5174572    1.9993893  -0.25265847 
11275000    1.0191258 -2.5730508e-05   0.48823126   0.03923458            0   0.44899668    1.5210453    2.0092766   0.23078387 
11280000    0.9838029 3.8827912e-05   0.53593485  0.049603276            0   0.48633158    1.4683258    2.0042607    4.6880459 
11285000   0.99440794 3.895964e-05   0.53982376  0.041776795            0   0.49804697    1.4841538    2.0239776    4.7168679 
11290000     1.024826 -4.3646122e-05   0.49927747  0.039137163            0   0.46014031    1.5295529    2.0288303  -0.98798961 
11295000      1.03625 -2.0037528e-05   0.51032327  0.035108525            0   0.47521475    1.5466032    2.0569265   0.67193252 
11300000    1.0263347 -1.9596941e-05   0.52422168   0.02667518            0    0.4975465    1.5318045    2.0560262   0.70148564 
11305000    1.0040742 1.3641312e-05   0.54855139  0.016662988            0   0.53188841    1.4985807    2.0471321    2.9900196 
11310000   0.98533473 -1.5449608e-05   0.56816651  0.027463546            0   0.54070297    1.4706121    2.0387786   0.97090169 
11315000    1.0613338 2.2783892e-05   0.45932347  0.034796379            0   0.42452709    1.5840406    2.0433641    3.6181867 
11320000   0.97818098 9.4572848e-05   0.59721676  0.046564941            0   0.55065182    1.4599351    2.0571519    8.5940271 
11325000    1.0349524 -1.1450698e-06   0.51795902  0.034778838            0   0.48318018    1.5446665    2.0626255    1.9834783 
11330000      1.03279 -5.0018219e-05   0.50269028  0.027806133            0   0.47488414    1.5414391    2.0441294   -1.4131299 
11335000    1.0025162 -2.2384516e-05   0.55875781  0.018007296            0   0.54075052    1.4962554    2.0550132   0.50779541 
11340000   0.99581203 -5.2770261e-05    0.5668696  0.050975395            0    0.5158942    1.4862494     2.053119   -1.5943614 
11345000     1.041361 -4.0663657e-06   0.48571059  0.015854507            0   0.46985608    1.5542312    2.0399418    1.7588746 
11350000    1.0093794 4.9873646e-05   0.53931292  0.023943387            0   0.51536953    1.5064988    2.0458117    5.4930781 
11355000    1.0377572 2.4906994e-05    0.5081223  0.016801507            0   0.49132079    1.5488526    2.0569749    3.7785463 
11360000    1.0565391 1.4205986e-05   0.49046479  0.013634742            0   0.47683005    1.5768846    2.0673494    3.0492671 
11365000    1.0497827 -2.3224834e-05   0.50285538  0.033246322            0   0.46960905    1.5668007     2.069656   0.46435555 
11370000    1.0149915 -3.5929767e-05   0.53261936  0.035176104            0   0.49744326    1.5148748    2.0474942  -0.43597132 
11375000    1.0342833 -5.5426611e-06   0.52364178  0.050943371            0   0.47269841    1.5436678    2.0673095    1.6842008 
11380000    1.0048891 1.711614e-05   0.56403496  0.044025346            0   0.52000962     1.499797    2.0638319    3.2468995 
11385000   0.99668772 1.0555285e-06    0.5539202  0.020778149            0   0.53314205    1.4875564    2.0414766    2.1144348 
11390000     1.015584 -2.3713454e-05   0.52719506  0.031842274            0   0.49535279    1.5157592    2.0429543    0.4038803 
11395000    1.0121299 1.4723212e-05   0.53990558 0.0099691564            0   0.52993642    1.5106038    2.0505094    3.0681778 
11400000    0.9938746 0.00011561075   0.56050039 0.0084986712            0   0.55200172    1.4833578    2.0438582    10.034873 
11405000   0.99045517 -3.3222177e-05   0.56091609  0.018996688            0    0.5419194    1.4782543    2.0391704  -0.25714643 
11410000    1.0504858 -3.4748056e-06    0.4832824   0.02249869            0   0.46078371    1.5678501    2.0511325    1.8109539 
11415000    0.9882384 -3.9046232e-05   0.56722783  0.018819103            0   0.54840873    1.4749458    2.0421736  -0.65670195 
11420000    1.0050736 -2.221645e-05   0.55960265  0.012052732            0   0.54754991    1.5000724     2.059675   0.52407395 
11425000    1.0194528 9.4643711e-06   0.52562715  0.008169527            0   0.51745762    1.5215333    2.0471605    2.7013378 
11430000    1.0127258 -3.7310251e-05   0.55667166  0.018759431            0   0.53791223    1.5114933    2.0681649  -0.51071958 
11435000    1.0008566 -1.0740242e-05   0.57840091  0.021773925            0   0.55662699    1.4937785    2.0721794    1.3298139 
11440000    1.0588091 -1.8252607e-05   0.48996819  0.011397107            0   0.47857109    1.5802725    2.0702407   0.80862055 
11445000    1.0172195 -2.2586731e-05   0.55051789  0.015448894            0   0.53506899    1.5182001     2.068718   0.50752311 
11450000    1.0102889 -2.0974135e-06   0.56630033  0.020314214            0   0.54598612    1.5078562    2.0741565    1.9291833 
11455000    1.0165252 -3.4943269e-05   0.54973867  0.008381596            0   0.54135708    1.5171639    2.0669026  -0.34837617 
11460000    1.0462268 5.5024821e-06   0.50840903 0.0090441852            0   0.49936484    1.5614935    2.0699025    2.4502341 
11465000    1.0596501 -1.4934677e-05   0.49762056 0.0050077745            0   0.49261278    1.5815278    2.0791483    1.0468635 
11470000    1.0385498 2.253816e-06   0.53317527 0.0027605993            0   0.53041467    1.5500356    2.0832109    2.2389947 
11475000    1.0319498 -1.1473232e-05   0.56088717  0.011349447            0   0.54953772    1.5401851    2.1010722    1.3080424 
11480000    1.0850044 -3.3809706e-05   0.48015455  0.016299672            0   0.46385487     1.619369    2.0995236  -0.23740333 
11485000    1.0232555 3.5805059e-05   0.56842971  0.023196887            0   0.54523283    1.5272088    2.0956385    4.5704842 
11490000    1.0323071 7.5061818e-05    0.5465497  0.011313076            0   0.53523662    1.5407183     2.087268    7.2755409 
11495000   0.97709162 -7.7951403e-07   0.61459644  0.010709802            0   0.60388663    1.4583092    2.0729057    2.0190257 
11500000    1.1103405 -1.369637e-05   0.39946377 0.0096414801            0   0.38982229    1.6571833     2.056647    1.1099539 
11505000    1.0328558 -3.5956265e-05   0.52222023 0.0084560294            0    0.5137642    1.5415373    2.0637575  -0.42153952 
11510000   0.98210804 -4.7615619e-05   0.58350964 0.0066352173            0   0.57687442    1.4657962    2.0493059   -1.2418857 
11515000   0.98722323 3.3106466e-05   0.58216995  0.026897411            0   0.55527254    1.4734307    2.0556006    4.3439195 
11520000   0.99122338 3.7971177e-06   0.58058574  0.025175104            0   0.55541063    1.4794009    2.0599866    2.3224434 
11525000    1.0139087 -3.8310212e-05   0.53729331  0.019686462            0   0.51760684    1.5132587     2.050552  -0.59744978 
11530000   0.97849208 1.4912676e-05   0.60322603  0.035861014            0   0.56736502    1.4603994    2.0636255    3.0943896 
11535000    1.0572542 -9.842447e-06   0.48167757  0.016910906            0   0.46476666    1.5779519    2.0596295    1.3793195 
11540000   0.98185373 1.1211825e-05   0.59765346  0.017578365            0   0.58007509    1.4654167    2.0630701    2.8380315 
11545000    1.0147085 3.2115008e-05   0.53625597  0.016331456            0   0.51992451    1.5144525    2.0507085    4.2704978 
11550000   0.99277231 3.9241446e-05   0.56104684  0.017763029            0   0.54328382    1.4817127    2.0427595    4.7551283 
11555000     1.022652 1.4208664e-05   0.52029044  0.024087192            0   0.49620325    1.5263082    2.0465986    3.0287015 
11560000    0.9813511 8.0953781e-05    0.5745866  0.013553578            0   0.56103302    1.4646665    2.0392531    7.6347785 
11565000    1.0281781 6.9308286e-05   0.50805759  0.010727903            0   0.49732969    1.5345559    2.0426135    6.8332022 
11570000    1.0254948 -9.4788442e-06   0.49979159 0.0048019353            0   0.49498966     1.530551    2.0303426    1.3751649 
11575000    1.0040074 4.4748095e-05   0.53666785 0.0049437415            0   0.53172411    1.4984811    2.0351489    5.1281373 
11580000    1.0670204 -8.798867e-06   0.44220969 0.0046126632            0   0.43759703    1.5925279    2.0347376    1.4265599 
11585000   0.98319519 2.9589731e-05   0.55347014 0.0050823519            0   0.54838778    1.4674188     2.020889    4.0661312 
11590000    1.0159952 2.154208e-05   0.52081505 0.0072147046            0   0.51360035    1.5163728    2.0371879    3.5261765 
11595000    1.0000928 1.5706626e-05   0.54815115  0.017060838            0   0.53109032    1.4926385    2.0407896    3.1264316 
11600000    1.0345985 5.2198014e-05   0.49953857  0.020868524            0   0.47867005    1.5441382    2.0436768    5.6516035 
11605000    1.0365824 5.0245707e-05   0.47006602 0.0045300287            0   0.46553599    1.5470993    2.0171653    5.4901486 
11610000   0.96948738 2.9524497e-06   0.54635929  0.001764946            0   0.54459434    1.4469599    1.9933192    2.1973925 
11615000   0.95283883 -6.6475661e-05   0.56889156 0.0094264913            0   0.55946507     1.422112    1.9910035   -2.6037942 
11620000   0.99481216 -4.408103e-05   0.52216967   0.03235854            0   0.48981113    1.4847571    2.0069268    -1.039954 
11625000   0.96462749 -2.0753999e-05    0.5483059  0.024240596            0   0.52406531    1.4397065    1.9880124   0.55349604 
11630000   0.98584292 4.3321517e-05   0.52251047  0.014293198            0   0.50821727    1.4713706     1.993881    4.9882643 
11635000   0.99888537 4.2967982e-05   0.51710135  0.017618827            0   0.49948252    1.4908364    2.0079378    4.9778847 
11640000    1.0043131 2.5912844e-05   0.50982325  0.032821846            0    0.4770014    1.4989373    2.0087606    3.7998563 
11645000    1.0182289 -1.2387426e-05   0.49980404  0.025961608            0   0.47384243    1.5197067    2.0195107    1.1632919 
11650000   0.99895347 -2.7947981e-05   0.52391254 0.0082371639            0   0.51567537    1.4909381    2.0148506  0.083086131 
11655000   0.96159713 -5.1678262e-06   0.59391503  0.026895768            0   0.56701926    1.4351837    2.0290988    1.6718986 
11660000    1.0140774 3.1699382e-05   0.52269658  0.014911564            0   0.50778501    1.5135106    2.0362072    4.2272684 
11665000    1.0228666 4.2294339e-05   0.52181298 0.0081653335            0   0.51364764    1.5266284    2.0484414     4.971826 
11670000   0.97800451 -4.685911e-05    0.5726117   0.02103088            0   0.55158082    1.4596717    2.0322834   -1.2066182 
11675000   0.99951283 4.9922941e-06   0.53293842  0.031249643            0   0.50168878    1.4917729    2.0247113    2.3697787 
11680000    1.0084146 5.9160821e-05   0.54031221  0.032887765            0   0.50742445    1.5050588     2.045371    6.1345669 
11685000    1.0120366 1.4302955e-05   0.51822164  0.016723034            0    0.5014986    1.5104646    2.0286863    3.0173065 
11690000    1.0350315 1.5159273e-05   0.51034996  0.022704488            0   0.48764547    1.5447845    2.0551345    3.1029434 
11695000    0.9973741 2.6876156e-05   0.57123239  0.019310056            0   0.55192234    1.4885808    2.0598132    3.9174931 
11700000    1.0620803 2.1964343e-05   0.47299977 0.0071099852            0   0.46588978    1.5851548    2.0581546      3.57633 
11705000     1.060894 -1.1536853e-05   0.47941503  0.010035751            0   0.46937928    1.5833843    2.0627993     1.265372 
11710000    1.0433648 -6.5519149e-06    0.4932674  0.010695653            0   0.48257175     1.557222    2.0504894     1.597621 
11715000    1.0200975 -3.0062215e-05    0.5130019    0.0201418            0    0.4928601    1.5224955    2.0354974 -0.042402914 
11720000    1.0002906 -7.3907375e-05   0.52408275  0.022871507            0   0.50121124    1.4929337    2.0170164   -3.0914614 
11725000   0.99408643 3.0579775e-05   0.51708444 0.0072786643            0   0.50980578     1.483674    2.0007584    4.1144325 
11730000    0.9817814 4.2054448e-05   0.52538701  0.016965693            0   0.50842132    1.4653087    1.9906958    4.8974992 
11735000   0.93333835 2.3274372e-06   0.58988546  0.015472386            0   0.57441307    1.3930075    1.9828929    2.1437654 
11740000   0.98329002 -8.2823928e-06   0.51342335 0.0096402185            0   0.50378313    1.4675604    1.9809837    1.4085047 
11745000   0.96560111 3.4553205e-05    0.5530805  0.051769822            0   0.50131068    1.4411597    1.9942402    4.3825577 
11750000   0.97122586 2.3261561e-05   0.52759801  0.023902922            0   0.50369509    1.4495546    1.9771526    3.5849917 
11755000   0.96700102 -5.6266744e-07   0.54460159 0.0088774438            0   0.53572414     1.443249    1.9878506     1.948959 
11760000   0.99668616 -5.0846284e-05   0.52242362   0.01354027            0   0.50888335    1.4875541    2.0099777   -1.5045174 
11765000    1.0537353 -3.6976569e-05    0.4424331  0.024012207            0    0.4184209    1.5726999     2.015133  -0.54068741 
11770000    1.0162527 -5.6001074e-06   0.51574023  0.042144861            0   0.47359537    1.5167571    2.0324974    1.6454179 
11775000   0.99513393 -3.7681642e-05   0.57074415  0.028343365            0   0.54240078    1.4852374    2.0559815  -0.54857355 
11780000    1.0322204 -2.2124381e-06   0.51736276 0.0085251282            0   0.50883763     1.540589    2.0579518     1.905028 
11785000     0.999213 3.2946818e-05    0.5741493 0.0055084247            0   0.56864087    1.4913254    2.0654747    4.3427588 
11790000   0.98948458 9.7395175e-06   0.59778855   0.01571717            0   0.58207138    1.4768057    2.0745943    2.7477897 
11795000    1.0414864 3.5774648e-05   0.51947171  0.020207528            0   0.49926418    1.5544184    2.0738901    4.5466338 
11800000    1.0239109 -1.8045844e-05   0.53929456  0.033118483            0   0.50617608    1.5281871    2.0674817   0.82015292 
11805000   0.98530413 -8.6623297e-05   0.60835213  0.031119692            0   0.57723244    1.4705664    2.0789185   -3.9084837 
11810000    1.0301855 -7.9151467e-06   0.53229385   0.03314395            0    0.4991499    1.5375518    2.0698456    1.5227507 
11815000    1.0093673 2.2799209e-06   0.55164553   0.02197477            0   0.52967076    1.5064807    2.0581262    2.2157143 
11820000   0.99815567 -1.2494508e-06   0.57577458  0.020704854            0   0.55506973    1.4897473    2.0655219    1.9791599 
11825000   0.93218082 6.9886251e-05   0.67273157   0.03872041            0   0.63401116    1.3912799    2.0640114    6.8945491 
11830000   0.98864573 5.6399163e-05   0.58484417  0.027667448            0   0.55717672    1.4755538    2.0603979     5.958708 
11835000    1.0146835 -3.288302e-05   0.55138933  0.025622052            0   0.52576728    1.5144151    2.0658044  -0.20706995 
11840000   0.99853009 -2.2229355e-05   0.57567561  0.018278331            0   0.55739728    1.4903062    2.0659818   0.52948874 
11845000    1.0238512 5.6535896e-06   0.54809668  0.014125113            0   0.53397157    1.5280978    2.0761945    2.4669706 
11850000    1.0335851 -1.9611789e-05   0.53519076  0.019646483            0   0.51554428    1.5426258    2.0778166   0.72224969 
11855000   0.96561262 -5.2964673e-05   0.64026612  0.028400096            0   0.61186603    1.4411768     2.081443   -1.5794752 
11860000   0.95225561 -1.9807008e-05   0.66441509  0.037410954            0   0.62700414    1.4212415    2.0856566   0.71659619 
11865000    1.0318074 5.2610622e-05   0.52468073  0.038960092            0   0.48572064    1.5399725    2.0646533    5.7010995 
11870000   0.98683633 4.6485722e-05   0.61393957  0.025431341            0   0.58850823    1.4728532    2.0867928    5.2998859 
11875000    1.0330367 -1.8804293e-05    0.5697925  0.034657601            0    0.5351349    1.5418073    2.1115998   0.81184704 
11880000     1.049167 -9.9674729e-06   0.55167335  0.032938774            0   0.51873458    1.5658817    2.1175551    1.4286034 
11885000     1.035459 5.6964758e-05    0.5552443  0.023315341            0   0.53192896    1.5454226    2.1006669     6.038071 
11890000    1.0344272 7.3754717e-05    0.5640878   0.03580716            0   0.52828064    1.5438826    2.1079704    7.2058965 
11895000    1.0185543 3.9245879e-05   0.58479828  0.020135132            0   0.56466314    1.5201923    2.1049906    4.8176657 
11900000    1.0600862 2.4712648e-05   0.50796995 0.0057370156            0   0.50223293    1.5821786    2.0901486    3.7982868 
11905000    1.0556555 -1.76562e-05   0.50806378  0.011011033            0   0.49705275    1.5755658    2.0836296   0.86323305 
11910000    1.0242698 -3.3134949e-05   0.56140775  0.016650261            0   0.54475749    1.5287227    2.0901305  -0.20015721 
11915000     1.029066 2.9214649e-05   0.57102543  0.037439372            0   0.53358605     1.535881    2.1069064     4.126223 
11920000    1.0297867 4.7992478e-05    0.5603775  0.031069504            0     0.529308    1.5369566    2.0973341    5.4145742 
11925000   0.96924597 -3.8840589e-06   0.63846887 0.0064792096            0   0.63198966    1.4465996    2.0850685    1.8166023 
11930000   0.99656622 4.3173388e-07   0.60198062 0.0024544019            0   0.59952622    1.4873751    2.0893557    2.1191972 
11935000    1.0306068 3.702942e-05   0.57019014 0.0078256486            0   0.56236449    1.5381807    2.1083708    4.6678443 
11940000    1.0390137  5.35142e-05   0.55426109   0.02902888            0   0.52523222    1.5507279     2.104989    5.8038905 
11945000    1.0405323 -1.8036412e-05   0.54152163  0.040236535            0    0.5012851    1.5529944    2.0945161   0.84783928 
11950000    1.0505608 -2.7028701e-05   0.53611215  0.025511324            0   0.51060083    1.5679619    2.1040741   0.23585029 
11955000    1.0217145 2.5173912e-05   0.58960699  0.028247404            0   0.56135959    1.5249089    2.1145159    3.8545367 
11960000   0.98893542 1.5217063e-05   0.63603203  0.033841057            0   0.60219097    1.4759861    2.1120181    3.1638215 
11965000    1.0310077 -1.0689383e-05   0.59114942 0.0061555131            0   0.58499391    1.5387791    2.1299285    1.3910783 
11970000    1.0751273 3.7102624e-07     0.521442 0.0079736703            0   0.51346833    1.6046275    2.1260695    2.1517148 
11975000    1.0629016 1.2633944e-05   0.55549012  0.032785211            0   0.52270491    1.5863806    2.1418707    3.0151289 
11980000   0.96894924 -5.1423823e-05   0.72552241  0.066572168            0   0.65895024    1.4461567    2.1716791   -1.3827355 
11985000    1.1198131 -2.6458217e-05    0.5292427  0.045635052            0   0.48360765     1.671321    2.2005637   0.37177179 
11990000    1.0554143 4.3402231e-06    0.6251009   0.01896314            0   0.60613776    1.5752059    2.2003068     2.500303 
11995000    1.1140791 1.4683644e-05   0.50783554 0.0073988785            0   0.50043666    1.6627631    2.1705987    3.1855322 
12000000    1.0678772 2.6407672e-06   0.56003345  0.010461908            0   0.54957154    1.5938067    2.1538401      2.33637 
12005000    1.0606043 -5.219256e-05   0.57665438  0.022985284            0    0.5536691    1.5829519    2.1596062   -1.4479435 
12010000    1.0350525 -1.8866023e-05   0.62352791  0.037846484            0   0.58568142    1.5448159    2.1683438    0.8643243 
12015000    1.0314206 1.1932444e-05   0.63160397   0.04290911            0   0.58869486    1.5393953    2.1709993    2.9957698 
12020000    1.0119394 1.9540365e-05   0.65736126  0.035179451            0   0.62218181    1.5103195    2.1676808    3.5183108 
12025000    1.0275939 -1.2547081e-05   0.62355087  0.024521549            0   0.59902932    1.5336839    2.1572347    1.2899805 
12030000    1.0154192 2.0393901e-05   0.64102916   0.03541822            0   0.60561094    1.5155132    2.1565423    3.5661688 
12035000    1.0429082 -6.8868944e-06   0.58310501  0.031020935            0   0.55208407    1.5565405    2.1396455    1.6636234 
12040000    1.0279989 -1.9682108e-05   0.61655231  0.024687184            0   0.59186513    1.5342883    2.1508407   0.79041333 
12045000    1.0656872 2.1656654e-05    0.5466553  0.021306261            0   0.52534904    1.5905382    2.1371935    3.6341014 
12050000    1.0781393 -1.9998131e-05   0.52698878 0.0053496766            0   0.52163911    1.6091229    2.1361117   0.75384085 
12055000     1.038595 1.2231347e-05   0.57968329 0.0058001908            0    0.5738831    1.5501031    2.1297864    2.9752171 
12060000   0.97525051 6.4158582e-05   0.65801007  0.027497968            0    0.6305121    1.4555614    2.1135715    6.5482126 
12065000    1.0347274 6.2120261e-05   0.57839064  0.046802465            0   0.53158817    1.5443306    2.1227212    6.4164737 
12070000    1.0893021 -1.1506257e-05   0.48479238  0.019213723            0   0.46557866    1.6257833    2.1105757    1.3152632 
12075000    1.0380036 -1.9244524e-05   0.58346212  0.012538734            0   0.57092338    1.5492203    2.1326824   0.80250092 
12080000    1.0562402 -7.4866855e-06   0.53535881  0.014882241            0   0.52047657    1.5764385    2.1117973    1.5943176 
12085000    1.0723066 -4.1351974e-05   0.51657065   0.01307805            0    0.5034926    1.6004177    2.1169883  -0.74126013 
12090000    1.0892814 -1.9684461e-05     0.492734  0.010663316            0   0.48207069    1.6257525    2.1184865   0.75789653 
12095000   0.96647093 -3.4972743e-05   0.67215995   0.02481761            0   0.64734234    1.4424579    2.1146178  -0.30269819 
12100000    1.0673344 -3.4749484e-05   0.52774111  0.046424484            0   0.48131662    1.5929966    2.1207377  -0.28114664 
12105000    1.0444723 8.131107e-06   0.58166961  0.020617835            0   0.56105178    1.5588749    2.1405446    2.7025667 
12110000    1.0405873 3.6558257e-05   0.61324881  0.023002378            0   0.59024643    1.5530765    2.1663253     4.693232 
12115000    1.0429302 6.5250517e-05   0.60661198  0.024362145            0   0.58224984    1.5565733    2.1631852     6.673301 
12120000    1.0643723 5.0489241e-05   0.58461975  0.014433379            0   0.57018637    1.5885757    2.1731955    5.6630118 
12125000    1.0650684 1.8757628e-05   0.56613526  0.012244342            0   0.55389092    1.5896146    2.1557499    3.4522771 
12130000    1.0436796 -1.2181702e-05   0.59655444  0.015482015            0   0.58107243    1.5576918    2.1542462    1.3122469 
12135000    1.0575757 -1.1656067e-05     0.568315  0.020943188            0   0.54737182    1.5784317    2.1467467    1.3410794 
12140000    1.0758196 -5.6334242e-06   0.55262983  0.015418266            0   0.53721156    1.6056608    2.1582906    1.7689083 
12145000    1.0724277 -7.1317883e-06   0.56832971  0.011353014            0   0.55697669    1.6005984    2.1689281    1.6759789 
12150000    1.0435622 -1.6576502e-05   0.61260357  0.022040712            0   0.59056286    1.5575165    2.1701201    1.0243523 
12155000    1.0929037 -1.3964873e-05   0.52915293  0.023307923            0   0.50584501    1.6311587    2.1603116    1.1950596 
12160000    1.0318503 1.2043498e-05   0.62502473  0.041143807            0   0.58388093    1.5400366    2.1650613    2.9975079 
12165000    1.0156287  2.51361e-05   0.64585494  0.040439082            0   0.60541586    1.5158258    2.1616808     3.899088 
12170000    1.0250175 1.5774548e-05    0.6501723  0.026245539            0   0.62392676    1.5298385    2.1800108    3.2703476 
12175000    1.1154732 -5.6627812e-05   0.54264757 0.0086378558            0   0.53400971    1.6648438    2.2074914    -1.706623 
12180000    1.0960098 -5.2943138e-05   0.56457723 0.0032040491            0   0.56137318    1.6357947    2.2003719   -1.4590578 
12185000     1.082223 -7.1138351e-05   0.57035069  0.007985548            0   0.56236514    1.6152178    2.1855684   -2.7315144 
12190000    1.0317219 -8.4597133e-05   0.64049637  0.023447003            0   0.61704937    1.5398449    2.1803413   -3.6670125 
12195000    1.0951563 1.7474885e-05   0.55534202  0.013847698            0   0.54149432    1.6345207    2.1898627    3.3977268 
12200000    1.0569543 1.0598007e-05   0.61486836  0.028350315            0   0.58651805    1.5775042    2.1923726    2.9249069 
12205000    1.1230868 -3.9335676e-05   0.51735055  0.022411069            0   0.49493948    1.6762071    2.1935576  -0.52532428 
12210000    1.0794848 6.7789808e-07   0.59066242  0.031186033            0   0.55947639    1.6111311    2.2017935    2.2486498 
12215000    1.0932669 3.7750585e-05   0.57953856  0.021438638            0   0.55809992    1.6317009    2.2112394    4.8205599 
12220000    1.0676167 3.5009127e-05   0.62687104  0.013529644            0    0.6133414    1.5934179    2.2202889    4.6401198 
12225000    1.1089244 3.944797e-06   0.54617657  0.031888131            0   0.51428844    1.6550696    2.2012462    2.4739106 
12230000    1.0615616 1.6840735e-05   0.63316592  0.044072613            0    0.5890933    1.5843807    2.2175466    3.3815782 
12235000    1.1156083 -8.9459222e-06   0.54687527    0.0346256            0   0.51224967    1.6650454    2.2119207    1.5935786 
12240000    1.1201432 -1.7993694e-05   0.54427266  0.014220965            0    0.5300517    1.6718138    2.2160864   0.97236231 
12245000    1.0787317 1.0153163e-05   0.58881423  0.050235976            0   0.53857825     1.610007    2.1988213    2.9006079 
12250000    1.1222227 3.0175874e-05   0.52771165  0.021786069            0   0.50592558    1.6749173     2.202629    4.2883854 
12255000     1.089927 -7.7961603e-06   0.57275457 0.0074804376            0   0.56527413     1.626716    2.1994705    1.6605999 
12260000    1.0551316 -1.195084e-05   0.63234419  0.018724351            0   0.61361984    1.5747839     2.207128     1.381086 
12265000    1.1066933 -1.7072332e-05   0.57727199  0.024468915            0   0.55280308    1.6517398    2.2290118    1.0489722 
12270000    1.1037839 -3.9984991e-06   0.59295995    0.0362157            0   0.55674425    1.6473975    2.2403574    1.9639812 
12275000     1.069178 1.083663e-05   0.62913794  0.036511985            0   0.59262595    1.5957482    2.2248861     2.973914 
12280000    1.0896219 2.7238249e-05   0.59341499  0.039280691            0    0.5541343    1.6262606    2.2196756    4.1023834 
12285000    1.0758123 5.2578952e-05   0.63539175  0.030215685            0   0.60517607    1.6056499    2.2410417    5.8752988 
12290000     1.098203 -4.4571484e-06   0.59401302  0.027732879            0   0.56628014     1.639068    2.2330811     1.925003 
12295000    1.0784023 3.5636276e-05   0.61955869  0.016703638            0   0.60285506    1.6095154    2.2290741    4.6922535 
12300000    1.1436928 7.3194686e-05   0.53757222  0.012342435            0   0.52522978    1.7069615    2.2445337    7.3037504 
12305000    1.0527203 1.1793379e-05   0.65808766  0.018899784            0   0.63918787    1.5711851    2.2292727    3.0444311 
12310000    1.0619013 -7.5544005e-05   0.67243889  0.027055285            0    0.6453836    1.5848877    2.2573266    -2.964275 
12315000    1.0931031 -5.1366509e-05   0.60978557  0.015182236            0   0.59460333    1.6314564    2.2412419   -1.3092112 
12320000    1.1058373 1.7358181e-05   0.56783938 0.0073807835            0    0.5604586    1.6504621    2.2183015    3.4180989 
12325000     1.095349 -5.945458e-05   0.59887039  0.016667146            0   0.58220324    1.6348083    2.2336787   -1.8758218 
12330000    1.1277842 -4.2398796e-05   0.53877325  0.026256015            0   0.51251723     1.683218    2.2219912  -0.70861358 
12335000    1.0522571 -3.7591303e-05   0.63625173  0.033377706            0   0.60287402    1.5704938    2.2067455  -0.39156538 
12340000     1.085346 -1.2552829e-05   0.57952571  0.022091825            0   0.55743389     1.619879    2.1994047    1.3317531 
12345000    1.0566927 5.9431404e-05   0.63420764  0.025881338            0    0.6083263    1.5771138    2.2113215    6.3192201 
12350000    1.1127712 6.6414308e-05   0.56178887  0.018400827            0   0.54338805     1.660811    2.2225999    6.8131569 
12355000    1.1185809 1.8582131e-05   0.55831353  0.017670749            0   0.54064278     1.669482    2.2277955    3.5121924 
12360000    1.0418503 -2.5282002e-05   0.64808803  0.015618543            0   0.63246949    1.5549616    2.2030497   0.45555769 
12365000    1.0693878 2.4015987e-05   0.60613012  0.011658822            0    0.5944713    1.5960613    2.2021915    3.8621765 
12370000    1.0821601 3.0322286e-05   0.58189376  0.015381495            0   0.56651226     1.615124    2.1970178    4.2928942 
12375000    1.1111731 3.835488e-05   0.53104685  0.023709059            0   0.50733779    1.6584258    2.1894727     4.840562 
12380000    1.1182335 2.1078701e-05   0.48814861 0.0048413998            0   0.48330721    1.6689634     2.157112    3.6140718 
12385000    1.0625489 -3.7158628e-05   0.55440705  0.013689387            0   0.54071767    1.5858542    2.1402613  -0.42814311 
12390000    1.0491753 -2.4908359e-06   0.56213294   0.01699412            0   0.54513882    1.5658942    2.1280271    1.9558606 
12395000    1.0675225 4.9757076e-05   0.53548985  0.025126206            0   0.51036365    1.5932774    2.1287672    5.5679763 
12400000    1.0505776 1.6729754e-05    0.5356721  0.014843028            0   0.52082908     1.567987    2.1036591    3.2600197 
12405000    1.0765787 -5.402451e-06     0.505312   0.02149775            0   0.48381425    1.6067937    2.1121057    1.7386883 
12410000    1.0259827 5.4544995e-06   0.57318766  0.023514806            0   0.54967285    1.5312791    2.1044668    2.4814818 
12415000    1.0498526 -2.5578147e-05   0.54113484   0.02358979            0   0.51754505    1.5669051    2.1080399   0.34007837 
12420000     1.030084 -3.5907059e-05   0.56738037  0.013379712            0   0.55400066    1.5374004    2.1047808  -0.37711516 
12425000    1.0668667 -2.5655164e-06   0.48046516   0.01677573            0   0.46368943    1.5922985    2.0727636    1.8954352 
12430000    1.0284598 4.9293807e-05    0.5240534  0.016557503            0    0.5074959    1.5349763    2.0590297    5.4662176 
12435000   0.99858974 -6.2780764e-06   0.57119627   0.01606991            0   0.55512636    1.4903952    2.0615915    1.6276508 
12440000    1.0503833 -1.7582165e-05   0.50302227  0.010911189            0   0.49211108     1.567697    2.0707193   0.85544008 
12445000    1.0133454 4.3185017e-05   0.54364005  0.022351833            0   0.52128822     1.512418    2.0560581    5.0410065 
12450000   0.98813885 9.2137459e-06   0.58357661  0.029424352            0   0.55415226    1.4747972    2.0583738     2.695228 
12455000    1.0014956 -6.2760762e-05   0.55054308  0.012079921            0   0.53846316    1.4947321    2.0452752   -2.2927487 
12460000   0.96852326 2.9777634e-05   0.61385508  0.010492235            0   0.60336285     1.445521    2.0593761    4.1176061 
12465000     1.052122 4.6306627e-05    0.4959896  0.022844213            0   0.47314539    1.5702921    2.0662817    5.2669958 
12470000    1.0539705 -1.4141819e-05   0.51023545  0.022406548            0    0.4878289     1.573051    2.0832865    1.1058039 
12475000    1.0058001 -1.9825412e-05    0.5642096  0.023381888            0   0.54082771    1.5011566    2.0653662   0.69503371 
12480000    1.0078681 -5.6355584e-05   0.55447705   0.03467778            0   0.51979927    1.5042432    2.0587203   -1.8365777 
12485000    1.0269559 -6.7943228e-05   0.52589962  0.016098207            0   0.50980141    1.5327317    2.0586314   -2.6376046 
12490000   0.97372549 -3.7504746e-05   0.62007778  0.013799225            0   0.60627856    1.4532853    2.0733631  -0.51896494 
12495000    1.0245972 -1.8386754e-05   0.54659982  0.012260766            0   0.53433906    1.5292114    2.0758112   0.80491879 
12500000    1.0010266 -1.9446443e-06   0.58700203  0.021957308            0   0.56504472    1.4940322    2.0810342    1.9466204 
12505000    1.0098088 1.9315847e-05   0.55624101  0.024438774            0   0.53180223    1.5071396    2.0633806     3.398492 
12510000    1.0315811 2.0283171e-05   0.50413069  0.020580587            0    0.4835501    1.5396347    2.0437654    3.4457382 
12515000    1.0017172 -2.8223353e-05   0.55161756  0.025731894            0   0.52588566    1.4950629    2.0466804  0.095882277 
12520000    1.0041226 -4.9428875e-05   0.54626987  0.020178399            0   0.52609147    1.4986529    2.0449228    -1.371601 
12525000   0.99453722 4.4616524e-06   0.55088941    0.0272235            0   0.52366591    1.4843468    2.0352362    2.3436256 
12530000   0.97213655 5.1203647e-05   0.56646802  0.026358091            0   0.54010993    1.4509138    2.0173818    5.5565779 
12535000     1.009619 6.0862224e-05   0.51109875  0.030871665            0   0.48022709    1.5068564    2.0179552    6.2247521 
12540000    1.0373182 7.2690408e-06   0.47574715  0.020984083            0   0.45476307    1.5481974    2.0239445    2.5263806 
12545000   0.97390548 9.443931e-06   0.56859656  0.022562207            0   0.54603435    1.4535539    2.0221505     2.674915 
12550000   0.97378238 2.6534533e-05   0.57990175  0.008230639            0   0.57167111    1.4533702     2.033272    3.8673389 
12555000     0.973021 -5.9061057e-05   0.58575526 0.0031103886            0   0.58264487    1.4522338    2.0379891   -2.0443111 
12560000    1.0450395 6.4330221e-06   0.50901635  0.015411736            0   0.49360462    1.5597214    2.0687378    2.5133883 
12565000    1.0362021 9.5422681e-06   0.52525204  0.016207364            0   0.50904468    1.5465316    2.0717836    2.7313452 
12570000    1.0133156 -2.9541764e-05   0.55093401 0.0096282835            0   0.54130573    1.5123735    2.0633075  0.021380804 
12575000   0.99206535 -5.2370491e-05   0.57363065 0.0096501727            0   0.56398048    1.4806575    2.0542882   -1.5655601 
12580000    1.0230969 -2.1060618e-05   0.53286296  0.010038375            0   0.52282458    1.5269721     2.059835    0.6041251 
12585000    1.0512551 6.111437e-05   0.47089151 0.0050267338            0   0.46586478    1.5689983    2.0398898    6.2641151 
12590000   0.93862337 -3.2552924e-05   0.62646068 0.0059438382            0   0.62051684    1.4008954    2.0273561  -0.22270204 
12595000    1.0227367 4.1311373e-05   0.49086859  0.015926568            0   0.47494202    1.5264345    2.0173031    4.8727452 
12600000    1.0018459 3.1192347e-05   0.52038173   0.03416242            0   0.48621931    1.4952551    2.0156368    4.1716518 
12605000   0.95764058 -5.8986809e-05   0.58122957  0.011134638            0   0.57009494    1.4292786    2.0105081   -2.0666601 
12610000   0.95936493 1.6618316e-05   0.56984234 0.0074452074            0   0.56239713    1.4318522    2.0016945    3.1503525 
12615000    1.0189373 4.8848046e-05   0.48620982  0.023402617            0    0.4628072    1.5207639    2.0069738    5.3833507 
12620000   0.96363045 1.7274988e-05   0.55091921  0.033928797            0   0.51699042    1.4382184    1.9891377    3.1831848 
12625000   0.93329674 -5.5604807e-06   0.58473399   0.01193614            0   0.57279785    1.3929454    1.9776794    1.5933389 
12630000   0.96249089 -3.8363656e-05   0.54061756 0.0085074105            0   0.53211015    1.4365177    1.9771352  -0.67456069 
12635000   0.99906684 -1.1328368e-05   0.48467945  0.009126082            0   0.47555337    1.4911073    1.9757867      1.19277 
12640000   0.99504746 5.4514262e-05   0.50971829 0.0029529343            0   0.50676535    1.4851083    1.9948266    5.7628524 
12645000   0.93623589 2.9674623e-05    0.6062174 0.0050116837            0   0.60120572    1.3973321    2.0035495    4.0546594 
12650000   0.99513262 6.1747753e-06   0.51722542 0.0058229055            0   0.51140252    1.4852354    2.0024609    2.4292613 
12655000   0.96979165 -4.4884042e-06   0.54271635 0.0056128351            0   0.53710351     1.447414    1.9901304    1.6798919 
12660000    0.9467664 1.1291802e-05   0.57812224  0.013448114            0   0.56467413    1.4130489    1.9911711    2.7716605 
12665000   0.96366999 -3.8485414e-05    0.5363782  0.018451265            0   0.51792693    1.4382775    1.9746557  -0.68545618 
12670000     1.004706 -4.7261856e-05   0.48648112 0.0027328037            0   0.48374832    1.4995238    1.9860049   -1.2807346 
12675000   0.96268575 -3.6972743e-07   0.54751896  0.019679686            0   0.52783927    1.4368085    1.9843274    1.9587719 
12680000    0.9779908 -3.6927106e-05   0.53222389  0.034968186            0   0.49725571    1.4596513    1.9918752  -0.56052644 
12685000    0.9620341 -3.5938886e-05   0.54220551  0.023410714            0    0.5187948    1.4358359    1.9780414  -0.50605441 
12690000    1.0076023 4.8792928e-05   0.46249843   0.01689216            0   0.44560627    1.5038464    1.9663448     5.338912 
12695000    1.0002091 3.7361808e-05   0.47058268  0.013717544            0   0.45686514    1.4928121    1.9633947    4.5458429 
12700000    0.9837944 2.8874356e-05   0.49343686  0.014256429            0   0.47918043    1.4683131      1.96175    3.9575455 
12705000   0.94946154 -6.9080634e-06   0.55275838   0.01238765            0   0.54037073    1.4170713    1.9698297    1.4923444 
12710000   0.98157992 -2.2763143e-05   0.50337283  0.016368519            0   0.48700431     1.465008    1.9683809   0.39499244 
12715000   0.96519758 -2.0987559e-05   0.53778731  0.014187803            0    0.5235995    1.4405574    1.9783447   0.52768465 
12720000   0.99620531 -4.0442732e-05   0.50494434  0.008565232            0   0.49637911    1.4868364    1.9917808  -0.80362085 
12725000   0.95053752 -4.7028941e-05   0.56951626 0.0041991491            0   0.56531711    1.4186773    1.9881935   -1.2624469 
12730000   0.96347853 -5.5109846e-05   0.53951849  0.011841914            0   0.52767658    1.4379917    1.9775102   -1.8316824 
12735000   0.91726373 -4.7285326e-05   0.62188124   0.04363825            0   0.57824299    1.3690161    1.9908974   -1.2774644 
12740000    1.0026866 7.4744195e-06   0.48925901  0.015281245            0   0.47397777    1.4965098    1.9857688    2.5024007 
12745000     1.002788 5.7486317e-06   0.46693362  0.013477218            0    0.4534564    1.4966612    1.9635948    2.3609402 
12750000   0.94010175 -7.6755979e-06   0.57935905  0.019407153            0   0.55995189    1.4031019    1.9824609    1.4519236 
12755000    0.9602395 -3.2984299e-05   0.54677624  0.020707924            0   0.52606831    1.4331575    1.9799337  -0.29994104 
12760000   0.90233152 -6.0321037e-05   0.64500958   0.01547366            0   0.62953592    1.3467298    1.9917394   -2.1776507 
12765000    1.0098957 -2.0374701e-05    0.4956837 0.0079530683            0   0.48773063    1.5072693     2.002953   0.59465364 
12770000   0.99322947 2.3849632e-06   0.51255894  0.032942651            0   0.47961629     1.482395    1.9949539    2.1598026 
12775000   0.92214128 5.1373584e-05   0.63579673  0.035404997            0   0.60039174    1.3762959    2.0120926    5.5630347 
12780000   0.95948655 1.6081191e-05    0.6026082  0.026946265            0   0.57566194    1.4320337    2.0346419    3.1461738 
12785000   0.97231133 -1.3571248e-05   0.58346963  0.024638525            0    0.5588311    1.4511747    2.0346443    1.0965996 
12790000    1.0199231 -5.1961221e-05   0.51784811  0.037413636            0   0.48043448    1.5222352    2.0400833   -1.5514762 
12795000   0.98351534 1.7093018e-05   0.56912851 0.0093576547            0   0.55977086    1.4678966    2.0370252    3.2184945 
12800000   0.98201902 8.9074978e-05    0.5816672 0.0089223202            0   0.57274488    1.4656634    2.0473306    8.2041931 
12805000    1.0004601 2.0583444e-05   0.54264777  0.018247119            0   0.52440066    1.4931867    2.0358345    3.4585621 
12810000   0.97721158 -3.0150478e-06    0.5952483 0.0068885179            0   0.58835978    1.4584883    2.0537366    1.8453365 
12815000    1.0497957 1.1781032e-05   0.47449924  0.016863079            0   0.45763616    1.5668201    2.0413194    2.8556243 
12820000   0.95774539 -3.3455389e-05   0.61374192  0.021165048            0   0.59257687     1.429435    2.0431769  -0.26925957 
12825000   0.98208181 -1.3648689e-05   0.58476914  0.023481064            0   0.56128808    1.4657571    2.0505262    1.1071289 
12830000    1.0122284 -1.162059e-05   0.52819843  0.021966772            0   0.50623166     1.510751    2.0389494    1.2357342 
12835000   0.96605007 -3.8664103e-06   0.59376787  0.028062906            0   0.56570496    1.4418297    2.0355976    1.7683513 
12840000   0.99169106 3.3648274e-05   0.58898471  0.026118438            0   0.56286627    1.4800989    2.0690836    4.3948523 
12845000    1.0238728 -2.2016795e-05   0.54775009  0.018784277            0   0.52896581    1.5281302    2.0758803   0.55407938 
12850000    1.0275621 8.4727678e-06   0.56589632  0.013351194            0   0.55254513    1.5336364    2.0995327    2.6851705 
12855000    1.0432616 5.6470347e-05   0.55447615  0.011923055            0    0.5425531     1.557068    2.1115441    6.0147745 
12860000    1.0701584 1.0989386e-05    0.5248631   0.02051882            0   0.50434428    1.5972115    2.1220746    2.8816609 
12865000   0.98332003 -3.9033108e-05   0.64970519  0.025824601            0   0.62388058    1.4676051    2.1173103  -0.58065811 
12870000   0.98757294 -5.3103886e-05   0.62879119  0.034034685            0   0.59475651    1.4739526    2.1027438   -1.5677968 
12875000     1.040959 -1.6903219e-05   0.54892484  0.013923212            0   0.53500163    1.5536314    2.1025562   0.93420573 
12880000   0.99676933 -4.1136006e-06   0.61757014  0.013917851            0   0.60365229    1.4876782    2.1052484    1.8209163 
12885000    1.0197844 -5.0082749e-06   0.59430608  0.026592123            0   0.56771395    1.5220282    2.1163343    1.7701623 
12890000    1.0054831 -2.7513553e-05    0.6258368  0.037155109            0   0.58868169    1.5006836    2.1265204   0.22478357 
12895000     1.039872 -1.821458e-05   0.56428952  0.014905968            0   0.54938355    1.5520089    2.1162984   0.85730665 
12900000    1.0593005 4.2398646e-05   0.54941896   0.01035855            0   0.53906041     1.581006     2.130425    5.0610194 
12905000    1.0302628 -2.9694952e-05   0.61245159  0.017656437            0   0.59479516    1.5376672    2.1501188  0.097603703 
12910000    1.0786451 2.1236329e-05   0.52524785 0.0066721301            0   0.51857572    1.6098779    2.1351257    3.6029807 
12915000    1.0370308 5.5902797e-05   0.59735551 0.0050413511            0   0.59231416    1.5477684    2.1451239    6.0091252 
12920000    1.0341417 -1.7591494e-05   0.59175146  0.015675724            0   0.57607574    1.5434565     2.135208   0.91928387 
12925000    1.0640503 -1.8033594e-05   0.55845305 0.0091077864            0   0.54934527     1.588095    2.1465481   0.90006602 
12930000    1.0759656 1.7808093e-05   0.53705339  0.016414346            0   0.52063904    1.6058786     2.142932    3.3738274 
12935000    1.0202691 -1.4042952e-05   0.61458478  0.023922092            0   0.59066268    1.5227516    2.1373364    1.1666875 
12940000    1.0566408 -1.5090671e-06   0.55988031  0.011017651            0   0.54886266    1.5770363    2.1369166    2.0326099 
12945000    1.0370115 -2.1459839e-05   0.59215515  0.021333045            0   0.57082211    1.5477397    2.1398949   0.65659083 
12950000    1.0255163 -2.8284094e-05   0.60008082 0.0052656585            0   0.59481516    1.5305831     2.130664   0.17566737 
12955000    1.0107678 1.7057379e-05   0.62511206 0.0013801316            0   0.62373193    1.5085709     2.133683     3.312689 
12960000    1.0761736 3.8088658e-05   0.51117164 0.0036640258            0   0.50750762    1.6061891    2.1173608    4.7500488 
12965000    1.0890514 -6.2317159e-05    0.4983093  0.015761185            0   0.48254812    1.6254092    2.1237185   -2.1836435 
12970000    1.0135627 -5.1503239e-05    0.6172326   0.02162639            0   0.59560621    1.5127423    2.1299749   -1.4299289 
12975000    1.0209398 6.8107035e-06   0.59968031  0.032671224            0   0.56700908    1.5237526    2.1234329    2.5941888 
12980000    1.0418203 9.0631414e-06   0.57820568  0.014463551            0   0.56374213    1.5549169    2.1331225    2.7595669 
12985000    1.0252197 5.2338169e-05   0.61100406  0.042900593            0   0.56810347    1.5301404    2.1411445    5.7587587 
12990000    1.0913336 -3.7040785e-06   0.51396945  0.031460824            0   0.48250863    1.6288154    2.1427849     1.886759 
12995000    1.0564089 7.2436443e-07    0.5564177 0.0091483313            0   0.54726937    1.5766902    2.1331079     2.183176 
13000000    1.0704395 -1.515017e-05   0.52820707 0.0070690181            0   0.52113805     1.597631    2.1258381    1.0786583 
13005000    1.0763984 -4.9557327e-05   0.52557673 0.0064250083            0   0.51915172    1.6065247    2.1321014   -1.2933011 
13010000    1.0521278 -1.3213489e-05   0.55354539  0.018584526            0   0.53496086    1.5703007    2.1238461    1.2105297 
13015000   0.99320997 1.6193702e-06   0.64534973  0.046024939            0   0.59932479    1.4823659    2.1277156    2.2396465 
13020000    1.0509803 3.1621585e-06    0.5910662  0.031864354            0   0.55920185    1.5685882    2.1596544    2.3782228 
13025000    1.0843155 -1.9682433e-05   0.58045517 0.0070130364            0   0.57344213    1.6183409    2.1987961   0.83834634 
13030000    1.0783538 2.0710141e-05   0.57167116 0.0093171966            0   0.56235397     1.609443    2.1811142    3.6125991 
13035000    1.0377209 6.5731497e-05    0.6275903 0.0054386233            0   0.62215168    1.5487985    2.1763888    6.7197498 
13040000    1.0602928 6.4414597e-05   0.58762958  0.022871816            0   0.56475777    1.5824871    2.1701167    6.6224536 
13045000    1.0758336 8.2356892e-05   0.58609942  0.026229851            0   0.55986957    1.6056816     2.191781    7.8842894 
13050000    1.1304466 2.3836602e-05   0.48902318  0.016487676            0    0.4725355    1.6871915    2.1762147    3.8238007 
13055000    1.0356505 -2.3069553e-05   0.61575883  0.017599795            0   0.59815903    1.5457084    2.1614672   0.56689971 
13060000    1.0071252 -2.5642498e-05   0.64081093   0.01685225            0   0.62395868    1.5031344    2.1439453   0.37153585 
13065000    1.0574204 -7.255324e-06   0.55919592  0.019793972            0   0.53940195       1.5782    2.1373959    1.6359079 
13070000    1.0400174 3.4170503e-05   0.58292221  0.023502049            0   0.55942016    1.5522259    2.1351481    4.4970133 
13075000     1.040734 2.9892665e-06   0.55966029  0.029644972            0   0.53001532    1.5532955    2.1129558    2.3195739 
13080000     1.088126 9.0926972e-06   0.49192547  0.025286796            0   0.46663867    1.6240281    2.1159535    2.7444408 
13085000   0.97280696 4.5321209e-05   0.65475683  0.040701095            0   0.61405574    1.4519144    2.1066712    5.2392732 
13090000    1.0164783 6.0161762e-06   0.60113695  0.054332542            0   0.54680441    1.5170938    2.1182308    2.5340689 
13095000    1.0557441 -9.8210269e-06   0.53593074  0.027232727            0   0.50869801    1.5756981    2.1116288    1.4327994 
13100000    1.0834166 2.0002766e-05   0.51636686  0.021701533            0   0.49466533    1.6169993    2.1333662    3.5159573 
13105000    1.0581094 -2.4422688e-05   0.54833651  0.022805762            0   0.52553075    1.5792282    2.1275648   0.43946856 
13110000    1.0287727 7.2674234e-06   0.60251036  0.015110158            0    0.5874002    1.5354432    2.1379536    2.6402779 
13115000    1.0332738 -4.5024489e-05   0.58186333  0.019499823            0   0.56236351    1.5421612    2.1240245  -0.98806821 
13120000    1.0404678 1.2528077e-05   0.57693481  0.030867078            0   0.54606773    1.5528982     2.129833    2.9957737 
13125000     1.093502 -6.5394545e-06   0.50036686  0.012388396            0   0.48797846    1.6320518    2.1324187    1.6804116 
13130000    1.0218949 -1.9122677e-06   0.61884994   0.06385176            0   0.55499818    1.5251782    2.1440281    2.0118522 
13135000    1.0469786 -1.2126688e-05   0.57685681  0.042481584            0   0.53437522    1.5626156    2.1394724    1.3012758 
13140000    1.0556501 -1.8930358e-05   0.54585041  0.010028852            0   0.53582156    1.5755578    2.1214082   0.81294186 
13145000    1.0515585 -4.3388539e-05   0.54491331  0.016039221            0   0.52887409     1.569451    2.1143643  -0.88465151 
13150000     1.011845 -5.623433e-05   0.58555943  0.016264539            0    0.5692949    1.5101787    2.0957382   -1.7911787 
13155000    1.0187666 -2.2988771e-05   0.59874019  0.028081728            0   0.57065846    1.5205091    2.1192493   0.53026549 
13160000   0.99514989 -5.9831066e-05   0.61500404  0.016388768            0   0.59861527    1.4852612    2.1002653   -2.0352581 
13165000    1.0157749 -6.2675027e-05   0.56628114  0.018801052            0   0.54748009     1.516044    2.0823251   -2.2497727 
13170000   0.98768822 1.0155576e-05   0.59208998  0.012389383            0    0.5797006    1.4741247    2.0662147     2.768168 
13175000    1.0038954 4.219897e-05   0.57691001  0.012413499            0   0.56449651    1.4983138    2.0752238    4.9920167 
13180000   0.98123759 -3.4122888e-05   0.58532215  0.026061706            0   0.55926044    1.4644971    2.0498193  -0.30875475 
13185000    1.0092051 -3.505549e-05   0.53973824  0.015059802            0   0.52467844    1.5062386    2.0459768  -0.37705868 
13190000    1.0588723 -2.4713551e-05   0.45981107 0.0095020335            0   0.45030903    1.5803669     2.040178   0.33197734 
13195000   0.98613757 6.1766804e-05    0.5657652  0.022909034            0   0.54285617    1.4718103    2.0375755     6.306897 
13200000   0.95480387 -2.8566757e-05   0.60442465  0.024503606            0   0.57992104    1.4250448    2.0294694  0.054935143 
13205000   0.96531877 -1.2233547e-05   0.58845179  0.016745872            0   0.57170591    1.4407383      2.02919    1.1836073 
13210000   0.99632865 2.6980701e-05   0.54701421   0.01822585            0   0.52878836    1.4870205    2.0340347    3.8989408 
13215000   0.99383747 9.0453786e-06   0.53498569 0.0075695038            0   0.52741618    1.4833024    2.0182881    2.6435047 
13220000   0.96915139 1.9492283e-05   0.56177163 0.0059049918            0   0.55586664    1.4464584    2.0082301    3.3555367 
13225000    1.0051888 6.7541975e-05   0.51438807  0.017987962            0   0.49640011    1.5002443    2.0146324    6.6831337 
13230000   0.96991552 -1.323873e-05   0.57260708  0.030228764            0   0.54237832    1.4475989     2.020206     1.105145 
13235000    1.0033155 -3.7295194e-05   0.53662268  0.028334495            0   0.50828818    1.4974484    2.0340711  -0.54377272 
13240000    1.0334548 -4.4586314e-05   0.51495601  0.022165445            0   0.49279057    1.5424312    2.0573873   -1.0244187 
13245000    1.0165004 2.9663418e-05   0.54563797  0.011921909            0   0.53371606    1.5171268    2.0627648    4.1131003 
13250000   0.96394142 8.291426e-06   0.61893371  0.012539703            0   0.60639401    1.4386826    2.0576163    2.6307196 
13255000    0.9505519 -4.5030359e-06   0.64365445  0.023514394            0   0.62014006    1.4186987    2.0623532    1.7511033 
13260000    1.0643174 -1.9189511e-05    0.4877077   0.02057819            0   0.46712951    1.5884938    2.0762015   0.74982249 
13265000    1.0568087 3.959695e-05   0.49113412  0.006488597            0   0.48464552    1.5772869    2.0684211    4.8053623 
13270000    1.0640866 8.782672e-07   0.46326106  0.015472266            0    0.4477888    1.5881492    2.0514103    2.1121161 
13275000   0.94702796 -2.170088e-05   0.62058813  0.011514042            0   0.60907409    1.4134392    2.0340274   0.53406257 
13280000    1.0007714 -6.8449908e-06   0.55597679 0.0073483618            0   0.54862842    1.4936512     2.049628    1.5765023 
13285000    1.0499944 8.0173735e-06   0.50158597 0.0097985705            0    0.4917874    1.5671166    2.0687025    2.6228634 
13290000    1.0193947 -1.6181871e-05   0.56955722  0.013792615            0    0.5557646    1.5214465    2.0910038   0.97251281 
13295000    1.0448597 -6.2491783e-06   0.53294296  0.012426143            0   0.52051682    1.5594531     2.092396    1.6604528 
13300000    1.0546581 -6.3833957e-05   0.51022803  0.018559695            0   0.49166834    1.5740773    2.0843053   -2.3278978 
13305000    0.9997819 -1.6242556e-05   0.60338665  0.020445515            0   0.58294114    1.4921745    2.0955611    0.9728757 
13310000    1.0309824 2.9835032e-05   0.55572058  0.022395827            0   0.53332475    1.5387412    2.0944618    4.1566592 
13315000    1.0726789 2.8344495e-05    0.5127482    0.0145837            0    0.4981645    1.6009733    2.1137215     4.072893 
13320000    1.0360944 -5.1620429e-05   0.56635807  0.024106909            0   0.54225116    1.5463708    2.1127289   -1.4552752 
13325000    1.0499159 -2.5457999e-05   0.53622666  0.010419577            0   0.52580709    1.5669995    2.1032262   0.34356928 
13330000     1.050733 -5.1428057e-05   0.52229284  0.032958989            0   0.48933385    1.5682189    2.0905118   -1.4641955 
13335000    1.0248719 -4.5355637e-05   0.54527166  0.028477755            0   0.51679391    1.5296213     2.074893   -1.0600886 
13340000    1.0343241 -3.5788396e-05   0.54113919  0.020192624            0   0.52094656    1.5437288     2.084868  -0.38882598 
13345000    1.0302572 -2.2135253e-06   0.53617424   0.02708463            0   0.50908961    1.5376589    2.0738331    1.9208343 
13350000    1.0503272 2.2793827e-05   0.49262815  0.016744215            0   0.47588394    1.5676134    2.0602415    3.6357508 
13355000   0.97806311 -2.5052896e-05   0.58886932  0.029311712            0   0.55955761    1.4597592    2.0486285   0.31697234 
13360000    1.0173873 -2.720175e-06   0.53529266  0.039914415            0   0.49537824    1.5184506    2.0537433    1.8657248 
13365000    1.0050784 7.4508606e-06   0.54982216  0.031323481            0   0.51849867    1.5000794    2.0499016    2.5649051 
13370000    1.0109909 -1.5656579e-06   0.56870027  0.022594571            0    0.5461057     1.508904    2.0776042     1.969386 
13375000    1.0305984 -1.2046799e-05   0.55547992  0.018577734            0   0.53690219    1.5381681     2.093648    1.2609733 
13380000    1.0354023 -2.3603727e-05     0.542523  0.018216602            0    0.5243064    1.5453379    2.0878609   0.45637126 
13385000    1.0910717 5.5263356e-06   0.47255125   0.01167642            0   0.46087483    1.6284244    2.1009757     2.482956 
13390000    1.0003217 -4.2548728e-06   0.59275409  0.023469438            0   0.56928465    1.4929801    2.0857342    1.7916374 
13395000    1.0859449 -2.1560775e-05   0.45346503  0.016871688            0   0.43659334    1.6207728    2.0742378    0.5839571 
13400000   0.99306845 1.1295471e-06   0.59741457  0.012245271            0    0.5851693    1.4821547    2.0795692    2.1576435 
13405000    1.0506286 3.4848538e-05   0.51264375  0.048502979            0   0.46414077    1.5680632    2.0807069    4.4894378 
13410000   0.96748229 -2.9443801e-05   0.63470546  0.058794901            0   0.57591056    1.4439673    2.0786728  0.043517239 
13415000   0.99910012 -8.1886392e-05   0.58069032  0.034411107            0   0.54627921    1.4911569    2.0718472   -3.5881402 
13420000   0.99820118 1.0028725e-05   0.55401306  0.027881653            0    0.5261314    1.4898153    2.0438283    2.7370138 
13425000    1.0055547 1.6465298e-05   0.54360508  0.022451228            0   0.52115386    1.5007903    2.0443954    3.1824768 
13430000    1.0044136 3.4090911e-05   0.53994848  0.007099137            0   0.53284935    1.4990873    2.0390358    4.3953996 
13435000    1.0088376 3.9766057e-05   0.54771098  0.018996293            0   0.52871469      1.50569     2.053401    4.8020309 
13440000    1.0032881 4.0157385e-05   0.55352527  0.037723079            0   0.51580219    1.4974076    2.0509328    4.8266113 
13445000   0.99431314 -4.4121521e-05   0.58592491  0.029230361            0   0.55669455    1.4840124    2.0699373  -0.97974227 
13450000    1.0286056 -2.9252709e-05   0.52392236  0.011673056            0   0.51224931    1.5351939    2.0591163  0.037168979 
13455000    1.0475783 -5.4786237e-05   0.48369447  0.013983162            0    0.4697113    1.5635106    2.0472051   -1.7396196 
13460000   0.94413151 1.180104e-05   0.62574826   0.02238286            0    0.6033654    1.4091163    2.0348645    2.8505524 
13465000    1.0689677 3.1326833e-05   0.43093491 0.0081922905            0   0.42274262    1.5954342    2.0263691    4.1916799 
13470000     1.005828 5.9445989e-05   0.52318401  0.012941059            0   0.51024296    1.5011983    2.0243823    6.1332891 
13475000   0.97238649 2.1638003e-05     0.568177   0.01073567            0   0.55744133    1.4512868    2.0194638    3.5150826 
13480000    1.0053587 4.6974572e-05   0.51764977  0.011373526            0   0.50627625    1.5004978    2.0181476    5.2650301 
13485000   0.98441635 -2.4564135e-05   0.53641684  0.019941016            0   0.51647582    1.4692414    2.0056582   0.30778525 
13490000   0.93483478 -1.3486177e-06   0.60700929  0.053891791            0    0.5531175    1.3952409    2.0022502    1.9090337 
13495000   0.95236753 3.9627384e-06   0.57073658  0.041417025            0   0.52931956    1.4214085    1.9921451    2.2660496 
13500000   0.98364212 -8.4302373e-06    0.5009373 0.0056490228            0   0.49528828    1.4680859    1.9690232    1.3863252 
13505000   0.97532531 1.7083955e-05   0.51503959  0.023493739            0   0.49154585     1.455673    1.9707126    3.1515555 
13510000    1.0260125 -2.4678444e-05   0.44936125  0.017854877            0   0.43150637    1.5313237    1.9806849   0.27491082 
13515000   0.96910909 9.1439382e-06   0.53558917  0.016341725            0   0.51924745    1.4463953    1.9819845    2.6140135 
13520000   0.96571031 6.4326977e-05   0.55044262 0.0072589627            0   0.54318366    1.4413226    1.9917653    6.4380459 
13525000    1.0135953 4.0813504e-05   0.49466543  0.006008926            0   0.48865651     1.512791    2.0074564    4.8284858 
13530000   0.94358202 -5.7273077e-05   0.60257473  0.012200215            0   0.59037452    1.4082962    2.0108709   -1.9478442 
13535000   0.97793584 -3.6230269e-05   0.54861759 0.0078867751            0   0.54073082    1.4595692    2.0081868  -0.49604934 
13540000    1.0125281 -6.1345383e-06   0.49279489 0.0096457422            0   0.48314914    1.5111983    2.0039931    1.5799739 
13545000   0.99078414 1.4816513e-05   0.50742147  0.021452454            0   0.48596902    1.4787453    1.9861668    3.0102842 
13550000    1.0174626 -7.6024446e-06    0.4719508  0.021995471            0   0.44995533    1.5185629    1.9905137    1.4650328 
13555000    1.0010407 -1.5409935e-05    0.4961573  0.020048371            0   0.47610892    1.4940533    1.9902106   0.92507584 
13560000   0.94882963 -1.1491192e-06   0.59228045 0.0091758082            0   0.58310464    1.4161282    2.0084087    1.9289815 
13565000    1.0017735 1.616463e-05   0.50550619 0.0081695893            0    0.4973366     1.495147    2.0006532    3.1179524 
13570000   0.93171316 -6.6435901e-05   0.59199539  0.030947328            0   0.56104806    1.3905819    1.9825773   -2.6094722 
13575000   0.96459446 -2.4828459e-05   0.52798194  0.024319062            0   0.50366288    1.4396572    1.9676392   0.25149612 
13580000   0.97844086 -2.7196234e-06   0.50982352  0.015909147            0   0.49391437     1.460323    1.9701465    1.7821661 
13585000   0.97458118 -1.4172197e-05   0.53360939  0.026050407            0   0.50755899    1.4545624    1.9881718    1.0085895 
13590000    1.0229575 9.3594207e-05    0.4665346  0.015085788            0   0.45144881     1.526764    1.9932986    8.4625302 
13595000   0.97072081 1.6032019e-05   0.53152678  0.015247037            0   0.51627975    1.4488008    1.9803276    3.0884607 
13600000   0.93340659 -3.6227813e-05   0.59071013  0.018367321            0    0.5723428    1.3931093    1.9838195  -0.52024699 
13605000   0.97882225 -8.2133976e-06   0.52403189  0.018850559            0   0.50518133    1.4608922    1.9849241    1.4172141 
13610000    1.0027494 -2.5864612e-05   0.49763257   0.01750749            0   0.48012508    1.4966035    1.9942361   0.20647405 
13615000    1.0439511 1.035318e-06   0.44599159 0.0095451474            0   0.43644644     1.558097    2.0040886    2.0756498 
13620000   0.96227769 -9.4790806e-06   0.54350098 0.0060649367            0   0.53743604    1.4361995    1.9797004    1.3245064 
13625000   0.97494535 -4.5540003e-05   0.51738835 0.0088553597            0   0.50853299    1.4551059    1.9724943   -1.1752307 
13630000   0.99808511 -2.3127513e-05   0.48330678  0.010954431            0   0.47235235     1.489642    1.9729488   0.37437509 
13635000   0.96000585 3.6604002e-05   0.53722301  0.025970468            0   0.51125254    1.4328087    1.9700317    4.5001004 
13640000   0.94154624 -4.7099879e-05   0.54850622  0.031344433            0   0.51716179    1.4052578     1.953764   -1.3017797 
13645000   0.95937844 1.3992772e-05   0.52190281  0.043913515            0   0.47798929    1.4318723    1.9537751    2.9209555 
13650000   0.95922855 9.0164779e-05   0.52525091  0.026251587            0   0.49899932    1.4316486    1.9568995     8.189089 
13655000   0.95664749 -2.6820427e-05   0.51907752  0.013697167            0   0.50538036    1.4277964    1.9468739   0.09304596 
13660000   0.91459814 -1.0776232e-05   0.57453984  0.033488832            0   0.54105101    1.3650377    1.9395776    1.1947244 
13665000   0.95267403 9.6821071e-06   0.52136532  0.028341576            0   0.49302375     1.421866    1.9432313    2.6124586 
13670000   0.94662207 2.7722571e-05   0.54585875  0.019061453            0    0.5267973    1.4128334    1.9586922    3.8748763 
13675000   0.96954094 6.7695778e-05   0.50271885  0.021825342            0   0.48089351    1.4470399    1.9497587    6.6288909 
13680000   0.93423724 -4.2775264e-05   0.56446812   0.02293044            0   0.54153768    1.3943491    1.9588172  -0.99780905 
13685000   0.94642498 1.6329277e-05    0.5490417  0.030854309            0   0.51818739    1.4125393     1.961581    3.0902606 
13690000   0.96899162 5.7385546e-06   0.50439082  0.046685209            0   0.45770561      1.44622    1.9506108    2.3472597 
13695000   0.99886175 -2.8080101e-05   0.47620284   0.01441796            0   0.46178488    1.4908012     1.967004  0.026107457 
13700000    1.0028723 7.8599783e-05   0.45722485  0.012503261            0   0.44472159    1.4967869    1.9540117    7.3868287 
13705000   0.99613276 2.0526946e-05   0.48164939  0.011862298            0   0.46978709    1.4867281    1.9683775       3.3872 
13710000   0.97309217 5.0025684e-05   0.51694279  0.041642606            0   0.47530018    1.4523401    1.9692829    5.4270581 
13715000   0.98331582 -1.9678088e-05   0.50548337  0.013437286            0   0.49204608    1.4675989    1.9730822   0.61293279 
13720000   0.99508504 -6.857751e-05   0.49211853 0.0099993968            0   0.48211913    1.4851644     1.977283   -2.7627945 
13725000    0.9665004 -2.6578677e-05    0.5137721  0.016438633            0   0.49733346    1.4425018    1.9562739   0.11915578 
13730000   0.98305347 1.8510337e-05   0.48662368  0.016420669            0   0.47020301    1.4672073     1.953831    3.2332655 
13735000   0.94080779 8.7526457e-05   0.54375994  0.017813876            0   0.52594606    1.4041556    1.9479156    7.9977442 
13740000   0.95125545 -2.2710967e-05   0.53092805  0.021421156            0    0.5095069    1.4197488    1.9506768   0.38089476 
13745000   0.94444231 -2.4979358e-05    0.5311717  0.020574229            0   0.51059747    1.4095801    1.9407518    0.2141786 
13750000   0.96813259 3.018854e-05   0.51133448    0.0218415            0   0.48949298    1.4449379    1.9562724    4.0429043 
13755000    0.9551845 2.349201e-05   0.54133334  0.019456998            0   0.52187634    1.4256129    1.9669462     3.590714 
13760000    0.9962834 1.6234744e-05   0.47101827  0.011522687            0   0.45949558     1.486953    1.9579712    3.0801168 
13765000   0.96410886 3.6879039e-05   0.52530057 0.0037873434            0   0.52151322    1.4389325     1.964233    4.5133122 
13770000    1.0004256 1.6332255e-05   0.49264198  0.004717692            0   0.48792429    1.4931352    1.9857772    3.1146627 
13775000    0.9893554 -9.7684123e-06   0.50784725 0.0046124641            0   0.50323478    1.4766129    1.9844602    1.3092675 
13780000   0.94885826 -9.1901606e-05   0.56371853  0.019561306            0   0.54415723     1.416171    1.9798895   -4.3723495 
13785000   0.97286876 6.7999621e-06   0.53060715  0.017973228            0   0.51263392    1.4520066    1.9826138    2.4526271 
13790000   0.96691171 -2.0258523e-05   0.52853241  0.011182991            0   0.51734942    1.4431157    1.9716481     0.571379 
13795000   0.96026579 -3.0669141e-05   0.54389667  0.015855101            0   0.52804157    1.4331967    1.9770934  -0.14275767 
13800000   0.95871089 -4.2799536e-05   0.53476673  0.029524929            0    0.5052418     1.430876    1.9656427  -0.99266115 
13805000   0.99068019 1.6297504e-05   0.48949354  0.018409976            0   0.47108357    1.4785902    1.9680837    3.0945672 
13810000   0.94577865 1.2467714e-05   0.56173638  0.011789413            0   0.54994697    1.4115746     1.973311    2.8350794 
13815000   0.97737377 4.6512952e-05    0.5014171  0.023371142            0   0.47804596    1.4587303    1.9601474    5.1751227 
13820000   0.98878475 5.6712137e-05    0.4964932  0.015272029            0   0.48122117    1.4757612    1.9722544    5.8921973 
13825000   0.99107453 7.4586316e-06   0.49111719 0.0039106767            0   0.48720651    1.4791787    1.9702959    2.4858366 
13830000   0.92725906 -4.4661387e-05   0.57514819  0.013141384            0   0.56200681    1.3839341    1.9590823   -1.1279127 
13835000    1.0316898 -1.4060967e-05   0.40342234 0.0078205617            0   0.39560178    1.5397971    1.9432194   0.97132542 
13840000   0.89019812 2.2223014e-05   0.60990592 0.0053142759            0   0.60459164    1.3286207    1.9385266    3.4745814 
13845000    0.9579248 4.614064e-05   0.49198385 0.0051680249            0   0.48681582    1.4297028    1.9216866    5.1109277 
13850000   0.95607101 6.7279432e-05   0.49673949 0.0095488389            0   0.48719065     1.426936    1.9236755    6.5740298 
13855000   0.93262577 3.0758494e-05   0.50741746  0.013803641            0   0.49361382     1.391944    1.8993614    4.0253885 
13860000   0.93907699 1.2326353e-05   0.48524259  0.010440319            0   0.47480227    1.4015724     1.886815    2.7388125 
13865000   0.89620428 -5.6636422e-06   0.55556835 0.0052262479            0   0.55034211    1.3375849    1.8931532    1.5016823 
13870000   0.96527516 -6.4367043e-06   0.45937396 0.0095166168            0   0.44985734    1.4406732    1.9000471    1.4551421 
13875000   0.92330858 -3.4268756e-05   0.52488835 0.0091937364            0   0.51569461    1.3780381    1.9029264  -0.46572999 
13880000   0.93915433 -6.9218486e-06   0.46480538 0.0048598093            0   0.45994557    1.4016878    1.8664932     1.388055 
13885000   0.88048288 6.5515939e-06   0.55418064  0.002598276            0   0.55158236    1.3141207    1.8683013    2.3211475 
13890000   0.91313525 7.0149969e-06   0.49710133  0.007700436            0   0.48940089    1.3628544    1.8599557    2.3448323 
13895000   0.92316074 3.4331075e-05   0.48836919  0.012347784            0    0.4760214    1.3778174    1.8661866    4.2391505 
13900000   0.88284696 -2.5910355e-05   0.57345015  0.031945374            0   0.54150477    1.3176491    1.8910992   0.10017553 
13905000   0.91773432 -2.2034178e-05   0.52418442  0.019758203            0   0.50442622    1.3697185    1.8939029    0.3709005 
13910000    0.9273597 3.6797367e-05   0.49803506   0.01806083            0   0.47997424    1.3840843    1.8821194    4.4255534 
13915000   0.91580371 2.9795094e-05   0.50116979  0.021115301            0   0.48005448     1.366837    1.8680068    3.9274437 
13920000   0.87631618 -1.8979896e-05   0.57865785  0.012393023            0   0.56626483    1.3079019    1.8865597   0.57466932 
13925000   0.94097428 -3.675175e-05   0.49296073  0.012076407            0   0.48088433    1.4044041    1.8973649  -0.64291609 
13930000   0.92075659 2.8732549e-05   0.49447061   0.01313729            0   0.48133332    1.3742292    1.8686998    3.8546936 
13935000   0.92823007 3.5462782e-05   0.49752608  0.026882537            0   0.47064354    1.3853834    1.8829095     4.334097 
13940000   0.86542199 2.0692774e-05   0.60105314  0.015330702            0   0.58572244    1.2916423    1.8926955      3.32298 
13945000    0.9702197 8.3666386e-05   0.46575169  0.015551357            0   0.45020034    1.4480529    1.9138046    7.6968252 
13950000   0.89647469 4.3793864e-05   0.56466612  0.026962787            0   0.53770333    1.3379885    1.9026546    4.9296865 
13955000   0.96515407 -1.5335829e-05    0.4739256  0.017717908            0    0.4562077    1.4404925    1.9144181   0.85440555 
13960000   0.92932827 2.7394654e-05   0.54135365  0.014412597            0   0.52694105    1.3870224    1.9283761    3.8218945 
13965000   0.90199905 1.9408685e-05   0.57325293  0.018911767            0   0.55434116    1.3462336    1.9194865    3.2610148 
13970000   0.98095282 3.5509749e-05   0.45957447 0.0089427048            0   0.45063177    1.4640721    1.9236466    4.3780804 
13975000   0.94487657 5.0371813e-05   0.52766101  0.018399113            0    0.5092619    1.4102283    1.9378893     5.419589 
13980000   0.96386286 -3.6529867e-05   0.51423261  0.030236556            0   0.48399605    1.4385653    1.9527979  -0.57214646 
13985000   0.96340186 -7.2362332e-05   0.50946836  0.031291098            0   0.47817726    1.4378773    1.9473456   -3.0543388 
13990000   0.97341622 -1.2178511e-05    0.4988398    0.0206369            0    0.4782029    1.4528237    1.9516635    1.1098849 
13995000   0.94506965 4.2798262e-05   0.55136876  0.027642101            0   0.52372666    1.4105165    1.9618852    4.9201011 
14000000   0.91617539 7.0911095e-05   0.58374162  0.022649342            0   0.56109228    1.3673918    1.9511334    6.8525083 
14005000   0.99547407 -2.3453262e-05   0.48468818  0.016054704            0   0.46863347    1.4857451    1.9704332   0.34934374 
14010000   0.96005063 -7.0090217e-05   0.53329093  0.011434192            0   0.52185674    1.4328756    1.9661665   -2.8784693 
14015000   0.97449695 -2.0487542e-05   0.51772691 0.0092825625            0   0.50844434    1.4544367    1.9721636   0.55606473 
14020000   0.97387389 -1.2999709e-05   0.52603759  0.010600474            0   0.51543711    1.4535068    1.9795444    1.0810044 
14025000   0.97696131 -5.7037211e-05   0.50253901 0.0060787948            0   0.49646021    1.4581148    1.9606538   -1.9817582 
14030000   0.95155057 -3.8460942e-05   0.52614371  0.011774165            0   0.51436955    1.4201892    1.9463329  -0.71208734 
14035000   0.93970682 8.8389399e-06   0.54060852  0.018123184            0   0.52248534    1.4025124     1.943121    2.5540685 
14040000   0.95334717 2.1225148e-05   0.50052287  0.004216675            0    0.4963062    1.4228706    1.9233935    3.3904758 
14045000   0.95343832 2.2949531e-05   0.52644736  0.010623367            0     0.515824    1.4230067    1.9494541    3.5357257 
14050000   0.96216161 1.5626925e-06   0.51288191  0.031770107            0    0.4811118    1.4360262    1.9489081    2.0569214 
14055000   0.98718173 -6.4076218e-05   0.49413272  0.014520345            0   0.47961238    1.4733687    1.9675015   -2.4614467 
14060000   0.95890133 -1.9361216e-05   0.54377436 0.0036255666            0   0.54014879    1.4311602    1.9749346   0.63668731 
14065000    1.0245176 1.6720946e-05   0.43558683  0.011850681            0   0.42373615    1.5290925    1.9646793    3.1204311 
14070000   0.96867416 1.3330747e-05    0.5032357  0.023156678            0   0.48007902    1.4457462    1.9489819    2.8704031 
14075000   0.91987748 3.103604e-05   0.55873961  0.011051455            0   0.54768816    1.3729171    1.9316567    4.0768678 
14080000   0.99442154 -2.2550705e-05   0.44415164 0.0058973105            0   0.43825433    1.4841742    1.9283258   0.36962107 
14085000   0.94930214 -3.3354529e-05   0.51930643  0.013706145            0   0.50560029    1.4168334    1.9361399  -0.36932519 
14090000   0.91229296 -4.4737853e-05   0.56990186  0.025396502            0   0.54450536    1.3615972    1.9314991   -1.1607813 
14095000   0.97666716 -8.8520043e-06   0.47336574  0.032616349            0   0.44074939    1.4576757    1.9310415    1.3191909 
14100000   0.95214291 -2.0436976e-05    0.5129548  0.012986101            0    0.4999687    1.4210733    1.9340281    0.5214243 
14105000   0.96271959 -1.3195783e-05   0.49460923 0.0090850029            0   0.48552423     1.436859    1.9314682    1.0193757 
14110000   0.96357477 1.0561629e-05   0.50403655  0.023184161            0   0.48085239    1.4381353    1.9421719    2.6721917 
14115000    0.9969744 -3.0159417e-05   0.44530242  0.010636915            0    0.4346655    1.4879843    1.9332867  -0.15133218 
14120000   0.94656653 -7.4792126e-05   0.52364455  0.017820175            0   0.50582438    1.4127505    1.9363951   -3.2332366 
14125000   0.91984547 -2.1341941e-05   0.56507014  0.020943149            0   0.54412699    1.3728694    1.9379395   0.46278454 
14130000   0.92225949 1.5359327e-05   0.56461621  0.015577203            0   0.54903901    1.3764723    1.9410885    3.0027252 
14135000   0.98041584 -5.1308242e-06   0.48949128  0.011334414            0   0.47815687    1.4632706    1.9527619    1.5981194 
14140000   0.94666229 -2.6655304e-05   0.53557997  0.017110881            0   0.51846909    1.4128935    1.9484734   0.10605882 
14145000   0.97216521 -3.4687134e-05   0.51338908  0.032940294            0   0.48044879    1.4509566    1.9643457  -0.43322905 
14150000   0.98352825 -2.5775631e-06   0.51273694    0.0261043            0   0.48663264    1.4679159    1.9806528    1.8024917 
14155000   0.98981644 4.6747624e-05   0.50030037  0.021751985            0   0.47854839     1.477301    1.9776014    5.2087972 
14160000   0.93062595 3.365946e-05   0.58978144  0.026240427            0   0.56354101    1.3889592    1.9787407    4.3052825 
14165000   0.97975108 -1.0731644e-05   0.51004847  0.014981873            0    0.4950666    1.4622785     1.972327    1.2305557 
14170000   0.96437614 -1.3939869e-05   0.53378218   0.02485629            0   0.50892589    1.4393314    1.9731136    1.0095898 
14175000    1.0022167 -3.5887812e-05    0.4714278  0.018909952            0   0.45251785    1.4958085    1.9672363  -0.51332923 
14180000   0.94243186 -3.2862122e-06   0.56561245  0.017529334            0   0.54808311    1.4065795     1.972192     1.745049 
14185000   0.99501745 2.2674772e-06   0.50039844  0.028084852            0   0.47231359    1.4850635     1.985462      2.14219 
14190000   0.99381735 -3.8557774e-05   0.48820406  0.037376108            0   0.45082795    1.4832724    1.9714765  -0.69363687 
14195000   0.97058253 -5.4270534e-05   0.52265254   0.01478585            0   0.50786669    1.4485944     1.971247   -1.7799324 
14200000   0.92504652 -3.2125592e-05   0.58285015 0.0054663098            0   0.57738384    1.3806319    1.9634821  -0.25703882 
14205000   0.93258303 -1.0782028e-05   0.56039968 0.0079967383            0   0.55240294    1.3918802    1.9522799    1.2070261 
14210000   0.92333282 1.1730471e-05   0.58267896  0.016954462            0    0.5657245    1.3780742    1.9607532    2.7715633 
14215000   0.96807485 3.9751264e-05   0.52943818  0.033237683            0   0.49620049    1.4448517    1.9742899    4.7218973 
14220000    1.0065905 2.8594766e-05   0.48559696  0.047270918            0   0.43832605    1.5023363    1.9879333    3.9644036 
14225000    0.9407898 3.6561869e-05   0.57065371  0.022691347            0   0.54796237    1.4041288    1.9747825    4.5019389 
14230000   0.99231634 6.0964175e-06   0.49281249  0.011289318            0   0.48152317    1.4810321    1.9738446     2.395229 
14235000   0.98493903 -2.8937921e-05   0.49941649  0.019519244            0   0.47989725    1.4700215     1.969438 -0.030751088 
14240000   0.92003518 7.060642e-06   0.58283032  0.025053956            0   0.55777637    1.3731525    1.9559828    2.4440144 
14245000   0.96401609 4.2759389e-06   0.52350719  0.024195399            0   0.49931179     1.438794    1.9623012    2.2578541 
14250000   0.98105444 8.368016e-06   0.50831791  0.028028617            0   0.48028929    1.4642238    1.9725417    2.5509389 
14255000   0.97284285 3.4098386e-05   0.51545788  0.013276753            0   0.50218113     1.451968    1.9674258    4.3243063 
14260000   0.95722051 3.6611537e-05   0.53939143 0.0082358444            0   0.53115559    1.4286516     1.968043    4.4986325 
14265000   0.98579645 4.4119903e-05   0.50661862  0.010204966            0   0.49641365    1.4713012    1.9779198    5.0274875 
14270000   0.98395555 8.0845736e-06   0.52503157 0.0094226568            0   0.51560891    1.4685537    1.9935852    2.5523909 
14275000   0.96849348 -1.4907605e-05   0.53533036 0.0096910012            0   0.52563936    1.4454765    1.9808069   0.95039324 
14280000    0.9834931 -1.0488657e-05   0.51362841  0.018800398            0   0.49482801    1.4678635    1.9814919    1.2565159 
14285000   0.97947375 -7.2580658e-06   0.53440593  0.039386581            0   0.49501934    1.4618646    1.9962705     1.494593 
14290000    0.9842687 3.1390654e-06   0.53918735  0.035742984            0   0.50344436     1.469021    2.0082084    2.2251806 
14295000   0.94774963 -1.355113e-05   0.60607826  0.032883587            0   0.57319467    1.4145163    2.0205946    1.0839405 
14300000    1.0013461 1.4956646e-05    0.5184496  0.017086243            0   0.50136336    1.4945091    2.0129587    3.0467621 
14305000    1.0081756 1.5900912e-05   0.52660693  0.012976101            0   0.51363083    1.5047021    2.0313091    3.1303801 
14310000    1.0325679 -6.3549418e-06   0.48464318  0.010329858            0   0.47431332    1.5411076    2.0257508    1.5864972 
14315000   0.99746636 1.5577436e-05   0.55649495  0.024933662            0   0.53156128    1.4887185    2.0452135    3.1219259 
14320000    1.0288726 -5.4541299e-07   0.51769134  0.015448865            0   0.50224248    1.5355923    2.0532836    2.0155847 
14325000    1.0431497 -4.0429059e-06   0.51744201  0.016006277            0   0.50143573    1.5569009    2.0743429    1.7948973 
14330000   0.99799031 1.2021221e-05   0.57109656  0.014165505            0   0.55693106    1.4895005    2.0605971    2.8915039 
14335000   0.98000385 9.4407007e-06     0.586774  0.017245302            0    0.5695287    1.4626557    2.0494297     2.701971 
14340000    1.0252029 -2.1045382e-05   0.52027445    0.0120122            0   0.50826225    1.5301153    2.0503898     0.595733 
14345000    1.0067383 -7.5942674e-07   0.56160755  0.021409299            0   0.54019825     1.502557    2.0641645    2.0116729 
14350000    1.0051097 3.2076588e-05   0.55808072  0.036891246            0   0.52118948    1.5001262    2.0582069    4.2753407 
14355000   0.99789115 -2.7361508e-05   0.56991288  0.037424453            0   0.53248843    1.4893525    2.0592654   0.16803796 
14360000   0.97310004 -2.3148691e-05    0.5943545  0.024874867            0   0.56947963    1.4523518    2.0467063   0.44666881 
14365000   0.99743075 -2.517343e-05   0.54228634  0.017127379            0   0.52515896    1.4886654    2.0309517   0.29096425 
14370000    1.0044387 -1.2656902e-05   0.52867095  0.026889209            0   0.50178174    1.4991248    2.0277958    1.1529507 
14375000   0.96910571 1.9140195e-05   0.59462726  0.060511109            0   0.53411615    1.4463903    2.0410175    3.3639878 
14380000    1.0257899 6.3773298e-05   0.51487482  0.023332973            0   0.49154184    1.5309914    2.0458662    6.4538765 
14385000    1.0282687 1.0242074e-05   0.50063668 0.0012656274            0   0.49937105     1.534691    2.0353277    2.7432599 
14390000     1.007451 -9.0815662e-05   0.52874761 0.0058668256            0   0.52288079    1.5036207    2.0323683   -4.2448102 
14395000    1.0405832 -6.4941113e-05   0.48721989  0.011518058            0   0.47570183    1.5530705    2.0402904   -2.4484394 
14400000    0.9923596 4.2990517e-05    0.5716156 0.0068552293            0   0.56476037    1.4810967    2.0527123    5.0242168 
14405000   0.97665222 5.5635865e-05   0.58440617 0.0080081128            0   0.57639805    1.4576534    2.0420596    5.8876106 
14410000   0.94892086 1.4966184e-05   0.59093775  0.011464658            0    0.5794731    1.4162644    2.0072021    3.0416648 
14415000    1.0506335 4.0269654e-05   0.45530417 0.0090133733            0    0.4462908    1.5680704    2.0233746    4.8068131 
14420000    1.0216757 -6.5617259e-06   0.51439995  0.011650085            0   0.50274986    1.5248509    2.0392509    1.5857044 
14425000    0.9747285 -2.4740572e-05   0.60348343 0.0069840342            0   0.59649939    1.4547823    2.0582657   0.34819737 
14430000    1.0033684 -4.6299353e-06    0.5681555 0.0049981815            0   0.56315731    1.4975274    2.0656829    1.7456617 
14435000    1.0459176 -1.5290677e-05    0.5098549 0.0083275787            0   0.50152733    1.5610319    2.0708868    1.0139952 
14440000     1.077904 3.0590215e-05   0.46446187 0.0049346409            0   0.45952723    1.6087716    2.0732335    4.1876292 
14445000    1.0213637 -2.0595508e-05    0.5302149   0.01112981            0   0.51908509    1.5243853    2.0546002   0.63103873 
14450000    1.0247371 -5.8480339e-05   0.52928451   0.02136153            0   0.50792298    1.5294202    2.0587047   -1.9834564 
14455000    1.0711819 -5.1181672e-05   0.45628355  0.017298705            0   0.43898485     1.598739    2.0550226   -1.4826546 
14460000    1.0345051 -1.3097573e-05   0.52654026   0.02787898            0   0.49866128    1.5439988    2.0705391    1.1652349 
14465000   0.95836473 2.0682271e-05   0.63090437  0.032004771            0    0.5988996    1.4303594    2.0612637    3.4908223 
14470000    1.0169828 9.804985e-06    0.5360596  0.039910505            0   0.49614909    1.5178468    2.0539064     2.731627 
14475000    1.0040945 1.9629539e-06   0.54089895  0.025901963            0   0.51499698     1.498611    2.0395099    2.1751893 
14480000    1.0122493 2.6197228e-06   0.53303362  0.025297842            0   0.50773578    1.5107821    2.0438157     2.224891 
14485000   0.97108251 7.7532593e-05   0.58115373  0.022695501            0   0.55845823    1.4493406    2.0304944    7.3895472 
14490000    0.9789285 -1.0396697e-05   0.57125593   0.00969294            0   0.56156299    1.4610508    2.0323067     1.313687 
14495000    1.0316588 -3.6213293e-06   0.48391735 0.0092162459            0   0.47470111    1.5397508    2.0236682    1.7733619 
14500000   0.98153063 3.8732548e-05   0.57135651  0.017613664            0   0.55374285    1.4649345     2.036291    4.7134847 
14505000    1.0131678 -2.282409e-05   0.53756743  0.019540055            0   0.51802737     1.512153    2.0497204    0.4721193 
14510000    1.0352419 -1.2422536e-05    0.5190807  0.012355822            0   0.50672488    1.5450986    2.0641793    1.2055336 
14515000    1.0410918 3.5269099e-05   0.51418171 0.0091830454            0   0.50499867    1.5538295    2.0680112    4.5058113 
14520000   0.99182719 1.825253e-05   0.58001278  0.014633705            0   0.56537907    1.4803021    2.0603149    3.3219297 
14525000    1.0020389 1.6367438e-05   0.57445793  0.020655808            0   0.55380212     1.495543    2.0700009    3.2013182 
14530000    1.0311486 5.7410745e-05   0.51835336  0.038626987            0   0.47972638    1.5389892    2.0573426    6.0255733 
14535000    1.0073066 4.7716347e-05   0.54854925   0.02777547            0   0.52077378     1.503405    2.0519543    5.3501082 
14540000     1.062227 1.4109781e-06    0.4808321   0.03566947            0   0.44516263    1.5853738    2.0662059    2.1637328 
14545000    1.0092385 8.102909e-06   0.56037953  0.032325786            0   0.52805374    1.5062885     2.066668    2.6267411 
14550000     1.014207 4.3397946e-06   0.54699482  0.015469694            0   0.53152513    1.5137039    2.0606987    2.3606653 
14555000    1.0387125 -1.0867315e-05   0.52473582  0.021047538            0   0.50368828    1.5502783    2.0750142    1.3238654 
14560000      1.00911 2.325609e-05   0.54220908  0.020136297            0   0.52207279    1.5060967    2.0483058    3.6557667 
14565000    1.0009583 -3.6301208e-05   0.54791982  0.026601806            0   0.52131802    1.4939303    2.0418501  -0.46728937 
14570000    1.0052634 1.9546333e-05   0.52263027  0.026969764            0   0.49566051    1.5003556    2.0229859    3.3740284 
14575000    1.0085131 1.2918292e-05   0.53291014  0.030767396            0   0.50214274    1.5052058    2.0381159    2.9310282 
14580000   0.97970345 4.8216556e-05   0.57167531  0.024706629            0   0.54696868    1.4622074    2.0338827    5.3666111 
14585000    1.0044246 -9.5678444e-06   0.52736716  0.014957275            0   0.51240989    1.4991037    2.0264709    1.3651415 
14590000    1.0284609 -1.1615391e-05   0.49445595  0.004393645            0    0.4900623    1.5349779    2.0294339    1.2265781 
14595000   0.99459966 -7.3304475e-05   0.54141885  0.012621789            0   0.52879706      1.48444    2.0258588   -3.0409465 
14600000   0.99995918 -7.8357932e-05   0.53263715  0.021098095            0   0.51153906    1.4924391    2.0250762    -3.391024 
14605000   0.99716382 1.4935673e-05   0.54963904  0.031546981            0   0.51809206     1.488267     2.037906    3.0702597 
14610000    1.0224722 1.3306683e-05    0.5123301  0.019816595            0    0.4925135    1.5260398    2.0383699    2.9581278 
14615000    1.0390461 5.907113e-05    0.4915395  0.040274207            0   0.45126529    1.5507763    2.0423158    6.1253123 
14620000    1.0361435 -5.9634466e-06   0.50067705  0.035684279            0   0.46499277    1.5464442    2.0471212    1.6349278 
14625000   0.97510521 -8.5740255e-05   0.58461976  0.020784706            0   0.56383506    1.4553445    2.0399643   -3.8864021 
14630000    1.0113524 -3.6416143e-07   0.53047537  0.021535437            0   0.50893994    1.5094435    2.0399189     2.014748 
14635000    1.0076636 -9.9839223e-06   0.53702712   0.03006425            0   0.50696287     1.503938    2.0409651    1.3508764 
14640000    1.0029969 2.5570411e-05   0.52495498 0.0099090435            0   0.51504594    1.4969729    2.0219278    3.7893546 
14645000    1.0417367 2.4628113e-05   0.47927484 0.0051713504            0   0.47410349     1.554792    2.0340668     3.736362 
14650000   0.97954396 6.182575e-05   0.55766994  0.029361224            0   0.52830872    1.4619694    2.0196393    6.2930352 
14655000    1.0050814 3.9469051e-05   0.53040016  0.022286864            0    0.5081133     1.500084    2.0304841    4.7585849 
14660000   0.95896875 -9.0566284e-05   0.60454534 0.0099916385            0    0.5945537    1.4312609    2.0358062   -4.2241353 
14665000    1.0152097 8.8425032e-06   0.51189124 0.0092003975            0   0.50269084    1.5152005    2.0270918    2.6382856 
14670000    1.0477894 -2.028574e-05   0.49043374  0.020280882            0   0.47015286    1.5638257    2.0542594   0.65210909 
14675000    1.0262769 5.5113975e-07   0.51442816  0.013296008            0   0.50113215    1.5317183    2.0461465    2.0842413 
14680000   0.99371656 3.9164548e-05   0.57021529  0.014584463            0   0.55563083     1.483122    2.0533372    4.7603908 
14685000    1.0122186 3.9576126e-05   0.52211074  0.015698847            0   0.50641189    1.5107362     2.032847    4.7683488 
14690000    1.0018722 -6.0558813e-06   0.53419738  0.016468592            0   0.51772879    1.4952943    2.0294916    1.6109091 
14695000   0.98740058 9.6486882e-06   0.54157542   0.01808255            0   0.52349287    1.4736954    2.0152708    2.6821881 
14700000    1.0110736 1.7923374e-05   0.49821804 0.0077596822            0   0.49045836    1.5090274    2.0072455    3.2461091 
14705000   0.99406033 -3.0152459e-05    0.5222116  0.018467437            0   0.50374417     1.483635    2.0058466 -0.078291301 
14710000   0.98309893 -2.1212021e-05   0.54181122 0.0098357807            0   0.53197544    1.4672752    2.0090864    0.5429115 
14715000   0.99315607 -4.3887543e-06   0.53314102 0.0089888884            0   0.52415213    1.4822854    2.0154264    1.7120757 
14720000   0.97309852 -1.8261938e-05   0.57018477 0.0074200803            0   0.56276469    1.4523495    2.0225343   0.76026919 
14725000    1.0092231 -3.4239717e-05    0.5238501   0.01349993            0   0.51035017    1.5062654    2.0301155  -0.33653373 
14730000   0.96584733 -1.8205505e-05   0.57746154  0.024344094            0   0.55311745    1.4415271    2.0189887   0.76062419 
14735000   0.99804461 -2.8242444e-05   0.52477655  0.015754492            0   0.50902206    1.4895816    2.0143581  0.062240387 
14740000   0.98902382 -3.440716e-06   0.54602848  0.011972028            0   0.53405645    1.4761181    2.0221465    1.7843242 
14745000    0.9626457 -1.4544624e-05    0.5692703  0.018642044            0   0.55062826    1.4367487     2.006019    1.0006946 
14750000    1.0040182 -6.1007608e-05   0.52031898  0.018061271            0   0.50225771    1.4984971    2.0188161   -2.1980298 
14755000   0.97953373 -9.7355741e-06   0.55651922 0.0086313382            0   0.54788788    1.4619541    2.0184733    1.3455504 
14760000    0.9607443 -2.7761676e-05   0.58067099 0.0059594836            0   0.57471151    1.4339109    2.0145819  0.095694833 
14765000    1.0279779 -1.5782854e-05   0.49604509 0.0079959183            0   0.48804917    1.5342571    2.0303022   0.93939132 
14770000   0.96593008 4.390759e-05   0.56853494   0.02387202            0   0.54466292    1.4416506    2.0101856    5.0450782 
14775000   0.92030809 6.6710317e-05   0.63714236  0.032286467            0   0.60485589    1.3735598    2.0107022    6.6217193 
14780000    1.0139094 2.4319324e-05   0.50722832  0.026071144            0   0.48115718    1.5132598    2.0204881    3.7014398 
14785000   0.97217089 -8.0745502e-05    0.5799333  0.020174265            0   0.55975903     1.450965    2.0308983   -3.5502308 
14790000   0.93968107 -5.4519449e-05   0.62933221  0.023418886            0   0.60591333     1.402474    2.0318062   -1.7365781 
14795000    1.0476261 -2.4612027e-05   0.46912318  0.027368712            0   0.44175447     1.563582    2.0327052   0.33152184 
14800000   0.98591272 -5.0443423e-05   0.55324364  0.020371311            0   0.53287233    1.4714747    2.0247184    -1.461931 
14805000   0.96556175 3.2030107e-06   0.58060789  0.017315807            0   0.56329209    1.4411009    2.0217088    2.2431009 
14810000    1.0134233 2.3405451e-05    0.4999222   0.01488953            0   0.48503267    1.5125342    2.0124564    3.6302412 
14815000    1.0332063 3.216103e-05   0.48983564  0.010418732            0    0.4794169    1.5420604    2.0318961    4.2548664 
14820000   0.95462288 -2.3217183e-05   0.59004276  0.016971171            0   0.57307159    1.4247746    2.0148174   0.41004575 
14825000   0.98504507 1.8679629e-05   0.55667843  0.020946458            0   0.53573197    1.4701798    2.0268582    3.3179941 
14830000   0.97434828 1.6159544e-05   0.57773205 0.0078894944            0   0.56984255    1.4542148    2.0319468    3.1488946 
14835000    1.0218184 -1.8570618e-05   0.50223092 0.0069519484            0   0.49527897     1.525064    2.0272949   0.74369378 
14840000    0.9642608 -1.4617309e-05   0.59739531  0.019406052            0   0.57798925    1.4391593    2.0365546    1.0262061 
14845000   0.94653825 1.651029e-05    0.6162438  0.028727597            0   0.58751621    1.4127083    2.0289521    3.1701434 
14850000   0.98061058 -6.8243275e-06    0.5649045  0.039141618            0   0.52576288    1.4635613    2.0284658    1.5567683 
14855000    1.0081694 2.8287898e-05   0.52172319  0.022233606            0   0.49948958    1.5046929     2.026416    3.9816756 
14860000   0.96818756 2.3214774e-05   0.57308914  0.015648771            0   0.55744036    1.4450199    2.0181091    3.6227142 
14865000    1.0000339 2.9988177e-05   0.51488232 0.0099212184            0    0.5049611    1.4925506    2.0074329    4.0802157 
14870000   0.99385682 -2.0525236e-05   0.54329718 0.0096653539            0   0.53363182    1.4833313    2.0266285    0.6079242 
14875000   0.94066062 -1.8088157e-05   0.62586798  0.019846956            0   0.60602102     1.403936     2.029804   0.77955053 
14880000   0.99559665 -9.7924393e-06   0.55970987  0.015725122            0   0.54398474     1.485928    2.0456379    1.3687845 
14885000    1.0232793 -5.4792947e-06   0.52313936  0.028380188            0   0.49475918    1.5272444    2.0503838    1.6716549 
14890000   0.97496477 3.034322e-05   0.58552625  0.023385373            0   0.56214087    1.4551349    2.0406612    4.1379845 
14895000    0.9774969 9.5187014e-06    0.5636172  0.027290838            0   0.53632636    1.4589141    2.0225313     2.680464 
14900000   0.98837366 1.9610241e-05   0.54151377  0.039053281            0   0.50246049    1.4751477    2.0166615    3.3721213 
14905000   0.99621614 -2.0700351e-05   0.51326498  0.017922691            0   0.49534229    1.4868526    2.0001176    0.5693093 
14910000   0.97350084 1.674767e-05   0.53481207  0.010760522            0   0.52405155      1.45295    1.9877621     3.145361 
14915000   0.98168415 5.4646322e-05   0.54907138  0.027597836            0   0.52147355    1.4651636     2.014235    5.7913888 
14920000    1.0207664 5.9136115e-06   0.51022908  0.010839547            0   0.49938953    1.5234938    2.0337229    2.4424717 
14925000    0.9742773 7.0269881e-06   0.58755353  0.020759849            0   0.56679368    1.4541089    2.0416624    2.5273678 
14930000    1.0032596 -2.39555e-05    0.5678503  0.017126574            0   0.55072372     1.497365    2.0652153   0.40941111 
14935000    1.0226417 -4.4078821e-05   0.55278705 0.0062518659            0   0.54653518    1.5262928    2.0790798  -0.96764828 
14940000    1.0278973 3.0765262e-05   0.53155102  0.020491019            0      0.51106    1.5341368    2.0656878    4.1921827 
14945000    1.0340564 1.4497264e-05   0.50151128    0.0143901            0   0.48712118    1.5433291    2.0448404    3.0468913 
14950000    1.0198766 1.5056606e-05   0.51722735  0.021073436            0   0.49615391    1.5221658    2.0393932    3.0801057 
14955000    1.0484346 -2.1485578e-05   0.48091823  0.015316188            0   0.46560204    1.5647886    2.0457069   0.56062374 
14960000    1.0057262 -2.371888e-05   0.55415534  0.007583142            0    0.5465722    1.5010463    2.0552016   0.41575265 
14965000   0.97380312 2.675397e-05   0.58782902  0.010116642            0   0.57771238    1.4534012    2.0412302    3.8904646 
14970000    1.0015042 -1.0526886e-05   0.55432772  0.010808281            0   0.54351944     1.494745    2.0490727    1.3214543 
14975000   0.96397457 -4.8694064e-06   0.62061313  0.032844856            0   0.58776827    1.4387321    2.0593452    1.7227718 
14980000   0.99123509 8.2191213e-06    0.5805469  0.063016965            0   0.51752993    1.4794184    2.0599653    2.6280709 
14985000   0.97912663 -1.0300892e-05   0.59913545  0.051354577            0   0.54778087    1.4613465    2.0604819    1.3484843 
14990000    1.0314114 -3.746412e-05    0.5477979   0.01775336            0   0.53004454    1.5393815    2.0871794  -0.50234057 
14995000   0.96374571 -1.3880695e-05   0.65261303   0.05230135            0   0.60031168    1.4383905    2.0910035    1.1315699 
15000000    1.0515193 -3.6158902e-06   0.50594953  0.046658859            0   0.45929067    1.5693926    2.0753422    1.8254118 
15005000    1.0564795 1.0081475e-05   0.51385146  0.026556316            0   0.48729515    1.5767956    2.0906471    2.7874786 
15010000    1.0287376 -2.1724249e-05   0.57924781  0.028281469            0   0.55096635    1.5353909    2.1146387   0.61305862 
15015000    1.0674175 6.9040433e-06   0.52853234  0.037124612            0   0.49140773    1.5931206    2.1216529    2.5988604 
15020000    1.0418901 1.1797121e-05   0.57222121  0.047147009            0    0.5250742     1.555021    2.1272422    2.9426593 
15025000    1.0670527 -3.3091898e-05    0.5260129  0.030318673            0   0.49569422    1.5925761     2.118589  -0.16872301 
15030000    1.0026399 1.8888041e-05   0.62094121  0.011499004            0    0.6094422    1.4964401    2.1173813    3.4229227 
15035000    1.0593833 -1.5887062e-05   0.55347599 0.0038096162            0   0.54966637    1.5811295    2.1346055    1.0364918 
15040000    1.0491046 -3.7835623e-05   0.55241669  0.017262866            0   0.53515382    1.5657886    2.1182053  -0.49699296 
15045000    1.0388854 -2.5233472e-05   0.57691251  0.031682156            0   0.54523035    1.5505365     2.127449   0.38331141 
15050000    1.0194882 1.7176426e-05   0.62056254   0.03051252            0   0.59005002    1.5215861    2.1421487    3.3293832 
15055000    0.9816203 1.7640711e-05    0.6544267  0.031237189            0   0.62318951    1.4650683     2.119495    3.3388209 
15060000     1.027025 -3.6744004e-05   0.58580743  0.031801988            0   0.55400544    1.5328347    2.1186422  -0.42110338 
15065000    1.0208024 7.8011101e-05   0.57993284  0.012931248            0   0.56700159    1.5235475    2.1034804    7.4956077 
15070000    1.0236943 6.6995965e-05   0.58268907  0.016178349            0   0.56651072    1.5278638    2.1105529     6.741314 
15075000    1.0259572 -2.2616193e-05   0.59060835  0.034274093            0   0.55633426    1.5312411    2.1218495   0.55861821 
15080000    1.0179196 9.4915069e-07   0.59893202  0.024751131            0   0.57418088    1.5192451    2.1181771    2.1837824 
15085000    1.0064513 1.6600325e-06   0.58636518  0.041512234            0   0.54485294    1.5021286    2.0884938    2.2032353 
15090000    1.0109452 -3.4340522e-05   0.58835444  0.020045911            0   0.56830853    1.5088358    2.0971902  -0.27642668 
15095000     1.017973 7.9930151e-06   0.57902644 0.0091825535            0   0.56984389    1.5193248    2.0983512    2.6508284 
15100000    1.0451163 -6.6195434e-06   0.54855178  0.010305112            0   0.53824667    1.5598361    2.1083878     1.650845 
15105000    1.0461124 3.397298e-05   0.52536896  0.015143325            0   0.51022564    1.5613227    2.0866916     4.434904 
15110000    1.0695752 8.5174984e-06   0.49812753  0.016395401            0   0.48173213     1.596341    2.0944685     2.683198 
15115000    1.0162963 2.2257654e-05   0.57707029  0.037399604            0   0.53967068    1.5168223    2.0938925    3.6323416 
15120000    1.0678949 7.4066371e-06    0.4812121 0.0097544797            0   0.47145762    1.5938332    2.0750453     2.586992 
15125000     1.064626 -6.9033046e-05   0.47573802  0.010536704            0   0.46520132    1.5889544    2.0646924   -2.7068717 
15130000    1.0218243 1.3921111e-05   0.53765354  0.015527883            0   0.52212566    1.5250728    2.0627263    3.0249535 
15135000   0.98914989 7.3785999e-05   0.59505596  0.012591373            0   0.58246459    1.4763062    2.0713622    7.1714505 
15140000    1.0293885 8.9110647e-05   0.52512033  0.017082293            0   0.50803803    1.5363624    2.0614827    8.2208106 
15145000    1.0474661 -4.6868351e-05   0.48953147  0.038201989            0   0.45132948    1.5633432    2.0528747   -1.1866658 
15150000    1.0601968 -2.5990438e-05   0.46379406  0.036109936            0   0.42768412    1.5823438    2.0461378   0.24967873 
15155000    1.0148289 1.9709825e-05   0.51829917  0.016083353            0   0.50221582    1.5146322    2.0329314    3.3952745 
15160000   0.99312272 -3.2774195e-05   0.55374707  0.016371761            0   0.53737531    1.4822357    2.0359827  -0.22936964 
15165000    1.0043788 -1.1771129e-05    0.5439414  0.042811032            0   0.50113036    1.4990353    2.0429767    1.2293563 
15170000   0.98983578 -3.3289461e-05   0.56920994  0.015277381            0   0.55393256    1.4773299    2.0465398   -0.2544277 
15175000    1.0281991 6.508044e-05    0.5148724  0.012846087            0   0.50202632    1.5345872    2.0494596    6.5478196 
15180000    1.0210857 5.0549581e-05   0.52175112  0.015544921            0    0.5062062    1.5239703    2.0457215    5.5397085 
15185000    1.0339679 3.2794709e-06   0.51216503 0.0095868015            0   0.50257823     1.543197     2.055362    2.2820391 
15190000    1.0074069 -1.5138557e-05   0.55672813  0.011025672            0   0.54570246    1.5035548     2.060283    1.0139059 
15195000    1.0531098 -2.2552779e-05   0.47869544 0.0072715872            0   0.47142385    1.5717664    2.0504619   0.49161378 
15200000    1.0225769 1.159661e-05    0.5052076 0.0038959516            0   0.50131165     1.526196    2.0314036    2.8329613 
15205000    1.0411964 -3.8724881e-06   0.50376944 0.0076692352            0   0.49610021    1.5539856     2.057755    1.7900886 
15210000    1.0263101 6.9336243e-05   0.50192048  0.019616425            0   0.48230405    1.5317678    2.0336883    6.8262094 
15215000     1.023853 -2.0853632e-05   0.52655001  0.013127971            0   0.51342203    1.5281006    2.0546506   0.61324754 
15220000    1.0104717 -3.6239973e-05   0.53248612  0.012782664            0   0.51970346     1.508129    2.0406151  -0.46429186 
15225000    0.9946033 -3.1043047e-05   0.56637058  0.010911277            0   0.55545931    1.4844454     2.050816 -0.094879407 
15230000    1.0197028 1.3890669e-05   0.52480074 0.0096992174            0   0.51510152    1.5219065    2.0467072    3.0068303 
15235000    1.0664857 2.1751864e-05   0.48299619  0.011645053            0   0.47135113    1.5917299    2.0747261    3.5782149 
15240000    1.0388864 -2.3275244e-07   0.53531688  0.025579629            0   0.50973725     1.550538    2.0858549     2.069767 
15245000    1.0400053 -1.5944201e-05    0.5512469  0.038880794            0    0.5123661    1.5522079    2.1034548    1.0013916 
15250000    1.0642393 1.1199571e-05   0.50000709  0.031712902            0   0.46829419    1.5883772    2.0883843    2.8624987 
15255000     1.011782 2.9578462e-05   0.58180566  0.029230418            0   0.55257524    1.5100846    2.0918903    4.1363536 
15260000   0.97444576 -4.5427509e-05   0.64103673  0.028147158            0   0.61288957    1.4543603     2.095397   -1.0445524 
15265000    1.0333356 -2.8644302e-05   0.53959969  0.017762936            0   0.52183675    1.5422534    2.0818531   0.10195899 
15270000    1.0340015 -1.320427e-05   0.55017034 0.0080227415            0    0.5421476    1.5432472    2.0934176    1.1807384 
15275000    1.0583625 -1.7807537e-05   0.49873294  0.013665701            0   0.48506724     1.579606     2.078339   0.84748198 
15280000    1.0088929 1.4855272e-05   0.56301025  0.016948987            0   0.54606127    1.5057727    2.0687829    3.0955794 
15285000   0.99625291 4.0872299e-05   0.57315254  0.023182657            0   0.54996988    1.4869075      2.06006    4.8851533 
15290000    1.0067086 7.379754e-05   0.56624206  0.021738451            0   0.54450361    1.5025125    2.0687546    7.1696405 
15295000     1.020008 5.0886882e-05     0.521187  0.019633392            0   0.50155361     1.522362     2.043549    5.5608502 
15300000    1.0444431 -0.00010378496   0.48489158  0.024697338            0   0.46019424    1.5588314    2.0437229   -5.1298932 
15305000    1.0324052 -6.5118298e-05   0.49929337   0.01687559            0   0.48241778    1.5408648    2.0401582   -2.4608186 
15310000   0.98462409 1.7935746e-05   0.58380095  0.029846993            0   0.55395396    1.4695515    2.0533524    3.2930712 
15315000    1.0120655 -5.8878309e-05   0.53444091  0.023812529            0   0.51062838    1.5105077    2.0449486   -2.0247201 
15320000   0.99890545 -7.9838513e-05   0.55950547  0.034014329            0   0.52549114    1.4908664    2.0503719   -3.4680661 
15325000   0.97518013 -3.5442255e-05   0.58228222  0.027087422            0    0.5551948    1.4554563    2.0377386   -0.4120301 
15330000    1.0120333  8.73501e-06   0.53206086  0.010534921            0   0.52152594    1.5104596    2.0425205    2.6462844 
15335000    1.0456157 2.2960129e-05   0.50192753 0.0080649417            0   0.49386259    1.5605814     2.062509     3.649513 
15340000    1.0544125 3.4929436e-05   0.48327814 0.0081948616            0   0.47508328    1.5737107    2.0569888    4.4713114 
15345000     1.049007 4.192318e-05   0.49653929  0.012516182            0    0.4840231    1.5656429    2.0621822    4.9599124 
15350000    1.0513304 1.9529263e-05   0.51567662  0.019357885            0   0.49631873    1.5691106    2.0847872    3.4346498 
15355000    1.0609493 -2.1641939e-05   0.49130537   0.00807814            0   0.48322723    1.5834668    2.0747721   0.57888135 
15360000    1.0089871 2.7524372e-05   0.55964524 0.0027491376            0    0.5568961    1.5059132    2.0655585    3.9680431 
15365000    1.0340537 3.7377904e-06   0.52726429  0.012363889            0   0.51490041    1.5433251    2.0705894    2.3289455 
15370000    1.0131841 -2.1091811e-05   0.56947815    0.0425185            0   0.52695965    1.5121772    2.0816554   0.62378938 
15375000    1.0097436 -3.4832318e-06   0.54509791  0.022916378            0   0.52218154    1.5070423    2.0521402    1.8113792 
15380000   0.97582384 6.1395169e-05   0.58572023  0.017350833            0    0.5683694    1.4564171    2.0421373    6.2857714 
15385000    1.0294346 4.4450899e-05    0.5061563 0.0081764541            0   0.49797984    1.5364312    2.0425875    5.1150336 
15390000    1.0328414 -3.3914104e-05   0.50007771  0.021397776            0   0.47867993    1.5415157    2.0415934  -0.30254942 
15395000   0.97639441 -2.337612e-05   0.58974197   0.03159044            0   0.55815153    1.4572687    2.0470106   0.43125324 
15400000    0.9777555 2.115007e-05   0.58877238   0.01937009            0   0.56940229    1.4593001    2.0480725    3.5099653 
15405000    1.0144925 -8.6607002e-06   0.53379072 0.0084230035            0   0.52536772      1.51413    2.0479207    1.4492931 
15410000    1.0026612 -3.1156495e-05   0.53834144 0.0060856522            0   0.53225579    1.4964718    2.0348132  -0.11872372 
15415000   0.94354392 -2.8538933e-05   0.63148729  0.015404814            0   0.61608248    1.4082393    2.0397266  0.067115524 
15420000   0.95092199 -1.6797003e-05   0.60220829  0.016283416            0   0.58592488    1.4192511    2.0214594   0.86045054 
15425000   0.99691992 6.0024924e-06   0.53553254 0.0068266812            0   0.52870586     1.487903    2.0234355    2.4383278 
15430000    0.9836858 -1.2236342e-05   0.54974241  0.007317625            0   0.54242478    1.4681511    2.0178935    1.1721175 
15435000   0.98421278 3.9011451e-05    0.5490364  0.018345176            0   0.53069123    1.4689376     2.017974    4.7144455 
15440000    1.0547161 2.9134544e-05   0.45226301  0.025856997            0   0.42640601    1.5741638    2.0264268    4.0402065 
15445000   0.98837237 -6.479688e-05   0.54799507  0.022666591            0   0.52532848    1.4751458    2.0231408   -2.4556195 
15450000   0.94884723 -1.6997416e-05   0.59340556  0.023081892            0   0.57032367    1.4161545      2.00956   0.83469869 
15455000    1.0120274 -3.7350697e-06   0.51207112  0.011209085            0   0.50086204    1.5104509    2.0225221     1.764354 
15460000    1.0089151 1.1455993e-05   0.51890549  0.005681231            0   0.51322426    1.5058058    2.0247113    2.8165495 
15465000    1.0156076 4.487126e-05   0.50342334   0.00507412            0   0.49834922    1.5157943    2.0192176    5.1207191 
15470000   0.97705901 4.1322875e-05   0.55678744  0.028177821            0   0.52860962    1.4582606     2.015048    4.8712852 
15475000   0.99312102 -4.6626259e-05   0.54122214  0.040511016            0   0.50071113    1.4822331    2.0234553   -1.1993518 
15480000    1.0081946 -5.9357306e-05   0.49972672  0.032819801            0   0.46690692    1.5047304    2.0044572   -2.0983199 
15485000   0.99701082 1.3078539e-05   0.52970653  0.032530278            0   0.49717625    1.4880386    2.0177452    2.9217338 
15490000   0.97153079 -2.2763488e-06   0.56740646  0.034921744            0   0.53248471    1.4500097    2.0174162    1.8600749 
15495000    1.0122094 4.115856e-05   0.49211443  0.028357585            0   0.46375684    1.5107226     2.002837    4.8477167 
15500000   0.97537179 4.3477103e-05   0.53760895  0.022377145            0   0.51523181    1.4557424    1.9933513    4.9984887 
15505000   0.98214644 1.3752798e-05   0.51153723  0.032072046            0   0.47946519    1.4658536    1.9773908    2.9279842 
15510000    0.9441145 1.3849375e-05   0.56242822  0.033277815            0    0.5291504    1.4090909    1.9715191    2.9287879 
15515000   0.96346299 -4.3639223e-06   0.52642259   0.01664205            0   0.50978054    1.4379685    1.9643911    1.6627568 
15520000    1.0054843 -2.3291848e-05   0.47653598  0.023769239            0   0.45276674    1.5006854    1.9772214    0.3672888 
15525000   0.95028641 -1.4225521e-05   0.54089697  0.020639661            0   0.52025731    1.4183025    1.9591994   0.97593143 
15530000   0.96909629 2.5107982e-05   0.49739418  0.011686778            0    0.4857074    1.4463762    1.9437704    3.6792341 
15535000    1.0045423 5.1073533e-05   0.44840333  0.011286293            0   0.43711704    1.4992794    1.9476827    5.4778853 
15540000   0.98999515 -3.9793468e-05   0.49526726  0.013703384            0   0.48156387    1.4775678     1.972835  -0.77768949 
15545000   0.97644299 -6.8009064e-05    0.5140863  0.014996191            0   0.49909011    1.4573412    1.9714275    -2.729359 
15550000   0.97359715 -3.9112206e-05   0.52929714  0.018883667            0   0.51041347    1.4530938    1.9823909  -0.72104477 
15555000     0.967235 -5.8534201e-05   0.54060687  0.024680444            0   0.51592642    1.4435982    1.9842051   -2.0616789 
15560000   0.98257835 5.231306e-06   0.51281575 0.0088233476            0    0.5039924    1.4664982    1.9793139    2.3409018 
15565000    1.0058291 3.3694543e-05   0.47848356  0.007685682            0   0.47079788    1.5011999    1.9796834    4.3086502 
15570000    1.0182995 2.2308375e-05    0.4558663 0.0092828996            0    0.4465834     1.519812    1.9756783    3.5176332 
15575000    1.0142368 -6.9898873e-06   0.47733419  0.014975411            0   0.46235878    1.5137485    1.9910827    1.5079417 
15580000      1.01672 8.1247783e-06   0.45465347  0.013859067            0    0.4407944    1.5174545     1.972108    2.5336927 
15585000    0.9341653 5.5344031e-05   0.57019383 0.0096220081            0   0.56057182    1.3942417    1.9644355     5.789815 
15590000   0.99462612 4.4429372e-05   0.49159594 0.0087063588            0   0.48288958    1.4844795    1.9760754    5.0470336 
15595000   0.98006746 -4.1823832e-05   0.51908556 0.0089905786            0   0.51009498    1.4627507    1.9818362  -0.90902703 
15600000   0.99021192 -1.6491072e-05   0.50852713  0.012145822            0   0.49638131    1.4778913    1.9864184    0.8465555 
15605000   0.96354488 -8.9895789e-07   0.57385252  0.006475197            0   0.56737732    1.4380907    2.0119432    1.9498073 
15610000    1.0288734 2.4582453e-05   0.46945794  0.020089998            0   0.44936794    1.5355935    2.0050515    3.7041906 
15615000   0.95018324 4.7075528e-05   0.58659184  0.017134644            0    0.5694572    1.4181485    2.0047403    5.2586008 
15620000    1.0692764 4.9202245e-05   0.42160155 0.0089739818            0   0.41262757     1.595895    2.0174966    5.4183558 
15625000    0.9907001 -3.5411784e-05   0.53093563  0.010909324            0    0.5200263    1.4786199    2.0095555  -0.43810699 
15630000    1.0398327 -1.3126563e-05   0.46378604  0.011542091            0   0.45224395    1.5519503    2.0157364    1.1084283 
15635000    1.0018737 1.6282807e-05   0.50853078  0.016847595            0   0.49168318    1.4952965    2.0038272    3.1292948 
15640000   0.96138954 -3.8281197e-05   0.57295855  0.014572493            0   0.55838606    1.4348739    2.0078324  -0.63816392 
15645000    1.0086856 6.4653608e-06   0.51393229  0.024605858            0   0.48932643    1.5054633    2.0193956    2.4662813 
15650000    1.0260157 2.0122228e-05   0.49006603  0.012522671            0   0.47754336    1.5313285    2.0213945    3.4122429 
15655000   0.97209819 -3.150922e-05   0.55568575 0.0067764071            0   0.54890935    1.4508566    2.0065423  -0.17137496 
15660000   0.97815663 4.6396248e-05   0.55451918 0.0092951891            0   0.54522399    1.4598988     2.014418    5.2213266 
15665000   0.99786365 6.740467e-05   0.52124591  0.012332307            0    0.5089136    1.4893115    2.0105574    6.6695682 
15670000     1.002861 -3.6263287e-05   0.50372973   0.01349857            0   0.49023116      1.49677    2.0004997  -0.50601866 
15675000    1.0214121 -2.6299929e-05   0.47547375  0.027534569            0   0.44793918    1.5244575    1.9999313    0.1820802 
15680000   0.92721262 3.8981321e-05    0.6072766  0.035080643            0   0.57219595    1.3838648    1.9911414    4.6855304 
15685000   0.94644416 6.6782073e-05   0.58476341  0.024424742            0   0.56033867    1.4125679    1.9973313    6.6133082 
15690000   0.99930992  1.74185e-05   0.49436698   0.03793562            0   0.45643136    1.4914701     1.985837    3.1898038 
15695000   0.99607723 -4.9457873e-05   0.50726382  0.022648615            0    0.4846152    1.4866453    1.9939091   -1.4246191 
15700000   0.97386839 -5.3981582e-05   0.55235412  0.010653882            0   0.54170024    1.4534986    2.0058527   -1.7253543 
15705000    1.0084203 -3.4902394e-05   0.47742762 0.0039266766            0   0.47350094    1.5050673     1.982495  -0.42995851 
15710000    1.0213731 -2.6156661e-05   0.47239866  0.001874559            0    0.4705241    1.5243993     1.996798    0.1888496 
15715000   0.99822895 1.4324568e-05   0.51369189 0.0074996482            0   0.50619224    1.4898567    2.0035486    2.9936627 
15720000   0.98261733 7.622511e-05   0.52856169  0.020914129            0   0.50764756    1.4665564     1.995118    7.2637976 
15725000   0.97593192 5.3252937e-05   0.53210146  0.019186124            0   0.51291533    1.4565784    1.9886799    5.6695229 
15730000    1.0269308 3.5292747e-05   0.47125881 0.0060568294            0   0.46520198    1.5326942     2.003953    4.4433877 
15735000   0.98803007 5.8223482e-06   0.50844386 0.0048834631            0    0.5035604    1.4746349    1.9830787    2.3855194 
15740000   0.97945808 -4.0351263e-05   0.52287134 0.0068719711            0   0.51599937    1.4618412    1.9847125  -0.80436676 
15745000    1.0207394 -1.2898274e-05    0.4686299 0.0038965177            0   0.46473339    1.5234536    1.9920835    1.1005548 
15750000   0.97542396 7.8717563e-06   0.54182696 0.0064849705            0   0.53534199    1.4558203    1.9976472     2.541743 
15755000    1.0643827 -4.9756648e-05   0.41335825 0.0086045138            0   0.40475374    1.5885912    2.0019494   -1.4372301 
15760000    0.9539025 -1.1448968e-05   0.57083692 0.0052649739            0   0.56557195    1.4236995    1.9945364    1.2031837 
15765000    1.0028736 2.9590823e-05   0.47607587 0.0068935177            0   0.46918235    1.4967888    1.9728646    4.0181824 
15770000   0.96115842 -2.6580287e-05   0.52108761 0.0072210014            0   0.51386661    1.4345289    1.9556166   0.11838711 
15775000    0.9999796 -2.4997971e-05    0.4841213  0.013998039            0   0.47012326    1.4924695    1.9765908   0.24873106 
15780000    1.0061768 -2.753833e-05   0.48824081  0.025423683            0   0.46281713    1.5017188    1.9899597  0.086510295 
15785000   0.95506909 -4.39569e-05    0.5471076  0.022746291            0   0.52436131    1.4254406    1.9725482   -1.0657527 
15790000   0.95415554 -3.9099625e-05    0.5596311   0.01380587            0   0.54582523    1.4240771    1.9837082  -0.71885783 
15795000    1.0414843 1.8265439e-05   0.45848816  0.012334794            0   0.44615337    1.5544153    2.0129034    3.2754106 
15800000   0.99591591 9.5857816e-05   0.54489652  0.011845536            0   0.53305099    1.4864045     2.031301    8.6569933 
15805000    1.0052126 -3.9437966e-05    0.5273453   0.01170692            0   0.51563838    1.5002798    2.0276251   -0.6983271 
15810000   0.99167997 -4.1230622e-05    0.5542585  0.011467269            0   0.54279123    1.4800824    2.0343409  -0.81551974 
15815000    1.0173272 -1.7948287e-05   0.51400064  0.026392595            0   0.48760805    1.5183608    2.0323614    0.7917758 
15820000    1.0109591 -1.0735536e-05    0.5205361  0.019472931            0   0.50106317    1.5088565    2.0293926    1.2873524 
15825000    1.0815383 -3.555248e-05   0.40967938  0.020701325            0   0.38897805    1.6141959    2.0238752  -0.43351221 
15830000   0.94756462 -6.9457346e-05   0.62613719  0.036926042            0   0.58921115    1.4142402    2.0403774   -2.7605144 
15835000    1.0325364 1.9695871e-05   0.50033589  0.024593366            0   0.47574253    1.5410606    2.0413965    3.4027751 
15840000    1.0611097 -1.4401227e-05   0.45344248  0.018300504            0   0.43514198    1.5837062    2.0371487    1.0417359 
15845000    1.0294925 1.5361747e-05     0.516622  0.022217521            0   0.49440448    1.5365175    2.0531395    3.1149435 
15850000    1.0734942 3.0321369e-05   0.45511326  0.017811844            0   0.43730142    1.6021901    2.0573034    4.1531164 
15855000    1.0154953 1.267336e-05   0.54606066  0.030233786            0   0.51582688    1.5156267    2.0616874      2.93767 
15860000    1.0533129 6.4311238e-05   0.49583568  0.027121975            0    0.4687137    1.5720695    2.0679051    6.5130979 
15865000    1.0599284 -1.7962287e-05   0.47509006 0.0092005332            0   0.46588953    1.5819431    2.0570332    0.8154799 
15870000    1.0292562 -5.5199816e-05   0.53345484 0.0080482241            0   0.52540661    1.5361648    2.0696197   -1.7457916 
15875000    1.0328493 2.9547104e-05   0.53026882 0.0081797611            0   0.52208906    1.5415276    2.0717964    4.1140922 
15880000    1.0343488 -8.4892873e-06   0.51883219  0.013206856            0   0.50562533    1.5437656    2.0625978    1.4758182 
15885000    1.0229867 -3.8065593e-05   0.54677045  0.016995376            0   0.52977508    1.5268077    2.0735782  -0.55751565 
15890000    1.0774895 4.1535179e-06   0.47209552  0.023851215            0    0.4482443    1.6081531    2.0802486    2.3673398 
15895000    1.0127234 4.1042288e-05   0.56073978  0.030305401            0   0.53043438    1.5114897    2.0722295    4.9090724 
15900000    1.0429054 5.8485482e-05   0.52016081   0.04831543            0   0.47184538    1.5565363    2.0766971    6.1192136 
15905000     1.019575 4.4403178e-05   0.55145218  0.033325362            0   0.51812682    1.5217156    2.0731678    5.1423155 
15910000     1.025477 2.3141409e-05    0.5330643  0.024853492            0    0.5082108    1.5305244    2.0635887    3.6631229 
15915000    1.0296774 -1.4909145e-05   0.52594403  0.028065123            0   0.49787891    1.5367935    2.0627375    1.0322175 
15920000    1.0133063 -7.3984205e-05   0.55356365  0.030858041            0   0.52270561    1.5123597    2.0659233   -3.0478649 
15925000    1.0221807 -4.9824565e-05   0.55645689  0.020778083            0   0.53567881    1.5256047    2.0820616   -1.3618123 
15930000    1.0502861 3.2526095e-05   0.50836824 0.0063353306            0   0.50203291    1.5675521    2.0759203     4.324124 
15935000    1.0802318 4.5976888e-05   0.47372108 0.0012794996            0   0.47244158    1.6122459     2.085967    5.2638895 
15940000    1.0569682 -3.0285557e-05   0.52039724  0.022196339            0    0.4982009    1.5775251    2.0979223 0.0045846209 
15945000    1.0383722 -4.1919003e-05    0.5477955  0.020398321            0   0.52739718    1.5497705     2.097566  -0.79987549 
15950000    1.0890222 -1.9069229e-05   0.48308462  0.018258654            0   0.46482596    1.6253657    2.1084503   0.79038524 
15955000    1.0282695 4.1759079e-06    0.5751744  0.011638736            0   0.56353567    1.5346922    2.1098666    2.3985054 
15960000    1.0626923 4.7484546e-05   0.52295769   0.01194726            0   0.51101043    1.5860683     2.109026    5.3911578 
15965000    1.0488994 1.1703769e-06   0.53789107  0.038894907            0   0.49899616    1.5654824    2.1033735    2.1842699 
15970000    1.0094021 -6.395006e-05   0.60501094  0.030773891            0   0.57423705    1.5065326    2.1115435   -2.3086846 
15975000    1.0525057 -4.1716687e-05   0.53745728  0.010954612            0   0.52650267    1.5708648     2.108322  -0.77513538 
15980000    1.0801765 1.8111225e-05   0.50398667 0.0052150606            0   0.49877161    1.6121634    2.1161501    3.3679979 
15985000    1.0818326 8.0975324e-05   0.50540914 0.0049336647            0   0.50047548    1.6146351    2.1200443    7.7170587 
15990000    1.0598166 1.080142e-05    0.5435465  0.011133525            0   0.53241298    1.5817763    2.1253228     2.871917 
15995000    1.0348682 -7.9792201e-05   0.57991318  0.021535896            0   0.55837729    1.5445408     2.124454    -3.390783 
16000000    1.0827354 3.1987144e-05   0.50361882  0.027854882            0   0.47576393    1.6159826    2.1196014    4.3305528 
16005000     1.035049 2.4788519e-05   0.58162255  0.020440201            0   0.56118235    1.5448106    2.1264331    3.8398156 
16010000    1.0743072 -6.8047677e-05   0.53087426 0.0040363707            0   0.52683789    1.6034036    2.1342778   -2.5691776 
16015000    1.0877012 1.0244982e-05   0.49424098 0.0058808549            0   0.48836013     1.623394     2.117635    2.8257681 
16020000    1.0391741 4.8741725e-05   0.55445462  0.014833152            0   0.53962146    1.5509674     2.105422      5.47445 
16025000    1.0524275 1.4260762e-05   0.52572904  0.015420881            0   0.51030815    1.5707481    2.0964771    3.0821809 
16030000    1.0265529 -1.9914474e-05   0.54822149 0.0058853083            0   0.54233619    1.5321302    2.0803517   0.70386326 
16035000      1.05902 -7.4167571e-05   0.50016475  0.008855027            0   0.49130972    1.5805873    2.0807521   -3.0457104 
16040000    1.0351844 -7.2094954e-06   0.52863768   0.02177894            0   0.50685874    1.5450127    2.0736504      1.57533 
16045000    1.0485851 -1.4368855e-05   0.51671292   0.01144612            0    0.5052668    1.5650132    2.0817261    1.0885509 
16050000    1.0420139 -1.3255211e-05   0.52442603 0.0092042395            0   0.51522179    1.5552058    2.0796318    1.1634316 
16055000    1.0754864 4.3225773e-06   0.48620254  0.016325688            0   0.46987685    1.6051635     2.091366    2.3901426 
16060000   0.99602083 2.3207304e-05   0.60283168  0.023683056            0   0.57914862    1.4865611    2.0893928    3.6934816 
16065000    1.0174408 3.4655648e-05   0.56269564  0.068045252            0   0.49465039    1.5185304     2.081226    4.4766244 
16070000    1.0571398 -4.890116e-05   0.47925427  0.018404454            0   0.46084982    1.5777812    2.0570354   -1.3230128 
16075000    1.0442452 2.4917128e-05    0.5109194  0.028187571            0   0.48273183     1.558536    2.0694554    3.7917272 
16080000    1.0421844 -1.2749632e-05   0.52526539  0.029627126            0   0.49563826    1.5554602    2.0807256    1.1994711 
16085000    1.0033175 -6.8067953e-05   0.56530108  0.011958974            0   0.55334211    1.4974514    2.0627525   -2.6421044 
16090000    1.0328557 -3.0506095e-05   0.48454266  0.021938839            0   0.46260382    1.5415371    2.0260798 -0.082501523 
16095000   0.98949524 -2.2160366e-05   0.53022201  0.026342074            0   0.50387993    1.4768216    2.0070437   0.47531915 
16100000    1.0344562 2.0775524e-05   0.48601818  0.035895948            0   0.45012224    1.5439258     2.029944    3.4659482 
16105000   0.99557173 5.4129921e-06    0.5513527  0.042122467            0   0.50923023    1.4858908    2.0372435    2.4113895 
16110000   0.97277608 -6.0100812e-05   0.59022062  0.012398293            0   0.57782233    1.4518683    2.0420889   -2.1120792 
16115000   0.98117089 -2.0231872e-05   0.56906448  0.011269202            0   0.55779528    1.4643976     2.033462   0.63503502 
16120000   0.98350556 9.187498e-06   0.57238762   0.03526891            0   0.53711871    1.4678821    2.0402697    2.6753095 
16125000    1.0533812 2.8612983e-05   0.46717512  0.038347906            0   0.42882722    1.5721714    2.0393465    4.0170759 
16130000    1.0384377 1.1212612e-05   0.49795324  0.015343842            0    0.4826094    1.5498683    2.0478215    2.8228373 
16135000   0.99710289 -1.7880842e-05   0.58009257  0.028382725            0   0.55170984    1.4881761    2.0682686    0.8323448 
16140000    1.0600768 -2.988903e-05   0.46623719  0.014400707            0   0.45183649    1.5821646    2.0484018 -0.017527955 
16145000   0.99366997 -2.1624339e-05   0.55267161  0.010231518            0    0.5424401    1.4830524    2.0357241   0.54104976 
16150000    1.0186364 -6.0513591e-05   0.48776328  0.013013308            0   0.47474997    1.5203148    2.0080781   -2.1746213 
16155000   0.97045624 -1.5837419e-05   0.54326073  0.015369528            0    0.5278912    1.4484059    1.9916667   0.89698423 
16160000   0.98816766 3.950341e-05   0.52675648  0.012255431            0   0.51450105    1.4748402    2.0015967    4.7320724 
16165000     1.013082 1.477677e-05   0.50908493 0.0088882478            0   0.50019669    1.5120249    2.0211098    3.0424802 
16170000   0.97531059 1.8505767e-05   0.56784318  0.021433816            0   0.54640937    1.4556511    2.0234942    3.3026128 
16175000    1.0383955 -1.7746628e-05   0.47494384  0.017177031            0   0.45776681    1.5498053    2.0247491    0.7981022 
16180000    1.0123446 -5.3057042e-06   0.52463857  0.009436764            0    0.5152018    1.5109243    2.0355629    1.6688326 
16185000     1.006729 -3.0543146e-07   0.53414226  0.016985325            0   0.51715693    1.5025431    2.0366853    2.0155739 
16190000    1.0175926 -4.2262079e-05    0.5105725  0.015756952            0   0.49481555     1.518757    2.0293295  -0.89182543 
16195000   0.95809904 -3.6276863e-05   0.57919393  0.020087258            0   0.55910667    1.4299628    2.0091567  -0.49830002 
16200000   0.95574755 -1.8994521e-06   0.56421331   0.02430228            0   0.53991103    1.4264532    1.9906665    1.8593764 
16205000   0.96211307 -3.2894128e-06   0.55945925  0.031763945            0   0.52769531    1.4359538     1.995413    1.7680488 
16210000   0.98773884 1.0219839e-05    0.5080314  0.024126947            0   0.48390446    1.4742002    1.9822316    2.6886269 
16215000   0.95580062 1.2139652e-05    0.5684475  0.016637169            0   0.55181033    1.4265324    1.9949799    2.8340726 
16220000   0.98916356 2.3429027e-05   0.52240202  0.028945695            0   0.49345633    1.4763266    1.9987286     3.618143 
16225000   0.97440972 -1.9316363e-05   0.53392706  0.022611023            0   0.51131604    1.4543065    1.9882336   0.65308657 
16230000   0.98842723 -8.779319e-05   0.50327153  0.017559913            0   0.48571162    1.4752276    1.9784992   -4.0897661 
16235000   0.97744193 -2.491647e-05   0.52125772   0.01437205            0   0.50688567    1.4588321    1.9800898   0.25786341 
16240000   0.92949838 -1.9093063e-05    0.5930062   0.03119354            0   0.56181266    1.3872763    1.9802825   0.66056999 
16245000    1.0082272 -4.3389276e-05   0.49658529  0.023129496            0    0.4734558    1.5047791    2.0013644  -0.99770231 
16250000    1.0134083 2.0251802e-05   0.49421855  0.016563087            0   0.47765547    1.5125118    2.0067304    3.4065349 
16255000   0.95100916 1.0439577e-06    0.5885359    0.0261122            0    0.5624237    1.4193812    2.0079171    2.0800754 
16260000   0.96522117 -2.1023646e-05   0.54843611  0.042752842            0   0.50568326    1.4405926    1.9890287   0.53587426 
16265000    1.0220549 -3.233194e-06   0.46961421  0.047700584            0   0.42191363     1.525417    1.9950312    1.7715528 
16270000   0.96787282 8.4049408e-06   0.57245395  0.021513376            0   0.55094057    1.4445502    2.0170041    2.5979536 
16275000     0.950403 3.3755408e-05   0.59198741  0.013103974            0   0.57888343    1.4184765    2.0104639    4.3436377 
16280000    1.0203805 3.7154882e-05   0.48455664  0.023367058            0   0.46118958    1.5229179    2.0074745      4.57562 
16285000    1.0149402 3.0346672e-05   0.49084242  0.014846537            0   0.47599588    1.5147983    2.0056407    4.1032027 
16290000   0.94826057 8.8325568e-06   0.58509003  0.031048627            0    0.5540414    1.4152789    2.0003689    2.6108753 
16295000    1.0178486 -3.3717308e-06   0.49259633 0.0086291076            0   0.48396722    1.5191391    2.0117354    1.7786814 
16300000   0.98843681 8.2125058e-06    0.5306542  0.023886794            0   0.50676741    1.4752419    2.0058961    2.5735445 
16305000    0.9668909 -2.7871956e-05   0.55719585   0.03092284            0   0.52627301    1.4430847    2.0002805  0.073770898 
16310000   0.96630583 -2.1020765e-05   0.56757747  0.043873851            0   0.52370362    1.4422115    2.0097889   0.55683363 
16315000    1.0001711 2.6999761e-05   0.51667179  0.031613038            0   0.48505875    1.4927553    2.0094271    3.8756506 
16320000    1.0200832  4.49878e-05   0.48280525  0.051904788            0   0.43090046    1.5224742    2.0052794    5.1148362 
16325000   0.96432699 4.1804659e-05    0.5803383  0.038145168            0   0.54219313     1.439258    2.0195963    4.9091343 
16330000    1.0143649 -3.9259362e-05   0.50525379   0.01866817            0   0.48658562    1.5139396    2.0191934  -0.69441372 
16335000    1.0248857 -0.00012207504   0.51161545  0.026452323            0   0.48516313    1.5296419    2.0412573   -6.3965692 
16340000     1.031405 -5.496699e-05   0.50859293  0.029031848            0   0.47956109    1.5393719    2.0479649   -1.7513534 
16345000    1.0509008 -1.1396349e-05   0.47263199  0.026127943            0   0.44650405    1.5684695    2.0411015    1.2533858 
16350000   0.92683163 -2.773079e-05   0.63347912  0.050790459            0   0.58268866    1.3832962    2.0167753   0.10002315 
16355000    1.0055648 1.9267999e-05   0.52766584  0.049452936            0    0.4782129    1.5008055    2.0284713    3.3602754 
16360000    1.0124597 -7.3152578e-07   0.51875917  0.037444115            0   0.48131505    1.5110961    2.0298553    1.9792922 
16365000    1.0172237 -1.6105527e-05   0.49466442  0.023452219            0    0.4712122    1.5182064    2.0128709   0.89965682 
16370000   0.99707272 1.1951369e-05   0.52322069  0.021605518            0   0.50161517     1.488131    2.0113517    2.8374304 
16375000   0.99241627 1.5751132e-05    0.5075421  0.014413977            0   0.49312812    1.4811813    1.9887234    3.0774416 
16380000   0.98040427 2.9077575e-05   0.50630899  0.022835567            0   0.48347342    1.4632534    1.9695624    3.9794043 
16385000   0.95438224 1.268638e-05   0.54039104  0.022473108            0   0.51791793    1.4244155    1.9648065    2.8416891 
16390000   0.97023649 1.8475962e-05   0.51846298  0.030627713            0   0.48783527     1.448078    1.9665409    3.2435994 
16395000    1.0185795 4.8868504e-05   0.43598104  0.024666375            0   0.41131466    1.5202299     1.956211     5.334002 
16400000   0.98919761 2.4569594e-05    0.4933694 0.0097119297            0   0.48365747    1.4763774    1.9697468    3.6679972 
16405000   0.96546932 -2.5489852e-06   0.51917433 0.0075800325            0   0.51159429     1.440963    1.9601373    1.7839514 
16410000    0.9809461 3.8751216e-05    0.5043567  0.022312718            0   0.48204399    1.4640621    1.9684188    4.6469028 
16415000   0.98371396 7.0707421e-05   0.50970665  0.022356219            0   0.48735043    1.4681931    1.9778997    6.8651966 
16420000   0.96146467 3.8812105e-06    0.5604627  0.017682142            0   0.54278055     1.434986    1.9954487     2.263718 
16425000   0.99448862 -1.1262602e-05   0.52584715  0.018624061            0   0.50722309    1.4842743    2.0101214    1.2316504 
16430000   0.97084681 -8.200837e-07   0.56797509  0.030840861            0   0.53713423    1.4489889     2.016964    1.9602798 
16435000    1.0091078 2.7177677e-05   0.49644464  0.018810571            0   0.47763406    1.5060935    2.0025381    3.8810591 
16440000    1.0128152  3.94226e-05   0.51173481 0.0059579434            0   0.50577686    1.5116267    2.0233615    4.7482516 
16445000    1.0346155 1.4877414e-05   0.45511103 0.0076212757            0   0.44748975    1.5441637    1.9992747    3.0276016 
16450000   0.95492353 -3.3016268e-05   0.57063627  0.016954768            0   0.55368151    1.4252234    1.9958596  -0.28622481 
16455000   0.99072316 -2.9369915e-06   0.50580166  0.011766043            0   0.49403561    1.4786543     1.984456    1.7814511 
16460000    1.0276358 1.5542187e-05   0.47532087  0.014625902            0   0.46069497    1.5337464    2.0090673    3.0833433 
16465000   0.96151807 -1.4749389e-05   0.57192237  0.032034382            0   0.53988799    1.4350657    2.0069881   0.98751033 
16470000    1.0228051 -1.8504657e-05   0.47230021   0.03678921            0     0.435511    1.5265366    1.9988369   0.71979498 
16475000    1.0092089 -4.3862591e-05   0.47547505  0.027096471            0   0.44837858    1.5062443    1.9817194   -1.0500629 
16480000   0.96525734 -2.4728957e-05   0.53490446  0.017309256            0   0.51759521    1.4406466     1.975551   0.26628553 
16485000   0.98363476 3.2703158e-05   0.51027905 0.0082498597            0   0.50202919    1.4680749    1.9783539    4.2387962 
16490000    1.0055643 1.6610399e-05   0.47589121 0.0041874188            0   0.47170379    1.5008047    1.9766959    3.1248066 
16495000   0.96267568 1.7964161e-05   0.53573665 0.0077362633            0   0.52800039    1.4367935    1.9725301    3.2142129 
16500000   0.97601168 8.4853846e-05   0.49531466  0.012191686            0   0.48312298    1.4566974    1.9520121    7.8171099 
16505000   0.92501061 9.2314298e-05   0.55670749  0.015318967            0   0.54138852    1.3805783    1.9372858    8.3180501 
16510000   0.94151193 4.1249439e-05   0.53748427  0.012719199            0   0.52476508    1.4052066    1.9426908     4.793852 
16515000   0.93572245 -4.4633917e-06   0.54021848 0.0068358027            0   0.53338268    1.3965658    1.9367842    1.6282746 
16520000   0.96779641 -6.6842096e-06   0.51081184  0.013824766            0   0.49698707    1.4444361     1.955248    1.4932354 
16525000   0.91702737 2.2907829e-05    0.5709793  0.017992118            0   0.55298719    1.3686634    1.9396427    3.5230318 
16530000   0.93924305 1.0974896e-05   0.52780774  0.019494255            0   0.50831349    1.4018203     1.929628    2.6882128 
16535000   0.95763274 -1.6708016e-05    0.4955843  0.020267954            0   0.47531634    1.4292669    1.9248512   0.76999307 
16540000   0.91632094 -3.7647275e-05   0.55842823  0.029841748            0   0.52858649     1.367609    1.9260372  -0.67614241 
16545000   0.92853273 -4.6103994e-06   0.52454088  0.027329746            0   0.49721114    1.3858351     1.910376    1.5917052 
16550000   0.89567709 3.4782934e-05   0.55886325   0.01262637            0   0.54623688    1.3367981    1.8956613    4.2998577 
16555000   0.91899065 1.4017079e-05   0.52144179  0.016601037            0   0.50484075    1.3715935    1.8930353    2.8618958 
16560000   0.91766483 -4.361777e-05   0.53350774  0.026936115            0   0.50657162    1.3696148    1.9031225   -1.1117378 
16565000   0.87866398 -2.426749e-05   0.60837705  0.018592759            0   0.58978429     1.311406     1.919783   0.24241414 
16570000   0.92255232 3.6353368e-05   0.55235027  0.033485388            0   0.51886489    1.3769093    1.9292596    4.4420044 
16575000   0.90609179 3.2822724e-05   0.57318072  0.015045695            0   0.55813502     1.352342    1.9255227    4.1942294 
16580000   0.94468053 -1.4183655e-05   0.51057024   0.00977781            0   0.50079243    1.4099357    1.9205059   0.94013171 
16585000   0.94425496 -3.4462212e-05   0.51614931  0.013814708            0    0.5023346    1.4093005    1.9254498  -0.45657826 
16590000   0.92329645 -6.194073e-05    0.5411848  0.027111209            0   0.51407359      1.37802    1.9192048   -2.3621385 
16595000   0.93618401 -5.0000658e-05   0.51397128  0.037723377            0    0.4762479    1.3972546    1.9112259   -1.5448195 
16600000   0.84187553 1.0755064e-05   0.63852046  0.031216804            0   0.60730366    1.2564992    1.8950197    2.6384097 
16605000   0.97404115 8.2018941e-06     0.432633  0.013751336            0   0.41888167    1.4537564    1.8863894    2.4533043 
16610000   0.90347821 2.3319925e-05   0.54285723    0.0123916            0   0.53046563    1.3484412    1.8912985    3.5031716 
16615000   0.90139501 2.3302891e-05   0.53581775  0.033218994            0   0.50259875    1.3453321    1.8811498    3.4918456 
16620000   0.92711869 -3.3275967e-05   0.50131956  0.023766235            0   0.47755333    1.3837246    1.8850442  -0.41499062 
16625000   0.92669061 -3.5375365e-05   0.50755803  0.012659336            0   0.49489869    1.3830857    1.8906438  -0.55450146 
16630000   0.91168834 2.3630965e-05    0.5632939  0.036312321            0   0.52698158    1.3606949    1.9239887    3.5573611 
16635000    0.9524705 1.2579048e-06   0.50781853  0.026591664            0   0.48122686    1.4215622    1.9293807    2.0163271 
16640000    0.9986744 -5.832995e-06   0.43325973  0.015744072            0   0.41751566    1.4905215    1.9237813    1.5206047 
16645000   0.93861068 -9.7506021e-06   0.50976502  0.011563011            0   0.49820201    1.4008764    1.9106415    1.2366798 
16650000    0.9277924 -3.8726186e-05   0.52556906  0.017762106            0   0.50780695    1.3847302    1.9102992  -0.76645474 
16655000   0.93804111 -5.0326215e-06    0.4955553  0.027996696            0    0.4675586    1.4000264    1.8955817    1.5477269 
16660000   0.90346347 3.2141419e-05   0.56061961  0.018909098            0   0.54171051    1.3484192    1.9090388    4.1306537 
16665000   0.91832699 5.1778595e-05   0.51781441  0.025643144            0   0.49217127     1.370603    1.8884174    5.4673539 
16670000   0.95569475 6.8153115e-05   0.46189135  0.011589963            0   0.45030139    1.4263744    1.8882658    6.5990091 
16675000    1.0008819 2.739923e-06   0.40115799 0.0093261903            0    0.3918318    1.4938163    1.8949743    2.0843578 
16680000   0.86642044 -4.2353692e-05   0.58721857  0.016050357            0   0.57116821    1.2931325    1.8803511   -1.0471361 
16685000   0.94228705 -3.0781118e-05   0.46437837 0.0097503495            0   0.45462802    1.4063634    1.8707418   -0.2568491 
16690000   0.90069353 -2.3334838e-05   0.51198752 0.0092510044            0   0.50273651    1.3442851    1.8562726   0.24336857 
16695000   0.90402275 3.6680219e-06   0.51877303  0.027359938            0   0.49141309     1.349254     1.868027    2.1215606 
16700000   0.94491701 3.5078445e-05   0.46163264  0.030756749            0   0.43087589    1.4102886    1.8719213    4.2965434 
16705000   0.95090702 7.0879562e-06   0.46067313  0.009522242            0   0.45115089    1.4192287    1.8799019    2.3698214 
16710000   0.89613447 -3.4398389e-05   0.54554107  0.018693389            0   0.52684768    1.3374807    1.8830218   -0.4945949 
16715000   0.91868139 2.471564e-05   0.49676657  0.022311167            0    0.4744554     1.371132    1.8678985    3.5762436 
16720000   0.92044757 4.5498415e-05   0.50310808  0.022707763            0   0.48040032     1.373768    1.8768761    5.0217265 
16725000   0.90790763 -3.2060481e-05   0.53050034  0.021209998            0   0.50929034    1.3550521    1.8855525  -0.33046794 
16730000   0.96353351 -5.3360129e-05   0.45981882  0.015788755            0   0.44403006    1.4380738    1.8978926   -1.7903595 
16735000   0.87133259 -4.3307226e-05   0.60035608  0.016771932            0   0.58358415    1.3004639      1.90082   -1.0925755 
16740000   0.94033646 2.1074404e-05   0.49908733  0.012574037            0   0.48651329    1.4034522    1.9025395    3.3592023 
16745000   0.96020119 3.2285019e-05   0.45283792  0.029362293            0   0.42347563    1.4331003    1.8859382    4.1174787 
16750000   0.91004044 1.0322358e-05    0.5277892  0.026474818            0   0.50131438    1.3582354    1.8860246    2.5995059 
16755000   0.91971034 5.7255658e-05   0.50953248  0.026662865            0   0.48286962    1.3726677    1.8822002    5.8397112 
16760000   0.90481377 3.6452178e-05   0.50370016  0.022626291            0   0.48107387    1.3504346    1.8541347    4.3737093 
16765000   0.87959907 -2.4126953e-05   0.54611508  0.026226831            0   0.51988825    1.3128016    1.8589167   0.19126171 
16770000    0.8572445 -3.0284603e-05   0.58833909 0.0068687906            0    0.5814703    1.2794374    1.8677765  -0.22549522 
16775000   0.92238279 -5.1717125e-05   0.48128175  0.014330419            0   0.46695133    1.3766563    1.8579381   -1.7167496 
16780000   0.93731798 -3.1297864e-05   0.47564193  0.018422111            0   0.45721982    1.3989471     1.874589  -0.28871936 
16785000   0.89175332 3.857097e-05   0.55637274  0.042068369            0   0.51430437    1.3309418    1.8873146      4.55334 
16790000   0.89743689 7.3122796e-05   0.54579134  0.039807145            0   0.50598419    1.3394246    1.8852159    6.9394636 
16795000    0.8842662 -1.43311e-05   0.56142568  0.020993377            0   0.54043231    1.3197673     1.881193   0.89062733 
16800000    0.9688537 -1.4943292e-05   0.44252429  0.021635968            0   0.42088833    1.4460142    1.8885384   0.85565807 
16805000   0.92907545 3.0304603e-05   0.52061149   0.02079431            0   0.49981718    1.3866451    1.9072566    4.0019108 
16810000   0.96654553 1.3829327e-05    0.4685745 0.0060358117            0   0.46253869    1.4425692    1.9111437    2.8670268 
16815000   0.91192621 1.6936561e-05   0.55776155  0.014661479            0   0.54310007    1.3610499    1.9188114    3.0894665 
16820000   0.94549433 6.8240537e-05    0.5075626 0.0099080367            0   0.49765456    1.4111503    1.9187129    6.6354988 
16825000   0.97263077 1.869151e-05   0.47222391 0.0090545054            0   0.46316941    1.4516514    1.9238753    3.2158325 
16830000    0.9310319 -6.4827355e-05   0.53118163  0.025295483            0   0.50588615    1.3895651    1.9207467     -2.56012 
16835000   0.89356209 -2.4171063e-05   0.58635371  0.046409175            0   0.53994453    1.3336414    1.9199951   0.24929123 
16840000   0.93471746 2.7139901e-05   0.52913211  0.028895952            0   0.50023616    1.3950658    1.9241979    3.8001079 
16845000   0.97276559 1.3104808e-05   0.47455268 0.0088221111            0   0.46573057    1.4518526    1.9264053    2.8322097 
16850000     0.940826 1.243547e-05    0.5028097  0.021845512            0   0.48096419    1.4041828    1.9069925    2.7665322 
16855000   0.90973901 3.529384e-06   0.56663079  0.011895019            0   0.55473577    1.3577855    1.9244163    2.1683673 
16860000   0.98878045 -8.1015852e-06   0.44189172 0.0029270959            0   0.43896463    1.4757548    1.9176465     1.357665 
16865000   0.93463066 -1.6340798e-05   0.52767627 0.00089083108            0   0.52678544    1.3949363    1.9226125   0.79313656 
16870000   0.96328418 -1.9825079e-06   0.49559843 0.0037467855            0   0.49185165    1.4377016    1.9333001    1.7962691 
16875000   0.94668453 -2.851034e-05     0.512081 0.0098109112            0   0.50227009    1.4129267    1.9250077  -0.04562704 
16880000    0.9791063 -1.0851301e-05   0.47957636  0.016887664            0   0.46268869    1.4613162    1.9408925    1.1908506 
16885000   0.95858821 5.1790805e-05   0.51140154  0.048703285            0   0.46269825    1.4306929    1.9420944    5.5218749 
16890000    0.9327636 7.1235422e-06    0.5464584  0.012734125            0   0.53372427    1.3921497    1.9386081    2.4309873 
16895000   0.94176255 1.8702226e-05   0.50907171  0.006630715            0     0.502441    1.4055806    1.9146523    3.2073502 
16900000    0.9125203 2.9518869e-05   0.54394476  0.015328383            0   0.52861638    1.3619366    1.9058813    3.9462255 
16905000   0.94515522 1.8246394e-05   0.49695393  0.013262628            0   0.48369131    1.4106442    1.9075981    3.1687888 
16910000   0.89258762 4.8284962e-05   0.58880137  0.016506914            0   0.57229445     1.332187    1.9209884    5.2584449 
16915000   0.97469543 3.8869565e-05   0.47738129  0.022630398            0   0.45475089    1.4547329    1.9321142    4.6187786 
16920000   0.93628126 1.6639459e-05   0.53342015   0.04474934            0   0.48867081    1.3973998    1.9308199    3.0809393 
16925000   0.94345657 -2.7742364e-05   0.53722289   0.04038953            0   0.49683336    1.4081089    1.9453318  0.027779647 
16930000   0.95925924 -1.0075126e-05   0.52387157  0.017378652            0   0.50649292    1.4316944     1.955566    1.2591733 
16935000   0.98794587 -3.0556068e-05    0.4957626   0.01230451            0   0.48345809    1.4745092    1.9702718  -0.14176362 
16940000    0.9762977 8.9330257e-06   0.50757955  0.018995046            0    0.4885845    1.4571243    1.9647039    2.5821546 
16945000   0.98883927 5.327174e-05   0.49297298  0.020287509            0   0.47268548    1.4758426    1.9688156    5.6509583 
16950000   0.99312081 -8.3841844e-06    0.5036293 0.0079396249            0   0.49568968    1.4822328    1.9858621    1.4063473 
16955000    0.9899216 -5.7021642e-05   0.53417079 0.0033326989            0   0.53083809     1.477458    2.0116288   -1.9297071 
16960000    1.0066034 6.970249e-06   0.50957306 0.0058394502            0   0.50373361    1.5023556    2.0119286    2.4937123 
16965000   0.98873443 5.4659338e-05   0.54015825   0.01780444            0   0.52235381    1.4756861    2.0158444    5.7938978 
16970000    1.0145659 1.4337946e-05   0.49779599  0.019142392            0    0.4786536    1.5142395    2.0120355    3.0030743 
16975000    1.0095834 6.9978418e-06   0.49829132  0.024184038            0   0.47410728    1.5068033    2.0050946    2.4887854 
16980000   0.96794435 2.0419185e-06   0.57284272  0.020848778            0   0.55199394    1.4446569    2.0174997    2.1586371 
16985000    1.0310357 -2.3465086e-05   0.46063798  0.016290877            0    0.4443471    1.5388209    1.9994588    0.3775521 
16990000    1.0342231 1.3465858e-05   0.45213721  0.020278531            0   0.43185868     1.543578    1.9957152    2.9264753 
16995000   0.98918357 2.9792981e-05   0.51768784  0.031113768            0   0.48657407    1.4763565    1.9940443    4.0533352 
17000000   0.99060675 -1.0668778e-05   0.50655908   0.03928478            0    0.4672743    1.4784806    1.9850397    1.2476137 
17005000   0.98636278 1.0663187e-05   0.51506852  0.031108576            0   0.48395994    1.4721464     1.987215    2.7242544 
17010000    1.0027462 5.1270072e-05   0.47955526  0.028317842            0   0.45123742    1.4965987     1.976154    5.5199413 
17015000   0.99648252 3.9953357e-05   0.49434182   0.01305728            0   0.48128454    1.4872502     1.981592     4.743168 
17020000    1.0004517 2.4015397e-05   0.48036022  0.036038366            0   0.44432186    1.4931742    1.9735344    3.6334787 
17025000   0.99970451 5.7113212e-06   0.46370318  0.044268483            0    0.4194347     1.492059    1.9557622    2.3505287 
17030000   0.97900004 -8.9657567e-06   0.48121664  0.019064706            0   0.46215193    1.4611576    1.9423742    1.3226611 
17035000   0.95179326 5.1031504e-06   0.50824199  0.026692082            0   0.48154991    1.4205514    1.9287934    2.2815232 
17040000   0.99878932 7.9112955e-06   0.42186471  0.019755588            0   0.40210913    1.4906931    1.9125578    2.4593865 
17045000   0.96824323 1.5650606e-05   0.47953629  0.022361137            0   0.45717516     1.445103    1.9246393    3.0064092 
17050000   0.93094118 4.5321933e-06   0.55959081  0.026951347            0   0.53263946    1.3894297    1.9490205    2.2622857 
17055000   0.98207185 1.1194208e-05   0.49290679  0.010078919            0   0.48282787    1.4657422     1.958649    2.7323927 
17060000    1.0094181 5.2847703e-06   0.44382336 0.0069852142            0   0.43683815    1.5065566    1.9503799    2.3156633 
17065000   0.99032823 -1.4893226e-05   0.45613893 0.0081369922            0   0.44800194    1.4780649    1.9342038   0.90478402 
17070000   0.96554196 3.6697593e-06   0.49795826  0.018389583            0   0.47956868    1.4410714    1.9390296    2.1926834 
17075000   0.94619924 -6.8492078e-06     0.511306   0.02295138            0   0.48835462    1.4122024    1.9235084    1.4500911 
17080000    1.0182579 2.1745622e-05   0.40673619  0.014661465            0   0.39207473    1.5197499     1.926486    3.4295434 
17085000    0.9108745 8.5476121e-07   0.57317158 0.0071938748            0    0.5659777    1.3594802    1.9326518    1.9917329 
17090000   0.98280819 -1.110725e-05   0.44524281  0.014358777            0   0.43088403    1.4668412     1.912084    1.1443509 
17095000   0.97369633 1.084047e-05   0.45565666  0.032163886            0   0.42349277    1.4532418    1.9088984    2.6581917 
17100000   0.90344497 -1.9744476e-05   0.57728897  0.021964668            0    0.5553243    1.3483916    1.9256806    0.5609424 
17105000    1.0053169 7.2621264e-06    0.4609154  0.024300503            0    0.4366149    1.5004355    1.9613509    2.4633091 
17110000    0.9746945 4.1392044e-05   0.48722369  0.060131073            0   0.42709262    1.4547315    1.9419552    4.8029733 
17115000   0.98107595 9.0666485e-06   0.47863712  0.040256092            0   0.43838102    1.4642559     1.942893    2.5695797 
17120000   0.92482287 -4.1111021e-05   0.57680208  0.030944298            0   0.54585778    1.3802981    1.9571002  -0.88449358 
17125000   0.98958505 -9.9643828e-06   0.47760189  0.035721419            0   0.44188047    1.4769557    1.9545576    1.2658194 
17130000   0.97457248 6.0802146e-05   0.50944409  0.028426247            0   0.48101784    1.4545494    1.9639935    6.1666378 
17135000   0.99764743 6.4641852e-05   0.48609104  0.026098864            0   0.45999217    1.4889888    1.9750798    6.4431246 
17140000    1.0140725 2.0843861e-05   0.46455372  0.013794739            0   0.45075898    1.5135032    1.9780569    3.4187846 
17145000   0.99617354 -8.4695867e-06   0.49678008  0.027903759            0   0.46887632     1.486789    1.9835691    1.3981513 
17150000   0.99062922 1.5444882e-05   0.50225184  0.022744212            0   0.47950763    1.4785141     1.980766    3.0483162 
17155000     1.023673 3.3040925e-05   0.44159214 0.0088759717            0   0.43271617     1.527832    1.9694241    4.2532128 
17160000   0.98435832 -2.4515722e-05   0.48246552  0.020931156            0   0.46153436    1.4691548    1.9516203   0.25709361 
17165000    0.9682248 -3.0391658e-05   0.50796338   0.03203861            0   0.47592477    1.4450755    1.9530389  -0.14763249 
17170000   0.96884469 4.9711007e-06   0.51226746  0.014095315            0   0.49817215    1.4460007    1.9582682    2.3018706 
17175000    1.0044315 -1.7025503e-05   0.44390198  0.014259663            0   0.42964232     1.499114    1.9430159    0.7662132 
17180000   0.97094388 -1.9689858e-05   0.47689686  0.031046895            0   0.44584996    1.4491337    1.9260306   0.56506758 
17185000   0.98419255 -1.1351749e-05   0.46822593  0.029310143            0   0.43891579    1.4689074    1.9371333    1.1525004 
17190000   0.97537947 -1.1997177e-05   0.49218265  0.025613632            0   0.46656901    1.4557539    1.9479365    1.1186916 
17195000   0.98901223 -8.1480791e-06   0.47300067  0.025760475            0    0.4472402    1.4761008    1.9491014    1.3859062 
17200000   0.98328742 -3.0750288e-05   0.46636375  0.027970103            0   0.43839365    1.4675565    1.9339202  -0.19153965 
17205000   0.92797958 -1.9528276e-05   0.55408738  0.021060624            0   0.53302675    1.3850095    1.9390969   0.58930246 
17210000   0.95972499 1.5349586e-05   0.50375046   0.01962858            0   0.48412188    1.4323896      1.93614    2.9971034 
17215000   0.99268659 -2.9927687e-06   0.43619474  0.024758233            0    0.4114365    1.4815847    1.9177795    1.7109193 
17220000    0.9483236 -1.8748164e-06   0.51445432  0.039195892            0   0.47525843     1.415373    1.9298273      1.80024 
17225000    0.9247757 -5.1616058e-05   0.52873302  0.033115168            0   0.49561786    1.3802277    1.9089608   -1.6587412 
17230000   0.97566672 -3.0878439e-05   0.45134394  0.030512285            0   0.42083166    1.4561826    1.9075265  -0.22679114 
17235000   0.95494261 2.7299589e-05   0.48105253  0.017925262            0   0.46312727    1.4252518    1.9063044     3.793252 
17240000    0.9320871 -1.6918298e-05   0.50697881 0.0076358592            0   0.49934295      1.39114    1.8981188   0.72872602 
17245000     0.911771 2.7075707e-05   0.51338266  0.011203376            0   0.50217929    1.3608182    1.8742009    3.7456737 
17250000   0.98240057 5.1389346e-06   0.41774505  0.020568652            0   0.39717639    1.4662328    1.8839779    2.2391811 
17255000   0.92917945 -6.9262408e-05   0.48699897  0.033936949            0   0.45306202    1.3868003    1.8737993   -2.9136183 
17260000   0.88927208 -5.5815327e-05   0.56095921  0.021865568            0   0.53909364    1.3272386    1.8881978   -1.9697576 
17265000   0.95730462 -2.2125941e-05   0.45197668 0.0095930303            0   0.44238365    1.4287771    1.8807538   0.35140876 
17270000   0.93029494 4.0930217e-05   0.49830663   0.02021608            0   0.47809055    1.3884652    1.8867718    4.7158684 
17275000   0.94356523 5.0654608e-06   0.47747563  0.016319168            0   0.46115646    1.4082711    1.8857467    2.2358714 
17280000   0.91837926 -2.401856e-05   0.51401742  0.025528759            0   0.48848866    1.3706811    1.8846985    0.2245356 
17285000   0.94746856 -4.7255949e-05   0.46567427  0.014904793            0   0.45076948    1.4140968    1.8797711   -1.3865601 
17290000   0.92638496 2.1743013e-05   0.48723884 0.0095460166            0   0.47769283    1.3826295    1.8698684    3.3727454 
17295000   0.88650354 4.5655398e-05   0.55042163  0.012849452            0   0.53757218    1.3231065    1.8735282    5.0292293 
17300000   0.95651143 -1.7868472e-05   0.44288788   0.02338726            0   0.41950062    1.4275933    1.8704812   0.63541238 
17305000   0.86863417 1.2125679e-05    0.5653405  0.031654627            0   0.53368588    1.2964365     1.861777     2.699904 
17310000    0.9175642 1.6392261e-05   0.49722709  0.028352566            0   0.46887452    1.3694646    1.8666917    2.9997248 
17315000    0.9327348 -2.8174205e-05   0.48148304  0.018904572            0   0.46257847    1.3921067    1.8735897 -0.073811288 
17320000   0.91219408 -8.5521196e-06   0.51044941 0.0095833356            0   0.50086607    1.3614497    1.8718991    1.2807766 
17325000   0.96457568 -2.3124534e-05   0.43935221  0.012279648            0   0.42707257    1.4396292    1.8789814   0.28061366 
17330000   0.90932285 -1.5084324e-05   0.51581514  0.045496245            0   0.47031889    1.3571644    1.8729795   0.83035104 
17335000   0.91541649 3.7397594e-05   0.50413819  0.025818861            0   0.47831933    1.3662591    1.8703973     4.455319 
17340000   0.89374064 3.5686499e-05    0.5488944  0.010427762            0   0.53846664    1.3339079    1.8828023    4.3494531 
17345000   0.92434497 -1.3782032e-05   0.51266418  0.032879002            0   0.47978517    1.3795849     1.892249   0.93963499 
17350000   0.92353936 -2.8126748e-05   0.50594267  0.044861978            0    0.4610807    1.3783825    1.8843252 -0.059795648 
17355000   0.91168116 5.7522568e-05   0.50271258  0.020877085            0   0.48183549    1.3606841    1.8633967    5.8393566 
17360000   0.91662685 -2.803726e-05   0.48262692  0.012854431            0   0.46977249    1.3680656    1.8506925 -0.087242909 
17365000   0.90183252 -7.207232e-05   0.51858954 0.0088991784            0   0.50969037     1.345985    1.8645746   -3.1170642 
17370000   0.90206199 -2.2122081e-05   0.50920433  0.027866903            0   0.48133743    1.3463275    1.8555319   0.32645359 
17375000   0.91894393 1.3935353e-05    0.4966413  0.020438026            0   0.47620327    1.3715238    1.8681651    2.8313767 
17380000   0.86823157  3.71319e-05   0.55943933  0.012567895            0   0.54687144    1.2958356    1.8552749    4.4218319 
17385000   0.92627719 2.0146109e-06    0.4840283 0.0084359975            0   0.47559231    1.3824687     1.866497    2.0057469 
17390000   0.86880949 -6.3495964e-06   0.57178087  0.021303829            0   0.55047704    1.2966982     1.868479    1.4295949 
17395000    0.9062239 6.5715127e-05   0.50843272   0.01707269            0   0.49136003    1.3525392    1.8609719    6.4032015 
17400000   0.86355575 6.0276816e-05   0.58280173 0.0062056496            0   0.57659608     1.288857    1.8716587    6.0379922 
17405000   0.92706303 2.0754232e-05   0.47517867  0.012350568            0    0.4628281    1.3836416    1.8588202    3.2933528 
17410000   0.91117516 -1.5050885e-05   0.51248334  0.023069645            0   0.48941369    1.3599289    1.8724123   0.83209507 
17415000   0.86432543 4.4007754e-05   0.57755648   0.01800038            0    0.5595561    1.2900057    1.8675622    4.9093781 
17420000    0.8884217 -6.1834801e-06   0.52924795  0.014119232            0   0.51512871    1.3259694    1.8552173    1.4278152 
17425000   0.90512694 -7.0542784e-05   0.50849474  0.011324381            0   0.49717036     1.350902    1.8593967   -3.0165205 
17430000   0.90553757 1.7050606e-05   0.50152267  0.011728436            0   0.48979423    1.3515148    1.8530375    3.0315754 
17435000   0.88738331 -3.7892228e-06   0.52558799  0.010505435            0   0.51508255    1.3244196    1.8500076    1.5880965 
17440000   0.88031775 -1.965851e-06   0.53799418 0.0093625001            0   0.52863168    1.3138742    1.8518684    1.7159888 
17445000   0.89346563 5.2884431e-05   0.52481315  0.033017596            0   0.49179556    1.3334974    1.8583106    5.5136825 
17450000   0.86796851 -7.734374e-06   0.54933739  0.015830807            0   0.53350658     1.295443    1.8447804    1.3101805 
17455000   0.92132596 3.4235453e-05   0.47297972  0.029216112            0   0.44376361     1.375079    1.8480587    4.2144132 
17460000   0.87551987 7.3034956e-05   0.56252357  0.012655952            0   0.54986762    1.3067134     1.869237    6.9174132 
17465000   0.90154553 -4.1255346e-05   0.52282508 0.0041651498            0   0.51865993    1.3455567    1.8683818  -0.98318773 
17470000    0.8852072 -3.3660111e-05    0.5409075  0.020217546            0   0.52068996    1.3211717    1.8620792  -0.46450764 
17475000   0.90198582 -2.6584111e-05    0.5241947  0.018288351            0   0.50590635    1.3462138    1.8704085  0.032914749 
17480000   0.90278012 3.2845583e-05   0.53625289  0.013120863            0   0.52313203    1.3473993    1.8836522     4.153939 
17485000   0.93247313 3.5646828e-05   0.51012116   0.01149759            0   0.49862357    1.3917162    1.9018373    4.3657461 
17490000   0.96419374 1.1321263e-05   0.47017739 0.0097841661            0   0.46039322    1.4390592    1.9092365    2.6917622 
17495000   0.95279232 6.4701385e-06   0.49700978 0.0053552625            0   0.49165452    1.4220425    1.9190523    2.3662683 
17500000   0.98918904 3.0828766e-05   0.44453694 0.0086201438            0    0.4359168    1.4763646    1.9209016    4.0517859 
17505000   0.92028289 4.1428427e-05   0.53577693  0.010645236            0    0.5251317    1.3735222    1.9092991     4.772832 
17510000   0.90836426 3.5005136e-06   0.55501762 0.0046965724            0   0.55032104    1.3557337    1.9107513    2.1527068 
17515000    0.8992281 -3.9090275e-06   0.57189929  0.014620366            0   0.55727892    1.3420979    1.9139972    1.6438052 
17520000   0.94148285 -1.6895994e-05   0.50263887 0.0051749193            0   0.49746395    1.4051632     1.907802   0.73995092 
17525000   0.92820004 1.5929713e-05   0.51262623 0.0080377946            0   0.50458844    1.3853386    1.8979648    2.9990266 
17530000   0.93465775 1.0242643e-05    0.4856338  0.010437867            0   0.47519593    1.3949767    1.8806105    2.5885819 
17535000   0.91440963 -9.0215397e-06    0.5431563   0.02628814            0   0.51686816    1.3647564    1.9079127    1.2843439 
17540000   0.96313124 6.5050421e-05    0.4655635  0.031929191            0   0.43363431    1.4374734    1.9030369     6.399322 
17545000   0.89675035 1.8445446e-05   0.55618216   0.02958699            0   0.52659517    1.3383999    1.8945821    3.1695313 
17550000   0.92579842 2.5072883e-06   0.51515374  0.015859708            0   0.49929403    1.3817541    1.8969079    2.0702117 
17555000   0.89443681 2.2308843e-05   0.57947701  0.022865967            0   0.55661104    1.3349469     1.914424    3.4564112 
17560000   0.87810708 -1.4889451e-05   0.60946655 0.0069809908            0   0.60248556    1.3105748    1.9200414   0.89088255 
17565000   0.96601047 6.380286e-05   0.46334414 0.0068335562            0   0.45651059    1.4417706    1.9051148    6.3151684 
17570000   0.97442355 2.9879538e-05   0.45654228  0.012405357            0   0.44413692    1.4543272    1.9108694    3.9761431 
17575000   0.93417267 5.4782829e-05   0.51084447  0.013027878            0   0.49781659    1.3942527    1.9050972    5.6916864 
17580000   0.89707413 5.7009522e-05   0.56847409   0.01266128            0   0.55581281    1.3388831    1.9073572    5.8478554 
17585000   0.93168828 1.9367063e-05   0.51782138  0.019384162            0   0.49843722    1.3905448    1.9083661    3.2470175 
17590000   0.93082704 6.8197285e-05   0.53215535  0.033661457            0   0.49849389    1.3892594    1.9214147     6.635211 
17595000   0.94907189 5.1426254e-05   0.49244971  0.017203495            0   0.47524621    1.4164898    1.9089395    5.4635222 
17600000    0.9611372 2.2431167e-05   0.49322263  0.013463291            0   0.47975934    1.4344973    1.9277199    3.4781621 
17605000    0.9403803 2.1488766e-05   0.52140466 0.0099145814            0   0.51149007    1.4035176    1.9249223    3.4102258 
17610000   0.94936758 -4.9375434e-05   0.49963891  0.013688605            0   0.48595031    1.4169311      1.91657     -1.49626 
17615000   0.92019682 -3.8768514e-05   0.54351176  0.024091859            0   0.51941991    1.3733937    1.9169055  -0.76277417 
17620000   0.95201523 5.3477015e-07   0.49932978  0.013829314            0   0.48550047    1.4208827    1.9202125    1.9571758 
17625000   0.94176534 -2.2360279e-05   0.52904722  0.011714636            0   0.51733258    1.4055848     1.934632   0.38908948 
17630000   0.93285008 -2.8014525e-06    0.5407027  0.014373295            0    0.5263294    1.3922788    1.9329814    1.7393451 
17635000   0.98610367 -5.5268816e-06   0.47556105   0.01220199            0   0.46335906    1.4717597    1.9473208    1.5653027 
17640000   0.96591582 4.4162038e-05   0.50521573    0.0117391            0   0.49347663    1.4416294    1.9468451    4.9993252 
17645000   0.95593083 9.3594605e-06   0.52087031  0.011980639            0   0.50888967    1.4267268    1.9475971     2.594523 
17650000   0.94836539 5.8249543e-06   0.52776344 0.0057854663            0   0.52197798    1.4154353    1.9431988    2.3458196 
17655000   0.95180461 -3.8769071e-05   0.52382217  0.012312489            0   0.51150968    1.4205684    1.9443905  -0.73532765 
17660000   0.94098076 -2.7644902e-05   0.55456928  0.022331135            0   0.53223814    1.4044138    1.9589831  0.048167436 
17665000    1.0097359 -9.0956124e-07   0.47757988  0.016030074            0    0.4615498    1.5070308    1.9846107    1.9217418 
17670000   0.93300567 -4.1440022e-05    0.5949508  0.012099733            0   0.58285107     1.392511    1.9874618  -0.87687253 
17675000    1.0103746 3.6295359e-05   0.48234052  0.036607668            0   0.44573286    1.5079841    1.9903247    4.4990599 
17680000   0.95055962 3.2592561e-05   0.56490015  0.020853053            0    0.5440471    1.4187102    1.9836104    4.2364082 
17685000   0.96795501 1.3869744e-05   0.52379203  0.021373539            0   0.50241849    1.4446728    1.9684649    2.9271416 
17690000   0.95101624 -3.7051673e-05   0.55615651  0.011159483            0   0.54499703    1.4193917    1.9755482  -0.58546338 
17695000   0.94952612 4.3251648e-06   0.55346003 0.0072297537            0   0.54623027    1.4171677    1.9706278    2.2695831 
17700000   0.97630989 -3.7897104e-05   0.52583125 0.0087893898            0   0.51704186    1.4571425    1.9829738  -0.63647407 
17705000   0.98330619 -1.6609782e-05   0.51032229 0.0077980126            0   0.50252428    1.4675845    1.9779068   0.82983865 
17710000   0.96045544 -4.7430485e-06   0.52900402   0.00911417            0   0.51988985    1.4334797    1.9624838    1.6346443 
17715000   0.94955757 -0.00010579459   0.54204764   0.01814518            0   0.52390246    1.4172147    1.9592623   -5.3532597 
17720000    1.0179797 -2.3876293e-05   0.44201446 0.0066386954            0   0.43537577    1.5193347    1.9613491   0.31101975 
17725000   0.95189486 2.3356714e-05   0.54711159   0.02198708            0   0.52512451    1.4207031    1.9678147    3.5822307 
17730000   0.97687487 -3.780682e-05   0.49272548  0.017495612            0   0.47522987    1.4579857    1.9507112  -0.66249618 
17735000   0.95908123 -1.8472008e-05   0.53058347  0.010827597            0   0.51975588    1.4314287    1.9620122   0.68522698 
17740000   0.94979166 -2.300555e-05   0.54199096  0.023771892            0   0.51821907    1.4175641     1.959555   0.36941137 
17745000   0.96391097 -3.0009874e-05   0.51391413  0.014000268            0   0.49991386    1.4386371    1.9525513  -0.12173126 
17750000   0.93269953 4.8762803e-06   0.55759032   0.01675184            0   0.54083848     1.392054    1.9496444    2.2866929 
17755000   0.96158698 7.1261129e-06   0.52954056   0.04803102            0   0.48150954    1.4351686    1.9647091     2.457266 
17760000   0.97250703 -1.8791489e-05   0.52672847   0.03376768            0    0.4929608    1.4514667    1.9781952   0.67932746 
17765000    0.9377432 1.1722186e-05   0.59048386  0.029810061            0    0.5606738    1.3995817    1.9900656    2.8003031 
17770000     0.956988 2.9265619e-05   0.54193922  0.028494568            0   0.51344466    1.4283046    1.9702438    3.9930834 
17775000   0.98988423 -2.6086676e-05   0.49215549  0.016827303            0   0.47532818    1.4774022    1.9695577   0.16644666 
17780000   0.98945261 2.768093e-06   0.48086398  0.017852316            0   0.46301166     1.476758     1.957622    2.1489526 
17785000   0.91876605 5.0030143e-05    0.5730535  0.018764883            0   0.55428862    1.3712583    1.9443118    5.4023953 
17790000   0.94913633 -3.8071239e-05   0.52699953  0.019187219            0   0.50781231     1.416586    1.9435855  -0.68789852 
17795000   0.97684597 -1.3945159e-05   0.48911709 0.0097373582            0   0.47937973    1.4579426    1.9470597   0.98317032 
17800000   0.97399267 3.3913426e-05   0.50664023 0.0081312865            0   0.49850894    1.4536841    1.9603243    4.3044203 
17805000     1.004384 3.5423965e-05   0.45595132  0.028352128            0    0.4275992    1.4990431    1.9549944    4.4034988 
17810000   0.94137098 1.0985888e-05   0.54820194  0.024591615            0   0.52361033    1.4049962    1.9531981    2.7125427 
17815000   0.92189336 8.2152933e-06   0.56434232  0.014638587            0   0.54970373    1.3759258    1.9402682    2.5081092 
17820000    1.0307404 7.8889115e-06   0.42032321 0.0080705986            0   0.41225261      1.53838    1.9587032    2.5039847 
17825000    1.0411215 -5.368967e-05   0.40763428 0.0058140055            0   0.40182027    1.5538738    1.9615081   -1.7495219 
17830000   0.95735929 -2.6550797e-05    0.5210098  0.005148691            0   0.51586111    1.4288587    1.9498685   0.11467742 
17835000    1.0106344 1.7922825e-05   0.45442129 0.0038803497            0   0.45054094    1.5083719    1.9627932    3.2016188 
17840000    0.9998285 7.5636478e-05   0.48683857  0.012089754            0   0.47474882     1.492244    1.9790826     7.207076 
17845000   0.99509087 3.0148248e-05   0.49521902  0.042795263            0   0.45242375    1.4851731    1.9803921    4.0642391 
17850000   0.97830669 5.801272e-05   0.52328895  0.034477366            0   0.48881158    1.4601227    1.9834117    5.9932509 
17855000    0.9919586 5.4167662e-05   0.52220118  0.026682802            0   0.49551838    1.4804982    2.0026994    5.7467682 
17860000    1.0001777 -1.2618537e-05   0.51032576  0.019358863            0    0.4909669    1.4927651    2.0030909    1.1308976 
17865000    1.0050213 -1.7781241e-05    0.4977809  0.014841622            0   0.48293928    1.4999943    1.9977752   0.76873578 
17870000    0.9911155 6.0743867e-07   0.52596507  0.023345839            0   0.50261923    1.4792399    2.0052049    2.0471911 
17875000    1.0215308 -2.5696985e-05   0.48525192  0.035019459            0   0.45023246    1.5246347    2.0098867   0.23371107 
17880000   0.95822073 -4.9747148e-06   0.58109491  0.036993204            0   0.54410171    1.4301444    2.0112394    1.6673871 
17885000    1.0001338 7.4170674e-06    0.5228242  0.016214151            0   0.50661005    1.4926997    2.0155239    2.5281916 
17890000     1.009596 2.579876e-05   0.49071691  0.015117585            0   0.47559932    1.5068221     1.997539    3.7807493 
17895000   0.93476756 8.7357716e-06   0.59491603  0.019059519            0   0.57585651    1.3951406    1.9900566    2.5938732 
17900000    0.9864762 -1.0544272e-05    0.5286153  0.025840933            0   0.50277436    1.4723157     2.000931    1.2721109 
17905000    0.9955679 -5.1472618e-06   0.51660881   0.01660911            0    0.4999997    1.4858851    2.0024939    1.6467152 
17910000   0.96019119 2.5653895e-05   0.56738991  0.015858725            0   0.55153119    1.4330854    2.0004753    3.7736725 
17915000   0.96598085 5.0388358e-05   0.55052489  0.029258967            0   0.52126592    1.4417264    1.9922513    5.4750946 
17920000   0.97102346 2.3394189e-05   0.56809385  0.019879664            0   0.54821418    1.4492525    2.0173464    3.6343527 
17925000   0.97209866 3.8769573e-05   0.55255784  0.024477847            0   0.52807999    1.4508573    2.0034151     4.683168 
17930000    1.0012603 7.8498207e-06    0.5064577  0.026139435            0   0.48031827     1.494381    2.0008387    2.5434183 
17935000    1.0218307 2.4217466e-05   0.47275496  0.011969672            0   0.46078529    1.5250823    1.9978372    3.6717485 
17940000   0.99455565 1.1134661e-06   0.50537449  0.015784825            0   0.48958966    1.4843743    1.9897488    2.0667116 
17945000   0.98085611 -3.3936828e-05   0.53653159  0.022160518            0   0.51437107    1.4639277    2.0004593  -0.34525419 
17950000    1.0545585 -1.568608e-05   0.42748751  0.017994871            0   0.40949264    1.5739285     2.001416   0.91719413 
17955000    1.0199716 4.2786908e-05   0.49309331  0.014004058            0   0.47908925    1.5223076    2.0154009     4.972832 
17960000   0.99949889 -1.8321185e-05   0.51523204  0.024297018            0   0.49093502    1.4917521    2.0069841    0.7406238 
17965000    1.0358547 -6.9732634e-06   0.45993353  0.023627159            0   0.43630637    1.5460131    2.0059467    1.5239547 
17970000    1.0589207 5.537329e-05   0.45128576 0.0094991208            0   0.44178664    1.5804391    2.0317249    5.8591267 
17975000   0.98629287 -1.0632985e-05   0.54540995  0.010605587            0   0.53480437    1.4720421    2.0174521    1.2825001 
17980000    1.0145758 4.1063031e-05   0.48257146 0.0059070724            0   0.47666439    1.5142543    1.9968258    4.8351025 
17985000    1.0042591  2.14991e-05   0.50950098 0.0049103451            0   0.50459063    1.4988568    2.0083577    3.4943755 
17990000    1.0393905 -6.9008317e-06   0.46220776 0.0099421536            0   0.45226561    1.5512903     2.013498    1.5365125 
17995000    1.0055843 -3.7986184e-06   0.50174339  0.026743415            0   0.47499998    1.5008345    2.0025779    1.7400174 
18000000    1.0202743 -5.6867757e-05   0.49763069 0.0076710584            0   0.48995963    1.5227593      2.02039   -1.9103093 
18005000    1.0021994 2.2905066e-05   0.52729662 0.0073146749            0   0.51998194    1.4957826    2.0230792    3.6062774 
18010000    1.0475826 -7.3870707e-06    0.4737231 0.0092943352            0   0.46442877     1.563517    2.0372401    1.5266458 
18015000    1.0541696 -4.9981407e-06    0.4577117  0.014121715            0   0.44358999    1.5733481    2.0310598    1.6855883 
18020000   0.99612343 4.2944505e-05   0.54014974  0.033207447            0   0.50694229    1.4867142     2.026864    4.9951882 
18025000    1.0188257 2.7701068e-05    0.4989654  0.016395782            0   0.48256962    1.5205973    2.0195627    3.9342605 
18030000   0.96232247 1.6315954e-05   0.57805199 0.0014903153            0   0.57656167    1.4362663    2.0143183     3.142077 
18035000    1.0454016 5.2274726e-05   0.45385565 0.0030335982            0   0.45082205    1.5602619    2.0141175    5.6273466 
18040000    1.0206764 -2.085616e-05   0.50607417  0.015363231            0   0.49071094    1.5233595    2.0294337   0.58785596 
18045000    1.0093332 -2.7199818e-05   0.52312429  0.034824766            0   0.48829952    1.5064297     2.029554   0.14950259 
18050000      1.02746 -1.5450844e-05   0.48491332  0.026726648            0   0.45818667     1.533484    2.0183973   0.95043497 
18055000    1.0122058 -5.4451392e-05   0.49635282  0.011590441            0   0.48476238    1.5107171      2.00707   -1.7566102 
18060000   0.98566881 -1.131388e-05   0.54342906  0.010168961            0    0.5332601    1.4711107    2.0145398    1.2325244 
18065000   0.99765374 3.7384575e-05   0.51700985  0.018481192            0   0.49852866    1.4889982     2.006008    4.5900299 
18070000    1.0105021 3.0161422e-05   0.48401832  0.023700435            0   0.46031788    1.5081744    1.9921928    4.0769502 
18075000    1.0065079 2.9836543e-06   0.50421877  0.018891858            0   0.48532692     1.502213    2.0064318     2.212662 
18080000    1.0153233 -2.0623597e-05   0.49336014  0.015053275            0   0.47830687      1.51537    2.0087301   0.58322708 
18085000   0.98626466 3.8813135e-05   0.53773485  0.022463941            0   0.51527091        1.472    2.0097348    4.6924988 
18090000     1.026268 3.5992991e-05   0.48445515  0.015882029            0   0.46857312     1.531705    2.0161602    4.5039957 
18095000    1.0559356 -3.7805257e-05   0.45744037  0.010160358            0   0.44728001    1.5759838    2.0334242  -0.57967515 
18100000   0.99826823 -5.642061e-05   0.52964287  0.010128812            0   0.51951405    1.4899153    2.0195582   -1.8802344 
18105000    1.0048721 -3.0225359e-05    0.5154756 0.0079345214            0   0.50754107    1.4997717    2.0152473 -0.073929534 
18110000    1.0639701 -7.7206125e-06   0.43502636 0.0082279259            0   0.42679843    1.5879754    2.0230017     1.489353 
18115000   0.98974629 -2.5103128e-05   0.53073694  0.015300606            0   0.51543633    1.4771963    2.0079333   0.27280506 
18120000    1.0043538 -4.6416261e-05   0.53262256  0.028083668            0   0.50453889    1.4989981    2.0316206   -1.1766713 
18125000     1.041615 1.896344e-05   0.47416947  0.028393486            0   0.44577599    1.5546104    2.0287799    3.3395328 
18130000   0.99964573 2.1179173e-05   0.51880257  0.020315934            0   0.49848664    1.4919712    2.0107738    3.4746783 
18135000    1.0275327 -6.8045706e-06   0.48562629   0.01327479            0    0.4723515    1.5335926    2.0192189     1.548887 
18140000    1.0528426 1.433489e-05   0.44733013  0.020970283            0   0.42635985    1.5713675    2.0186977    3.0095252 
18145000   0.99689966 2.8676898e-05   0.53194945   0.02077598            0   0.51117347    1.4878727    2.0198222    4.0019694 
18150000    1.0071036 2.3288905e-05   0.50612596  0.020949017            0   0.48517695    1.5031022    2.0092282    3.6189573 
18155000   0.98189261 -9.8690172e-06   0.54129929  0.026275742            0   0.51502354    1.4654747     2.006774    1.3246275 
18160000    1.0344619 5.2767537e-06   0.44763698  0.021170233            0   0.42646674    1.5439343    1.9915713    2.3563005 
18165000   0.98181605 -4.7128548e-05   0.54736321  0.020535837            0   0.52682737    1.4653605    2.0127237   -1.2448016 
18170000    1.0060106 -3.9788893e-05   0.52630311  0.019196773            0   0.50710634    1.5014708    2.0277739  -0.72243438 
18175000    1.0092613 1.2839719e-05   0.54641007  0.023657966            0    0.5227521    1.5063225    2.0527326     2.940214 
18180000    1.0414101 -1.231561e-05   0.51274687  0.027848152            0   0.48489871    1.5543046    2.0670515    1.2157965 
18185000    1.0193136 -7.1488513e-05   0.52790783  0.022452806            0   0.50545502    1.5213256    2.0492334   -2.8920526 
18190000   0.99912137 -9.0189878e-05   0.54141685 0.0085515746            0   0.53286528    1.4911886    2.0326055   -4.2013189 
18195000    1.0496626 -1.5358982e-06   0.47126299   0.01795804            0   0.45330495    1.5666214    2.0378843    1.9317231 
18200000   0.99817737 1.5600781e-05   0.54654517  0.020190936            0   0.52635423    1.4897797    2.0363249    3.1146508 
18205000    1.0346657 -8.447153e-05   0.50198467   0.02356203            0   0.47842264    1.5442386    2.0462233   -3.7924489 
18210000   0.99393509 1.1404446e-05   0.53741069  0.029001772            0   0.50840892    1.4834481    2.0208588    2.8091341 
18215000    1.0604388 -1.7128508e-05   0.43966012  0.015107375            0   0.42455274    1.5827049     2.022365   0.83844258 
18220000    1.0230255 -3.2076764e-05   0.50501014  0.008417328            0   0.49659282    1.5268656    2.0318757   -0.1852702 
18225000    1.0188954 -2.3700469e-05   0.51460961  0.013414504            0   0.50119511    1.5207014    2.0353111   0.39713461 
18230000    1.0236481 -1.6398047e-05   0.51710141  0.017488502            0   0.49961291    1.5277948    2.0448962   0.91146319 
18235000    1.0340909 -4.2686463e-06   0.49780225  0.023398304            0   0.47440394    1.5433806    2.0411829     1.746134 
18240000    1.0175119 -9.3328216e-05   0.54016874   0.01133939            0   0.52882935    1.5186365    2.0588053    -4.392041 
18245000    1.0588896 -5.6015394e-05    0.4744057 0.0023135981            0   0.47209211    1.5803928    2.0547985   -1.8169856 
18250000    1.0650942 -9.0359854e-06   0.46165554  0.010555184            0   0.45110036    1.5896531    2.0513086    1.4267413 
18255000     1.042451 1.6547138e-05   0.49292618  0.026415397            0   0.46651079    1.5558581    2.0487843    3.1925225 
18260000    1.0582115  1.84546e-05    0.4779293  0.023863483            0   0.45406582    1.5793807      2.05731     3.332892 
18265000   0.99579921 2.0613867e-05   0.55785309 0.0072788907            0    0.5505742    1.4862303    2.0440834    3.4689139 
18270000    1.0257601 3.7000827e-05    0.4909343  0.011619277            0   0.47931502    1.5309469    2.0218812    4.5793784 
18275000   0.99729415 -1.4094323e-05   0.52170171  0.029179427            0   0.49252228    1.4884615    2.0101632    1.0359636 
18280000    1.0422309 -6.7417241e-05   0.44871276  0.031812952            0   0.41689981    1.5555296    2.0042423   -2.6556373 
18285000   0.99814302 -7.2349317e-05   0.49451688  0.017642834            0   0.47687405    1.4897285    1.9842453   -3.0165394 
18290000   0.94938247 8.0993835e-06   0.55498828  0.025709007            0   0.52927927    1.4169533    1.9719416     2.531771 
18295000   0.98836759 -5.2682719e-06   0.48216067  0.029354351            0   0.45280632    1.4751386    1.9572993    1.5931563 
18300000   0.95943209 -2.7744134e-05   0.52006214   0.02620165            0   0.49386049    1.4319524    1.9520145  0.034339965 
18305000   0.99978785 1.5205675e-05   0.46513014  0.037121472            0   0.42800866    1.4921834    1.9573135    3.0083297 
18310000    0.9359237 1.2233417e-05   0.55825555  0.038013028            0   0.52024252    1.3968661    1.9551217    2.8006954 
18315000   0.92756846 5.4967163e-05   0.55901214  0.026470737            0    0.5325414    1.3843959    1.9434081    5.7427384 
18320000   0.95424057 3.6393674e-07   0.50587454   0.02662852            0   0.47924602     1.424204    1.9300786    1.9552339 
18325000   0.94884249 -4.5188625e-05   0.51179236   0.02270525            0   0.48908711    1.4161474    1.9279398    -1.195498 
18330000   0.92192022 -2.9449559e-05   0.55650538  0.020265762            0   0.53623962    1.3759659    1.9324713  -0.10308224 
18335000   0.97290428 -1.804571e-05   0.48182945   0.01839633            0   0.46343312    1.4520596    1.9338891   0.68656964 
18340000   0.99801231 -1.3458439e-05   0.45173581  0.015419556            0   0.43631625    1.4895334    1.9412692    1.0110219 
18345000     0.929336 -6.5045692e-05   0.54678151  0.028455136            0   0.51832638     1.387034    1.9338155   -2.5621427 
18350000   0.95975063 -5.7148475e-06   0.50732021  0.029026885            0   0.47829333    1.4324278     1.939748    1.5447378 
18355000   0.95270584 1.4836855e-05   0.51006881  0.019617329            0   0.49045148    1.4219135    1.9319823    2.9575057 
18360000   0.97006637 5.9440022e-06   0.50562972   0.01879273            0   0.48683699    1.4478241    1.9534538    2.3643032 
18365000   0.98441349 -2.8434755e-05   0.48460649  0.018030196            0    0.4665763    1.4692371    1.9538436 -0.011566619 
18370000    1.0041055 -1.9636929e-05   0.46952015  0.023084981            0   0.44643517    1.4986275    1.9681477   0.61084315 
18375000    1.0151653 -4.890637e-05   0.47439493  0.034617404            0   0.43977753    1.5151342    1.9895292   -1.3908791 
18380000   0.98164031 -2.6825958e-05    0.5346972  0.032642031            0   0.50205517    1.4650982    1.9997954   0.14558512 
18385000   0.97367433 2.4807015e-05    0.5283298   0.02055057            0   0.50777923    1.4532089    1.9815387    3.6961997 
18390000   0.99771775 3.5789416e-05   0.50413828  0.025747075            0   0.47839121    1.4890937     1.993232    4.4669965 
18395000    1.0143893 3.9987568e-05   0.46749395  0.034881238            0   0.43261271     1.513976    1.9814699    4.7454106 
18400000   0.98292706 3.0331895e-05   0.51300417  0.020064584            0   0.49293959    1.4670186    1.9800228    4.0765634 
18405000   0.96930054 1.1835319e-07   0.53937178  0.021876729            0   0.51749505    1.4466811    1.9860528    1.9942334 
18410000    1.0045546 -1.8590102e-05   0.48297627 0.0084828769            0   0.47449339    1.4992977     1.982274    0.6973261 
18415000   0.97846205 2.1536498e-06   0.52642296  0.015533716            0   0.51088924    1.4603546    1.9867776    2.1356378 
18420000   0.97630976 5.4578788e-05   0.52452512  0.022306335            0   0.50221879    1.4571423    1.9816674    5.7541532 
18425000    1.0041726 6.7706086e-05   0.46814306  0.019749871            0   0.44839318    1.4987276    1.9668707    6.6467153 
18430000    0.9429737 -1.3480195e-05   0.55603136    0.0109225            0   0.54510886    1.4073882    1.9634196    1.0316686 
18435000   0.99223685 3.1149871e-05   0.48171209 0.0079783353            0   0.47373375    1.4809135    1.9626256    4.1157046 
18440000   0.97931239 -9.6553394e-06   0.48288418   0.01177062            0   0.47111356    1.4616237    1.9445079    1.2771309 
18445000    0.9851531 -4.0513252e-05   0.48953203  0.023276555            0   0.46625548     1.470341     1.959873  -0.84040294 
18450000    0.9971682 -3.2946036e-05   0.49364675  0.014934671            0   0.47871208    1.4882735    1.9819203   -0.2953097 
18455000   0.92890248 -6.1984842e-06   0.57883128  0.010629778            0    0.5682015    1.3863869    1.9652182     1.536779 
18460000   0.97619835 8.9828549e-06   0.50651686  0.017222399            0   0.48929446     1.456976    1.9634929    2.5843878 
18465000   0.99697372 4.8558072e-05    0.4696255  0.019455881            0   0.45016962    1.4879833    1.9576088    5.3139427 
18470000   0.95694843 -2.13831e-06   0.53890732  0.022745744            0   0.51616158    1.4282455    1.9671529    1.8193529 
18475000   0.99039943 -1.7150562e-05   0.51422182   0.01437999            0   0.49984183    1.4781711     1.992393   0.80694612 
18480000   0.96822895 -2.1148265e-05   0.53024393  0.017247867            0   0.51299606    1.4450817    1.9753256   0.51355756 
18485000    1.0500935 2.7989722e-05   0.40737104  0.017113097            0   0.39025795    1.5672645    1.9746356    3.9092852 
18490000    0.9739525 3.6412707e-05   0.50354594  0.022087849            0   0.48145809    1.4536241    1.9571701    4.4740164 
18495000   0.98274884 2.2028709e-06   0.49561924  0.011345353            0   0.48427388    1.4667526    1.9623719    2.1146343 
18500000    0.9686892 -7.0792008e-06   0.50320037  0.021436019            0   0.48176435    1.4457686     1.948969    1.4596546 
18505000   0.96987397 -7.2651121e-06   0.49865637  0.012140261            0    0.4865161    1.4475369    1.9461933    1.4440287 
18510000   0.92948354 3.8628464e-05   0.55920737  0.019022551            0   0.54018482    1.3872542    1.9464616     4.616461 
18515000   0.92136891 -1.6873184e-05   0.53395479 0.0087722807            0   0.52518251    1.3751431    1.9090979   0.74282339 
18520000   0.95075876 -5.944633e-05   0.47877449 0.0051822528            0   0.47359223    1.4190074    1.8977819   -2.2111484 
18525000   0.93099712 8.8240063e-06   0.51371557 0.0095461626            0    0.5041694    1.3895132    1.9032288    2.5131441 
18530000   0.90140488 2.0132761e-05   0.56205252  0.022301494            0   0.53975103    1.3453468    1.9073993    3.2989757 
18535000   0.94959877 -1.3919145e-06   0.49410861    0.0130796            0   0.48102901    1.4172762    1.9113848    1.8151756 
18540000    0.9470438 -6.8660887e-05   0.51430435  0.020245046            0    0.4940593    1.4134629    1.9277672   -2.8180733 
18545000   0.96852463 -1.2951101e-06   0.47348087   0.02636837            0    0.4471125     1.445523    1.9190039    1.8294859 
18550000   0.96648974 6.2104238e-05   0.46445192 0.0080362583            0   0.45641566    1.4424859    1.9069378    6.1995828 
18555000   0.93098047 -2.0943038e-05   0.51225947 0.0048567946            0   0.50740267    1.3894883    1.9017478   0.45416506 
18560000   0.93095845 -9.0646519e-06   0.52616004  0.013698479            0   0.51246156    1.3894555    1.9156155    1.2890668 
18565000   0.94747984 -7.4990826e-07   0.48813796  0.015541892            0   0.47259607    1.4141137    1.9022516     1.850418 
18570000   0.96249985 9.9128377e-06   0.48918835  0.016003741            0   0.47318461     1.436531    1.9257194    2.6108947 
18575000   0.97099862 -3.199602e-05   0.47600942  0.023759938            0   0.45224948    1.4492154    1.9252249  -0.28634006 
18580000   0.93998468 -3.1846763e-07   0.53107744  0.010319244            0   0.52075819    1.4029271    1.9340046    1.9119921 
18585000   0.99027563 4.9856558e-05   0.46215896 0.0056307209            0   0.45652824    1.4779864    1.9401453    5.3862306 
18590000    0.9694619 -4.8293339e-05   0.49090456  0.017150793            0   0.47375377    1.4469219    1.9378265   -1.4002091 
18595000     0.922171 -4.1647682e-05   0.55804164  0.017001103            0   0.54104053    1.3763402    1.9343819  -0.94430593 
18600000   0.95917719 2.2095708e-05   0.50035152  0.014334526            0   0.48601699     1.431572    1.9319235    3.4591788 
18605000   0.97396749 3.9656738e-05   0.49299247  0.017076546            0   0.47591593    1.4536465     1.946639    4.6877127 
18610000   0.99246858 7.6028705e-06   0.48071384  0.018456862            0   0.46225698    1.4812594    1.9619732    2.4874836 
18615000   0.92764059 -5.9100864e-05   0.56805277  0.035848694            0   0.53220408    1.3845036    1.9525564   -2.1324954 
18620000   0.93792757 -3.1518505e-05   0.54200598  0.022125555            0   0.51988043    1.3998569    1.9418629  -0.23669619 
18625000   0.96955917 -2.4663573e-06    0.4974019  0.023201714            0   0.47420018    1.4470671     1.944469    1.7739943 
18630000   0.96736721 -5.1234558e-05   0.46364547  0.021156086            0   0.44248939    1.4437956     1.907441   -1.6338916 
18635000   0.93207172 1.9881339e-05   0.51488642  0.028972773            0   0.48591365     1.391117    1.9060035    3.2802016 
18640000   0.93840094 -4.2465333e-06   0.51710859  0.020789877            0   0.49631871    1.4005634     1.917672    1.6241516 
18645000   0.94761948 -5.3007018e-06     0.502037    0.0351681            0   0.46686889    1.4143221    1.9163591    1.5499746 
18650000   0.95165683 5.6580153e-05   0.49559667  0.016324307            0   0.47927236    1.4203478    1.9159445    5.8267646 
18655000   0.98581714 5.3219362e-06   0.45101129  0.017284263            0   0.43372703    1.4713321    1.9223434    2.2901956 
18660000   0.96058218 3.5852001e-05   0.48688336  0.012317506            0   0.47456585    1.4336689    1.9205523    4.3986426 
18665000   0.98707791 6.8243086e-05   0.43508175  0.016769708            0   0.41831204    1.4732138    1.9082955    6.6252576 
18670000   0.92830693 -8.3575603e-06   0.53161405  0.026880609            0   0.50473344    1.3854981    1.9171121    1.3394376 
18675000    1.0100652 -2.7590017e-05   0.40170422  0.014036926            0   0.38766729    1.5075223    1.9092265 0.0022045575 
18680000   0.95790167 -4.8032699e-05   0.48190183  0.017812705            0   0.46408913    1.4296682    1.9115701   -1.4084501 
18685000   0.93207103 -3.3005783e-05   0.51940538   0.01419842            0   0.50520696     1.391116    1.9105214  -0.37083835 
18690000   0.94120248 -3.9125869e-05   0.50630166 0.0088569652            0   0.49744469    1.4047447    1.9110464  -0.79333369 
18695000   0.95174297 -1.5375635e-05   0.51490221 0.0043958543            0   0.51050635    1.4204764    1.9353786   0.87261472 
18700000   0.92269758 8.7187025e-06   0.55054058  0.011370196            0   0.53917038    1.3771261    1.9276667    2.5303034 
18705000   0.98326779 4.1122695e-05   0.46047362  0.017824739            0   0.44264888    1.4675272    1.9280008    4.7704015 
18710000   0.96181468 6.6019382e-06   0.48924358  0.033436911            0   0.45580667    1.4355084     1.924752     2.381078 
18715000   0.95524615 -1.9018518e-05   0.49624865  0.030416592            0   0.46583206    1.4257049    1.9219535   0.60739354 
18720000   0.95492833 2.0060926e-05   0.48894635  0.031202731            0   0.45774361    1.4252305    1.9141769    3.3007881 
18725000   0.95265874 -2.7048603e-05   0.47688873 0.0077423461            0   0.46914639    1.4218432    1.8987319  0.029132484 
18730000   0.96462803 -1.9425509e-05    0.4698245 0.0095681055            0   0.46025639    1.4397073    1.9095318   0.56684063 
18735000   0.95981535 -7.0658113e-06   0.44660662  0.022600574            0   0.42400604    1.4325244     1.879131    1.3907421 
18740000   0.96109384 1.8153574e-06   0.45364826  0.013096399            0   0.44055186    1.4344326    1.8880808    2.0135583 
18745000   0.98376076 -2.0195052e-05   0.41853685  0.011832796            0   0.40670406    1.4682629    1.8867998   0.49091778 
18750000    0.9060306 -5.9876756e-05   0.51449728  0.014084383            0    0.5004129    1.3522507    1.8667479   -2.2719334 
18755000   0.93671376 -3.739694e-05   0.47101602  0.022456803            0   0.44855922    1.3980453    1.8690613  -0.71581519 
18760000   0.92497751 -2.6586641e-06   0.49203323  0.026140382            0   0.46589285    1.3805289    1.8725622    1.6887953 
18765000   0.93452981 -1.8469663e-05   0.46701176   0.03112623            0   0.43588553    1.3947857    1.8617975   0.58517438 
18770000   0.86434417 -5.0469822e-06   0.57411748  0.014940146            0   0.55917733    1.2900337    1.8641511    1.5153037 
18775000   0.93705321 9.6308449e-06   0.48116056   0.01403717            0   0.46712339    1.3985519    1.8797125    2.5453965 
18780000   0.95453846 -5.1514471e-05   0.45893021  0.011109395            0   0.44782081    1.4246486    1.8835789   -1.6771014 
18785000   0.88701845 -6.1019405e-05   0.56660807 0.0085728636            0    0.5580352     1.323875    1.8904831   -2.3271782 
18790000   0.90632427 -3.1792923e-05   0.54801524 0.0055133555            0   0.54250188     1.352689    1.9007042  -0.29682265 
18795000   0.96278189 -1.8001138e-05    0.4811477 0.0032648888            0   0.47788281     1.436952    1.9180997   0.67386099 
18800000   0.97580586 -1.4906392e-05   0.47240838 0.0062316261            0   0.46617675    1.4563902    1.9287986   0.89846878 
18805000   0.96192314 6.2785553e-06   0.51024991 0.0098955871            0   0.50035432    1.4356703    1.9459202    2.3798939 
18810000   0.95510218 1.1501473e-05   0.53894705  0.015333344            0    0.5236137      1.42549    1.9644371    2.7594189 
18815000   0.97865842 -2.7717707e-05   0.50620746  0.019015306            0   0.48719215    1.4606477    1.9668551  0.051007215 
18820000   0.96168282 -3.8301541e-05   0.52808996  0.044871417            0   0.48321855    1.4353116    1.9634016  -0.68400097 
18825000   0.95183663 -1.0050501e-05   0.55391466  0.031355072            0   0.52255959    1.4206162    1.9745308    1.2798402 
18830000    0.9893871 1.5413294e-05   0.50377443  0.019181652            0   0.48459277    1.4766602    1.9804347    3.0458015 
18835000    1.0211783 7.1595611e-05   0.43095547  0.029680642            0   0.40127483    1.5241086    1.9550641    6.9037527 
18840000   0.99785907 7.4959585e-05    0.4759766  0.020904073            0   0.45507253    1.4893047    1.9652813    7.1464878 
18845000    0.9316228 1.4453227e-05   0.59078915  0.047583423            0   0.54320572     1.390447    1.9812362    2.9802432 
18850000   0.95058872 7.3651731e-06   0.56034324  0.020981154            0   0.53936209    1.4187537    1.9790969    2.4881777 
18855000    1.0275587 -2.3950158e-05   0.47251167 0.0068916561            0   0.46562001    1.5336313     2.006143   0.35070806 
18860000    1.0288172 -5.1832659e-05   0.46553323 0.0075498237            0    0.4579834    1.5355097    2.0010429   -1.5816304 
18865000   0.98170527 -2.4223471e-05   0.55003774 0.0089465242            0   0.54109122    1.4651951    2.0152329   0.34090653 
18870000   0.96149438 -1.4446288e-05   0.55909936  0.010728209            0   0.54837115    1.4350304    1.9941297   0.99560228 
18875000   0.99113531 -3.7419406e-05   0.50722535  0.018866227            0   0.48835913    1.4792695    1.9864948  -0.59993457 
18880000   0.98559187 -8.6019263e-07   0.52279802  0.029271101            0   0.49352692    1.4709959    1.9937939    1.9343374 
18885000    1.0028869 -7.90305e-06   0.50486126  0.029137924            0   0.47572334    1.4968087    2.0016699    1.4554111 
18890000   0.98826749 -1.0144498e-05   0.51085004   0.03612674            0    0.4747233    1.4749892    1.9858393    1.2846516 
18895000    1.0063384 4.0900381e-05   0.48478759  0.020555531            0   0.46423206    1.5019601    1.9867477     4.813782 
18900000    0.9959159 1.5702009e-05   0.46711266  0.012495078            0   0.45461758    1.4864045    1.9535171      3.03884 
18905000   0.92563189 -3.7491916e-05   0.56739809   0.02235913            0   0.54503896    1.3815056    1.9489037  -0.64253756 
18910000   0.97829737 -4.3233875e-06   0.47966715  0.025921795            0   0.45374535    1.4601088     1.939776    1.6409434 
18915000   0.96523977 3.8836899e-05   0.48447946  0.012380695            0   0.47209877    1.4406204    1.9250998    4.6095063 
18920000   0.91393775 -5.3608538e-05   0.58912257  0.025212462            0   0.56391011    1.3640521    1.9531747   -1.7522475 
18925000   0.97838287 4.102653e-06   0.49426035  0.048063657            0   0.44619669    1.4602364    1.9544968    2.2380722 
18930000   0.97387014 1.7183317e-05   0.49598355  0.025029054            0   0.47095449    1.4535012    1.9494847    3.1371956 
18935000   0.93971083 -2.4823943e-05    0.5399937  0.021323299            0    0.5186704    1.4025184    1.9425121   0.22668119 
18940000   0.94069385 -3.7370667e-05   0.52945221  0.020665199            0   0.50878701    1.4039856    1.9334378  -0.64962273 
18945000   0.96961346 -2.329824e-06   0.49402314   0.01623674            0    0.4777864    1.4471481    1.9411712    1.7801338 
18950000   0.99900201 3.4912246e-06    0.4573844  0.010552016            0   0.44683238    1.4910105    1.9483949    2.1897083 
18955000   0.95198222 2.9397097e-05   0.52395116   0.02770459            0   0.49624657    1.4208335    1.9447846    3.9767119 
18960000   0.95990322 -1.0868062e-05   0.52935729  0.023138084            0   0.50621921    1.4326556    1.9620128    1.2108124 
18965000   0.96149724 -3.13923e-05   0.52623098   0.03275922            0   0.49347176    1.4350346    1.9612656  -0.20857019 
18970000    1.0100932 -4.7015307e-05   0.44947033  0.037924555            0   0.41154577    1.5075641    1.9570344   -1.2926636 
18975000   0.94474476 -7.2568509e-06   0.54621045  0.034861836            0   0.51134862    1.4100316     1.956242    1.4546485 
18980000   0.97972767 -1.5600841e-06   0.49140454  0.023921207            0   0.46748333    1.4622436    1.9536481    1.8458151 
18985000   0.96200615 -1.6399899e-05   0.52655044 0.0078284188            0   0.51872203    1.4357942    1.9623446   0.82878363 
18990000    0.9647841 8.4873551e-06    0.5140727  0.018013956            0   0.49605874    1.4399403     1.954013    2.5406589 
18995000   0.96898781 -5.4201713e-05   0.51970095  0.019934353            0   0.49976659    1.4462143    1.9659152   -1.7805071 
19000000   0.99987729 -9.6024047e-06   0.46759682  0.018871651            0   0.44872516    1.4923169    1.9599137    1.2961955 
19005000    1.0039401 4.9603925e-05   0.45555578  0.031585336            0   0.42397045    1.4983806    1.9539364    5.3825597 
19010000   0.93003704 -1.0048541e-05   0.56626818  0.033607688            0   0.53266049    1.3880803    1.9543485    1.2597933 
19015000   0.96209194 1.2937487e-06   0.52607834  0.028524421            0   0.49755392    1.4359222    1.9620006    2.0514245 
19020000    1.0063357 4.1862082e-05   0.44531425  0.034723243            0   0.41059101    1.5019561    1.9472703    4.8407774 
19025000   0.96205041 1.4350869e-05   0.51332217  0.039060572            0    0.4742616    1.4358602    1.9491824    2.9411145 
19030000   0.93465428 -2.0463438e-05   0.56146517  0.054729723            0   0.50673545    1.3949715    1.9564367   0.54200382 
19035000    1.0102798 8.7628591e-06   0.46998781 0.0088225276            0   0.46116529    1.5078427    1.9778305    2.5835193 
19040000    1.0068812 7.1141014e-06   0.46799564  0.010699307            0   0.45729633    1.5027702    1.9707659    2.4624925 
19045000    1.0310592 -2.7435199e-06    0.4249368 0.0054498874            0   0.41948691    1.5388558    1.9637926    1.7741605 
19050000    1.0099756 -3.3869162e-06   0.44587959  0.011352094            0    0.4345275    1.5073886    1.9532681    1.7191645 
19055000   0.96014322 2.7552354e-05   0.50228718  0.024058019            0   0.47822916    1.4330138    1.9353009    3.8397196 
19060000   0.96837612 5.8659967e-05    0.4863258 0.0066632891            0   0.47966252    1.4453014    1.9316272    5.9862041 
19065000    1.0031617 4.700669e-05   0.44688484 0.0048541358            0    0.4420307    1.4972188    1.9441036     5.193206 
19070000   0.97180162 2.0526256e-06   0.48717761 0.0043872447            0   0.48279037    1.4504139    1.9375915     2.079469 
19075000   0.95593136 1.1394845e-05    0.5081286  0.024747951            0   0.48338065    1.4267276    1.9348562    2.7224679 
19080000    1.0345708 -3.2891688e-06    0.4187828  0.015074885            0   0.40370791    1.5440969    1.9628797    1.7355324 
19085000   0.99018604 7.8973664e-06   0.49224473  0.014158314            0   0.47808641    1.4778527    1.9700974    2.5159634 
19090000   0.98076759 -2.2755627e-05   0.48440108  0.012133343            0   0.47226774    1.4637956    1.9481967   0.37532777 
19095000   0.99730667 -3.662364e-05   0.46912279   0.01620394            0   0.45291885    1.4884802     1.957603  -0.57382299 
19100000   0.96434787 -3.5368592e-06   0.51987015  0.026678859            0   0.49319129    1.4392892    1.9591593    1.7146916 
19105000   0.96118792 1.5864543e-05   0.51235954  0.012859288            0   0.49950025     1.434573    1.9469325    3.0434897 
19110000    1.0134858 2.1005194e-05   0.43629768  0.013915579            0    0.4223821    1.5126276    1.9489253    3.4008043 
19115000   0.97973488 4.7839159e-06   0.51023412  0.016806199            0   0.49342792    1.4622543    1.9724884    2.3031527 
19120000   0.95959635 -9.9089133e-06   0.51483837  0.013566442            0   0.50127192    1.4321976    1.9470359    1.2621318 
19125000   0.97265417 6.5166772e-07   0.49280711 0.0063244317            0   0.48648268    1.4516863    1.9444934    1.9895367 
19130000    0.9945181 1.569371e-05   0.45419637 0.0078596628            0   0.44633671    1.4843183    1.9385146    3.0232639 
19135000   0.97475964 3.1736654e-08   0.49274334  0.017631638            0   0.47511171    1.4548288    1.9475721    1.9497657 
19140000   0.98240033 1.6847561e-05   0.49449444   0.01228034            0    0.4822141    1.4662325    1.9607269    3.1252304 
19145000   0.98624741 -1.5713052e-06   0.49882876  0.018573787            0   0.48025498    1.4719743     1.970803    1.8621944 
19150000    1.0024158 -1.6133109e-05   0.49295435  0.023488419            0   0.46946593    1.4961056      1.98906   0.87393949 
19155000   0.98154098 -2.2088436e-05   0.49566744  0.018788278            0   0.47687916    1.4649499    1.9606174   0.43386469 
19160000   0.97807457 1.8024337e-05    0.4991683  0.006086955            0   0.49308134    1.4597763    1.9589446    3.2047868 
19165000    1.0388749 1.4827593e-05   0.39815723  0.016766988            0   0.38139024    1.5505208     1.948678    2.9735612 
19170000    0.9173604 -3.1051153e-05   0.59909446  0.030326801            0   0.56876766    1.3691604    1.9682549  -0.17800084 
19175000   0.96754414 5.5011923e-05   0.51457439  0.014512752            0   0.50006164    1.4440596     1.958634    5.7610581 
19180000   0.99639326 5.6920406e-05   0.46661415 0.0054098197            0   0.46120433    1.4871169    1.9537311    5.8880695 
19185000   0.97459738 2.6213527e-05   0.50094304  0.021174717            0   0.47976832    1.4545866    1.9555296    3.7674086 
19190000   0.93617538 2.7841694e-05   0.56290797  0.018131884            0   0.54477608    1.3972418    1.9601497    3.8845676 
19195000     1.010635 -8.3759238e-06   0.46707668  0.017400622            0   0.44967606    1.5083727    1.9754494    1.3965055 
19200000   0.99865345 1.268663e-05    0.4889715  0.011259869            0   0.47771163    1.4904903    1.9794618    2.8563616 
19205000    0.9554542 7.8141857e-06   0.54548346  0.014705485            0   0.53077797    1.4260154    1.9714989    2.5116154 
19210000   0.98400171 -4.2233345e-05   0.50729109  0.012301731            0   0.49498936    1.4686225    1.9759136  -0.94325516 
19215000    1.0067053 1.6454041e-05   0.47078804 0.0067138813            0   0.46407415    1.5025077    1.9732957     3.110599 
19220000   0.95388749 2.4301297e-05   0.53720593  0.017535258            0   0.51967067    1.4236771     1.960883    3.6405886 
19225000    1.0378025 -2.1848868e-05   0.41885419  0.024406144            0   0.39444805    1.5489203    1.9677745    0.4575807 
19230000    1.0114443 2.0077495e-05   0.47167308  0.022589856            0   0.44908322    1.5095806    1.9812537    3.3690102 
19235000   0.95546578 2.5988486e-05   0.55514174   0.03100605            0   0.52413569    1.4260327    1.9811744    3.7774986 
19240000    1.0065693 3.6069695e-05   0.47883313 0.0099546254            0    0.4688785    1.5023047    1.9811378    4.4742751 
19245000    1.0054521 -5.672933e-06   0.44399818  0.020245946            0   0.42375224    1.5006373    1.9446355    1.5525223 
19250000   0.97581917 -4.4672124e-05    0.4858389  0.025961395            0    0.4598775    1.4564101     1.942249   -1.1454882 
19255000   0.95029894 -7.4994189e-06   0.49012148   0.03246953            0   0.45765195    1.4183212    1.9084426    1.3900828 
19260000   0.93638889 8.5926882e-07   0.49971702  0.024637198            0   0.47507982    1.3975604    1.8972774    1.9566701 
19265000   0.90599351 1.2342304e-06   0.54842529  0.029337329            0   0.51908796    1.3521953    1.9006206    1.9859306 
19270000   0.94873057 -4.2008633e-05   0.48177687  0.022536759            0   0.45924011    1.4159804    1.8977572   -1.0058795 
19275000    0.9320452 -2.074114e-05   0.51613792 0.0092021521            0   0.50693576    1.3910775    1.9072154   0.47358782 
19280000   0.98668853 -2.2793042e-05   0.43568684  0.014629651            0   0.42105719    1.4726326    1.9083195    0.3328644 
19285000   0.97151675 -3.5559012e-05   0.45830259  0.014386742            0   0.44391585    1.4499887    1.9082913  -0.54954756 
19290000   0.93017847 4.5125619e-05   0.51568319  0.015162565            0   0.50052063    1.3882914    1.9039746    5.0230574 
19295000   0.93557884 6.1158383e-05   0.50220895  0.015710712            0   0.48649823    1.3963514    1.8985604    6.1258278 
19300000   0.93215155 1.5442298e-05   0.52967639  0.010183226            0   0.51949317    1.3912362    1.9209126    2.9882842 
19305000   0.97934354 -1.239255e-05   0.47431702 0.0089047361            0   0.46541228    1.4616702    1.9359873    1.0794142 
19310000   0.99557072 -5.7659886e-05   0.44990027 0.0026837092            0   0.44721656    1.4858893    1.9357896   -2.0496617 
19315000   0.91959796 -4.2939803e-05   0.55573874  0.013154294            0   0.54258445       1.3725    1.9282387   -1.0397605 
19320000   0.98009321 -9.7622269e-08   0.46205185 0.0080006066            0   0.45405124    1.4627891     1.924841    1.9180933 
19325000   0.96139389 1.8088648e-05   0.49719295  0.012644391            0   0.48454856    1.4348804    1.9320733    3.1823607 
19330000   0.98801835 2.1529538e-05   0.45511827  0.012547455            0   0.44257081    1.4746174    1.9297357    3.4178573 
19335000   0.96640311 1.7881983e-05   0.48445734  0.027452173            0   0.45700516    1.4423566     1.926814    3.1628166 
19340000   0.94060256 8.4088693e-06   0.52847758  0.031960655            0   0.49651692    1.4038493    1.9323269    2.5135479 
19345000    0.9790033 8.3665616e-06   0.48437453  0.015930757            0   0.46844377    1.4611624     1.945537    2.5238337 
19350000   0.99064326 -1.5176747e-05   0.46975644  0.016867889            0   0.45288855    1.4785351    1.9482915   0.89927476 
19355000   0.98196184 -1.0596038e-05   0.47267093  0.017630767            0   0.45504016     1.465578     1.938249    1.2058508 
19360000   0.99762318 1.5219259e-05   0.44253737  0.013686892            0   0.42885048    1.4889526      1.93149    2.9834451 
19365000   0.99937724 -5.0537619e-05   0.44941698   0.01250278            0    0.4369142    1.4915705    1.9409875   -1.5521727 
19370000    1.0320323 -2.4005436e-06   0.39494925  0.017983242            0   0.37696601    1.5403082    1.9352575    1.7693319 
19375000   0.97173971 4.561836e-05   0.47938519  0.014295914            0   0.46508928    1.4503215    1.9297067    5.0828478 
19380000   0.92959683 4.6252088e-05   0.54637459  0.013472992            0    0.5329016    1.3874233    1.9337979    5.1307422 
19385000    1.0145312 -3.9094607e-05   0.42718549 0.0084598387            0   0.41872565    1.5141878    1.9413733  -0.76084594 
19390000   0.97236778 6.1775214e-06   0.47420788 0.0012272008            0   0.47298068    1.4512589    1.9254668    2.3524571 
19395000   0.98889852 3.5835448e-05   0.43397935 0.0046558423            0   0.42932351     1.475931    1.9099104    4.3868565 
19400000   0.90415858 -1.6398779e-05    0.5434077  0.021344821            0   0.52206288    1.3494567    1.8928644   0.75938077 
19405000   0.92896102 -1.2517037e-05   0.49504642  0.051886933            0   0.44315948    1.3864743    1.8815207    1.0163431 
19410000   0.93547925 -2.1796764e-05    0.4982321  0.028471025            0   0.46976107    1.3962028    1.8944349   0.38784252 
19415000   0.94176521 -2.3551073e-05   0.50384877  0.016347781            0   0.48750099    1.4055846    1.9094334   0.28158317 
19420000    0.8941119 3.0753263e-05   0.55564575  0.019664883            0   0.53598087     1.334462    1.8901078    4.0157733 
19425000   0.96753669 7.0054901e-06   0.45438126  0.019464163            0   0.43491709    1.4440485    1.8984298    2.3826492 
19430000   0.94317925 6.4168742e-06   0.48179775  0.026079675            0   0.45571808     1.407695    1.8894928    2.3330271 
19435000   0.93868085 -2.6579507e-05   0.48879798  0.019491565            0   0.46930641    1.4009812    1.8897791  0.052603644 
19440000   0.95399051 -3.6473912e-05   0.48438474 0.0070715861            0   0.47731316    1.4238308    1.9082156  -0.61286119 
19445000   0.96935917 2.3434279e-05   0.47252706  0.013718507            0   0.45880856    1.4467686    1.9192956     3.539073 
19450000   0.96314629 3.0347627e-05   0.48608278  0.035738871            0   0.45034391    1.4374958    1.9235786    4.0212066 
19455000   0.93620847 2.6931025e-06   0.54146456  0.024831702            0   0.51663286    1.3972911    1.9387557    2.1249029 
19460000   0.94921621 -1.7392713e-07   0.53162902 0.0067471005            0   0.52488192    1.4167052    1.9483342    1.9363124 
19465000    1.0136302 -3.1354427e-05     0.426477  0.011754715            0   0.41472228    1.5128431    1.9393201   -0.2278979 
19470000   0.97917268 2.9895722e-05   0.47526612  0.016790991            0   0.45847513    1.4614152    1.9366813    4.0030737 
19475000    0.9625503 2.8958134e-05   0.49384379 0.0085945184            0   0.48524927    1.4366063    1.9304501    3.9320363 
19480000   0.97754238 4.3697093e-06   0.47613245  0.013453261            0   0.46267919     1.458982    1.9351145    2.2371488 
19485000   0.96441963 -2.7039255e-06    0.4970217  0.012580518            0   0.48444118    1.4393963     1.936418    1.7495227 
19490000   0.99159137 5.491213e-05   0.47409512  0.018359893            0   0.45573523    1.4799501    1.9540452    5.7495717 
19495000   0.99612703 2.8737054e-05   0.45288726  0.010355628            0   0.44253163    1.4867196    1.9396069     3.925912 
19500000    0.9951934 -1.0900484e-05    0.4618835   0.01373744            0   0.44814606    1.4853262    1.9472097    1.1937682 
19505000    1.0031859 -2.6690516e-05   0.43301156  0.006002894            0   0.42700867    1.4972549    1.9302665  0.085418023 
19510000   0.95062932 -3.3583624e-05   0.50307247 0.0030607752            0   0.50001169    1.4188143    1.9218867  -0.39941336 
19515000   0.97003517 -4.4825578e-05   0.43986308 0.0050031287            0   0.43485995    1.4477775    1.8876406   -1.2107034 
19520000   0.92716392 1.0639857e-05   0.50727821  0.012958606            0   0.49431961    1.3837922    1.8910704    2.6264973 
19525000   0.90375537 5.3967081e-05   0.51989815  0.037249501            0   0.48264865    1.3488549     1.868753    5.5989577 
19530000   0.93454813 1.3468591e-05   0.49093409  0.021685489            0    0.4692486    1.3948131    1.8857472    2.8166962 
19535000   0.94371525 -4.1630164e-05   0.48700881   0.01588874            0   0.47112007     1.408495    1.8955038  -0.98197309 
19540000   0.95105419 8.2505323e-06   0.46327696  0.017356155            0   0.44592081    1.4194484    1.8827253    2.4530021 
19545000   0.94672493 4.5722659e-06   0.47774432  0.007890461            0   0.46985386     1.412987    1.8907313    2.2067663 
19550000   0.96955713 -1.2871102e-05   0.46094474 0.0085890679            0   0.45235567     1.447064    1.9080088    1.0183582 
19555000   0.95527304 -6.4593804e-06   0.50611792  0.028149702            0   0.47796822     1.425745    1.9318629    1.4853906 
19560000   0.98390175 3.7466127e-05   0.45723491  0.026314364            0   0.43092054    1.4684734    1.9257083     4.515367 
19565000   0.95282509 5.475396e-05   0.50770563 0.0096604863            0   0.49804514    1.4220915    1.9297971    5.7143908 
19570000   0.97123115 -1.2299939e-05   0.47558869  0.022817009            0   0.45277169    1.4495625    1.9251512    1.0749794 
19575000   0.95167414 -3.7895874e-05   0.49996076  0.019075524            0   0.48088524    1.4203737    1.9203344  -0.69902841 
19580000    0.9948426 1.139308e-05   0.44286435  0.012463108            0   0.43040124    1.4848026    1.9276669    2.7151566 
19585000   0.95379085 2.2208453e-05   0.52235686  0.022412859            0     0.499944    1.4235328    1.9458897     3.480938 
19590000   0.97142317 -3.5363088e-05   0.48992256  0.021059322            0   0.46886323    1.4498491    1.9397716  -0.50452498 
19595000    0.9683058 -4.0852105e-05   0.50293568  0.025814672            0   0.47712101    1.4451964    1.9481321  -0.87556539 
19600000   0.97131475 3.7218399e-05   0.48450728   0.01585441            0   0.46865287    1.4496873    1.9341945    4.5067303 
19605000   0.98634745 2.1219529e-05   0.46878382  0.018075147            0   0.45070867    1.4721236    1.9409074    3.4076012 
19610000   0.98378888 -2.0369513e-05   0.47553851  0.055857609            0    0.4196809    1.4683049    1.9438434   0.53590271 
19615000   0.91332409 2.2106488e-06   0.58117629  0.044277206            0   0.53689909    1.3631362    1.9443125    2.0971125 
19620000   0.96187617 1.684133e-05   0.52759404  0.037115756            0   0.49047829    1.4356002    1.9631942     3.127267 
19625000   0.93833769 -1.7690535e-05   0.55493221  0.013314999            0   0.54161721     1.400469    1.9554012   0.73263142 
19630000   0.98578989 2.3727709e-06   0.46370304 0.0030075006            0   0.46069554    1.4712914    1.9349944    2.0990004 
19635000   0.95428655 1.2192903e-05   0.50004469 0.0052936086            0   0.49475108    1.4242727    1.9243174    2.7670908 
19640000   0.97759281 -3.4365202e-05   0.45279039 0.0064727446            0   0.44631765    1.4590573    1.9118477  -0.46347509 
19645000   0.97724691 -5.4594226e-05   0.46685654 0.0060392179            0   0.46081732     1.458541    1.9253976   -1.8481553 
19650000   0.93678421 -1.7173324e-05   0.49852311 0.0062304539            0   0.49229266    1.3981504    1.8966735   0.70965336 
19655000   0.94688478 -4.1021501e-06   0.46182449  0.025949653            0   0.43587484    1.4132255      1.87505    1.5915094 
19660000   0.87406756 -1.1157378e-05   0.57755854 0.0079818386            0    0.5695767    1.3045458    1.8821044    1.1109064 
19665000   0.93728157 2.433325e-06   0.49092952  0.011489933            0   0.47943959    1.3988927    1.8898223    2.0580137 
19670000   0.93785271 -7.0900354e-06   0.51762801  0.034629006            0   0.48299901    1.3997452    1.9173732    1.4273099 
19675000   0.94388261 -6.2839254e-05   0.50425196  0.026551099            0   0.47770086    1.4087448    1.9129967   -2.4304525 
19680000   0.98103101 3.8857864e-06   0.45087388  0.012858325            0   0.43801555    1.4641888    1.9150627    2.1836482 
19685000   0.91900657 5.263668e-05   0.54143067  0.020095462            0   0.52133521    1.3716173     1.913048    5.5512953 
19690000   0.98389843 5.5361922e-06   0.43353265   0.01018459            0   0.42334806    1.4684684    1.9020011    2.2846627 
19695000   0.96824907 1.2571039e-05   0.45648834 0.0079718955            0   0.44851644    1.4451117    1.9016001    2.7705103 
19700000   0.89283089 2.2282478e-05   0.56383248  0.025620685            0   0.53821179    1.3325501    1.8963826    3.4365475 
19705000   0.93208523 -5.0705588e-06   0.50416404   0.02080783            0   0.48335621    1.3911372    1.8953012    1.5448242 
19710000   0.98560654 -3.6085835e-05   0.41128812  0.016670172            0   0.39461795    1.4710178    1.8823059  -0.61194703 
19715000   0.92316502 -3.1981764e-05   0.48524978  0.012079326            0   0.47317046    1.3778238    1.8630736  -0.34750592 
19720000   0.90990914 6.3302089e-06     0.509929  0.011523424            0   0.49840557    1.3580394    1.8679684    2.3055124 
19725000   0.93427209 1.3737722e-05   0.48903866  0.013077884            0   0.47596078    1.3944011    1.8834398    2.8329911 
19730000    0.9465553 -2.8569986e-05   0.48417843  0.022195652            0   0.46198278    1.4127338    1.8969122  -0.07784522 
19735000   0.94332415 2.3096491e-05   0.46201206  0.039179313            0   0.42283274    1.4079113    1.8699233    3.4663528 
19740000   0.93057058 4.8270801e-06    0.4801498  0.024699592            0   0.45545021    1.3888766    1.8690264    2.2026742 
19745000    0.9572691 -8.1083908e-06   0.43445631  0.025096697            0   0.40935961    1.4287241    1.8631804    1.3027285 
19750000   0.92112667 5.091395e-05   0.48386531  0.016839566            0   0.46702574    1.3747816    1.8586469    5.3778191 
19755000   0.93214052 3.5282875e-05   0.47281648  0.015794078            0   0.45702241    1.3912197    1.8640362    4.3027885 
19760000   0.91980768 -1.8610056e-05   0.50126408 0.0088298945            0   0.49243418     1.372813     1.874077   0.58774993 
19765000   0.96713464 -3.7100236e-05   0.43965379 0.0053430849            0   0.43431071    1.4434484    1.8831022  -0.68126608 
19770000   0.92282695 4.567546e-05    0.5105133  0.010888078            0   0.49962522    1.3773192    1.8878325    5.0449204 
19775000   0.92898812 5.2711407e-05   0.48692311  0.015190417            0   0.47173269    1.3865148    1.8734379    5.5168503 
19780000   0.94043293 2.2043062e-05   0.45106821  0.013970637            0   0.43709757    1.4035961    1.8546644    3.3782808 
19785000   0.89272064 -1.554866e-05   0.52056297   0.01034171            0   0.51022126    1.3323856    1.8529485   0.77822515 
19790000   0.92875181 -3.7359838e-05   0.46547104  0.020100556            0   0.44537049    1.3861621    1.8516331  -0.73067887 
19795000   0.93135316 -9.6072259e-06   0.47679831  0.022734657            0   0.45406365    1.3900446    1.8668429    1.2027914 
19800000   0.93803972 1.4766862e-05   0.49368327  0.013099947            0   0.48058333    1.4000243    1.8937076     2.914393 
19805000   0.96057811 1.0919439e-05   0.46180854 0.0094852901            0   0.45232325    1.4336628    1.8954714     2.650223 
19810000   0.95790253 1.9701103e-05   0.47652439 0.0057423711            0   0.47078202    1.4296695    1.9061939    3.2679341 
19815000   0.99932163 1.9582333e-05   0.41606802  0.010193466            0   0.40587455    1.4914875    1.9075555    3.2610864 
19820000   0.95411401 -1.427844e-05   0.47576931  0.019466582            0   0.45630273    1.4240152    1.8997845   0.91285872 
19825000   0.95010616 5.2751093e-05   0.49611748  0.021002377            0    0.4751151    1.4180334    1.9141509    5.5603065 
19830000    1.0097195 5.6551666e-05    0.4423523   0.01726356            0   0.42508874    1.5070063    1.9493586    5.8582097 
19835000   0.94825899 -1.7422265e-05   0.53456355  0.021867197            0   0.51269635    1.4152765    1.9498401   0.74561314 
19840000   0.93250957 -3.5956932e-05   0.54295639  0.018976868            0   0.52397952    1.3917705    1.9347269  -0.55061626 
19845000     1.012885 1.0091616e-05    0.4442777  0.025580076            0   0.41869762    1.5117309    1.9560086     2.653541 
19850000    1.0124228 -4.0454452e-06   0.47111564 0.0085699305            0   0.46254571     1.511041    1.9821566    1.7025354 
19855000   0.99544449 -2.3803057e-05   0.48281635  0.011069552            0    0.4717468    1.4857009    1.9685172   0.32324997 
19860000   0.98526917 3.9794172e-05    0.4824386  0.015092482            0   0.46734611    1.4705142    1.9529528     4.703526 
19865000   0.97682782 4.7014938e-05   0.48774907  0.018463527            0   0.46928555    1.4579155    1.9456646    5.1953371 
19870000   0.93273338 7.2744351e-06   0.53190946   0.02740633            0   0.50450313    1.3921046     1.924014     2.426823 
19875000   0.99987474 1.7701544e-05   0.43361833  0.024135904            0   0.40948242     1.492313    1.9259314    3.1494621 
19880000    1.0147886 1.3395041e-05   0.41756274  0.011422325            0   0.40614042     1.514572    1.9321348        2.858 
19885000   0.97500905 -8.8501313e-06   0.47161177  0.023171763            0   0.44844001     1.455201    1.9268128    1.3150917 
19890000   0.96247534 -4.4746021e-05   0.49353393 0.0075086551            0   0.48602528    1.4364944    1.9300284   -1.1628166 
19895000    1.0054201 -1.7462872e-05   0.41869924  0.025979304            0   0.39271994    1.5005894    1.9192887   0.71225495 
19900000   0.95659529 1.3013633e-06   0.47889961  0.024331786            0   0.45456782    1.4277185    1.9066181    1.9965683 
19905000   0.91806397 1.2874954e-05   0.53988625  0.034662121            0   0.50522413    1.3702105    1.9100967    2.8000135 
19910000   0.93660219 5.5288514e-05   0.51191629  0.022226691            0    0.4896896    1.3978788    1.9097951    5.7313372 
19915000     0.966931 7.4264877e-05   0.46053957  0.021583566            0     0.438956    1.4431445    1.9036841    7.0368724 
19920000    0.9086695 5.0878486e-05   0.56930652  0.014182693            0   0.55512383    1.3561892    1.9254958    5.4422167 
19925000   0.95486093 2.517832e-05   0.49695929 0.0080448353            0   0.48891446    1.4251299    1.9220892    3.6624147 
19930000   0.95448006 -3.5168814e-05   0.50976913  0.015581706            0   0.49418742    1.4245615    1.9343306  -0.49653778 
19935000    0.9723904 5.4538623e-06   0.47372749  0.017563787            0    0.4561637    1.4512927    1.9250202    2.3019911 
19940000   0.94235366 6.5106396e-05   0.51044555  0.026139991            0   0.48430555    1.4064628    1.9169084    6.4170625 
19945000   0.97476437 6.2726921e-05   0.44672481  0.026874951            0   0.41984986    1.4548358    1.9015606    6.2372454 
19950000   0.93593706 1.5503094e-05    0.5223376  0.033125284            0   0.48921232    1.3968861    1.9192237    2.9907975 
19955000   0.94083113 -3.1200541e-05   0.50977875  0.037965002            0   0.47181375    1.4041905    1.9139692  -0.24261218 
19960000   0.90749612 -1.8543722e-05   0.56523097  0.020363175            0    0.5448678     1.354438    1.9196689   0.63792687 
19965000   0.94614028 -4.712107e-06   0.49892914  0.013646509            0   0.48528263    1.4121144    1.9110435    1.5853427 
19970000   0.97028791 -2.4532029e-05   0.44442936  0.015064391            0   0.42936497    1.4481547    1.8925841   0.19693022 
19975000   0.95115804 -2.7839019e-05   0.46220584  0.034374185            0   0.42783166    1.4196034    1.8818092 -0.042423802 
19980000   0.91670474 3.5111179e-06   0.51524723  0.018698175            0   0.49654906    1.3681818    1.8834291    2.1261175 
19985000    0.9254421 -1.4242211e-06   0.49600787  0.013870393            0   0.48213748    1.3812223    1.8772302     1.778788 
19990000   0.94085033 -1.7965951e-05   0.48228206   0.01297143            0   0.46931063    1.4042191    1.8865012   0.64469467 
19995000   0.97974922 1.3206731e-05   0.45137388 0.0085853853            0   0.44278849    1.4622757    1.9136496    2.8264988 
20000000   0.95977371 2.7901078e-05   0.50434939  0.020297757            0   0.48405163    1.4324623    1.9368117    3.8653342 
Loop time of 569.169 on 1 procs for 20000000 steps with 200 atoms

Performance: 30360.073 tau/day, 35138.973 timesteps/s
99.0% CPU use with 1 MPI tasks x no OpenMP threads

MPI task timing breakdown:
Section |  min time  |  avg time  |  max time  |%varavg| %total
---------------------------------------------------------------
Pair    | 19.341     | 19.341     | 19.341     |   0.0 |  3.40
Bond    | 60.351     | 60.351     | 60.351     |   0.0 | 10.60
Neigh   | 86.99      | 86.99      | 86.99      |   0.0 | 15.28
Comm    | 202.79     | 202.79     | 202.79     |   0.0 | 35.63
Output  | 1.0426     | 1.0426     | 1.0426     |   0.0 |  0.18
Modify  | 185.53     | 185.53     | 185.53     |   0.0 | 32.60
Other   |            | 13.13      |            |       |  2.31

Nlocal:        200.000 ave         200 max         200 min
Histogram: 1 0 0 0 0 0 0 0 0 0
Nghost:        0.00000 ave           0 max           0 min
Histogram: 1 0 0 0 0 0 0 0 0 0
Neighs:        69.0000 ave          69 max          69 min
Histogram: 1 0 0 0 0 0 0 0 0 0

Total # of neighbors = 69
Ave neighs/atom = 0.345
Ave special neighs/atom = 5.9400000
Neighbor list builds = 4317
Dangerous builds = 0
write_restart restart.equil
System init for write_restart ...
WARNING: Communication cutoff 1.4200000000000002 is shorter than a bond length based estimate of 1.8. This may lead to errors. (../comm.cpp:667)
#--------------End of Input file ------------------
Total wall time: 0:09:29
