LAMMPS (29 Oct 2020)
###################### polyelectrolyte complexation ######################
clear

#Initialization
#------------------------------------
units				lj
dimension			3
atom_style			full
boundary			p p p

#Atom Definition
#-------------------------------------
read_data			data.complexation
Reading data file ...
  orthogonal box = (-120.00000 -120.00000 -120.00000) to (120.00000 120.00000 120.00000)
  1 by 1 by 1 MPI processor grid
  reading atoms ...
  200 atoms
  scanning bonds ...
  1 = max bonds/atom
  reading bonds ...
  199 bonds
Finding 1-2 1-3 1-4 neighbors ...
  special bond factors lj:    0.0      0.0      0.0     
  special bond factors coul:  0.0      0.0      0.0     
     2 = max # of 1-2 neighbors
     2 = max # of 1-3 neighbors
     4 = max # of 1-4 neighbors
     6 = max # of special neighbors
  special bonds CPU = 0.000 seconds
  read_data CPU = 0.003 seconds

#Force definition
#----------------------------------------------
#Bond definition
bond_style			harmonic
bond_coeff			1 5000 1
#Pair definition
special_bonds	lj 0 1 1
Finding 1-2 1-3 1-4 neighbors ...
  special bond factors lj:    0.0      1.0      1.0     
  special bond factors coul:  0.0      0.0      0.0     
     2 = max # of 1-2 neighbors
     2 = max # of 1-3 neighbors
     4 = max # of 1-4 neighbors
     6 = max # of special neighbors
  special bonds CPU = 0.000 seconds
pair_style		 lj/cut 1.12
pair_modify 		 shift yes
pair_coeff	1 1 1 1 1.12

#Timestep etc
#--------------------------------------------
timestep		1e-05
run_style		verlet
velocity		all	create	1	11

#Fix
#---------------------------------------
group polymers type 1
200 atoms in group polymers
fix 1 all nve
fix 2 all langevin 1	1	10	11
fix 3 polymers recenter INIT INIT INIT units box

#Dump
#------------------------------------------------
compute  1 all gyration
variable  myRg2 equal c_1
variable  i equal step
fix  mythermofile all print 5000 "$i ${myRg2}" file radius_of_gyration.dat screen no

thermo_style		 custom step temp press pe evdwl ecoul ebond ke etotal enthalpy
thermo 	5000
dump	3 all custom 5000 dump.lammpstrj id mol type xu yu zu
run		20000000
Neighbor list info ...
  update every 1 steps, delay 10 steps, check yes
  max neighbors/atom: 2000, page size: 100000
  master list distance cutoff = 1.42
  ghost atom cutoff = 1.42
  binsize = 0.71, bins = 339 339 339
  1 neighbor lists, perpetual/occasional/extra = 1 0 0
  (1) pair lj/cut, perpetual
      attributes: half, newton on
      pair build: half/bin/newton
      stencil: half/bin/3d/newton
      bin: standard
WARNING: Communication cutoff 1.4200000000000002 is shorter than a bond length based estimate of 1.8. This may lead to errors. (../comm.cpp:667)
Per MPI rank memory allocation (min/avg/max) = 165.7 | 165.7 | 165.7 Mbytes
Step Temp Press PotEng E_vdwl E_coul E_bond KinEng TotEng Enthalpy 
       0            1 1.4395255e-05            0            0            0            0       1.4925       1.4925       2.4875 
    5000   0.82928379 -0.0002155544   0.25972419            0            0   0.25972419    1.2377061    1.4974302    -13.40169 
   10000   0.43239638 -0.00053755703   0.84954134            0            0   0.84954134    0.6453516    1.4948929   -35.661049 
   15000   0.69251227 -0.00029360564   0.47267414            0            0   0.47267414    1.0335746    1.5062487   -18.787773 
   20000    0.7534559 -0.00018731174   0.37199201            0            0   0.37199201    1.1245329    1.4965249   -11.450463 
   25000   0.55652267 -0.00041638036   0.65951717            0            0   0.65951717   0.83061009    1.4901273   -27.290083 
   30000   0.60467992 -0.00038950946   0.59553297            0            0   0.59553297   0.90248478    1.4980178   -25.424876 
   35000   0.78125854 -0.00016360716   0.34937782            0            0   0.34937782    1.1660284    1.5154062   -9.7931208 
   40000   0.66086558 -0.00025790878   0.54784813            0            0   0.54784813   0.98634188      1.53419   -16.292465 
   45000   0.61079044 -0.00035595886   0.62218105            0            0   0.62218105   0.91160473    1.5337858    -23.07009 
   50000   0.70955934 -0.0002659303   0.48073716            0            0   0.48073716    1.0590173    1.5397545   -16.841348 
   55000   0.73479246 -0.0002376806   0.45483337            0            0   0.45483337    1.0966777    1.5515111   -14.876972 
   60000    0.6686501 -0.00022898415   0.56786492            0            0   0.56786492   0.99796027    1.5658252   -14.261559 
   65000   0.77757005 -0.00019718461   0.39056005            0            0   0.39056005    1.1605233    1.5510833   -12.078317 
   70000    0.7410408 -0.00022212032   0.45330099            0            0   0.45330099    1.1060034    1.5593044   -13.793652 
   75000   0.72344133 -0.00020248923   0.49975275            0            0   0.49975275    1.0797362    1.5794889   -12.416566 
   80000   0.77421168 -0.00014281164   0.42812574            0            0   0.42812574    1.1555109    1.5836367   -8.2875038 
   85000   0.77484364 -0.00021684273   0.41301854            0            0   0.41301854    1.1564541    1.5694727   -13.418697 
   90000   0.74128511 -0.00023528736   0.49088005            0            0   0.49088005     1.106368    1.5972481   -14.665814 
   95000   0.78755851 -0.00015169502    0.4189939            0            0    0.4189939    1.1754311     1.594425   -8.8907351 
  100000   0.84503355 -0.0001027305   0.33074952            0            0   0.33074952    1.2612126    1.5919621   -5.5087701 
  105000   0.83058042 -0.00017413316   0.36742011            0            0   0.36742011    1.2396413    1.6070614   -10.429023 
  110000   0.80497296 -0.00013384789    0.4108135            0            0    0.4108135    1.2014221    1.6122356   -7.6393303 
  115000   0.84016458 -5.8319533e-05   0.35692323            0            0   0.35692323    1.2539456    1.6108689   -2.4201772 
  120000   0.84004584 -0.00013155824   0.34954005            0            0   0.34954005    1.2537684    1.6033085   -7.4899974 
  125000   0.82834647 -0.00019048415   0.36423262            0            0   0.36423262    1.2363071    1.6005397   -11.565725 
  130000   0.82896027 -5.433445e-05   0.37193303            0            0   0.37193303    1.2372232    1.6091562   -2.1464409 
  135000   0.86545436 -3.289458e-05   0.32818306 9.2009788e-05            0   0.32809105    1.2916906    1.6198737  -0.65379969 
  140000   0.80346278 -0.00013255112   0.41089447 0.00033439591            0   0.41056007    1.1991682    1.6100627   -7.5518709 
  145000   0.82002427 -8.4361727e-05   0.39547589 0.00019304142            0   0.39528285    1.2238862    1.6193621   -4.2117205 
  150000   0.85521176 -4.0467964e-05   0.34662269 2.1729089e-05            0   0.34660096    1.2764036    1.6230263   -1.1741194 
  155000    0.8576244 -7.2328392e-05   0.35310636            0            0   0.35310636    1.2800044    1.6331108   -3.3662277 
  160000   0.88045786 -4.1570574e-05   0.33207351            0            0   0.33207351    1.3140834    1.6461569   -1.2272012 
  165000   0.84837754 -3.1356265e-05   0.38473713            0            0   0.38473713    1.2662035    1.6509406  -0.51640442 
  170000   0.87032824 -7.1070883e-05   0.35898367            0            0   0.35898367    1.2989649    1.6579486   -3.2544708 
  175000   0.87963534 -2.5272802e-05   0.33736135            0            0   0.33736135    1.3128557    1.6502171 -0.096639011 
  180000   0.86771865 -1.957786e-05   0.34460715            0            0   0.34460715    1.2950701    1.6396772   0.28645558 
  185000   0.87263586 -1.7488977e-05   0.35520578            0            0   0.35520578     1.302409    1.6576148    0.4487767 
  190000   0.88188155 -7.8291178e-05   0.34666981            0            0   0.34666981    1.3162082     1.662878   -3.7486082 
  195000   0.91961342 -6.2800037e-05   0.30331718            0            0   0.30331718     1.372523    1.6758402   -2.6648983 
  200000   0.92105358 -3.8546705e-05   0.30477528            0            0   0.30477528    1.3746725    1.6794478  -0.98490048 
  205000   0.92124668 -9.7909096e-06   0.31510187            0            0   0.31510187    1.3749607    1.6900625    1.0133149 
  210000   0.90865847 -3.4215569e-05   0.32694592            0            0   0.32694592    1.3561728    1.6831187  -0.68186143 
  215000   0.91813415 -8.9398016e-05   0.31445883            0            0   0.31445883    1.3703152    1.6847741   -4.4944168 
  220000   0.94481009 1.3055687e-05   0.28156905 2.8298349e-05            0   0.28154075    1.4101291    1.6916981    2.5941072 
  225000   0.91542981 3.3771088e-05   0.33711844 0.00032945425            0   0.33678899     1.366279    1.7033974     4.037655 
  230000   0.88452911 -8.6998518e-05   0.37150768 0.00061382338            0   0.37089385    1.3201597    1.6916674   -4.3216702 
  235000   0.92221313 -6.0517792e-05   0.32448965 0.00029608923            0   0.32419356    1.3764031    1.7008927    -2.482097 
  240000   0.95583409 5.5905211e-05   0.27470666 3.1610321e-05            0   0.27467505    1.4265824     1.701289    5.5654572 
  245000   0.92357617 -7.3289127e-06   0.31106969            0            0   0.31106969    1.3784374    1.6895071    1.1829327 
  250000   0.88084212 -6.5837563e-05   0.35729445            0            0   0.35729445    1.3146569    1.6719513    -2.878741 
  255000   0.91658368 1.8188259e-06   0.31192057            0            0   0.31192057    1.3680011    1.6799217     1.805639 
  260000   0.91074968 5.955301e-06   0.32322648            0            0   0.32322648    1.3592939    1.6825204    2.0941508 
  265000   0.89147569 -6.7331235e-05   0.34970111            0            0   0.34970111    1.3305275    1.6802286   -2.9737064 
  270000   0.89284748 -3.5655203e-05   0.33707758            0            0   0.33707758    1.3325749    1.6696524  -0.79483519 
  275000   0.88138704 5.7784633e-05   0.34020771            0            0   0.34020771    1.3154702    1.6556779    5.6497517 
  280000     0.901034 -4.7139068e-05   0.31805622            0            0   0.31805622    1.3447932    1.6628495   -1.5954029 
  285000   0.88263771 -6.6365154e-05    0.3524304            0            0    0.3524304    1.3173368    1.6697672   -2.9173923 
  290000   0.92349071 2.4385435e-05   0.28714574            0            0   0.28714574    1.3783099    1.6654556    3.3509769 
  295000   0.87037323 -4.7827746e-05   0.35064777            0            0   0.35064777     1.299032    1.6496798    -1.656174 
  300000   0.89429336 -1.9653555e-06   0.31133442            0            0   0.31133442    1.3347328    1.6460673    1.5102219 
  305000   0.87931776 -1.1594017e-06   0.34452958            0            0   0.34452958    1.3123818    1.6569113    1.5767735 
  310000   0.88535617 -1.3883955e-05    0.3482676            0            0    0.3482676    1.3213941    1.6696617   0.71000268 
  315000   0.88201883 -2.1563014e-05   0.35534933            0            0   0.35534933    1.3164131    1.6717624    0.1813269 
  320000   0.86493716 9.6547823e-06   0.36287835            0            0   0.36287835    1.2909187    1.6537971    2.3211356 
  325000   0.88692131 -1.9087982e-05   0.33437212            0            0   0.33437212    1.3237301    1.6581022   0.33874083 
  330000   0.86290916 -5.7511852e-05   0.37558422            0            0   0.37558422    1.2878919    1.6634761   -2.3117431 
  335000   0.88153651 2.6949117e-05   0.36415171            0            0   0.36415171    1.3156932     1.679845    3.5425679 
  340000   0.87628912 -1.9373857e-05   0.37753111            0            0   0.37753111    1.3078615    1.6853926   0.34627163 
  345000   0.88628896 -5.694594e-05   0.38363538            0            0   0.38363538    1.3227863    1.7064217   -2.2296817 
  350000   0.89828878 1.0890569e-05   0.36257016            0            0   0.36257016     1.340696    1.7032662    2.4560223 
  355000   0.89697243 6.3512793e-06   0.36587207            0            0   0.36587207    1.3387314    1.7046034    2.1436039 
  360000   0.86194202 1.1410867e-05   0.40598041            0            0   0.40598041    1.2864485    1.6924289     2.481148 
  365000   0.84088965 -6.2887189e-05   0.44307582            0            0   0.44307582    1.2550278    1.6981036   -2.6486589 
  370000   0.87567385 1.852174e-05   0.39518719            0            0   0.39518719    1.3069432    1.7021304    2.9823531 
  375000     0.882316 2.4837655e-05   0.37701404            0            0   0.37701404    1.3168566    1.6938707    3.4106494 
  380000   0.84874133 -9.532605e-05   0.43020177            0            0   0.43020177    1.2667464    1.6969482   -4.8919884 
  385000      0.90078 4.8768302e-05   0.37048898            0            0   0.37048898    1.3444142    1.7149031    5.0857681 
  390000   0.93032406 -2.5655574e-05   0.35170319            0            0   0.35170319    1.3885087    1.7402119 -0.033101412 
  395000   0.92865762 -1.1140908e-05   0.34958999            0            0   0.34958999    1.3860215    1.7356115   0.96555194 
  400000   0.91860008 -2.9031901e-05   0.35217616            0            0   0.35217616    1.3710106    1.7231868  -0.28349824 
  405000    0.9332061 -4.1416646e-05   0.32905187            0            0   0.32905187    1.3928101     1.721862   -1.1408566 
  410000   0.91006665 8.9145345e-05   0.35984426            0            0   0.35984426    1.3582745    1.7181187     7.879845 
  415000   0.88663948 -0.00012248204   0.38687222            0            0   0.38687222    1.3233094    1.7101816   -6.7557772 
  420000    0.8974676 -2.2420492e-06   0.35757002            0            0   0.35757002    1.3394704    1.6970404      1.54207 
  425000     0.884159 3.225305e-05   0.38547623            0            0   0.38547623    1.3196073    1.7050835    3.9344144 
  430000   0.89733091 -2.7575041e-05   0.36810946            0            0   0.36810946    1.3392664    1.7073758  -0.19861098 
  435000   0.90846271 -4.3452093e-05   0.34788104            0            0   0.34788104    1.3558806    1.7037616    -1.299647 
  440000    0.8850441 3.3701825e-05   0.38866252            0            0   0.38866252    1.3209283    1.7095908     4.039061 
  445000    0.9040772 4.092356e-06   0.35325728            0            0   0.35325728    1.3493352    1.7025925    1.9854561 
  450000   0.87669836 -9.5033422e-05   0.39118101            0            0   0.39118101    1.3084723    1.6996533   -4.8690568 
  455000   0.89872329 5.1706391e-05   0.37622004            0            0   0.37622004    1.3413445    1.7175645    5.2915103 
  460000   0.90319176 7.2224216e-06   0.37485922 2.8022389e-05            0    0.3748312    1.3480137    1.7228729    2.2220867 
  465000   0.89856133 -3.4478119e-05   0.38066774 0.00066273633            0     0.380005    1.3411028    1.7217705   -0.6613571 
  470000   0.91547642 2.0661741e-05   0.34625574 0.0021328862            0   0.34412285    1.3663486    1.7126043    3.1407438 
  475000   0.87040722 -1.2466555e-05   0.40292386 0.00075064232            0   0.40217322    1.2990828    1.7020066   0.84031835 
  480000   0.87491723 -1.6105266e-05   0.39325974 5.1776811e-06            0   0.39325456     1.305814    1.6990737   0.58587775 
  485000   0.86524264 -2.0284365e-05   0.40845761            0            0   0.40845761    1.2913746    1.6998323   0.29777694 
  490000   0.85218865 -2.5208203e-05   0.43184721            0            0   0.43184721    1.2718916    1.7037388 -0.038652219 
  495000   0.90979497 2.0296251e-05   0.34617269            0            0   0.34617269     1.357869    1.7040417    3.1069185 
  500000   0.88053675 -4.0169346e-05   0.39118804            0            0   0.39118804    1.3142011    1.7053891   -1.0711161 
  505000   0.91086809 3.4058545e-06   0.35395898            0            0   0.35395898    1.3594706    1.7134296    1.9488423 
  510000   0.88416793 1.5543932e-05   0.40905322            0            0   0.40905322    1.3196206    1.7286739    2.8030704 
  515000   0.90143594 -1.7028335e-05    0.3947072            0            0    0.3947072    1.3453931    1.7401003   0.56310185 
  520000   0.88725209 -4.4958552e-05   0.42577981            0            0   0.42577981    1.3242237    1.7500036   -1.3575316 
  525000   0.90068187 3.8735015e-05   0.40831769            0            0   0.40831769    1.3442677    1.7525854    4.4299496 
  530000   0.91060539 -3.7284638e-05   0.39927126 4.0554739e-05            0    0.3992307    1.3590785    1.7583498  -0.81876439 
  535000   0.92490803 9.9002963e-06   0.39375038 0.00020472076            0   0.39354566    1.3804252    1.7741756    2.4584841 
  540000   0.90167293 -1.7690658e-05     0.426574 8.6399293e-05            0    0.4264876    1.3457468    1.7723208   0.54954253 
  545000   0.90461497 -3.7934426e-06    0.4136896 3.5303373e-06            0   0.41368607    1.3501378    1.7638274    1.5016247 
  550000    0.8949345 -3.8476281e-05   0.42635148            0            0   0.42635148    1.3356897    1.7620412  -0.89743934 
  555000   0.95233266 -2.3164587e-05   0.35718884            0            0   0.35718884    1.4213565    1.7785453   0.17740908 
  560000   0.94238601 1.7153131e-05   0.38009508            0            0   0.38009508    1.4065111    1.7866062    2.9722306 
  565000   0.91641565 1.8175363e-05   0.40804999 0.00059050992            0   0.40745948    1.3677504    1.7758003    3.0320814 
  570000   0.91001933 -2.4498799e-05   0.41699833 0.0016595818            0   0.41533875    1.3582038    1.7752022  0.081845194 
  575000   0.88976302 3.3103922e-06   0.46252962 0.00069330218            0   0.46183632    1.3279713    1.7905009    2.0193152 
  580000   0.93143801 6.3797361e-06   0.41271161            0            0   0.41271161    1.3901712    1.8028828    2.2438502 
  585000   0.93680004 -5.2443675e-05   0.40666016            0            0   0.40666016    1.3981741    1.8048342   -1.8200726 
  590000   0.91358287 3.941163e-05   0.42746257            0            0   0.42746257    1.3635224     1.790985    4.5151169 
  595000    0.9523397 -2.821561e-05   0.38297758            0            0   0.38297758     1.421367    1.8043446   -0.1459184 
  600000   0.92659727 -3.0690492e-05   0.42744666            0            0   0.42744666    1.3829464    1.8103931  -0.31093373 
  605000   0.94925903 7.5474965e-05   0.39940457            0            0   0.39940457    1.4167691    1.8161737    7.0330032 
  610000   0.93566801 -4.2310588e-05    0.4201646            0            0    0.4201646    1.3964845    1.8166491   -1.1078587 
  615000   0.95664886 -5.0918051e-05   0.38683703            0            0   0.38683703    1.4277984    1.8146355   -1.7048202 
  620000   0.93170356 5.7860761e-05    0.4248217            0            0    0.4248217    1.3905676    1.8153893     5.814725 
  625000   0.92513037 -4.6172233e-05   0.43205422            0            0   0.43205422    1.3807571    1.8128113   -1.3786135 
  630000   0.92468971 2.1358745e-05    0.4236591            0            0    0.4236591    1.3800994    1.8037585     3.280075 
  635000   0.92099288 5.6329996e-05   0.43015762 8.357341e-06            0   0.43014927    1.3745819    1.8047395    5.6982688 
  640000    0.9487247 -5.3110562e-05   0.39762778 0.00043046775            0   0.39719732    1.4159716    1.8135994   -1.8574026 
  645000   0.98131181 -7.9078046e-06   0.35620267 0.00043639413            0   0.35576628    1.4646079    1.8208105    1.2742231 
  650000   0.94488179 -4.4189206e-07   0.42433615 9.0413485e-05            0   0.42424574    1.4102361    1.8345722    1.8040286 
  655000   0.93474985 -7.6631162e-06   0.44116459 5.3973404e-05            0   0.44111061    1.3951141    1.8362787    1.3066041 
  660000   0.96246264 -6.1542463e-05   0.42342014 0.0012272105            0   0.42219293    1.4364755    1.8598956   -2.3939194 
  665000   0.94032859 -3.2835725e-06   0.44008646 0.0031308994            0   0.43695556    1.4034404    1.8435269    1.6165663 
  670000     0.938356 -6.8934607e-06   0.43705561  0.001926775            0   0.43512883    1.4004963    1.8375519    1.3610759 
  675000   0.92781898 -4.9530908e-05   0.46117466 0.00015236364            0    0.4610223    1.3847698    1.8459445   -1.5776319 
  680000   0.90814268 8.656016e-05   0.47988355            0            0   0.47988355    1.3554029    1.8352865    7.8183248 
  685000   0.89497309 -7.1304952e-05   0.51005315            0            0   0.51005315    1.3357473    1.8458005   -3.0827978 
  690000   0.92612143 3.7433244e-05   0.45665432            0            0   0.45665432    1.3822362    1.8388906    4.4262764 
  695000   0.98853517 1.7247615e-05   0.37914969 0.00023502479            0   0.37891467    1.4753887    1.8545384    3.0466936 
  700000   0.95902607 -4.5639299e-05   0.44583846 0.00063207459            0   0.44520639    1.4313464    1.8771849   -1.2774035 
  705000   0.95801815 -1.1081723e-05   0.43808767 0.00046236951            0    0.4376253    1.4298421    1.8679298    1.1019611 
  710000   0.97580142 3.5247683e-05   0.40431126 0.0014044035            0   0.40290685    1.4563836    1.8606949    4.2970147 
  715000   0.96596966 -1.580355e-05   0.40298264 0.0026608193            0   0.40032182    1.4417097    1.8446924   0.75235101 
  720000   0.92948499 -5.5235966e-05    0.4466948  0.001055556            0   0.44563924    1.3872564    1.8339512   -1.9839588 
  725000    0.9557374 4.7598301e-05   0.41814892 1.3531372e-05            0   0.41813538    1.4264381     1.844587    5.1345816 
  730000   0.93136226 -5.5186481e-05   0.46034937            0            0   0.46034937    1.3900582    1.8504075   -1.9640821 
  735000   0.96807902 3.9875744e-05   0.42527105            0            0   0.42527105    1.4448579     1.870129    4.6263404 
  740000   0.95117662 -4.943437e-05   0.44547061 0.00099059782            0   0.44448001    1.4196311    1.8651017   -1.5518019 
  745000   0.96005015 5.3848903e-05   0.43967453 0.0037792262            0    0.4358953    1.4328748    1.8725494    5.5945856 
  750000   0.96651569 -3.3799426e-05   0.42292573 0.00088687467            0   0.42203886    1.4425247    1.8654504  -0.47076591 
  755000   0.95990969 3.8599934e-05   0.43938321            0            0   0.43938321    1.4326652    1.8720484    4.5400759 
  760000   0.95584116 6.5952032e-06   0.44214382 0.0004967519            0   0.44164706    1.4265929    1.8687367    2.3245972 
  765000   0.98514192 5.9801408e-05   0.41868377 0.0051363712            0    0.4135474    1.4703243    1.8890081    6.0224814 
  770000   0.96654365 -9.1675858e-07   0.45549122 0.0027541119            0   0.45273711    1.4425664    1.8980576    1.8346913 
  775000   0.96982798 -2.9111918e-05   0.45606616 3.0382721e-05            0   0.45603578    1.4474683    1.9035344  -0.10868138 
  780000   0.95043654 7.9738637e-06   0.47919789 9.0919034e-05            0   0.47910698    1.4185265    1.8977244    2.4488779 
  785000   0.95993184 -3.1308868e-06   0.47440053 0.00016538128            0   0.47423515    1.4326983    1.9070988    1.6906919 
  790000   0.95944335 -2.8282073e-05   0.45198363 0.00020881443            0   0.45177482    1.4319692    1.8839528  -0.07090406 
  795000   0.95726432 -1.5258121e-05   0.47071712 0.00024601773            0    0.4704711     1.428717    1.8994341   0.84479279 
  800000   0.99318285 1.6745068e-05   0.40455598 0.00012667236            0   0.40442931    1.4823254    1.8868814    3.0443005 
  805000   0.96389538 -7.0988067e-05   0.43626035 1.1967158e-05            0   0.43624839    1.4386138    1.8748742    -3.031821 
  810000   0.98123715 3.7409941e-05   0.40946232            0            0   0.40946232    1.4644964    1.8739588    4.4597339 
  815000   0.98130391 -7.2454849e-05   0.39709724            0            0   0.39709724    1.4645961    1.8616933   -3.1463859 
  820000   0.98572965 2.6827238e-05   0.39382497 0.00016047987            0   0.39366449    1.4712015    1.8650265    3.7193251 
  825000   0.95349555 5.560075e-06   0.45774324 0.00079437487            0   0.45694886    1.4230921    1.8808353    2.2651477 
  830000   0.96929422 -8.6444259e-06   0.42460818 0.0023715545            0   0.42223662    1.4466716    1.8712798    1.2737771 
  835000   0.94506739 1.9812106e-05    0.4697141 0.0061810411            0   0.46353306    1.4105131    1.8802272      3.24964 
  840000   0.96405787 -5.4807786e-05   0.45496033 0.0018845042            0   0.45307583    1.4388564    1.8938167   -1.8944974 
  845000   0.94765834 2.8657847e-06   0.48094581            0            0   0.48094581    1.4143801    1.8953259    2.0934089 
  850000   0.92776059 -1.0525461e-05   0.51197744  0.000436883            0   0.51154056    1.3846827    1.8966601    1.1691402 
  855000   0.90600291 -6.3633322e-06   0.53192449 0.0029768125            0   0.52894767    1.3522093    1.8841338    1.4443003 
  860000   0.98837991 5.0900891e-06    0.4358286 0.0044652619            0   0.43136333     1.475157    1.9109856    2.2628126 
  865000   0.97132777 -5.6044289e-06   0.46815271   0.00143153            0   0.46672118    1.4497067    1.9178594    1.5304813 
  870000   0.98437469 -5.6887999e-05   0.43650259            0            0   0.43650259    1.4691792    1.9056818   -2.0264167 
  875000    0.9869808 5.932675e-05   0.43775679            0            0   0.43775679    1.4730688    1.9108256    6.0114906 
  880000    1.0035356 -5.7764086e-05   0.41966676            0            0   0.41966676    1.4977769    1.9174437     -2.07521 
  885000   0.94186352 -1.9664912e-05   0.53558825            0            0   0.53558825    1.4057313    1.9413195   0.58208086 
  890000   0.99396751 9.8056684e-06   0.43524412            0            0   0.43524412    1.4834965    1.9187406    2.5965084 
  895000   0.97250217 -6.3626278e-06   0.46621558 0.00048088047            0    0.4657347    1.4514595    1.9176751    1.4778902 
  900000   0.98537716 -9.5463981e-05   0.46563675 0.0015711871            0   0.46406556    1.4706754    1.9363122   -4.6621582 
  905000   0.96922598 8.6873551e-05   0.46747153 0.00088170576            0   0.46658983    1.4465698    1.9140413    7.9187412 
  910000   0.95540894 -8.1968411e-05   0.48964623 0.00086800565            0   0.48877822    1.4259478    1.9155941   -3.7500625 
  915000   0.97235858 4.9091468e-05    0.4572965 0.0027624998            0     0.454534    1.4512452    1.9085417     5.301744 
  920000   0.95520214 -2.6625276e-05   0.47238806  0.001386301            0   0.47100176    1.4256392    1.8980272  0.057688179 
  925000   0.97955773 -2.4617796e-05   0.44259626 0.0012209889            0   0.44137528    1.4619899    1.9045862   0.20300411 
  930000    1.0001966 2.0256999e-05   0.44872546  0.012197704            0   0.43652776    1.4927935    1.9415189    3.3416827 
  935000   0.96278787 -3.8483115e-05   0.50922926  0.010622196            0   0.49860707    1.4369609    1.9461902  -0.71376274 
  940000    1.0061344 2.0360228e-05   0.43460027 0.00058298538            0   0.43401729    1.5016557    1.9362559    3.3435549 
  945000   0.98759502 -4.5564117e-05   0.45863204            0            0   0.45863204    1.4739856    1.9326176   -1.2167741 
  950000   0.97892457 1.6736558e-05   0.46581337            0            0   0.46581337    1.4610449    1.9268583    3.0836892 
  955000    1.0289501 -3.3646591e-05   0.42490098 0.00011900273            0   0.42478198    1.5357081     1.960609  -0.36504334 
  960000    1.0130571 -1.5151106e-07   0.44696524 0.00078182888            0   0.44618341    1.5119877     1.958953    1.9484805 
  965000    1.0468336 -2.5331312e-05   0.40274546 0.0040019326            0   0.39874353    1.5623992    1.9651446   0.21424434 
  970000    1.0376489 7.8505349e-07   0.43358066 0.0079628782            0   0.42561778     1.548691    1.9822716    2.0365345 
  975000    1.0222026 -3.0875201e-05   0.45862161 0.0050482911            0   0.45357332    1.5256373    1.9842589  -0.14983494 
  980000    1.0544817 -1.0917129e-05   0.41806836 0.0019891651            0   0.41607919    1.5738139    1.9918822    1.2372903 
  985000    1.0539566 1.0916824e-05    0.4189265 0.00019113386            0   0.41873536    1.5730302    1.9919567    2.7465277 
  990000    1.0095924 3.2804055e-05   0.48421695 0.0016243007            0   0.48259265    1.5068166    1.9910336    4.2584499 
  995000   0.97459706 -2.0083706e-05   0.53678938 0.0025729529            0   0.53421643    1.4545861    1.9913755   0.60318974 
 1000000    1.0275937 -4.6855963e-05   0.46591889 0.0062857839            0   0.45963311    1.5336836    1.9996025   -1.2390816 
 1005000     1.029523 4.7184365e-05    0.4661906 0.0070241465            0   0.45916646    1.5365631    2.0027537    5.2641371 
 1010000     1.013202 -4.2825517e-06   0.48138163 0.0037799154            0   0.47760172    1.5122039    1.9935856    1.6975756 
 1015000    1.0100741 -5.9060694e-06   0.47260816 0.0070065714            0   0.46560159    1.5075356    1.9801438    1.5719162 
 1020000   0.99285554 1.5651427e-05   0.49036285 0.0054970999            0   0.48486575    1.4818369    1.9721997    3.0540263 
 1025000    1.0295255 6.2044448e-05   0.41678528  0.008677071            0    0.4081082    1.5365667     1.953352    6.2418643 
 1030000   0.99880766 -1.8793053e-05   0.48666371 0.0068836707            0   0.47978003    1.4907204    1.9773841   0.67840831 
 1035000    1.0352755  7.58582e-05   0.42863719 0.00023917361            0   0.42839802    1.5451488    1.9737859    7.2171047 
 1040000    1.0161834 -2.3394267e-05   0.45472742 2.1895326e-05            0   0.45470552    1.5166537    1.9713811   0.35436939 
 1045000   0.98448173 -6.9876263e-05   0.51807926 0.00029526155            0     0.517784     1.469339    1.9874182    -2.842429 
 1050000    1.0016498 -8.0692215e-05   0.48438607 0.00055743676            0   0.48382863    1.4949623    1.9793483   -3.5980976 
 1055000   0.99576833 3.7731048e-05    0.4867386 0.0014565199            0   0.48528208    1.4861842    1.9729228    4.5808929 
 1060000    1.0045356 -4.8096285e-07   0.46883994 0.0037379904            0   0.46510195    1.4992694    1.9681094    1.9348652 
 1065000   0.98891272 -7.208059e-05   0.48299009  0.005774111            0   0.47721598    1.4759522    1.9589423    -3.023268 
 1070000   0.99734254 5.9042389e-05   0.46890895 0.0077301848            0   0.46117876    1.4885337    1.9574427    6.0384526 
 1075000   0.99197112 -2.7336844e-05   0.48691489  0.003326531            0   0.48358836    1.4805169    1.9674318  0.077909146 
 1080000    1.0064402 -6.159501e-05   0.46044082 0.00080253116            0   0.45963829    1.5021119    1.9625528   -2.2948944 
 1085000   0.99035128 -8.122033e-06   0.49077259 0.00016023704            0   0.49061235    1.4780993    1.9688719     1.407477 
 1090000    1.0052603 1.5204586e-05    0.4701592            0            0    0.4701592     1.500351    1.9705102    3.0214512 
 1095000   0.98033263 -8.0118395e-05   0.50354127            0            0   0.50354127    1.4631464    1.9666877   -3.5710957 
 1100000   0.98598987 2.9168964e-05    0.5013721 5.2164315e-06            0   0.50136689    1.4715899     1.972962    3.9891208 
 1105000   0.99066897 3.372475e-06   0.49756783 0.00063485399            0   0.49693297    1.4785734    1.9761413    2.2092467 
 1110000   0.99283632 -5.4388589e-06   0.48952879 0.0023239078            0   0.48720488    1.4818082     1.971337    1.5954031 
 1115000    1.0276589 -5.547392e-06   0.42613259 0.0021892517            0   0.42394334     1.533781    1.9599136    1.5764778 
 1120000   0.96069237 2.7968442e-05   0.49492883 0.00082289342            0   0.49410593    1.4338334    1.9287622    3.8619409 
 1125000    0.9793907 3.7811649e-07   0.45329713 0.00019987695            0   0.45309725    1.4617406    1.9150377    1.9411732 
 1130000   0.94293453 -1.0914102e-05   0.50411519 0.0012189437            0   0.50289625    1.4073298     1.911445    1.1570622 
 1135000   0.97824694 -2.9309013e-07   0.45492499 0.0035410674            0   0.45138393    1.4600336    1.9149586    1.8947002 
 1140000   0.97437278 -5.7387055e-05   0.46458668 0.0056754198            0   0.45891126    1.4542514    1.9188381   -2.0477552 
 1145000   0.97783949  7.92688e-05   0.46776244 0.00061185295            0   0.46715058    1.4594254    1.9271879    7.4062473 
 1150000   0.97170495 -3.844363e-05   0.50026512            0            0   0.50026512    1.4502696    1.9505348  -0.70668899 
 1155000   0.99177586 2.8099076e-05   0.46332837            0            0   0.46332837    1.4802255    1.9435538     3.885762 
 1160000   0.98388091 -4.467297e-05   0.45517886 0.00028469747            0   0.45489416    1.4684423    1.9236211   -1.1641746 
 1165000   0.97846871 3.4492176e-05   0.46813842 0.00087273323            0   0.46726568    1.4603645     1.928503    4.3126022 
 1170000   0.94121025 -6.7562219e-05   0.51723023 0.00068097549            0   0.51654926    1.4047563    1.9219865   -2.7479141 
 1175000   0.93836568 4.4624208e-06   0.51525925 0.0023376543            0    0.5129216    1.4005108      1.91577    2.2242125 
 1180000   0.99722691 -3.0224927e-05   0.44415326 0.0046448034            0   0.43950846    1.4883612    1.9325144  -0.15663253 
 1185000   0.98197089 2.1962436e-06   0.48144453 0.0054121463            0   0.47603238    1.4655916    1.9470361    2.0988404 
 1190000    1.0031097 -2.8406336e-05   0.44949582 0.0038398232            0     0.445656    1.4971412     1.946637 -0.016808924 
 1195000   0.95110338 -2.9178441e-05   0.53038751  0.001503194            0   0.52888432    1.4195218    1.9499093 -0.066904518 
 1200000   0.96060048 -6.9473804e-05    0.4895203 0.0011962446            0   0.48832406    1.4336962    1.9232165   -2.8788128 
 1205000   0.96572109 1.8084385e-05   0.49168949 0.0012881395            0   0.49040135    1.4413387    1.9330282    3.1830209 
 1210000   0.95333572 -3.010698e-05   0.48485431 0.00089868467            0   0.48395562    1.4228536    1.9077079  -0.17328659 
 1215000   0.93673587 -2.9538155e-06   0.48262332 0.00073998588            0   0.48188333    1.3980783    1.8807016    1.6765339 
 1220000   0.94733304 -2.4220767e-06   0.48206276 0.0024765173            0   0.47958624    1.4138946    1.8959573    1.7285434 
 1225000   0.98008658 6.4803808e-05   0.45063879 0.0096311439            0   0.44100765    1.4627792     1.913418    6.3926572 
 1230000   0.97576009 -2.2524668e-05   0.48089063 0.0082502699            0   0.47264036    1.4563219    1.9372126   0.38030749 
 1235000   0.92953894 2.4978432e-05   0.52161197 0.0022855599            0   0.51932641    1.3873369    1.9089488    3.6354581 
 1240000   0.92837839 3.0535342e-05   0.51503946  0.005651861            0    0.5093876    1.3856047    1.9006442     4.011247 
 1245000   0.94768997 -4.0191205e-05   0.47413063 0.0036255398            0   0.47050509    1.4144273    1.8885579  -0.88945815 
 1250000   0.93734414 -1.0410603e-05   0.48048926 0.0029861975            0   0.47750306    1.3989861    1.8794754    1.1598945 
 1255000   0.92829111 -8.5405383e-06   0.48087805 0.0084876817            0   0.47239037    1.3854745    1.8663525    1.2760305 
 1260000   0.97382036 1.893559e-05   0.42644534 0.0021582296            0   0.42428711    1.4534269    1.8798722    3.1887002 
 1265000   0.94560981 5.7470038e-06   0.46498623  0.001231898            0   0.46375433    1.4113226    1.8763089    2.2735418 
 1270000   0.92258091 -3.9928231e-05   0.49326484 0.00043357107            0   0.49283127     1.376952    1.8702169  -0.88962249 
 1275000   0.96653307 4.722534e-06   0.41836412 0.0001017409            0   0.41826238    1.4425506    1.8609147    2.1873363 
 1280000   0.95341436 -2.1562739e-05   0.42182303 0.00061059421            0   0.42121243    1.4229709     1.844794   0.35437745 
 1285000   0.92724658 8.0885002e-05   0.44283691 0.0092009191            0   0.43363599    1.3839155    1.8267524    7.4175238 
 1290000    0.9616926 -2.426139e-05   0.40446663  0.019550407            0   0.38491622    1.4353262    1.8397928   0.16284556 
 1295000   0.92298442 -1.1248717e-06   0.45305013 0.0098192538            0   0.44323088    1.3775542    1.8306044    1.7528532 
 1300000   0.93020678 -4.846502e-05   0.44033391 0.00068581018            0    0.4396481    1.3883336    1.8286675   -1.5212346 
 1305000   0.90947475 2.5044472e-05   0.48000282 0.00077242617            0    0.4792304    1.3573911    1.8373939    3.5684678 
 1310000   0.94889938 -2.8142084e-05    0.4284925 0.0028903773            0   0.42560212    1.4162323    1.8447248    -0.100456 
 1315000   0.92361884 -1.6978561e-05   0.46487031 0.0050386545            0   0.45983165    1.3785011    1.8433714   0.66981325 
 1320000   0.92552851 5.1662478e-06   0.46292885 0.0014426646            0   0.46148619    1.3813513    1.8442802    2.2013712 
 1325000   0.91662678 -1.7400009e-05   0.45824775  0.001268751            0     0.456979    1.3680655    1.8263132   0.62362457 
 1330000   0.89764751 2.2514315e-05   0.47797099  0.008447305            0   0.46952369    1.3397389    1.8177099    3.3738994 
 1335000   0.91745592 -3.8831369e-05    0.4370895 0.0047550944            0   0.43233441     1.369303    1.8063925   -0.8776318 
 1340000   0.92685658 2.772894e-05   0.41592778 0.00093319548            0   0.41499458    1.3833334    1.7992612    3.7158856 
 1345000   0.85499272 -1.8114366e-05   0.51819221  0.010907324            0   0.50728489    1.2760766    1.7942688   0.54220386 
 1350000   0.87648498 3.657433e-05   0.48364492 0.0070638119            0   0.47658111    1.3081538    1.7917987    4.3198164 
 1355000   0.86884384 -1.4409338e-05   0.49230814 0.0032596983            0   0.48904844    1.2967494    1.7890576   0.79308413 
 1360000   0.95436525 -2.900321e-06    0.3708732 0.0044519167            0   0.36642128    1.4243901    1.7952633    1.5947932 
 1365000   0.90447023 -2.1407344e-05    0.4438541 0.0011425272            0   0.44271158    1.3499218    1.7937759   0.31410032 
 1370000   0.86675285 1.2781912e-05   0.48832848 0.00082535948            0   0.48750312    1.2936286    1.7819571    2.6654428 
 1375000   0.84076918 -1.2401075e-06   0.53107711 0.0045876354            0   0.52648947     1.254848    1.7859251    1.7002089 
 1380000   0.94616743 -1.3066046e-06   0.38752835 0.0065991426            0   0.38092921    1.4121549    1.7996832    1.7093707 
 1385000   0.91583127 -1.236229e-05   0.46191815 0.0036364477            0    0.4582817    1.3668782    1.8287963   0.97431482 
 1390000   0.95086559 -9.6505147e-07   0.41766501 0.0014134057            0   0.41625161    1.4191669    1.8368319    1.7701275 
 1395000   0.94264431 -3.0492353e-05   0.43474737 0.0020719253            0   0.43267544    1.4068966     1.841644  -0.26598746 
 1400000   0.94141958 2.5004325e-05   0.45846513 0.0044961618            0   0.45396897    1.4050687    1.8635339    3.5918328 
 1405000   0.99191575 2.9953952e-05   0.39520712 0.0040898344            0   0.39111729    1.4804343    1.8756414    3.9460585 
 1410000   0.96367515 -2.0175581e-07    0.4610113 0.00063274701            0   0.46037855    1.4382852    1.8992965    1.8853511 
 1415000   0.97959827 -3.9407062e-05   0.44513291 0.00040133905            0   0.44473157    1.4620504    1.9071833  -0.81663281 
 1420000   0.98943594 2.5397061e-05   0.42499309 0.00037877676            0   0.42461431    1.4767331    1.9017262    3.6571711 
 1425000   0.98358405 -3.3220157e-06   0.43783089 0.00061252966            0   0.43721836    1.4679992    1.9058301    1.6762124 
 1430000   0.96112377 -1.3556076e-05   0.47051159 0.00073555038            0   0.46977604    1.4344772    1.9049888   0.96799285 
 1435000   0.97298136 -3.3165427e-06   0.46863476 0.0043228721            0   0.46431189    1.4521747    1.9208094      1.69157 
 1440000   0.99303783 2.2853263e-05   0.43583044 0.0046423487            0   0.43118809     1.482109    1.9179394    3.4975569 
 1445000    0.9668335 3.7193319e-05   0.47721247 0.0021296937            0   0.47508278     1.442999    1.9202115    4.4910136 
 1450000   0.99713621 -2.680821e-05   0.43321354 0.0034142627            0   0.42979928    1.4882258    1.9214393  0.068455892 
 1455000   0.99880618 -2.9587206e-05   0.43562355 0.0018096499            0    0.4338139    1.4907182    1.9263418  -0.11872593 
 1460000   0.98406267 -1.7189988e-05    0.4417983 0.0009888209            0   0.44080948    1.4687135    1.9105118   0.72233984 
 1465000   0.95755236 -2.1072691e-05   0.50699858 0.0040517697            0   0.50294681    1.4291469    1.9361455   0.47960107 
 1470000    1.0198844 1.3276544e-05   0.41350375 0.0071053475            0    0.4063984    1.5221775    1.9356813     2.853356 
 1475000   0.97715479 -3.1711894e-05    0.5020274 0.0020038847            0   0.50002352    1.4584035    1.9604309  -0.23149522 
 1480000   0.98147243 2.516834e-05   0.49814071   0.00113797            0   0.49700274    1.4648476    1.9629883     3.702624 
 1485000   0.94685249 -1.9062801e-06   0.54868749 0.0008420167            0   0.54784547    1.4131773    1.9618648    1.8301027 
 1490000    1.0357646 6.3972277e-06   0.41299872 0.00080894262            0   0.41218978    1.5458787    1.9588775    2.4010538 
 1495000     1.001165 -3.4856496e-05   0.47664335 0.00050962764            0   0.47613372    1.4942387    1.9708821  -0.43839893 
 1500000   0.99212383 -2.2232254e-06   0.50426074 0.00016062085            0   0.50410012    1.4807448    1.9850056    1.8313362 
 1505000   0.99876941 -5.5869553e-05   0.48239583 0.0028445605            0   0.47955127    1.4906633    1.9730592   -1.8886443 
 1510000   0.96735587 -2.1580116e-05   0.53645445 0.0063522794            0   0.53010217    1.4437786    1.9802331   0.48861549 
 1515000    1.0483785 -1.8513346e-05   0.42897177 0.0056763827            0   0.42329539    1.5647049    1.9936767   0.71403421 
 1520000    1.0568013 9.4870676e-06   0.42501709 0.0030731152            0   0.42194397    1.5772759     2.002293    2.6580391 
 1525000    1.0419705 -5.0845251e-05   0.44628613 0.0063357778            0   0.43995035     1.555141    2.0014271   -1.5129966 
 1530000    1.0592335 2.9015058e-05   0.41675492  0.011159023            0   0.40559589     1.580906     1.997661    4.0031817 
 1535000    1.0482936 1.8130112e-05   0.41995901  0.011304216            0   0.40865479    1.5645782    1.9845372    3.2376905 
 1540000    1.0328638 6.268242e-05   0.44846732 0.0037996955            0   0.44466762    1.5415492    1.9900165    6.3226254 
 1545000    1.0834224 2.1651149e-05   0.37313937 0.0010639039            0   0.37207547    1.6170079    1.9901473    3.4866747 
 1550000    1.0400239 -1.1248181e-06   0.43798137 0.0010321839            0   0.43694919    1.5522356     1.990217    1.9124695 
 1555000    1.0290238 -4.3547361e-05   0.45225013 0.0090305238            0   0.44321961    1.5358181    1.9880682   -1.0219254 
 1560000   0.98341514 4.2465313e-05    0.5157022 0.0068315763            0   0.50887062    1.4677471    1.9834493    4.9186517 
 1565000     1.004289 -3.4598342e-06    0.4775603 0.0087261813            0   0.46883412    1.4989014    1.9764617    1.7373179 
 1570000    1.0213419 -1.2142561e-05   0.46408052 0.0046708573            0   0.45940967    1.5243528    1.9884333    1.1491395 
 1575000    1.0833196 1.4902672e-05   0.39160281   0.01269949            0   0.37890332    1.6168545    2.0084573      3.03853 
 1580000    1.0498153 -2.0878805e-05   0.43171348 0.0079870078            0   0.42372648    1.5668494    1.9985629   0.55541988 
 1585000    1.0219968 2.8180106e-05   0.47825125 0.0032184591            0   0.47503279    1.5253303    2.0035815    3.9513904 
 1590000   0.99717353 -3.9760304e-05   0.50639918  0.014447381            0    0.4919518    1.4882815    1.9946807  -0.75355153 
 1595000    1.0129864 -3.5562523e-05   0.48301237 0.0072265029            0   0.47578587    1.5118823    1.9948946  -0.46318697 
 1600000    1.0240213 2.3470517e-05   0.46311128 0.0042737064            0   0.45883757    1.5283518     1.991463    3.6137452 
 1605000    1.0191152 6.8445143e-07   0.48291996  0.011695031            0   0.47122493    1.5210295    2.0039494    2.0512587 
 1610000    1.0399583 2.8420036e-05   0.47956783  0.012866271            0   0.46670156    1.5521378    2.0317056    3.9960985 
 1615000    1.0255811 2.8512421e-05    0.5090903 0.0063105876            0   0.50277972    1.5306798    2.0397701    4.0105486 
 1620000    1.0512832 -4.1749274e-05   0.48700857  0.016951404            0   0.47005716    1.5690401    2.0560487  -0.82966112 
 1625000    1.0598548 -3.5393939e-05   0.47975164  0.021542814            0   0.45820883    1.5818332    2.0615849   -0.3848442 
 1630000     1.060257 -4.9026781e-05   0.49989529  0.011953934            0   0.48794136    1.5824336    2.0823289   -1.3064022 
 1635000     1.026334 -2.5728859e-06   0.55086659  0.015153843            0   0.53571275    1.5318035    2.0826701    1.9048322 
 1640000     1.063623 -4.4518275e-06   0.48093237  0.013181914            0   0.46775046    1.5874574    2.0683897    1.7606794 
 1645000    1.0616792 -1.0302343e-05   0.47772136   0.01090631            0   0.46681505    1.5845562    2.0622776    1.3501796 
 1650000    1.0499649 2.2686243e-06   0.49247852 0.00087694819            0   0.49160158    1.5670726    2.0595511    2.2163585 
 1655000    1.0796074 -4.0717502e-05   0.44548679 3.1895772e-05            0    0.4454549     1.611314    2.0568008  -0.75759296 
 1660000    1.0960324 3.6298591e-05   0.41139648 0.00047909867            0   0.41091738    1.6358283    2.0472248    4.5561834 
 1665000     1.110982 8.549248e-06   0.40389605 0.00063295084            0    0.4032631    1.6581406    2.0620366    2.6529607 
 1670000    1.0614039 -3.928164e-05   0.46504891 0.0013581953            0   0.46369071    1.5841453    2.0491942  -0.66595273 
 1675000    1.0619081   4.2005e-05   0.47674779 0.0035911666            0   0.47315663    1.5848978    2.0616456    4.9650312 
 1680000    1.0536081 -4.6525234e-05   0.49075747  0.010811495            0   0.47994598    1.5725101    2.0632675   -1.1525566 
 1685000    1.0593354 1.2415465e-05   0.49314798 0.0035199309            0   0.48962805    1.5810581    2.0742061    2.9323631 
 1690000    1.0436722 -3.272314e-05    0.5021674  0.013561342            0   0.48860605    1.5576808    2.0598482  -0.20197521 
 1695000    1.0452719 -1.9231798e-05   0.50807101  0.011767918            0   0.49630309    1.5600682    2.0681393   0.73883738 
 1700000    1.0694072 4.4904981e-05   0.45622963 0.0038160158            0   0.45241361    1.5960903    2.0523199    5.1561522 
 1705000    1.0598996 1.6590095e-05    0.4815952 0.0016629389            0   0.47993226    1.5819002    2.0634954    3.2102028 
 1710000    1.0996059 3.3932094e-05   0.42623304 0.0016351758            0   0.42459786    1.6411618    2.0673948    4.4127812 
 1715000    1.0643076 -2.096636e-05   0.49010031 0.00072904046            0   0.48937127    1.5884791    2.0785794   0.62938461 
 1720000     1.097911 -2.3582719e-06   0.44189914 0.0043450251            0   0.43755412    1.6386321    2.0805313    1.9175275 
 1725000    1.0964983 -8.1166836e-05   0.45994534 0.0048216237            0   0.45512371    1.6365237     2.096469   -3.5137827 
 1730000    1.0891671 2.7640518e-05    0.4666693 0.0028483431            0   0.46382096    1.6255819    2.0922512    4.0027638 
 1735000    1.0927262 -7.1883913e-05   0.43976848 0.0069501649            0   0.43281831    1.6308939    2.0706623   -2.8979537 
 1740000    1.0386175 7.5614089e-07   0.52250371 0.0024742613            0   0.52002945    1.5501366    2.0726403    2.1249047 
 1745000    1.0744083 -2.5833453e-05    0.4802153 0.0044167748            0   0.47579853    1.6035543    2.0837696   0.29816138 
 1750000     1.111692 -5.2241735e-07   0.43155561  0.015110087            0   0.41644552    1.6592003    2.0907559    2.0546464 
 1755000    1.0495741 3.6677264e-05   0.53526664  0.014327606            0   0.52093903    1.5664893     2.101756    4.6368885 
 1760000     1.074496 -1.6835013e-05   0.51144808  0.014241977            0    0.4972061    1.6036853    2.1151334   0.95149729 
 1765000    1.0646664 -8.7967338e-05   0.50545331  0.017145519            0   0.48830779    1.5890146    2.0944679   -3.9858345 
 1770000    1.0583208 -1.9904665e-05   0.49946402 0.0059334804            0   0.49353054    1.5795438    2.0790078   0.70319732 
 1775000    1.0519412 1.7023712e-05   0.49288551 0.0094405362            0   0.48344497    1.5700223    2.0629078    3.2395867 
 1780000     1.067559 3.2323958e-05   0.46336638  0.010998367            0   0.45236802    1.5933318    2.0566982    4.2909302 
 1785000    1.0250735 1.6796198e-05   0.51622928  0.011121335            0   0.50510794    1.5299222    2.0461514    3.2071046 
 1790000    1.1067287 -2.6350545e-05   0.41750505 0.0021525328            0   0.41535252    1.6517926    2.0692976   0.24794797 
 1795000    1.0518537 -3.7457029e-05   0.49039133 0.00077732198            0   0.48961401    1.5698917     2.060283   -0.5287468 
 1800000    1.0066577 -6.1093862e-05   0.53765895 0.00049938735            0   0.53715956    1.5024366    2.0400956   -2.1827122 
 1805000    1.0519354 2.7371274e-05   0.48227596 0.0098185046            0   0.47245746    1.5700136    2.0522896     3.944192 
 1810000    1.0538442 4.9529992e-06   0.46660906 0.0080820905            0   0.45852697    1.5728625    2.0394716    2.3818229 
 1815000    1.0480765 -4.8593022e-05   0.47251821 0.0062429106            0    0.4662753    1.5642542    2.0367724   -1.3219772 
 1820000     1.064497 4.4529258e-05   0.44761999  0.016398981            0   0.43122101    1.5887618    2.0363818    5.1142441 
 1825000    1.0153551 2.7892678e-05   0.51784402  0.016415454            0   0.50142857    1.5154175    2.0332615    3.9612034 
 1830000    1.0315485 -3.8479705e-05   0.49670515 0.0054487217            0   0.49125643    1.5395861    2.0362913  -0.62342593 
 1835000    1.0635451 -1.511728e-05   0.46547957  0.013698151            0   0.45178142     1.587341    2.0528206    1.0079142 
 1840000    1.0407921 3.2302128e-06   0.48745367 0.0054363798            0   0.48201729    1.5533822    2.0408359    2.2641082 
 1845000    1.0448493 5.5514815e-05     0.492956 0.0034547851            0   0.48950121    1.5594375    2.0523935    5.8895775 
 1850000    1.0859592 -8.3883393e-05   0.42372131 0.0091529909            0   0.41456832    1.6207941    2.0445154   -3.7535047 
 1855000    1.0216336 1.2430836e-05   0.50538087  0.052222342            0   0.45315852    1.5247882    2.0301691    2.8893884 
 1860000    1.0926906 2.864548e-05   0.38830067  0.015165159            0   0.37313551    1.6308407    2.0191414    3.9991169 
 1865000    1.0595123 3.855452e-05   0.46851737  0.014422283            0   0.45409509     1.581322    2.0498394    4.7147278 
 1870000    1.0723627 -3.8322797e-05   0.43457021  0.011156307            0    0.4234139    1.6005013    2.0350715  -0.61380026 
 1875000     1.074879 -1.4857043e-05   0.43312643  0.020309562            0   0.41281687    1.6042568    2.0373833    1.0104645 
 1880000    1.0315887 -1.299534e-05   0.49650882 0.0042692218            0   0.49223959    1.5396461    2.0361549    1.1379171 
 1885000    1.0549541 -1.7674673e-05   0.46854642 0.0043193277            0   0.46422709    1.5745191    2.0430655   0.82139207 
 1890000    1.0972894 -1.2654531e-05   0.40694706 0.0033972858            0   0.40354977    1.6377045    2.0446515    1.1699703 
 1895000    1.0445715 9.5963852e-06   0.48603285 0.00030568662            0   0.48572716     1.559023    2.0450559     2.708358 
 1900000    1.0837395 1.7107599e-05   0.42572245 0.0045511152            0   0.42117134    1.6174813    2.0432037    3.2256809 
 1905000    1.0684612 2.8893401e-05   0.43898813  0.021038871            0   0.41794926    1.5946783    2.0336664    4.0307783 
 1910000    1.0454428 1.0356998e-05   0.46499601 0.0058842871            0   0.45911173    1.5603233    2.0253193     2.741195 
 1915000    1.0247454 -1.9922007e-05   0.48984789  0.009979761            0   0.47986812    1.5294325    2.0192804   0.64227131 
 1920000    1.0344848 -3.2560315e-05   0.48954723  0.012683156            0   0.47686407    1.5439686    2.0335158   -0.2170531 
 1925000    1.0119041 -2.2439719e-05   0.52701816 0.0091895862            0   0.51782858    1.5102669    2.0372851   0.48625175 
 1930000    1.0514506 -3.8609905e-05   0.47861264 0.0041312558            0   0.47448139      1.56929    2.0479027  -0.62081394 
 1935000     1.061115 -2.3149149e-05   0.46273204 0.00062753081            0   0.46210451    1.5837141    2.0464461   0.44637696 
 1940000    1.0646338 1.684139e-05   0.47112926  0.001073546            0   0.47005571    1.5889659    2.0600952    3.2241721 
 1945000    1.0715387 -4.7323014e-05    0.4735924 0.0026057939            0   0.47098661    1.5992716     2.072864   -1.1981028 
 1950000    1.0974237 5.0578505e-06   0.42638345 0.0035668809            0   0.42281656    1.6379049    2.0642884     2.413887 
 1955000     1.050296 2.386488e-05   0.49712055 0.0040296513            0    0.4930909    1.5675667    2.0646873    3.7142277 
 1960000    1.0762911 4.0171501e-06   0.46955896 0.0036995173            0   0.46585944    1.6063644    2.0759234    2.3535888 
 1965000    1.0919434 8.4097453e-06   0.45504725  0.010501032            0   0.44454622    1.6297255    2.0847728    2.6660544 
 1970000    1.0845891 -2.3740599e-05   0.46782727  0.010793383            0   0.45703388    1.6187493    2.0865766   0.44562638 
 1975000    1.0636825 -2.3843404e-05   0.48653568 0.0029545248            0   0.48358115    1.5875461    2.0740817   0.42602566 
 1980000    1.0839492 3.738274e-05   0.46435743  0.001262394            0   0.46309503    1.6177942    2.0821517    4.6660466 
 1985000    1.1192351 -2.0080333e-06   0.43224803 0.0057091052            0   0.42653893    1.6704583    2.1027064    1.9639111 
 1990000    1.1070088 -6.6910223e-06   0.45424018 0.0073792239            0   0.44686096    1.6522106    2.1064508    1.6439674 
 1995000    1.1259116 8.8920877e-06   0.45027179 0.0024526383            0   0.44781915    1.6804231    2.1306949     2.745316 
 2000000     1.099189 4.1129972e-05   0.50574914 0.0009686136            0   0.50478052    1.6405396    2.1462887    4.9891924 
 2005000    1.1257648 -1.4036863e-05   0.45893658 0.0029371326            0   0.45599945    1.6802039    2.1391405    1.1689125 
 2010000    1.0888027 1.7016454e-05   0.51165048 0.0073382571            0   0.50431222    1.6250381    2.1366885    3.3128658 
 2015000    1.0771298 3.2930088e-05   0.52340777  0.023741424            0   0.49966634    1.6076162     2.131024    4.4071517 
 2020000    1.0856793 1.4309236e-05   0.50586157 0.0035626441            0   0.50229892    1.6203764     2.126238    3.1152924 
 2025000    1.1150784 -6.9632652e-06   0.46435163 0.0032593551            0   0.46109228    1.6642546    2.1286062    1.6473053 
 2030000    1.1082771 -1.6854269e-05   0.46191468 0.00068205192            0   0.46123263    1.6541035    2.1160182   0.95105113 
 2035000    1.1187912 -2.3411401e-05   0.46015934 0.00012930723            0   0.46003003    1.6697958    2.1299552   0.51175915 
 2040000    1.0789371 -2.6601962e-05   0.54270514  0.001039658            0   0.54166548    1.6103136    2.1530187    0.3142911 
 2045000    1.0892206 -1.7000156e-05   0.52509747 0.0014180206            0   0.52367945    1.6256617    2.1507592   0.97570839 
 2050000    1.1237565 5.2270695e-06   0.47535405 0.0012037603            0   0.47415029    1.6772066    2.1525607    2.5138557 
 2055000    1.0945984 1.1068622e-05    0.5312205 0.0096742661            0   0.52154624     1.633688    2.1649086    2.9299717 
 2060000    1.1032258 -2.3448171e-05   0.51509835  0.010292032            0   0.50480632    1.6465645    2.1616629   0.54092529 
 2065000     1.107351 -5.3065935e-05   0.52450535 0.0061805348            0   0.51832482    1.6527213    2.1772266   -1.4906908 
 2070000    1.1618661 6.4136561e-05   0.45259457  0.010758389            0   0.44183619    1.7340852    2.1866798    6.6197989 
 2075000    1.1098609 4.7511796e-05   0.53075477 0.0069484686            0    0.5238063    1.6564675    2.1872222    5.4712376 
 2080000    1.1353305 -3.5633299e-05   0.49703564 0.0019075143            0   0.49512813    1.6944808    2.1915164  -0.27145718 
 2085000    1.1340577 -5.186294e-05   0.49823373 0.0007223164            0   0.49751141    1.6925811    2.1908149   -1.3939516 
 2090000    1.1361986 4.5151259e-05   0.46039997 0.0036387527            0   0.45676122    1.6957764    2.1561764    5.2770314 
 2095000    1.0617218 3.4329795e-05   0.58234676  0.014655007            0   0.56769175    1.5846198    2.1669666     4.539842 
 2100000    1.1196725 7.2068793e-05   0.46559245  0.012590504            0   0.45300195    1.6711112    2.1367037    7.1180986 
 2105000    1.1161712 -6.7365656e-05   0.47775257 0.0062779724            0    0.4714746    1.6658854     2.143638   -2.5126762 
 2110000    1.0978727 -2.7771064e-05   0.48494417 0.0095935468            0   0.47535063    1.6385751    2.1235192   0.20398333 
 2115000    1.0611346 -1.2446198e-05   0.54071474 0.0060387561            0   0.53467599    1.5837434    2.1244581     1.264177 
 2120000    1.0511811 2.3533968e-05    0.5604551  0.000868384            0   0.55958672    1.5688877    2.1293428    3.7560107 
 2125000    1.1059127 -5.5078405e-05   0.47644924 0.0060456624            0   0.47040358    1.6505747     2.127024   -1.6799954 
 2130000    1.0998913 -6.4511343e-06   0.47820393  0.008880625            0    0.4693233    1.6415878    2.1197917    1.6738893 
 2135000    1.0445247 -1.1006464e-05    0.5456283 0.0040040606            0   0.54162423    1.5589531    2.1045814    1.3438146 
 2140000    1.0792004 6.3663697e-05   0.50175905 0.0055963779            0   0.49616267    1.6107066    2.1124657    6.5129004 
 2145000    1.1403511 -9.3380582e-06   0.40843784  0.002682287            0   0.40575555    1.7019739    2.1104118    1.4649652 
 2150000    1.0848568 -1.5893894e-06   0.49440094  0.001541182            0   0.49285976    1.6191487    2.1135497    2.0036911 
 2155000     1.057247 -1.9929964e-05   0.53173863 0.0072074624            0   0.52453117    1.5779412    2.1096799   0.73212073 
 2160000    1.1010184 -2.0012038e-05   0.47426004  0.015491456            0   0.45876859      1.64327      2.11753   0.73429799 
 2165000    1.0775613 1.7244413e-05   0.50025807  0.030981179            0   0.46927689    1.6082602    2.1085182    3.3004521 
 2170000    1.1024256 3.9002775e-06   0.47401821   0.01582564            0   0.45819257    1.6453701    2.1193884    2.3889755 
 2175000    1.1005567 -1.1738083e-05   0.49430864 0.0035768388            0    0.4907318    1.6425808    2.1368895    1.3255532 
 2180000    1.0918923 7.0595419e-07   0.51741719  0.010251375            0   0.50716582    1.6296493    2.1470665    2.1958621 
 2185000    1.0794176 -6.3970063e-06   0.54361467  0.024749512            0   0.51886515    1.6110307    2.1546454    1.7124843 
 2190000    1.0880034 4.4197277e-05   0.53975751  0.027642492            0   0.51211502    1.6238451    2.1636026    5.2185185 
 2195000    1.0940752 -6.6156005e-05   0.54139397  0.011838033            0   0.52955594    1.6329073    2.1743013   -2.3984018 
 2200000    1.0977317 5.444705e-05   0.52539622 0.0044920874            0   0.52090413    1.6383646    2.1637608    5.9271409 
 2205000    1.0444216 -1.3236522e-05   0.57701299 0.0089915538            0   0.56802144    1.5587992    2.1358122    1.2209038 
 2210000    1.1004664 2.3045336e-05   0.49531026 0.0075986177            0   0.48771164    1.6424461    2.1377563      3.73065 
 2215000    1.1023154 3.0206013e-05   0.49963704  0.014987988            0   0.48464906    1.6452057    2.1448428    4.2326824 
 2220000    1.0927515 -2.3512025e-05   0.51609417  0.013677451            0   0.50241672    1.6309316    2.1470258   0.52187461 
 2225000    1.1125493 5.4481213e-05   0.47948932 0.0082414883            0   0.47124783    1.6604799    2.1399692    5.9057106 
 2230000    1.0396057 -2.5025715e-05   0.59552721 0.0026457134            0    0.5928815    1.5516115    2.1471387   0.41736127 
 2235000    1.0574019 -3.1772478e-05   0.56028867 0.0022353638            0   0.55805331    1.5781723     2.138461 -0.057652728 
 2240000     1.076537 -2.704899e-05   0.54271774 0.0082287182            0   0.53448902    1.6067314    2.1494491   0.27982295 
 2245000    1.0456953 -5.164207e-05   0.58907644 0.0064042034            0   0.58267224    1.5607002    2.1497767   -1.4197232 
 2250000    1.1039374 -7.8206284e-06   0.49500005 0.0027083094            0   0.49229174    1.6476265    2.1426266    1.6020647 
 2255000    1.0973032 -7.1367212e-05   0.51375664 0.0019056746            0   0.51185097    1.6377251    2.1514817   -2.7814199 
 2260000    1.0589361 -8.379625e-06   0.58484977 0.0029529806            0   0.58189679    1.5804622    2.1653119    1.5861122 
 2265000    1.0994262 -6.8484769e-06   0.51641327 0.0043503947            0   0.51206288    1.6408937    2.1573069    1.6839402 
 2270000    1.0608554 -5.9095434e-05   0.56657706 0.0034956683            0   0.56308139    1.5833267    2.1499037   -1.9347727 
 2275000    1.0798815 -4.2908005e-05   0.54262087  0.016667764            0   0.52595311    1.6117231     2.154344  -0.81145733 
 2280000    1.1021975 -7.7472528e-06   0.51795207  0.011885037            0   0.50606703    1.6450298    2.1629819    1.6274918 
 2285000    1.0988325 -1.3551023e-05   0.52986789  0.010456353            0   0.51941154    1.6400075    2.1698754    1.2332287 
 2290000    1.0916803 1.9446166e-05   0.54015228 0.0041485405            0   0.53600374    1.6293329    2.1694852    3.5136042 
 2295000    1.0626426 -1.0790624e-05   0.58480041 0.0028635538            0   0.58193686    1.5859941    2.1707945    1.4249465 
 2300000    1.0844834 1.154339e-05   0.55504685 0.0048164366            0   0.55023042    1.6185914    2.1736383    2.9715174 
 2305000    1.1091753 -2.637793e-05    0.5084883 0.0077345399            0   0.50075376    1.6554442    2.1639325   0.34068993 
 2310000     1.093006 -2.1830579e-05   0.51741195  0.012836702            0   0.50457525    1.6313114    2.1487234   0.63979371 
 2315000    1.0496786 -4.4140697e-05   0.58898955  0.016314061            0   0.57267548    1.5666453    2.1556348  -0.89537015 
 2320000    1.0654581 6.7434133e-05   0.55892967  0.011688124            0   0.54724155    1.5901962    2.1491259    6.8101731 
 2325000    1.0926007 1.8695614e-05   0.50580406  0.012109576            0   0.49369449    1.6307066    2.1365106    3.4287514 
 2330000    1.0808965 2.7081596e-05   0.50457073 0.0069288792            0   0.49764185     1.613238    2.1178088    3.9896887 
 2335000    1.0201874 -3.4221236e-05   0.58809581  0.010933284            0   0.57716253    1.5226298    2.1107256  -0.25464628 
 2340000    1.0121834 2.8939257e-05    0.5667268 0.0078695049            0   0.55885729    1.5106837    2.0774105     4.077692 
 2345000    1.0340461 8.556589e-05   0.52213569  0.010663584            0   0.51147211    1.5433138    2.0654495    7.9797639 
 2350000    1.0104134 -4.7234135e-05   0.54220239 0.0082823563            0   0.53392003     1.508042    2.0502444    -1.214579 
 2355000    1.0272882 -4.4350438e-05   0.49445836 0.0051356305            0   0.48932273    1.5332276     2.027686   -1.0378163 
 2360000    1.0068816 2.1323753e-06   0.52925562  0.010651791            0   0.51860383    1.5027708    2.0320265    2.1794162 
 2365000    0.9989408 5.0674671e-05   0.53404465  0.012908996            0   0.52113565    1.4909191    2.0249638    5.5275971 
 2370000    1.0003986 -1.7297852e-05   0.51082084 0.0017618096            0   0.50905903    1.4930949    2.0039157   0.80828817 
 2375000   0.98073964 -9.6847934e-06   0.52482932 0.0024783803            0   0.52235094    1.4637539    1.9885832    1.3191703 
 2380000   0.95156233 -3.1602174e-05   0.54855348 0.0046855557            0   0.54386792    1.4202068    1.9687603  -0.21558203 
 2385000   0.95814746 -4.7597312e-05   0.53870342  0.009191109            0   0.52951231    1.4300351    1.9687385   -1.3211877 
 2390000   0.98465271 -1.7402785e-05    0.4981005  0.006879303            0    0.4912212    1.4695942    1.9676947   0.76481415 
 2395000   0.98429748 7.097275e-05   0.50489445 0.0020298453            0   0.50286461     1.469064    1.9739584    6.8795949 
 2400000   0.95783872 2.9824971e-05   0.52051029 0.0095645842            0   0.51094571    1.4295743    1.9500846    4.0115866 
 2405000   0.94480003 1.5958784e-05   0.53783881   0.01660975            0   0.52122906     1.410114    1.9479528     3.051024 
 2410000   0.99033889 -9.7512306e-06   0.47145523  0.020205851            0   0.45124938    1.4780808     1.949536     1.275531 
 2415000   0.99534693 8.2288148e-05   0.47046392 0.0049746516            0   0.46548926    1.4855553    1.9560192     7.643776 
 2420000   0.98198311 -4.7581305e-05   0.50537553 0.0023809628            0   0.50299456    1.4656098    1.9709853   -1.3178345 
 2425000      0.97112 -2.5500767e-06   0.51185312 0.0086986552            0   0.50315447    1.4493966    1.9612497    1.7849884 
 2430000   0.97802186 -3.5704898e-05    0.4980647  0.010881702            0   0.48718299    1.4596976    1.9577623  -0.51016021 
 2435000   0.95922669 5.0653656e-07   0.52731674  0.011153611            0   0.51616313    1.4316458    1.9589626    1.9939744 
 2440000   0.94670707 -6.0297299e-05   0.55133959 0.0062443521            0   0.54509523    1.4129603    1.9642999   -2.2034495 
 2445000   0.97091674 -3.2073799e-05   0.50503631 0.0024997449            0   0.50253656    1.4490932    1.9541295  -0.26281146 
 2450000   0.98994241 -7.7833817e-06    0.4911749 0.00081611308            0   0.49035879     1.477489    1.9686639    1.4306766 
 2455000   0.95203925 2.790532e-05   0.54680089 0.0033255969            0   0.54347529    1.4209186    1.9677195    3.8965352 
 2460000   0.96957124 -6.0812041e-06   0.52413542 0.0038504189            0     0.520285    1.4470851    1.9712205    1.5508877 
 2465000   0.95792118 3.4838148e-05   0.55240582 0.0055072184            0    0.5468986    1.4296974    1.9821032     4.390116 
 2470000   0.94341414 2.2890812e-05   0.57414666  0.015285349            0   0.55886131    1.4080456    1.9821923    3.5644052 
 2475000     1.003699 3.2164148e-05   0.48017474 0.0048160497            0   0.47535869    1.4980208    1.9781955    4.2013814 
 2480000   0.98630097 4.0068977e-05   0.50050844 0.0019907395            0    0.4985177    1.4720542    1.9725626    4.7421303 
 2485000    0.9880143 -3.4526721e-05   0.49864277 0.0034486143            0   0.49519416    1.4746113    1.9732541  -0.41323286 
 2490000   0.97266819 -3.4947877e-05   0.51903951 0.0009915602            0   0.51804795    1.4517073    1.9707468  -0.44485049 
 2495000   0.95434382 6.6370896e-06   0.53808951 7.0100738e-05            0   0.53801941    1.4243582    1.9624477    2.4212033 
 2500000   0.96650809 7.7200631e-06   0.51687209 0.00050043317            0   0.51637166    1.4425133    1.9593854    2.4929962 
 2505000   0.96046898 9.9510072e-06   0.52426072 0.0042893051            0   0.51997142    1.4334999    1.9577607    2.6455743 
 2510000   0.96665672 3.1033437e-05   0.50379911 0.0073774909            0   0.49642162    1.4427351    1.9465343    4.0915654 
 2515000   0.96094092 -1.2386707e-05   0.50919837 0.0048960708            0    0.5043023    1.4342043    1.9434027    1.0872335 
 2520000   0.97175136 -3.0724379e-05   0.47904434 0.0075534438            0   0.47149089    1.4503389    1.9293832  -0.19428581 
 2525000   0.93722817 -2.8263898e-05    0.5332073 0.0062020991            0   0.52700521     1.398813    1.9320203 -0.021580292 
 2530000   0.98278661 -3.0805865e-08   0.46383205 0.0051122391            0   0.45871981     1.466809    1.9306411    1.9285118 
 2535000   0.92907824 -8.2961911e-06   0.54404505  0.010035212            0   0.53400984    1.3866493    1.9306943    1.3572616 
 2540000   0.94406399 -6.7541991e-06    0.5238401 0.0069374889            0   0.51690261    1.4090155    1.9328556    1.4660054 
 2545000   0.96265165 -3.3890848e-05   0.52158417 0.0047593024            0   0.51682487    1.4367576    1.9583418  -0.38419365 
 2550000   0.97803154 3.9510573e-07   0.49231528 0.0078645233            0   0.48445075    1.4597121    1.9520274    1.9793371 
 2555000   0.95674629 -7.3480862e-06   0.52712386  0.011072966            0    0.5160509    1.4279438    1.9550677     1.447168 
 2560000   0.98461852 -3.2976664e-05   0.48331649 0.0041539521            0   0.47916254    1.4695431    1.9528596  -0.32648741 
 2565000   0.97287233 -1.5057449e-07   0.50308943 0.0011825271            0    0.5019069     1.452012    1.9551014    1.9446937 
 2570000   0.94771205 -2.4660906e-05   0.54693084  0.011016474            0   0.53591437    1.4144602    1.9613911   0.25682923 
 2575000   0.97830094 -4.6191084e-05   0.51251701 0.0081419348            0   0.50437507    1.4601142    1.9726312   -1.2200966 
 2580000    1.0043286 2.0901086e-05   0.47119695 0.0013717174            0   0.46982523    1.4989605    1.9701574    3.4148405 
 2585000    0.9266662 7.0122761e-06   0.58326221 0.00091188885            0   0.58235032    1.3830493    1.9663115        2.451 
 2590000   0.95715817 1.2634683e-05    0.5339653  0.001808867            0   0.53215643    1.4285586    1.9625239    2.8358332 
 2595000   0.94905534 -6.9769394e-06   0.52865226  0.003199719            0   0.52545254    1.4164651    1.9451174    1.4628713 
 2600000    1.0166622 6.6325178e-05   0.43206422 0.0023742478            0   0.42968997    1.5173683    1.9494325    6.5338288 
 2605000   0.97737725 1.0109395e-05   0.48901055 0.0017332771            0   0.48727727    1.4587356    1.9477461    2.6465075 
 2610000   0.97133245 -7.86712e-05   0.51203723  0.002311689            0   0.50972554    1.4497137    1.9617509   -3.4760025 
 2615000   0.96738378 4.0594917e-05   0.51301536 0.00091175593            0    0.5121036    1.4438203    1.9568356    4.7627563 
 2620000    1.0039157 1.8428861e-06    0.4626865 0.0015391216            0   0.46114738    1.4983441    1.9610306    2.0884109 
 2625000   0.95725086 -6.5319916e-05   0.53398185  0.006863274            0   0.52711857    1.4286969    1.9626788   -2.5522338 
 2630000   0.98525523 1.6979373e-05   0.47399069 0.0041292809            0   0.46986141    1.4704934    1.9444841    3.1180984 
 2635000   0.95983402 -4.5261466e-05   0.51311479 0.0024505186            0   0.51066427    1.4325523    1.9456671   -1.1828055 
 2640000   0.95808874 -2.8548556e-05   0.50363903 0.0028586053            0   0.50078042    1.4299474    1.9335865 -0.039689713 
 2645000   0.93583334 6.4027715e-05   0.52132463 0.0056293582            0   0.51569527    1.3967313    1.9180559    6.3436516 
 2650000   0.93767431 -3.4271316e-05   0.51152761 0.0063373373            0   0.50519027    1.3994789    1.9110065  -0.45782683 
 2655000   0.94603549 -4.3898601e-05   0.48151191 0.0039327333            0   0.47757918     1.411958    1.8934699   -1.1408014 
 2660000   0.97233264 -1.818113e-05   0.43201357 0.0078673578            0   0.42414621    1.4512065      1.88322   0.62654033 
 2665000   0.94743625 8.9081846e-06   0.45829599 0.0047230575            0   0.45357293    1.4140486    1.8723446    2.4880783 
 2670000   0.88624973 -4.5741753e-05   0.55936189 0.0021331954            0    0.5572287    1.3227277    1.8820896   -1.2795804 
 2675000   0.91906103 -3.203012e-05   0.50827053  0.014895361            0   0.49337517    1.3716986    1.8799691  -0.33395278 
 2680000   0.95717467 2.6109711e-05   0.47912537 0.0060592276            0   0.47306614    1.4285832    1.9077086    3.7124118 
 2685000   0.94992833 1.9648148e-05   0.47644194 0.0074248291            0   0.46901711     1.417768      1.89421      3.25229 
 2690000   0.95505359 -2.1065644e-05   0.45302805 0.0064005533            0    0.4466275    1.4254175    1.8784455   0.42238824 
 2695000   0.93118339 -4.1405619e-05   0.48868558 0.0078274723            0   0.48085811    1.3897912    1.8784768  -0.98347958 
 2700000    0.9381079 -1.6347307e-05    0.4978416  0.019400248            0   0.47844135     1.400126    1.8979676   0.76804179 
 2705000   0.98502695 -4.8405321e-05    0.4491687 0.0057490933            0   0.44341961    1.4701527    1.9193214   -1.4264543 
 2710000   0.94492992 2.8996218e-05    0.5152346  0.011983582            0   0.50325102    1.4103079    1.9255425    3.9297611 
 2715000   0.99406996 -8.0967715e-06   0.45781338  0.011684592            0   0.44612879    1.4836494    1.9414628     1.381814 
 2720000    1.0067634 7.3261065e-06   0.44266629 0.0077898598            0   0.43487643    1.5025944    1.9452607    2.4516412 
 2725000   0.99518246 1.1561649e-05   0.45937752  0.012321339            0   0.44705618    1.4853098    1.9446873    2.7438285 
 2730000    0.9231907 -2.4566625e-05   0.55517913  0.020838591            0   0.53434054    1.3778621    1.9330412   0.23499609 
 2735000   0.96751708 1.9547816e-06   0.48915306 0.0063406946            0   0.48281236    1.4440192    1.9331723    2.0682868 
 2740000   0.98059801 1.3815199e-05   0.46531198   0.00246609            0   0.46284589    1.4635425    1.9288545     2.883761 
 2745000    0.9648416 -6.4472218e-06   0.48234495 0.0025964235            0   0.47974853    1.4400261     1.922371    1.4767391 
 2750000    1.0023355 -6.1123549e-05   0.43622771 0.0046460605            0   0.43158165    1.4959858    1.9322135   -2.2926463 
 2755000   0.97822395 -2.0657308e-05   0.48217347 0.0039027321            0   0.47827074    1.4599992    1.9421727   0.51433957 
 2760000    1.0048663 -1.6146653e-05   0.43172998 0.0033658643            0   0.42836411     1.499763     1.931493   0.81543637 
 2765000   0.95491797 4.4132075e-05   0.49637482 0.0082390887            0   0.48813573    1.4252151    1.9215899    4.9719989 
 2770000   0.96794225 -1.3716263e-05   0.47572149 0.0079220163            0   0.46779948    1.4446538    1.9203753   0.97230717 
 2775000     1.008634 7.6600959e-06   0.42601212  0.026551177            0   0.39946094    1.5053863    1.9313984    2.4608642 
 2780000   0.95139554 -3.6497669e-05   0.50823003  0.024164584            0   0.48406545    1.4199578    1.9281879  -0.59453098 
 2785000   0.94858162 -5.7103998e-05   0.52833018  0.025751004            0   0.50257918    1.4157581    1.9440883   -2.0029401 
 2790000   0.98781905 -1.7922051e-05   0.48361127 0.0038653638            0   0.47974591    1.4743199    1.9579312   0.71915904 
 2795000    1.0091774 7.7093999e-05   0.44773959 0.0091763278            0   0.43856326    1.5061973    1.9539369    7.2826741 
 2800000   0.95828336 -4.8551221e-05   0.51732176  0.017291649            0   0.50003012    1.4302379    1.9475597   -1.4083007 
 2805000   0.98367531 -1.1191255e-05   0.48872115   0.02427185            0    0.4644493    1.4681354    1.9568566     1.183317 
 2810000   0.97735357 1.6256963e-05    0.4918212 0.0045452409            0   0.48727596    1.4587002    1.9505214    3.0742027 
 2815000    1.0210695 -1.10812e-05    0.4353979 0.0027827345            0   0.43261517    1.5239462    1.9593441    1.1934115 
 2820000   0.99138911 -6.0272998e-05   0.47204794  0.018742193            0   0.45330574    1.4796483    1.9516962   -2.2143734 
 2825000   0.93898385 2.2998375e-05    0.5589432  0.027789302            0    0.5311539    1.4014334    1.9603766    3.5500243 
 2830000   0.98199177 3.4685261e-05   0.50517123 0.0080854835            0   0.49708575    1.4656227    1.9707939    4.3682392 
 2835000    1.0228019 -2.0911234e-06   0.43984318 0.0088944332            0   0.43094875    1.5265318     1.966375    1.8218365 
 2840000    1.0132339 3.7379742e-05    0.4747612 0.0049556887            0   0.46980551    1.5122515    1.9870127    4.5707005 
 2845000   0.98951033 -1.8261656e-05   0.50956807 0.0024335592            0   0.50713451    1.4768442    1.9864122   0.72416654 
 2850000   0.98930068 -1.1526091e-05   0.49986903  0.011331275            0   0.48853776    1.4765313    1.9764003    1.1797169 
 2855000    1.0140309 3.1523633e-05   0.47293939  0.016875946            0   0.45606344     1.513441    1.9863804     4.165294 
 2860000    1.0023538 8.0654696e-06   0.51086842  0.028796695            0   0.48207172     1.496013    2.0068814    2.5643667 
 2865000   0.99341003 -2.9643555e-05    0.5218965  0.011854487            0   0.51004201    1.4826645     2.004561 -0.044401537 
 2870000    0.9924631 -4.4840994e-06   0.52799426 0.0064846637            0    0.5215096    1.4812512    2.0092454    1.6993045 
 2875000   0.98267309 -1.3270681e-05   0.52516685   0.00673357            0   0.51843328    1.4666396    1.9918064    1.0745369 
 2880000   0.97618426 2.4016412e-05   0.51249245  0.009750594            0   0.50274186     1.456955    1.9694475    3.6294619 
 2885000   0.97707804 6.436532e-05   0.52016163  0.016930715            0   0.50323092     1.458289    1.9784506    6.4273815 
 2890000   0.99397454 4.0390818e-05   0.52861874 0.0033747873            0   0.52524395     1.483507    2.0121257     4.803939 
 2895000    0.9844046 3.5235528e-05   0.54605747 0.0020455664            0    0.5440119    1.4692239    2.0152813    4.4507611 
 2900000   0.98420219 3.2031337e-05   0.52103707 0.0048381358            0   0.51619893    1.4689218    1.9899588    4.2039648 
 2905000   0.94216014 -3.9149454e-05   0.55454035  0.021014157            0   0.53352619     1.406174    1.9607144  -0.74529594 
 2910000   0.96381726 9.4773035e-06   0.52671524  0.019040553            0   0.50767469    1.4384973    1.9652125    2.6202837 
 2915000    1.0337905 8.3413893e-06   0.45811472  0.002147727            0   0.45596699    1.5429322     2.001047    2.5776038 
 2920000    1.0145313 -7.6432329e-06     0.467927 0.0061880871            0   0.46173891     1.514188     1.982115    1.4538147 
 2925000    1.0559266 -3.3636891e-05   0.39838457 0.0051244327            0   0.39326014    1.5759705    1.9743551  -0.35062685 
 2930000    1.0171487 -1.9602513e-05   0.45337567 0.0057842004            0   0.44759146    1.5180944    1.9714701   0.61654433 
 2935000   0.99005327 1.0524701e-07   0.50365994 0.0095758037            0   0.49408414    1.4776545    1.9813144    1.9885891 
 2940000   0.99844403 1.9882936e-05   0.49230857  0.018349483            0   0.47395909    1.4901777    1.9824863    3.3567948 
 2945000    1.0547821 -4.5908685e-05   0.39643005  0.015908275            0   0.38052177    1.5742622    1.9706923    -1.202516 
 2950000   0.96290671 -5.071171e-05    0.5528213 0.0052266876            0   0.54759461    1.4371383    1.9899596   -1.5152338 
 2955000   0.99119124 2.5410011e-05   0.50212048  0.018322026            0   0.48379845    1.4793529    1.9814734    3.7378134 
 2960000    1.0243624 3.0722748e-06   0.44410678  0.015881627            0   0.42822515    1.5288609    1.9729677    2.1853234 
 2965000    1.0195173 -3.3559018e-05    0.4450841  0.013376329            0   0.43170777    1.5216295    1.9667136  -0.35288572 
 2970000   0.97467057 3.0366934e-05   0.53631206  0.013613866            0   0.52269819    1.4546958    1.9910079    4.0899704 
 2975000   0.93681473 -2.0595141e-05    0.5892722  0.016067594            0   0.57320461     1.398196    1.9874682   0.56393203 
 2980000   0.99139584 -6.5244164e-06    0.5348161 0.0077329126            0   0.52708319    1.4796583    2.0144744    1.5635067 
 2985000    1.0287369 5.9023725e-05   0.47771169 0.0028190855            0    0.4748926    1.5353898    2.0131014    6.0928213 
 2990000    1.0571278 -6.6202764e-06   0.42954491 0.0057628392            0   0.42378207    1.5777633    2.0073082    1.5497147 
 2995000    1.0054429 -4.1850105e-06   0.48026789  0.009887233            0   0.47038065    1.5006236    1.9808915    1.6916235 
 3000000    1.0095592 2.4856266e-05   0.47688592 0.0048266423            0   0.47205928    1.5067671     1.983653    3.7017181 
 3005000   0.94457055 1.9435335e-05   0.57934671  0.022929348            0   0.55641736    1.4097715    1.9891183    3.3324886 
 3010000    0.9449798 2.6186975e-05   0.55893337  0.017538868            0    0.5413945    1.4103824    1.9693157    3.7793594 
 3015000   0.97139679 5.8110701e-06   0.52073215    0.0103303            0   0.51040185    1.4498097    1.9705419     2.372203 
 3020000   0.97115352 -1.0747266e-06   0.51155897  0.013821398            0   0.49773757    1.4494466    1.9610056    1.8867205 
 3025000    1.0067127 -4.2793376e-05   0.44705933  0.017608589            0   0.42945074    1.5025186     1.949578   -1.0083002 
 3030000   0.99969696 -5.8726232e-05   0.46810938 0.0046913847            0     0.463418    1.4920477    1.9601571   -2.0990001 
 3035000    1.0105139 3.0538311e-05   0.46832162 0.0036137648            0   0.46470785     1.508192    1.9765137    4.0873217 
 3040000    1.0199559 5.9657186e-05   0.46935065  0.010081998            0   0.45926865    1.5222841    1.9916348    6.1151395 
 3045000   0.96661927 2.5184345e-05   0.53011875 0.0080326257            0   0.52208612    1.4426793     1.972798    3.7135399 
 3050000    0.9727081 -7.141432e-05   0.49353184 0.0091172228            0   0.48441462    1.4517668    1.9452987   -2.9908591 
 3055000     0.937729 -1.1000249e-05   0.51879358   0.01272258            0     0.506071    1.3995605    1.9183541    1.1580169 
 3060000   0.94635656 -2.8566121e-05   0.51148417 0.0045583865            0   0.50692578    1.4124372    1.9239213 -0.050568967 
 3065000   0.91870851 -6.9708996e-06    0.5458834  0.015303268            0   0.53058013    1.3711725    1.9170559    1.4352273 
 3070000   0.93299159 3.828283e-06    0.5089671  0.018395519            0   0.49057158    1.3924899     1.901457     2.166068 
 3075000   0.95483047 -6.825509e-06   0.50231587 0.0061268787            0   0.49618899    1.4250845    1.9274004    1.4556212 
 3080000    0.9734737 -3.3177234e-05   0.46711346 0.0068146743            0   0.46029879    1.4529095     1.920023  -0.37318744 
 3085000   0.94033223 -1.5538395e-06   0.49703705 0.0092006581            0   0.48783639    1.4034458    1.9004829    1.7930815 
 3090000   0.93916156 -4.6204783e-05   0.50555032  0.014207404            0   0.49134292    1.4016986    1.9072489   -1.2864257 
 3095000    1.0127755 1.7760369e-07   0.39726773  0.010225262            0   0.38704247    1.5115674    1.9088351    1.9211111 
 3100000   0.92945685 1.4077789e-05     0.526194  0.011545899            0    0.5146481    1.3872144    1.9134083    2.8864651 
 3105000   0.96377551 1.9765584e-05   0.47073775   0.02051659            0   0.45022116     1.438435    1.9091727    3.2753699 
 3110000   0.90291859 1.2002922e-05   0.56845029  0.036576929            0   0.53187336     1.347606    1.9160563    2.7456983 
 3115000    1.0011494 1.7142782e-05   0.43569481  0.016189102            0   0.41950571    1.4942155    1.9299103    3.1148194 
 3120000   0.89411201 2.7996164e-05   0.57963285  0.024675665            0   0.55495718    1.3344622     1.914095    3.8491899 
 3125000   0.96558792 4.0296292e-05   0.48100665  0.019101268            0   0.46190539      1.44114    1.9221466    4.7074263 
 3130000    0.9364977 1.5469651e-05   0.51241169  0.016428448            0   0.49598324    1.3977228    1.9101345    2.9793968 
 3135000   0.95599688 -3.0089686e-05   0.46678622 0.0097727297            0   0.45701349    1.4268253    1.8936116  -0.18618751 
 3140000   0.92256034 -1.2874754e-05   0.51891613  0.004640062            0   0.51427607    1.3769213    1.8958374    1.0059344 
 3145000    0.9217109 1.4239739e-05   0.53416738   0.02653167            0   0.50763571    1.3756535    1.9098209    2.8940717 
 3150000   0.96675622 -2.971039e-05   0.46455181  0.010919602            0   0.45363221    1.4428837    1.9074355  -0.14614667 
 3155000   0.93060869 2.8152795e-05   0.52366643 0.0033296697            0   0.52033676    1.3889335    1.9125999    3.8585211 
 3160000   0.96604222 2.3765987e-06    0.4516948  0.012333136            0   0.43936166     1.441818    1.8935128    2.0577833 
 3165000     0.920371 -1.7880624e-05   0.52594031  0.018705229            0   0.50723508    1.3736537     1.899594   0.66368532 
 3170000   0.94740377 2.7274187e-05   0.48473519 0.0089088013            0   0.47582639    1.4140001    1.8987353    3.7839271 
 3175000   0.95059148 2.2724269e-05   0.49590893  0.005401066            0   0.49050786    1.4187578    1.9146667    3.4853682 
 3180000   0.95020341 -5.0546291e-05   0.51081016  0.007103665            0   0.50370649    1.4181786    1.9289887   -1.5647709 
 3185000   0.95981957 3.8543939e-05   0.50295607 0.0067914757            0   0.49616459    1.4325307    1.9354868    4.5996438 
 3190000   0.98727441 -1.1188131e-05   0.45085866 0.0069467776            0   0.44391188    1.4735071    1.9243657    1.1510421 
 3195000   0.98101268 -2.6395153e-05   0.44876489 0.0085107041            0   0.44025419    1.4641614    1.9129263  0.088493358 
 3200000   0.94235207 1.4407903e-05   0.51252167  0.001757932            0   0.51076374    1.4064605    1.9189821    2.9148564 
 3205000   0.95217058 -7.7733409e-06   0.50604367 0.0019979312            0   0.50404574    1.4211146    1.9271583    1.3898649 
 3210000   0.98309438 -2.624255e-05   0.44937554 0.0076098133            0   0.44176573    1.4672684    1.9166439   0.10275881 
 3215000   0.92072846 -1.2496764e-05   0.54223498  0.016222295            0   0.52601269    1.3741872    1.9164222    1.0526459 
 3220000   0.98964855 -7.9018271e-06   0.44253545  0.012801375            0   0.42973407    1.4770505    1.9195859    1.3734116 
 3225000   0.96958162 -1.0054048e-05   0.46908516  0.028600178            0   0.44048499    1.4471006    1.9161857    1.2212499 
 3230000   0.99888986 3.7069587e-05   0.44547469  0.012389595            0    0.4330851    1.4908431    1.9363178    4.4985677 
 3235000   0.94020765 1.0199791e-05   0.52113793   0.01766401            0   0.50347392    1.4032599    1.9243978    2.6294074 
 3240000   0.99059207 -5.1735909e-05   0.45091729  0.027519236            0   0.42339805    1.4784587    1.9293759   -1.6466101 
 3245000   0.97650469 -7.1608279e-05   0.46513155 0.0086702571            0   0.45646129    1.4574332    1.9225648   -3.0269994 
 3250000   0.97955457 -4.2090571e-05   0.45335646  0.010144651            0   0.44321181    1.4619852    1.9153417  -0.99395858 
 3255000   0.97148692 3.5934874e-05   0.45845741   0.01852205            0   0.43993536    1.4499442    1.9084016    4.3922201 
 3260000   0.93969836 1.5075026e-05   0.50993893 0.0085747045            0   0.50136423    1.4024998    1.9124387    2.9544245 
 3265000   0.96525393 -1.4267412e-05   0.46902273  0.011297401            0   0.45772532    1.4406415    1.9096642   0.92350071 
 3270000   0.94412949 -5.9886579e-05   0.49841052  0.012159701            0   0.48625082    1.4091133    1.9075238   -2.2318366 
 3275000   0.90752986 -2.3023145e-05   0.55537294 0.0091378037            0   0.54623513    1.3544883    1.9098612   0.31850148 
 3280000    1.0115326 5.9115679e-05   0.40248771 0.0014355353            0   0.40105217    1.5097125    1.9122002    5.9982759 
 3285000   0.96560674 -3.7834618e-05   0.46753713 0.00071409132            0   0.46682303    1.4411681    1.9087052  -0.70642357 
 3290000   0.93495256 -3.0235072e-05   0.51969902 0.0078161427            0   0.51188288    1.3954167    1.9151157  -0.17473246 
 3295000   0.90457235 2.2841045e-05   0.57888959  0.029020292            0    0.5498693    1.3500742    1.9289638    3.5077369 
 3300000   0.93870727 2.5845811e-05   0.52899302  0.038762319            0    0.4902307    1.4010206    1.9300136    3.7164761 
 3305000   0.89949504 -1.6945733e-05   0.59173502  0.039833356            0   0.55190166    1.3424964    1.9342314   0.76294231 
 3310000   0.94522059 -6.0689828e-06   0.50440438  0.028583915            0   0.47582046    1.4107417    1.9151461     1.495658 
 3315000   0.88833986 -8.5088204e-06   0.58991814  0.018833348            0   0.57108479    1.3258472    1.9157654    1.3276357 
 3320000   0.97254469 4.6442081e-07   0.46151958 0.0084438865            0   0.45307569    1.4515229    1.9130425    1.9451433 
 3325000   0.97066162 -5.394509e-05    0.4716998 0.0027046265            0   0.46899518    1.4487125    1.9204123   -1.8082724 
 3330000    0.9404584 -2.4593379e-05   0.54156283  0.002737485            0   0.53882535    1.4036342     1.945197   0.24530261 
 3335000   0.96091316 -2.5019079e-05   0.52386669 0.0050620529            0   0.51880464    1.4341629    1.9580296    0.2287108 
 3340000    0.9733395 5.1848184e-06   0.51611279 0.0047853695            0   0.51132742    1.4527092     1.968822    2.3271966 
 3345000   0.99283314 -1.0721703e-05   0.47361598 0.0026072965            0   0.47100869    1.4818035    1.9554194    1.2143353 
 3350000   0.99591486 -1.3238248e-05   0.46004701 0.0040649971            0   0.45598201    1.4864029    1.9464499    1.0314223 
 3355000   0.99047296 -3.5668453e-05   0.49206711   0.01136958            0   0.48069753    1.4782809     1.970348  -0.49505546 
 3360000   0.99335421 -3.0221457e-05    0.5028533  0.023390428            0   0.47946288    1.4825812    1.9854345  -0.10347262 
 3365000   0.97857521 3.3633199e-05   0.52182764  0.015309177            0   0.50651847    1.4605235    1.9823511    4.3070779 
 3370000   0.99985558 -3.8025229e-05   0.51345234 0.0075594132            0   0.50589293    1.4922844    2.0057368  -0.62256703 
 3375000    1.0190133 -6.0004302e-05    0.4957447 0.0077636503            0   0.48798105    1.5208773     2.016622   -2.1308754 
 3380000    1.0797731 -1.423634e-06   0.42676105 0.0010441183            0   0.42571694    1.6115613    2.0383224    1.9399208 
 3385000     1.001373 2.1311796e-05   0.52041144 0.0032430704            0   0.51716837    1.4945492    2.0149606     3.488032 
 3390000    1.0161353 1.9087255e-05    0.5091064 0.0084142301            0   0.50069217     1.516582    2.0256884    3.3449995 
 3395000    1.0064938 7.7131819e-05   0.53697185 0.0076265397            0   0.52934531     1.502192    2.0391639    7.3705152 
 3400000    1.0259633 -2.4261951e-05   0.51467667 0.0034785145            0   0.51119816    1.5312502    2.0459268   0.36894082 
 3405000    1.0524958 -1.0237843e-05   0.48548699  0.003972381            0   0.48151461    1.5708501     2.056337    1.3486973 
 3410000    1.0393117 1.5965091e-05   0.50928216 0.0013643122            0   0.50791784    1.5511727    2.0604549     3.163962 
 3415000    1.0155688 3.5837219e-05   0.53976985 0.0055395165            0   0.53423033    1.5157365    2.0555063    4.5325749 
 3420000    1.0225871 4.6715734e-06   0.52966278 0.0093488215            0   0.52031395    1.5262112     2.055874    2.3787731 
 3425000    1.0610627 2.9581232e-05   0.47082583 0.0013061272            0   0.46951971    1.5836361     2.054462    4.0991167 
 3430000    1.0010993 -4.2450051e-05   0.55332363 0.00076045622            0   0.55256317    1.4941407    2.0474644  -0.88668319 
 3435000    1.0326306 -5.1320455e-05   0.50670792  0.010737229            0   0.49597069    1.5412012    2.0479091   -1.4993608 
 3440000   0.99479776 -6.1766091e-05   0.56834354  0.030546964            0   0.53779658    1.4847357    2.0530792    -2.216193 
 3445000   0.99146549 -5.477173e-05   0.58109955  0.021768046            0    0.5593315    1.4797622    2.0608618   -1.7249602 
 3450000    1.0535057 3.7497835e-05   0.48298259  0.013225348            0   0.46975724    1.5723572    2.0553398    4.6471902 
 3455000   0.97261918 7.2990691e-05    0.5758462  0.011441974            0   0.56440422    1.4516341    2.0274803    7.0725969 
 3460000     1.003119 9.2780587e-05   0.53537581 0.0078482285            0   0.52752758    1.4971551    2.0325309     8.445525 
 3465000    1.0224126 -8.8902369e-06   0.48146443 0.0075500442            0   0.47391439    1.5259508    2.0074153    1.3929221 
 3470000   0.99077256 -3.3787779e-05     0.525534  0.017962434            0   0.50757156    1.4787281     2.004262  -0.33114924 
 3475000    0.9510499 2.9716503e-05   0.59196986  0.023804297            0   0.56816556     1.419442    2.0114118    4.0654165 
 3480000   0.98280993 2.6603756e-05    0.5430677  0.034070799            0    0.5089969    1.4668438    2.0099115    3.8487631 
 3485000    1.0234849 -4.6904674e-05   0.49961832 0.0097373894            0   0.48988093    1.5275512    2.0271695   -1.2148816 
 3490000    1.0060776 2.2755522e-05   0.52386588  0.014106303            0   0.50975957    1.5015708    2.0254367    3.5982983 
 3495000    1.0068912 2.3823392e-05   0.51439573  0.025760336            0   0.48863539    1.5027851    2.0171808    3.6638537 
 3500000   0.97400566 4.4223004e-05   0.55024819  0.015838611            0   0.53440958    1.4537034    2.0039516    5.0606457 
 3505000   0.98714143 -5.3986504e-06   0.53123241 0.0030666455            0   0.52816576    1.4733086     2.004541    1.6313863 
 3510000   0.97311086 5.1987996e-05   0.54604307  0.011164334            0   0.53487874     1.452368     1.998411    5.5918213 
 3515000   0.97675418 -2.2488783e-06   0.53926195 0.0098534065            0   0.52940854    1.4578056    1.9970676    1.8416251 
 3520000   0.96614614 -5.7403977e-05   0.53804353 0.0070902825            0   0.53095325    1.4419731    1.9800166   -1.9877463 
 3525000   0.91851879 -4.2357996e-05   0.59836397  0.011349583            0   0.58701439    1.3708893    1.9692533  -0.95853143 
 3530000   0.95635908 -5.2768021e-05   0.52957974  0.022235184            0   0.50734456    1.4273659    1.9569457   -1.6903799 
 3535000   0.96995846 9.5062976e-06    0.5003557  0.017912725            0   0.48244298     1.447663    1.9480187     2.605094 
 3540000   0.96968746 1.4497598e-05   0.49091925  0.019601014            0   0.47131824    1.4472585    1.9381778    2.9402518 
 3545000   0.93197528 2.7079286e-05   0.54286892  0.012581684            0   0.53028724    1.3909731     1.933842    3.8055623 
 3550000   0.96770487 3.931959e-05   0.50371956  0.015391396            0   0.48832817    1.4442995    1.9480191    4.6657891 
 3555000   0.96027737 1.7858123e-06   0.52287208  0.012160018            0   0.51071206     1.433214    1.9560861    2.0795214 
 3560000   0.97546234 -4.2130919e-05   0.49418692 0.0037340649            0   0.49045285    1.4558775    1.9500645  -0.96202466 
 3565000    0.9925169 -1.78079e-05   0.48983774 0.0067346745            0   0.48310307    1.4813315    1.9711692   0.74028718 
 3570000   0.95563469 5.6678431e-05   0.54595081  0.016470914            0    0.5294799    1.4262848    1.9722356    5.8898487 
 3575000    1.0144087 1.6496634e-05   0.46078368  0.022409598            0   0.43837408     1.514005    1.9747887     3.115036 
 3580000   0.93115302 -8.4326119e-05   0.57773323   0.01249466            0   0.56523857    1.3897459    1.9674791   -3.8611422 
 3585000   0.97728205 -3.2610774e-05   0.50508776  0.012240515            0   0.49284725    1.4585935    1.9636812  -0.29037549 
 3590000   0.93219836 -2.4482064e-05   0.56586365 0.0040607197            0   0.56180293    1.3913061    1.9571697   0.26496947 
 3595000   0.91532994 -3.4018771e-06   0.56938554 0.0021521917            0   0.56723335    1.3661299    1.9355155    1.7003777 
 3600000    1.0003759 1.3433122e-05   0.44230589 0.0055279214            0   0.43677797     1.493061    1.9353669    2.8638643 
 3605000    0.9729372 4.4541904e-05   0.48932727  0.012614116            0   0.47671315    1.4521088     1.941436    5.0201725 
 3610000    0.9477441 9.0108628e-06   0.53754859 0.0028127082            0   0.53473588    1.4145081    1.9520567    2.5748875 
 3615000   0.99788655 5.4998133e-05   0.46724566 0.0062631988            0   0.46098246    1.4893457    1.9565913    5.7580623 
 3620000   0.95916646 -2.4885607e-05   0.52038927  0.015731322            0   0.50465795    1.4315559    1.9519452   0.23185207 
 3625000   0.97839194 5.2207613e-05   0.48397068  0.021199437            0   0.46277124      1.46025    1.9442206    5.5528108 
 3630000    0.9773331 6.3518377e-05   0.47741035  0.013664677            0   0.46374568    1.4586696      1.93608    6.3264702 
 3635000   0.95759355 -1.2024089e-05   0.51271793 0.0066491377            0    0.5060688    1.4292084    1.9419263    1.1108213 
 3640000   0.96961145 8.1508457e-05   0.47712048 0.0079362486            0   0.46918423    1.4471451    1.9242656    7.5581301 
 3645000   0.99936237 3.1307687e-06   0.42318717  0.014604359            0   0.40858281    1.4915483    1.9147355    2.1311342 
 3650000   0.92073743 -3.9315987e-05   0.55030543   0.04157319            0   0.50873224    1.3742006     1.924506  -0.79301497 
 3655000   0.91384852 -2.1843058e-05   0.53077603  0.014436082            0   0.51633994    1.3639189    1.8946949   0.38490277 
 3660000   0.95733568 3.4713054e-05   0.46571992 0.0021769343            0   0.46354298    1.4288235    1.8945434    4.2939097 
 3665000   0.94091617 3.5168719e-05   0.47720508 0.0062333618            0   0.47097172    1.4043174    1.8815225    4.3123843 
 3670000   0.93434753 4.3070834e-05   0.48214656  0.013219102            0   0.46892745    1.3945137    1.8766602    4.8537163 
 3675000    0.9721955 -4.1775014e-05   0.43444682  0.010005597            0   0.42444122    1.4510018    1.8854486   -1.0020404 
 3680000   0.93321336 -6.2788093e-05   0.50250151  0.012640403            0   0.48986111    1.3928209    1.8953224   -2.4445905 
 3685000   0.94189011 -9.9528399e-06   0.50638047  0.029977947            0   0.47640252     1.405771    1.9121515    1.2242112 
 3690000   0.97647086 3.1530841e-06   0.47407125   0.02360657            0   0.45046468    1.4573828     1.931454    2.1493952 
 3695000   0.98806834 8.0931374e-06   0.46019636  0.016037884            0   0.44415847     1.474692    1.9348883     2.494286 
 3700000   0.93117583 5.2339244e-05   0.55420457  0.022883318            0   0.53132125    1.3897799    1.9439845     5.561673 
 3705000   0.93278428 2.667937e-05   0.55147401  0.015511105            0    0.5359629    1.3921805    1.9436545    3.7877326 
 3710000   0.99928312 -3.2588466e-07   0.46481826 0.0086165576            0    0.4562017    1.4914301    1.9562483    1.9337232 
 3715000   0.99119946 8.3146891e-05   0.49264292   0.01375379            0   0.47888913    1.4793652    1.9720081    7.7191213 
 3720000    1.0025169 4.8861419e-05   0.49811121 0.0097019477            0   0.48840927    1.4962564    1.9943676    5.3716689 
 3725000   0.99653996 -1.6120539e-05   0.53610987  0.021501637            0   0.51460824    1.4873359    2.0234458   0.90919414 
 3730000    1.0189216 1.5147647e-05    0.5020282  0.018057995            0   0.48397021    1.5207405    2.0227687    3.0697741 
 3735000    1.0141279 -3.2066648e-05    0.4956253  0.010354495            0    0.4852708    1.5135859    2.0092112  -0.20723551 
 3740000   0.97905153 -1.2098457e-05   0.57115473  0.046360055            0   0.52479468    1.4612344    2.0323891    1.1961438 
 3745000    1.0136913 -3.4880749e-05   0.53188816 0.0089970414            0   0.52289112    1.5129343    2.0448224  -0.36613492 
 3750000    1.0286589 -1.5271382e-05   0.50524694   0.00427264            0    0.5009743    1.5352734    2.0405203    0.9849624 
 3755000    1.0400132 4.5593671e-05   0.46437994  0.003527504            0   0.46085244    1.5522197    2.0165996    5.1680342 
 3760000     0.999148 -9.0983926e-07   0.52695316 0.0036539061            0   0.52329925    1.4912284    2.0181816    1.9552935 
 3765000    1.0213761 1.2443993e-05   0.48243954 0.0018548982            0   0.48058465    1.5244038    2.0068433    2.8669721 
 3770000    1.0630376 -3.4020532e-06    0.4366652  0.001936669            0   0.43472853    1.5865836    2.0232488    1.7880989 
 3775000   0.99500797 -6.0023523e-05   0.53734829   0.02337971            0   0.51396858    1.4850494    2.0223977   -2.1264282 
 3780000    1.0037796 5.2287352e-06   0.51672401   0.01272001            0     0.504004     1.498141     2.014865    2.3762752 
 3785000    1.0088089 9.812378e-05   0.50873205 0.0033124079            0   0.50541964    1.5056473    2.0143793     8.796695 
 3790000    1.0072106 9.9081365e-07   0.51258649   0.01369408            0   0.49889241    1.5032619    2.0158484    2.0843334 
 3795000     1.007771 -4.0390937e-05   0.52376869  0.012592702            0   0.51117599    1.5040982    2.0278669  -0.76395474 
 3800000   0.99331207 -1.322149e-05   0.54091106  0.016459267            0   0.52445179    1.4825183    2.0234293    1.1095599 
 3805000     1.015336 7.7111549e-06   0.49627775 0.0060270244            0   0.49025073    1.5153889    2.0116667    2.5446617 
 3810000    1.0127859 1.0093072e-05   0.48866392  0.023396217            0    0.4652677     1.511583    2.0002469      2.69788 
 3815000    1.0321083 -2.433558e-05    0.4462585    0.0225697            0    0.4236888    1.5404216    1.9866801   0.30460482 
 3820000   0.98540025 2.1259025e-05   0.52482876  0.010121012            0   0.51470775    1.4707099    1.9955386    3.4649625 
 3825000   0.97954789 -1.9375759e-05    0.5213633  0.013048714            0   0.50831459    1.4619752    1.9833385   0.64408604 
 3830000    0.9585786 -5.985375e-06   0.53331529  0.026169552            0   0.50714574    1.4306786    1.9639939    1.5502847 
 3835000   0.99584381 9.7865894e-06    0.4818608  0.011160648            0   0.47070016    1.4862969    1.9681577    2.6446068 
 3840000    1.0091154 -2.7948583e-05   0.46562346 0.0044240063            0   0.46119945    1.5061047    1.9717281  0.039922074 
 3845000   0.97519165 -3.2774377e-05   0.52668521 0.0079198987            0   0.51876531    1.4554735    1.9821587  -0.28320621 
 3850000    1.0644483 -1.5387131e-05   0.39789808  0.013882819            0   0.38401526    1.5886891    1.9865872    0.9230287 
 3855000   0.97288576 -2.5202145e-05   0.52602542  0.015443156            0   0.51058226     1.452032    1.9780574   0.23608517 
 3860000   0.95635272 2.2633959e-05    0.5422803  0.012490619            0   0.52978968    1.4273564    1.9696367     3.534096 
 3865000    1.0259706 -1.2781212e-05   0.42593777   0.01082277            0     0.415115    1.5312612    1.9571989    1.0737616 
 3870000    0.9671135 -0.00010205967   0.51444682 0.0085892388            0   0.50585759    1.4434169    1.9578637   -5.0965007 
 3875000   0.98423994 7.6308931e-05    0.4845723  0.004211098            0    0.4803612    1.4689781    1.9535504    7.2280237 
 3880000    1.0309565 -4.8521823e-06     0.428582 0.0036422671            0   0.42493973    1.5387025    1.9672845    1.6319017 
 3885000   0.95676494 -2.5731239e-05   0.54774371  0.022281436            0   0.52546228    1.4279717    1.9757154   0.19717214 
 3890000    1.0028712 1.816772e-05   0.48756562  0.028006924            0    0.4595587    1.4967853    1.9843509    3.2401037 
 3895000    1.0224539 3.1271068e-05   0.44903268  0.028448669            0   0.42058401    1.5260124    1.9750451    4.1365013 
 3900000    1.0142392 -2.3125228e-06   0.48432474  0.020445273            0   0.46387947     1.513752    1.9980768    1.8382352 
 3905000   0.98658465 -2.5170537e-05   0.53045821    0.0251098            0   0.50534841    1.4724776    2.0029358   0.26314825 
 3910000     1.076169 -1.6325637e-05   0.40926722  0.013177695            0   0.39608953    1.6061823    2.0154495   0.88702145 
 3915000     1.008358 2.8700669e-05   0.50590502 0.0053275164            0    0.5005775    1.5049743    2.0108794    3.9946696 
 3920000     1.022517 2.6932811e-05   0.46771267   0.01237098            0   0.45534169    1.5261066    1.9938193    3.8554152 
 3925000   0.98829648 -9.388112e-06   0.52917734  0.021560672            0   0.50761667    1.4750325    2.0042098    1.3553035 
 3930000    1.0060403 -2.4753327e-05    0.4957722 0.0085519562            0   0.48722025    1.5015152    1.9972874   0.28633743 
 3935000    1.0004771 2.2002353e-05   0.49975699  0.013022202            0   0.48673479     1.493212     1.992969    3.5137717 
 3940000    1.0203639 3.4736724e-06   0.47696851    0.0178078            0   0.45916071    1.5228931    1.9998616    2.2399618 
 3945000    1.0335937 -2.0401859e-05   0.44737498  0.023947941            0   0.42342704    1.5426386    1.9900136   0.57983704 
 3950000   0.99420914 -3.5950585e-05   0.50349237  0.028540066            0   0.47495231    1.4838571    1.9873495   -0.4975549 
 3955000    1.0377068 3.4657501e-05   0.43356402  0.013423995            0   0.42014003    1.5487774    1.9823414    4.3778679 
 3960000   0.96098264 -4.0670417e-06   0.54303632  0.021383209            0   0.52165311    1.4342666    1.9773029     1.696189 
 3965000    1.0125037 3.6908122e-05   0.43986942  0.015168098            0   0.42470133    1.5111618    1.9510312    4.5021206 
 3970000    0.9748135 -2.5893146e-05   0.48762287 0.0066951613            0   0.48092771    1.4549091     1.942532   0.15279774 
 3975000    1.0123672 4.5376116e-05   0.44114996  0.010338034            0   0.43081193    1.5109581     1.952108    5.0885051 
 3980000   0.97108528 -2.2606242e-05   0.50268137  0.012503201            0   0.49017817    1.4493448    1.9520261   0.38948268 
 3985000   0.98082133 2.1546373e-05   0.46849278 0.0065921549            0   0.46190063    1.4638758    1.9323686     3.421654 
 3990000     0.990025 -1.8748693e-06   0.47620183  0.028318541            0   0.44788329    1.4776123    1.9538141    1.8242232 
 3995000   0.99988421 1.5030036e-05   0.46282388  0.031269235            0   0.43155464    1.4923272    1.9551511    2.9940271 
 4000000   0.99786696 -1.919567e-05   0.48139584  0.017016413            0   0.46437943    1.4893164    1.9707123   0.64390759 
 4005000   0.98757934 -1.6415398e-05   0.48917366   0.01934009            0   0.46983357    1.4739622    1.9631358   0.82850351 
 4010000    1.0314672 3.4218562e-06    0.4147246  0.018130856            0   0.39659374    1.5394647    1.9541893     2.190708 
 4015000    0.9710484 -1.1796924e-05   0.50084324   0.01469517            0   0.48614807    1.4492897     1.950133    1.1347296 
 4020000   0.99203318 -3.8473938e-06   0.47050659  0.020602591            0     0.449904    1.4806095    1.9511161    1.6851843 
 4025000    1.0123298 -6.2096732e-06   0.43835939  0.014381935            0   0.42397745    1.5109022    1.9492615    1.5200489 
 4030000    1.0068614 2.3924975e-05   0.45175489  0.012163646            0   0.43959125    1.5027407    1.9544956    3.6081899 
 4035000    0.9955772 3.8838107e-05   0.45368386 0.0079609471            0   0.44572291     1.485899    1.9395828    4.6240728 
 4040000    0.9889783 -6.8112777e-06   0.46823664 0.0054213348            0   0.46281531    1.4760501    1.9442868    1.4734912 
 4045000    1.0154604 2.2369954e-05   0.40812686 0.0098414957            0   0.39828536    1.5155746    1.9237015    3.4699127 
 4050000   0.96195232 -7.6918231e-05   0.49160951 0.0075442223            0   0.48406528    1.4357138    1.9273233   -3.3892648 
 4055000   0.97539564 -5.2663562e-05     0.477667  0.018074131            0   0.45959287     1.455778     1.933445   -1.7066604 
 4060000    1.0211451 1.9101334e-05     0.407719    0.0184635            0    0.3892555    1.5240591    1.9317781    3.2520623 
 4065000   0.98098256 3.0706978e-05   0.46268708  0.010532556            0   0.45215452    1.4641165    1.9268035    4.0492698 
 4070000   0.98600026 1.998409e-05    0.4686198 0.0079262353            0   0.46069356    1.4716054    1.9402252    3.3215255 
 4075000    1.0229897 -1.0444623e-05   0.42426573 0.0030775567            0   0.42118818    1.5268122    1.9510779    1.2291456 
 4080000     1.010171 -5.1701765e-05   0.44937872 0.0042481759            0   0.44513054    1.5076802     1.957059   -1.6165671 
 4085000   0.97910957 -6.3395179e-06   0.52064266 0.0036448336            0   0.51699783     1.461321    1.9819637    1.5437762 
 4090000     1.028152 -3.8462417e-05    0.4603239 0.0097077321            0   0.45061617    1.5345168    1.9948407  -0.66368151 
 4095000    1.0120338 1.2946958e-06   0.48342645 0.0075664163            0   0.47586003    1.5104604    1.9938869    2.0833763 
 4100000    1.0269999 7.8349336e-05   0.46941758   0.01652614            0   0.45289144    1.5327973    2.0022149     7.417721 
 4105000    1.0063575 7.4922971e-05   0.48659057 0.0064097555            0   0.48018081    1.5019886    1.9885791    7.1672549 
 4110000    1.0291449 -1.4972018e-06   0.45982524 0.0047374229            0   0.45508782    1.5359988    1.9958241    1.8923375 
 4115000   0.99449529 -4.8551475e-05   0.49919844 0.0063250124            0   0.49287342    1.4842842    1.9834827   -1.3723953 
 4120000   0.99723592 7.8038325e-06   0.49429289  0.012799591            0    0.4814933    1.4883746    1.9826675    2.5220684 
 4125000    1.0229655 -9.3630587e-06   0.44096825 0.0073369732            0   0.43363128     1.526776    1.9677442    1.3205696 
 4130000    1.0360021 -3.1834711e-05   0.41804719  0.017913601            0   0.40013359    1.5462332    1.9642804  -0.23613486 
 4135000   0.98885524 -5.4183921e-05   0.47626868  0.027815514            0   0.44845317    1.4758664    1.9521351   -1.7930575 
 4140000   0.97601415 2.2083979e-05   0.48084741  0.049046322            0   0.43180109    1.4567011    1.9375485    3.4639931 
 4145000   0.95054563 5.1609296e-06   0.52434923  0.023422882            0   0.50092634    1.4186893    1.9430386     2.299762 
 4150000    1.0228844 2.3048005e-05   0.42549741 0.0099438674            0   0.41555354    1.5266549    1.9521524    3.5452305 
 4155000     1.030218 2.4712061e-05   0.42730293  0.013585941            0   0.41371699    1.5376004    1.9649034    3.6730011 
 4160000    1.0358862 -1.4331327e-05   0.43521907  0.008235273            0    0.4269838    1.5460602    1.9812793     0.990698 
 4165000     1.021868 -5.431747e-05   0.45757639 0.0034457175            0   0.45413067     1.525138    1.9827144   -1.7717091 
 4170000    1.0117793 4.2459249e-05   0.47916223  0.026044333            0    0.4531179    1.5100805    1.9892428    4.9240261 
 4175000    1.0011219 -6.8328105e-05   0.51520003  0.011561453            0   0.50363858    1.4941744    2.0093744   -2.7134642 
 4180000    1.0482792 -3.9031478e-05   0.46028288 0.0087998109            0   0.45148307    1.5645567    2.0248396  -0.67301623 
 4185000    1.0704235 1.8480041e-05   0.42253334  0.011286643            0    0.4112467    1.5976071    2.0201405    3.2974809 
 4190000   0.96973609 -1.3633979e-05   0.55217772  0.016631751            0   0.53554597    1.4473311    1.9995088    1.0571282 
 4195000    1.0390708 -3.021757e-06   0.45731845  0.004617969            0   0.45270048    1.5508132    2.0081317    1.7992678 
 4200000    1.0430187 -7.5579939e-05   0.44509971  0.009796816            0   0.43530289    1.5567054    2.0018051   -3.2222803 
 4205000    1.0317149 4.7003083e-05   0.46929653  0.025446621            0   0.44384991    1.5398346    2.0091311    5.2579842 
 4210000    1.0146795 2.8255531e-05   0.50292614   0.03159566            0   0.47133048    1.5144091    2.0173353    3.9703575 
 4215000    1.0389098 -3.300416e-05   0.45469322 0.0059078206            0    0.4487854    1.5505728     2.005266  -0.27598152 
 4220000   0.99798504 3.2289595e-06   0.49975939 0.0056846354            0   0.49407475    1.4894927    1.9892521    2.2124377 
 4225000    1.0025378 -2.4637345e-05   0.47437646  0.022760259            0   0.45161621    1.4962877    1.9706641   0.26773085 
 4230000   0.99639009 4.5822514e-05   0.48335882  0.029272522            0    0.4540863    1.4871122     1.970471    5.1377232 
 4235000   0.94399261  1.52103e-05   0.54588301  0.014824982            0   0.53105803     1.408909     1.954792    3.0061279 
 4240000   0.96612285 -1.2507735e-05   0.51426284  0.011488713            0   0.50277412    1.4419384    1.9562012    1.0916665 
 4245000    1.0591874 -1.1403613e-05   0.39281022   0.01012303            0   0.38268719    1.5808371    1.9736473    1.1854296 
 4250000   0.99211975 2.4623159e-05   0.50140262  0.010011613            0     0.491391    1.4807387    1.9821413    3.6840941 
 4255000    0.9916683 -7.4374294e-06    0.5085322 0.0040976813            0   0.50443452    1.4800649    1.9885971     1.474522 
 4260000    0.9972592 -5.2570524e-05   0.48176816 0.0067278664            0    0.4750403    1.4884094    1.9701775   -1.6634971 
 4265000   0.96318803 -3.421701e-05   0.52616817 0.0047984485            0   0.52136973    1.4375581    1.9637263  -0.40135345 
 4270000   0.99330225 -8.2202463e-07   0.49261709  0.017760526            0   0.47485656    1.4825036    1.9751207    1.9183023 
 4275000   0.98417379 -3.8498749e-05   0.52434304  0.030972206            0   0.49337083    1.4688794    1.9932224   -0.6678111 
 4280000    1.0084904 -2.2126353e-05    0.4899727  0.013547356            0   0.47642534    1.5051719    1.9951446    0.4657711 
 4285000   0.95201812 2.5086785e-05   0.57522885 0.0071444965            0   0.56808436     1.420887    1.9961159    3.7301145 
 4290000    1.0367463 -4.3485074e-06   0.45148497  0.015481496            0   0.43600347    1.5473439    1.9988289      1.69826 
 4295000    1.0252241 -7.0838155e-06   0.48300743  0.013798131            0    0.4692093     1.530147    2.0131544    1.5235211 
 4300000    1.0412972 4.0731184e-05   0.46406547 0.0095321806            0   0.45453328    1.5541361    2.0182015     4.833541 
 4305000    1.0172337 -2.1659684e-05   0.50006825  0.029635325            0   0.47043293    1.5182213    2.0182896   0.52117217 
 4310000   0.95679358 -1.9220202e-05   0.58991269  0.013825232            0   0.57608746    1.4280144    2.0179271   0.68942676 
 4315000    1.0208539 -8.8165203e-05   0.50311231  0.014790822            0   0.48832149    1.5236244    2.0267367   -4.0672421 
 4320000    1.0612584 6.1991481e-06   0.42665266  0.010992584            0   0.41566008    1.5839282    2.0105809     2.439066 
 4325000   0.99738614 2.5324652e-05   0.52711794  0.010682546            0    0.5164354    1.4885988    2.0157168    3.7661567 
 4330000    1.0306029 -4.3224236e-06   0.48539805  0.017936662            0   0.46746139    1.5381748    2.0235728    1.7248069 
 4335000   0.99487412 7.4031017e-06   0.52744819  0.040209578            0   0.48723861    1.4848496    2.0122978    2.5240002 
 4340000   0.98786438 -1.3172968e-05   0.52896612  0.025667392            0   0.50329873    1.4743876    2.0033537    1.0928381 
 4345000    1.0240115 7.6906472e-05   0.47301898  0.013251975            0   0.45976701    1.5283372    2.0013562    7.3171315 
 4350000    1.0119477 -2.965266e-05   0.46864991 0.0067284633            0   0.46192144     1.510332    1.9789819 -0.070609962 
 4355000   0.95236408 -9.7781672e-05   0.54736418  0.017945094            0   0.52941909    1.4214034    1.9687676   -4.7899016 
 4360000   0.93223547 -1.8033331e-05   0.57245288  0.010820902            0   0.56163198    1.3913614    1.9638143    0.7173505 
 4365000   0.95267469 -2.1883398e-05   0.53921882  0.008745447            0   0.53047337     1.421867    1.9610858   0.44850529 
 4370000    1.0556745 1.4313903e-05   0.38395515   0.00831851            0   0.37563664    1.5755942    1.9595493    2.9489263 
 4375000   0.99321788 -2.1462909e-05   0.49049141 0.0048748149            0    0.4856166    1.4823777    1.9728691   0.48935287 
 4380000   0.99992681 1.0793196e-05   0.45919969 0.0022684227            0   0.45693126    1.4923908    1.9515905    2.6976161 
 4385000   0.97908871 4.8923028e-05   0.47566549 0.0015741224            0   0.47409136    1.4612899    1.9369554     5.318515 
 4390000   0.97687467 3.7238565e-05   0.46150787  0.012488482            0   0.44901939    1.4579854    1.9194933    4.4934229 
 4395000   0.95609983 -2.2553417e-05   0.49225828  0.030995237            0   0.46126304     1.426979    1.9192373   0.36034509 
 4400000      0.96309 1.9376235e-05    0.4930644  0.025657555            0   0.46740684    1.4374118    1.9304762    3.2697616 
 4405000   0.93397265 5.9827245e-05   0.50501244  0.012153465            0   0.49285897    1.3939542    1.8989666    6.0342258 
 4410000   0.98767167 1.2575234e-05   0.41677955  0.012173178            0   0.40460637       1.4741    1.8908795    2.7600797 
 4415000   0.91255955 -4.6129474e-05    0.5337836  0.012893982            0   0.52088962    1.3619951    1.8957787   -1.2926905 
 4420000    0.9175178 -4.1099776e-05   0.50507635  0.010609056            0   0.49446729    1.3693953    1.8744717  -0.96634486 
 4425000   0.93329905 -1.0046498e-05   0.48104926  0.017967135            0   0.46308212    1.3929488    1.8739981    1.1795841 
 4430000   0.93202965 8.3274316e-06    0.4763638  0.038513444            0   0.43785036    1.3910543    1.8674181    2.4430101 
 4435000   0.92654782 -1.7400449e-05   0.50426923  0.019405728            0    0.4848635    1.3828726    1.8871419   0.68442283 
 4440000      0.90987 -5.583025e-06   0.54835826  0.012425282            0   0.53593298     1.357981    1.9063392    1.5204405 
 4445000   0.90309933 -2.6450263e-05   0.53734788  0.021279025            0   0.51606885    1.3478758    1.8852236  0.056981473 
 4450000   0.92575864 -3.3344924e-05   0.50091707 0.0050479384            0   0.49586913    1.3816948    1.8826118  -0.42218929 
 4455000   0.92041459 3.1717031e-05   0.52896421  0.003268697            0   0.52569551    1.3737188     1.902683    4.0949642 
 4460000   0.94731716 -4.231694e-05   0.49123304 0.0070019124            0   0.48423112    1.4138709    1.9051039    -1.019843 
 4465000   0.94102182 1.6054042e-05   0.51216912  0.020907266            0   0.49126185    1.4044751    1.9166442    3.0262995 
 4470000    0.9280939 -3.036886e-05   0.53574288  0.025642503            0   0.51010037    1.3851802     1.920923  -0.17817258 
 4475000    0.9699699 -2.0096157e-05   0.47226323  0.010415986            0   0.46184724    1.4476801    1.9199433   0.53089696 
 4480000   0.93157587 3.5534172e-05    0.5358702 0.0070120097            0   0.52885819     1.390377    1.9262472    4.3823691 
 4485000   0.92711126 -8.4040809e-05   0.54553978 0.0067571467            0   0.53878263    1.3837136    1.9292533   -3.8796474 
 4490000   0.96746184 6.1951871e-06   0.46444967 0.0082797304            0   0.45616994    1.4439368    1.9083865    2.3365978 
 4495000   0.90895282 2.0822364e-05   0.57876909  0.013533819            0   0.56523527    1.3566121    1.9353812     3.374623 
 4500000   0.89478254 -2.6701795e-07   0.57905432  0.005305568            0   0.57374875    1.3354629    1.9145173     1.896061 
 4505000   0.92442924 -3.6297953e-06   0.53768956 0.0013082109            0   0.53638135    1.3797106    1.9174002    1.6665088 
 4510000   0.94883016 3.8853886e-05   0.50609679 0.0095178731            0   0.49657892     1.416129    1.9222258    4.6078064 
 4515000   0.96160953 2.9835527e-05   0.50894303  0.024509992            0   0.48443304    1.4352022    1.9441453    4.0063769 
 4520000   0.92619403 -3.0246143e-05   0.58201753  0.019201482            0   0.56281605    1.3823446    1.9643621   -0.1262513 
 4525000   0.95585619 -5.8534354e-05   0.52560514 0.0026669736            0   0.52293816    1.4266154    1.9522205   -2.0936741 
 4530000   0.97133129 -6.427817e-05   0.49456209  0.002258031            0   0.49230405     1.449712     1.944274   -2.4986331 
 4535000   0.92280218 -8.3421928e-07   0.57252173  0.001562789            0   0.57095894    1.3772823     1.949804    1.8921427 
 4540000   0.94323724 1.9746263e-05   0.54260769 0.0033318933            0   0.53927579    1.4077816    1.9503893    3.3152509 
 4545000   0.90106472 -3.4109455e-06   0.60227667 0.0072897415            0   0.59498693    1.3448391    1.9471158    1.7113512 
 4550000   0.95425061 8.4143322e-05   0.52093559 0.0081268531            0   0.51280873     1.424219    1.9451546     7.761141 
 4555000   0.95068686 2.621641e-05   0.52551387 0.0079747088            0   0.51753916    1.4189001     1.944414    3.7564923 
 4560000   0.89787812 -5.3178774e-05   0.62160326 0.0087196185            0   0.61288365    1.3400831    1.9616864   -1.7140305 
 4565000   0.95616768 2.672115e-05   0.54641133  0.014387671            0   0.53202366    1.4270803    1.9734916    3.8204575 
 4570000   0.90344109 4.1894018e-05   0.60769996  0.014540166            0    0.5931598    1.3483858    1.9560858    4.8518003 
 4575000   0.96924264 2.5675733e-05     0.504076  0.020081157            0   0.48399484    1.4465946    1.9506706    3.7253773 
 4580000   0.89950713 -5.4346812e-06   0.59501944 0.0071760605            0   0.58784338    1.3425144    1.9375338    1.5618887 
 4585000    0.9459404 -2.0891263e-05   0.50617527 0.0090972477            0   0.49707802    1.4118161    1.9179913   0.47398721 
 4590000   0.97833462 1.5577886e-05   0.46943022  0.010915478            0   0.45851474    1.4601644    1.9295946    3.0063381 
 4595000   0.91228978 -3.2387835e-05   0.57575342  0.011670429            0     0.564083    1.3615925    1.9373459  -0.30130126 
 4600000   0.98181758 2.1128854e-05   0.48942349  0.028452249            0   0.46097124    1.4653627    1.9547862    3.4152126 
 4605000    0.9417118 3.2109317e-05   0.54676484  0.039034744            0    0.5077301    1.4055049    1.9522697    4.1716657 
 4610000    0.8438651 3.8235286e-05   0.67900134  0.029885697            0   0.64911565    1.2594687      1.93847     4.581293 
 4615000   0.94195064 6.3440134e-05   0.54249809  0.018570048            0   0.52392804    1.4058613    1.9483594    6.3333415 
 4620000   0.95331086 -1.3404545e-05   0.53720296   0.01621493            0   0.52098803    1.4228165    1.9600194    1.0334973 
 4625000   0.95360341 -2.490774e-05   0.53440974  0.028457676            0   0.50595207    1.4232531    1.9576628   0.23603982 
 4630000   0.97233441 7.5615204e-05   0.50763173  0.033962825            0    0.4736689    1.4512091    1.9588408    7.1853638 
 4635000    1.0081164 -1.9466447e-05   0.45965735 0.0093617441            0   0.45029561    1.5046138    1.9642711   0.61875033 
 4640000   0.90574134 -8.2129866e-05   0.59775947  0.006249582            0   0.59150988     1.351819    1.9495784   -3.7272379 
 4645000   0.94990865 -5.4743666e-06   0.53323588  0.013991954            0   0.51924393    1.4177387    1.9509745    1.5725863 
 4650000   0.93483499 -2.4378769e-05    0.5186367  0.010927652            0   0.50770905    1.3952412    1.9138779   0.22881744 
 4655000    0.8998037 -4.1267354e-05   0.58095966 0.0054972035            0   0.57546245     1.342957    1.9239167  -0.92848282 
 4660000   0.93808793 2.1454879e-05   0.51459001 0.0063839293            0   0.50820608    1.4000962    1.9146862    3.3976475 
 4665000   0.93562525 -4.8090044e-05   0.53750469 0.0020208105            0   0.53548388    1.3964207    1.9339254   -1.3900585 
 4670000   0.93918404 -3.8765941e-05   0.53934547 0.0017125604            0   0.53763291    1.4017322    1.9410777  -0.73842416 
 4675000    0.9239451 -4.8287612e-06   0.57262013   0.03884133            0    0.5337788    1.3789881    1.9516082    1.6178442 
 4680000   0.96652971 -2.1522625e-05   0.52248566  0.025240608            0   0.49724506    1.4425456    1.9650313   0.47738738 
 4685000   0.93595654 4.8916814e-05   0.56719257  0.012256066            0    0.5549365    1.3969151    1.9641077    5.3452379 
 4690000   0.95890096 2.2364706e-05   0.51372149  0.014447826            0   0.49927366    1.4311597    1.9448812    3.4907296 
 4695000   0.98424786 1.6428731e-05   0.48814473  0.013413733            0   0.47473099    1.4689899    1.9571347    3.0926886 
 4700000   0.95059325 -2.6070922e-05   0.54581324 0.0046972402            0     0.541116    1.4187604    1.9645737   0.16255152 
 4705000   0.94846329 1.4250829e-06   0.55271885 0.0092298966            0   0.54348895    1.4155815    1.9683003     2.066802 
 4710000   0.94748847 8.7972334e-06   0.52747029   0.01535348            0   0.51211681    1.4141265    1.9415968    2.5496616 
 4715000   0.92386818 -1.593007e-05   0.56011494     0.019157            0   0.54095794    1.3788733    1.9389882   0.83790177 
 4720000    0.9729331 8.5483749e-06   0.49207779  0.013078654            0   0.47899913    1.4521026    1.9441804    2.5350441 
 4725000   0.93743308 -3.9093746e-05   0.54002905 0.0082447052            0   0.53178434    1.3991189    1.9391479  -0.76301179 
 4730000   0.99211352 3.8676981e-05   0.46940982 0.0062897795            0   0.46312004    1.4807294    1.9501392    4.6234922 
 4735000   0.91129084 2.3084924e-05    0.5866577  0.016530759            0   0.57012694    1.3601016    1.9467593    3.5423892 
 4740000   0.89345723 -3.5744487e-05   0.61650872  0.028006004            0   0.58850272    1.3334849    1.9499936  -0.52066531 
 4745000   0.93002784 -1.0247602e-05   0.56241964  0.043373172            0   0.51904647    1.3880666    1.9504862    1.2421719 
 4750000   0.98188286 2.3708324e-05   0.49465454  0.015858521            0   0.47879601    1.4654602    1.9601147    3.5988341 
 4755000   0.95603025  3.80061e-05   0.53964652 0.0066434922            0   0.53300303    1.4268752    1.9665217    4.5935033 
 4760000   0.91242048 -4.0168996e-05   0.58593757 0.0088304974            0   0.57710707    1.3617876    1.9477251  -0.82875586 
 4765000   0.94567442 1.264829e-06   0.54628234 0.0089030657            0   0.53737927    1.4114191    1.9577014    2.0451264 
 4770000    1.0116291 4.9463513e-05   0.45153549 0.0082566669            0   0.44327882    1.5098565     1.961392      5.38031 
 4775000   0.95641496 3.0126181e-05    0.5552861 0.0030636477            0   0.55222245    1.4274493    1.9827354    4.0650571 
 4780000   0.96095394 -3.0169372e-05    0.5614141  0.006217884            0   0.55519621    1.4342238    1.9956379  -0.08966914 
 4785000    1.0318497 4.0916712e-06   0.46348671 0.0045994254            0   0.45888729    1.5400357    2.0035224    2.2863387 
 4790000   0.95643836 9.0700893e-06   0.56656331 0.0053696466            0   0.56119366    1.4274843    1.9940476    2.6209721 
 4795000   0.99303807 -5.9639944e-05   0.51588027    0.0123292            0   0.50355107    1.4821093    1.9979896   -2.1243233 
 4800000   0.99298413 -2.8729174e-05   0.51483806 0.0052262816            0   0.50961178    1.4820288    1.9968669  0.011106386 
 4805000    1.0076715 -2.5705699e-05   0.49243721 0.0015886197            0   0.49084859    1.5039498     1.996387   0.21960905 
 4810000   0.92574042 2.3111147e-06   0.62230432 0.0033058716            0   0.61899844    1.3816676    2.0039719    2.1637161 
 4815000   0.99248334 -3.183256e-05   0.53234729 0.0047990524            0   0.52754824    1.4812814    2.0136287  -0.18663788 
 4820000    1.0110343 -7.8014301e-06   0.51014874 0.0072323562            0   0.50291638    1.5089687    2.0191174    1.4798826 
 4825000    1.0019713 -1.6614838e-05   0.54794196  0.016725291            0   0.53121666    1.4954421    2.0433841   0.89496646 
 4830000   0.99435631 -1.1210281e-05   0.53356387  0.030747126            0   0.50281674    1.4840768    2.0176407    1.2427861 
 4835000     1.003229 -8.273742e-06   0.53791955  0.013568731            0   0.52435081    1.4973193    2.0352388    1.4633578 
 4840000    1.0122398 -7.9223413e-07   0.55370675  0.014000637            0   0.53970612    1.5107679    2.0644746    2.0097154 
 4845000    1.0185013 -3.7461044e-05   0.54095946  0.019561231            0   0.52139823    1.5201132    2.0610727  -0.52823469 
 4850000    1.0426068 -5.4003051e-05   0.50712569 0.0083560036            0   0.49876969    1.5560907    2.0632164   -1.6694745 
 4855000    1.0145171 -9.7832593e-06   0.55004831 0.0049729668            0   0.54507534    1.5141668    2.0642151    1.3879962 
 4860000    1.0271238 -2.7649759e-05   0.52780154 0.0044928464            0    0.5233087    1.5329823    2.0607838   0.14963244 
 4865000    1.0227967 -4.1717742e-05   0.53923933 0.0063612064            0   0.53287812    1.5265241    2.0657634  -0.81776691 
 4870000    1.0127119 -7.7652869e-06   0.55760289  0.028408636            0   0.52919425    1.5114725    2.0690753    1.5323387 
 4875000    1.0712834 -2.7512045e-05   0.47654628  0.018453369            0   0.45809291    1.5988905    2.0754367   0.17380416 
 4880000    1.0448014 -3.7624321e-05   0.51943523  0.010714727            0    0.5087205    1.5593661    2.0788013  -0.52179181 
 4885000    1.0587454 7.7943763e-06   0.50450879  0.013257566            0   0.49125123    1.5801775    2.0846863    2.6234336 
 4890000    1.0155313 -9.9342628e-06   0.57760257 0.0065469115            0   0.57105566    1.5156805    2.0932831    1.4066268 
 4895000    1.0740021 -1.5820576e-05   0.47745245 0.0038860113            0   0.47356644    1.6029481    2.0804005   0.98688231 
 4900000    1.0776697 5.1015389e-07   0.48385236 0.0056549926            0   0.47819737    1.6084221    2.0922744    2.1275363 
 4905000     1.018867 -2.4077685e-06   0.57198591 0.0025064572            0   0.56947946    1.5206589    2.0926449    1.9262199 
 4910000     1.044591 -2.3672352e-05    0.5280313 0.0080020904            0   0.52002921    1.5590521    2.0870834   0.45085043 
 4915000   0.99868201 -3.4203596e-05   0.59004194  0.016392112            0   0.57364983    1.4905329    2.0805748  -0.28357773 
 4920000    1.0059231 4.1172815e-06   0.56931305  0.011643806            0   0.55766924    1.5013402    2.0706532    2.3552397 
 4925000    1.0142334 1.1144968e-05   0.56377994 0.0036134056            0   0.56016653    1.5137433    2.0775232    2.8478634 
 4930000    1.0214018  8.93439e-07    0.5449273 0.0054898808            0   0.53943742    1.5244422    2.0693695     2.131124 
 4935000    1.0038169 1.6823423e-06   0.56350359  0.022325437            0   0.54117816    1.4981968    2.0617004    2.1779839 
 4940000    1.0090416 1.0955909e-05   0.54660025  0.011708999            0   0.53489125    1.5059946    2.0525948    2.8098673 
 4945000    1.0440785 3.969683e-05   0.51455177 0.0037823641            0   0.51076941    1.5582871    2.0728389    4.8166838 
 4950000   0.99702653 6.085956e-06   0.59386703 0.0087539266            0    0.5851131    1.4880621    2.0819291    2.5025904 
 4955000    1.0374137 -2.5222197e-05   0.52269745  0.021197196            0   0.50150026    1.5483399    2.0710374   0.32767914 
 4960000   0.99022919 -5.350566e-05   0.56658346  0.021254353            0   0.54532911    1.4779171    2.0445005   -1.6538107 
 4965000    1.0149515 -1.4957183e-05    0.5066014  0.017000448            0   0.48960095    1.5148151    2.0214165   0.98757603 
 4970000   0.97015193 -2.2993713e-05   0.55500255  0.015695581            0   0.53930697    1.4479518    2.0029543   0.41362885 
 4975000    1.0054491 -7.929628e-05   0.49540966  0.013047214            0   0.48236245    1.5006328    1.9960425   -3.4849164 
 4980000    1.0116507 -2.0010218e-05   0.48787775 0.0082137483            0   0.47966401    1.5098887    1.9977665   0.61466022 
 4985000   0.97030185 2.2900057e-05   0.53804639 0.0049267416            0   0.53311965    1.4481755    1.9862219    3.5690739 
 4990000    0.9829119 6.011319e-05   0.51493914  0.007027969            0   0.50791117     1.466996    1.9819351    6.1369589 
 4995000   0.97321685 -4.475912e-06   0.51799259   0.01018042            0   0.50781217    1.4525262    1.9705187    1.6611437 
 5000000    0.9552642 -1.9534658e-05    0.5438854 0.0086878593            0   0.53519754    1.4257318    1.9696172   0.61938168 
 5005000   0.97316168 1.0658101e-05   0.51671127  0.013654581            0   0.50305669    1.4524438    1.9691551    2.7058431 
 5010000   0.97247303 -6.1465774e-05   0.51762938  0.020081874            0    0.4975475     1.451416    1.9690454   -2.2794689 
 5015000   0.97348142 -1.7362459e-05   0.52132956  0.017322117            0   0.50400744     1.452921    1.9742506   0.77415742 
 5020000   0.99290904 7.1658833e-06   0.49390677  0.011636208            0   0.48227056    1.4819167    1.9758235    2.4711294 
 5025000    0.9742125 -1.8511685e-05   0.53162939  0.001311415            0   0.53031797    1.4540122    1.9856415   0.70611384 
 5030000   0.99892621 4.0866407e-05   0.48042732 0.0025301816            0   0.47789714    1.4908974    1.9713247    4.7960107 
 5035000   0.94759044 4.8019241e-05   0.55828476 0.0086773487            0   0.54960741    1.4142787    1.9725635    5.2916534 
 5040000   0.94431489 1.2786152e-05   0.56945666   0.01816177            0   0.55129489      1.40939    1.9788466    2.8626254 
 5045000   0.94484622 3.9035452e-05   0.53479507 0.0086445446            0   0.52615053     1.410183    1.9449781    4.6431085 
 5050000   0.99633285 2.6995198e-05   0.44824006  0.013769678            0   0.43447038    1.4870268    1.9352668    3.8011749 
 5055000    0.9225824 -1.8416865e-06   0.57222916  0.022069873            0   0.55015929    1.3769542    1.9491834     1.821886 
 5060000    0.9977959 6.3007589e-06   0.47190012  0.022772248            0   0.44912787    1.4892104    1.9611105     2.396619 
 5065000   0.92346565 5.516752e-05   0.58238447  0.014757584            0   0.56762689    1.3782725    1.9606569    5.7738359 
 5070000   0.94162648 1.336129e-05   0.56145048   0.03983419            0   0.52161629    1.4053775     1.966828    2.8903604 
 5075000    0.9643704 -7.737012e-05   0.53945053  0.019590631            0    0.5198599    1.4393228    1.9787733   -3.3690494 
 5080000    1.0281668 -3.0586662e-05    0.4753646  0.015194883            0   0.46016972     1.534539    2.0099036  -0.10424652 
 5085000    1.0095449 -1.6333352e-06   0.52142735  0.020707532            0   0.50071981    1.5067457     2.028173    1.9152769 
 5090000     1.054062 9.2257456e-06   0.46076938  0.022299363            0   0.43847002    1.5731876     2.033957    2.6716405 
 5095000    1.0374994 5.5083773e-06   0.49403934  0.010995611            0   0.48304373    1.5484679    2.0425072    2.4232463 
 5100000     1.030767 1.8931245e-05   0.52082295 0.0056523172            0   0.51517063    1.5384197    2.0592427    3.3677703 
 5105000    1.0889691 4.8090243e-06   0.43895719  0.009096702            0   0.42986049    1.6252864    2.0642436    2.3966434 
 5110000    1.0255595 -1.393033e-05   0.51564855   0.02774159            0   0.48790696    1.5306475    2.0462961    1.0834317 
 5115000    1.0413668 3.0179775e-06   0.50192832  0.013935778            0   0.48799254    1.5542399    2.0561683    2.2647709 
 5120000    1.0178594 -5.1566171e-05   0.54085116  0.014324939            0   0.52652623    1.5191552    2.0600063   -1.5042474 
 5125000    1.0409324 -1.3386723e-05   0.50881257  0.029035851            0   0.47977672    1.5535915    2.0624041    1.1371138 
 5130000    1.0522201  5.68706e-05   0.50379083  0.012563913            0   0.49122692    1.5704385    2.0742294    6.0051252 
 5135000    1.0601968 -1.9196882e-05   0.48803748  0.010316971            0   0.47772051    1.5823438    2.0703812   0.74349275 
 5140000    1.0414284 -6.5686942e-05    0.5194869  0.032739846            0   0.48674705    1.5543319    2.0738188   -2.4664626 
 5145000    1.0019281 -2.9533465e-06   0.56778542  0.031064028            0   0.53672139    1.4953776     2.063163    1.8590277 
 5150000    1.0390992 -2.554357e-05   0.51325531  0.016746148            0   0.49650916    1.5508556    2.0641109   0.29853934 
 5155000    1.0557496 3.7590476e-06   0.49146611  0.034444308            0    0.4570218    1.5757062    2.0671723    2.3269977 
 5160000    1.0153397 -2.9368325e-06   0.52621954  0.028379104            0   0.49784044    1.5153945     2.041614    1.8386202 
 5165000   0.97380044 -3.8712046e-05   0.57596498  0.024770423            0   0.55119456    1.4533972    2.0293621   -0.6464145 
 5170000    1.0475669 4.7489745e-05   0.47011648  0.024984876            0   0.44513161    1.5634936    2.0336101    5.3161012 
 5175000    1.0014176 8.8451422e-06   0.55351464  0.018857551            0   0.53465709    1.4946157    2.0481304    2.6595066 
 5180000    1.0243575 -5.4284922e-05   0.54031858  0.015186536            0   0.52513205    1.5288536    2.0691722   -1.6830016 
 5185000    1.0376551 1.5453413e-05   0.52801483 0.0046449606            0   0.52336987    1.5487002    2.0767151    3.1448549 
 5190000    1.0303222 -3.7602816e-05    0.5527539 0.0033909852            0   0.54936291    1.5377559    2.0905098  -0.50859683 
 5195000    1.0576261 -4.7131764e-05   0.50582246 0.0025341118            0   0.50328835    1.5785069    2.0843294   -1.1734181 
 5200000    1.0124761 -7.6413926e-06    0.5608484 0.0081121886            0   0.55273621    1.5111205    2.0719689    1.5437959 
 5205000    1.0361369 1.0328042e-05   0.53940863  0.012015446            0   0.52739318    1.5464344     2.085843    2.7997173 
 5210000    1.0503904 6.6204472e-06   0.52112677 0.0015079362            0   0.51961883    1.5677077    2.0888345    2.5464398 
 5215000   0.98403109 -2.4263039e-06   0.62052138   0.01079151            0   0.60972987    1.4686664    2.0891878    1.9214817 
 5220000    1.0318021 2.4075093e-05   0.54635825 0.0077650812            0   0.53859317    1.5399646    2.0863229    3.7503933 
 5225000    1.0493646 5.0481505e-05   0.51972308 0.0026701615            0   0.51705292    1.5661766    2.0858997    5.5751813 
 5230000     1.051326 2.4714273e-05   0.50447134 0.0059237982            0   0.49854755    1.5691041    2.0735754     3.781826 
 5235000    1.0475759 -7.2891703e-05   0.49505497 0.0045398231            0   0.49051515    1.5635071    2.0585621   -2.9797125 
 5240000   0.99584457 -8.4556786e-05   0.59176695 0.0075716987            0   0.58419525     1.486298     2.078065   -3.7665001 
 5245000    1.0152787 -9.9406073e-06   0.57855601  0.054103178            0   0.52445283    1.5153035    2.0938595    1.4067647 
 5250000    1.0784839 4.5270065e-05   0.47902262  0.010468985            0   0.46855363    1.6096372    2.0886598    5.2177267 
 5255000    1.0350523 3.1351166e-05   0.53589847  0.004941673            0    0.5309568    1.5448155     2.080714    4.2477066 
 5260000    1.0325365 -2.1606256e-05   0.53892413 0.0047047297            0    0.5342194    1.5410607    2.0799848   0.58656042 
 5265000     1.064724 -5.2637369e-05   0.47338787 0.0068919365            0   0.46649594    1.5891005    2.0624884   -1.5758065 
 5270000    1.0477748 -1.1807561e-06   0.49749584  0.012872243            0    0.4846236    1.5638039    2.0612998    1.9796859 
 5275000    1.0185633 3.9347247e-05   0.54391153  0.017038121            0   0.52687341    1.5202058    2.0641173     4.783799 
 5280000    1.1013636 1.1178535e-05   0.41368076  0.008492438            0   0.40518832    1.6437852    2.0574659    2.8301263 
 5285000    1.0235864 -7.9474092e-06   0.52885477  0.019658747            0   0.50919602    1.5277028    2.0565575    1.5072326 
 5290000    1.0090689 2.8788282e-05    0.5358161    0.0281998            0   0.50761629    1.5060353    2.0418514    4.0316975 
 5295000    1.0374029 5.0369681e-05   0.50004845    0.0117021            0   0.48834635    1.5483238    2.0483722    5.5299246 
 5300000    1.0102687 -1.8943134e-06   0.54609865  0.010556333            0   0.53554232     1.507826    2.0539246    1.9229897 
 5305000   0.99592645 -3.0725942e-05   0.55901841 0.0097887497            0   0.54922966    1.4864202    2.0454386   -0.0783385 
 5310000     1.049682 -2.4122025e-05   0.48694493  0.020300854            0   0.46664408    1.5666504    2.0535954   0.38628096 
 5315000    1.0236024 -2.9274999e-05   0.54101119  0.017944646            0   0.52306654    1.5277266    2.0687378   0.04524992 
 5320000    1.0428381 -6.8785584e-06   0.53024194  0.028806828            0   0.50143511    1.5564359    2.0866778    1.6112318 
 5325000   0.99063055 -7.5673409e-06   0.58712465  0.013211501            0   0.57391315    1.4785161    2.0656407    1.5425861 
 5330000    1.0792313 -1.9572097e-05   0.46840742  0.024414544            0   0.44399287    1.6107528    2.0791602   0.72633681 
 5335000    1.0409115 5.2233498e-05   0.52355182  0.022569894            0   0.50098193    1.5535604    2.0771122    5.6874916 
 5340000    1.0467762 2.1899209e-05   0.53067009 0.0050853339            0   0.52558476    1.5623135    2.0929836    3.6066569 
 5345000    1.0494422 -3.4517941e-05   0.52643832 0.0089738873            0   0.51746443    1.5662925    2.0927309  -0.29314922 
 5350000     1.050526 -3.9483812e-05   0.52791595  0.030013685            0   0.49790226      1.56791     2.095826  -0.63329514 
 5355000    1.0640707 -2.2075067e-05   0.52637484 0.0075710912            0   0.51880375    1.5881255    2.1145003    0.5886717 
 5360000    1.0958027 1.1388787e-05   0.51140896  0.015122922            0   0.49628604    1.6354855    2.1468945    2.9340874 
 5365000    1.0894305 4.4905351e-06   0.52233384  0.013527074            0   0.50880676     1.625975    2.1483089    2.4586946 
 5370000    1.0666288 -4.1078837e-05     0.564727 0.0091523446            0   0.55557465    1.5919435    2.1566705   -0.6826987 
 5375000    1.0770111 -4.6730179e-05   0.54996518 0.0061590651            0   0.54380611    1.6074391    2.1574043   -1.0725857 
 5380000    1.0970886 -7.670585e-07   0.52093131 0.0041245818            0   0.51680673    1.6374048    2.1583361     2.105317 
 5385000    1.0340896 1.7674612e-05   0.63044499 0.0073937416            0   0.62305125    1.5433787    2.1738237    3.3954929 
 5390000    1.0659322 1.6328396e-05   0.58880208  0.013813193            0   0.57498889    1.5909037    2.1797058    3.3083245 
 5395000    1.1064285 -5.3794448e-06   0.50367186  0.019034262            0    0.4846376    1.6513445    2.1550164    1.7831891 
 5400000      1.08824 -5.6722821e-06   0.52266126   0.01825954            0   0.50440172    1.6241982    2.1468595    1.7547913 
 5405000    1.0564997 4.8765949e-05   0.55366959  0.015523384            0    0.5381462    1.5768259    2.1304955    5.5011978 
 5410000    1.0039632 2.692993e-05   0.59945071 0.0088496249            0   0.59060108    1.4984151    2.0978658    3.9592625 
 5415000    1.0374309 -1.9186815e-05   0.52135763 0.00086537596            0   0.52049226    1.5483657    2.0697233   0.74353068 
 5420000    1.1055802 -5.7010182e-06   0.42899756  0.012237107            0   0.41676045    1.6500784     2.079076    1.6850216 
 5425000    1.0504412 -3.3495501e-05   0.49836628   0.01260049            0   0.48576579    1.5677835    2.0661498  -0.24905921 
 5430000    1.0309524 -4.4361209e-05    0.5170044  0.013521669            0   0.50348273    1.5386965    2.0557009   -1.0105458 
 5435000    1.0293374 -2.9296763e-05   0.53422052 0.0048156887            0   0.52940483     1.536286    2.0705065  0.045514287 
 5440000    1.0410096 -7.7800811e-06   0.49297451 0.0044123592            0   0.48856215    1.5537068    2.0466813    1.5089221 
 5445000    1.0242772 -3.3842129e-05   0.52563624 0.0065329899            0   0.51910325    1.5287337      2.05437  -0.28479794 
 5450000     1.030044 -1.351349e-05   0.48584183   0.01156306            0   0.47427876    1.5373407    2.0231825    1.0891301 
 5455000    1.0074786 -1.4167356e-05   0.51092077  0.019188734            0   0.49173204    1.5036618    2.0145826     1.035335 
 5460000    1.0316778 2.2030311e-05   0.48400176  0.015768347            0   0.46823342    1.5397792    2.0237809     3.546516 
 5465000    1.0441171 1.9211575e-05   0.46860732 0.0028000219            0    0.4658073    1.5583447     2.026952    3.3548561 
 5470000    1.0159045 1.3624178e-05   0.52755317 0.00046310901            0   0.52709006    1.5162374    2.0437906    2.9854938 
 5475000    1.0090338 -1.267406e-06   0.52922654  0.003623539            0     0.525603    1.5059829    2.0352094    1.9476063 
 5480000    1.0143284 -6.6138186e-05   0.52132663  0.015402905            0   0.50592373    1.5138851    2.0352117   -2.5362597 
 5485000    1.0266448 -5.4006646e-05   0.49611546  0.010959881            0   0.48515558    1.5322673    2.0283828   -1.7045566 
 5490000    1.0250972 2.3029224e-05   0.51027093 0.0082431356            0   0.50202779    1.5299576    2.0402285    3.6320085 
 5495000     1.003576 -2.3963804e-06   0.55068748  0.012328044            0   0.53835944    1.4978372    2.0485247    1.8828869 
 5500000     1.034002 1.4180934e-05    0.5053954 0.0027610319            0   0.50263437    1.5432479    2.0486433    3.0288295 
 5505000    1.0147211  3.77037e-07   0.52920181 0.0033764988            0   0.52582531    1.5144712     2.043673    2.0697338 
 5510000    1.0033965 -2.6803552e-05   0.54223426 0.0039478616            0   0.53828639    1.4975692    2.0398035   0.18714201 
 5515000    1.0455038 -1.0646557e-05   0.46129838 0.0077578963            0   0.45354049    1.5604144    2.0217128    1.2858228 
 5520000   0.96178405 -4.3024579e-05   0.57584006  0.014448731            0   0.56139133    1.4354627    2.0113028  -0.96255611 
 5525000    1.0022959 -3.229936e-05   0.52094082  0.012374999            0   0.50856582    1.4959266    2.0168674  -0.21566439 
 5530000    1.0107304 8.8935161e-05   0.52391331 0.0057212816            0   0.51819202    1.5085151    2.0324285    8.1796268 
 5535000    1.0268023 -2.6358298e-05   0.49894464 0.0044732412            0   0.49447139    1.5325025    2.0314471    0.2095616 
 5540000   0.96131988 -0.00010303105   0.57498467  0.010022986            0   0.56496169    1.4347699    2.0097546   -5.1117518 
 5545000   0.98742334 2.9117555e-05   0.53235931  0.034817723            0   0.49754159    1.4737293    2.0060886    4.0186941 
 5550000    1.0138297 2.7194274e-05   0.48815761  0.021910673            0   0.46624694    1.5131409    2.0012985    3.8809667 
 5555000   0.96213874 -5.3167912e-05   0.57867925 0.0066520175            0   0.57202723    1.4359921    2.0146713   -1.6602947 
 5560000    1.0396409 -2.5921688e-05    0.4569087 0.0081813781            0   0.44872732     1.551664    2.0085727   0.21686565 
 5565000    1.0205228 -1.5421708e-05   0.50049489 0.0072256707            0   0.49326921    1.5231303    2.0236252   0.95767673 
 5570000    1.0321304 -3.7735369e-05   0.47673605  0.011409428            0   0.46532662    1.5404547    2.0171907  -0.59107801 
 5575000    1.0022437 -3.8510423e-06   0.52055775  0.016103904            0   0.50445384    1.4958487    2.0164065    1.7502224 
 5580000      1.03948 -2.3604567e-05   0.47444987  0.012740191            0   0.46170967    1.5514239    2.0258737   0.39432608 
 5585000     1.024434 -3.194026e-05   0.51911763 0.0028866296            0     0.516231    1.5289678    2.0480854  -0.15962537 
 5590000    1.0650869 1.2866868e-05   0.48397356 0.0019746057            0   0.48199895    1.5896423    2.0736158    2.9629738 
 5595000    1.0645316 3.7599193e-05    0.4826282  0.012016842            0   0.47061136    1.5888135    2.0714417    4.6702979 
 5600000    1.0139974 9.6117287e-06   0.53837062  0.041195954            0   0.49717467    1.5133911    2.0517617    2.7161244 
 5605000    1.0237164 2.1504618e-05   0.52270792  0.025827234            0   0.49688068    1.5278967    2.0506046    3.5370038 
 5610000    1.0543275 4.4367893e-05   0.49628883 0.0076968602            0   0.48859197    1.5735838    2.0698726    5.1365814 
 5615000    1.0799351 -9.4508102e-06   0.46612276 0.0012851304            0   0.46483763    1.6118031    2.0779259    1.4246859 
 5620000    1.0693416 -7.9982868e-05    0.4766859 0.0030530429            0   0.47363285    1.5959924    2.0726783   -3.4557375 
 5625000    1.0299493 -7.0535058e-05   0.52611323  0.010810669            0   0.51530257    1.5371994    2.0633126   -2.8120706 
 5630000     1.050975 2.4478936e-05   0.49362034  0.015405121            0   0.47821522    1.5685802    2.0622006    3.7541846 
 5635000    1.0472248 3.0564924e-05   0.47801535  0.010902102            0   0.46711325     1.562983    2.0409984    4.1536459 
 5640000   0.97342601 -1.1504981e-05    0.5776033  0.017823584            0   0.55977972    1.4528383    2.0304416    1.2352173 
 5645000    1.0672378 2.4508463e-05   0.45254186  0.014178108            0   0.43836375    1.5928524    2.0453943    3.7394193 
 5650000    1.0563603 1.1736865e-06   0.44785173 0.0083715838            0   0.43948015    1.5766178    2.0244695    2.1055947 
 5655000    1.0526818 -2.1885359e-05   0.44115672  0.015667378            0   0.42548934    1.5711275    2.0122842   0.49956822 
 5660000    1.0206714 -4.8210672e-05   0.50389193  0.034901138            0   0.46899079    1.5233521     2.027244   -1.3050776 
 5665000    1.0682387 -8.0803439e-06   0.44520993  0.019746335            0   0.42546359    1.5943462    2.0395562    1.4810428 
 5670000    1.0108766 7.5703257e-05   0.51420725   0.01999836            0   0.49420889    1.5087334    2.0229406    7.2555498 
 5675000    1.0256487 -8.3736066e-06   0.49642163  0.021119173            0   0.47530245    1.5307806    2.0272022    1.4484186 
 5680000    1.0534122 -1.4013846e-05   0.46064923  0.010577432            0   0.45007179    1.5722177    2.0328669    1.0642299 
 5685000    1.0556072 3.4303322e-06    0.4480248 0.0066140773            0   0.44141072    1.5754938    2.0235186    2.2606231 
 5690000   0.99789653 -2.568802e-06   0.52209122  0.011868756            0   0.51022246    1.4893606    2.0114518    1.8338962 
 5695000   0.96960128 1.6647466e-06   0.55628437  0.018663873            0    0.5376205    1.4471299    2.0034143    2.1184816 
 5700000    1.0128585 5.3833723e-05   0.49350277  0.039735457            0   0.45376731    1.5116914    2.0051942    5.7261811 
 5705000    1.0079935 -2.3359516e-05   0.50872975  0.018933592            0   0.48979616    1.5044303    2.0131601   0.39855029 
 5710000     1.001954 1.4177457e-05    0.5158767  0.017720325            0   0.49815638    1.4954164    2.0112931    2.9912389 
 5715000    1.0290186 -4.5656821e-05   0.47217246  0.021950264            0    0.4502222    1.5358102    2.0079827   -1.1478168 
 5720000   0.97707654 1.6953683e-05   0.55842489  0.032998125            0   0.52542677    1.4582867    2.0167116    3.1885502 
 5725000    1.0091756 -1.1952448e-05   0.51682439   0.02231553            0   0.49450887    1.5061946     2.023019    1.1968658 
 5730000    1.0029205 -6.8918466e-05   0.53074245 0.0065280753            0   0.52421438    1.4968589    2.0276014    -2.736043 
 5735000    1.0024264 -3.3808729e-06   0.51882049   0.01419715            0   0.50462334    1.4961214    2.0149419     1.781256 
 5740000    1.0530293 2.0926347e-05   0.46283182  0.011778276            0   0.45105354    1.5716462     2.034478    3.4809071 
 5745000    1.0148173 -5.6672422e-05   0.50823037  0.008679112            0   0.49955126    1.5146148    2.0228451   -1.8943527 
 5750000    1.0901196 1.0775982e-05   0.40727586  0.010860236            0   0.39641562    1.6270034    2.0342793    2.7791152 
 5755000     1.020038 -5.2084499e-05   0.51542286 0.0091290988            0   0.50629376    1.5224068    2.0378296   -1.5622509 
 5760000    1.0050192 -1.4009178e-06   0.53848915 0.0075964014            0   0.53089275    1.4999912    2.0384803    1.9416489 
 5765000    1.0455229 7.7306205e-06   0.48026429 0.0068439878            0   0.47342031    1.5604429    2.0407072    2.5750477 
 5770000    1.0748129 5.0879851e-06    0.4497448 0.0091295012            0    0.4406153    1.6041583    2.0539031    2.4055846 
 5775000    1.0865092 -4.2095776e-05   0.46522375  0.018272614            0   0.44695114     1.621615    2.0868387  -0.82282136 
 5780000    1.0293037 -5.8958551e-05   0.56230442  0.019100305            0   0.54320412    1.5362358    2.0985402   -1.9766748 
 5785000     1.063563 7.198607e-06   0.48910635  0.019474504            0   0.46963185    1.5873678    2.0764741    2.5740418 
 5790000    1.0643091 5.3178933e-06   0.46850055  0.019741924            0   0.44875863    1.5884814    2.0569819    2.4245547 
 5795000    1.0501955 4.2001854e-05   0.50541589   0.01589804            0   0.48951785    1.5674168    2.0728327    4.9760008 
 5800000    1.0756493 -3.6500344e-05   0.46357295  0.021684591            0   0.44188836    1.6054066    2.0689795  -0.45392428 
 5805000    1.0470107 -1.5320113e-05   0.51292013  0.021622782            0   0.49129735    1.5626635    2.0755837    1.0166574 
 5810000    1.0471775 -7.1690742e-06    0.5087062  0.029089916            0   0.47961629    1.5629124    2.0716186    1.5760922 
 5815000    1.0326383 -5.7220195e-06   0.52529625  0.017724629            0   0.50757162    1.5412126    2.0665089    1.6710029 
 5820000    1.0568477 1.2163752e-05   0.50260488  0.016717718            0   0.48588716    1.5773452      2.07995    2.9207086 
 5825000    1.0805467 3.4545074e-05   0.47285132  0.027092205            0   0.44575912     1.612716    2.0855673    4.4733228 
 5830000    1.0639026 2.7169131e-05   0.48019757  0.036454144            0   0.44374342    1.5878746    2.0680722    3.9460025 
 5835000    1.0223171 -5.8099994e-05   0.52803449  0.043219543            0   0.48481495    1.5258082    2.0538427   -1.9620289 
 5840000    1.0061087 -6.0564414e-05   0.56905328  0.014330859            0   0.55472242    1.5016173    2.0706705   -2.1155418 
 5845000    1.0987641 -1.3275614e-05   0.43188584 0.0091327259            0   0.42275311    1.6399054    2.0717913    1.1541808 
 5850000    1.0701368 1.733251e-05   0.48442129  0.013771534            0   0.47064976    1.5971792    2.0816005    3.2796236 
 5855000    1.0088827 4.0012905e-06   0.55833562  0.032267995            0   0.52606762    1.5057574     2.064093    2.3406622 
 5860000    1.0329648 2.5509323e-05   0.53478387  0.021781425            0   0.51300244       1.5417    2.0764839    3.8396883 
 5865000    1.0253546 2.6247431e-05   0.55958588  0.036985149            0   0.52260073    1.5303418    2.0899277    3.9041501 
 5870000    1.0939151 -4.3812941e-06   0.46854834  0.013965076            0   0.45458326    1.6326684    2.1012167    1.7983816 
 5875000     1.085334 1.260745e-05   0.48058717  0.011971408            0   0.46861576     1.619861    2.1004482    2.9718752 
 5880000    1.0758925 1.6969373e-05   0.50048907  0.010733262            0   0.48975581    1.6057696    2.1062587    3.2791817 
 5885000    1.1002638 1.2031233e-05   0.45618739   0.02721598            0   0.42897141    1.6421437     2.098331    2.9299299 
 5890000    1.0996594 -3.7620294e-05   0.48453794  0.035480889            0   0.44905705    1.6412417    2.1257796  -0.47453512 
 5895000    1.0400035 -6.1956928e-05   0.57463443  0.022239745            0   0.55239469    1.5522052    2.1268396   -2.1556233 
 5900000    1.0848989 -6.1092719e-07   0.49491592  0.026651748            0   0.46826417    1.6192117    2.1141276    2.0719003 
 5905000    1.0641511 1.1566865e-05    0.5297569  0.016966542            0   0.51279036    1.5882456    2.1180025    2.9175042 
 5910000    1.0905778 8.7666175e-06   0.49693908  0.028653757            0   0.46828533    1.6276874    2.1246265    2.7305751 
 5915000    1.1281031 2.0268943e-05   0.44905277  0.025356205            0   0.42369657    1.6836938    2.1327466    3.5337359 
 5920000     1.105556 -1.7142998e-05   0.47130454  0.022248698            0   0.44905585    1.6500423    2.1213468    0.9364228 
 5925000    1.0482195 -4.3851931e-05   0.56060347  0.035149834            0   0.52545363    1.5644675     2.125071  -0.90597448 
 5930000    1.0957441 3.9259606e-05   0.48006317  0.038212561            0   0.44185061    1.6353981    2.1154612    4.8290852 
 5935000    1.0535781 -9.064175e-06    0.5419323  0.042932285            0   0.49900001    1.5724653    2.1143976    1.4878818 
 5940000    1.0822163 -1.5361111e-05   0.49096548  0.010351226            0   0.48061425    1.6152079    2.1061733    1.0444133 
 5945000    1.1061483 3.6709021e-05   0.45045515 0.0033377869            0   0.44711736    1.6509263    2.1013815     4.638709 
 5950000    1.1191775 2.9861598e-05   0.42780804 0.0035142765            0   0.42429377    1.6703724    2.0981804    4.1622141 
 5955000      1.08065 -3.4912351e-05   0.49134541 0.0038855339            0   0.48745988    1.6128701    2.1042155   -0.3089262 
 5960000    1.1090373 -2.3734419e-05   0.45088664  0.004268922            0   0.44661772    1.6552381    2.1061248   0.46560171 
 5965000    1.1004859 1.3183017e-05   0.45860779  0.016471029            0   0.44213676    1.6424753     2.101083    3.0122932 
 5970000    1.0579317 5.547226e-07    0.5010641  0.028127509            0   0.47293659     1.578963    2.0800271    2.1183695 
 5975000    1.0910522 -3.2371542e-06   0.46460388  0.012957371            0   0.45164651    1.6283954    2.0929992    1.8692472 
 5980000     1.064145 7.4017486e-06   0.52149262   0.02363342            0    0.4978592    1.5882365    2.1097291    2.6213379 
 5985000    1.0684828 4.1831369e-05   0.49258906  0.015638372            0   0.47695068    1.5947105    2.0872996    4.9786838 
 5990000    1.1199833 -1.5255147e-05   0.43584553  0.020406761            0   0.41543877    1.6715751    2.1074206    1.0529848 
 5995000    1.0623795 6.0683224e-05   0.50162844  0.012088317            0   0.48954012    1.5856014    2.0872299    6.2816543 
 6000000    1.0712753 8.6982294e-05   0.46267157  0.018936041            0   0.44373553    1.5988784      2.06155    8.0737662 
 6005000     1.071375 2.0664403e-05    0.4503087  0.022120226            0   0.42818847    1.5990272    2.0493359    3.4776595 
 6010000    1.0814069 -2.5781425e-05   0.44120075  0.027835671            0   0.41336508    1.6139998    2.0552006   0.27318844 
 6015000      1.05119 -4.474522e-05   0.50212634  0.020132386            0   0.48199395    1.5689011    2.0710274   -1.0217622 
 6020000    1.0605985 -8.9734389e-06   0.49047282   0.01235138            0   0.47812144    1.5829433    2.0734161     1.453172 
 6025000    1.0862839 -4.8142461e-05   0.45269147  0.025762121            0   0.42692935    1.6212787    2.0739701   -1.2536368 
 6030000    1.0704679 -5.0215773e-05   0.48230542 0.0075948117            0   0.47471061    1.5976733    2.0799787   -1.3909355 
 6035000    1.0904728 9.7074952e-06   0.45379863  0.003415092            0   0.45038354    1.6275306    2.0813293    2.7523113 
 6040000    1.0879976 3.2319436e-05   0.46344411  0.008307093            0   0.45513701    1.6238364    2.0872805    4.3211999 
 6045000    1.0882194 6.4899813e-06   0.46947867  0.011831883            0   0.45764679    1.6241674    2.0936461    2.5422336 
 6050000    1.0721265 -3.7939476e-05   0.50691891  0.015291923            0   0.49162699    1.6001488    2.1070677  -0.51530895 
 6055000    1.0887777 6.1626191e-05   0.46802102  0.013372366            0   0.45464866    1.6250007    2.0930217    6.3526241 
 6060000    1.0937245 2.7763969e-05   0.46857096 0.0077509077            0   0.46082005    1.6323838    2.1009548    4.0200003 
 6065000    1.1272958 8.9520427e-06   0.42157192  0.027802063            0   0.39376986     1.682489    2.1040609    2.7228261 
 6070000    1.0862033 1.0742126e-05   0.47268036  0.033679592            0   0.43900076    1.6211585    2.0938388    2.8363346 
 6075000    1.0926672 3.8189665e-05   0.45123378  0.020659518            0   0.43057427    1.6308057    2.0820395    4.7217092 
 6080000    1.0542897 -3.146766e-05   0.50879548  0.013538735            0   0.49525674    1.5735274    2.0823229 -0.092721726 
 6085000    1.0693601 -2.3137141e-05    0.4769383 0.0099505296            0   0.46698777      1.59602    2.0729583   0.47371909 
 6090000    1.0993662 3.1408675e-05   0.43145251  0.013405451            0   0.41804706    1.6408041    2.0722566    4.2432243 
 6095000    1.0836113 -2.6405313e-05    0.4755572  0.014124608            0   0.46143259    1.6172899    2.0928471   0.26771187 
 6100000    1.0675242 -2.9575846e-05   0.51377166  0.010613378            0   0.50315828    1.5932799    2.1070516  0.062769094 
 6105000    1.0492383 -1.9177246e-05   0.56230677  0.018257806            0   0.54404897    1.5659882    2.1282949   0.80276367 
 6110000    1.1528279 1.293083e-05   0.40609481   0.03489697            0   0.37119784    1.7205956    2.1266904    3.0204694 
 6115000    1.0596476 1.3971439e-05   0.53137743  0.014971428            0   0.51640601    1.5815241    2.1129015    3.0786074 
 6120000    1.0566098 2.9280019e-06   0.53473043 0.0021565056            0   0.53257392    1.5769902    2.1117206    2.3141041 
 6125000    1.1371405 3.0720612e-05   0.41041247 0.00099457708            0   0.40941789    1.6971821    2.1075946    4.2310033 
 6130000    1.1029623 2.2108196e-05   0.46115269 0.0034196383            0   0.45773305    1.6461712    2.1073239    3.6354424 
 6135000    1.0312526 -3.9111745e-05    0.5594695 0.0068109966            0    0.5526585    1.5391445     2.098614  -0.60478982 
 6140000    1.0892997 -7.1437409e-05   0.49337529  0.023133894            0    0.4702414    1.6257797     2.119155   -2.8185987 
 6145000    1.0904822 -3.0279944e-05   0.48936774  0.014240126            0   0.47512762    1.6275447    2.1169125  0.023962746 
 6150000    1.1049497 1.5045619e-05   0.46985395 0.0041154395            0   0.46573851    1.6491375    2.1189914    3.1589446 
 6155000      1.07212 -1.0826392e-07   0.49833136 0.0037455433            0   0.49458581    1.6001391    2.0984704    2.0909872 
 6160000    1.0839277 -1.1805633e-07   0.47598988 0.0020300505            0   0.47395983     1.617762    2.0937519    2.0855919 
 6165000     1.038514 1.8819136e-05   0.52684345 0.0025230469            0   0.52432041    1.5499822    2.0768256    3.3776043 
 6170000    1.0631151 3.416674e-05   0.48968935 0.0079475602            0   0.48174179    1.5866994    2.0763887    4.4379938 
 6175000    1.0070567 -3.6600953e-05   0.56461973  0.013343583            0   0.55127615    1.5030322    2.0676519  -0.46220599 
 6180000    1.0855527 7.8869487e-06    0.4541973  0.012722311            0   0.44147499    1.6201874    2.0743847    2.6195306 
 6185000    1.0212961 3.097196e-05   0.54285515  0.041451063            0   0.50140408    1.5242844    2.0671395    4.2079214 
 6190000    1.0470548 -2.1264836e-05   0.49739501  0.011756778            0   0.48563823    1.5627293    2.0601244   0.59029889 
 6195000     1.022155 -5.780263e-05   0.51744093  0.011504896            0   0.50593604    1.5255664    2.0430073   -1.9523105 
 6200000   0.99045823 -7.5994359e-05   0.56649142  0.021589828            0   0.54490159    1.4782589    2.0447503   -3.2079798 
 6205000    1.0366912 1.4282397e-05   0.50466789  0.017655753            0   0.48701214    1.5472616    2.0519295    3.0391288 
 6210000    1.0610803 1.2522295e-05   0.45149889  0.012111352            0   0.43938754    1.5836624    2.0351613    2.9007023 
 6215000    1.0112282 -4.2162671e-07    0.5216835 0.0085118105            0   0.51317169    1.5092581    2.0309417    2.0017988 
 6220000    1.0444139 3.505408e-06   0.47032749 0.0040729716            0   0.46625452    1.5587877    2.0291152     2.271409 
 6225000    1.0328657 5.183408e-05    0.4943419 0.0081890581            0   0.48615284     1.541552    2.0358939    5.6186655 
 6230000    1.0551777 6.5923227e-06   0.46167015 0.0045912632            0   0.45707889    1.5748527    2.0365228    2.4921842 
 6235000     1.051374 -5.2501935e-05   0.46588535 0.0038152545            0    0.4620701    1.5691757    2.0350611   -1.5938727 
 6240000     1.044397 -4.0169837e-05   0.46156157 0.0050446411            0   0.45651693    1.5587625    2.0203241  -0.75621504 
 6245000    1.0372344 4.5019529e-06   0.47995839  0.012549277            0   0.46740912    1.5480723    2.0280307    2.3392057 
 6250000     1.046921 3.9490623e-05   0.46630111  0.013651421            0   0.45264969    1.5625295    2.0288306    4.7584225 
 6255000    1.0341887 -2.4593751e-05   0.47876971  0.009169287            0   0.46960043    1.5435267    2.0222964   0.32237638 
 6260000     1.002095 6.9695837e-06   0.51187807  0.027370961            0   0.48450711    1.4956267    2.0075048    2.4892424 
 6265000    1.0216508 5.2500633e-05   0.51066439  0.020443751            0   0.49022064    1.5248138    2.0354782    5.6643219 
 6270000    1.0214871 -1.2637906e-05    0.5259145  0.013334415            0   0.51258008    1.5245695     2.050484    1.1769519 
 6275000     1.007761 -3.5434048e-05   0.52508679  0.013766248            0   0.51132054    1.5040833    2.0291701  -0.42003133 
 6280000    1.0441659 3.3127133e-05   0.45714113  0.030482987            0   0.42665814    1.5584176    2.0155587    4.3053061 
 6285000    1.0405768 -3.673877e-05   0.48268455    0.0113115            0   0.47137305    1.5530608    2.0357454  -0.50363845 
 6290000    1.0404647 5.5550958e-06   0.48370336  0.011274777            0   0.47242858    1.5528935    2.0365969    2.4205651 
 6295000    1.0259329 3.0360902e-05   0.50937636  0.008326333            0   0.50105002    1.5312049    2.0405813    4.1391268 
 6300000    1.0653769 -1.6242221e-05    0.4441226 0.0070849172            0   0.43703768     1.590075    2.0341976   0.91153525 
 6305000    1.0086785 -3.6260411e-05   0.54544809   0.01045912            0   0.53498897    1.5054526    2.0509007   -0.4554189 
 6310000    1.0292207 -1.1795511e-05   0.48652374 0.0090165166            0   0.47750722    1.5361118    2.0226356    1.2073298 
 6315000    1.0178116 -3.2351697e-05   0.49315772   0.01195992            0    0.4811978    1.5190838    2.0122415  -0.22390782 
 6320000   0.97364362 -4.1466465e-05   0.56670298  0.038147865            0   0.52855511    1.4531631    2.0198661  -0.84629599 
 6325000     1.038766 3.0969288e-05   0.47451341 0.0056730882            0   0.46884033    1.5503583    2.0248717    4.1654689 
 6330000   0.96499205 5.4905186e-05   0.57281469  0.013678281            0   0.55913641    1.4402506    2.0130653    5.8081118 
 6335000    1.0569123 -2.0609466e-05   0.43717852  0.018988125            0    0.4181904    1.5774417    2.0146202   0.59009392 
 6340000   0.96571037 -5.9304187e-05   0.56003238  0.015324467            0   0.54470792    1.4413227    2.0013551   -2.0977503 
 6345000    1.0019398 -1.5681021e-05   0.49347101 0.0062775119            0    0.4871935    1.4953952    1.9888662   0.90499399 
 6350000   0.95162872 -1.2511976e-05   0.57022304  0.010760917            0   0.55946213    1.4203059    1.9905289    1.1257011 
 6355000   0.98743373 -1.0433251e-05   0.52713794  0.029542798            0   0.49759514    1.4737448    2.0008828    1.2797364 
 6360000    1.0605654 3.2073468e-05   0.42771317  0.012765484            0   0.41494768    1.5828939     2.010607    4.2275251 
 6365000    1.0117759 1.9909584e-05   0.50139491  0.013511047            0   0.48788387    1.5100755    2.0114704    3.3876209 
 6370000   0.97070287 -2.3064044e-05   0.59240172  0.016066065            0   0.57633566     1.448774    2.0411758   0.44698905 
 6375000    1.0620024 2.6959285e-05   0.46820449  0.016149083            0   0.45205541    1.5850386    2.0532431    3.9166689 
 6380000    1.0781012 -3.5939429e-05   0.47396535  0.025868975            0   0.44809638     1.609066    2.0830313  -0.40110202 
 6385000    1.0090162 -4.0400203e-05   0.56847728 0.0080074797            0    0.5604698    1.5059566    2.0744339  -0.71802816 
 6390000    1.0716102 -1.7405541e-05   0.48290643 0.0078517979            0   0.47505463    1.5993782    2.0822846   0.87921362 
 6395000    1.0444587 -6.2366631e-06   0.50400025 0.0067030882            0   0.49729717    1.5588547    2.0628549    1.6317768 
 6400000    1.0214053 7.6939205e-05   0.52944457 0.0098372324            0   0.51960734    1.5244474     2.053892    7.3719298 
 6405000    1.0130439 8.2687992e-06   0.51809084  0.029336983            0   0.48875386     1.511968    2.0300589    2.6015983 
 6410000   0.98273051 -0.00010157077   0.55235538  0.029151495            0   0.52320389    1.4667253    2.0190807   -5.0014908 
 6415000    1.0030622 -2.2774342e-05   0.51301735  0.021880724            0   0.49113662    1.4970703    2.0100877   0.43592517 
 6420000   0.96375103 1.3845149e-06   0.53754815  0.020732322            0   0.51681582    1.4383984    1.9759466    2.0716442 
 6425000    1.0379873 -2.8109249e-05   0.44583792  0.020267219            0    0.4255707     1.549196    1.9950339  0.052122662 
 6430000    1.0374663 3.557976e-05   0.45030191  0.020410695            0   0.42989122    1.5484185    1.9987204    4.4579935 
 6435000   0.98292471 7.5285299e-05   0.52716515  0.021592605            0   0.50557254    1.4670151    1.9941803    7.1979001 
 6440000    1.0034394 3.5382604e-05   0.49583337   0.01360222            0   0.48223115    1.4976333    1.9934666    4.4391122 
 6445000   0.99580155 -1.1295334e-05   0.49878936  0.010766964            0   0.48802239    1.4862338    1.9850232    1.2042897 
 6450000    1.0284851 2.0818232e-05   0.45397606  0.007797229            0   0.44617883     1.535014    1.9889901    3.4279463 
 6455000    0.9683599 1.7875945e-07   0.51647764 0.0039308769            0   0.51254676    1.4452771    1.9617548    1.9741106 
 6460000    0.9422437 -3.1679058e-05   0.56247272  0.012910322            0    0.5495624    1.4062987    1.9687714  -0.22088502 
 6465000   0.97763365 -3.6398922e-06   0.51061057  0.025779771            0    0.4848308    1.4591182    1.9697288    1.7181394 
 6470000   0.93990922 -2.3709651e-05   0.56122598   0.01481319            0   0.54641279    1.4028145    1.9640405   0.32522943 
 6475000   0.97450456 -7.5977444e-05   0.48538922 0.0049388897            0   0.48045033    1.4544481    1.9398373   -3.3117236 
 6480000    1.0075886 -3.8014736e-05   0.41997155 0.0090740249            0   0.41089752     1.503826    1.9237975  -0.70378104 
 6485000   0.94745296 2.1990117e-05   0.52631218  0.014043459            0   0.51226872    1.4140735    1.9403857    3.4603426 
 6490000    0.9224204 -1.2948781e-05   0.55219377  0.011317008            0   0.54087677    1.3767124    1.9289062    1.0338865 
 6495000   0.96475252 -1.8914689e-05    0.4574679 0.0076738749            0   0.44979402    1.4398931     1.897361   0.58997777 
 6500000   0.95868212 -9.1225881e-06   0.47557899  0.013735807            0   0.46184318    1.4308331    1.9064121    1.2758588 
 6505000   0.93035868 4.5178497e-05   0.53065782  0.017195739            0   0.51346208    1.3885603    1.9192182    5.0419559 
 6510000   0.96294065 1.9617765e-05   0.48678465  0.013898468            0   0.47288618    1.4371889    1.9239736    3.2799534 
 6515000   0.99454466 -1.1601531e-05   0.43184295 0.0079166741            0   0.42392627    1.4843579    1.9162009     1.114303 
 6520000   0.94846537 1.2403315e-05   0.51483668   0.01787114            0   0.49696554    1.4155846    1.9304212    2.7877383 
 6525000   0.97893153 9.077173e-07   0.46609668  0.039387877            0   0.42670881    1.4610553     1.927152    1.9898934 
 6530000   0.92941582 -2.7950116e-05   0.54981388  0.033835565            0   0.51597831    1.3871531     1.936967 0.0050549903 
 6535000    1.0025289 6.8059886e-06   0.45106776  0.010567583            0   0.44050018    1.4962744    1.9473422    2.4177721 
 6540000    1.0051485 -6.3052855e-06   0.46467853  0.013274075            0   0.45140446    1.5001842    1.9648627    1.5290414 
 6545000     0.943588 -2.7044236e-05   0.53957419  0.032323915            0   0.50725027    1.4083051    1.9478793  0.078581706 
 6550000   0.95925401 2.3722482e-05   0.51817095  0.038080022            0   0.48009093    1.4316866    1.9498576    3.5895555 
 6555000    1.0043242 1.7406756e-05   0.46749236  0.010557588            0   0.45693478    1.4989539    1.9664462    3.1696012 
 6560000    1.0176077 -4.8646444e-05   0.44006734 0.0065795146            0   0.43348782    1.5187795    1.9588468   -1.4035954 
 6565000   0.97604022 -2.2556012e-05   0.49946175  0.023443992            0   0.47601776      1.45674    1.9562018   0.39713025 
 6570000   0.99432263 8.3739303e-06   0.48822564  0.018826783            0   0.46939886    1.4840265    1.9722522    2.5510582 
 6575000   0.98541813 -1.0152038e-05   0.50174046  0.016216584            0   0.48552387    1.4707366     1.972477    1.2707681 
 6580000   0.98392832 -1.9558142e-07    0.5033797  0.020757658            0   0.48262205     1.468513    1.9718927    1.9583741 
 6585000     0.979392 -2.1172794e-05   0.51981467  0.015260657            0   0.50455401    1.4617426    1.9815572   0.51809368 
 6590000   0.96884305 -2.0407553e-05   0.54148611  0.030534701            0   0.51095141    1.4459983    1.9874844    0.5769143 
 6595000    0.9596249 -2.7531135e-05   0.53733223  0.032626115            0   0.50470611    1.4322402    1.9695724  0.066620353 
 6600000    0.9976654 -4.2246365e-05   0.49411355  0.013241311            0   0.48087224    1.4890156    1.9831292  -0.93693958 
 6605000   0.99195865 -1.1603747e-05   0.51331651  0.015336026            0   0.49798048    1.4804983    1.9938148    1.1917638 
 6610000   0.99312854 3.127157e-05   0.49501652  0.027380666            0   0.46763585    1.4822444    1.9772609    4.1387518 
 6615000   0.99904841 8.7399657e-07   0.48530352  0.026931749            0   0.45837177    1.4910797    1.9763833    2.0367939 
 6620000    1.0327479 -1.8593308e-05   0.44805378  0.012979401            0   0.43507438    1.5413762      1.98943   0.70426051 
 6625000      1.03433 -9.1756729e-06   0.45373891 0.0088132675            0   0.44492565    1.5437375    1.9974764    1.3632539 
 6630000   0.94977786 1.479589e-05   0.57967197  0.022364835            0   0.55730713    1.4175435    1.9972154    3.0199073 
 6635000    1.0111413 5.1735722e-05    0.4956644  0.015325955            0   0.48033844    1.5091284    2.0047928    5.5807659 
 6640000   0.95727157 3.4796254e-06    0.5919811 0.0055359929            0    0.5864451    1.4287278    2.0207089    2.2612206 
 6645000   0.97536976 1.5955999e-05   0.53847148 0.0086664998            0   0.52980498    1.4557394    1.9942109    3.0970895 
 6650000    1.0299984 5.2820655e-06   0.46894617 0.0093044084            0   0.45964176    1.5372727    2.0062188    2.3713152 
 6655000    1.0291904 2.1294556e-05    0.4585569 0.0097718956            0     0.448785    1.5360666    1.9946235    3.4665032 
 6660000     1.030037 4.5547848e-05   0.45947776  0.013105491            0   0.44637227    1.5373302    1.9968079    5.1450752 
 6665000   0.96959568 2.4862221e-05   0.55371103 0.0072099636            0   0.54650107    1.4471216    2.0008326    3.7193093 
 6670000    0.9837925 4.4714152e-05   0.52087326   0.01115441            0   0.50971885    1.4683103    1.9891836    5.0798258 
 6675000   0.99634789 -3.9087653e-05   0.51376942  0.014968318            0    0.4988011    1.4870492    2.0008186  -0.70091992 
 6680000   0.99052791 -2.1174883e-05   0.51280723  0.014931496            0   0.49787573    1.4783629    1.9911701   0.52756225 
 6685000   0.99034717 -8.5169881e-06   0.48891106  0.014908866            0   0.47400219    1.4780931    1.9670042      1.37831 
 6690000   0.93017332 5.6984309e-06   0.58619951   0.02289676            0   0.56330275    1.3882837    1.9744832    2.3683587 
 6695000   0.99676735 -1.4974889e-05   0.49209518 0.0070545859            0   0.48504059    1.4876753    1.9797704    0.9447061 
 6700000   0.98433074 -3.1344594e-05     0.513229 0.0049820599            0   0.50824694    1.4691136    1.9823426  -0.18419574 
 6705000   0.96132442 5.6412028e-05    0.5587666 0.0054853106            0   0.55328129    1.4347767    1.9935433    5.8927427 
 6710000   0.97007234 2.0984659e-05   0.54766793  0.011299868            0   0.53636806     1.447833    1.9955009    3.4459605 
 6715000   0.98495536 -1.0514042e-05   0.52716978  0.018844137            0   0.50832564    1.4700459    1.9972157    1.2704851 
 6720000    1.0330131 2.6998733e-05   0.46785564  0.016307634            0   0.45154801     1.541772    2.0096276    3.8757801 
 6725000    0.9427714 -6.4355136e-06   0.60789738  0.014678406            0   0.59321897    1.4070863    2.0149837     1.570161 
 6730000    0.9603451 -1.1554965e-05   0.57993801 0.0082936411            0   0.57164437    1.4333151    2.0132531    1.2145739 
 6735000   0.98883861 -1.9226096e-06   0.52589254 0.0080975091            0   0.51779503    1.4758416    2.0017342    1.8688434 
 6740000    1.0287033 1.3970231e-05   0.46855715  0.016677362            0   0.45187979    1.5353397    2.0038969    2.9695193 
 6745000   0.95918086 3.4346421e-05   0.55269943 0.0097109631            0   0.54298847    1.4315774    1.9842769    4.3583015 
 6750000     0.933001 -2.735477e-05   0.59415339  0.017198734            0   0.57695465     1.392504    1.9866574  0.095895687 
 6755000   0.99512767 5.0612954e-06   0.51852688  0.028646577            0    0.4898803    1.4852281    2.0037549    2.3535917 
 6760000    1.0160402 2.7606118e-05   0.49679131  0.031210106            0    0.4655812    1.5164401    2.0132314    3.9213663 
 6765000   0.96111438 1.4246589e-05   0.55219227 0.0058624683            0    0.5463298    1.4344632    1.9866555    2.9713797 
 6770000   0.99439803 -1.3624054e-05   0.49929733   0.01557415            0   0.48372318    1.4841391    1.9834364    1.0417418 
 6775000   0.98026167 -6.6952236e-05   0.52514471  0.020498744            0   0.50464596    1.4630405    1.9881853   -2.6395533 
 6780000   0.94785201 8.3802648e-06   0.56514884  0.017461133            0   0.54768771    1.4146691     1.979818    2.5590619 
 6785000   0.93995067 -8.0241117e-06   0.55865604  0.015373418            0   0.54328262    1.4028764    1.9615324    1.4069058 
 6790000   0.96810708 3.2718954e-05   0.51475783  0.022520455            0   0.49223738    1.4448998    1.9596576    4.2211917 
 6795000   0.97542582 6.4143036e-06   0.49987863   0.02087972            0   0.47899891     1.455823    1.9557017    2.3990583 
 6800000   0.96070749 -7.9226345e-05   0.53397902  0.010756035            0   0.52322299    1.4338559     1.967835     -3.50829 
 6805000   0.99174547 -3.7915049e-05   0.49068512  0.014591893            0   0.47609323    1.4801801    1.9708652  -0.64982293 
 6810000   0.97912143 2.1097743e-05    0.4938653  0.018626729            0   0.47523857    1.4613387     1.955204      3.41348 
 6815000   0.94544895 9.708464e-06   0.53157202   0.02110751            0   0.51046451    1.4110826    1.9426546    2.6137036 
 6820000   0.99752556 -2.5708273e-07   0.45649312  0.032992986            0   0.42350014    1.4888069       1.9453    1.9275305 
 6825000   0.95027378 -2.6524555e-05   0.52832326  0.012073077            0   0.51625018    1.4182836    1.9466069   0.11322963 
 6830000    0.9521935 -8.4828343e-05   0.51493656 0.0079521593            0    0.5069844    1.4211488    1.9360854   -3.9272497 
 6835000   0.97714911 -5.4569519e-05   0.48869559 0.0072050715            0   0.48149051     1.458395    1.9470906   -1.8247545 
 6840000    0.9407969 -6.9277223e-05   0.55497652 0.0096829086            0   0.54529361    1.4041394    1.9591159   -2.8293258 
 6845000   0.98952164 6.2492358e-06   0.47981669  0.012881219            0   0.46693547     1.476861    1.9566777    2.3886249 
 6850000   0.98629035 3.7300481e-05   0.48997316  0.020980745            0   0.46899241    1.4720384    1.9620115    4.5402207 
 6855000   0.96222564 -1.983898e-05    0.5470781  0.035947842            0   0.51113025    1.4361218    1.9831999   0.61192956 
 6860000   0.96047548 1.7235846e-05   0.54847247  0.040881407            0   0.50759107    1.4335097    1.9819821    3.1733238 
 6865000   0.98535787 7.6817115e-05   0.51591184  0.024118091            0   0.49179375    1.4706466    1.9865585    7.2961574 
 6870000   0.96766515 5.6313543e-05   0.54372764  0.011911924            0   0.53181571    1.4442402    1.9879679    5.8803599 
 6875000   0.98446931 1.4132935e-05   0.51004104 0.0093880277            0   0.50065301    1.4693205    1.9793615      2.95623 
 6880000   0.96791446 -1.8043482e-05   0.54641028  0.011444245            0   0.53496604    1.4446123    1.9910226   0.74385715 
 6885000   0.92267222 -3.9020739e-05   0.61053818  0.016913709            0   0.59362447    1.3770883    1.9876265  -0.70948702 
 6890000   0.97575267 4.1956905e-05   0.52631352  0.035439613            0   0.49087391    1.4563109    1.9826244    4.8826857 
 6895000    0.9505584 1.4897518e-05   0.55812765  0.036435382            0   0.52169227    1.4187084    1.9768361    3.0065525 
 6900000   0.97909056 -7.8780569e-05   0.51797691  0.033251774            0   0.48472514    1.4612927    1.9792696   -3.4660433 
 6905000   0.96360771 -5.6802202e-05   0.52966462  0.026351309            0   0.50331331    1.4381845    1.9678491   -1.9583191 
 6910000   0.97588037 9.5790657e-06   0.50019486 0.0084760126            0   0.49171885    1.4565015    1.9566963    2.6188013 
 6915000   0.96394932 1.8549231e-05    0.5004184 0.0080270601            0   0.49239134    1.4386944    1.9391128    3.2212356 
 6920000   0.95393455 1.4697246e-05   0.52626287  0.021767293            0   0.50449558    1.4237473    1.9500102    2.9658838 
 6925000   0.91174102 1.1962568e-05   0.58706781  0.022248653            0   0.56481916    1.3607735    1.9478413     2.774694 
 6930000   0.96218948 -2.4982246e-05   0.53635566 0.0060078373            0   0.53034782    1.4360678    1.9724235   0.24565061 
 6935000    1.0036789 -3.5442126e-05   0.48240918 0.0047686293            0   0.47764055    1.4979908       1.9804  -0.46935981 
 6940000   0.95536756 -5.313753e-05   0.55584796 0.0064219329            0   0.54942603    1.4258861     1.981734    -1.691132 
 6945000   0.95366846 -5.445238e-05   0.56759487  0.026362824            0   0.54123205    1.4233502    1.9909451   -1.7728035 
 6950000   0.92967483 2.5682137e-05   0.60538427  0.049992988            0   0.55539129    1.3875397     1.992924    3.7680733 
 6955000    1.0106201 2.7714195e-05   0.49645708  0.037647178            0    0.4588099    1.5083505    2.0048076    3.9204127 
 6960000   0.95573201 -9.1878681e-06   0.56226926  0.027098873            0   0.53517039      1.42643    1.9886993    1.3536338 
 6965000   0.95507641 4.545694e-05   0.56685899  0.031558769            0   0.53530022    1.4254515    1.9923105    5.1342942 
 6970000    1.0077322 5.3896546e-06   0.48079785  0.021847793            0   0.45895006    1.5040403    1.9848381    2.3573711 
 6975000   0.98589582 -9.2173178e-06   0.51349729  0.010314214            0   0.50318307    1.4714495    1.9849468    1.3478458 
 6980000     1.007312 9.1199065e-06   0.48542397  0.013123146            0   0.47230083    1.5034131    1.9888371     2.619205 
 6985000   0.96316841 3.7002825e-05   0.56756224 0.0081285484            0   0.55943369    1.4375289    2.0050911    4.5627263 
 6990000   0.95113867 4.3818815e-05   0.55993836  0.010799162            0    0.5491392    1.4195745    1.9795128    5.0082693 
 6995000     0.929509 -2.5658931e-05   0.58727618  0.015770032            0   0.57150615    1.3872922    1.9745684   0.20102309 
 7000000    0.9710392 4.4098286e-05   0.52068617  0.011127146            0   0.50955903     1.449276    1.9699622    5.0180357 
 7005000     1.000869 1.859793e-05   0.47757266 0.0079407336            0   0.46963192    1.4937969    1.9713696    3.2568585 
 7010000   0.98208752 -9.0959527e-06   0.52537172 0.0099578422            0   0.51541387    1.4657656    1.9911373    1.3624251 
 7015000    1.0193208 -3.273684e-05    0.4977749 0.0064989172            0   0.49127598    1.5213364    2.0191113  -0.24365909 
 7020000    1.0301877 -1.6128792e-05   0.49035075  0.012900156            0    0.4774506    1.5375551    2.0279059   0.91308378 
 7025000    1.0129505 1.3948295e-05   0.49390541 0.0085062593            0   0.48539915    1.5118286     2.005734    2.9698402 
 7030000   0.97903993 -4.5824195e-05   0.54994594 0.0085635107            0   0.54138243    1.4612171     2.011163   -1.1562053 
 7035000   0.98073483 -3.1168173e-05   0.52262155 0.0086600378            0   0.51396151    1.4637467    1.9863683  -0.16797585 
 7040000   0.99327445 5.2160782e-05   0.50300873 0.0050215551            0   0.49798717    1.4824621    1.9854709    5.5908241 
 7045000   0.99721578 2.6300611e-05   0.48767759  0.016492083            0    0.4711855    1.4883446    1.9760221    3.7939204 
 7050000   0.99310245 1.6081772e-05    0.5015789  0.013280071            0   0.48829882    1.4822054    1.9837843    3.0953564 
 7055000    0.9861696 2.7387068e-05   0.51381872  0.002069472            0   0.51174925    1.4718581    1.9856769     3.878671 
 7060000    1.0148343 1.505826e-05   0.48286473 0.0064948946            0   0.47636983    1.5146402     1.997505    3.0383319 
 7065000    1.0023551 -8.1149895e-05   0.51605365 0.0052315412            0   0.51082211     1.496015    2.0120686   -3.5970121 
 7070000   0.93962199 -9.2712713e-05    0.5969958  0.015484466            0   0.58151133    1.4023858    1.9993816   -4.4089211 
 7075000    1.0051062 -9.9270515e-06   0.51460918  0.011617545            0   0.50299163     1.500121    2.0147302    1.3285724 
 7080000   0.98802089 -3.3518546e-05   0.52729656  0.031772279            0   0.49552428    1.4746212    2.0019177  -0.31488415 
 7085000   0.96691335 6.8840318e-05   0.53930075  0.042753963            0   0.49654678    1.4431182    1.9824189    6.7406617 
 7090000    0.9800146 9.1253778e-05   0.53388999  0.014282617            0   0.51960737    1.4626718    1.9965618    8.3040229 
 7095000   0.95551315 2.5911383e-05   0.57534379  0.034221973            0   0.54112181    1.4261034    2.0014472     3.792442 
 7100000    1.0311148 4.3367831e-05   0.46788041  0.033369696            0   0.43451072    1.5389389    2.0068193    5.0044038 
 7105000    1.0350177 -2.6066652e-05   0.47849821  0.015874346            0   0.46262386    1.5447639    2.0232622   0.22153514 
 7110000   0.97184041 -9.9122358e-06   0.56598697  0.014597354            0   0.55138962    1.4504718    2.0164588     1.331325 
 7115000   0.98029298 2.2284651e-05   0.57484006  0.017020703            0   0.55781936    1.4630873    2.0379273    3.5782424 
 7120000    1.0163012 -1.3483273e-05   0.50956176 0.0030653994            0   0.50649636    1.5168296    2.0263913    1.0944275 
 7125000    1.0399318 4.4735746e-06    0.4765671 0.0023947984            0    0.4741723    1.5520982    2.0286653    2.3378788 
 7130000    1.0188521 -6.7924916e-06   0.50606234 0.0071883123            0   0.49887402    1.5206368    2.0266992    1.5572021 
 7135000   0.97713637 -4.402099e-05    0.5531167  0.015056962            0   0.53805974     1.458376    2.0114927   -1.0312381 
 7140000   0.93997305 -1.7558355e-05   0.61968213  0.020966307            0   0.59871582    1.4029098    2.0225919   0.80895843 
 7145000   0.98165044 -2.2139531e-05   0.55227794  0.024458012            0   0.52781992    1.4651133    2.0173912   0.48710686 
 7150000   0.97323053 -4.4276945e-05    0.5790491  0.022862669            0   0.55618643    1.4525466    2.0315957   -1.0288267 
 7155000    1.0126001 2.0268393e-05    0.5176742  0.016431745            0   0.50124246    1.5113057    2.0289799    3.4299312 
 7160000    1.0059812 2.2825219e-05   0.51721232 0.0090358238            0   0.50817649    1.5014269    2.0186393    3.5963184 
 7165000   0.98882009 -7.2903888e-06   0.52929556 0.0071220709            0   0.52217349     1.475814    2.0051096    1.5011979 
 7170000   0.97853592 -2.1931507e-05   0.53897366  0.013088299            0   0.52588536    1.4604649    1.9994385   0.48353277 
 7175000    1.0014361 3.5754404e-06   0.50780085  0.014849128            0   0.49295172    1.4946433    2.0024442    2.2495786 
 7180000   0.95130946 4.6854342e-05   0.57733698 0.0025432667            0   0.57479371    1.4198294    1.9971663    5.2357385 
 7185000   0.96323209 -1.2630459e-05   0.55748527 0.00016273413            0   0.55732254    1.4376239    1.9951092    1.1220918 
 7190000    1.0370633 2.5535166e-05   0.43306132 0.0027378336            0   0.43032348     1.547817    1.9808783     3.745869 
 7195000   0.97289722 2.001245e-05   0.52323407  0.016080701            0   0.50715336    1.4520491    1.9752832    3.3585437 
 7200000   0.97342978 -1.6225887e-05   0.53555906  0.010261753            0    0.5252973    1.4528439     1.988403   0.86686968 
 7205000   0.98779183 2.8860959e-05   0.52625913 0.0099381163            0   0.51632101    1.4742793    2.0005384    3.9954079 
 7210000    1.0057942 1.9984811e-05    0.5106065  0.040556985            0   0.47004951    1.5011479    2.0117544    3.3931045 
 7215000    1.0044282 1.5025121e-05    0.4931495  0.016798332            0   0.47635117    1.4991091    1.9922586     3.030795 
 7220000   0.99351977 4.7814679e-05   0.51628508  0.010226395            0   0.50605869    1.4828283    1.9991133    5.3040639 
 7225000   0.93784766 -1.4933202e-05   0.58761809  0.037447292            0   0.55017079    1.3997376    1.9873557   0.95517278 
 7230000   0.94600232 -4.0796387e-05   0.56461475  0.025537697            0   0.53907705    1.4119085    1.9765232  -0.84332309 
 7235000   0.95099562 3.7958722e-05   0.56591353  0.016991604            0   0.54892193     1.419361    1.9852745    4.6089814 
 7240000   0.99745798 -6.8789463e-05    0.4913526  0.012418582            0   0.47893402     1.488706    1.9800586   -2.7746691 
 7245000   0.97179771 -9.6387968e-06   0.53771282 0.0089526863            0   0.52876013    1.4504081    1.9881209    1.3218873 
 7250000    1.0194134 1.2316024e-05   0.47360508 0.0069179498            0   0.46668713    1.5214744    1.9950795    2.8463631 
 7255000   0.94577563 1.5482206e-05   0.57270581  0.010459622            0   0.56224619    1.4115701    1.9842759     3.054406 
 7260000    1.0030512 -7.0188585e-05   0.50159549 0.0038144969            0   0.49778099     1.497054    1.9986495   -2.8527855 
 7265000   0.96237398 -3.2524629e-05   0.57390024  0.013928062            0   0.55997218    1.4363432    2.0102434  -0.23785894 
 7270000    1.0323302 3.2802061e-06   0.46003319  0.014401665            0   0.44563152    1.5407528     2.000786    2.2275138 
 7275000   0.97587059 -2.9378403e-05   0.52134174  0.027385921            0   0.49395582    1.4564869    1.9778286 -0.052806623 
 7280000   0.94862192 5.8494143e-06   0.54914541  0.018477253            0   0.53066815    1.4158182    1.9649636    2.3692751 
 7285000    0.9534883 -1.9204263e-05    0.5364248  0.013575919            0   0.52284888    1.4230813    1.9595061   0.63210741 
 7290000   0.98845677 -1.2705891e-05   0.46280603  0.013246642            0   0.44955939    1.4752717    1.9380778    1.0598465 
 7295000   0.98921273 -1.0808301e-05   0.47323101  0.013775326            0   0.45945568       1.4764     1.949631    1.2025613 
 7300000   0.93388323 -9.7504327e-06   0.57556385  0.014900147            0    0.5606637    1.3938207    1.9693846    1.2954347 
 7305000   0.99826019 -3.9116077e-05   0.49038517 0.0073617401            0   0.48302343    1.4899033    1.9802885  -0.72341475 
 7310000   0.97567945 9.4466879e-06   0.51637306  0.012747682            0   0.50362538    1.4562016    1.9725746    2.6255297 
 7315000   0.98039875 3.7974928e-05   0.50186952  0.013158248            0   0.48871127    1.4632451    1.9651147    4.5899417 
 7320000    1.0091054 1.9171245e-05   0.46693133  0.021732368            0   0.44519896    1.5060898    1.9730211    3.2981376 
 7325000    0.9473478 -3.7977042e-05   0.55235813  0.010675039            0   0.54168309    1.4139166    1.9662747  -0.65869844 
 7330000    0.9689402 -3.2664136e-05   0.52698257 0.0076356948            0   0.51934688    1.4461432    1.9731258  -0.28461929 
 7335000   0.97646553 3.0305467e-05   0.50359831  0.022820371            0   0.48077794    1.4573748    1.9609731     4.055687 
 7340000   0.99874234 2.2554338e-05   0.47496819   0.01329187            0   0.46167632    1.4906229    1.9655911     3.524547 
 7345000   0.97572334 9.142942e-07   0.48617963 0.0070041214            0   0.47917551    1.4562671    1.9424467    2.0056427 
 7350000   0.93420821 8.8715614e-06   0.56916396 0.0036733628            0    0.5654906    1.3943058    1.9634697     2.576672 
 7355000   0.95858454 -3.8515694e-05   0.53897371  0.024605889            0   0.51436782    1.4306874    1.9696611  -0.69254366 
 7360000   0.98019223 -1.8314556e-05   0.49047141  0.014043521            0   0.47642789    1.4629369    1.9534083   0.68750619 
 7365000   0.93380839 6.4823743e-06   0.55367576   0.01674665            0   0.53692911     1.393709    1.9473848    2.3954465 
 7370000   0.92048554 -2.8655252e-07   0.57976902  0.020308982            0   0.55946004    1.3738247    1.9535937    1.9337872 
 7375000    1.0365926 3.6636094e-05   0.43436218  0.004128334            0   0.43023385    1.5471145    1.9814767    4.5137635 
 7380000   0.95251374 -3.3111662e-06   0.55659638 0.0096719147            0   0.54692447    1.4216268    1.9782231    1.7493553 
 7385000   0.97145279 2.3724195e-05   0.51290469  0.016585844            0   0.49631885    1.4498933     1.962798    3.6026143 
 7390000   0.97985932 1.841445e-05   0.49651607  0.010306832            0   0.48620923      1.46244    1.9589561    3.2317629 
 7395000    1.0035418 2.9932188e-05   0.47450928  0.012880824            0   0.46162845    1.4977862    1.9722954    4.0412082 
 7400000    1.0120674 -2.8782561e-05   0.47250035  0.024895894            0   0.44760445    1.5105105    1.9830109 -0.0064397313 
 7405000    1.0005665 -3.7385239e-05    0.5144736  0.023443004            0    0.4910306    1.4933455    2.0078191  -0.57624866 
 7410000   0.99808147 -2.3679114e-06   0.52758917  0.023016189            0   0.50457298    1.4896366    2.0172258    1.8535557 
 7415000    1.0013764 -1.5930541e-05   0.51204199  0.018019376            0   0.49402261    1.4945542    2.0065962   0.90547722 
 7420000    1.0280975 2.1761316e-05   0.46989573 0.0093001567            0   0.46059557    1.5344355    2.0043312    3.5084734 
 7425000   0.97879014 9.5417774e-06   0.54915891  0.027525948            0   0.52163296    1.4608443    2.0100032    2.6695309 
 7430000   0.97760397 -4.506554e-06   0.54437956   0.04568336            0    0.4986962    1.4590739    2.0034535    1.6919605 
 7435000   0.97222315 2.1587999e-05   0.54980434  0.027188882            0   0.52261545     1.451043    2.0008474    3.4930099 
 7440000    0.9860969 3.0057573e-05   0.52905174  0.014740982            0   0.51431076    1.4717496    2.0008014    4.0783808 
 7445000    1.0444703 2.4260847e-05   0.43127685   0.01687931            0   0.41439754    1.5588719    1.9901487    3.6670585 
 7450000   0.97568686 2.1119977e-06   0.53963553   0.01489811            0   0.52473742    1.4562126    1.9958482    2.1418294 
 7455000    1.0167091 -1.5342629e-05   0.46649727  0.021520843            0   0.44497643    1.5174384    1.9839356   0.92345314 
 7460000   0.96763869 -2.2235471e-05    0.5488537  0.013262582            0   0.53559112    1.4442007    1.9930544   0.45613869 
 7465000    0.9887091 -3.279069e-06   0.53590068  0.018324797            0   0.51757588    1.4756483     2.011549    1.7848998 
 7470000   0.97856774 3.4749267e-06   0.55123324  0.013017268            0   0.53821598    1.4605123    2.0117456    2.2519325 
 7475000    1.0451164 5.0856316e-05   0.45843137  0.022828129            0   0.43560324    1.5598362    2.0182676    5.5334561 
 7480000    1.0301291 3.7451469e-05   0.47923031  0.035850477            0   0.44337983    1.5374676    2.0166979    4.6053435 
 7485000    1.0150854 -2.9365241e-05   0.50702673  0.015448363            0   0.49157837     1.515015    2.0220418 -0.0076837239 
 7490000    1.0019769 -2.8723781e-05   0.54412579 0.0083466404            0   0.53577915    1.4954506    2.0395764  0.054188611 
 7495000    1.0781847 -1.4794424e-05    0.4230459  0.015465985            0   0.40757992    1.6091907    2.0322366     1.009646 
 7500000     1.023009 1.0312666e-05    0.4949111  0.018735378            0   0.47617572     1.526841    2.0217521    2.7345636 
 7505000    1.0025466 -1.0306148e-06   0.53057379  0.016090711            0   0.51448308    1.4963008    2.0268746    1.9556385 
 7510000    0.9976843 -5.0582979e-05   0.53022284  0.029396489            0   0.50082635    1.4890438    2.0192667   -1.4770289 
 7515000     1.035111 -1.8362516e-05   0.47999416  0.021316968            0   0.45867719    1.5449031    2.0248973   0.75568017 
 7520000    1.0095871 3.2627309e-05   0.52154742  0.038035559            0   0.48351186    1.5068087    2.0283561    4.2835557 
 7525000    1.0046005 -6.8495134e-06   0.51643895  0.037537483            0   0.47890147    1.4993663    2.0158052    1.5423669 
 7530000      1.04144 -1.2456854e-05    0.4484019  0.019113402            0    0.4292885    1.5543492    2.0027511    1.1417333 
 7535000    1.0674951 1.7567388e-05   0.42048514  0.011668044            0    0.4088171    1.5932365    2.0137216    3.2279794 
 7540000    1.0182372 -1.3747787e-05    0.4973384  0.010959338            0   0.48637906     1.519719    2.0170574    1.0668103 
 7545000    1.0688684 -2.2658738e-05   0.41909462  0.012573127            0   0.40652149     1.595286    2.0143806    0.4482087 
 7550000     1.016006 -9.4335801e-06   0.47012302  0.011991019            0     0.458132    1.5163889    1.9865119    1.3344628 
 7555000   0.96970951 -2.4055034e-05   0.53970701  0.019214489            0   0.52049252    1.4472914    1.9869985   0.32431449 
 7560000    1.0157359 2.5463722e-05   0.50337481 0.0096151238            0   0.49375969    1.5159858    2.0193606    3.7794131 
 7565000   0.99426173 2.9720528e-05   0.52781724  0.020962672            0   0.50685457    1.4839356    2.0117529    4.0660358 
 7570000    1.0537553 4.5097859e-05    0.4243314  0.014475903            0    0.4098555    1.5727298    1.9970612    5.1142252 
 7575000    1.0160593 7.9389082e-05   0.49621048  0.015731043            0   0.48047944    1.5164685     2.012679    7.5000523 
 7580000    1.0333832 -1.6019486e-05   0.47248254 0.0090342841            0   0.46344826    1.5423244     2.014807   0.90754011 
 7585000    1.0583917 2.5484533e-05   0.44757045  0.016263046            0    0.4313074    1.5796496      2.02722    3.7887109 
 7590000    1.0014998 5.3092592e-05   0.51106939 0.0086577715            0   0.50241162    1.4947384    2.0058078    5.6755678 
 7595000    1.0155345 3.5782954e-06   0.48150221  0.004356182            0   0.47714602    1.5156853    1.9971875    2.2445193 
 7600000    1.0851975 4.5078857e-05   0.39213988 0.0095558586            0   0.38258402    1.6196573    2.0117972    5.1276478 
 7605000    1.0021039 2.2911687e-05   0.49752654   0.01469629            0   0.48283025    1.4956401    1.9931666    3.5768224 
 7610000   0.97685286 -2.9092153e-06   0.55154494 0.0075612337            0    0.5439837    1.4579529    2.0094978    1.8084129 
 7615000    1.0186641 1.5307758e-05   0.45761811  0.011926026            0   0.44569209    1.5203561    1.9779742    3.0360464 
 7620000   0.99196017 6.0135418e-05   0.49753552  0.011176918            0    0.4863586    1.4805006    1.9780361    6.1345961 
 7625000    1.0267957 3.4287155e-05   0.44352381 0.0050367531            0   0.43848706    1.5324925    1.9760164    4.3459445 
 7630000   0.98575515 -6.303002e-05   0.49303551 0.0088299172            0   0.48420559    1.4712396    1.9642751   -2.3923599 
 7635000   0.98940795 1.6933672e-05   0.46750664  0.015198796            0   0.45230784    1.4766914     1.944198    3.1146534 
 7640000   0.96735884 5.0832291e-05   0.48465889 0.0081172915            0    0.4765416    1.4437831     1.928442    5.4419699 
 7645000   0.96770854 -5.2445412e-05     0.470114  0.015969962            0   0.45414404     1.444305     1.914419   -1.7106079 
 7650000   0.95901169 -4.0525271e-05   0.47819132  0.018420425            0    0.4597709    1.4313249    1.9095163  -0.89159045 
 7655000    0.9765256 3.8019617e-06   0.49032959  0.018803121            0   0.47152647    1.4574645     1.947794    2.2105856 
 7660000   0.99561735 -2.4239624e-05    0.4560853  0.012908619            0   0.44317668    1.4859589    1.9420442   0.26660141 
 7665000   0.98461122 -6.8078576e-05   0.48093505  0.038191091            0   0.44274396    1.4695322    1.9504673   -2.7551239 
 7670000   0.98462907 -4.8497854e-05     0.472416  0.043512952            0   0.42890304    1.4695589    1.9419749   -1.4101968 
 7675000   0.96143827 5.3320414e-05   0.51234321  0.038195456            0   0.47414775    1.4349466    1.9472898    5.6327968 
 7680000   0.97234923 4.8253263e-05   0.47257821  0.028716773            0   0.44386144    1.4512312    1.9238094    5.2590749 
 7685000    0.9546889 7.3240515e-05    0.5023877  0.015986777            0   0.48640093    1.4248732    1.9272609    6.9896453 
 7690000   0.97615775 3.047221e-05   0.45625092 0.0062913948            0   0.44995952    1.4569154    1.9131664    4.0194055 
 7695000   0.97207371 -1.9453875e-05   0.46686732 0.0064893032            0   0.46037802      1.45082    1.9176873   0.57303546 
 7700000    1.0138182 8.6876896e-06   0.38038167  0.021243815            0   0.35913785    1.5131236    1.8935053    2.4939984 
 7705000   0.91945638 -9.0649026e-06    0.5126581  0.016529189            0   0.49612891    1.3722886    1.8849467    1.2583807 
 7710000   0.99158817 4.6361459e-05   0.40878554   0.02519854            0     0.383587    1.4799453    1.8887309     5.093235 
 7715000   0.96323435 3.7624672e-05    0.4579453  0.024428984            0   0.43351632    1.4376273    1.8955726    4.4961899 
 7720000   0.92653649 2.3753161e-05   0.51033961  0.030207765            0   0.48013185    1.3828557    1.8931953    3.5350138 
 7725000   0.94220781 3.1890148e-05   0.46432577  0.028379823            0   0.43594595    1.4062451    1.8705709    4.0748179 
 7730000   0.93975453 -1.2153479e-05   0.46036014   0.01582057            0   0.44453957    1.4025836    1.8629438    1.0228953 
 7735000   0.96491887 7.6454045e-06   0.40736164 0.0071972332            0   0.40016441    1.4401414    1.8475031    2.3759534 
 7740000   0.92682756 -5.5468963e-05   0.45146567 0.0035148714            0   0.44795079    1.3832901    1.8347558   -1.9992589 
 7745000   0.91036791 -5.539715e-05   0.46701601 0.0032883263            0   0.46372768    1.3587241    1.8257401   -2.0033109 
 7750000   0.92998773  3.81723e-05   0.43912378 0.0068095271            0   0.43231425    1.3880067    1.8271305    4.4655998 
 7755000   0.93086535 -4.2486821e-05   0.42485866  0.011215633            0   0.41364303    1.3893165    1.8141752   -1.1225139 
 7760000   0.91651245 -5.6946404e-05   0.44467623 0.0066074552            0   0.43806877    1.3678948    1.8125711   -2.1235644 
 7765000   0.94154477 2.2332435e-05   0.42499099  0.014672659            0   0.41031833    1.4052556    1.8302466    3.3738644 
 7770000    0.9193549 -4.0589234e-05   0.44445892 0.0055909477            0   0.43886797    1.3721372    1.8165961  -0.98893175 
 7775000   0.90526389 -3.9796597e-05   0.46343672  0.018478024            0    0.4449587    1.3511064    1.8145431   -0.9361977 
 7780000   0.89262883 2.8114346e-05   0.48622466 0.0035379705            0   0.48268669    1.3322485    1.8184732    3.7617368 
 7785000   0.93337753 1.7592594e-05   0.42042897 0.0023022618            0   0.41812671     1.393066    1.8134949     3.029495 
 7790000   0.91116973 -2.0914318e-05   0.44615721 0.0022036776            0   0.44395353    1.3599208     1.806078   0.36048038 
 7795000   0.93235503 -8.1795492e-07   0.41088298 0.0041089733            0     0.406774    1.3915399    1.8024229    1.7458858 
 7800000   0.86802962 -1.0363118e-06   0.50182957  0.010818813            0   0.49101076    1.2955342    1.7973638    1.7257339 
 7805000   0.93142532 -3.1260024e-05   0.41360039  0.026290579            0   0.38730981    1.3901523    1.8037527  -0.35694017 
 7810000   0.94783947 -2.1226347e-05   0.39105443  0.011611201            0   0.37944323    1.4146504    1.8057048   0.33853972 
 7815000   0.89347054 1.3219663e-05   0.47524793  0.015623461            0   0.45962447    1.3335048    1.8087527    2.7224958 
 7820000   0.94504241 1.9738559e-05   0.39315652 0.0054237291            0   0.38773279    1.4104758    1.8036323    3.1679615 
 7825000   0.92066209 -8.2744857e-05   0.42686612 0.0022088725            0   0.42465725    1.3740882    1.8009543   -3.9183702 
 7830000   0.88061371 -3.3217378e-05   0.48820289 0.0044380487            0   0.48376484     1.314316    1.8025188  -0.49346632 
 7835000   0.92367544 8.616874e-06   0.43043295 0.0049019916            0   0.42553096    1.3785856    1.8090185    2.4046169 
 7840000   0.92584574 -2.149887e-05   0.44135079  0.012870811            0   0.42847998    1.3818248    1.8231756   0.33717366 
 7845000   0.88696656 -1.996476e-05   0.52984092  0.029255398            0   0.50058552    1.3237976    1.8536385   0.47367427 
 7850000   0.94733348 -8.0147867e-06   0.43079648  0.023693633            0   0.40710284    1.4138952    1.8446917    1.2907096 
 7855000   0.96403945 5.2234077e-05   0.41018647  0.027807792            0   0.38237868    1.4388289    1.8490153    5.4594348 
 7860000   0.93022257 -1.1969059e-05   0.46420193  0.015574259            0   0.44862767    1.3883572    1.8525591    1.0252578 
 7865000   0.93745691 -2.3404871e-05   0.44472273 0.0013123083            0   0.44341042    1.3991544    1.8438772   0.22613246 
 7870000   0.91096028 1.198478e-05   0.49988958 0.0066986088            0   0.49319097    1.3596082    1.8594978    2.6878858 
 7875000   0.94719056 -3.2681391e-05   0.46846429  0.032196204            0   0.43626808    1.4136819    1.8821462  -0.37679152 
 7880000   0.91567778 -2.0896509e-05   0.53581871  0.029337879            0   0.50648083    1.3666491    1.9024678   0.45810111 
 7885000   0.95788658 -1.8821364e-05   0.48600082  0.011533838            0   0.47446699    1.4296457    1.9156465   0.61471385 
 7890000   0.98966122 -1.3490703e-05   0.44706072   0.01912275            0   0.42793797    1.4770694    1.9241301   0.99165273 
 7895000   0.94152455 -2.164491e-05   0.50206073   0.01171153            0    0.4903492    1.4052254    1.9072861   0.41118992 
 7900000   0.94264837 -3.9230398e-05   0.48367634 0.0083017338            0    0.4753746    1.4069027     1.890579  -0.82102606 
 7905000   0.94312675 -9.3821916e-06   0.49842474  0.011733236            0   0.48669151    1.4076167    1.9060414    1.2575443 
 7910000   0.94915449 1.6616554e-05   0.49775261 0.0093814062            0   0.48837121    1.4166131    1.9143657    3.0629019 
 7915000   0.93883954 2.2883918e-05   0.50013685 0.0040051794            0   0.49613167     1.401218    1.9013549    3.4830913 
 7920000    0.9959712 -4.6200324e-06   0.43180189 0.0045575129            0   0.42724438     1.486487    1.9182889    1.5989523 
 7925000   0.96881277 -2.8115126e-07   0.48274319 0.0048136147            0   0.47792957    1.4459531    1.9286962    1.9092631 
 7930000   0.99789612 2.8572866e-05   0.44283529  0.015911552            0   0.42692373      1.48936    1.9321952    3.9071518 
 7935000   0.97857233 -3.1866091e-05   0.47761992   0.01209428            0   0.46552564    1.4605192    1.9381391  -0.26444509 
 7940000   0.94453204 -4.6510344e-06   0.53254654  0.029903107            0   0.50264343    1.4097141    1.9422606    1.6207811 
 7945000    0.9802694 4.7759819e-05   0.47396186    0.0181939            0   0.45576796    1.4630521    1.9370139    5.2381726 
 7950000    0.9529877 -8.4955112e-06   0.51986724 0.0098026869            0   0.51006456    1.4223341    1.9422014    1.3549917 
 7955000    0.9691018 -5.7785788e-05   0.48100983 0.0039569423            0   0.47705289    1.4463844    1.9273943   -2.0667594 
 7960000    1.0082925 -2.9008594e-05   0.43088159  0.014002694            0   0.41687889    1.5048766    1.9357582 -0.069315867 
 7965000    1.0103916 1.6765331e-05   0.42517913  0.013996251            0   0.41118288    1.5080095    1.9331886    3.0920083 
 7970000   0.95986541 -8.2599327e-06   0.50778182 0.0090783689            0   0.49870345    1.4325991    1.9403809    1.3694544 
 7975000    0.9847843 -1.1223965e-05   0.46153781  0.010184748            0   0.45135306    1.4697906    1.9313284    1.1555279 
 7980000     1.005826 -7.8291145e-05    0.4338642   0.01094308            0   0.42292112    1.5011953    1.9350594   -3.4764245 
 7985000   0.94753971 -4.9940098e-05   0.50286978  0.014255437            0   0.48861434     1.414203    1.9170728   -1.5347868 
 7990000    0.9758793 -2.046472e-06   0.44910914  0.013510659            0   0.43559848    1.4564999     1.905609    1.7641569 
 7995000      1.02892 2.2347283e-05   0.38026789  0.013379466            0   0.36688843    1.5356631     1.915931    3.4605752 
 8000000   0.95924892 4.0605242e-06   0.49303318 0.0095501376            0   0.48348304     1.431679    1.9247122    2.2053756 
 8005000   0.95027163 6.8151071e-06   0.50019263   0.01964816            0   0.48054447    1.4182804     1.918473    2.3895332 
 8010000   0.95974479 6.020023e-05    0.4894728  0.011665228            0   0.47780757    1.4324191    1.9218919    6.0829318 
 8015000   0.96478458 2.3229197e-05   0.47462455  0.017681178            0   0.45694337     1.439941    1.9145655    3.5201676 
 8020000   0.96923984 -2.1745288e-05    0.4644037 0.0066122098            0   0.45779149    1.4465905    1.9109942   0.40795988 
 8025000   0.97614393 7.4972212e-06   0.45369538 0.0034099368            0   0.45028544    1.4568948    1.9105902    2.4287981 
 8030000   0.96769025 1.6899488e-05    0.4605566  0.018117074            0   0.44243952    1.4442777    1.9048343    3.0729269 
 8035000   0.95433949 1.5782102e-06   0.48612346  0.018232276            0   0.46789118    1.4243517    1.9104751     2.019561 
 8040000   0.96998268 9.8639113e-06   0.46618982  0.024376429            0   0.44181339    1.4476991     1.913889    2.5956825 
 8045000    0.9509263 -1.2331138e-06   0.48508913  0.022765033            0   0.46232409    1.4192575    1.9043466    1.8191138 
 8050000   0.96097313 3.103109e-05   0.48091977  0.012726614            0   0.46819316    1.4342524    1.9151722    4.0600411 
 8055000    1.0085078 6.5244654e-06   0.41844052 0.0079011307            0   0.41053938    1.5051979    1.9236384    2.3746094 
 8060000    0.9828012 -7.2843258e-05   0.46594034 0.0088136206            0   0.45712672    1.4668308    1.9327711   -3.1021549 
 8065000   0.99256874 -4.6249173e-05   0.44842656 0.0094183944            0   0.43900816    1.4814089    1.9298354   -1.2669074 
 8070000   0.91550237 3.9210442e-05   0.55264625  0.011930606            0   0.54071564    1.3663873    1.9190335    4.6292593 
 8075000   0.95832229 1.8225749e-05   0.49108484  0.021986319            0   0.46909852     1.430296    1.9213809    3.1811446 
 8080000   0.95245847 -2.3317001e-05   0.48741078  0.024054829            0   0.46335595    1.4215443     1.908955   0.29728397 
 8085000   0.95492629 1.7849052e-05   0.49030896  0.013555745            0   0.47675321    1.4252275    1.9155364    3.1492629 
 8090000   0.93420278 1.8976465e-05   0.51079456  0.033973283            0   0.47682127    1.3942976    1.9050922    3.2167455 
 8095000   0.93153122 8.1542007e-06   0.51396024  0.018035524            0   0.49592471    1.3903103    1.9042706    2.4678889 
 8100000   0.93154122 2.0035149e-05    0.5173063  0.039809162            0   0.47749714    1.3903253    1.9076316    3.2924611 
 8105000   0.93903628 1.8521745e-05   0.51276325  0.026121798            0   0.48664145    1.4015116    1.9142749    3.1944979 
 8110000   0.95727276 2.0300666e-05   0.46359933  0.026104614            0   0.43749471    1.4287296    1.8923289     3.295511 
 8115000   0.95707823 -6.6791527e-06   0.48575278   0.01271119            0   0.47304159    1.4284393     1.914192     1.452529 
 8120000   0.97154429 2.6341754e-06   0.46888478  0.013487113            0   0.45539767    1.4500299    1.9189146    2.1009888 
 8125000   0.96647041 3.8006468e-05   0.48098888  0.023473132            0   0.45751575    1.4424571     1.923446     4.550453 
 8130000   0.95370132 2.0474423e-05   0.49656437  0.017901523            0   0.47866285    1.4233992    1.9199636    3.3351557 
 8135000   0.97843562 -5.7964045e-05   0.44844123  0.016447406            0   0.43199382    1.4603152    1.9087564   -2.0977184 
 8140000   0.94845593 -4.7570159e-05   0.50671464  0.008124375            0   0.49859027    1.4155705    1.9222851   -1.3657642 
 8145000   0.96516679 -3.4190266e-05   0.48586425  0.013641345            0    0.4722229    1.4405114    1.9263757  -0.43685551 
 8150000   0.93451898 -1.9808989e-05   0.51133026 0.0094130294            0   0.50191723    1.3947696    1.9060998   0.53690255 
 8155000   0.92532567 -2.328571e-05   0.50097395  0.014880494            0   0.48609346    1.3810486    1.8820225   0.27251426 
 8160000   0.90889832 -9.8502277e-06   0.51227537  0.009793608            0   0.50248177    1.3565307    1.8688061    1.1879584 
 8165000   0.90300505 7.507136e-06   0.52618813  0.014044368            0   0.51214376     1.347735    1.8739232    2.3928164 
 8170000   0.97239847 1.4628463e-05   0.44349925  0.033677438            0   0.40982181    1.4513047     1.894804    2.9059233 
 8175000   0.96105206 2.1459348e-06   0.47221742  0.019046969            0   0.45317045    1.4343702    1.9065876    2.0549146 
 8180000   0.94235579 -4.029299e-05   0.50007433  0.012472847            0   0.48760148     1.406466    1.9065403  -0.87851111 
 8185000     0.902265 -2.6955033e-05   0.54635575  0.013058209            0   0.53329754    1.3466305    1.8929863  0.029854403 
 8190000   0.96121351 -8.6649256e-05   0.46745644  0.008268309            0   0.45918814    1.4346112    1.9020676    -4.087129 
 8195000   0.91554543 -3.8508603e-05   0.52997259 0.0052241766            0   0.52474841    1.3664515    1.8964241  -0.76529054 
 8200000   0.97635022 -2.5016893e-06   0.43719181 0.0084826678            0   0.42870914    1.4572027    1.8943945    1.7214778 
 8205000    0.9247524 -7.83961e-06   0.49478151  0.014160699            0   0.48062081     1.380193    1.8749745    1.3331006 
 8210000   0.93324073 1.4416839e-05   0.48084926 0.0099129224            0   0.47093634    1.3928618    1.8737111     2.870203 
 8215000     0.967367 2.1394636e-05   0.41901395  0.012350433            0   0.40666352    1.4437952    1.8628092    3.3416065 
 8220000   0.95903961 5.9068002e-05   0.44435483  0.024262332            0    0.4200925    1.4313666    1.8757215    5.9585018 
 8225000   0.90557682 2.0091781e-05   0.54282626  0.018855393            0   0.52397087    1.3515734    1.8943997    3.2831436 
 8230000   0.92706033 9.2697915e-06   0.53380192  0.020408794            0   0.51339312    1.3836375    1.9174395    2.5581674 
 8235000   0.91574702 1.2742406e-05   0.55246336  0.011311146            0   0.54115222    1.3667524    1.9192158    2.7999709 
 8240000   0.93422386 -2.5980634e-06   0.51884939 0.0039046357            0   0.51494476    1.3943291    1.9131785    1.7336004 
 8245000   0.92996997 5.1485722e-05   0.52867638 0.0092370442            0   0.51943934    1.3879802    1.9166566    5.4753497 
 8250000   0.94982369 5.8645625e-05   0.50270505  0.015039881            0   0.48766517    1.4176119    1.9203169    5.9739025 
 8255000   0.99649969 -1.2984497e-05     0.433055   0.01190221            0   0.42115279    1.4872758    1.9203308    1.0228423 
 8260000   0.92432829 -2.0311797e-05   0.53219944  0.013162722            0   0.51903671      1.37956    1.9117594   0.50780798 
 8265000   0.95470445 -2.0209304e-05   0.50051903  0.012243859            0   0.48827517    1.4248964    1.9254154   0.52854832 
 8270000   0.95960071 1.4692922e-05   0.48372635 0.0062608876            0   0.47746546    1.4322041    1.9159304    2.9315052 
 8275000   0.96986784 4.3352717e-05   0.46550588  0.023168531            0   0.44233735    1.4475278    1.9130336    4.9095735 
 8280000   0.91378053 1.6712081e-05   0.55614552  0.022996973            0   0.53314855    1.3638174     1.919963     3.075102 
 8285000   0.95624814 2.3118118e-05   0.51066662   0.01747491            0   0.49319171    1.4272004     1.937867    3.5357913 
 8290000    0.9557233 4.905956e-05   0.50896613  0.017119108            0   0.49184702     1.426417    1.9353832      5.32638 
 8295000   0.94168144 8.5126184e-06   0.52196455 0.0075926032            0   0.51437195    1.4054595    1.9274241    2.5158163 
 8300000   0.97749202 -2.5631387e-06   0.46824278 0.0087478444            0   0.45949493    1.4589068    1.9271496    1.7499855 
 8305000   0.97022301 3.0319438e-05   0.47201744  0.011182767            0   0.46083467    1.4480578    1.9200753    4.0157548 
 8310000   0.97397354 2.4523982e-06    0.4701264 0.0059467538            0   0.46417964    1.4536555    1.9237819    2.0932917 
 8315000   0.95486545 -3.1799395e-05   0.48572201 0.0053117921            0   0.48041022    1.4251367    1.9108587   -0.2871155 
 8320000   0.99526863 -5.8841014e-06    0.4354623  0.015455556            0   0.42000675    1.4854384    1.9209007    1.5141916 
 8325000   0.98764165 1.4629266e-05   0.44659162  0.021450112            0   0.42514151    1.4740552    1.9206468    2.9318216 
 8330000   0.96325124 -8.7382239e-07   0.49365215    0.0142583            0   0.47939385    1.4376525    1.9313046     1.870906 
 8335000    0.9908841 -2.5730957e-06   0.46260718  0.014905079            0    0.4477021    1.4788945    1.9415017    1.7636493 
 8340000   0.94843829 4.4084369e-06   0.50958428  0.010665283            0   0.49891899    1.4155442    1.9251284    2.2298396 
 8345000   0.97276186 -1.3675969e-05   0.48766334 0.0086126489            0   0.47905069    1.4518471    1.9395104   0.99422744 
 8350000   0.96665609 4.0114213e-05   0.50958858 0.0092383038            0   0.50035027    1.4427342    1.9523228    4.7250172 
 8355000      1.03461 2.9669818e-05   0.40613483 0.0067787949            0   0.39935604    1.5441554    1.9502903    4.0010681 
 8360000   0.97734088 1.2990785e-05    0.5002803 0.0033932683            0   0.49688703    1.4586813    1.9589616    2.8568846 
 8365000    1.0057125 -2.8138576e-05    0.4603059 0.0085271936            0   0.45177871    1.5010259    1.9613318  0.016393427 
 8370000    1.0006268 7.8507098e-06    0.4772954 0.0096380207            0   0.46765738    1.4934354    1.9707308    2.5133719 
 8375000   0.97605717 -3.077805e-06   0.51092946   0.01080044            0   0.50012902    1.4567653    1.9676948    1.7549569 
 8380000     0.996607 -1.2176061e-05   0.47520061  0.011648264            0   0.46355235    1.4874359    1.9626366    1.1210272 
 8385000    1.0110493 -4.1799428e-05   0.44228233  0.011935593            0   0.43034673     1.508991    1.9512733  -0.93790313 
 8390000    1.0381943 3.4354563e-06   0.40541927 0.0065895021            0   0.39882977    1.5495051    1.9549243    2.1923831 
 8395000   0.95914719 4.1636918e-05   0.49668271  0.023420459            0   0.47326225    1.4315272    1.9282099    4.8061536 
 8400000   0.95186835 6.7446156e-05   0.50380407  0.011766814            0   0.49203726    1.4206635    1.9244676    6.5863459 
 8405000   0.98499863 1.5267894e-05   0.45335192    0.0139019            0   0.43945002    1.4701105    1.9234624    2.9787792 
 8410000   0.94722945 -1.1190636e-05   0.49317585  0.023927625            0   0.46924823      1.41374    1.9069158    1.1334191 
 8415000   0.96019765 3.1162658e-05   0.45865537  0.010896312            0   0.44775906     1.433095    1.8917504    4.0457133 
 8420000   0.95146377 -3.5773015e-06   0.46107135  0.002084644            0    0.4589867    1.4200597     1.881131    1.6338679 
 8425000   0.94652404 -1.7618386e-05   0.47634168 0.0058441878            0   0.47049749    1.4126871    1.8890288   0.67124597 
 8430000    0.9276991 -1.8613255e-05   0.51322837  0.018975474            0    0.4942529    1.3845909    1.8978193   0.61127109 
 8435000   0.94487854 -2.8762852e-05   0.47004711  0.012530582            0   0.45751653    1.4102312    1.8802783  -0.10781001 
 8440000   0.95566401 -6.0933151e-06   0.46606051  0.021424824            0   0.44463568    1.4263285     1.892389    1.4712191 
 8445000   0.95179505 1.9182811e-05   0.45500613  0.020774734            0   0.43423139    1.4205541    1.8755602    3.2014761 
 8450000   0.94971504 -5.9405804e-05   0.45737656 0.0071207253            0   0.45025583    1.4174497    1.8748263   -2.2313029 
 8455000   0.93985518 -4.413439e-05   0.48039887 0.0022537915            0   0.47814508    1.4027339    1.8831327   -1.1674363 
 8460000   0.96058337 4.8827536e-05   0.44914612 0.0037356325            0   0.44541049    1.4336707    1.8828168    5.2577761 
 8465000   0.95067534 7.0910622e-07   0.45596962 0.0087812933            0   0.44718833     1.418883    1.8748526     1.923866 
 8470000   0.89123969 -4.3335777e-05   0.53363505  0.022292111            0   0.51134294    1.3301752    1.8638103   -1.1315586 
 8475000    0.9156076 -3.3754316e-05   0.47891687   0.01516187            0     0.463755    1.3665443    1.8454612  -0.48763709 
 8480000   0.91424414 -5.5464327e-05   0.48146791  0.025125069            0   0.45634284    1.3645094    1.8459773    -1.987717 
 8485000   0.95711171 7.7929819e-06   0.42351779  0.015076381            0   0.40844141    1.4284892     1.852007    2.3906579 
 8490000   0.91402836 2.6218931e-06   0.50046845  0.012038495            0   0.48842995    1.3641873    1.8646558     2.045881 
 8495000   0.92487837 -4.7745072e-05    0.4972373  0.015724157            0   0.48151314     1.380381    1.8776183   -1.4225211 
 8500000     0.924398 -1.9056657e-05   0.47305176  0.011272205            0   0.46177955     1.379664    1.8527158   0.53551967 
 8505000   0.88720043 -5.3018623e-06   0.51349653  0.016878817            0   0.49661771    1.3241466    1.8376432    1.4711784 
 8510000     0.935794 1.4704791e-05   0.43887517  0.020038763            0   0.41883641    1.3966725    1.8355477    2.8519428 
 8515000   0.89770205 2.3654282e-05   0.48329659   0.02030971            0   0.46298688    1.3398203    1.8231169    3.4581009 
 8520000   0.86961744 -2.770921e-05   0.53424374  0.023137583            0   0.51110616     1.297904    1.8321478 -0.083112823 
 8525000   0.90742023 -1.7255907e-05   0.48185629 0.0069057346            0   0.47495055    1.3543247     1.836181   0.64345269 
 8530000   0.92333838 -1.0187975e-05   0.44265072 0.0041408665            0   0.43850986    1.3780825    1.8207333    1.1165404 
 8535000   0.95494793 -1.0354808e-05    0.3829446 0.0042849388            0   0.37865966    1.4252598    1.8082044    1.0924801 
 8540000    0.8959845 2.1894306e-05   0.46774416  0.024978753            0   0.44276541    1.3372569     1.805001    3.3183354 
 8545000    0.9358024 -2.6973857e-05   0.40344947  0.010236926            0   0.39321255    1.3966851    1.8001345 -0.064298445 
 8550000   0.88206032 -6.3638866e-05   0.48680457  0.016417328            0   0.47038724     1.316475    1.8032796   -2.5954388 
 8555000   0.87959106 -1.1920406e-05   0.49128914  0.033053176            0   0.45823596    1.3127897    1.8040788   0.98014031 
 8560000   0.90313646 4.6088879e-05   0.45699925  0.010171067            0   0.44682818    1.3479312    1.8049304    4.9905938 
 8565000   0.93275595 9.2537606e-06   0.41812117 0.0022551707            0     0.415866    1.3921383    1.8102594    2.4498794 
 8570000    0.9006144 9.0322903e-06   0.47057544 0.0079973607            0   0.46257808     1.344167    1.8147424    2.4390543 
 8575000   0.86741841 9.9888582e-06   0.52479919  0.015651717            0   0.50914747     1.294622    1.8194212     2.509851 
 8580000   0.93230391 6.9869607e-06   0.44244613  0.024402421            0   0.41804371    1.3914636    1.8339097    2.3168484 
 8585000   0.89563086 -9.5528316e-07   0.49068002  0.025843476            0   0.46483654    1.3367291    1.8274091    1.7613799 
 8590000   0.91860703 4.6801467e-05   0.45294915 0.0079182228            0   0.44503092     1.371021    1.8239701    5.0588875 
 8595000   0.93921049 5.3511533e-06   0.43604759 0.0076653968            0   0.42838219    1.4017717    1.8378192     2.207691 
 8600000   0.93636443 -1.9242161e-05   0.45048653  0.013270803            0   0.43721573    1.3975239    1.8480104    0.5179923 
 8605000   0.96887607 4.2873456e-05   0.40120773 0.0065938576            0   0.39461387    1.4460475    1.8472553    4.8106685 
 8610000   0.92902015 -2.0737448e-05    0.4765359  0.030431475            0   0.44610442    1.3865626    1.8630985   0.42972603 
 8615000   0.91127782 3.0681319e-06    0.5160689  0.011073488            0   0.50499541    1.3600822    1.8761511    2.0882203 
 8620000   0.94863073 7.3500719e-05   0.46033184  0.020407367            0   0.43992448    1.4158314    1.8761632    6.9565329 
 8625000   0.96968823 2.0219059e-05   0.42099479  0.018541758            0   0.40245303    1.4472597    1.8682545    3.2657958 
 8630000   0.93436938 6.7178622e-06    0.4757234  0.010983551            0   0.46473985    1.3945463    1.8702697    2.3346083 
 8635000   0.93443325 -1.9316001e-05   0.46395513  0.014992734            0   0.44896239    1.3946416    1.8585968   0.52347473 
 8640000   0.93041174 -1.7747157e-06    0.4926108  0.021435875            0   0.47117492    1.3886395    1.8812503     1.758582 
 8645000   0.94000562 2.9252756e-05   0.46788616  0.010530704            0   0.45735546    1.4029584    1.8708445    3.8927951 
 8650000   0.94109624 8.0028867e-08   0.45952367  0.016570655            0   0.44295302    1.4045861    1.8641098    1.8696414 
 8655000   0.92502706  4.73209e-06   0.47092183  0.014769499            0   0.45615233    1.3806029    1.8515247    2.1786068 
 8660000    0.9314884 -5.5432408e-06   0.47333616  0.036519678            0   0.43681648    1.3902464    1.8635826    1.4804338 
 8665000   0.95597131 -3.6178088e-05   0.45126076 0.0059058216            0   0.44535493    1.4267872    1.8780479  -0.62258153 
 8670000   0.96008365 2.2365911e-06   0.44039535  0.045544767            0   0.39485058    1.4329249    1.8733202    2.0279134 
 8675000    0.9399289 -2.6319821e-05   0.46668395  0.010399332            0   0.45628462    1.4028439    1.8695278  0.050301838 
 8680000   0.94852397 2.7489346e-05   0.46436777   0.01511064            0   0.44925713     1.415672    1.8800398    3.7801034 
 8685000   0.92574723 -1.3794856e-05   0.50999667  0.011598754            0   0.49839791    1.3816777    1.8916744   0.93817395 
 8690000   0.96729856 -2.9919381e-05   0.45786343 0.0081491168            0   0.44971431    1.4436931    1.9015565  -0.16647111 
 8695000    0.9530422 2.5189128e-07   0.47698779  0.011997075            0   0.46499072    1.4224155    1.8994033     1.916814 
 8700000   0.96451349 3.7042925e-05     0.473272  0.017287457            0   0.45598454    1.4395364    1.9128084    4.4732154 
 8705000    0.9860922 -5.7153824e-06   0.45709599  0.011068306            0   0.44602768    1.4717426    1.9288386    1.5337914 
 8710000    1.0066319 5.0747169e-06   0.41299022 0.0066447286            0   0.40634549    1.5023981    1.9153883    2.2661527 
 8715000   0.99540072 9.6730361e-06   0.44997472 0.0027870443            0   0.44718768    1.4856356    1.9356103    2.6042106 
 8720000    1.0044529 5.1698577e-05   0.45624031  0.014158088            0   0.44208222     1.499146    1.9553863    5.5287919 
 8725000    1.0204304 -3.6590876e-05   0.42920833  0.009432641            0   0.41977569    1.5229923    1.9522007  -0.57696065 
 8730000    1.0332459 8.732339e-06    0.4213896  0.013982536            0   0.40740707    1.5421196    1.9635092    2.5670885 
 8735000     0.977869 2.0731207e-05   0.51759793  0.039702622            0    0.4778953    1.4594695    1.9770674    3.4100084 
 8740000   0.97889829 3.9273841e-05   0.50589635  0.040619304            0   0.46527704    1.4610057     1.966902    4.6815099 
 8745000    1.0399163 3.0512103e-05   0.44337479  0.018572805            0   0.42480198     1.552075    1.9954498    4.1044464 
 8750000    1.0415775 -8.8658353e-06   0.43130284  0.013687214            0   0.41761563    1.5545544    1.9858573    1.3730507 
 8755000     1.017332 -1.0003013e-05   0.47727865  0.012587648            0     0.464691    1.5183679    1.9956466    1.3042384 
 8760000    1.0067383 1.2406981e-05   0.48540065 0.0071538429            0    0.4782468     1.502557    1.9879576    2.8455281 
 8765000     1.038317 5.5727813e-05   0.43276838 0.0040489056            0   0.42871948    1.5496882    1.9824566     5.834363 
 8770000    1.0090116 -2.7194596e-05   0.43724891 0.0086196848            0   0.42862922    1.5059498    1.9431987  0.063508194 
 8775000    1.0055341 -9.4066875e-07   0.45986049  0.011680062            0   0.44818043    1.5007597    1.9606201    1.8956011 
 8780000    1.0010846 2.3374876e-05   0.46522544  0.011853653            0   0.45337179    1.4941188    1.9593442    3.5750156 
 8785000    1.0121163 3.2204733e-05   0.44294649  0.016023949            0   0.42692254    1.5105835      1.95353    4.1795211 
 8790000   0.98433197 1.4838123e-05   0.48318069  0.024581852            0   0.45859884    1.4691155    1.9522962    2.9779072 
 8795000   0.98730881 4.1503135e-05   0.46439861  0.020152082            0   0.44424653    1.4735584     1.937957    4.8066537 
 8800000   0.98431143 2.0095189e-05   0.47064775 0.0077208631            0   0.46292688    1.4690848    1.9397326     3.328712 
 8805000    1.0103294 3.5188515e-05   0.42509677 0.0018995889            0   0.42319718    1.5079167    1.9330134    4.3652436 
 8810000    1.0045016 1.8397784e-05   0.43922289 0.0024876267            0   0.43673526    1.4992186    1.9384415    3.2100963 
 8815000   0.98561724 -2.2208927e-05   0.45601499 0.0087365507            0   0.44727844    1.4710337    1.9270487   0.39196766 
 8820000   0.92986705 -3.3584494e-05   0.52322754  0.011595746            0   0.51163179    1.3878266    1.9110541  -0.41030607 
 8825000    1.0185583 -2.4297832e-05   0.37965738  0.014792616            0   0.36486476    1.5201983    1.8998556   0.22038948 
 8830000   0.94734742 -1.3093186e-05   0.49377432 0.0066933781            0   0.48708095     1.413916    1.9076903    1.0026893 
 8835000   0.96957892 -7.6054575e-06   0.46210042  0.021257416            0     0.440843    1.4470965     1.909197    1.3835077 
 8840000   0.97676297 -7.6860163e-06   0.45832972   0.02266753            0   0.43566219    1.4578187    1.9161485     1.384891 
 8845000   0.97833591 5.8447025e-06   0.45224707  0.016258802            0   0.43598827    1.4601663    1.9124134    2.3163993 
 8850000   0.97463898 1.9504784e-05   0.45481959  0.015962339            0   0.43885725    1.4546487    1.9094683    3.2576389 
 8855000    1.0103151 3.4802446e-05   0.40185276 0.0059057365            0   0.39594703    1.5078953    1.9097481    4.3152932 
 8860000   0.96867102 -4.4947778e-06    0.4474103  0.015040976            0   0.43236933    1.4457415    1.8931518    1.5824728 
 8865000   0.92144296 -1.6694956e-05   0.50953814  0.010972593            0   0.49856555    1.3752536    1.8847918   0.73083638 
 8870000   0.93921441 1.3809207e-05   0.48727614  0.010435374            0   0.47684077    1.4017775    1.8890536     2.843546 
 8875000   0.94877725 2.9123193e-05   0.47413858  0.016336907            0   0.45780167    1.4160501    1.8901886    3.9031838 
 8880000    1.0259803 -2.1862147e-05   0.37131523  0.018582656            0   0.35273258    1.5312755    1.9025908   0.39147916 
 8885000    0.9877802 -2.2007864e-05   0.42854487  0.019006534            0   0.40953833    1.4742619    1.9028068   0.38162324 
 8890000   0.95802485 5.8314818e-05   0.46928735  0.014891605            0   0.45439574    1.4298521    1.8991394    5.9298596 
 8895000   0.97598311 3.697347e-05   0.44265668 0.0060714094            0   0.43658527    1.4566548    1.8993115    4.4549177 
 8900000   0.99555835 -1.1187961e-05   0.41364146  0.010670919            0   0.40297054    1.4858708    1.8995123    1.1262005 
 8905000   0.97793455 6.2476074e-06   0.43042207  0.031952366            0   0.39846971    1.4595673    1.8899894     2.321824 
 8910000    0.9557641 -1.130961e-05   0.43999663  0.019961755            0   0.42003487    1.4264779    1.8664746    1.0847543 
 8915000   0.92395768 2.6906765e-05   0.47562075  0.018402033            0   0.45721872    1.3790068    1.8546276    3.7144232 
 8920000   0.91501087 -4.5445017e-05   0.49530624  0.017268744            0    0.4780375    1.3656537      1.86096   -1.2801996 
 8925000   0.92237644 -4.3334924e-05   0.48714352  0.022604399            0   0.46453913    1.3766468    1.8637904   -1.1315196 
 8930000   0.94176017 -1.1472126e-05   0.45788075  0.013028876            0   0.44485187    1.4055771    1.8634578    1.0705044 
 8935000   0.95618931 6.7061667e-06     0.445105 0.0071652295            0   0.43793977    1.4271125    1.8722175    2.3357478 
 8940000   0.97433326 -1.8961888e-05   0.41380603 0.0042316791            0   0.40957435    1.4541924    1.8679984   0.55735275 
 8945000   0.97482606 1.734644e-05   0.42954261 0.0060123514            0   0.42353026    1.4549279    1.8844705    3.0834564 
 8950000   0.95952214 6.6106898e-06    0.4409839  0.010326359            0   0.43065755    1.4320868    1.8730707    2.3300016 
 8955000   0.94492197 -8.9194127e-06   0.47051893  0.014854886            0   0.45566405     1.410296     1.880815    1.2643052 
 8960000   0.99170005 7.7617853e-06   0.42558734  0.016395668            0   0.40919167    1.4801123    1.9056997    2.4421943 
 8965000   0.98030305 1.5453481e-05   0.45375868  0.008516038            0   0.44524264    1.4631023     1.916861    2.9850056 
 8970000   0.96875316 7.2101734e-05   0.46455074 0.0083989055            0   0.45615183    1.4458641    1.9104148    6.8940867 
 8975000    0.9659855 3.3560875e-05   0.46188061 0.0095351376            0   0.45234547    1.4417334     1.903614    4.2233416 
 8980000   0.98186024 4.7666779e-05   0.45374943    0.0113455            0   0.44240393    1.4654264    1.9191758    5.2139036 
 8985000    0.9607582 -2.7515745e-05   0.47609163  0.003982719            0   0.47210891    1.4339316    1.9100232 0.0081349689 
 8990000    1.0045925 2.6211685e-06   0.42227738 0.0031829447            0   0.41909443    1.4993543    1.9216316    2.1028068 
 8995000    1.0380349 3.8858619e-06   0.38631186   0.01567007            0   0.37064179    1.5492671     1.935579    2.2041698 
 9000000    1.0102601 -1.5484209e-05   0.44495792  0.021989673            0   0.42296825    1.5078132    1.9527711   0.88250263 
 9005000    1.0169544 -1.2737689e-05   0.42034175  0.034680473            0   0.38566127    1.5178045    1.9381463    1.0577172 
 9010000   0.97027074 -2.6540331e-05   0.50671041  0.034026382            0   0.47268403    1.4481291    1.9548395   0.12037184 
 9015000     1.002417 2.336995e-05   0.46540725  0.038957899            0   0.42644936    1.4961074    1.9615146    3.5768456 
 9020000   0.99384989 -3.8820577e-06   0.47419987   0.01894616            0   0.45525371     1.483321    1.9575208     1.689193 
 9025000    1.0291743 0.00011375913   0.43348175 0.0094176111            0   0.42406414    1.5360427    1.9695244    9.8325558 
 9030000    1.0259772 6.7646016e-05   0.44970678  0.018354564            0   0.43135222    1.5312709    1.9809777    6.6566703 
 9035000    1.0492812 3.8443374e-05   0.41825025  0.025439579            0   0.39281067    1.5660522    1.9843025    4.6415085 
 9040000    1.0525922 -3.2958476e-05   0.43255903  0.011651724            0   0.42090731    1.5709938    2.0035528  -0.27453704 
 9045000    1.0052288 -1.9762955e-05   0.50036535  0.012848825            0   0.48751653     1.500304    2.0006693   0.63465391 
 9050000    1.0107862 -5.2163405e-05   0.48782704  0.021708033            0     0.466119    1.5085984    1.9964255    -1.609109 
 9055000    1.0090288 1.7563547e-05   0.49646118  0.043933213            0   0.45252797    1.5059755    2.0024367    3.2164291 
 9060000    1.0271511 3.9509767e-05   0.46629249 0.0082221352            0   0.45807035     1.533023    1.9993155    4.7302306 
 9065000    1.0393285 2.7007681e-05   0.44766386 0.0048633216            0   0.44280054    1.5511978    1.9988616    3.8656325 
 9070000   0.99906333 -3.4301125e-05    0.5046849  0.025364634            0   0.47932027     1.491102    1.9957869  -0.37510684 
 9075000    1.0489863 -6.8024994e-05   0.43771608  0.021604267            0   0.41611181    1.5656121    2.0033282   -2.6985594 
 9080000    1.0276128 -3.2530964e-05   0.46469763  0.024116734            0   0.44058089    1.5337121    1.9984097   -0.2501305 
 9085000    1.0547642 1.0476296e-05   0.44733436 0.0080793735            0   0.43925499    1.5742355    2.0215699    2.7456915 
 9090000     1.033025 2.9792258e-05   0.48810867  0.010968994            0   0.47713968    1.5417898    2.0298985    4.0891394 
 9095000    1.0578428 2.4989365e-05    0.4379966  0.018777729            0   0.41921887    1.5788303    2.0168269    3.7440918 
 9100000    1.0214032 -7.0802484e-06    0.4704188  0.035668496            0   0.43475031    1.5244442     1.994863    1.5054762 
 9105000     1.053665 6.5811824e-05   0.42927063  0.026130308            0   0.40314032     1.572595    2.0018656    6.5507789 
 9110000    1.0082742 2.894743e-05   0.50514729  0.023336022            0   0.48181127    1.5048493    2.0099966    4.0108429 
 9115000    1.0232169 -9.9718589e-06   0.49282121  0.024669338            0   0.46815187    1.5271512    2.0199724    1.3307175 
 9120000    1.0055543 -1.8860382e-05   0.52516491  0.048649003            0    0.4765159    1.5007899    2.0259548   0.72232518 
 9125000    1.0204955 4.2615523e-05   0.50382467  0.040653072            0    0.4631716    1.5230895    2.0269141    4.9724991 
 9130000    1.0209005 -4.9213825e-06   0.50094511  0.026542352            0   0.47440276     1.523694    2.0246391    1.6844731 
 9135000    1.0316773 -2.053924e-05   0.49048052  0.012950043            0   0.47753048    1.5397784    2.0302589   0.61058661 
 9140000    1.0176144 -8.4682119e-06   0.51062301  0.016982577            0   0.49364043    1.5187894    2.0294124    1.4440896 
 9145000    1.0452059 -2.4355249e-06   0.48031079   0.01564095            0   0.46466984    1.5599698    2.0402806    1.8719371 
 9150000    1.0289961 -2.2201695e-05   0.50598719  0.017083448            0   0.48890374    1.5357766    2.0417638   0.50718263 
 9155000    1.0223239 1.9456348e-05   0.53598499    0.0180507            0   0.51793429    1.5258185    2.0618035    3.4066263 
 9160000     1.002382 4.3456672e-05   0.56889468  0.017208586            0   0.55168609    1.4960551    2.0649498     5.068675 
 9165000    1.0338736 4.2960189e-05   0.51721981  0.019397112            0    0.4978227    1.5430563    2.0602761    5.0296844 
 9170000    1.0366308 -1.8534661e-05   0.51650352  0.023609849            0   0.49289367    1.5471715     2.063675   0.78255923 
 9175000    1.0159336 -4.4283177e-05   0.54349814  0.022865305            0   0.52063284     1.516281    2.0597791   -1.0010741 
 9180000    1.0952139 -2.1326047e-05   0.43011437 0.0072931366            0   0.42282123    1.6346068    2.0647212   0.59066483 
 9185000      1.05923 9.7219227e-06   0.47641037  0.011633398            0   0.46477697    1.5809008    2.0573112    2.7292905 
 9190000    1.0332835 1.1887489e-05   0.52946075 0.0084736866            0   0.52098706    1.5421756    2.0716363    2.8932995 
 9195000    1.0679195 1.8592652e-05   0.46289971  0.026207035            0   0.43669268    1.5938698    2.0567695    3.3418936 
 9200000    1.0240488 4.9528306e-05   0.52454129   0.04462417            0   0.47991712    1.5283928    2.0529341    5.4763306 
 9205000    1.0481512 1.0485042e-05   0.47393881  0.016481703            0   0.45745711    1.5643657    2.0383045    2.7630306 
 9210000    1.0610938 3.6506409e-05   0.45315153   0.01038481            0   0.44276672    1.5836825     2.036834     4.560157 
 9215000    1.0430843 1.0189262e-05   0.48607615  0.002910599            0   0.48316555    1.5568034    2.0428795    2.7471613 
 9220000    1.0642747 -3.1373707e-05   0.46025847 0.0062638989            0   0.45399457    1.5884299    2.0486884  -0.11986224 
 9225000     1.052291 -9.2045689e-06    0.4762277  0.021685445            0   0.45454225    1.5705442    2.0467719    1.4105521 
 9230000    1.0461537 -6.9770864e-06   0.46870446  0.012922157            0   0.45578231    1.5613843    2.0300888    1.5478326 
 9235000    1.0507758 2.7487747e-05   0.47567869   0.01314889            0    0.4625298    1.5682829    2.0439615    3.9439146 
 9240000    1.0621783 5.7632916e-05   0.46468387  0.013109442            0   0.45157443    1.5853011     2.049985    6.0335722 
 9245000    1.0518118 3.8346381e-05   0.49013178  0.026215676            0    0.4639161    1.5698291    2.0599608    4.7104627 
 9250000    1.0558818 -2.7840318e-05   0.45753401  0.018292418            0   0.43924159    1.5759037    2.0334377    0.1091149 
 9255000   0.99582003 -6.2661043e-05   0.55423859  0.023013551            0   0.53122504    1.4862614       2.0405   -2.2906313 
 9260000    1.0028662 -2.8719444e-05   0.52991915  0.036858811            0   0.49306034    1.4967777    2.0266969  0.041608896 
 9265000    1.0230986 -2.011408e-05   0.50977813  0.023502181            0   0.48627595    1.5269747    2.0367529   0.64646762 
 9270000   0.99000632 -6.6834605e-05   0.57053598  0.011092303            0   0.55944367    1.4775844    2.0481204   -2.5714875 
 9275000    1.0314341 -6.0147722e-05   0.51928086  0.011938129            0   0.50734273    1.5394154    2.0586963   -2.0987143 
 9280000    1.0415367 -7.3225947e-06   0.52188148  0.021347675            0   0.50053381    1.5544935     2.076375    1.5702373 
 9285000    1.0698045 2.6789495e-05   0.48796231  0.010088849            0   0.47787346    1.5966832    2.0846455    3.9363354 
 9290000    1.0286509 -4.1184728e-05   0.54604001 0.0064692142            0    0.5395708    1.5352615    2.0813015   -0.7653869 
 9295000    1.0595871 -1.8413045e-05   0.48178768   0.02438307            0   0.45740461    1.5814337    2.0632214   0.79051172 
 9300000    1.0026156 5.8267241e-06   0.54919249  0.048521972            0   0.50067052    1.4964038    2.0455963    2.4483395 
 9305000    1.0212753 -5.6686725e-06   0.47958818  0.032766183            0     0.446822    1.5242533    2.0038415    1.6120229 
 9310000    1.0152309 -2.5107539e-05   0.50124314  0.016469003            0   0.48477413    1.5152322    2.0164753   0.28104221 
 9315000   0.98019278 -6.9207352e-06   0.54166939 0.0074846836            0    0.5341847    1.4629377    2.0046071    1.5262459 
 9320000    1.0280877 7.3596364e-05   0.45763829  0.014689605            0   0.44294869    1.5344209    1.9920592    7.0790398 
 9325000   0.98755285 -1.1309833e-05   0.53226353 0.0075819716            0   0.52468156    1.4739226    2.0061862    1.2244505 
 9330000    1.0382333 -7.8047187e-07   0.46416249  0.011241184            0   0.45292131    1.5495631    2.0137256    1.9597794 
 9335000     1.049074 -8.0508047e-06   0.45741205  0.031912945            0   0.42549911    1.5657429     2.023155    1.4666833 
 9340000   0.96421599 -7.5472922e-06   0.59953163  0.014386464            0   0.58514517    1.4390924     2.038624    1.5169552 
 9345000    1.0829278 4.0762447e-06    0.4200891  0.010669382            0   0.40941972    1.6162698    2.0363589    2.3181089 
 9350000   0.99936008 9.936836e-06     0.531092  0.031012095            0    0.5000799    1.4915449    2.0226369     2.709471 
 9355000    1.0057608 5.7146624e-05   0.52726152  0.030000245            0   0.49726127     1.501098    2.0283595    5.9783341 
 9360000    1.0095075 2.5785702e-05   0.47819347  0.022051018            0   0.45614245    1.5066899    1.9848833     3.767191 
 9365000    1.0041839 1.9198192e-05   0.49274895  0.014926032            0   0.47782292    1.4987444    1.9914934    3.3184724 
 9370000   0.99311466 2.3035451e-05   0.51647051  0.017165776            0   0.49930473    1.4822236    1.9986941    3.5909045 
 9375000    1.0440028 4.1308252e-05   0.44781888 0.0091571147            0   0.43866176    1.5581742    2.0059931    4.8612195 
 9380000     1.002192 7.7611477e-05   0.52263837  0.006287538            0   0.51635083    1.4957716    2.0184099    7.3829152 
 9385000    1.0097029 4.4648185e-05   0.49338774 0.0084122999            0   0.48497544    1.5069816    2.0003694    5.0864519 
 9390000   0.98811995 1.5730116e-05    0.5093073  0.030804577            0   0.47850273     1.474769    1.9840763     3.071342 
 9395000   0.97560225 -4.9229379e-05    0.4974673  0.017163574            0   0.48030373    1.4560864    1.9535537    -1.449181 
 9400000   0.99375962 -3.8785364e-05    0.4692664  0.010227643            0   0.45903876    1.4831862    1.9524526  -0.72839174 
 9405000   0.96669822 -2.9365152e-05   0.51749596  0.015568281            0   0.50192768    1.4427971    1.9602931 -0.069426277 
 9410000    1.0031464 -2.7589723e-05   0.45193637  0.016817367            0     0.435119     1.497196    1.9491324  0.042130694 
 9415000   0.97795909 -1.6042907e-05   0.49372153 0.0050681043            0   0.48865343    1.4596039    1.9533255   0.84443976 
 9420000   0.97878197 4.7451894e-06   0.50918863 0.0051189017            0   0.50406972    1.4608321    1.9700207    2.2980082 
 9425000   0.94368142 -7.268542e-06   0.56175603 0.0094607559            0   0.55229527    1.4084445    1.9702005    1.4677989 
 9430000    1.0052684 -5.6624242e-06   0.48473892 0.0073882561            0   0.47735067    1.5003631     1.985102    1.5937152 
 9435000   0.96314851 -3.707489e-05   0.54497858 0.0063393092            0   0.53863927    1.4374992    1.9824777  -0.58013864 
 9440000    1.0095119 -5.9558981e-06   0.47090702  0.002951873            0   0.46795515    1.5066965    1.9776035    1.5659319 
 9445000    1.0105338 4.8986639e-05   0.46333129 0.0035682661            0   0.45976302    1.5082217     1.971553    5.3575094 
 9450000    1.0225267 -3.0237027e-06   0.45597228  0.007231122            0   0.44874116    1.5261211    1.9820934    1.7730951 
 9455000   0.92756929 -4.7643738e-05   0.58407852   0.03408766            0   0.54999086    1.3843972    1.9684757   -1.3246595 
 9460000   0.97229608 -4.0783039e-05   0.50754734  0.049130265            0   0.45841708    1.4511519    1.9586992  -0.86022444 
 9465000    1.0058406 -4.1825893e-06   0.45779335   0.03838826            0   0.41940509    1.5012171    1.9590104    1.6699099 
 9470000    1.0038793 5.1390631e-05   0.46818159   0.01060231            0   0.45757928    1.4982899    1.9664715     5.518592 
 9475000    1.0157177 2.3557078e-05   0.45321203  0.020069068            0   0.43314296    1.5159587    1.9691707    3.5974359 
 9480000   0.92973161 -5.2871123e-05   0.56067643  0.028819959            0   0.53185647    1.3876244    1.9483009   -1.7061512 
 9485000   0.98091752 -1.0714404e-05   0.50130776  0.014298426            0   0.48700933    1.4640194    1.9653272    1.2247476 
 9490000   0.97614485 -3.444784e-05   0.51234972 0.0033973946            0   0.50895233    1.4568962    1.9692459   -0.4117888 
 9495000   0.92858184 2.9323585e-05   0.55726759  0.015707711            0   0.54155988    1.3859084     1.943176    3.9700222 
 9500000    1.0020081 7.305593e-05   0.46746841  0.011071944            0   0.45639647     1.495497    1.9629654    7.0125913 
 9505000   0.95828065 6.3571056e-05     0.516295   0.01247463            0   0.50382037    1.4302339    1.9465289    6.3405603 
 9510000   0.96195999 -5.7724731e-05   0.48549451  0.021122526            0   0.46437199    1.4357253    1.9212198   -2.0687136 
 9515000   0.95263807 -5.6187085e-05   0.50442391  0.028628086            0   0.47579582    1.4218123    1.9262362   -1.9574151 
 9520000   0.99718793 -1.4982487e-06   0.44663678  0.019217035            0   0.42741974     1.488303    1.9349398    1.8313808 
 9525000   0.96839063 -9.7097949e-06   0.50696448  0.027054504            0   0.47990998     1.445323    1.9522875    1.2811465 
 9530000   0.93003333 -3.6125374e-05   0.56005109  0.018729124            0   0.54132196    1.3880747    1.9481258  -0.54886003 
 9535000    0.9582999 2.7432288e-05   0.51641503  0.017009138            0   0.49940589    1.4302626    1.9466776    3.8427974 
 9540000   0.93587561 3.2486946e-05   0.54076962  0.016406321            0    0.5243633    1.3967944     1.937564    4.1830617 
 9545000   0.94501273 4.0438974e-05   0.51531513  0.016876247            0   0.49843889    1.4104315    1.9257466    4.7208885 
 9550000    1.0062194 1.0977812e-05     0.423953 0.0025359229            0   0.42141707    1.5017824    1.9257354    2.6845218 
 9555000   0.94150394 -6.0161641e-05    0.5222874 0.0041267452            0   0.51816065    1.4051946     1.927482   -2.2308906 
 9560000   0.94090652 -7.1899962e-05   0.50810305  0.011827359            0   0.49627569     1.404303     1.912406   -3.0573193 
 9565000   0.88585808 -2.2361952e-05   0.58268436   0.04845098            0   0.53423338    1.3221432    1.9048275   0.35916939 
 9570000    0.9895832 4.3345334e-06   0.44200295  0.029283171            0   0.41271978    1.4769529    1.9189559    2.2185588 
 9575000   0.90841115 -3.362737e-05   0.55827177  0.018850506            0   0.53942127    1.3558036    1.9140754   -0.4102484 
 9580000   0.93438376 -5.5794176e-05   0.51387336  0.016855538            0   0.49701782    1.3945678    1.9084411   -1.9480524 
 9585000   0.91500013 -7.6615743e-05   0.52512795 0.0098477632            0   0.51528019    1.3656377    1.8907656   -3.4049145 
 9590000   0.93679831 -4.1480717e-06   0.49388777  0.017379354            0   0.47650842    1.3981715    1.8920592    1.6053445 
 9595000   0.92279865 2.6167231e-05   0.52337143  0.026663124            0   0.49670831     1.377277    1.9006484    3.7093274 
 9600000   0.92065031 -1.4322755e-05   0.53024868  0.022870444            0   0.50737823    1.3740706    1.9043193   0.91433042 
 9605000   0.90140599 2.7124106e-05   0.55355239  0.011632602            0   0.54191979    1.3453484    1.8989008     3.773719 
 9610000   0.96778047 -1.5258496e-05   0.46768014  0.015671789            0   0.45200835    1.4444124    1.9120925   0.85742527 
 9615000   0.97851245 -1.1899784e-05   0.44876721  0.020607253            0   0.42815996    1.4604298     1.909197     1.086684 
 9620000   0.91422971 -6.705338e-05   0.53993596  0.016694998            0   0.52324096    1.3644878    1.9044238   -2.7303058 
 9625000   0.92369495 -3.1448716e-05    0.5372876  0.010134753            0   0.52715284    1.3786147    1.9159023  -0.25783294 
 9630000   0.93367396 8.8461059e-07   0.52943213  0.017118209            0   0.51231392    1.3935084    1.9229405    1.9840848 
 9635000   0.97851079 -1.5679265e-05   0.48850679  0.020352001            0   0.46815479    1.4604274    1.9489341   0.86518332 
 9640000   0.98054394 -3.1676322e-05   0.46769602 0.0092852112            0   0.45841081    1.4634618    1.9311579  -0.25830955 
 9645000    0.9852772 -3.1418943e-05   0.46981326  0.005468423            0   0.46434484    1.4705262    1.9403395  -0.23133785 
 9650000   0.95642901 5.6750663e-05   0.50293918 0.0087432035            0   0.49419598    1.4274703    1.9304095    5.8530153 
 9655000   0.96255972 3.2809984e-05   0.50101937  0.030477563            0    0.4705418    1.4366204    1.9376397    4.2054658 
 9660000   0.89982931 -2.2701148e-06   0.59841617  0.038877504            0   0.55953867    1.3429952    1.9414114    1.7845011 
 9665000   0.98964745 3.1554164e-05   0.45500528  0.028192812            0   0.42681247    1.4770488    1.9320541    4.1130779 
 9670000   0.93660208 9.838856e-06    0.5317765  0.019096165            0   0.51268034    1.3978786    1.9296551    2.6097168 
 9675000   0.96449896 -9.022889e-06    0.4881526  0.018647621            0   0.46950498    1.4395147    1.9276673    1.3040052 
 9680000   0.90751837 3.1751072e-05   0.56138991  0.017384804            0   0.54400511    1.3544712    1.9158611    4.1104952 
 9685000   0.90573748 1.5168624e-05   0.54604206   0.02795848            0   0.51808358    1.3518132    1.8978552    2.9463105 
 9690000    0.9436407 -2.4884971e-06   0.48677272  0.020771911            0   0.46600081    1.4083837    1.8951565    1.7231515 
 9695000   0.94342645 -2.0452237e-05   0.48031677 0.0078096581            0   0.47250712     1.408064    1.8883808   0.47472215 
 9700000    0.9168233 -1.1212077e-05   0.50681508 0.0066213704            0   0.50019371    1.3683588    1.8751739    1.1001951 
 9705000    0.9103146 -2.8818846e-05   0.52455004  0.023006694            0   0.50154335    1.3586445    1.8831946  -0.10876402 
 9710000    0.9374363 2.5160284e-05   0.46770826  0.028617966            0    0.4390903    1.3991237    1.8668319    3.6059107 
 9715000   0.87034836 4.7167975e-07   0.54184487  0.010103341            0   0.53174153    1.2989949    1.8408398    1.8734423 
 9720000   0.88672644 -3.5826688e-05   0.52867087 0.0070247818            0   0.52164609    1.3234392    1.8521101  -0.62423062 
 9725000    0.9299084 -2.3141251e-06   0.47383652  0.009038576            0   0.46479794    1.3878883    1.8617248    1.7017725 
 9730000   0.89400357 2.4410565e-05   0.54095029  0.015275734            0   0.52567455    1.3343003    1.8752506    3.5625088 
 9735000   0.88930585 -3.6613142e-05   0.53206164  0.019816257            0   0.51224539     1.327289    1.8593506  -0.67134975 
 9740000     0.906896 1.4146066e-05   0.51242678  0.025663988            0   0.48676279    1.3535423    1.8659691    2.8437451 
 9745000   0.90076168 5.9966736e-05   0.52822347  0.016225186            0   0.51199829    1.3443868    1.8726103    6.0175111 
 9750000   0.88806902 -1.747264e-05   0.55075572  0.020279609            0   0.53047611     1.325443    1.8761987   0.66848982 
 9755000   0.91117541 3.4456744e-06   0.52266963  0.012962473            0   0.50970716    1.3599293    1.8825989    2.1207639 
 9760000   0.88504217 7.7199855e-05   0.55957699 0.0067233975            0   0.55285359    1.3209254    1.8805024    7.2165564 
 9765000   0.93070179 7.4494696e-05   0.47766861 0.0050303236            0   0.47263828    1.3890724     1.866741    7.0158144 
 9770000    0.8953318 3.3835524e-05   0.51084274  0.010511156            0   0.50033158    1.3362827    1.8471255    4.1858369 
 9775000   0.88988961 3.0845991e-05   0.51592995  0.034836584            0   0.48109336    1.3281602    1.8440902    3.9761651 
 9780000   0.82507956 -4.4087206e-05   0.58782921  0.032538891            0   0.55529032    1.2314312    1.8192605   -1.2280472 
 9785000   0.93167347 2.8341098e-05   0.42593664  0.030707749            0   0.39522889    1.3905226    1.8164593     3.775396 
 9790000   0.88640923 4.0038367e-05   0.49497101  0.033577811            0    0.4613932    1.3229658    1.8179368    4.5853887 
 9795000   0.85052319 4.3264069e-05   0.53869667  0.028751265            0   0.50994541    1.2694059    1.8081025    4.7985149 
 9800000   0.88074509 1.4702919e-05   0.49388947  0.026019745            0   0.46786972     1.314512    1.8084015    2.8246672 
 9805000   0.89063909 -1.5757561e-05   0.48487659  0.010702225            0   0.47417437    1.3292788    1.8141554    0.7249928 
 9810000   0.88142915 1.417926e-05   0.49638392  0.019814338            0   0.47656959     1.315533    1.8119169    2.7919874 
 9815000   0.90674779 9.982087e-06   0.48160329  0.010281762            0   0.47132153    1.3533211    1.8349244    2.5248862 
 9820000    0.8570229 2.0440557e-05   0.55316129  0.014346496            0    0.5388148    1.2791067     1.832268    3.2451193 
 9825000   0.89876399 3.6303731e-05   0.50463811  0.032958877            0   0.47167924    1.3414053    1.8460434    4.3553573 
 9830000   0.86471838 1.6123453e-05   0.54104578  0.033649717            0   0.50739606    1.2905922     1.831638     2.946091 
 9835000   0.85899475 4.4755644e-05   0.56640588  0.029043522            0   0.53736236    1.2820497    1.8484555    4.9419657 
 9840000   0.91667506 -1.4085199e-06   0.49586594  0.024064507            0   0.47180143    1.3681375    1.8640035    1.7666466 
 9845000   0.90737831 -1.3968979e-05   0.51519875  0.027843268            0   0.48735548    1.3542621    1.8694609   0.90392504 
 9850000   0.93214574 4.0118166e-05   0.49626814  0.024627159            0   0.47164098    1.3912275    1.8874957    4.6604633 
 9855000   0.89415486 3.0754103e-06   0.54143187 0.0092719905            0   0.53215987    1.3345261     1.875958    2.0885304 
 9860000   0.90920691 -2.0514001e-05   0.52259148 0.0075744715            0   0.51501701    1.3569913    1.8795828   0.46165508 
 9865000   0.94414114 -6.3483335e-05    0.4605651  0.018009869            0   0.44255523    1.4091306    1.8696957   -2.5182724 
 9870000    0.9081279 -5.7475129e-05   0.49241134   0.01816431            0   0.47424703    1.3553809    1.8477922   -2.1248887 
 9875000   0.89370554 -4.0959288e-05   0.50036882 0.0075199299            0   0.49284889    1.3338555    1.8342243  -0.99688163 
 9880000   0.88231134 -1.126318e-05   0.51648945 0.0060700755            0   0.51041938    1.3168497    1.8333391    1.0548281 
 9885000   0.90897795 2.7720278e-06   0.49758633 0.0066134823            0   0.49097285    1.3566496    1.8542359    2.0458385 
 9890000   0.90444679 2.0397533e-05   0.50336932 0.0093643498            0   0.49400497    1.3498868    1.8532562    3.2631337 
 9895000   0.87250045 5.7624308e-05   0.55374108 0.0070371883            0   0.54670389    1.3022069     1.855948    5.8389402 
 9900000   0.95382932 5.0237733e-05   0.45632064 0.0043201894            0   0.45200045    1.4235903    1.8799109     5.352343 
 9905000   0.95044876 1.0758111e-05   0.48908024 0.0024957676            0   0.48658447    1.4185448     1.907625    2.6512256 
 9910000   0.92766081 -1.4704559e-05   0.51426872 0.0075814278            0    0.5066873    1.3845338    1.8988025   0.88242336 
 9915000   0.96527419 1.4541044e-05    0.4541249  0.009914502            0   0.44421039    1.4406717    1.8947966    2.8998736 
 9920000   0.95785792 -3.0958867e-05   0.47652025  0.004603075            0   0.47191718    1.4296029    1.9061232  -0.23375369 
 9925000   0.95029478 -6.6151582e-05   0.50456771  0.014281933            0   0.49028578     1.418315    1.9228827   -2.6495147 
 9930000   0.95047824 -1.8579696e-05   0.49668816  0.013374041            0   0.48331412    1.4185888    1.9152769   0.63104837 
 9935000   0.91412853 -9.910403e-06   0.54757851  0.015655541            0   0.53192297    1.3643368    1.9119153    1.2269083 
 9940000   0.94137977 2.8523432e-05   0.51683267  0.017619396            0   0.49921328    1.4050093     1.921842    3.8933816 
 9945000   0.91231983 1.3279668e-05   0.54676582  0.015662042            0   0.53110378    1.3616373    1.9084032    2.8262938 
 9950000   0.91545627 -1.5128849e-05   0.54056838  0.012846609            0   0.52772178    1.3663185    1.9068869   0.86118086 
 9955000   0.91223895 2.1957172e-05   0.53376413  0.031773737            0   0.50199039    1.3615166    1.8952808    3.4129605 
 9960000   0.93960315 5.9495877e-05    0.5078044  0.017652741            0   0.49015166    1.4023577    1.9101621    6.0225171 
 9965000    0.9516957 -2.6861502e-05   0.48802813  0.013697757            0   0.47433038    1.4204058     1.908434  0.051766947 
 9970000   0.90196421 -4.5651299e-05   0.56699723  0.015100089            0   0.55189714    1.3461816    1.9131788    -1.242239 
 9975000   0.93675852 -8.6610922e-05   0.51425484  0.010121521            0   0.50413332    1.3981121    1.9123669     -4.07418 
 9980000   0.94977756 5.8261547e-07   0.50355895  0.019424854            0    0.4841341     1.417543     1.921102    1.9613723 
 9985000    0.9105144 6.6053744e-05   0.57360131  0.016001776            0   0.55759953    1.3589427    1.9325441    6.4981789 
 9990000   0.97218035 7.580119e-05   0.46909252  0.015883944            0   0.45320857    1.4509792    1.9200717      7.15945 
 9995000   0.96191576 -9.2152644e-06   0.48813608  0.019401253            0   0.46873483    1.4356593    1.9237953    1.2868363 
10000000   0.96100487 1.2336196e-05   0.48862485  0.034809968            0   0.45381488    1.4342998    1.9229246    2.7756025 
10005000   0.89208342 -1.989595e-05   0.59397138 0.0099830429            0   0.58398834    1.3314345    1.9254059   0.55019781 
10010000   0.94451734 -2.9802917e-06   0.50847728  0.046302498            0   0.46217478    1.4096921    1.9181694    1.7121716 
10015000   0.92214218 -9.2990149e-06   0.52469515  0.018025635            0   0.50666951    1.3762972    1.9009924    1.2582444 
10020000   0.89043306 2.6631914e-05   0.57667979  0.014883436            0   0.56179635    1.3289713    1.9056511     3.746449 
10025000   0.91857049 5.9942008e-06   0.52642308   0.02159147            0   0.50483161    1.3709665    1.8973895    2.3117087 
10030000    0.9168558 7.3333754e-05   0.52829183   0.02456076            0   0.50373107    1.3684073    1.8966991    6.9655282 
10035000   0.95333031 6.4440112e-05   0.48536936  0.038690501            0   0.44667886    1.4228455    1.9082149    6.3623154 
10040000   0.96493518 -9.8323547e-07   0.46982738  0.018137616            0   0.45168976    1.4401658    1.9099931    1.8420319 
10045000   0.92860307 3.3772868e-05   0.51605148 0.0079685638            0   0.50808292    1.3859401    1.9019916    4.2363722 
10050000    0.9052095 -5.9700618e-06   0.54293673  0.004767691            0   0.53816904    1.3510252    1.8939619    1.4813112 
10055000   0.88054197 8.6396807e-06   0.56685964  0.014774318            0   0.55208532    1.3142089    1.8810685    2.4782433 
10060000   0.91280449 -2.2425163e-06   0.50564635  0.010505437            0   0.49514092    1.3623607    1.8680071    1.7130043 
10065000   0.89215124 -3.0099858e-05   0.54346703  0.012515431            0    0.5309516    1.3315357    1.8750027  -0.20549942 
10070000   0.89842124 4.6144944e-05   0.54976472  0.022980766            0   0.52678395    1.3408937    1.8906584    5.0801969 
10075000   0.93307105 2.7127451e-05   0.49086869 0.0097643898            0    0.4811043    1.3926085    1.8834772    3.7585266 
10080000   0.97576403 3.4573982e-06   0.42065201  0.012083595            0   0.40856842    1.4563278    1.8769798    2.1159552 
10085000   0.90339423 2.1223631e-05   0.52954613  0.014518517            0   0.51502761    1.3483159     1.877862    3.3448394 
10090000   0.93382313 -1.372691e-05   0.47854974 0.0099170352            0   0.46863271     1.393731    1.8722808   0.92347674 
10095000    0.9120169 2.9259333e-05   0.47926163  0.010460511            0   0.46880111    1.3611852    1.8404468    3.8628519 
10100000   0.87843021 -7.1302433e-06   0.51831046  0.020889637            0   0.49742082    1.3110571    1.8293676    1.3365251 
10105000    0.9331752 -1.2233628e-05   0.42643456  0.021047482            0   0.40538708     1.392764    1.8191985   0.97361015 
10110000   0.90238969 2.2553393e-05   0.46876318  0.031245473            0    0.4375177    1.3468166    1.8155798    3.3744703 
10115000   0.83457182 -5.3330016e-05   0.57277641  0.019700877            0   0.55307553    1.2455984    1.8183748   -1.8677959 
10120000   0.83660098 -1.5641306e-05   0.56459172 0.0092053866            0   0.55538634     1.248627    1.8132187   0.73209163 
10125000    0.8947429 -9.3680517e-06   0.47716646 0.0070043996            0   0.47016206    1.3354038    1.8125702    1.1650505 
10130000   0.89223272 -4.0258317e-05   0.49651246  0.013852474            0   0.48265999    1.3316573    1.8281698   -0.9544851 
10135000   0.88779172 -8.4241701e-06   0.51179958  0.014121873            0   0.49767771    1.3250291    1.8368287    1.2545501 
10140000   0.88819718 -1.7173204e-05   0.50512303 0.0057040487            0   0.49941898    1.3256343    1.8307573   0.64374549 
10145000   0.92416189 -2.115275e-05   0.47230598 0.0074254149            0   0.46488056    1.3793116    1.8516176   0.38953955 
10150000   0.91968802 1.0396141e-06   0.48531705  0.024168079            0   0.46114897    1.3726344    1.8579514    1.9298095 
10155000   0.89566387 -2.8352012e-05   0.56529204  0.024946344            0   0.54034569    1.3367783    1.9020704 -0.057620741 
10160000   0.90732589  -4.6069e-05   0.54626295  0.018718586            0   0.52754437    1.3541839    1.9004468   -1.2838425 
10165000   0.92546413 -2.2780517e-05   0.53569079  0.016634414            0   0.51905638    1.3812552     1.916946   0.34235665 
10170000   0.95052992 1.2481317e-05   0.47176273  0.025713815            0   0.44604891    1.4186659    1.8904286    2.7531372 
10175000   0.90631723 1.6631016e-05   0.54881515  0.030645883            0   0.51816927    1.3526785    1.9014936    3.0510294 
10180000   0.88574584 9.0336047e-07   0.57351013  0.042715458            0   0.53079467    1.3219757    1.8954858    1.9579261 
10185000   0.89614715 1.9492054e-05   0.56115846  0.026014852            0   0.53514361    1.3374996    1.8986581    3.2459488 
10190000   0.95738965 2.0798252e-05   0.46073362  0.014331704            0   0.44640192    1.4289041    1.8896377    3.3272129 
10195000    0.8842188 -4.8117044e-06   0.55948051  0.019182243            0   0.54029827    1.3196966    1.8791771    1.5465921 
10200000   0.83810273 -8.4718349e-05   0.61796689  0.018056407            0   0.59991049    1.2508683    1.8688352    -3.986897 
10205000   0.95918578 -4.3829806e-05    0.4420157  0.022689617            0   0.41932608    1.4315848    1.8736005   -1.1559157 
10210000   0.90308278 7.2411884e-05   0.52157007  0.016333837            0   0.50523624     1.347851    1.8694211    6.8745306 
10215000    0.9131356 5.6038329e-05   0.51628522  0.029570877            0   0.48671434    1.3628549    1.8791401    5.7525094 
10220000    0.9353895 -3.0711645e-05   0.50886137  0.010441135            0   0.49842023    1.3960688    1.9049302  -0.21785873 
10225000   0.89968276 -5.9068425e-06   0.56775519  0.015778583            0   0.55197661    1.3427765    1.9105317    1.5022508 
10230000   0.91237177 2.1578542e-05   0.53437444 0.0054775759            0   0.52889686    1.3617149    1.8960893    3.3875982 
10235000   0.92600028 -2.7033823e-05   0.53336842  0.010164081            0   0.52320434    1.3820554    1.9154238  0.046846019 
10240000   0.96030645 3.2635733e-05   0.49717408  0.014664391            0   0.48250968    1.4332574    1.9304314    4.1862133 
10245000   0.89583578 7.0910478e-05   0.58520441  0.022295076            0   0.56290933    1.3370349    1.9222393    6.8235715 
10250000   0.90635821 -4.9904843e-05   0.57551875 0.0082828426            0   0.56723591    1.3527396    1.9282584   -1.5211644 
10255000   0.91197771 -3.7255318e-05    0.5694666 0.0045950769            0   0.56487152    1.3611267    1.9305933  -0.64449426 
10260000   0.94342165 -1.0054945e-05    0.5253813 0.0078961967            0    0.5174851    1.4080568    1.9334381    1.2384403 
10265000   0.94133056 9.0772776e-06   0.55282285  0.027884772            0   0.52493808    1.4049359    1.9577587    2.5851801 
10270000    0.9613352 -1.8115512e-05   0.54322683  0.041807118            0   0.50141972    1.4347928    1.9780196   0.72587542 
10275000   0.90675065 -1.3424643e-05   0.61527522  0.053728725            0   0.56154649    1.3533253    1.9686006    1.0406892 
10280000   0.93847329 5.3159372e-05   0.57214662  0.020642331            0   0.55150429    1.4006714     1.972818    5.6471938 
10285000     0.938331 2.9871587e-05   0.56471449  0.013815845            0   0.55089865     1.400459    1.9651735    4.0298976 
10290000    0.9799188 1.1656904e-05    0.5004758 0.0083923481            0   0.49208345    1.4625288    1.9630046    2.7687298 
10295000   0.92338325 -7.0876629e-05   0.56680693  0.014468952            0   0.55233798    1.3781495    1.9449564   -2.9540361 
10300000   0.87272296 -5.9318862e-05   0.63497222  0.014452357            0   0.62051986     1.302539    1.9375112   -2.1626085 
10305000   0.91962115 -3.876813e-05   0.56197989   0.02868145            0   0.53329844    1.3725346    1.9345145  -0.74513869 
10310000   0.88418033 3.4392113e-05   0.61612474  0.022341199            0   0.59378354    1.3196391    1.9357639    4.3129468 
10315000    0.9316597 3.9060516e-05    0.5510946  0.023663685            0   0.52743092    1.3905021    1.9415967    4.6414596 
10320000   0.95505172 -1.06888e-05   0.50500609  0.010884362            0   0.49412173    1.4254147    1.9304208    1.1916109 
10325000   0.92783825 -5.1420869e-05   0.53543267  0.014924088            0   0.52050858    1.3847986    1.9202313   -1.6339792 
10330000   0.86975239 1.0129035e-05   0.60763418  0.023393788            0   0.58424039    1.2981054    1.9057396    2.6058585 
10335000   0.88254777 5.717732e-05   0.58140922  0.012225922            0   0.56918329    1.3172026    1.8986118    5.8507081 
10340000   0.90719994 4.0996873e-05   0.56645953    0.0128437            0   0.55361583    1.3539959    1.9204554    4.7541593 
10345000    0.9006321 2.8156801e-05   0.58271612  0.015505742            0   0.56721038    1.3441934    1.9269095    3.8731076 
10350000   0.90581394 3.2831036e-05   0.55119172 0.0081701429            0   0.54302158    1.3519273     1.903119    4.1724003 
10355000   0.95276335 1.0140151e-05   0.47422764 0.0079504969            0   0.46627714    1.4219993    1.8962269    2.5971142 
10360000   0.92201743 -5.9181075e-05   0.52052527  0.008222413            0   0.51230286     1.376111    1.8966363   -2.1939596 
10365000   0.87772953 -6.4688546e-05   0.58368231 0.0085347608            0   0.57514755    1.3100113    1.8936936   -2.5775787 
10370000   0.87831785 -4.7169404e-05   0.58842797 0.0047485249            0   0.58367945    1.3108894    1.8993174   -1.3610318 
10375000   0.95430038 -2.9373986e-05   0.46819202 0.0016422774            0   0.46654974    1.4242933    1.8924853  -0.13784459 
10380000   0.90309092 2.2265254e-05   0.53099522 0.0083102554            0   0.52268497    1.3478632    1.8788584    3.4178328 
10385000   0.88197024 1.0719021e-05   0.55871249  0.019812748            0   0.53889975    1.3163406    1.8750531    2.6159518 
10390000    0.8936024 4.0724006e-05   0.56899032  0.020073843            0   0.54891648    1.3337016    1.9026919    4.7175352 
10395000   0.90634306 -1.9126737e-05   0.56367054   0.02092919            0   0.54274135     1.352717    1.9163876   0.59434748 
10400000   0.96678773 -4.1013546e-05   0.47354702   0.01395018            0   0.45959684    1.4429307    1.9164777   -0.9183786 
10405000   0.89040587 -3.5209451e-05   0.59474256  0.033344454            0   0.56139811    1.3289308    1.9236733  -0.51000392 
10410000   0.95774561 4.2023599e-05   0.48548642  0.019212913            0    0.4662735    1.4294353    1.9149217    4.8195929 
10415000   0.89466102 4.2147842e-06     0.601771  0.026927271            0   0.57484373    1.3352816    1.9370526    2.2283785 
10420000   0.92945655 -1.0007697e-05   0.53775112   0.03538184            0   0.50236927    1.3872139     1.924965     1.233233 
10425000   0.97617146 1.7647075e-06   0.47024562  0.024142138            0   0.44610349    1.4569359    1.9271815    2.0491581 
10430000   0.92929121 -2.426349e-05   0.54614271   0.01702682            0   0.52911589    1.3869671    1.9331098   0.25601739 
10435000   0.96225131 9.077712e-06   0.50465139  0.016566541            0   0.48808485    1.4361601    1.9408115    2.5682629 
10440000   0.91706618 1.4889943e-05   0.57617108  0.031850872            0   0.54432021    1.3687213    1.9448924    2.9740852 
10445000   0.90067103 7.8276814e-05   0.59363486  0.033464798            0   0.56017006    1.3442515    1.9378864    7.3483798 
10450000   0.90554849 5.4303735e-05   0.57668418  0.029744111            0   0.54694007    1.3515311    1.9282153    5.6816894 
10455000   0.91525692 1.3479924e-05   0.54364377  0.023157182            0   0.52048659     1.366021    1.9096647    2.8413971 
10460000   0.90012791 -6.3352398e-06   0.56073813  0.018279642            0   0.54245849    1.3434409     1.904179    1.4662873 
10465000   0.89031332 3.2568721e-05   0.55871246  0.010433321            0   0.54827914    1.3287926    1.8875051    4.1386551 
10470000   0.91562672 2.0462885e-05   0.52197978  0.019525352            0   0.50245443    1.3665729    1.8885527    3.3029473 
10475000   0.90561152 6.5962669e-05   0.52603025  0.022297855            0   0.50373239    1.3516252    1.8776554    6.4369951 
10480000   0.94929857 4.184904e-05   0.46943121  0.015619442            0   0.45381177    1.4168281    1.8862593     4.778865 
10485000   0.84365817 -5.0851087e-05   0.62428049  0.029046999            0   0.59523349    1.2591598    1.8834403   -1.6313869 
10490000   0.87644572 -3.2899486e-05   0.58367166  0.028254086            0   0.55541758    1.3080952    1.8917669  -0.38224557 
10495000   0.92526396 -1.2813395e-06   0.51720921  0.025149952            0   0.49205925    1.3809565    1.8981657    1.8095995 
10500000   0.91413878 -1.4309919e-05   0.53137964  0.013957327            0   0.51742231    1.3643521    1.8957318   0.90663019 
10505000   0.91058709 -2.8204929e-05   0.54933528  0.017230995            0   0.53210429    1.3590512    1.9083865 -0.041138206 
10510000   0.91839411 1.4785262e-05   0.52695203  0.013889144            0   0.51306289    1.3707032    1.8976552    2.9196126 
10515000   0.90942118 4.3606817e-05   0.54073639  0.007797919            0   0.53293847    1.3573111    1.8980475    4.9121507 
10520000   0.92544399 -5.4663251e-05   0.51636249 0.0040432062            0   0.51231928    1.3812252    1.8975876   -1.8807363 
10525000   0.92391789 -6.0268464e-05   0.51773453  0.001163963            0   0.51657056    1.3789474     1.896682   -2.2690743 
10530000   0.92302713 -5.3106112e-05   0.52167257 0.0063765657            0     0.515296     1.377618    1.8992906   -1.7714039 
10535000   0.95252545 -6.0260439e-06   0.49549983  0.010609696            0   0.48489013    1.4216442    1.9171441    1.5006239 
10540000   0.91127109 -2.8173233e-05   0.55909045  0.018288288            0   0.54080216    1.3600721    1.9191625 -0.028171328 
10545000   0.95331364 -4.6334931e-05   0.51578088  0.021830523            0   0.49395036    1.4228206    1.9386015   -1.2640689 
10550000   0.95171228 1.4103582e-05   0.52698521 0.0083697403            0   0.51861547    1.4204306    1.9474158    2.9222554 
10555000    1.0170139 -1.9231269e-05   0.44780008   0.02668793            0   0.42111215    1.5178933    1.9656934   0.63642809 
10560000    0.9808879 3.7845231e-05   0.49545838 0.0039449032            0   0.49151348    1.4639752    1.9594336    4.5752959 
10565000   0.93121143 3.0623758e-06   0.54674919 0.0039915073            0   0.54275768    1.3898331    1.9365823    2.1482537 
10570000   0.97829078 -4.3685894e-05   0.48793038 0.0071261301            0   0.48080425     1.460099    1.9480294   -1.0715397 
10575000   0.96762459 3.1160673e-05   0.51466619  0.012069446            0   0.50259675    1.4441797    1.9588459    4.1126716 
10580000    0.9523657 1.8392232e-05    0.5391745  0.041735213            0   0.49743929    1.4214058    1.9605803    3.2318514 
10585000   0.93400139 3.245906e-05   0.55298469  0.045806207            0   0.50717848    1.3939971    1.9469818     4.190552 
10590000   0.92027713 6.068435e-06    0.5770533  0.031314498            0    0.5457388    1.3735136    1.9505669    2.3700171 
10595000   0.96610163 -6.2315961e-06   0.50806572  0.020266172            0   0.48779955    1.4419067    1.9499724    1.5192445 
10600000   0.97159711 2.6366485e-05   0.50664485  0.015611904            0   0.49103294    1.4501087    1.9567535     3.779205 
10605000    0.9755625 -4.8884133e-05   0.50302515  0.020209571            0   0.48281558     1.456027    1.9590522   -1.4198191 
10610000   0.96225062 -5.3588739e-05   0.52670798  0.023293552            0   0.50341443    1.4361591     1.962867   -1.7411866 
10615000    1.0009882 -1.1956818e-05   0.49500165  0.032000057            0   0.46300159    1.4939748    1.9889765    1.1625212 
10620000   0.97458317 -3.4999968e-05   0.54497043   0.03905373            0    0.5059167    1.4545654    1.9995358  -0.41966201 
10625000   0.99395473 -1.6844541e-05    0.5077195  0.017781779            0   0.48993772    1.4834774    1.9911969   0.82690223 
10630000   0.99387269 -4.5295052e-06   0.48774557  0.010472547            0   0.47727302     1.483355    1.9711006    1.6580212 
10635000   0.95263635 -1.0037315e-05   0.57334517  0.030665755            0   0.54267941    1.4218098    1.9951549    1.3013757 
10640000   0.95554266 -5.0276312e-05   0.55962955  0.021815874            0   0.53781368    1.4261474     1.985777   -1.4893217 
10645000   0.99616345 1.3898226e-05   0.49098579  0.013583536            0   0.47740225     1.486774    1.9777597    2.9384051 
10650000   0.96530195 6.5112228e-05    0.5296217  0.018080898            0    0.5115408    1.4407132    1.9703349     6.470892 
10655000   0.95038947 4.1162735e-05   0.54868706  0.050087932            0   0.49859913    1.4184563    1.9671433    4.8123116 
10660000   0.92249671 2.7488708e-05   0.61142023  0.015124148            0   0.59629609    1.3768263    1.9882466    3.8882661 
10665000    1.0203864 -1.1778429e-05    0.4791433 0.0074380509            0   0.47170525    1.5229267      2.00207     1.187945 
10670000    1.0207327 3.7984655e-05   0.47432384  0.027483515            0   0.44684032    1.5234435    1.9977673    4.6232667 
10675000    1.0065102 -3.9255511e-05   0.47866671  0.022098333            0   0.45656837    1.5022165    1.9808832  -0.73245776 
10680000   0.97506981 -6.5080429e-05   0.52631902  0.038610282            0   0.48770874    1.4552917    1.9816107   -2.5167485 
10685000   0.99805669 -2.4841143e-05   0.50039837   0.02381248            0   0.47658589    1.4895996     1.989998   0.27297815 
10690000    1.0006815 -1.5598502e-05   0.51493824  0.014034941            0    0.5009033    1.4935171    2.0084554    0.9302869 
10695000    1.0495497 4.8150666e-06   0.46609586  0.016476156            0   0.44961971     1.566453    2.0325489    2.3653663 
10700000    1.0130744 -1.3445876e-05   0.53522674  0.020889035            0    0.5143377    1.5120135    2.0472402    1.1178613 
10705000     1.047871 -5.5723458e-05   0.48072711  0.020179527            0   0.46054758    1.5639475    2.0446746   -1.8069308 
10710000    1.0410971 -6.5253428e-05   0.48651208  0.025767734            0   0.46074434    1.5538375    2.0403496   -2.4699674 
10715000    1.0109927 -9.6530585e-05   0.52873953 0.0090265391            0   0.51971299    1.5089066    2.0376461   -4.6345479 
10720000   0.97696202 1.1734893e-05   0.57749005  0.010936693            0   0.56655336    1.4581158    2.0356059    2.8467216 
10725000    1.0515482 4.0714248e-05   0.47440641  0.021674912            0    0.4527315    1.5694356     2.043842    4.8580108 
10730000    1.0136241 9.5898382e-05   0.51734202  0.028384989            0   0.48895703    1.5128339    2.0301759    8.6586721 
10735000    1.0304756 2.9147565e-05   0.47940845  0.020816491            0   0.45859196    1.5379849    2.0173933     4.032073 
10740000   0.97624889 -1.2262731e-05    0.5488441  0.044724313            0   0.50411979    1.4570515    2.0058956    1.1582956 
10745000   0.96720939 -3.5763631e-05   0.56121254  0.036649284            0   0.52456325      1.44356    2.0047726  -0.46720963 
10750000    1.0023507 -1.7522537e-05   0.49976897   0.01695387            0    0.4828151    1.4960084    1.9957773   0.78461959 
10755000   0.95489556 -1.0768566e-05   0.54485125 0.0044305198            0   0.54042073    1.4251816    1.9700329    1.2257096 
10760000    1.0272369 2.6273705e-05   0.43942969  0.011648045            0   0.42778165    1.5331511    1.9725808    3.7886193 
10765000   0.95637497 -4.6575611e-06   0.53533482  0.021138248            0   0.51419657    1.4273896    1.9627245    1.6407938 
10770000   0.99473623 4.5803791e-05   0.47782291  0.020021746            0   0.45780116    1.4846438    1.9624667    5.1284247 
10775000   0.95916806 3.314824e-05     0.545856  0.010820738            0   0.53503527    1.4315583    1.9774143    4.2686207 
10780000   0.97084488 -7.545954e-05   0.52622086 0.0084431808            0   0.51777767     1.448986    1.9752068   -3.2405566 
10785000    1.0133903 -5.6846458e-05   0.45517417 0.0086157275            0   0.44655844     1.512485    1.9676591    -1.961568 
10790000   0.99021418 3.2309703e-05   0.49203063  0.033203249            0   0.45882738    1.4778947    1.9699253     4.203172 
10795000   0.93943517 2.9135986e-05   0.56365218  0.018344669            0   0.54530751     1.402107    1.9657592    3.9796386 
10800000   0.96633948 9.6426081e-06   0.54981699  0.029510595            0    0.5203064    1.4422617    1.9920787    2.6585757 
10805000   0.98454515 -4.7834617e-05   0.51253938  0.034348491            0   0.47819089    1.4694336     1.981973   -1.3243557 
10810000   0.99093203 -1.2521032e-05   0.51403279  0.020364297            0    0.4936685    1.4789661    1.9929989    1.1275451 
10815000    1.0089219 5.4907341e-05   0.50494916   0.02117851            0   0.48377065    1.5058159    2.0107651    5.8059605 
10820000   0.95303557 3.4905956e-06   0.56655208  0.024625402            0   0.54192668    1.4224056    1.9889577    2.2302276 
10825000     1.025499 -1.7289961e-06   0.46357702  0.021686512            0   0.44189051    1.5305573    1.9941343    1.8746261 
10830000   0.99924376 1.3608141e-05   0.50503631  0.017988412            0    0.4870479    1.4913713    1.9964076    2.9370023 
10835000   0.99211192 -2.0733566e-05   0.50311216  0.018536936            0   0.48457523     1.480727    1.9838392    0.5507351 
10840000   0.97193461 -3.5291342e-05   0.52324302  0.022044666            0   0.50119835    1.4506124    1.9738554  -0.46548217 
10845000   0.98124477 -2.3727874e-05   0.51396306 0.0042011488            0   0.50976191    1.4645078    1.9784709   0.33840023 
10850000   0.94746702 -5.3780486e-05    0.5530985 0.0058646054            0    0.5472339    1.4140945     1.967193   -1.7501141 
10855000    0.9198427 -1.4837784e-05   0.58801382  0.022902033            0   0.56511179    1.3728652    1.9608791   0.93529141 
10860000   0.96198922 4.5481105e-05    0.5305837  0.020262621            0   0.51032108    1.4357689    1.9663526    5.1100066 
10865000   0.99344587 5.1267018e-05   0.47645098  0.011675281            0    0.4647757     1.482718    1.9591689    5.5027452 
10870000   0.92159931 1.749356e-05   0.59705141  0.023139424            0   0.57391199     1.375487    1.9725384    3.1816932 
10875000   0.95987135 -1.7422761e-06   0.55811679  0.026937547            0   0.53117925     1.432608    1.9907248    1.8702987 
10880000   0.98385444 2.4106434e-05   0.51613246  0.025473622            0   0.49065884    1.4684028    1.9845352    3.6507719 
10885000   0.96479076 -3.4916099e-06   0.55044114  0.028229624            0   0.52221152    1.4399502    1.9903914    1.7490513 
10890000   0.99713873 3.9548258e-05   0.51079355  0.023452618            0   0.48734094    1.4882296    1.9990231    4.7325987 
10895000   0.93394513 6.7883701e-05   0.61346732  0.036683136            0   0.57678419    1.3939131    2.0073804    6.6995019 
10900000   0.97782859 3.2816894e-06   0.56442748  0.014167401            0   0.55026008    1.4594092    2.0238366     2.250667 
10905000    1.0074819 7.0859082e-06    0.5095425  0.010024826            0   0.49951767    1.5036667    2.0132092    2.5029872 
10910000   0.95737183 1.4635639e-05   0.59137755  0.026612469            0   0.56476508    1.4288775     2.020255    3.0318704 
10915000    1.0152348 -6.464485e-06   0.51265649  0.017285647            0   0.49537084    1.5152379    2.0278944    1.5810692 
10920000   0.91732158 -3.0893343e-05     0.669817   0.04487809            0   0.62493891    1.3691025    2.0389195 -0.096428437 
10925000   0.97410495 -5.9633768e-05   0.57288711  0.028859404            0   0.54402771    1.4538516    2.0267387   -2.0951473 
10930000   0.98890447 -3.2294873e-05   0.55956388 0.0097679038            0   0.54979597    1.4759399    2.0355038  -0.19671782 
10935000    0.9953926 -3.7102635e-05   0.56002133  0.013768738            0   0.54625259    1.4856235    2.0456448  -0.51888932 
10940000   0.96789468 8.2841523e-07   0.58468659  0.017936667            0   0.56674992    1.4445828    2.0292694    2.0865295 
10945000   0.95873925 1.5179967e-05    0.5864141  0.014484057            0   0.57193005    1.4309183    2.0173324    3.0665717 
10950000   0.97303515 1.9729132e-05   0.56587932 0.0098164787            0   0.55606284     1.452255    2.0181343    3.3818119 
10955000    1.0256062 4.2961642e-06   0.50028266 0.0036403331            0   0.49664233    1.5307172    2.0309999    2.3279507 
10960000   0.93116186 -1.9237814e-05   0.63946202   0.01302644            0   0.62643558    1.3897591    2.0292211   0.69950336 
10965000   0.92963619 -5.0973216e-06   0.64489645   0.01709216            0   0.62780429     1.387482    2.0323785    1.6800516 
10970000   0.95075441 1.184457e-05   0.60328887  0.019362996            0   0.58392587     1.419001    2.0222898    2.8409865 
10975000    1.0315618 9.9062934e-06    0.4697868  0.009939117            0   0.45984768    1.5396061    2.0093929    2.6941159 
10980000   0.94219337 -5.9660194e-05    0.5978883  0.020718374            0   0.57716993    1.4062236    2.0041119   -2.1196007 
10985000   0.99365979 -3.4031647e-05   0.52362208  0.017963265            0   0.50565882    1.4830372    2.0066593  -0.34560809 
10990000    0.9108483 -4.8871142e-07   0.63943274  0.032745021            0   0.60668771    1.3594411    1.9988738    1.9650941 
10995000    0.9162122 1.8442954e-05   0.61451658   0.04733207            0   0.56718451    1.3674467    1.9819633    3.2567403 
11000000   0.96462306 3.4382657e-05   0.55073101  0.016108579            0   0.53462243    1.4396999    1.9904309    4.3669602 
11005000   0.93840657 -2.4980998e-05     0.583438 0.0075345827            0   0.57590341    1.4005718    1.9840098    0.2573232 
11010000   0.99178677 -4.162582e-05    0.5109558  0.020277446            0   0.49067835    1.4802418    1.9911976   -0.8859791 
11015000   0.92691203 2.1109646e-05   0.59872642  0.047792239            0   0.55093418    1.3834162    1.9821426    3.4412413 
11020000    0.9499025 2.4514629e-05   0.56277497  0.034415408            0   0.52835956    1.4177295    1.9805045    3.6749556 
11025000   0.94594894 -2.8416651e-05   0.57418814  0.032954331            0   0.54123381    1.4118288    1.9860169  0.021857995 
11030000   0.98624592 -4.5250973e-06   0.51475754  0.014218503            0   0.50053904     1.471972    1.9867296    1.6739548 
11035000    1.0151794 1.1669492e-05   0.47938558  0.017994001            0   0.46139158    1.5151553    1.9945409    2.8011361 
11040000   0.93488423 8.9288321e-06   0.60881055  0.024334907            0   0.58447565    1.3953147    2.0041253    2.6212861 
11045000   0.98123381 6.1952346e-05   0.54160566  0.021814335            0   0.51979133    1.4644915    2.0060971    6.2882433 
11050000   0.93447614 5.8825796e-05   0.62406146  0.034751934            0   0.58930953    1.3947056    2.0187671    6.0848061 
11055000   0.96931791 6.1761937e-05   0.56886425  0.015614998            0   0.55324925     1.446707    2.0155712    6.2845563 
11060000    1.0321572 5.1457137e-05   0.48351911 0.0054242876            0   0.47809482    1.5404946    2.0240138    5.5807311 
11065000    1.0113828 3.8299737e-05   0.54869172 0.0081653435            0   0.54052638    1.5094889    2.0581806    4.7054584 
11070000   0.98260237 -8.1968497e-06   0.59706857  0.029743855            0   0.56732472     1.466534    2.0636026    1.4970364 
11075000    1.0170318 -4.5611836e-05   0.54261171  0.025769091            0   0.51684262    1.5179199    2.0605316   -1.0921585 
11080000    1.0006799 -1.4385893e-05   0.57005349  0.019031513            0   0.55102197    1.4935148    2.0635683    1.0692154 
11085000   0.99818405 3.7799323e-05   0.56157522  0.028091306            0   0.53348391    1.4897897    2.0513649    4.6640542 
11090000    1.0176155 -3.7329485e-06   0.52796291  0.027059229            0   0.50090368    1.5187911     2.046754    1.7887326 
11095000   0.99453654 -6.4283557e-05    0.5570205  0.031564466            0   0.52545604    1.4843458    2.0413663   -2.4019132 
11100000   0.98352064 -3.2969386e-05   0.56095048 0.0090510321            0   0.55189945    1.4679046     2.028855  -0.24998895 
11105000    0.9790775 1.6176786e-06   0.57856287  0.019410031            0   0.55915284    1.4612732     2.039836      2.15165 
11110000    1.0091269 2.5426856e-05   0.53605007  0.030815931            0   0.50523414    1.5061219    2.0421719    3.7996762 
11115000   0.99525676 3.8661394e-05   0.55228964   0.03559958            0   0.51669005    1.4854207    2.0377104    4.7099859 
11120000   0.97851418 2.6451838e-05   0.54737403  0.029171686            0   0.51820234    1.4604324    2.0078064    3.8361575 
11125000   0.98480759 -1.9284207e-05   0.53785976  0.022541221            0   0.51531854    1.4698253    2.0076851   0.67476073 
11130000    1.0023419 -4.7223706e-05   0.50236795  0.011263223            0   0.49110473    1.4959953    1.9983633   -1.2657393 
11135000   0.98813089 -1.8184595e-05   0.53729744 0.0095197384            0    0.5277777    1.4747854    2.0120828   0.75516357 
11140000    1.0174518 -1.2784757e-07   0.48347192  0.013173064            0   0.47029886    1.5185468    2.0020188    1.9931819 
11145000    1.0011278 1.6553435e-05   0.49247907 0.0082423284            0   0.48423674    1.4941832    1.9866623    3.1308357 
11150000   0.98257658 -3.2460633e-06   0.53840584  0.025369263            0   0.51303658    1.4664955    2.0049014    1.7805335 
11155000    0.9795241 -2.2928869e-05   0.52386381  0.014097943            0   0.50976587    1.4619397    1.9858035   0.40096011 
11160000   0.97633452 -1.2570747e-05   0.53312274  0.007705158            0   0.52541758    1.4571793     1.990302     1.121412 
11165000    1.0025805 7.7894142e-06   0.49571704 0.0051778252            0   0.49053921    1.4963514    1.9920684    2.5304727 
11170000    1.0022728 3.7480296e-05   0.52122026  0.021209666            0   0.50001059    1.4958922    2.0171125    4.6077505 
11175000    0.9980549 -4.196782e-06   0.53805831  0.022004336            0   0.51605397    1.4895969    2.0276553    1.7375737 
11180000     1.019651 -2.8269809e-05   0.51953525  0.018999287            0   0.50053596    1.5218292    2.0413644  0.087355225 
11185000    1.0736904 -2.0161614e-06   0.45896884  0.023019699            0   0.43594914     1.602483    2.0614518    1.9220947 
11190000    1.0103781 2.3269504e-06   0.55895068  0.024376507            0   0.53457418    1.5079894    2.0669401    2.2277789 
11195000    1.0360905 -9.5033074e-06   0.51527831    0.0224391            0   0.49283921    1.5463651    2.0616434    1.4047748 
11200000    1.0613562 3.7731935e-06   0.49818492 0.0054170789            0   0.49276784    1.5840742    2.0822591    2.3430622 
11205000    1.0444062 2.8167883e-05   0.52872739 0.0032450286            0   0.52548236    1.5587762    2.0875036    4.0344677 
11210000   0.99390055 3.0921336e-05   0.56795725  0.009765628            0   0.55819162    1.4833966    2.0513538    4.1886366 
11215000    1.0014129 -7.6120016e-07   0.55741223  0.042558301            0   0.51485393    1.4946088     2.052021    1.9994068 
11220000    1.0512803 -7.607423e-05   0.50255043  0.035799357            0   0.46675107    1.5690359    2.0715863   -3.1866645 
11225000    1.0766675 -6.1848772e-05    0.5001423  0.031006739            0   0.46913556    1.6069263    2.1070686   -2.1679185 
11230000    1.0333396 4.2422607e-05   0.55401571  0.020232722            0   0.53378298    1.5422594    2.0962751    5.0285257 
11235000    1.0891948 7.5356817e-05   0.47300822  0.025149083            0   0.44785914    1.6256233    2.0986315    7.3072947 
11240000    1.0229894 1.4773331e-05   0.55509464  0.018743022            0   0.53635161    1.5268117    2.0819063    3.1030389 
11245000    1.0469211 -1.8878625e-05   0.52025956 0.0065766566            0    0.5136829    1.5625298    2.0827893   0.77789877 
11250000    1.0224639 3.0697506e-05   0.54836314  0.020696872            0   0.52766627    1.5260274    2.0743905    4.1962022 
11255000    1.0856111 1.5883026e-05   0.44644382  0.021961964            0   0.42448185    1.6202745    2.0667184    3.1645531 
11260000    1.0481745 -1.4129648e-05     0.495717  0.016654515            0   0.47906248    1.5644004    2.0601174    1.0834762 
11265000    1.0367992 4.2649964e-06   0.51901007 0.0077621232            0   0.51124795    1.5474228    2.0664328    2.3612294 
11270000    1.0787933 1.6787359e-05    0.4567807 0.0067485253            0   0.45003217     1.610099    2.0668797    3.2272219 
11275000    1.0327923 6.0429858e-07   0.52971854  0.027545289            0   0.50217325    1.5414426    2.0711611    2.1129302 
11280000    1.0025646 2.5088132e-05   0.56990711  0.034988151            0   0.53491896    1.4963276    2.0662347    3.8003264 
11285000   0.99046384 4.4627779e-05   0.58859912  0.036470325            0   0.55212879    1.4782673    2.0668664    5.1515385 
11290000   0.97663705 3.1338487e-05    0.5959978  0.036375901            0    0.5596219    1.4576308    2.0536286    4.2197448 
11295000    1.0225709 5.1410999e-05   0.51116596  0.014761626            0   0.49640433    1.5261871     2.037353    5.5908813 
11300000    1.0130901 5.9533219e-06   0.52663666 0.0068188957            0   0.51981776     1.512037    2.0386736    2.4501672 
11305000    1.0024975 -3.3808321e-05    0.5528965  0.030718456            0   0.52217805    1.4962276    2.0491241  -0.28770706 
11310000   0.98041915 -3.2876794e-05    0.5797108  0.038778691            0    0.5409321    1.4632756    2.0429864  -0.22945764 
11315000    1.0301308 8.9737424e-06   0.52023975  0.027621982            0   0.49261776    1.5374702    2.0577099     2.677975 
11320000   0.97775911 3.6247088e-05   0.60289528  0.026958117            0   0.57593717    1.4593055    2.0622007    4.5675995 
11325000    1.0112066 3.8335542e-05   0.54842889  0.022470322            0   0.52595857    1.5092259    2.0576548    4.7074075 
11330000   0.98520317 3.3711826e-05   0.60614183  0.035451245            0   0.57069059    1.4704157    2.0765576     4.406719 
11335000    1.0407508 2.6144852e-05   0.53384772  0.034798117            0    0.4990496    1.5533206    2.0871683    3.8943005 
11340000    1.0186988 3.0538383e-06   0.56095191  0.024045889            0   0.53690602     1.520408    2.0813599    2.2924412 
11345000    1.0641814 3.4532153e-05   0.50156576  0.025827128            0   0.47573864    1.5882907    2.0898564    4.4767189 
11350000    1.0136771 3.8613884e-06   0.59549514   0.02917094            0    0.5663242     1.512913    2.1084082    2.3753074 
11355000     1.028857 -2.3568938e-06    0.5814149  0.015127492            0   0.56628741    1.5355691     2.116984    1.9540755 
11360000     1.049059 3.2031034e-05   0.55186514  0.011439285            0   0.54042586    1.5657205    2.1175856    4.3315707 
11365000    1.0203996 2.1823485e-05   0.59359578  0.018709818            0   0.57488596    1.5229465    2.1165423    3.6249816 
11370000    1.0785154 -2.7584607e-05   0.52294843   0.01224821            0   0.51070022    1.6096842    2.1326326    0.2259846 
11375000    1.0615952 -6.8545016e-05     0.557401  0.020572407            0   0.53682859    1.5844308    2.1418318   -2.5959998 
11380000    1.0081643 1.5723403e-05   0.62981469  0.046352889            0    0.5834618    1.5046852    2.1344999    3.2213015 
11385000    1.0486923 2.1456203e-05   0.56038323  0.047977236            0   0.51240599    1.5651733    2.1255565    3.6086093 
11390000     1.040449 1.3558311e-05   0.58985264  0.017762458            0   0.57209018    1.5528702    2.1427228    3.0798733 
11395000    1.0620253 6.2557621e-05   0.55954514  0.032738525            0   0.52680662    1.5850727    2.1446179    6.4686006 
11400000    1.0623958 2.1746202e-05   0.57760546  0.042105724            0   0.53549974    1.5856258    2.1632312    3.6663287 
11405000    1.0102509 -1.1093179e-06   0.65097798    0.0335697            0   0.61740828    1.5077995    2.1587774    2.0821014 
11410000    1.0418011 7.0290312e-06   0.61186838  0.022655741            0   0.58921264    1.5548882    2.1667565    2.6526032 
11415000    1.0976367 -1.3286901e-06   0.50213142  0.022341711            0    0.4797897    1.6382228    2.1403542    2.0485152 
11420000    1.0317617 -1.0244668e-05   0.59372455  0.015879764            0   0.57784479    1.5399044     2.133629    1.4255175 
11425000    1.0058504 1.0327264e-05   0.63812244  0.026687871            0   0.61143457    1.5012318    2.1393542    2.8531747 
11430000    1.0475441 4.4453471e-05   0.57049639  0.030593992            0    0.5399024    1.5634596    2.1339559    5.2065799 
11435000     1.029711 -2.3547853e-05   0.56000756  0.036645889            0   0.52336167    1.5368436    2.0968512   0.46922361 
11440000    1.0460264 -7.2407539e-05   0.52533379  0.041819322            0   0.48351447    1.5611944    2.0865281    -2.918281 
11445000    1.0315971 -2.4955972e-05   0.54289566  0.022523788            0   0.52037187    1.5396587    2.0825543   0.35759759 
11450000    1.0485204 1.7189657e-05   0.53227321  0.031530002            0   0.50074321    1.5649167    2.0971899     3.285339 
11455000    1.0621258 -2.0036749e-05   0.51262503  0.038228077            0   0.47439695    1.5852227    2.0978478   0.71290772 
11460000    1.0653562 1.9908578e-05   0.51472437  0.035129443            0   0.47959493    1.5900441    2.1047685    3.4808494 
11465000    1.0483549 9.715503e-05   0.54063364  0.017496308            0   0.52313733    1.5646696    2.1053033     8.820659 
11470000     1.046936 5.4977053e-05   0.54946937  0.018896415            0   0.53057295     1.562552    2.1120214    5.9120353 
11475000    1.0620969 1.551548e-05   0.53779552   0.03597359            0   0.50182193    1.5851796    2.1229751    3.1954051 
11480000   0.96359613 -1.5697636e-05   0.70577188  0.046068615            0   0.65970327    1.4381672    2.1439391    1.0589185 
11485000    1.0567032 3.6872723e-05   0.56927901  0.041491679            0   0.52778733    1.5771295    2.1464085    4.6950511 
11490000    1.0433499 4.9561613e-05   0.58839032  0.026538995            0   0.56185133    1.5571997    2.1455901    5.5712887 
11495000    1.0081017 -4.7386975e-05   0.62093708  0.042815663            0   0.57812141    1.5045918    2.1255289   -1.1498588 
11500000    1.0019485 -0.00011429309   0.62442258  0.030504147            0   0.59391844    1.4954081    2.1198307   -5.7801077 
11505000    1.0747609 -4.8296922e-05   0.53963378  0.028125823            0   0.51150796    1.6040806    2.1437144   -1.1945688 
11510000    1.0674831 6.5910452e-05    0.5470948  0.029832261            0   0.51726254    1.5932186    2.1403134    6.6960438 
11515000    1.0072817 2.6412661e-05   0.63707223  0.048468711            0   0.58860352    1.5033679    2.1404401    3.9660832 
11520000     1.094849 2.3613875e-05   0.50894531  0.019998743            0   0.48894657    1.6340621    2.1430074    3.7751985 
11525000    1.0829288 4.2165192e-05    0.5533413  0.019977284            0   0.53336401    1.6162712    2.1696125    5.0840705 
11530000      1.07669 -1.0346505e-05    0.5801962  0.050291951            0   0.52990425    1.6069598     2.187156    1.4720055 
11535000    1.0321678 1.6053655e-06   0.65602962  0.040563434            0   0.61546619    1.5405104      2.19654    2.3075029 
11540000    1.0627804 2.9250419e-05   0.59599184  0.019793851            0   0.57619799    1.5861998    2.1821916    4.2039806 
11545000    1.0467405 -5.1420126e-06   0.63797149  0.020182009            0   0.61778948    1.5622602    2.2002317    1.8448158 
11550000    1.0768878 -3.6490611e-05   0.60307546  0.014650473            0   0.58842499    1.6072551    2.2103306  -0.31190049 
11555000    1.1046103 -9.1564626e-06   0.56057586 0.0076308474            0   0.55294501    1.6486309    2.2092068    1.5763121 
11560000    1.0363746 1.1176404e-05   0.68718376  0.016252239            0   0.67093152    1.5467891    2.2339728    3.0064859 
11565000    1.0960173 -9.8432542e-06   0.58696874  0.013898025            0   0.57307071    1.6358059    2.2227746    1.5424089 
11570000    1.0601721 -7.7495606e-06   0.65503211  0.028593734            0   0.62643837    1.5823069     2.237339    1.7016893 
11575000    1.1353804 3.659118e-05   0.55264947  0.027318573            0   0.52533089    1.6945553    2.2472047    4.7763871 
11580000    1.0547923 -3.7621787e-05   0.66893501  0.028292502            0   0.64064251    1.5742775    2.2432125  -0.35720543 
11585000    1.0414812 -3.5014145e-05   0.68553058   0.02416485            0   0.66136573    1.5544108    2.2399413  -0.18023639 
11590000    1.0873379 -4.4155696e-06   0.61253969  0.012118867            0   0.60042083    1.6228518    2.2353915    1.9301873 
11595000    1.0394275 -2.1241674e-05   0.68262326  0.019845134            0   0.66277812    1.5513455    2.2339687    0.7657442 
11600000    1.0761943 1.1137989e-05    0.6439079  0.031768197            0    0.6121397      1.60622    2.2501279    3.0199857 
11605000    1.0383003 7.3368049e-07   0.70449725  0.027418991            0   0.67707826    1.5496632    2.2541604    2.3048724 
11610000    1.0909916 -6.5707645e-06   0.60889313  0.015727566            0   0.59316557    1.6283049    2.2371981    1.7830268 
11615000    1.0792466 6.7727513e-06   0.64473143  0.027652835            0    0.6170786    1.6107755    2.2555069    2.7236395 
11620000     1.017495 5.5371857e-05   0.74773584  0.062110032            0   0.68562581    1.5186112    2.2663471    6.0936498 
11625000    1.1154117 5.2742928e-05   0.60734909   0.03884771            0   0.56850138     1.664752    2.2721011    5.9176923 
11630000     1.077444 -3.3305357e-07    0.6759383   0.03070779            0   0.64523051    1.6080852    2.2840235    2.2610028 
11635000    1.1020254  8.40277e-06   0.67463275  0.031418023            0   0.64321473    1.6447729    2.3194057    2.9002052 
11640000    1.1192186 4.504357e-05   0.63007695  0.021909231            0   0.60816772    1.6704337    2.3005107    5.4139222 
11645000    1.0945841 -2.1062288e-05   0.65567453  0.016186647            0   0.63948788    1.6336668    2.2893413   0.83351596 
11650000    1.0820811 -4.5687839e-05    0.6607516  0.025044342            0   0.63570726    1.6150061    2.2757577  -0.88218577 
11655000    1.0969977 4.5416749e-05   0.64403855  0.014653513            0   0.62938504     1.637269    2.2813076    5.4205133 
11660000    1.1220783 2.8252504e-05   0.59237026  0.012323229            0   0.58004703    1.6747018    2.2670721    4.2198852 
11665000    1.1248393 -1.8772553e-05    0.5781872  0.011986251            0   0.56620095    1.6788226    2.2570098   0.95945095 
11670000    1.0670665 -5.2101946e-05   0.65652004  0.011993389            0   0.64452665    1.5925968    2.2491168   -1.3521697 
11675000    1.0870852 -1.8270325e-05   0.62689919  0.019287372            0   0.60761182    1.6224747    2.2493739   0.98652909 
11680000    1.1605024 2.9663687e-05   0.54625911  0.014171231            0   0.53208788    1.7320498    2.2783089    4.3286629 
11685000     1.151896 2.7197706e-05   0.57665509 0.0025300911            0     0.574125    1.7192048    2.2958599    4.1757654 
11690000    1.1073789 2.9088365e-05   0.63414888  0.019488249            0   0.61466063     1.652763    2.2869119    4.2974997 
11695000    1.0819644 4.5101278e-06   0.64300804  0.049746504            0   0.59326153    1.6148318    2.2578399    2.5695799 
11700000    1.1060102 -6.9033116e-05   0.60710953  0.026960201            0   0.58014932    1.6507202    2.2578297   -2.5137392 
11705000    1.1227034 -2.6069225e-05   0.56811453  0.054003783            0   0.51411075    1.6756349    2.2437494   0.44184455 
11710000    1.0712332 2.6105497e-05   0.61809641  0.036779375            0   0.58131704    1.5988156     2.216912    4.0213239 
11715000    1.1607499 -3.4974639e-05    0.4753016  0.009926751            0   0.46537485    1.7324192    2.2077208  -0.20972628 
11720000    1.0387485 -3.1601848e-05   0.64366721  0.044126323            0   0.59954089    1.5503321    2.1939993 0.0096795701 
11725000    1.0593814 -4.7751228e-06   0.62332862  0.046183505            0   0.57714512    1.5811267    2.2044554    1.8743989 
11730000    1.0612567 6.0575259e-06   0.61882667  0.030462644            0   0.58836402    1.5839256    2.2027523    2.6214485 
11735000    1.0369621 -3.839925e-05   0.64166525  0.010465861            0   0.63119939     1.547666    2.1893312  -0.46482493 
11740000    1.0786858 -8.1312327e-05   0.59385612  0.014523741            0   0.57933238    1.6099386    2.2037947   -3.4165134 
11745000    1.0939058 3.2295096e-05   0.57886635  0.019580205            0   0.55928614    1.6326545    2.2115208    4.4437579 
11750000    1.1274482 4.2635373e-05   0.51009622  0.018675243            0   0.49142098    1.6827164    2.1928126    5.1397696 
11755000    1.0398382 -5.7156515e-05   0.63940282  0.022805267            0   0.61659755    1.5519585    2.1913613   -1.7592971 
11760000     1.063437 1.4623743e-05   0.58595694  0.014370876            0   0.57158606    1.5871798    2.1731367    3.1839298 
11765000    1.0859553 1.8813673e-05   0.53646352  0.017349965            0   0.51911355    1.6207883    2.1572518     3.457653 
11770000    1.0089481 -3.2162501e-05   0.66013041  0.019362864            0   0.64076754     1.505855    2.1659854 -0.057086638 
11775000    1.0222978 6.8294228e-06   0.63122136  0.031962854            0   0.59925851    1.5257795    2.1570009    2.6290506 
11780000    1.0741407 1.2285592e-05   0.55241569  0.031048449            0   0.52136724     1.603155    2.1555707    3.0047508 
11785000    1.0737412 2.3632707e-05   0.55514847 0.0069935821            0   0.54815489    1.6025587    2.1577072    3.7911999 
11790000    1.0145802 -6.3157077e-05   0.63833402  0.034894006            0   0.60344002     1.514261     2.152595   -2.2128221 
11795000    1.0345664 -4.0740359e-05   0.60272341  0.020508724            0   0.58221469    1.5440903    2.1468137   -0.6691599 
11800000    1.1008213 -6.9425597e-06   0.52409053  0.016968596            0   0.50712193    1.6429758    2.1670663    1.6871966 
11805000    1.0237613 4.0080564e-05   0.66926918   0.02521687            0   0.64405231    1.5279638     2.197233    4.9676015 
11810000    1.0427397 5.1316171e-05   0.64238624  0.025821442            0    0.6165648    1.5562891    2.1986753     5.745649 
11815000      1.06429 -3.866665e-05   0.60686843  0.013592074            0   0.59327636    1.5884528    2.1953212  -0.47731766 
11820000     1.075537 -8.0093284e-06   0.58105183 0.0058078989            0   0.57524393     1.605239    2.1862908    1.6326861 
11825000    1.0123037 -8.4238048e-06   0.66441937  0.031463397            0   0.63295598    1.5108632    2.1752826    1.5930292 
11830000    1.0613466 7.5355744e-06   0.59645014  0.020645708            0   0.57580444    1.5840597    2.1805099    2.7013688 
11835000    1.0517721 2.4776521e-05   0.61257774  0.020539658            0   0.59203808    1.5697699    2.1823477    3.8949008 
11840000    1.1058327 -3.3083294e-05   0.53336617  0.014504313            0   0.51886186    1.6504552    2.1838214  -0.10289588 
11845000    1.0529417 -3.4351506e-05   0.61752269  0.041574093            0   0.57594859    1.5715155    2.1890382   -0.1853379 
11850000    1.0056701 -5.0323449e-06   0.67728458  0.029517623            0   0.64776696    1.5009627    2.1782473    1.8304116 
11855000     1.059144 -5.118233e-05   0.61116261  0.026462962            0   0.58469965    1.5807725    2.1919351   -1.3457876 
11860000    1.0493277 2.2431816e-05   0.64360436   0.02150425            0   0.62210011    1.5661216    2.2097259     3.760213 
11865000    1.1048398 4.3809724e-05    0.5693703  0.033038367            0   0.53633193    1.6489733    2.2183436    5.2464718 
11870000    1.0530027 -3.9512083e-05   0.66080354  0.012300259            0   0.64850328    1.5716065      2.23241  -0.49866519 
11875000    1.0955078 -1.9791719e-05   0.58908612 0.0079606714            0   0.58112545    1.6350454    2.2241315   0.85612788 
11880000     1.118642 -1.8764051e-05   0.56926422  0.011505883            0   0.55775834    1.6695732    2.2388375   0.94186625 
11885000     1.060007 -4.8535818e-06   0.66489838  0.034615894            0   0.63028248    1.5820604    2.2469588    1.9114792 
11890000    1.1503658 4.1637514e-05   0.50546438  0.030102526            0   0.47536185    1.7169209    2.2223853    5.1003703 
11895000    1.0316675 6.1159579e-05   0.66678845  0.024956801            0   0.64183165    1.5397638    2.2065522    6.4339023 
11900000    1.0442274 4.6158985e-05   0.65367156  0.045666466            0    0.6080051    1.5585094     2.212181    5.4026901 
11905000    1.0268547 -6.2281881e-05   0.67965577  0.053360499            0   0.62629527    1.5325806    2.2122364   -2.0926873 
11910000    1.0570134 -1.4794511e-05   0.64558712  0.049239981            0   0.59634714    1.5775925    2.2231796    1.2005831 
11915000    1.1035277 5.1493314e-05   0.57994088  0.031685324            0   0.54825556    1.6470152     2.226956    5.7861739 
11920000    1.0487183 -1.333644e-05    0.6616977  0.015576855            0   0.64612084    1.5652121    2.2269097     1.305095 
11925000    1.0122723 -1.6236504e-05   0.70983708  0.019348026            0   0.69048905    1.5108164    2.2206535    1.0983863 
11930000    1.0649314 -5.7057336e-05   0.62405004  0.044550233            0   0.57949981    1.5894102    2.2134602   -1.7303429 
11935000    1.0909577 -8.1256071e-06   0.58320664  0.034642663            0   0.54856398    1.6282543     2.211461     1.649819 
11940000    1.0439036 7.2518043e-05   0.64606256  0.013565429            0   0.63249713    1.5580261    2.2040887    7.2165358 
11945000    1.0256141 -1.3962585e-05   0.69046319  0.024456676            0   0.66600652     1.530729    2.2211922    1.2560983 
11950000    1.0918854 -3.1016311e-05   0.60902685  0.024656321            0   0.58437053    1.6296389    2.2386658  0.094818357 
11955000    1.1052203 1.3858801e-05   0.58356725  0.050900996            0   0.53266626    1.6495413    2.2331085    3.1910289 
11960000    1.1305153 -2.3433751e-05   0.54993668  0.010024727            0   0.53991195    1.6872941    2.2372308   0.61748988 
11965000    1.0321219 6.6503646e-07    0.6981226  0.012016119            0   0.68610648     1.540442    2.2385646    2.2845319 
11970000    1.0576511 -1.802754e-05    0.6610002  0.021321145            0   0.63967906    1.5785442    2.2395444   0.99348081 
11975000    1.1143749 6.0696938e-06   0.56741652  0.015345771            0   0.55207075    1.6632045    2.2306211    2.6501583 
11980000    1.1104211 4.921308e-05   0.59553411  0.010623497            0   0.58491061    1.6573036    2.2528377    5.6544458 
11985000    1.0541208 9.8507188e-06   0.67699129  0.036692969            0   0.64029832    1.5732753    2.2502666    2.9311483 
11990000    1.0785524 -2.378036e-05   0.63714114  0.031895082            0   0.60524605    1.6097395    2.2468806   0.60318212 
11995000    1.1356476 1.0800969e-05   0.53998998  0.022979792            0   0.51701019    1.6949541    2.2349441    2.9815071 
12000000    1.0662251 -6.9619738e-06   0.63403953 0.0076575532            0   0.62638197     1.591341    2.2253805    1.7441689 
12005000    1.0797038 -1.6133998e-05   0.62204776 0.0042111897            0   0.61783657    1.6114579    2.2335057    1.1183237 
12010000    1.0001668 4.5105034e-05   0.74856781  0.036743687            0   0.71182412    1.4927489    2.2413167    5.3589767 
12015000    1.0613533 2.850723e-05   0.63837859    0.0276739            0   0.61070469    1.5840697    2.2224483    4.1928681 
12020000    1.0346532 -1.4767324e-05   0.65832575  0.026987501            0   0.63133825    1.5442198    2.2025456    1.1818282 
12025000    1.1435277 1.657848e-06   0.49313459  0.014396561            0   0.47873803    1.7067151    2.1998497    2.3144402 
12030000    1.0489087 -4.5811496e-05   0.64664384 0.0088540692            0   0.63778977    1.5654963    2.2121401  -0.95435052 
12035000    1.1186063 -6.9352489e-05   0.54159006 0.0015835516            0    0.5400065    1.6695199      2.21111   -2.5825341 
12040000    1.0834705 5.0177378e-05   0.57602853  0.018323109            0   0.55770542    1.6170797    2.1931082    5.6613686 
12045000    1.0819086 5.6712311e-05    0.5808973  0.014766342            0   0.56613096    1.6147486    2.1956459    6.1156008 
12050000    1.0511678 -8.4039187e-05   0.62161966  0.011297562            0    0.6103221    1.5688679    2.1904876    -3.618301 
12055000    1.0732061 -6.2415556e-05   0.56976792  0.013075509            0   0.55669241      1.60176     2.171528   -2.1426353 
12060000     1.053333 -7.2256917e-05   0.59860066  0.025313642            0   0.57328702    1.5720995    2.1707002   -2.8236979 
12065000    1.0228965 -1.1779151e-06   0.63226897  0.012405892            0   0.61986307    1.5266731    2.1589421    2.0775246 
12070000     1.074444 -1.1109964e-05   0.55327478  0.007964374            0    0.5453104    1.6036076    2.1568824    1.3889617 
12075000    1.0457026 -8.3259846e-05   0.60710357  0.030781128            0   0.57632244    1.5607112    2.1678147   -3.5871058 
12080000     1.032303 -2.9526655e-05   0.65118177  0.019977695            0   0.63120407    1.5407122     2.191894   0.15101162 
12085000    1.1003404 2.2361142e-05   0.54087117  0.023967748            0   0.51690342    1.6422581    2.1831292    3.7287313 
12090000     1.082872 1.6067836e-05    0.5575545  0.029415441            0   0.52813905    1.6161864    2.1737409    3.2843498 
12095000    1.0577426 8.3272218e-07   0.59950627  0.033391404            0   0.56611486    1.5786809    2.1781872    2.2357449 
12100000    1.0987437 4.4162877e-06   0.54303185  0.028507696            0   0.51452415     1.639875    2.1829068    2.4881606 
12105000    1.0360613 -5.4675652e-05   0.62931159  0.014596551            0   0.61471504    1.5463215    2.1756331    -1.603548 
12110000     1.067705 -1.6207844e-05   0.58101275   0.01832753            0   0.56268522    1.5935498    2.1745625    1.0542764 
12115000    1.0258423 2.2402472e-05   0.63627818  0.016831032            0   0.61944715    1.5310697    2.1673478    3.7158067 
12120000     1.048979 -3.9063828e-05   0.59121174  0.015161639            0    0.5760501    1.5656011    2.1568129   -0.5432789 
12125000    1.0233103 2.626589e-05   0.63924566  0.016704739            0   0.62254092    1.5272906    2.1665363    3.9820346 
12130000    1.0460837 3.4674139e-05   0.61652971  0.019695807            0    0.5968339      1.56128    2.1778097    4.5744861 
12135000    1.1059085 -4.5427163e-05   0.52693947  0.022213205            0   0.50472627    1.6505685    2.1775079  -0.96241759 
12140000    1.0158388 -1.41599e-05   0.65155506  0.032613597            0   0.61894146    1.5161394    2.1676945    1.1889622 
12145000    1.0310971 3.492774e-05   0.62451307  0.015964233            0   0.60854883    1.5389124    2.1634254    4.5776309 
12150000    1.0485275 2.9045712e-05    0.5879421  0.024147084            0   0.56379501    1.5649272    2.1528693    4.1605089 
12155000   0.99930883 1.8589221e-06   0.62942565  0.037479575            0   0.59194607    1.4914684    2.1208941    2.2493828 
12160000    1.0090598 1.1502401e-05   0.61120336  0.039279632            0   0.57192373    1.5060218    2.1172251    2.9122711 
12165000    1.0485539 4.1013743e-05   0.55402452  0.017307028            0   0.53671749    1.5649667    2.1189912    4.9538611 
12170000    1.0583665 3.1586291e-05   0.53173084  0.009166459            0   0.52256438     1.579612    2.1113429    4.2945873 
12175000    1.0017163 -1.219352e-05   0.61207156   0.01706886            0    0.5950027    1.4950616    2.1071332    1.2643171 
12180000    1.0131601 1.1086297e-05   0.58803008  0.040089177            0    0.5479409    1.5121415    2.1001715    2.8664564 
12185000    1.0205386 -4.7590606e-06   0.58239731 0.0094683198            0   0.57292899    1.5231539    2.1055512     1.776605 
12190000    1.1265008  1.39596e-05   0.45777713 0.0091682765            0   0.44860885    1.6813024    2.1390796    3.1039671 
12195000    1.0129207 4.3244452e-05   0.63484018   0.01540827            0   0.61943191    1.5117841    2.1466243    5.1356808 
12200000    1.0595645 8.1698456e-06   0.56226689  0.022034064            0   0.54023283       1.5814    2.1436669    2.7083666 
12205000    1.0565333 -4.8773299e-06   0.56589783  0.021261327            0    0.5446365     1.576876    2.1427738    1.8056528 
12210000    1.0984954 -9.3300579e-06   0.49666649  0.017500025            0   0.47916646    1.6395044    2.1361709    1.4912773 
12215000    1.0850848 1.8630583e-05   0.51272226  0.015977808            0   0.49674446     1.619489    2.1322113    3.4199572 
12220000    1.0055357 9.6536101e-06   0.62780461  0.030223681            0   0.59758093    1.5007621    2.1285667    2.7958242 
12225000    1.0218708 -3.2750493e-05    0.6228887  0.026063024            0   0.59682568    1.5251422    2.1480309  -0.11568316 
12230000    1.1001364 2.6281026e-05   0.50766187 0.0079885741            0   0.49967329    1.6419535    2.1496154    3.9661599 
12235000    1.0596714 5.1364342e-05   0.57737635   0.01707521            0   0.56030114    1.5815595    2.1589359    5.7092392 
12240000    1.0743154 4.8726135e-07   0.55129897  0.020792927            0   0.53050604    1.6034157    2.1547147    2.1883942 
12245000    1.0150687 -5.5923833e-05    0.6231917  0.024021637            0   0.59917006      1.51499    2.1381817   -1.7272737 
12250000    1.0653881 -1.615374e-05   0.52796295  0.051833603            0   0.47612935    1.5900918    2.1180547    1.0015083 
12255000    1.0859722 6.9295735e-05   0.49313592  0.022414395            0   0.47072153    1.6208135    2.1139494    6.9036706 
12260000    1.0532514 7.0780338e-05   0.52950122  0.028585739            0   0.50091548    1.5719777    2.1014789    6.9938159 
12265000    1.0748448 1.0730266e-06   0.51222521  0.020683577            0   0.49154163    1.6042059    2.1164311    2.1905987 
12270000   0.99188638 -4.0355331e-05   0.62743633  0.043200909            0   0.58423542    1.4803904    2.1078267  -0.68153375 
12275000    1.0383311 2.8009117e-05   0.57399792  0.020646972            0   0.55335094    1.5497092    2.1237072    4.0596973 
12280000    1.0343403 3.8006963e-05   0.57144694  0.030897036            0   0.54054991    1.5437529    2.1151998    4.7422411 
12285000     1.037934 -4.194595e-05   0.55792015  0.029251506            0   0.52866865    1.5491165    2.1070366  -0.79226746 
12290000    1.0375672 5.7935794e-06   0.55467836  0.012553466            0   0.54212489     1.548569    2.1032473    2.5036995 
12295000    1.0207746 5.3839796e-05     0.574524  0.024200399            0    0.5503236    1.5235061    2.0980301    5.8194368 
12300000    1.0252875 2.5385919e-05   0.57266251  0.041090628            0   0.53157188    1.5302416    2.1029041    3.8575788 
12305000    1.0024506 -8.2908845e-05   0.59533026  0.022876481            0   0.57245378    1.4961576    2.0914878   -3.6391715 
12310000    1.0284316 -8.9648548e-05   0.54167788  0.010923672            0   0.53075421    1.5349341     2.076612   -4.1198956 
12315000    1.0485718 -6.0407359e-06   0.51621813 0.0097933558            0   0.50642478    1.5649935    2.0812116    1.6636759 
12320000    1.0185834 3.9705282e-05   0.57271475  0.014277832            0   0.55843692    1.5202358    2.0929505    4.8373796 
12325000    1.0208198 2.4145746e-05   0.56000628  0.013586488            0   0.54641979    1.5235736    2.0835798    3.7525338 
12330000    1.0581765 -3.0595828e-05   0.51209601  0.010047139            0   0.50204888    1.5793284    2.0914244 -0.023359165 
12335000   0.94791294 -2.2779795e-05    0.6730806  0.016591878            0   0.65648872    1.4147601    2.0878407   0.51330123 
12340000    1.0378943 5.8016928e-05   0.54860429  0.007118441            0   0.54148585    1.5490572    2.0976615    6.1077915 
12345000    1.0124305 4.3616548e-05   0.56619378  0.012850392            0   0.55334339    1.5110526    2.0772464    5.0920222 
12350000    1.0395751 -6.1771667e-05   0.51106004  0.016431055            0   0.49462898    1.5515658    2.0626258   -2.2070318 
12355000   0.99282244 -3.9313473e-05   0.59311342  0.020668568            0   0.57244485    1.4817875    2.0749009  -0.64244635 
12360000   0.99610029 -1.8618905e-05   0.57860836 0.0035780626            0   0.57503029    1.4866797     2.065288   0.77834933 
12365000    1.0049252 -3.4399471e-05    0.5639544  0.029757361            0   0.53419703    1.4998508    2.0638052  -0.31388625 
12370000    1.0167309 1.0505327e-05   0.54843176  0.063023579            0   0.48540818    1.5174709    2.0659026    2.7920308 
12375000    1.0126007 9.2732429e-06   0.56854683  0.017955708            0   0.55059112    1.5113066    2.0798534      2.72082 
12380000   0.98718527 -3.4535532e-05   0.62003571  0.025384847            0   0.59465086     1.473374    2.0934097  -0.29368626 
12385000    1.0424197 -1.8867929e-05   0.52548754  0.021997366            0   0.50349017    1.5558115     2.081299   0.77714772 
12390000     1.035506 1.595306e-05   0.51693204  0.018808195            0   0.49812384    1.5454927    2.0624247    3.1651002 
12395000    1.0187498 -6.215047e-05   0.54276624   0.01515175            0   0.52761449    1.5204841    2.0632503   -2.2325902 
12400000    1.0177172 -5.1384086e-05   0.53931175  0.010379656            0   0.52893209     1.518943    2.0582547   -1.4934133 
12405000    1.0161495 5.1255468e-05    0.5440781  0.011912067            0   0.53216603    1.5166031    2.0606812    5.6034591 
12410000   0.98737088 1.3981679e-05   0.59283805  0.024603772            0   0.56823428     1.473651    2.0664891    3.0329028 
12415000    1.0186516 3.6215403e-05    0.5678397  0.031926548            0   0.53591315    1.5203375    2.0881772    4.5913859 
12420000    1.0344804 3.7256687e-05   0.55497989   0.02486847            0   0.53011142    1.5439619    2.0989418    4.6741241 
12425000    1.0207905 -2.1288102e-05   0.59090523  0.024795112            0   0.56611012    1.5235298     2.114435   0.64300141 
12430000    1.0433628 1.907961e-05   0.53772158  0.018940708            0   0.51878087     1.557219    2.0949406    3.4137232 
12435000    1.0453463 -1.519943e-05    0.5440684  0.014971615            0   0.52909679    1.5601793    2.1042477    1.0536631 
12440000    1.0835116 2.7717988e-05   0.50004338  0.011920358            0   0.48812302     1.617141    2.1171844    4.0330518 
12445000    1.0415486 5.7528534e-05   0.56204814  0.012385794            0   0.54966234    1.5545112    2.1165594    6.0929317 
12450000    1.0717912 -1.172418e-05     0.520304  0.010217037            0   0.51008696    1.5996483    2.1199523     1.309577 
12455000    1.0314568 1.0743935e-05   0.57733481  0.037955204            0   0.53937961    1.5394493    2.1167841    2.8594049 
12460000    1.0583366 1.5945303e-05   0.54556297  0.029241639            0   0.51632133    1.5795673    2.1251303    3.2272697 
12465000    1.0600535 1.4528544e-05   0.54397987  0.011757113            0   0.53222276    1.5821299    2.1261098    3.1303227 
12470000    1.0543854 4.6681831e-05   0.55361414 0.0096801639            0   0.54393397    1.5736702    2.1272843    5.3539325 
12475000    1.0641787 4.4740986e-06   0.55398404  0.023481213            0   0.53050283    1.5882867    2.1422707    2.4515204 
12480000    1.0768258 -2.3586604e-05   0.52461882  0.032891894            0   0.49172693    1.6071625    2.1317813    0.5014752 
12485000    1.0378937 -7.7416756e-06   0.60799474  0.049254837            0    0.5587399    1.5490564    2.1570511    1.6219465 
12490000    1.0471657 -5.6184554e-05   0.58047578  0.021662687            0   0.55881309    1.5628948    2.1433706   -1.7401058 
12495000    1.0596854 -3.2753469e-05   0.54778927  0.032790134            0   0.51499914    1.5815805    2.1293698  -0.13455001 
12500000    1.1002618 5.1519642e-06   0.49706696  0.017566506            0   0.47950045    1.6421408    2.1392078    2.4953115 
12505000    1.0749757 3.9737205e-05   0.52871666 0.0082824262            0   0.52043423    1.6044012    2.1331179    4.8797535 
12510000    1.0594836 1.2419971e-05   0.55320399 0.0089256746            0   0.54427831    1.5812793    2.1344833    2.9929517 
12515000    1.0669814 -2.8893159e-05   0.53410949 0.0079105281            0   0.52619897    1.5924697    2.1265792   0.12948402 
12520000    1.1120795 -4.7405305e-05   0.47228205  0.020312668            0   0.45196938    1.6597786    2.1320607    -1.144594 
12525000     1.062768 1.9939815e-05   0.55419751   0.02050682            0   0.53369069    1.5861812    2.1403787    3.5186187 
12530000    1.0520034 1.4592109e-05   0.56703827  0.023214902            0   0.54382336    1.5701151    2.1371534    3.1457599 
12535000     1.085923 -2.4751408e-05   0.52010934   0.02058975            0   0.49951959    1.6207401    2.1408494   0.43003204 
12540000    1.0674803 -1.6794728e-05   0.55300211  0.012538672            0   0.54046343    1.5932143    2.1462164   0.98536475 
12545000    1.0844781 1.676082e-05   0.53051202  0.013094716            0   0.51741731    1.6185836    2.1490956    3.3076035 
12550000    1.0671155 -1.607806e-05   0.52715065  0.015946183            0   0.51120447    1.5926699    2.1198206    1.0085051 
12555000    1.0496463 5.1188455e-05   0.57117351    0.0168784            0   0.55429511    1.5665972    2.1377707    5.6759167 
12560000    1.0639476 -1.1968581e-06   0.52762397  0.029415422            0   0.49820854    1.5879418    2.1155658     2.032839 
12565000     1.014182 -8.2789749e-06   0.59197239  0.051180499            0   0.54079189    1.5136667    2.1056391    1.5333963 
12570000    1.0763641 1.6419018e-05   0.47724809  0.015442438            0   0.46180565    1.6064734    2.0837215     3.218604 
12575000    1.0762231 6.1405625e-05   0.47724016  0.018173157            0   0.45906701     1.606263    2.0835031    6.3278599 
12580000    1.0372183 1.933199e-05   0.54797147  0.027379878            0   0.52059159    1.5480484    2.0960199     3.432247 
12585000    1.0694439 -5.6639464e-05   0.49376822  0.009029349            0   0.48473888    1.5961451    2.0899133   -1.8250064 
12590000    1.0408219 3.5482561e-05   0.51980674  0.016641787            0   0.50316495    1.5534267    2.0732334     4.525788 
12595000    1.0635554 -2.5974429e-05   0.50282319  0.035360436            0   0.46746276    1.5873564    2.0901796   0.29482713 
12600000    1.0894004 2.3326818e-05   0.45619846  0.027894384            0   0.42830407    1.6259301    2.0821285    3.6944782 
12605000    1.0023465 -3.4470394e-05   0.57881903  0.020466271            0   0.55835276    1.4960022    2.0748212  -0.30777247 
12610000     1.022754 -6.0275913e-05    0.5479396  0.029624587            0   0.51831502    1.5264603    2.0743999   -2.0918712 
12615000    1.0763471 -8.0045369e-05   0.47517172  0.022083643            0   0.45308808    1.6064481    2.0816198   -3.4511161 
12620000    1.0299048 4.7427917e-06   0.55922523  0.031606044            0   0.52761919    1.5371328    2.0963581    2.4241798 
12625000    1.0210983 -2.1954673e-06   0.57443047  0.021782572            0   0.55264789    1.5239892    2.0984196    1.9466689 
12630000    1.0601347 -4.1740249e-05   0.51357647  0.026536586            0   0.48703988     1.582251    2.0958275   -0.7892585 
12635000    1.0148997 3.4526188e-05   0.56953409   0.02392667            0   0.54560742    1.5147379     2.084272    4.4707221 
12640000     1.045114 -5.8228328e-06     0.535741  0.023749947            0   0.51199105    1.5598327    2.0955737    1.6930995 
12645000     1.008071 -1.0603635e-05   0.57941938  0.020747446            0   0.55867194     1.504546    2.0839654    1.3510421 
12650000    1.0597163 2.8714785e-05   0.48907215  0.022122339            0   0.46694982    1.5816266    2.0706988    4.0554648 
12655000    1.0344028 8.6553401e-07   0.50176802  0.030132479            0   0.47163554    1.5438462    2.0456142    2.1054399 
12660000   0.98669858 3.5589388e-06   0.59484599  0.018592947            0   0.57625305    1.4726476    2.0674936    2.3134875 
12665000    1.0618836 -6.7710804e-05    0.4809768  0.031776016            0   0.44920078    1.5848612     2.065838   -2.6143327 
12670000   0.99004912 -6.6892151e-05   0.59943411  0.017023461            0   0.58241065    1.4776483    2.0770824   -2.5465031 
12675000    1.0498339 2.5186239e-05    0.5353631  0.017350794            0   0.51801231    1.5668771    2.1022402    3.8431131 
12680000    1.0676169 8.2953209e-06   0.51376493 0.0098361915            0   0.50392874    1.5934183    2.1071832    2.6805558 
12685000   0.99634976 4.6107721e-05   0.62001762 0.0094644382            0   0.61055319     1.487052    2.1070696    5.2940353 
12690000    1.0646733 3.0126817e-05   0.53896458   0.02641723            0   0.51254735    1.5890248    2.1279894     4.210355 
12695000    1.0428416 -2.1743897e-05   0.57196059  0.011368234            0   0.56059236     1.556441    2.1284016   0.62546349 
12700000    1.1062544 2.5644103e-05   0.46889289  0.011060816            0   0.45783207    1.6510847    2.1199776     3.892498 
12705000   0.98916286 6.5598874e-05   0.65507814   0.01899218            0   0.63608596    1.4763256    2.1314037    6.6655979 
12710000    1.0997944 3.9258652e-05   0.50101958  0.043864424            0   0.45715515    1.6414431    2.1424627    4.8560207 
12715000    1.0286952 -2.2287316e-05   0.60383139  0.039055398            0   0.56477599    1.5353276     2.139159   0.59865971 
12720000     1.041137 1.8141839e-06   0.62030938  0.065848361            0   0.55446102     1.553897    2.1742064    2.2996027 
12725000    1.1281509 2.2983577e-05   0.51421192  0.016676684            0   0.49753524    1.6837651    2.1979771    3.7866019 
12730000    1.1206654 2.5354214e-05   0.52459229  0.023164483            0   0.50142781    1.6725931    2.1971854    3.9496686 
12735000    1.1187357 -2.7923838e-05   0.51688244  0.020626603            0   0.49625583     1.669713    2.1865955   0.25649981 
12740000    1.1009915 1.7389168e-05   0.54590034  0.014869274            0   0.53103107    1.6432299    2.1891302    3.3910695 
12745000    1.0611545 2.5971788e-05   0.60719107  0.017522773            0    0.5896683    1.5837731    2.1909642    3.9861341 
12750000    1.0660223 1.397949e-05   0.61036629  0.079537403            0   0.53082889    1.5910382    2.2014045    3.1676669 
12755000     1.088109 4.8826427e-05   0.58137474  0.034712488            0   0.54666225    1.6240027    2.2053775    5.5802601 
12760000    1.1097934 2.3803681e-05   0.53785145 0.0072291045            0   0.53062235    1.6563667    2.1942182    3.8395286 
12765000    1.1199206 1.2812591e-05   0.52519211 0.0079889925            0   0.51720312    1.6714815    2.1966736    3.0822799 
12770000    1.0633338 8.8750433e-06    0.6092154  0.012377634            0   0.59683777    1.5870257    2.1962411    2.8096841 
12775000     1.094356 -1.5421683e-05   0.55698215  0.069538889            0   0.48744326    1.6333264    2.1903085    1.1243618 
12780000    1.1223433 2.8703195e-05   0.50371598  0.029732052            0   0.47398393    1.6750973    2.1788133    4.1627782 
12785000    1.0917022 5.3367564e-05   0.54794067  0.028387127            0   0.51955354    1.6293655    2.1773061    5.8660721 
12790000    1.0722139 1.3369136e-05   0.57090632  0.029049701            0   0.54185662    1.6002792    2.1711855    3.0952602 
12795000     1.089099 9.6817232e-06   0.55592793  0.022644784            0   0.53328314    1.6254802    2.1814081    2.8506088 
12800000    1.0917263 9.5612437e-06   0.55536306    0.0124302            0   0.54293286    1.6294015    2.1847645    2.8456377 
12805000    1.1190169 -6.1278275e-05    0.5244922  0.011969458            0   0.51252274    1.6701327    2.1946249   -2.0409294 
12810000    1.0777044 -5.3338948e-05   0.58523145  0.049417824            0   0.53581362    1.6084738    2.1937052   -1.4930829 
12815000    1.0960798 1.1174345e-05   0.52839549  0.023539511            0   0.50485598    1.6358991    2.1642946    2.9366653 
12820000    1.0837495 1.8300977e-05    0.5311862  0.027266363            0   0.50391984    1.6174962    2.1486824    3.4136459 
12825000    1.0358859 -1.9527078e-05   0.59609465  0.023114928            0   0.57297973    1.5460596    2.1421543    0.7924427 
12830000    1.0781396 9.690078e-06   0.53843964  0.039788823            0   0.49865081    1.6091234     2.147563    2.8173412 
12835000    1.0511691 3.3911411e-05   0.55932067  0.029393275            0    0.5299274    1.5688698    2.1281905    4.4721472 
12840000    1.0681605 4.5331016e-05   0.54775009  0.013667962            0   0.53408213    1.5942295    2.1419796    5.2752595 
12845000    1.0770443 3.0573364e-05   0.55551715 0.0040154525            0    0.5515017    1.6074886    2.1630057    4.2762367 
12850000    1.0681227 -5.5993215e-05   0.55078578   0.03107957            0   0.51970621    1.5941732     2.144959   -1.7252921 
12855000    1.0255547 -4.8686742e-05    0.6132101  0.033675956            0   0.57953414    1.5306404    2.1438505   -1.2213772 
12860000    1.0160217 2.0205144e-05   0.61835595  0.032280571            0   0.58607538    1.5164123    2.1347683    3.5313478 
12865000     1.042482 -6.0850712e-06   0.58713639  0.041171904            0   0.54596448    1.5559044    2.1430408    1.7224407 
12870000    1.0353514 -5.5709189e-06   0.59911146  0.027260593            0   0.57185086     1.545262    2.1443735    1.7593115 
12875000    1.0192058 2.2893409e-05   0.60160357  0.039833027            0   0.56177054    1.5211646    2.1227682    3.7051606 
12880000    1.0362359 1.2622944e-05   0.57726211  0.019615019            0   0.55764709    1.5465821    2.1238442    2.9963421 
12885000    1.0708842 -5.3280325e-05    0.5289437  0.015204645            0   0.51373905    1.5982947    2.1272384   -1.5554977 
12890000    1.0372988 -2.9197126e-05   0.57671702  0.025318976            0   0.55139804    1.5481685    2.1248855   0.10678015 
12895000    1.0371923 2.8265427e-05   0.59768258  0.031091233            0   0.56659135    1.5480095    2.1456921    4.0993984 
12900000     1.048396 1.1406091e-05   0.57330974  0.030215532            0   0.54309421     1.564731    2.1380408    2.9264298 
12905000    1.0263618 -3.8857471e-06   0.58724352  0.012171624            0    0.5750719     1.531845    2.1190885    1.8505056 
12910000    1.0288213 9.376045e-05   0.58451835 0.0070005639            0   0.57751779    1.5355157    2.1200341    8.6007564 
12915000    1.0516449 5.1797489e-05   0.54488018  0.013894518            0   0.53098566      1.56958    2.1144602    5.6947027 
12920000    1.0273497 7.4444444e-05   0.57065816  0.028283277            0   0.54237488    1.5333195    2.1039776    7.2495776 
12925000    1.0421891 3.5218195e-05   0.55447074   0.03916506            0   0.51530568    1.5554673     2.109938    4.5442197 
12930000    1.0346096 -4.5215288e-05   0.54444159   0.04258171            0   0.50185988    1.5441548    2.0885964   -1.0366843 
12935000    1.0120639 -1.4291808e-05   0.57495048  0.027568666            0   0.54738181    1.5105053    2.0854558     1.097606 
12940000    1.0470599 -7.11034e-06   0.52458792  0.017688814            0   0.50689911    1.5627369    2.0873248    1.5958581 
12945000    1.0608788 7.5916541e-06   0.51549942  0.010764464            0   0.50473495    1.5833616     2.098861    2.6235961 
12950000    1.0870335 1.6889709e-05   0.47503834  0.018939189            0   0.45609916    1.6223976    2.0974359    3.2648526 
12955000    1.0604507 5.1230374e-05   0.51876381 0.0093031507            0   0.50946066    1.5827226    2.1014864    5.6425299 
12960000    1.0361113 4.0372214e-05   0.53838235 0.0033130102            0   0.53506934    1.5463961    2.0847785    4.8753059 
12965000    1.0603252 -3.2211582e-05   0.51176018  0.015049702            0   0.49671048    1.5825354    2.0942956  -0.13216897 
12970000    1.0436523 -1.7161372e-05   0.54187279  0.033677541            0   0.50819525    1.5576511    2.0995238   0.91332984 
12975000    1.0374715 2.2039995e-05   0.55118457  0.016239933            0   0.53494464    1.5484262    2.0996108    3.6230152 
12980000    1.0196146 -2.4018464e-06    0.5735498  0.011943776            0   0.56160602    1.5217748    2.0953246     1.929309 
12985000     1.044562 -1.8607105e-05   0.52805591 0.0044981128            0   0.52355779    1.5590088    2.0870647   0.80094162 
12990000     1.018207 1.7655875e-05   0.55102737  0.027357602            0   0.52366977     1.519674    2.0707014    3.2910754 
12995000   0.97235989 3.7241839e-05   0.59415807  0.039563721            0   0.55459435    1.4512471    2.0454052    4.6195611 
13000000    1.0574342 2.6117721e-05   0.46651306 0.0089042548            0   0.45760881    1.5782205    2.0447336    3.8499905 
13005000   0.97814636 -1.3056716e-05   0.58816999  0.011717319            0   0.57645267    1.4598834    2.0480534    1.1455732 
13010000    1.0197173 -5.2008974e-05   0.51974163  0.019879383            0   0.49986225    1.5219281    2.0416697   -1.5531905 
13015000   0.99848971 -2.1445928e-05   0.55665039  0.018721816            0   0.53792857    1.4902459    2.0468963   0.56455372 
13020000    1.0141647 -1.4364846e-05   0.53089251  0.020614053            0   0.51027846    1.5136408    2.0445333    1.0516352 
13025000   0.98096695 8.057898e-05   0.58094292  0.018633586            0   0.56230934    1.4640932    2.0450361    7.6146552 
13030000    1.0088161 -4.5795348e-05   0.53714831  0.017267341            0   0.51988097     1.505658    2.0428063   -1.1225681 
13035000   0.98254279 -2.1790479e-05   0.56809375  0.019282856            0    0.5488109    1.4664451    2.0345389   0.52838092 
13040000    1.0230692 -1.8127893e-05   0.50772135  0.037544299            0   0.47017705    1.5269308    2.0346522   0.78165218 
13045000    1.0085233 1.2215462e-05    0.5254642  0.027511566            0   0.49795264     1.505221    2.0306852     2.875018 
13050000    1.0057748 0.00012039471   0.51478598  0.015841002            0   0.49894498    1.5011189    2.0159049    10.337587 
13055000   0.94425145 -2.6630029e-05   0.59350173  0.015269438            0   0.57823229    1.4092953     2.002797   0.16212939 
13060000   0.96833753 -5.0319893e-05   0.56131558  0.023540454            0   0.53777512    1.4452438    2.0065593   -1.4715517 
13065000    1.0269175 3.2257258e-05   0.47668982  0.020666534            0   0.45602329    1.5326743    2.0093642    4.2389858 
13070000   0.96404057 -2.5539946e-05   0.55094188  0.015655926            0   0.53528595    1.4388306    1.9897724   0.22445137 
13075000   0.98622688 1.205899e-05   0.52968734  0.014408012            0   0.51527933    1.4719436     2.001631    2.8351483 
13080000    1.0166482 -3.9841057e-06   0.49282721  0.014828005            0    0.4779992    1.5173474    2.0101746    1.7347932 
13085000    1.0352033 -1.4788486e-06   0.46622657  0.015617599            0   0.45060897     1.545041    2.0112676    1.9090495 
13090000      1.00979 3.0742117e-05   0.49896875  0.011175998            0   0.48779275    1.5071116    2.0060803    4.1309754 
13095000   0.99457222 2.9194334e-05   0.52941438  0.012715485            0    0.5166989     1.484399    2.0138134    4.0317258 
13100000    1.0041729 5.9576732e-05   0.51315708  0.024734307            0   0.48842277    1.4987281    2.0118852    6.1298289 
13105000    1.0609182 -9.37427e-06   0.42007811    0.0325703            0   0.38750781    1.5834204    2.0034985     1.355549 
13110000   0.96532444 -2.8625447e-05    0.5438871  0.013958932            0   0.52992817    1.4407467    1.9846338 0.0060429441 
13115000   0.94700967 -3.6550078e-05    0.5560586 0.0096511498            0   0.54640745    1.4134119    1.9694705  -0.55687084 
13120000   0.94078641 2.5972066e-06    0.5726887  0.015127759            0   0.55756094    1.4041237    1.9768124    2.1563313 
13125000    1.0022353 -4.1362674e-06   0.47579618  0.026691271            0   0.44910491    1.4958361    1.9716323    1.6857335 
13130000   0.99462429 -9.4298897e-06   0.45830381  0.014413338            0   0.44389047    1.4844767    1.9427806    1.2909866 
13135000   0.94888969 1.0223285e-05   0.55455776 0.0090826804            0   0.54547508    1.4162179    1.9707756    2.6774091 
13140000   0.97899264 -7.1769918e-05   0.51057147  0.011111474            0      0.49946    1.4611465     1.971718   -2.9890188 
13145000   0.99650216 3.5526451e-05   0.48084364   0.01414901            0   0.46669463    1.4872795    1.9681231    4.4237114 
13150000   0.97621967 -1.0725282e-06   0.52419607  0.028403051            0   0.49579302    1.4570079    1.9812039    1.9070708 
13155000    1.0188196 -1.0737214e-05   0.47854508  0.034765428            0   0.44377965    1.5205882    1.9991333     1.256977 
13160000    1.0266874 2.7325299e-05   0.46345008  0.031512512            0   0.43193757    1.5323309     1.995781    3.8845057 
13165000   0.96662457   3.7394e-05   0.54591137  0.045635906            0   0.50027547    1.4426872    1.9885985    4.5732718 
13170000   0.98500474 7.5885564e-05   0.53585363  0.030126949            0   0.50572668    1.4701196    2.0059732    7.2511834 
13175000   0.98900467 2.5799835e-05    0.5231811  0.017403973            0   0.50577712    1.4760895    1.9992706    3.7825552 
13180000     1.001741 9.445457e-06   0.49425923  0.010831854            0   0.48342738    1.4950985    1.9893577    2.6422277 
13185000    1.0104627 -3.1747847e-05   0.48430791   0.01479616            0   0.46951175    1.5081155    1.9924234  -0.20198776 
13190000    1.0056542 -4.9049546e-05   0.51806372  0.015504328            0   0.50255939    1.5009389    2.0190026    -1.371302 
13195000    1.0163888 -7.0017929e-06   0.52423184  0.023983182            0   0.50024866    1.5169603    2.0411921    1.5572282 
13200000    1.0193415 -1.8005498e-06   0.51249077  0.025812624            0   0.48667815    1.5213672     2.033858     1.909404 
13205000    1.0097996 1.3344775e-05   0.53155218  0.011939617            0   0.51961257    1.5071259    2.0386781     2.961069 
13210000   0.99138476 -3.3660806e-05   0.56003759  0.018188444            0   0.54184915    1.4796418    2.0396794  -0.28695553 
13215000    1.0467009 -1.0055212e-05   0.48709563  0.020665767            0   0.46642986    1.5622011    2.0492967    1.3542804 
13220000    1.0055745 3.7078028e-05    0.5318478  0.017232084            0   0.51461572      1.50082    2.0326678    4.5955011 
13225000     1.029772 5.8282909e-06   0.51079855  0.010708265            0   0.50009028    1.5369347    2.0477332    2.4505847 
13230000     1.003505 3.9155175e-05   0.55974343  0.032954605            0   0.52678882    1.4977312    2.0574747    4.7638803 
13235000     1.032956 -3.6629123e-05   0.50967617  0.032668594            0   0.47700757    1.5416868     2.051363  -0.48044198 
13240000    1.0114234 1.7090437e-05   0.55072524  0.019927981            0   0.53079726    1.5095494    2.0602746    3.2415657 
13245000    1.0383665 7.9799734e-06   0.49613993 0.0079059899            0   0.48823394    1.5497621     2.045902    2.5974778 
13250000    1.0204686 -7.0210645e-05   0.51039925 0.0054361571            0    0.5049631    1.5230493    2.0334486   -2.8195112 
13255000    1.0288661 -4.393463e-05   0.48147679  0.017855831            0   0.46362096    1.5355826    2.0170594   -1.0197022 
13260000   0.98592667 -5.3056958e-08   0.54895673  0.012717703            0   0.53623903    1.4714956    2.0204523     2.016785 
13265000    1.0492569 -2.7778845e-05   0.46619281 0.0056519469            0   0.46054086     1.566016    2.0322088   0.11213506 
13270000     1.063995 2.7347929e-05   0.43402362 0.0051538388            0   0.42886978    1.5880125    2.0220361     3.912325 
13275000    1.0673966 4.6303058e-06   0.45022295 0.0098507105            0   0.44037224    1.5930895    2.0433124    2.3633592 
13280000    1.0137711 -1.3463245e-05   0.54987993  0.014479553            0   0.53540038    1.5130533    2.0629333    1.1323538 
13285000    1.0092765 3.2095989e-05   0.55018358  0.010771326            0   0.53941225    1.5063452    2.0565288    4.2750036 
13290000    1.0244312 -1.0748026e-05   0.53975198  0.021911024            0   0.51784095    1.5289636    2.0687156     1.325812 
13295000    1.0604195 -2.6879722e-05   0.49566521  0.020539774            0   0.47512543    1.5826761    2.0783414   0.22041497 
13300000    1.0575463 5.4572498e-06   0.50489126  0.013500718            0   0.49139054    1.5783879    2.0832791    2.4604843 
13305000    1.0492242 -1.1978943e-05   0.50281942  0.011773819            0    0.4910456    1.5659671    2.0687865     1.240802 
13310000    1.0298556 -6.3494472e-06   0.51347629  0.014739775            0   0.49873651    1.5370595    2.0505358     1.611662 
13315000    1.0041469 -1.0651911e-05   0.56077765 0.0087260799            0   0.55205157    1.4986893    2.0594669    1.3232069 
13320000    1.0118555 2.8528196e-06   0.52829522 0.0039863208            0    0.5243089    1.5101944    2.0384896    2.2356765 
13325000    1.0036309 -4.8077596e-05   0.53562917  0.010567972            0    0.5250612    1.4979191    2.0335483   -1.2895752 
13330000    1.0052199 -2.6929004e-05   0.52094342  0.022363797            0   0.49857962    1.5002906    2.0212341   0.15990128 
13335000    1.0096977 3.6705347e-05   0.49872726  0.015714774            0   0.48301249    1.5069739    2.0057012    4.5427748 
13340000    1.0172901 1.2101974e-05   0.47763907  0.018953478            0    0.4586856    1.5183055    1.9959446    2.8324331 
13345000   0.99573945 -3.5482076e-05   0.51398591  0.023650717            0    0.4903352    1.4861411     2.000127  -0.45239407 
13350000    1.0452244 -2.8172015e-05   0.45349719  0.008820364            0   0.44467683    1.5599975    2.0134947  0.066244981 
13355000    1.0120906 -4.8653496e-05    0.5213953  0.012873764            0   0.50852153    1.5105452    2.0319405   -1.3309892 
13360000    1.0269208 -3.3020071e-05   0.49902058  0.011037338            0   0.48798325    1.5326793    2.0316999  -0.25064742 
13365000    1.0152833 -2.8881907e-05   0.51018387  0.010447073            0    0.4997368    1.5153104    2.0254943  0.029176878 
13370000    1.0420006 -7.3261905e-05   0.47154192  0.024925247            0   0.44661667    1.5551859    2.0267279    -3.037135 
13375000    1.0308244 2.3263394e-05   0.47286937  0.028322776            0   0.44454659    1.5385055    2.0113749    3.6193406 
13380000    1.0235641 5.4219922e-05   0.49469051   0.02818456            0   0.46650595    1.5276694    2.0223599    5.7700409 
13385000     1.043415 1.9912865e-05   0.46662027  0.018761292            0   0.44785898    1.5572969    2.0239172    3.4002944 
13390000    1.0162515 3.5014572e-05   0.49840348  0.020063034            0   0.47834044    1.5167554    2.0151589     4.435366 
13395000    1.0153626 8.7592804e-06   0.50363472  0.019747088            0   0.48388763    1.5154288    2.0190635    2.6245049 
13400000   0.97389549 -4.779993e-05   0.54980045  0.026871322            0   0.52292913     1.453539    2.0033395   -1.3005917 
13405000   0.98987103 -6.2925063e-05   0.54106382  0.027991723            0    0.5130721    1.4773825    2.0184463    -2.330934 
13410000     1.016706 5.3247718e-05   0.50127032  0.029267271            0   0.47200305    1.5174337     2.018704    5.6991863 
13415000    1.0316732 3.282299e-05   0.49168821  0.017401719            0   0.47428649    1.5397722    2.0314604    4.3001855 
13420000     1.041933 -5.4149653e-05   0.47964009  0.010659554            0   0.46898053    1.5550849     2.034725    -1.708099 
13425000    1.0011784 -3.0976958e-05   0.54474753  0.027763408            0   0.51698412    1.4942588    2.0390063  -0.10212106 
13430000    1.0093879 1.2440903e-05   0.55102214   0.01947801            0   0.53154413    1.5065114    2.0575335    2.9174487 
13435000    1.0391166 5.3701628e-05   0.49456339   0.02478339            0      0.46978    1.5508816     2.045445    5.7573015 
13440000   0.97679363 1.3091047e-06   0.57143926  0.022543085            0   0.54889617    1.4578645    2.0293038    2.1197891 
13445000    1.0108955 2.0406095e-05   0.52003676  0.024341959            0    0.4956948    1.5087615    2.0287982    3.4392675 
13450000   0.98412033 -2.3288135e-05   0.56718208  0.032346156            0   0.53483592    1.4687996    2.0359817   0.42630576 
13455000    1.0340269 -2.9729092e-05   0.49851248   0.01687508            0    0.4816374    1.5432852    2.0417977 -0.013077167 
13460000     1.014846 1.4626321e-05   0.54486505  0.021019857            0    0.5238452    1.5146576    2.0595227     3.070494 
13465000    1.0793155 -1.6266142e-05    0.4597644 0.0051212055            0    0.4546432    1.6108785    2.0706429    0.9463271 
13470000    1.0540275 -2.8024635e-05   0.48090535  0.018156507            0   0.46274885     1.573136    2.0540414   0.11697859 
13475000   0.98954185 3.9819625e-05   0.57956525  0.041534919            0   0.53803033    1.4768912    2.0564565    4.8087889 
13480000    1.0305801 7.056525e-05   0.52632515  0.045248045            0   0.48107711    1.5381408    2.0644659     6.941936 
13485000    1.0191737 3.2865085e-06   0.54100641  0.042764155            0   0.49824226    1.5211167    2.0621231    2.2892866 
13490000   0.99956291 -5.6751627e-07   0.57934264  0.033424851            0   0.54591779    1.4918476    2.0711903    2.0319635 
13495000    1.0015414 -3.1355723e-06   0.58464294  0.031997031            0    0.5526459    1.4948005    2.0794434    1.8627127 
13500000    1.0822475 -2.1200986e-05   0.48267688  0.021573675            0   0.46110321    1.6152544    2.0979313   0.63251907 
13505000    1.0737496 5.3969567e-06     0.511776  0.021718603            0   0.49005739    1.6025713    2.1143473     2.487385 
13510000    1.0564797 1.2780853e-06   0.53859922  0.027033665            0   0.51156556     1.576796    2.1153952    2.2037364 
13515000    1.0188452 3.1268545e-05   0.61063996  0.047525504            0   0.56311446    1.5206264    2.1312664    4.2925482 
13520000    1.0397584 -3.7871558e-05   0.55952021  0.030307417            0   0.52921279    1.5518394    2.1113596  -0.50632246 
13525000    1.0600662 2.7769363e-05   0.52654087  0.019590782            0   0.50695009    1.5821488    2.1086896     4.028108 
13530000    1.0338868 1.8429264e-05   0.56322585  0.012179135            0   0.55104671    1.5430761     2.106302    3.3801327 
13535000    1.0735896 -1.0441694e-05   0.50729302  0.017390803            0   0.48990222    1.6023324    2.1096254    1.3878955 
13540000    1.0866948 -2.4652966e-05   0.48757692   0.01627348            0   0.47130343    1.6218919    2.1094688   0.40545581 
13545000    1.0712295 -2.0681022e-05   0.52993941 0.0044045639            0   0.52553485    1.5988101    2.1287495   0.69927724 
13550000    1.0617124 1.080474e-05   0.53736526  0.010795669            0   0.52656959    1.5846057    2.1219709    2.8687946 
13555000    1.0886103 3.9623611e-05   0.47747285  0.030098335            0   0.44737452    1.6247508    2.1022237    4.8410077 
13560000    1.0226456 -2.0166104e-05   0.58191347  0.026172074            0    0.5557414    1.5262985     2.108212   0.71433092 
13565000    1.0156725 -1.1666612e-05   0.58380322 0.0082841781            0   0.57551904    1.5158913    2.0996945    1.2932982 
13570000    1.1004959 1.4973019e-06   0.47123975  0.014025504            0   0.45721424    1.6424901    2.1137299    2.2172234 
13575000    1.0838313 -2.6281264e-05   0.50308569  0.022025049            0   0.48106064    1.6176183     2.120704   0.30414303 
13580000     1.083037 -2.8316937e-05   0.50103556  0.018023648            0   0.48301191    1.6164327    2.1174683   0.16020156 
13585000    1.0442698 3.6056894e-06   0.53607104   0.03009409            0   0.50597695    1.5585727    2.0946437     2.343869 
13590000    1.0791025 -3.0387879e-05   0.48026697  0.018062423            0   0.46220455    1.6105605    2.0908275 -0.0095826585 
13595000      1.01088 -4.2485904e-05   0.57521694  0.023926335            0    0.5512906    1.5087384    2.0839553   -0.8526704 
13600000    1.0342965 2.5936398e-05   0.56489151  0.030615853            0   0.53427565    1.5436876    2.1085791    3.9013029 
13605000    1.0912356 4.0449526e-05   0.48835048  0.057277053            0   0.43107342    1.6286691    2.1170196    4.9128908 
13610000    1.0568572 -1.5689475e-05   0.54701216  0.033898974            0   0.51311319    1.5773594    2.1243715     1.039915 
13615000    1.0675062 -2.8696304e-05   0.54358791  0.029127242            0   0.51446067     1.593253    2.1368409   0.15335236 
13620000    1.0526889 1.141694e-06   0.57999191  0.029796144            0   0.55019577    1.5711381      2.15113    2.2300439 
13625000    1.0637441 -6.8274847e-06   0.56655123  0.032152705            0   0.53439852     1.587638    2.1541892    1.6822735 
13630000    1.0653524 2.3826911e-05   0.55166887  0.008576013            0   0.54309286    1.5900384    2.1417073    3.7886233 
13635000    1.0693833 -1.2246698e-06   0.53140289 0.0093103901            0    0.5220925    1.5960546    2.1274575    2.0428083 
13640000    1.0727925 -2.4322875e-06   0.52445976   0.01051428            0   0.51394548    1.6011429    2.1256026    1.9574829 
13645000     1.017243 -1.3422701e-05   0.60608246  0.016035269            0   0.59004719    1.5182352    2.1243176    1.1965406 
13650000    1.0782414 -1.9278104e-05   0.52556441   0.01041264            0   0.51515177    1.6092753    2.1348397   0.80233714 
13655000    1.0085547 -2.3877763e-05   0.64240655  0.026942831            0   0.61546372    1.5052679    2.1476745   0.49724346 
13660000    1.0740128 -1.359737e-05   0.52707949  0.026209154            0   0.50087034    1.6029641    2.1300436    1.1901934 
13665000    1.0393462 -6.0707004e-07   0.56609442  0.039984663            0   0.52610975    1.5512242    2.1173186    2.0753579 
13670000    1.0386163 7.3237832e-06   0.56204547  0.020100918            0   0.54194455    1.5501348    2.1121803    2.6184002 
13675000    1.0054614 2.1836891e-05   0.58750596  0.033650515            0   0.55385545    1.5006511    2.0881571     3.597523 
13680000    1.0067765 -2.8923663e-05    0.5783468  0.019044413            0   0.55930239     1.502614    2.0809608  0.081757204 
13685000   0.98837196 -5.473213e-05   0.58643556  0.021850312            0   0.56458525    1.4751452    2.0615807   -1.7215041 
13690000    1.0395984 -1.0849485e-05   0.51380727  0.027562683            0   0.48624459    1.5516007     2.065408    1.3154916 
13695000    1.0423434 7.5593768e-06   0.51379717  0.016013059            0   0.49778411    1.5556976    2.0694947    2.5919988 
13700000    1.0565312 8.7340068e-06   0.50048429  0.023027787            0   0.47745651    1.5768729    2.0773572    2.6810517 
13705000    0.9925765 -3.884692e-05   0.61124082   0.03412446            0   0.57711636    1.4814204    2.0926612  -0.59243787 
13710000   0.97173504 -5.1864916e-05   0.63131644  0.031345744            0   0.59997069    1.4503145     2.081631    -1.503272 
13715000    1.0344549 3.7060459e-06    0.5313336 0.0080325277            0   0.52330107     1.543924    2.0752576    2.3314195 
13720000    1.0688876 -1.1664314e-05   0.49989431  0.014645743            0   0.48524856    1.5953148    2.0952091    1.2889717 
13725000   0.99871171 9.9371528e-07   0.61063269  0.033279053            0   0.57735364    1.4905772    2.1012099    2.1698955 
13730000    1.0094066 1.3613718e-05   0.57683039  0.022665568            0   0.55416482    1.5065393    2.0833697    3.0243499 
13735000    1.0028947 8.995434e-06   0.59840589  0.039242171            0   0.55916372    1.4968203    2.0952262    2.7169906 
13740000    1.0294214 -1.3506062e-05   0.53606449  0.024575949            0   0.51148854    1.5364114    2.0724759    1.1389368 
13745000    1.0446176 1.2773323e-05   0.52171884 0.0079420339            0    0.5137768    1.5590918    2.0808106    2.9637027 
13750000   0.96009376 4.3550758e-05   0.64804681   0.01432382            0   0.63372299    1.4329399    2.0809867    5.0912152 
13755000     1.058164 -3.5166376e-05   0.52629493  0.012477021            0   0.51381791    1.5793097    2.1056046  -0.32509523 
13760000    1.0245851 -9.4276912e-05   0.57203817  0.011266833            0   0.56077134    1.5291933    2.1012315   -4.4151887 
13765000    1.0066307 -0.00011402722   0.62004837  0.013076211            0   0.60697216    1.5023963    2.1224447   -5.7591168 
13770000    1.0471944 -0.00010759525   0.53209982  0.030500487            0   0.50159933    1.5629376    2.0950374   -5.3419463 
13775000     1.043708 1.5936384e-05   0.54473844  0.044046009            0   0.50069243    1.5577341    2.1024726    3.2039955 
13780000    1.0106178 9.6063437e-05   0.59967625  0.025694604            0   0.57398165    1.5083471    2.1080234    8.7479281 
13785000    1.0091723 3.6004947e-05   0.59268609  0.014166681            0   0.57851941    1.5061896    2.0988757    4.5875376 
13790000    1.0200374 2.0456149e-05    0.5653062    0.0106616            0    0.5546446    1.5224058     2.087712     3.501641 
13795000    1.0024157 1.3967525e-05   0.57371599  0.014131153            0   0.55958484    1.4961054    2.0698214    3.0352567 
13800000    0.9584653 -5.9436573e-05   0.63243514  0.018194085            0   0.61424105    1.4305095    2.0629446   -2.0453113 
13805000    1.0394162 -9.4654147e-06    0.5241568  0.014992935            0   0.50916386    1.5513287    2.0754855     1.421236 
13810000    1.0231915 -1.640929e-05   0.54958496   0.02891645            0   0.52066851    1.5271133    2.0766983   0.94248816 
13815000    1.0443125 1.2192398e-06   0.52050476  0.019008118            0   0.50149664    1.5586364    2.0791412     2.163415 
13820000   0.95721524 2.4199826e-05   0.62691324  0.024467469            0   0.60244577    1.4286437     2.055557     3.728249 
13825000    1.0143979 -3.614206e-05   0.55985087 0.0095441076            0   0.55030676    1.5139889    2.0738397  -0.42429944 
13830000    1.0529787 -3.4899143e-06   0.50189478 0.0095378763            0    0.4923569    1.5715707    2.0734655    1.8322426 
13835000   0.99300578 -9.4242999e-06   0.57253142  0.026274502            0   0.54625692    1.4820611    2.0545926    1.4031849 
13840000   0.99008096 4.5617254e-06   0.58887522  0.030732217            0   0.55814301    1.4776958    2.0665711    2.3818775 
13845000   0.97586206 -2.2877047e-05   0.61455729  0.029348608            0   0.58520869    1.4564741    2.0710314   0.48976992 
13850000   0.99207826 -9.6630001e-06   0.58199683  0.019744705            0   0.56225212    1.4806768    2.0626736    1.3947671 
13855000    1.0129477 3.6602812e-05   0.54064868  0.016557472            0   0.52409121    1.5118244    2.0524731    4.5824595 
13860000    0.9421778 1.3137481e-05   0.65157232  0.024345551            0   0.62722677    1.4062004    2.0577727    2.9658354 
13865000    1.0160596 -1.437923e-05   0.54195213  0.026324913            0   0.51562722     1.516469    2.0584211    1.0645287 
13870000    1.0044792 -4.7854795e-05   0.56317356  0.016729411            0   0.54644415    1.4991851    2.0623587   -1.2453647 
13875000    1.0679168 2.1034624e-05   0.46817294  0.027210649            0   0.44096229    1.5938659    2.0620388     3.515952 
13880000    0.9841653 5.2250703e-05   0.57975371  0.032728655            0   0.54702505    1.4688667    2.0486204     5.660189 
13885000   0.96814835 1.0240293e-05   0.61284491  0.033167523            0   0.57967739    1.4449614    2.0578063    2.7656154 
13890000    1.0135244 -2.0736522e-05   0.53844309  0.024502233            0   0.51394085    1.5126852    2.0511282   0.61781981 
13895000   0.97318659 5.6364104e-06   0.59137029  0.027938225            0   0.56343207     1.452481    2.0438513      2.43344 
13900000    1.0015016 -5.0395985e-05   0.55678683  0.024119268            0   0.53266757    1.4947412     2.051528   -1.4318425 
13905000   0.97703588 -8.5941671e-05   0.56872091  0.017788017            0   0.55093289     1.458226     2.026947   -3.9133414 
13910000    0.9983279   4.6578e-05   0.52481306  0.026101605            0   0.49871145    1.4900044    2.0148174    5.2342888 
13915000    1.0132247 2.4070577e-05   0.49713677   0.02374355            0   0.47339322    1.5122379    2.0093747     3.673133 
13920000   0.97841643 3.0082229e-06    0.5633004  0.039379119            0   0.52392128    1.4602865    2.0235869    2.2315153 
13925000   0.94409767 3.629035e-05   0.62050617  0.051671621            0   0.56883454    1.4090658    2.0295719    4.5379609 
13930000    1.0318578 -3.9076808e-05   0.47933918  0.042041429            0   0.43729775    1.5400477    2.0193869  -0.68160202 
13935000   0.96301304 -6.1705062e-05   0.58124334  0.029381529            0   0.55186181     1.437297    2.0185403   -2.2465136 
13940000   0.97951052 -5.0648464e-06   0.55252272  0.025488007            0   0.52703472    1.4619195    2.0144422      1.66436 
13945000    1.0191996 2.6948819e-05   0.49152234  0.040690746            0    0.4508316    1.5211554    2.0126778    3.8753802 
13950000   0.96710183 2.0268682e-05   0.56044378  0.027151921            0   0.53329186    1.4433995    2.0038433    3.4048145 
13955000   0.98013865 -2.1937731e-05   0.51662491 0.0081766143            0    0.5084483    1.4628569    1.9794818   0.46314588 
13960000   0.98660692 1.0331122e-05    0.4952234 0.0081628418            0   0.48706055    1.4725108    1.9677342    2.6818214 
13965000    0.9953364 -7.7541895e-06   0.49127552 0.0069530346            0   0.48432249    1.4855396    1.9768151    1.4408455 
13970000   0.95954492 -1.7566025e-05   0.54441614 0.0099312226            0   0.53448492    1.4321208    1.9765369   0.76237328 
13975000   0.95183137 3.1579758e-05   0.56091124  0.013419988            0   0.54749125    1.4206083    1.9815196    4.1643124 
13980000   0.96228029 5.254303e-05   0.55417635  0.010768577            0   0.54340777    1.4362033    1.9903797    5.6221539 
13985000   0.96492229 -2.2732849e-05   0.52062616  0.022188332            0   0.49843783    1.4401465    1.9607727   0.38947816 
13990000   0.98488766 -5.8527654e-06   0.48826441  0.042019576            0   0.44624484    1.4699448    1.9582092    1.5536661 
13995000   0.95510352 4.347224e-05   0.55742937  0.029383721            0   0.52804565     1.425492    1.9829214    4.9877226 
14000000   0.96810256 -1.6105385e-05   0.53604867  0.029153901            0   0.50689477    1.4448931    1.9809417   0.86773755 
14005000    1.0028849 -2.2578446e-05   0.46682977 0.0081789422            0   0.45865083    1.4968058    1.9636355   0.40301335 
14010000   0.92893188 2.8091197e-05   0.57698797  0.026960519            0   0.55002745    1.3864308    1.9634188    3.9050823 
14015000   0.93431427 -6.2484406e-05   0.55867707  0.020342767            0    0.5383343    1.3944641    1.9531411    -2.365781 
14020000   0.89833239 -7.8885833e-05    0.6006016 0.0068210081            0   0.59378059    1.3407611    1.9413627   -3.5112261 
14025000   0.97506159 -3.7300617e-06   0.50886264  0.020282168            0   0.48858047    1.4552794    1.9641421    1.7063202 
14030000   0.93525842 -2.1802603e-05   0.57285935  0.011200727            0   0.56165862    1.3958732    1.9687325   0.46173661 
14035000   0.99422474 3.0450751e-05   0.47666893   0.02205363            0    0.4546153    1.4838804    1.9605494    4.0653052 
14040000   0.96918998 1.2031055e-05   0.50858292  0.014585973            0   0.49399695     1.446516     1.955099    2.7866855 
14045000   0.97919897 -2.1242896e-05   0.48602216  0.012077599            0   0.47394457    1.4614545    1.9474766   0.47916769 
14050000   0.95276844 3.6927725e-05   0.51857316   0.01267187            0   0.50590129    1.4220069    1.9405801    4.4930244 
14055000    0.9217679 4.2643413e-05   0.55341067  0.023620469            0    0.5297902    1.3757386    1.9291493    4.8766619 
14060000   0.93994096  6.86788e-05   0.52393245  0.028828609            0   0.49510384    1.4028619    1.9267943     6.673873 
14065000   0.92449851 4.1963659e-05   0.54632419  0.010717113            0   0.53560707     1.379814    1.9261382    4.8266663 
14070000   0.91179309 -3.541732e-05   0.54301704   0.01094754            0    0.5320695    1.3608512    1.9038682  -0.54417695 
14075000   0.98752976 1.8913982e-05   0.43814648  0.019271897            0   0.41887458    1.4738882    1.9120347    3.2193691 
14080000   0.90262046 -3.4375784e-05   0.57891778  0.017084822            0   0.56183295     1.347161    1.9260788  -0.44997539 
14085000   0.93873303 -3.3788436e-05    0.5164314  0.017268468            0   0.49916293     1.401059    1.9174904  -0.41796624 
14090000   0.98017852 1.5514453e-05       0.4588  0.032622705            0   0.42617729    1.4629164    1.9217164    2.9940754 
14095000   0.89503741 1.5662547e-05   0.58525236  0.019253858            0    0.5659985    1.3358433    1.9210957    3.0036909 
14100000   0.96760927 -4.9142007e-06   0.47476356 0.0065806267            0   0.46818293    1.4441568    1.9189204    1.5792508 
14105000   0.97085786 -2.4229912e-05   0.48676547  0.010313146            0   0.47645232    1.4490054    1.9357708    0.2609993 
14110000   0.94129949 -1.4031139e-05   0.52228334  0.019470612            0   0.50281273    1.4048895    1.9271728   0.95734049 
14115000    0.9505143 -5.5833711e-05   0.52143003  0.024123627            0   0.49730641    1.4186426    1.9400726   -1.9191535 
14120000   0.97288158 5.6283145e-06   0.49334843  0.015908813            0   0.47743962    1.4520258    1.9453742    2.3344033 
14125000   0.97269089 -2.174039e-05   0.48453024  0.012464573            0   0.47206567    1.4517412    1.9362714   0.43357561 
14130000   0.96299254 -8.1038729e-05   0.48787214 0.0089254396            0    0.4789467    1.4372664    1.9251385   -3.6762584 
14135000   0.97834423 -1.9852293e-05   0.46838893  0.014736981            0   0.45365195    1.4601788    1.9285677   0.55637723 
14140000   0.91343712 8.3815975e-07   0.56380811   0.03221536            0   0.53159275    1.3633049     1.927113    1.9850466 
14145000   0.94119231 1.2228923e-05   0.54236187  0.028155631            0   0.51420624    1.4047295    1.9470914    2.7923546 
14150000   0.95255266 4.2565831e-05   0.51279687  0.026321743            0   0.48647513    1.4216848    1.9344817    4.8766319 
14155000   0.97605535 1.157467e-05   0.49052961  0.017865291            0   0.47266432    1.4567626    1.9472922    2.7473334 
14160000   0.97535436 1.8643946e-05   0.48582195 0.0071373194            0   0.47868463    1.4557164    1.9415383    3.2302079 
14165000   0.98033461 -3.9949482e-05   0.47669711    0.0129983            0   0.46369881    1.4631494    1.9398465  -0.82146169 
14170000   0.96634117 -2.8696446e-05   0.48866618  0.026329982            0    0.4623362    1.4422642    1.9309304 -0.052567949 
14175000   0.96422399 3.8212279e-05   0.48361643   0.01356946            0   0.47004697    1.4391043    1.9227207    4.5639534 
14180000   0.92268299 5.8586621e-07   0.53304856  0.010755405            0   0.52229315    1.3771044    1.9101529     1.950648 
14185000   0.96189303 2.9265515e-05   0.46865452 0.0056688199            0    0.4629857    1.4356254    1.9042799    3.9271123 
14190000    0.9504759 4.1292146e-05   0.48771235  0.011236976            0   0.47647538    1.4185853    1.9062976    4.7604108 
14195000   0.92373676 1.435963e-05   0.52901345  0.017717061            0   0.51129639    1.3786771    1.9076906    2.9002282 
14200000   0.93227224 2.682753e-05   0.50571308  0.029787403            0   0.47592568    1.3914163    1.8971294    3.7514483 
14205000    0.9389938 -1.2041329e-05   0.49798387  0.026661688            0   0.47132218    1.4014482    1.8994321    1.0671355 
14210000   0.92786342 4.278834e-05   0.49928871 0.0045252646            0   0.49476344    1.3848362    1.8841249    4.8416549 
14215000   0.91009295 7.3102422e-05   0.54369377 0.0020535495            0   0.54164022    1.3583137    1.9020075    6.9548469 
14220000   0.93826575 3.6075865e-05   0.52111933 0.0061688902            0   0.51495044    1.4003616     1.921481    4.4150448 
14225000     0.984204 5.5384136e-05   0.48075611  0.013254142            0   0.46750197    1.4689245    1.9496806    5.7778321 
14230000   0.95626533 -4.2224316e-06   0.52515098  0.010789067            0   0.51436191     1.427226     1.952377    1.6605225 
14235000    1.0233734 1.2787508e-05   0.43078167  0.008617647            0   0.42216403    1.5273848    1.9581665    2.8420391 
14240000   0.95972616 4.5100136e-06   0.51219176  0.025904576            0   0.48628718    1.4323913    1.9445831    2.2563152 
14245000   0.96369867 -7.0579989e-05   0.52117321  0.029768318            0    0.4914049    1.4383203    1.9594935   -2.9189953 
14250000    0.9818116 -4.1395294e-05   0.50078228  0.022763604            0   0.47801868    1.4653538    1.9661361   -0.8951066 
14255000   0.91669199 7.9193803e-06   0.57863282  0.023857239            0   0.55477558    1.3681628    1.9467956    2.4941832 
14260000   0.98459567 3.5308013e-05   0.47743181  0.023964965            0   0.45346684     1.469509    1.9469408    4.3874307 
14265000   0.99517404 -2.2588979e-05   0.45564388  0.014620408            0   0.44102347    1.4852973    1.9409411    0.3795909 
14270000   0.93413306 -6.2354259e-05   0.52766456  0.012786865            0    0.5148777    1.3941936    1.9218582   -2.3880683 
14275000   0.98168663 -2.0354247e-05   0.44267751 0.0058306452            0   0.43684686    1.4651673    1.9078448   0.50095924 
14280000   0.96509826 1.6690237e-06   0.45481504  0.015170645            0   0.43964439    1.4404092    1.8952242    2.0105871 
14285000   0.90078718 9.9710817e-06   0.52571868  0.019139622            0   0.50657906    1.3444249    1.8701435    2.5593447 
14290000   0.88859339 -2.7358209e-05   0.54585931  0.020362176            0   0.52549714    1.3262256    1.8720849 -0.018914445 
14295000   0.89869012 -5.6911574e-05    0.5245889  0.013891509            0   0.51069739     1.341295    1.8658839   -2.0678441 
14300000   0.92976172 -6.3518262e-06    0.4803985  0.011711071            0   0.46868743    1.3876694    1.8680679    1.4290296 
14305000   0.88933604 -9.3800306e-06   0.53229436 0.0089140044            0   0.52338035     1.327334    1.8596284    1.2112807 
14310000   0.94913256 3.2754403e-05   0.43805048  0.018172494            0   0.41987798    1.4165804    1.8546308    4.1186152 
14315000    0.8848338 1.6621251e-05   0.53385219  0.014383851            0   0.51946834    1.3206144    1.8544666    3.0033275 
14320000   0.89752328 -2.1639782e-05   0.52680534   0.01062989            0   0.51617545    1.3395535    1.8663588   0.37061713 
14325000   0.93182357 -9.3882874e-06   0.48384469 0.0061375246            0   0.47770716    1.3907467    1.8745914    1.2256729 
14330000   0.92827096 7.4820769e-06   0.48915292 0.0049940378            0   0.48415888    1.3854444    1.8745973    2.3917585 
14335000   0.91783145 4.3842506e-05   0.52027842  0.020742909            0   0.49953551    1.3698634    1.8901419    4.9205358 
14340000   0.94101917 1.9012093e-05   0.49925282  0.010651547            0   0.48860127    1.4044711    1.9037239    3.2178398 
14345000     0.924951 6.007666e-06   0.50108243 0.0037956031            0   0.49728683    1.3804894    1.8815718    2.2968217 
14350000   0.91990238 2.9013186e-05   0.52240609 0.0052671958            0    0.5171389    1.3729543    1.8953604    3.9007518 
14355000   0.95023312 -6.3411538e-05   0.49292066  0.010897303            0   0.48202335    1.4182229    1.9111436   -2.4718619 
14360000   0.94064006 -5.8600841e-06   0.51806285  0.011624525            0   0.50643833    1.4039053    1.9219681    1.5169191 
14365000   0.93106925 8.0601861e-05   0.52281431  0.030232273            0   0.49258204    1.3896209    1.9124352    7.4836358 
14370000   0.93955112 -1.2813248e-05   0.50603128  0.020664933            0   0.48536635      1.40228    1.9083113    1.0226596 
14375000   0.90480583 -3.5139321e-05    0.5406861 0.0080901631            0   0.53259594    1.3504227    1.8911088  -0.53772109 
14380000   0.95564395 3.5884072e-05   0.45591455  0.014550047            0    0.4413645    1.4262986    1.8822131    4.3625202 
14385000   0.90127862 6.9030901e-05     0.550983 0.0042703066            0   0.54671269    1.3451583    1.8961413    6.6675572 
14390000   0.89936788 -2.8031099e-05   0.54286859 0.0010787195            0   0.54178987    1.3423066    1.8851752 -0.052334428 
14395000   0.93735718 -6.0870472e-05    0.4912504 0.0036087375            0   0.48764166    1.3990056     1.890256    -2.317111 
14400000   0.95834444 -4.2895782e-05   0.47942674  0.013606639            0    0.4658201    1.4303291    1.9097558   -1.0552006 
14405000   0.88536164 -9.9322315e-06   0.58985614  0.023779458            0   0.56607668    1.3214022    1.9112584    1.2247425 
14410000   0.90336012 3.8870657e-05   0.54026249  0.023555184            0    0.5167073     1.348265    1.8885275    4.5752673 
14415000   0.91800959 5.4919348e-05   0.51691034  0.021848584            0   0.49506176    1.3701293    1.8870397     5.683065 
14420000   0.91148013 9.2574037e-06   0.51872403  0.022152866            0   0.49657117    1.3603841    1.8791081    2.5189799 
14425000    0.8991504 -1.9069403e-05   0.54296643 0.0095462215            0   0.53342021     1.341982    1.8849484   0.56687125 
14430000   0.90644132 4.346763e-05   0.53872708  0.010164101            0   0.52856298    1.3528637    1.8915908    4.8960733 
14435000   0.91579845 6.2670836e-06   0.51659157  0.018943706            0   0.49764786    1.3668292    1.8834208    2.3166016 
14440000   0.92431993 -2.4254681e-05   0.50052944  0.019282663            0   0.48124678    1.3795475    1.8800769   0.20359337 
14445000   0.91470477 -5.1637903e-05   0.52086275  0.016391023            0   0.50447173    1.3651969    1.8860596   -1.6831522 
14450000   0.86261625 -5.2672466e-05   0.60153448    0.0263501            0   0.57518438    1.2874547    1.8889892   -1.7517316 
14455000   0.89984119 3.2645035e-05   0.54860896  0.017245276            0   0.53136368     1.343013    1.8916219    4.1480467 
14460000   0.87597472 4.1157289e-05   0.60128988  0.029034935            0   0.57225495    1.3073923    1.9086822     4.753474 
14465000   0.93948295 3.501096e-08   0.51056511  0.038049138            0   0.47251598    1.4021783    1.9127434    1.9151634 
14470000    0.9005358 -4.0019411e-05   0.57642721  0.016044698            0   0.56038251    1.3440497    1.9204769   -0.8456648 
14475000   0.91440907 -9.0802469e-06   0.55509333   0.02027016            0   0.53482317    1.3647555    1.9198489    1.2922222 
14480000   0.94611831 1.5663078e-05   0.49495945  0.015708675            0   0.47925077    1.4120816     1.907041     2.989673 
14485000   0.95516187 -5.9771304e-08   0.50025578  0.019844618            0   0.48041116    1.4255791    1.9258349    1.9217035 
14490000   0.89507391 4.7187542e-06   0.57154002  0.016314304            0   0.55522572    1.3358978    1.9074378    2.2335981 
14495000   0.92595565 5.2132971e-06   0.53909562   0.03250899            0   0.50658663    1.3819888    1.9210844    2.2814275 
14500000     0.921627 3.4269436e-05   0.56559774   0.02798722            0   0.53761052    1.3755283     1.941126    4.3098295 
14505000   0.92681494 -1.5438702e-05   0.57304413 0.0099364494            0   0.56310768    1.3832713    1.9563154   0.88919235 
14510000   0.95168639 -1.5526855e-05   0.54681274 0.0075350248            0   0.53927772    1.4203919    1.9672047    0.8939885 
14515000   0.96756064 1.3868661e-06   0.51897483  0.020095969            0   0.49887886    1.4440843    1.9630591    2.0589193 
14520000   0.90654695 -4.2365916e-05   0.60085389  0.044116872            0   0.55673702    1.3530213    1.9538752   -0.9744569 
14525000    0.9584655 6.816057e-06   0.52747798  0.016625976            0     0.510852    1.4305098    1.9579877    2.4291136 
14530000   0.97357226 2.9745209e-05   0.50919679  0.016819267            0   0.49237753    1.4530566    1.9622534    4.0182423 
14535000   0.95375485 2.8288853e-05   0.54483649 0.0074754913            0     0.537361    1.4234791    1.9683156    3.9236411 
14540000   0.93953002 -9.847438e-06   0.55454124  0.015396643            0    0.5391446    1.4022486    1.9567898    1.2761349 
14545000   0.96162011 -4.7120832e-05   0.52012377 0.0086667209            0   0.51145705     1.435218    1.9553418   -1.3016501 
14550000   0.97014759 -3.0711333e-05   0.51143618 0.0043896102            0   0.50704657    1.4479453    1.9593815  -0.16338586 
14555000   0.91948575 -7.8293606e-06   0.59054974 0.0059315806            0   0.58461816    1.3723325    1.9628822    1.4217168 
14560000   0.97205215 1.1274851e-05   0.51224514  0.007440773            0   0.50480436    1.4507878     1.963033    2.7423507 
14565000   0.98643775 -3.1862805e-05   0.49820056  0.011652601            0   0.48654796    1.4722583    1.9704589  -0.23189816 
14570000   0.95025146 -4.6367955e-05   0.55711801  0.012818503            0   0.54429951    1.4182503    1.9753683   -1.2295847 
14575000   0.96421211 1.7554521e-05   0.53114704  0.011357388            0   0.51978965    1.4390866    1.9702336    3.1836021 
14580000   0.97465025 3.5828879e-05   0.49838267  0.025413791            0   0.47296888    1.4546655    1.9530482    4.4295403 
14585000   0.92947704 -8.3544786e-07     0.575897  0.032310751            0   0.54358625    1.3872445    1.9631415    1.9053953 
14590000   0.95951122 1.9404086e-05   0.51180096  0.030228698            0   0.48157226    1.4320705    1.9438715    3.2850819 
14595000   0.92878307 4.4887213e-05   0.54929408  0.010638705            0   0.53865537    1.3862087    1.9355028     5.038107 
14600000   0.92798385 1.6164658e-05   0.55568847  0.005894576            0   0.54979389    1.3850159    1.9407044    3.0580055 
14605000    0.9272454 3.1667805e-05   0.55489955 0.0088231734            0   0.54607637    1.3839138    1.9388133     4.127692 
14610000   0.94222583 3.8332614e-05   0.53367671  0.015881819            0   0.51779489     1.406272    1.9399488     4.589499 
14615000   0.95195407 1.4986438e-06   0.50113176  0.012687324            0   0.48844443    1.4207915    1.9219232    2.0255095 
14620000   0.91395727 -5.1818784e-05   0.56200853  0.017924593            0   0.54408394    1.3640812    1.9260898   -1.6556246 
14625000   0.95445552 5.8286257e-06   0.53545022  0.016320804            0   0.51912942    1.4245249    1.9599751    2.3628497 
14630000   0.99030132 4.8322124e-06   0.48910128  0.013560263            0   0.47554102    1.4780247     1.967126    2.3011285 
14635000    1.0207493 -2.2353771e-05   0.45506489 0.0061588005            0   0.44890609    1.5234684    1.9785333   0.43344063 
14640000    1.0162636 -1.7528189e-06   0.45422394 0.0098065019            0   0.44441744    1.5167734    1.9709974    1.8498425 
14645000   0.94262267 5.0367239e-05   0.56996802  0.020770473            0   0.54919755    1.4068643    1.9768324    5.4582159 
14650000   0.94839646 2.0366349e-05   0.58388704  0.013913471            0   0.56997357    1.4154817    1.9993688    3.4070908 
14655000    1.0012569 8.9741106e-06   0.52992457  0.015783049            0   0.51414152    1.4943759    2.0243005     2.644591 
14660000   0.99416004 -3.3271426e-05   0.55257441  0.016486809            0    0.5360876    1.4837839    2.0363583  -0.26336268 
14665000   0.96333713 -2.35973e-05   0.61138441  0.060650751            0   0.55073366    1.4377807    2.0491651   0.41811969 
14670000   0.98537419 5.0427744e-05   0.57070071  0.041312792            0   0.52938792     1.470671    2.0413717    5.5269374 
14675000    1.0136392 2.763567e-05   0.50229665  0.012185195            0   0.49011145    1.5128565    2.0151531    3.9253306 
14680000   0.97557804 -7.9624706e-06   0.56097578 0.0095179962            0   0.55145779    1.4560502     2.017026      1.46666 
14685000   0.97839717 9.1889353e-06   0.55611724  0.015550108            0   0.54056713    1.4602578     2.016375    2.6515142 
14690000   0.97289081 3.6270515e-05   0.56302724  0.015872452            0   0.54715479    1.4520395    2.0150668    4.5220848 
14695000     1.030744 -4.6771327e-05   0.48171698   0.02233554            0   0.45938144    1.5383854    2.0201024   -1.2127318 
14700000   0.98413263 -5.0178534e-05   0.56854777  0.041029988            0   0.52751778     1.468818    2.0373657   -1.4309745 
14705000   0.98969768 1.6614384e-05   0.56276217  0.023257082            0   0.53950509    1.4771238     2.039886    3.1882722 
14710000   0.96267618 3.8191174e-05    0.6028172  0.022124558            0   0.58069264    1.4367942    2.0396114    4.6793853 
14715000   0.99017064 1.4799095e-05   0.55939476  0.026634065            0   0.53276069    1.4778297    2.0372244    3.0601378 
14720000   0.96368545 -2.4946819e-05   0.60263609  0.022742393            0    0.5798937    1.4383005    2.0409366    0.3166125 
14725000    1.0671278 7.9710585e-06   0.48515486  0.020492053            0   0.46466281    1.5926882    2.0778431    2.6288027 
14730000   0.99939042 4.3021782e-06   0.58254235  0.026821514            0   0.55572084    1.4915902    2.0741326    2.3714991 
14735000    1.0058244 5.048218e-05   0.57227856  0.022598187            0   0.54968037     1.501193    2.0734715    5.5627998 
14740000    1.0105457 3.6237957e-06    0.5599709  0.019526349            0   0.54044455    1.5082394    2.0682103    2.3186871 
14745000    1.0391911 -2.8867417e-05   0.52075025  0.021699828            0   0.49905043    1.5509928     2.071743  0.076427169 
14750000     1.023393 -1.4675259e-05   0.55852752  0.011549445            0   0.54697808    1.5274141    2.0859416    1.0715877 
14755000    1.0795116 -9.6217058e-06   0.47258983  0.013343266            0   0.45924657    1.6111711    2.0837609    1.4187086 
14760000   0.99864064 2.2317648e-05   0.58228221   0.01997378            0   0.56230843    1.4904712    2.0727534    3.6153492 
14765000    1.0363226 1.6508588e-05   0.51445871 0.0076313291            0   0.50682738    1.5467115    2.0611702    3.2022438 
14770000   0.95419413 3.2476101e-05   0.62821944 0.0061366765            0   0.62208276    1.4241347    2.0523542    4.2971023 
14775000    1.0163522 1.0835508e-05   0.52903809  0.015852123            0   0.51318596    1.5169057    2.0459438    2.7948941 
14780000    1.0400442 -1.3004649e-05   0.49288849  0.013481682            0   0.47940681     1.552266    2.0451545    1.1462731 
14785000     1.032336 -3.6484804e-05   0.52075838  0.017758155            0   0.50300022    1.5407614    2.0615198  -0.46030986 
14790000    1.0027804 -6.327724e-05   0.56021963   0.01391339            0   0.54630624    1.4966497    2.0568693   -2.3168535 
14795000    1.0288442 -1.5430006e-05   0.53444931  0.018360976            0   0.51608834    1.5355499    2.0699992    1.0034773 
14800000    1.0080993 5.0955026e-05   0.54068488  0.023042835            0   0.51764204    1.5045882    2.0452731    5.5672845 
14805000   0.99473876 9.2344656e-06    0.5394788  0.020652729            0   0.51882607    1.4846476    2.0241264    2.6624127 
14810000    1.0078139 -1.3114391e-05   0.49151789  0.015233769            0   0.47628412    1.5041622    1.9956801    1.0892133 
14815000    1.0089188 -1.4604116e-05   0.49283601  0.011008023            0   0.48182798    1.5058114    1.9986474   0.98921085 
14820000   0.92423425 -1.7385817e-05   0.62411175  0.058015545            0    0.5660962    1.3794196    2.0035314   0.80182366 
14825000   0.95774179 1.2288747e-06   0.56674501   0.03599378            0   0.53075123    1.4294296    1.9961746    2.0811144 
14830000    0.9820055 -4.9952375e-05    0.5026867   0.01041022            0   0.49227648    1.4656432    1.9683299   -1.4843782 
14835000   0.96202238 -5.627264e-05   0.53332837 0.0059476123            0   0.52738076    1.4358184    1.9691468   -1.9204181 
14840000   0.97396111 1.9113653e-05   0.53469436  0.024316914            0   0.51037745     1.453637    1.9883313     3.309467 
14845000   0.97335425 -1.7320711e-05   0.54973757  0.044538889            0   0.50519868    1.4527312    2.0024688   0.80526122 
14850000    1.0400896 -4.5328934e-05   0.44425804  0.011809317            0   0.43244873    1.5523337    1.9965917   -1.1365442 
14855000   0.96042159 1.4226982e-05   0.55757766  0.033510105            0   0.52406755    1.4334292    1.9910069    2.9743759 
14860000     1.010454 2.944565e-05   0.47219953  0.028572916            0   0.44362661    1.5081026    1.9803021    4.0155854 
14865000   0.97406815 -1.9590014e-05   0.52441713   0.01131295            0   0.51310418    1.4537967    1.9782138   0.62415207 
14870000   0.96290551 -3.5683644e-05   0.54000091  0.023070143            0   0.51693077    1.4371365    1.9771374  -0.48931612 
14875000    0.9592838 -1.4269136e-05   0.54247418  0.020586017            0   0.52188816    1.4317311    1.9742052   0.98792253 
14880000   0.97311253 1.3153512e-05   0.50169967   0.02038843            0   0.48131124    1.4523705    1.9540701    2.8632408 
14885000   0.94029492 2.2705107e-05   0.55437697  0.035800819            0   0.51857615    1.4033902    1.9577671    3.5271441 
14890000   0.95585238 -1.3543269e-05   0.53595746  0.031931256            0    0.5040262    1.4266097    1.9625671    1.0264564 
14895000   0.96913204 -2.8892346e-05   0.52449052  0.013735081            0   0.51075544    1.4464296    1.9709201 -0.026118887 
14900000    0.9706354 1.6979215e-05   0.51669543  0.049576875            0   0.46711856    1.4486733    1.9653688    3.1389721 
14905000   0.97651337 9.9687995e-06   0.52593148   0.02666661            0   0.49926487    1.4574462    1.9833777    2.6724211 
14910000   0.96134242 3.7629432e-05   0.54482386  0.025059661            0    0.5197642    1.4348036    1.9796274    4.5805738 
14915000   0.95213125 9.2880313e-05   0.54432459  0.021208406            0   0.52311619    1.4210559    1.9653805    8.3852677 
14920000   0.95181143 2.1728342e-05   0.55522202  0.025331404            0   0.52989061    1.4205786    1.9758006    3.4776636 
14925000    0.9382394 -3.5552998e-06   0.57871243  0.041723944            0   0.53698849    1.4003223    1.9790347    1.7332924 
14930000    1.0295983 4.6384641e-05    0.4471931  0.017773517            0   0.42941959    1.5366754    1.9838685    5.1899749 
14935000     1.031016 2.7891194e-05   0.46340046  0.012397978            0   0.45100249    1.5387914    2.0021919    3.9300312 
14940000   0.93744377 -2.742112e-05   0.60659508  0.016226494            0   0.59036858    1.3991348    2.0057299   0.11038205 
14945000    1.0059625 -7.3650066e-05    0.4950027  0.014112438            0   0.48089026     1.501399    1.9964017   -3.0942908 
14950000    1.0397542 -2.6236424e-05   0.47004856  0.025051255            0   0.44499731    1.5518331    2.0218817   0.20842003 
14955000   0.97618554 4.5250121e-06   0.53777561  0.033747967            0   0.50402765    1.4569569    1.9947325    2.3075014 
14960000   0.96904863 -2.7478168e-05   0.53838058  0.021933427            0   0.51644715    1.4463051    1.9846857  0.085394728 
14965000    1.0048724 4.2311171e-07   0.49072198  0.019622373            0   0.47109961    1.4997721    1.9904941    2.0197396 
14970000    1.0013398 4.283895e-05   0.50150088  0.025958167            0   0.47554272    1.4944997    1.9960006    4.9570288 
14975000   0.98843333 6.823797e-06   0.52188773  0.052289099            0   0.46959863    1.4752367    1.9971245    2.4687853 
14980000      1.00138 -6.1873893e-05   0.49323096  0.021726727            0   0.47150423    1.4945596    1.9877906   -2.2889329 
14985000    1.0100423 -4.761056e-05   0.47906511 0.0086278152            0   0.47043729    1.5074881    1.9865532   -1.3042887 
14990000     1.026967 -2.1860618e-06    0.4498061 0.0085983889            0   0.44120771    1.5327483    1.9825544    1.8314538 
14995000   0.98565258 6.2025909e-06   0.50243034  0.018901804            0   0.48352853    1.4710865    1.9735168    2.4022399 
15000000   0.96451988 -2.6018229e-05   0.52260633  0.030128942            0   0.49247739    1.4395459    1.9621522   0.16377228 
15005000    1.0113118 1.9319761e-05   0.46105239   0.01642546            0   0.44462693    1.5093829    1.9704353    3.3058172 
15010000    0.9533998 -2.1531853e-06   0.53619847  0.023855276            0    0.5123432    1.4229492    1.9591477    1.8103195 
15015000   0.97295989 -3.7069253e-05   0.51693295  0.020143792            0   0.49678916    1.4521426    1.9690756   -0.5931512 
15020000   0.99167034 1.838059e-05   0.49267065  0.019450557            0   0.47322009     1.480068    1.9727386     3.243205 
15025000   0.95167891 2.1072548e-06   0.56200628  0.034101959            0   0.52790432    1.4203808     1.982387    2.1280405 
15030000    1.0069548 -1.2250556e-05   0.48416916  0.030335152            0   0.45383401      1.50288    1.9870492    1.1402907 
15035000    1.0222021 -4.2348778e-05   0.45534425   0.03309686            0   0.42224739    1.5256367    1.9809809  -0.94616659 
15040000    1.0205301 3.4952044e-07   0.47441244  0.020034509            0   0.45437793    1.5231412    1.9975536    2.0217124 
15045000   0.98245958 1.7003453e-06   0.51227588  0.020543226            0   0.49173266    1.4663209    1.9785968    2.0961247 
15050000   0.99549904 -2.9371718e-05   0.49015355  0.014752985            0   0.47540056    1.4857823    1.9759359 -0.054237309 
15055000    1.0095952 2.2456394e-05   0.46475436  0.011151233            0   0.45360312    1.5068208    1.9715751    3.5237611 
15060000   0.97667385 2.8751705e-05   0.50386812  0.012355286            0   0.49151283    1.4576857    1.9615538    3.9488717 
15065000   0.94052741 -1.7642717e-05   0.56425523  0.014760139            0   0.54949509    1.4037372    1.9679924   0.74852775 
15070000   0.97990106 1.2353485e-05   0.49796371  0.027922859            0   0.47004085    1.4625023     1.960466    2.8143389 
15075000   0.97326855 4.0432728e-05   0.48521467  0.019096459            0   0.46611821    1.4526033     1.937818    4.7325281 
15080000   0.94798023 -1.8003525e-05   0.51245178   0.02837796            0   0.48407382    1.4148605    1.9273123   0.68290865 
15085000   0.92062596 -4.1397187e-05    0.5428578  0.011037333            0   0.53182047    1.3740342     1.916892  -0.94448151 
15090000   0.95593862 3.3971903e-05    0.4876237 0.0059017641            0   0.48172194    1.4267384    1.9143621       4.2625 
15095000   0.98960123 -2.943279e-05   0.45594448 0.0093056126            0   0.44663887    1.4769798    1.9329243  -0.10147013 
15100000   0.98001688 -9.2887615e-05   0.47793998  0.015942111            0   0.46199787    1.4626752    1.9406152   -4.4797768 
15105000   0.96936126 -3.1887467e-05   0.51847158  0.015114376            0    0.5033572    1.4467717    1.9652433  -0.23881849 
15110000   0.98517136 6.0339724e-05   0.48483299 0.0072518268            0   0.47758116    1.4703683    1.9552012    6.1258829 
15115000   0.99803442 2.6345437e-05   0.45630694  0.017539319            0   0.43876762    1.4895664    1.9458733    3.7668699 
15120000    1.0096727 1.014964e-05   0.44512022  0.010113109            0   0.43500711    1.5069366    1.9520568    2.6535999 
15125000   0.98978863 -3.0458718e-05   0.49834314  0.013674353            0   0.48466879    1.4772595    1.9756027  -0.12970392 
15130000   0.95817387 -2.8642124e-05   0.55429834  0.041345993            0   0.51295235    1.4300745    1.9843728 0.0046292511 
15135000   0.96699344 -7.5155196e-06   0.57057091  0.022975379            0   0.54759554    1.4432377    2.0138086    1.4943359 
15140000   0.98838796 -1.3554372e-05   0.54379625  0.038604627            0   0.50519162     1.475169    2.0189653    1.0820871 
15145000   0.98789219 -4.8521051e-06   0.53770857  0.032721688            0   0.50498688    1.4744291    2.0121377    1.6767601 
15150000    1.0247003 1.8275737e-05   0.47855078  0.029686055            0   0.44886472    1.5293653     2.007916     3.271135 
15155000   0.98320124 3.1522686e-05    0.5454416  0.022236347            0   0.52320525    1.4674278    2.0128694    4.1917175 
15160000    1.0131526 6.3679777e-05   0.49875816  0.015245633            0   0.48351253    1.5121302    2.0108884    6.4124346 
15165000    0.9695527 1.0888982e-05   0.54105923  0.011392418            0   0.52966682    1.4470574    1.9881166    2.7407631 
15170000   0.98489514 -2.1748735e-05    0.5071234 0.0075376183            0   0.49958578     1.469956    1.9770794   0.47380687 
15175000    1.0077125 1.0693636e-05   0.45428487  0.018904384            0   0.43538049    1.5040109    1.9582957    2.6974399 
15180000   0.99291637 2.7059714e-05   0.49412256  0.024423413            0   0.46969914    1.4819277    1.9760502    3.8464177 
15185000    1.0074549 3.1940735e-06   0.46846594  0.012545373            0   0.45592056    1.5036265    1.9720924    2.1928668 
15190000    0.9921097 -1.1503923e-05   0.49936889 0.0053366854            0   0.49403221    1.4807237    1.9800926    1.1849414 
15195000    0.9554417 -1.7107905e-05    0.5391787 0.0075933946            0   0.53158531    1.4259967    1.9651754   0.78267703 
15200000   0.96393148 3.9353248e-06   0.55260275  0.036960336            0   0.51564241    1.4386677    1.9912705    2.2632801 
15205000   0.96575492 3.505978e-05   0.55674972  0.038299191            0   0.51845053    1.4413892    1.9981389     4.421471 
15210000    1.0050027 1.5039025e-05   0.51464504  0.030165345            0    0.4844797    1.4999665    2.0146115    3.0541089 
15215000    1.0202533 1.6468156e-05   0.47969348  0.036606155            0   0.44308733    1.5227281    2.0024215    3.1407005 
15220000   0.94587641 5.1024583e-05   0.57386801  0.024324493            0   0.54954351    1.4117205    1.9855885    5.5124077 
15225000   0.98643738 2.3680341e-05   0.51340676  0.021497065            0    0.4919097    1.4722578    1.9856646    3.6224497 
15230000    0.9806361 1.5850816e-05   0.51971842  0.021762914            0   0.49795551    1.4635994    1.9833178    3.0789262 
15235000    0.9784142 -2.8020267e-05   0.51948076  0.016258375            0   0.50322239    1.4602832     1.979764  0.043003132 
15240000    0.9608581 -6.2167881e-06   0.54826642  0.025908677            0   0.52235774    1.4340807    1.9823471    1.5526428 
15245000    0.9807209 3.8632022e-05   0.50815494  0.027175459            0   0.48097948    1.4637259    1.9718809    4.6421262 
15250000   0.98579313 1.5385343e-05    0.5207706  0.026987066            0   0.49378354    1.4712962    1.9920668    3.0555018 
15255000   0.99376652 3.8635953e-05   0.52128649  0.023737832            0   0.49754866    1.4831965     2.004483    4.6750001 
15260000   0.97458656 3.6319725e-05   0.56507306 0.0092341922            0   0.55583887    1.4545704    2.0196435    4.5300629 
15265000    1.0432114 1.2451949e-05    0.4571466 0.0065798873            0   0.45056672     1.556993    2.0141396    2.8748183 
15270000   0.99819576 -5.6510147e-05   0.53574149  0.010637606            0   0.52510388    1.4898072    2.0255487   -1.8804327 
15275000   0.99877646 -1.5590531e-05   0.54777579  0.023222917            0   0.52455287    1.4906739    2.0384497   0.96083217 
15280000    1.0752311 4.1795082e-06    0.4457637  0.009113447            0   0.43665026    1.6047824    2.0505461    2.3394337 
15285000   0.98549779 -9.9119069e-06   0.57466604 0.0090239782            0   0.56564206    1.4708554    2.0455215    1.3604105 
15290000    1.0023928 6.0212875e-05   0.53994125 0.0048474818            0   0.53509376    1.4960713    2.0360125    6.1979264 
15295000    1.0663109 9.0628808e-06   0.44108487 0.0053332393            0   0.43575163     1.591469    2.0325539    2.6589802 
15300000    1.0290926 -1.1834767e-05   0.49582691  0.017554834            0   0.47827208    1.5359206    2.0317476    1.2137285 
15305000    1.0195102 6.7740983e-05   0.51743175  0.023577206            0   0.49385455    1.5216189    2.0390507    6.7213074 
15310000     1.004505 4.3218083e-05   0.54116008  0.045467569            0   0.49569251    1.4992237    2.0403838    5.0276177 
15315000   0.95623559 -1.6058888e-05   0.59680479  0.052598361            0   0.54420643    1.4271816    2.0239864   0.91399609 
15320000    1.0079629 9.7020012e-06   0.50655252  0.039300204            0   0.46725231    1.5043847    2.0109372    2.6815395 
15325000   0.94904579 1.1889503e-05    0.6062225  0.023710956            0   0.58251154    1.4164508    2.0226733    2.8444758 
15330000     1.036886 -1.4404701e-05   0.48716054  0.015286898            0   0.47187364    1.5475524     2.034713      1.03906 
15335000     1.031246 -2.1501326e-05    0.4897614  0.012247509            0   0.47751389    1.5391346     2.028896   0.54272435 
15340000    1.0057039 8.1030704e-06   0.52983216  0.021288597            0   0.50854356     1.501013    2.0308452    2.5909294 
15345000    1.0515364 1.7836397e-05   0.46069745  0.019774462            0   0.44092299    1.5694181    2.0301156    3.2629674 
15350000    1.0347306 2.3644538e-05   0.49874892   0.01004111            0   0.48870781    1.5443354    2.0430843    3.6773948 
15355000     1.017596 -1.9506666e-05   0.50320695  0.037069217            0   0.46613773    1.5187621     2.021969   0.67366825 
15360000    1.0264661 -3.7325751e-05   0.49024633  0.035765617            0   0.45448071    1.5320007     2.022247  -0.55770888 
15365000    1.0519556 1.7779416e-05    0.4555627 0.0082599203            0   0.44730278    1.5700438    2.0256065    3.2545198 
15370000    1.0290565 2.4581267e-05   0.50468922  0.019441959            0   0.48524726    1.5358668     2.040556    3.7396131 
15375000    1.0212968 -8.6101174e-06   0.52949661  0.017250062            0   0.51224655    1.5242855    2.0537821    1.4586508 
15380000    1.0576456 2.6302248e-05   0.47429152 0.0072308328            0   0.46706068    1.5785361    2.0528276    3.8708389 
15385000    1.0618767 2.5991018e-05   0.47743097  0.017080952            0   0.46035002     1.584851    2.0622819    3.8587811 
15390000    1.0483959 -1.604416e-05   0.49198973  0.020176147            0   0.47181358    1.5647309    2.0567206   0.94774827 
15395000    1.0460963 5.0778598e-05   0.49121209 0.0092534299            0   0.48195866    1.5612988    2.0525109    5.5623276 
15400000   0.99355224 6.3888193e-05   0.55740694  0.019785285            0   0.53762165    1.4828767    2.0402837    6.4562356 
15405000     1.039295 -5.5375813e-07   0.48338113  0.025746579            0   0.45763455    1.5511478     2.034529    1.9962532 
15410000    1.0234669 1.1367996e-05   0.51426136  0.028874692            0   0.48538667    1.5275243    2.0417857    2.8275416 
15415000    1.0187555 1.9530056e-05    0.5157292  0.062862022            0   0.45286718    1.5204927    2.0362219    3.3861393 
15420000   0.99928639 3.9947361e-05   0.54339181  0.053145929            0   0.49024588    1.4914349    2.0348267    4.7959883 
15425000    1.0043555 5.3188255e-05   0.52194878  0.028799828            0   0.49314895    1.4990006    2.0209494    5.6973216 
15430000    1.0203141 -7.8298931e-06   0.52813237  0.010517536            0   0.51761483    1.5228188    2.0509511    1.5097489 
15435000   0.99089882 3.6987016e-05   0.57638004  0.026762963            0   0.54961708    1.4789165    2.0552965    4.6118391 
15440000    1.0700233 4.4394885e-05   0.45920722  0.022515833            0   0.43669138    1.5970098    2.0562171    5.1247915 
15445000   0.99640102 1.2847996e-05   0.54029073  0.042592642            0   0.49769809    1.4871285    2.0274192    2.9154727 
15450000   0.99399075 -1.8372254e-06   0.54624067  0.036982315            0   0.50925835    1.4835312    2.0297719    1.9027828 
15455000    1.0072249 -2.6144282e-05   0.53867391  0.036647407            0    0.5020265    1.5032832    2.0419571   0.23486431 
15460000   0.99081767 -1.6617329e-05   0.55772639  0.047510198            0   0.51021619    1.4787954    2.0365218   0.88793195 
15465000     1.051464 -2.2278797e-05   0.47553327  0.035724506            0   0.43980877    1.5693101    2.0448434   0.50493292 
15470000   0.97947223 -7.4586141e-06   0.60018178  0.024185794            0   0.57599599    1.4618623    2.0620441    1.5465047 
15475000   0.99342579 7.3988473e-05   0.56941925  0.033028231            0   0.53639102     1.482688    2.0521072    7.1661905 
15480000    1.0553465 1.8878183e-05   0.45244589  0.025461636            0   0.42698425    1.5751046    2.0275505    3.3324105 
15485000   0.97239161 -1.1092312e-05   0.60449484  0.038340155            0   0.56615468    1.4512945    2.0557893    1.2890887 
15490000   0.99695829 2.1073142e-05   0.58302399  0.031473262            0   0.55155072    1.4879602    2.0709842    3.5275598 
15495000    1.0475666 2.5943374e-05   0.50881423  0.014112001            0   0.49470223    1.5634932    2.0723074    3.8655134 
15500000    1.0345203 6.0387733e-05   0.52952881   0.02146803            0   0.50806078    1.5440216    2.0735504    6.2475505 
15505000    1.0365438 -2.6287287e-06   0.52562983  0.024512398            0   0.50111743    1.5470416    2.0726714    1.8909737 
15510000    1.0416472 -4.2401531e-05   0.52854598  0.023867417            0   0.50467856    1.5546584    2.0832044  -0.84758942 
15515000    1.0667313 -1.5525439e-05   0.48615503  0.025291158            0   0.46086387    1.5920964    2.0782515    1.0051331 
15520000    1.0190093 -3.714257e-05   0.54927663  0.033645442            0   0.51563119    1.5208714     2.070148  -0.49714642 
15525000    1.0813958 5.6212039e-05   0.44015583  0.033251418            0   0.40690441    1.6139833    2.0541391    5.9395152 
15530000    1.0034145 4.6344094e-05   0.56082732  0.030111905            0   0.53071542    1.4975962    2.0584235    5.2617273 
15535000    1.0302962 -4.3096626e-05   0.51833216  0.018254206            0   0.50007795    1.5377171    2.0560493  -0.92278951 
15540000    1.0227645 2.1913433e-05   0.52320187  0.027317773            0    0.4958841    1.5264761    2.0496779    3.5643344 
15545000    1.0678112 3.8264254e-07   0.45657147  0.011550805            0   0.44502067    1.5937082    2.0502797     2.076728 
15550000    1.0139933 -6.238739e-05   0.56285278  0.021717798            0   0.54113498     1.513385    2.0762378   -2.2359786 
15555000    1.0499188 -4.0474442e-06    0.5019556  0.014243957            0   0.48771164    1.5670039    2.0689595    1.7892001 
15560000    1.0650878 1.069247e-05   0.46368522  0.013475765            0   0.45020946    1.5896436    2.0533288    2.7923923 
15565000    1.0425985 -4.2158086e-06   0.50001311  0.035098268            0   0.46491484    1.5560782    2.0560913    1.7646946 
15570000    1.0185828 7.9017585e-05   0.52770619  0.033014827            0   0.49469137    1.5202348     2.047941    7.5096365 
15575000    1.0554887 0.00010292682   0.46955874  0.018317479            0   0.45124126    1.5753168    2.0448755    9.1591776 
15580000    1.0254714 2.5133278e-05   0.51842332  0.013153667            0   0.50526966    1.5305161    2.0489394    3.7861516 
15585000    1.0306315 -2.3000741e-06    0.5213912  0.018627777            0   0.50276342    1.5382175    2.0596087    1.9006275 
15590000    1.0640916 2.4816192e-05   0.47989377  0.041601883            0   0.43829189    1.5881567    2.0680504    3.7833456 
15595000    1.0372061 5.0313935e-05   0.50332832  0.033511099            0   0.46981722    1.5480301    2.0513584    5.5290576 
15600000    1.0508783 2.2770626e-05   0.49095755  0.015087462            0   0.47587009    1.5684359    2.0593934    3.6332991 
15605000    1.0764391 -2.5645009e-05   0.46114251 0.0062212088            0    0.4549213    1.6065853    2.0677278   0.29514477 
15610000    1.0520168 3.0381418e-05   0.49196779  0.025856992            0    0.4661108     1.570135    2.0621028    4.1620664 
15615000    1.0185267 3.5397649e-05   0.53529775  0.032036304            0   0.50326145    1.5201511    2.0554488    4.5021343 
15620000    1.0227166 4.7697028e-05   0.53066609  0.039455271            0   0.49121082    1.5264045    2.0570706    5.3538892 
15625000    1.0609519 -7.3631378e-06   0.46602029  0.031165726            0   0.43485456    1.5834706    2.0494909    1.5405508 
15630000    1.0794637 -1.9850409e-05   0.44227557  0.023845066            0    0.4184305    1.6110995    2.0533751   0.68131484 
15635000   0.99824869 -2.0716715e-05   0.54895254  0.032968723            0   0.51598382    1.4898862    2.0388387   0.60689936 
15640000    1.0258521 1.5148568e-05   0.48969691  0.021254797            0   0.46844211    1.5310842    2.0207811    3.0678502 
15645000    1.0582278 -5.0003295e-06   0.45754934 0.0058986975            0   0.45165065     1.579405    2.0369543    1.6913316 
15650000    1.0141136 -3.9078469e-05   0.54093307 0.0064777308            0   0.53445534    1.5135646    2.0544976  -0.64660614 
15655000    1.0410086 -5.9416402e-05   0.49202918  0.016790443            0   0.47523873    1.5537053    2.0457345   -2.0611273 
15660000   0.99186478 -2.0425334e-05   0.55632807  0.033933874            0   0.52239419    1.4803582    2.0366862   0.62488713 
15665000    1.0739903 -7.7811967e-06   0.43823742  0.019209719            0    0.4190277    1.6029306     2.041168    1.5033317 
15670000    1.0235641 -1.8562918e-05   0.51917751 0.0078614874            0   0.51131602    1.5276694    2.0468469   0.76377803 
15675000    1.0283483 6.3117426e-05   0.50027298  0.026152474            0    0.4741205    1.5348099    2.0350828    6.3977594 
15680000      1.04475 -9.2323854e-06   0.47754207  0.016793826            0   0.46074824    1.5592894    2.0368315     1.398689 
15685000    1.0466044 -3.3436363e-05   0.48571429  0.013455084            0    0.4722592    1.5620571    2.0477714  -0.26335003 
15690000     1.014578 1.9283197e-06   0.53810009  0.038636998            0    0.4994631    1.5142576    2.0523577    2.1856432 
15695000    1.0146119 -2.1042327e-05   0.51735204  0.025073634            0    0.4922784    1.5143082    2.0316603   0.57721464 
15700000    1.0419478 -3.1487201e-05   0.47820349  0.041500781            0    0.4367027    1.5551071    2.0333105  -0.14308477 
15705000    0.9763406 -2.7737422e-05   0.56602545  0.064521713            0   0.50150374    1.4571883    2.0232138   0.10600316 
15710000    1.0167387 4.3941767e-06   0.49200379  0.056148938            0   0.43585485    1.5174824    2.0094862    2.3132117 
15715000   0.97368491 2.677944e-05   0.55937576  0.028033461            0    0.5313423    1.4532247    2.0126005    3.8635954 
15720000   0.99356388 -1.2263549e-05   0.54138146  0.033831048            0   0.50755041    1.4828941    2.0242755     1.176619 
15725000    1.0296384 -5.3021622e-05   0.48723946  0.031621303            0   0.45561816    1.5367353    2.0239748   -1.6408797 
15730000    1.0236467 -4.7645142e-05   0.48501782  0.013165652            0   0.47185216    1.5277927    2.0128105   -1.2804217 
15735000    1.0258445 -4.1030894e-05    0.4994016  0.020868153            0   0.47853345     1.531073    2.0304746  -0.80558083 
15740000    1.0604996 -3.5369097e-05   0.42914586 0.0071362527            0    0.4220096    1.5827956    2.0119415  -0.43277048 
15745000    1.0084849 -2.0858277e-05   0.49062516  0.022419306            0   0.46820585    1.5051638    1.9957889   0.55406484 
15750000    1.0037275 3.2112354e-05   0.50144384  0.064356154            0   0.43708769    1.4980633    1.9995071     4.219113 
15755000    1.0312328 3.1326073e-05   0.46448526  0.029020664            0   0.43546459     1.539115    2.0036002    4.1688584 
15760000    1.0187589 3.1447664e-05   0.46266416  0.025061861            0    0.4376023    1.5204977    1.9831619    4.1568244 
15765000    1.0410878 2.3410191e-05   0.44401118  0.015847479            0    0.4281637    1.5538235    1.9978347    3.6159471 
15770000    1.0024534 -1.8191601e-05   0.51299592  0.017686183            0   0.49530973    1.4961617    2.0091577   0.75175423 
15775000    1.0073331 -3.1060244e-05   0.51441636  0.045976517            0   0.46843985    1.5034446     2.017861  -0.12902305 
15780000     1.010829 -2.2174219e-06    0.5157707  0.027403664            0   0.48836703    1.5086623     2.024433    1.8711648 
15785000    1.0611014 -2.2688429e-05   0.43402971  0.030907178            0   0.40312254    1.5836939    2.0177236   0.44949934 
15790000   0.99791673 -4.7650397e-05   0.54307433  0.026138483            0   0.51693585    1.4893907     2.032465   -1.2611304 
15795000     1.001816 1.3562164e-05   0.54914464  0.034049231            0   0.51509541    1.4952105    2.0443551    2.9817719 
15800000    1.0370808 1.9630547e-05    0.4893821  0.029460359            0   0.45992174    1.5478432    2.0372252    3.3940887 
15805000    1.0316585 -1.864198e-05   0.48489494  0.024045071            0   0.46084987    1.5397503    2.0246452   0.73611155 
15810000   0.99343914 -6.0076646e-05   0.54421619  0.032649589            0    0.5115666    1.4827079    2.0269241   -2.1255736 
15815000    1.0435573 -2.4719921e-05   0.45579536  0.012474365            0   0.44332099    1.5575092    2.0133046   0.30466363 
15820000    1.0074658 2.9995206e-06    0.4982237  0.024471571            0   0.47375213    1.5036427    2.0018664    2.2091933 
15825000    1.0168536 -3.4145866e-05   0.50526583   0.02406101            0   0.48120482     1.517654    2.0229198  -0.33724242 
15830000    1.0276344 2.9832783e-06   0.50313553  0.030409518            0   0.47272601    1.5337444    2.0368799    2.2430841 
15835000   0.98561466 4.6927843e-05   0.56310247  0.038028291            0   0.52507418    1.4710299    2.0341324    5.2777849 
15840000   0.99701574 3.883716e-05   0.52223846  0.037478215            0   0.48476025     1.488046    2.0102845    4.6947089 
15845000    1.0496428 -1.8878826e-05   0.46112963  0.026275036            0    0.4348546    1.5665918    2.0277214   0.72281701 
15850000    1.0211544 -1.0174109e-06   0.49070442  0.012064576            0   0.47863984     1.524073    2.0147774     1.944454 
15855000    1.0605215 2.6243002e-05   0.41605628  0.016930337            0   0.39912594    1.5828284    1.9988846    3.8128009 
15860000    1.0045898 4.3930121e-05   0.51523195  0.044925584            0   0.47030637    1.4993503    2.0145822    5.0510322 
15865000    1.0534453 1.8639315e-05   0.45817011  0.036057632            0   0.42211247    1.5722671    2.0304372    3.3187867 
15870000    1.0508589 -2.1849983e-06   0.48507825  0.032004068            0   0.45307418    1.5684069    2.0534851    1.9024581 
15875000    1.0268893 -1.2441945e-05   0.52219901  0.032904973            0   0.48929403    1.5326323    2.0548313    1.1948441 
15880000    1.0596038 3.4376197e-06   0.47665102  0.010476925            0   0.46617409    1.5814587    2.0581098     2.295718 
15885000    1.0683007 2.3517873e-06   0.44876995 0.0048978764            0   0.44387207    1.5944388    2.0432088    2.2057643 
15890000    1.0669561 -2.1121259e-05   0.44750494  0.016130916            0   0.43137403     1.592432     2.039937   0.58003555 
15895000    1.0473152 -2.3043058e-06   0.47838559  0.028170202            0   0.45021539    1.5631179    2.0415035    1.8822299 
15900000    1.0523189 2.2798242e-05   0.46290167  0.035803354            0   0.42709832    1.5705859    2.0334876    3.6093021 
15905000    1.0370805 6.4308198e-06   0.49504448  0.047685694            0   0.44735878    1.5478427    2.0428872    2.4873854 
15910000    1.0730411 1.5740716e-05   0.44698122  0.010514097            0   0.43646713    1.6015138     2.048495    3.1364933 
15915000    1.0602702 3.7840597e-05   0.45869296  0.019353833            0   0.43933913    1.5824533    2.0411463    4.6566883 
15920000    1.0270851 3.2364813e-05   0.50627311  0.031903747            0   0.47436936    1.5329245    2.0391976    4.2762535 
15925000    1.0536667 -1.5454764e-05   0.45947544   0.02320903            0   0.43626641    1.5725975    2.0320729   0.96383963 
15930000    1.0006915 -2.4415136e-05   0.52626896  0.020226046            0   0.50604292    1.4935321    2.0198011    0.3322269 
15935000    1.0587363 -3.9030319e-05   0.41086336  0.031011583            0   0.37985178    1.5801639    1.9910273  -0.70674835 
15940000    1.0053091 -4.1151746e-05   0.48483306  0.020562381            0   0.46427068    1.5004239    1.9852569  -0.85915172 
15945000    1.0432671 -4.7859255e-05   0.40421492 0.0063899397            0   0.39782498    1.5570761     1.961291   -1.3467406 
15950000   0.99512746 -7.571528e-05   0.48785779 0.0089256789            0   0.47893211    1.4852277    1.9730855   -3.2603547 
15955000   0.97999713 1.1982006e-05   0.50722441  0.035476532            0   0.47174788    1.4626457    1.9698701    2.7980664 
15960000    1.0210878 4.2136774e-05   0.44068098  0.040698661            0   0.39998231    1.5239735    1.9646545    4.8771484 
15965000   0.98849295 1.2999075e-05     0.481283   0.02313708            0   0.45814592    1.4753257    1.9566087    2.8551048 
15970000   0.99818539 9.1398642e-06   0.45415918  0.031957485            0    0.4222017    1.4897917    1.9439509    2.5756983 
15975000   0.96312998 -2.1084545e-05   0.50727975  0.013785641            0   0.49349411    1.4374715    1.9447512   0.48738752 
15980000    1.0029349 2.8962105e-05   0.47601794  0.015673246            0    0.4603447    1.4968803    1.9728983    3.9747589 
15985000    1.0347827 -6.5031642e-05   0.43931952  0.023012956            0   0.41630656    1.5444131    1.9837327   -2.5112544 
15990000    1.0101314 -6.0397318e-05   0.47577414  0.026210001            0   0.44956414    1.5076211    1.9833953   -2.1912674 
15995000    1.0121549 -5.0142482e-05   0.47502246  0.014075703            0   0.46094676    1.5106411    1.9856636   -1.4801847 
16000000   0.97897304 -1.1852313e-06   0.50905759  0.010285225            0   0.49877237    1.4611173    1.9701749    1.8882517 
16005000   0.99692255 -1.9093216e-05   0.49055021  0.014710648            0   0.47583956    1.4879069    1.9784571     0.658734 
16010000   0.99725047 -6.0887073e-06   0.49258904  0.017771186            0   0.47481786    1.4883963    1.9809854    1.5601339 
16015000    1.0071022 -6.3854838e-06    0.4971779  0.024350989            0   0.47282691       1.5031    2.0002779    1.5589133 
16020000     1.004331 -1.5322918e-06   0.48832086  0.027180543            0   0.46114032     1.498964    1.9872848    1.8813728 
16025000   0.99215188 -2.0719153e-05   0.47594541  0.023732238            0   0.45221317    1.4807867    1.9567321   0.52462427 
16030000   0.98383204 2.5102864e-06    0.4871188  0.028561656            0   0.45855715    1.4683693    1.9554881    2.1289991 
16035000    1.0027505 2.3379739e-05   0.44867539  0.012710349            0   0.43596504    1.4966051    1.9452805     3.561288 
16040000   0.95384089 3.4917725e-05    0.5221972  0.013655102            0   0.50854209    1.4236075    1.9458047    4.3593179 
16045000    1.0014038 1.513081e-05   0.45087123  0.018969763            0   0.43190146    1.4945952    1.9454664     2.991308 
16050000   0.97420145 -3.2621768e-05     0.503428  0.015861519            0   0.48756648    1.4539957    1.9574237  -0.29739295 
16055000   0.97373031 -8.9851277e-05   0.52386759  0.027561837            0   0.49630575    1.4532925    1.9771601   -4.2333602 
16060000    1.0103414 -4.1278922e-06   0.45954527  0.022153712            0   0.43739156    1.5079345    1.9674798    1.6821599 
16065000    1.0318804 -1.633766e-05   0.43814446  0.012075314            0   0.42606914    1.5400815     1.978226   0.84896694 
16070000   0.99087748 7.7048311e-07   0.50725707   0.02017694            0   0.48708013    1.4788846    1.9861417    2.0393975 
16075000    1.0534131 6.8262013e-06   0.42286099 0.0092502586            0   0.41361073     1.572219      1.99508     2.466907 
16080000    1.0226187 -5.8930866e-06   0.48977492  0.031130257            0   0.45864466    1.5262584    2.0160333    1.6087032 
16085000     1.040961 -1.8002487e-05    0.4748178  0.022165904            0    0.4526519    1.5536342    2.0284521   0.78412014 
16090000    1.0408776 -3.3821978e-05   0.47411541  0.012409202            0   0.46170621    1.5535098    2.0276252   -0.3101499 
16095000    1.0241417 -3.9050272e-05   0.47997308  0.011331635            0   0.46864144    1.5285315    2.0085046  -0.69065025 
16100000    1.0619681 -3.7538534e-05   0.42915182  0.009738979            0   0.41941284    1.5849874    2.0141392  -0.58052419 
16105000    1.0554017 2.1679675e-05   0.43567429  0.013009471            0   0.42266482     1.575187    2.0108613    3.5093605 
16110000   0.99064571 -2.4080318e-05   0.53849155  0.023813829            0   0.51467772    1.4785387    2.0170303   0.35259869 
16115000    1.0233427 -3.7767854e-05     0.491816  0.019561397            0    0.4722546    1.5273389    2.0191549  -0.59135916 
16120000    1.0260326 2.7123825e-05    0.4661061  0.030345292            0   0.43576081    1.5313537    1.9974598    3.8722586 
16125000    1.0456215 5.4281553e-05     0.447415  0.023338597            0   0.42407641      1.56059    2.0080051     5.759946 
16130000    1.0336067 1.3026637e-05   0.47762463   0.01254312            0   0.46508151     1.542658    2.0202826    2.9206837 
16135000    1.0372279 5.1252245e-05   0.46811994  0.014682416            0   0.45343752    1.5480626    2.0161825    5.5587377 
16140000    1.0355755 2.2893988e-05   0.46687412  0.012221204            0   0.45465292    1.5455965    2.0124706    3.5949031 
16145000    1.0094297 -1.6235743e-06   0.47868827  0.013732398            0   0.46495588    1.5065738    1.9852621    1.8730406 
16150000    1.0000224 -1.4805524e-05   0.49623726  0.020978863            0    0.4752584    1.4925334    1.9887707   0.96541285 
16155000    1.0417463 -4.6119674e-05   0.42976492  0.017101457            0   0.41266346    1.5548064    1.9845713   -1.2032206 
16160000   0.98871156 4.070903e-06   0.51820654  0.014681014            0   0.50352553     1.475652    1.9938585    2.2752394 
16165000    1.0123901 6.2359438e-05   0.47106098  0.030083116            0   0.44097787    1.5109922    1.9820532    6.2923375 
16170000   0.97286033 -1.1481494e-05    0.5302631  0.023374433            0   0.50688867     1.451994    1.9822571    1.1886563 
16175000    1.0575534 2.4728835e-05   0.38918447 0.0069082195            0   0.38227625    1.5783984    1.9675829      3.67684 
16180000   0.97699292 8.7613346e-06    0.4989619  0.019615847            0   0.47934605    1.4581619    1.9571238    2.5627073 
16185000   0.98502022 -6.6605542e-05   0.49813289  0.019853333            0   0.47827955    1.4701427    1.9682756   -2.6354995 
16190000   0.95931216 -4.5385201e-05   0.54275009   0.01160961            0   0.53114048    1.4317734    1.9745235   -1.1625016 
16195000    1.0767452 3.937813e-05   0.36914311 0.0068212127            0    0.3623219    1.6070423    1.9761854    4.6980018 
16200000   0.95698687 9.3723681e-05   0.54132007  0.040258717            0   0.50106135    1.4283029     1.969623    8.4478038 
16205000   0.90885528 6.0177439e-06   0.62975457  0.032545281            0   0.59720929    1.3564665    1.9862211    2.4021675 
16210000    1.0311147 1.1137469e-05   0.43650973  0.028975826            0    0.4075339    1.5389386    1.9754484    2.7452702 
16215000    1.0453086 -2.4123787e-05   0.42811402  0.020473404            0   0.40764062     1.560123     1.988237   0.32080086 
16220000    1.0300737 -5.0347988e-05   0.45564497 0.0091958278            0   0.44644914     1.537385      1.99303   -1.4870229 
16225000     1.039128 3.7000941e-06   0.45499455  0.030034544            0   0.42496001    1.5508986    2.0058931    2.2616436 
16230000    1.0033819 7.5853602e-05   0.51566704  0.036272222            0   0.47939482    1.4975474    2.0132145    7.2562155 
16235000    1.0003809 3.2790248e-05    0.5310262  0.010100596            0   0.52092561    1.4930685    2.0240947    4.2905566 
16240000    1.0114068 -1.769986e-05   0.52624316 0.0037269284            0   0.52251624    1.5095247    2.0357679   0.81235351 
16245000    1.0215444 -9.1057445e-06   0.49583809  0.014971134            0   0.48086696     1.524655    2.0204931     1.391104 
16250000     1.079533 4.5751331e-05   0.40086628  0.023269859            0   0.37759642    1.6112029    2.0120692    5.1744012 
16255000    1.0078176 3.8841108e-05   0.49842291  0.017836783            0   0.48058613    1.5041677    2.0025907     4.687288 
16260000    1.0184374 9.5253528e-06   0.47876082  0.014236859            0   0.46452396    1.5200177    1.9987786     2.657171 
16265000     0.991872 1.5515058e-05   0.51051312  0.020590966            0   0.48992215     1.480369    1.9908821    3.0632829 
16270000    1.0087448 9.617622e-06   0.48328248  0.033654239            0   0.44962824    1.5055516    1.9888341    2.6536041 
16275000    1.0223941 8.7069163e-06   0.46420601  0.017855706            0   0.44635031    1.5259232    1.9901292    2.5919513 
16280000   0.99957235 5.9473938e-05   0.49201112  0.010000558            0   0.48201056    1.4918617    1.9838729    6.0947115 
16285000    0.9828992 5.1269812e-05   0.50866273  0.032007157            0   0.47665557    1.4669771    1.9756398    5.5194092 
16290000    1.0231494 -2.8089419e-05   0.46074095  0.023742035            0   0.43699891    1.5270505    1.9877914  0.046250773 
16295000    1.0158809 -1.6478161e-05   0.48258741  0.011419587            0   0.47116782    1.5162023    1.9987897   0.85981917 
16300000   0.98174318 -1.7316015e-05   0.53163412  0.032791829            0   0.49884229    1.4652517    1.9968858   0.80000286 
16305000   0.96981132 -2.3851915e-05   0.54024344  0.039616837            0    0.5006266    1.4474434    1.9876868   0.33904249 
16310000    1.0267726 2.2943705e-05   0.44268527  0.012435936            0   0.43024933    1.5324581    1.9751434    3.5610123 
16315000   0.98889612 -2.8062512e-05   0.51178129  0.014265843            0   0.49751544    1.4759275    1.9877087  0.048027906 
16320000    1.0018073 -2.8967567e-05   0.49140638  0.021292125            0   0.47011425    1.4951974    1.9866037 -0.015634503 
16325000   0.96239891 -1.5150403e-06   0.56371966  0.029038357            0    0.5346813    1.4363804       2.0001    1.8953805 
16330000    1.0013888 -3.1687585e-05   0.49902394  0.018359894            0   0.48066404    1.4945727    1.9935967  -0.19664922 
16335000    0.9859598 1.4099172e-05   0.50533383  0.027031798            0   0.47830203     1.471545    1.9768788    2.9514136 
16340000   0.97850684 -2.0195471e-05   0.52389621  0.048926334            0   0.47496988    1.4604215    1.9843177   0.58840674 
16345000    1.0370613 -6.4715396e-05   0.44341467  0.020674476            0   0.42274019     1.547814    1.9912287   -2.4818995 
16350000    1.0467576 -1.6867456e-06   0.41834938  0.024713553            0   0.39363582    1.5622858    1.9806352    1.8640473 
16355000   0.96873139 1.4626178e-05   0.52421399  0.015827325            0   0.50838666    1.4458316    1.9700456     2.981007 
16360000   0.97191783 9.0817802e-06   0.49580209  0.034628235            0   0.46117386    1.4505874    1.9463894    2.5741221 
16365000   0.99007204 -3.0092403e-05   0.47610107  0.020130686            0   0.45597038    1.4776825    1.9537836  -0.12620328 
16370000   0.93762025 -1.4899576e-05   0.53661987  0.035215929            0   0.50140394    1.3993982    1.9360181   0.90615937 
16375000   0.99512586 2.2231123e-05   0.43989964  0.031731926            0   0.40816771    1.4852253     1.925125    3.4617402 
16380000   0.92957049 4.5688662e-05   0.52857218  0.015756079            0    0.5128161     1.387384    1.9159561    5.0739564 
16385000   0.96602119 2.8941258e-05   0.48071105 0.0053449478            0    0.4753661    1.4417866    1.9224977    3.9229174 
16390000   0.96097577 2.5781278e-05   0.49851892 0.0061930589            0   0.49232586    1.4342563    1.9327753    3.7147772 
16395000   0.99246221 5.2315778e-05    0.4615464 0.0074464529            0   0.45409995    1.4812498    1.9427963    5.5588628 
16400000   0.99510633 -3.1061994e-05   0.47827994 0.0034281326            0    0.4748518    1.4851962    1.9634761  -0.18352888 
16405000     0.997777 -8.6388836e-05   0.46904557 0.0063647176            0   0.46268085    1.4891822    1.9582277   -4.0129686 
16410000    1.0342135 -5.8550739e-05    0.4227346  0.013337861            0   0.40939674    1.5435636    1.9662982   -2.0807289 
16415000    0.9828132 -1.7004132e-05   0.52728911  0.011235574            0   0.51605354    1.4668487    1.9941378   0.81881218 
16420000    1.0223234 -1.0535509e-05   0.44668181  0.019399921            0   0.42728189    1.5258177    1.9724995    1.2442851 
16425000   0.98472642 -2.2675617e-05   0.51175916  0.037986807            0   0.47377236    1.4697042    1.9814633   0.41412467 
16430000   0.98736402 9.7262385e-06   0.49158414  0.017504185            0   0.47407995    1.4736408    1.9652249    2.6375025 
16435000   0.97380611 -4.3365862e-05   0.50906695  0.017768876            0   0.49129808    1.4534056    1.9624726   -1.0349758 
16440000   0.99653153 -5.342378e-05   0.49020726   0.01033798            0   0.47986928    1.4873233    1.9775306   -1.7151211 
16445000   0.95918279 -6.4218027e-07   0.54089303  0.032015847            0   0.50887718    1.4315803    1.9724733    1.9280858 
16450000    0.9780256 3.6897818e-05   0.49760591  0.035051217            0   0.46255469    1.4597032    1.9573091    4.5076863 
16455000   0.98685354 5.6073352e-06   0.48201322   0.02529889            0   0.45671433    1.4728789    1.9548921    2.3424711 
16460000   0.91915559 -2.6968983e-05   0.60359455  0.020250232            0   0.58334432    1.3718397    1.9754343   0.11133817 
16465000   0.98699187 -5.2397799e-05   0.50477365 0.0097142517            0    0.4950594    1.4730854     1.977859   -1.6438769 
16470000    1.0154339 -8.1610264e-05   0.46638351 0.0040650467            0   0.46231847    1.5155351    1.9819186   -3.6589829 
16475000    1.0047497 1.4527506e-05   0.48085945  0.018304939            0   0.46255451    1.4995889    1.9804484    2.9845896 
16480000    0.9698139 5.7692172e-05   0.52122623  0.025673354            0   0.49555287    1.4474472    1.9686735    5.9563564 
16485000    0.9003808 -3.9079566e-05   0.60974991    0.0290448            0   0.58070511    1.3438183    1.9535683  -0.74761136 
16490000   0.93405963 -2.9169096e-05   0.55663601  0.020288399            0   0.53634761     1.394084      1.95072 -0.065447911 
16495000   0.96351931 -1.3283022e-05   0.51792639  0.034852467            0   0.48307393    1.4380526     1.955979    1.0378565 
16500000    0.9622688 -5.2485619e-05   0.52620801   0.03331709            0   0.49289092    1.4361862    1.9623942   -1.6654118 
16505000   0.95065851 -3.7000839e-05   0.56925703  0.054627119            0   0.51462992    1.4188578    1.9881149  -0.56938311 
16510000   0.98274834 -3.7957566e-05   0.53050014  0.026609544            0    0.5038906    1.4667519     1.997252  -0.62637489 
16515000   0.97548977 1.7252429e-05   0.54175345  0.031229008            0   0.51052444    1.4559185    1.9976719    3.1901598 
16520000    1.0078793 -4.8616857e-06   0.49749875  0.028425217            0   0.46907353    1.5042599    2.0017587    1.6657189 
16525000   0.98767405 1.3686619e-05   0.52757091  0.018209697            0   0.50936122    1.4741035    2.0016744    2.9476935 
16530000   0.96485756 3.9284648e-06   0.56325679  0.028010145            0   0.53524664    1.4400499    2.0033067    2.2748422 
16535000   0.96339671 -3.5923145e-05   0.53250092  0.014469484            0   0.51803144    1.4378696    1.9703705  -0.51263729 
16540000   0.98022653 7.7946839e-07   0.51940191  0.031056517            0   0.48834539    1.4629881      1.98239    2.0362669 
16545000   0.97737223 3.1271401e-05   0.52769329  0.025452281            0   0.50224101    1.4587281    1.9864213    4.1479006 
16550000    1.0202678 3.2859694e-05   0.44769417  0.018845289            0   0.42884888    1.5227497    1.9704439    4.2417059 
16555000   0.94862067 1.1893456e-05   0.55225333   0.01925534            0   0.53299799    1.4158164    1.9680697    2.7901453 
16560000   0.89117535 -1.2880008e-05    0.6248709  0.017990411            0   0.60688048    1.3300792    1.9549501    1.0646839 
16565000   0.94117096 -1.3303043e-05   0.53127934 0.0052458124            0   0.52603352    1.4046977     1.935977    1.0164707 
16570000   0.91733002 -8.6969028e-06   0.55806995 0.0069945422            0   0.55107541    1.3691151     1.927185    1.3260551 
16575000   0.96876851 -3.6901597e-05   0.47996787   0.01615539            0   0.46381248     1.445887    1.9258549  -0.62478354 
16580000   0.96366153 -1.0628002e-06    0.4591159  0.018302874            0   0.44081302    1.4382648    1.8973807      1.82392 
16585000   0.96776739 6.168617e-05   0.44997921 0.0074810082            0    0.4424982    1.4443928     1.894372    6.1581201 
16590000   0.92750162 -3.2979781e-05   0.50998928  0.005712848            0   0.50427644    1.3842962    1.8942855  -0.38527703 
16595000   0.91567043 -2.7565235e-05   0.52551621  0.014192433            0   0.51132378    1.3666381    1.8921543 -0.013154752 
16600000   0.87689661 -3.797855e-05    0.5801298   0.02608343            0   0.55404637    1.3087682     1.888898  -0.73617936 
16605000   0.92084931 -2.6598434e-05   0.52781652   0.01639221            0   0.51142431    1.3743676    1.9021841  0.063700351 
16610000   0.95266301 -5.1247633e-05   0.49536873 0.0051092706            0   0.49025946    1.4218495    1.9172183   -1.6250181 
16615000   0.96008185 -2.6164508e-05   0.48834513  0.010135685            0   0.47820945    1.4329222    1.9212673   0.11277649 
16620000    0.9593815 1.5491102e-05   0.48851634  0.029371789            0   0.45914455    1.4318769    1.9203932    2.9911382 
16625000   0.97723989 5.4378878e-05   0.44816346  0.021132106            0   0.42703135    1.4585305     1.906694    5.6653621 
16630000   0.93397903 -8.4572223e-06   0.51937873  0.020972926            0    0.4984058    1.3939637    1.9133424    1.3287792 
16635000   0.97091808 -5.8734465e-05   0.47224736  0.019437935            0   0.45280942    1.4490952    1.9213426   -2.1383837 
16640000   0.96695098 -2.4702733e-05   0.49467336 0.0058570265            0   0.48881633    1.4431743    1.9378477   0.23039481 
16645000     0.975135 -1.6133313e-05   0.49422429   0.01860555            0   0.47561874     1.455389    1.9496133   0.83447868 
16650000   0.95539993 1.1552316e-05   0.50616463  0.016112429            0   0.49005221    1.4259344     1.932099    2.7305951 
16655000   0.95750377 7.9380119e-05   0.51429954  0.004452948            0   0.50984659    1.4290744    1.9433739    7.4301278 
16660000   0.96800715 3.3225634e-05   0.49955689 0.0022459848            0    0.4973109    1.4447507    1.9443076    4.2408634 
16665000   0.91771659 2.5855443e-06    0.5696299  0.011609706            0    0.5580202     1.369692    1.9393219    2.1180347 
16670000   0.98190061 1.2495114e-05   0.46740201  0.024511037            0   0.44289097    1.4654867    1.9328887     2.796551 
16675000   0.92126995 -3.9359523e-05   0.55674837  0.028856399            0   0.52789197    1.3749954    1.9317438  -0.78878647 
16680000   0.94733362 3.7146121e-06   0.52833078  0.022585281            0    0.5057455    1.4138954    1.9422262    2.1989802 
16685000   0.98086011 1.3770234e-05    0.4855021  0.013592159            0   0.47190994    1.4639337    1.9494358    2.9012344 
16690000   0.95245809 -7.0509576e-05   0.52625081 0.0093260708            0   0.51692474    1.4215437    1.9477945   -2.9258273 
16695000   0.93974423 -1.3897431e-05   0.55715796  0.018803353            0   0.53835461    1.4025683    1.9597262   0.99913577 
16700000   0.94778132 -3.1977186e-05   0.53858163  0.027402962            0   0.51117867    1.4145636    1.9531453  -0.25711783 
16705000   0.95721121 -6.5537398e-06   0.52823347  0.045541442            0   0.48269202    1.4286377    1.9568712    1.5038767 
16710000   0.98382623 -3.8514632e-05   0.48632975  0.015771152            0    0.4705586    1.4683606    1.9546904  -0.70744101 
16715000   0.95868444 -4.0325781e-05   0.52702745  0.021747817            0   0.50527963    1.4308365     1.957864  -0.82945399 
16720000   0.98287042 -1.9471658e-05   0.47777059  0.020955389            0    0.4568152    1.4669341    1.9447047   0.59882371 
16725000   0.98662149 -1.1628667e-05   0.50422775  0.021329963            0   0.48289778    1.4725326    1.9767603    1.1729869 
16730000   0.90969437 -1.1007443e-05   0.61270288  0.023227356            0   0.58947553    1.3577189    1.9704217    1.2095873 
16735000   0.98890178 2.8438674e-05   0.48713412  0.012293938            0   0.47484018    1.4759359      1.96307    3.9287512 
16740000   0.97561754 6.0857088e-05   0.50464275  0.015952178            0   0.48869057    1.4561092    1.9607519    6.1671939 
16745000   0.97580867 1.0188123e-05   0.48941805  0.026300396            0   0.46311766    1.4563944    1.9458125    2.6500156 
16750000   0.91660276 -8.0262826e-06   0.56182301  0.015398054            0   0.54642496    1.3680296    1.9298526     1.375076 
16755000    0.9484042 9.7508607e-06   0.49910398  0.018048821            0   0.48105516    1.4154933    1.9145973    2.5885767 
16760000   0.99044479 -3.217669e-06   0.43589204  0.027509026            0   0.40838301    1.4782389    1.9141309    1.6917256 
16765000   0.86692975 6.1934654e-06   0.61272285  0.033748431            0   0.57897442    1.2938927    1.9066155    2.3347078 
16770000   0.93464752 3.7700491e-05    0.5274896  0.012933613            0   0.51455599    1.3949614     1.922451    4.5283089 
16775000   0.95380212 6.9832153e-05   0.50990841  0.042656744            0   0.46725167    1.4235497    1.9334581    6.7602565 
16780000   0.95381967 3.881939e-06   0.51255844  0.015332923            0   0.49722552    1.4235759    1.9361343    2.2044539 
16785000   0.95375301 6.6401842e-06   0.52142131   0.02146784            0   0.49995347    1.4234764    1.9448977    2.4038672 
16790000   0.93983331 1.4765964e-05   0.53942607  0.020187325            0   0.51923875    1.4027012    1.9421273    2.9627507 
16795000   0.97915899 6.9984772e-05   0.48569567  0.015336081            0   0.47035959    1.4613948    1.9470905    6.7844379 
16800000   0.92509787 6.5681473e-05   0.59466423  0.015955938            0   0.57870829    1.3807086    1.9753728    6.5152762 
16805000    1.0237942 1.0184504e-05   0.45269329 0.0068884402            0   0.44580485    1.5280128    1.9807061     2.684659 
16810000   0.95379044 3.9676649e-05   0.56523216 0.0089877715            0   0.55624439    1.4235322    1.9887644    4.7312144 
16815000    1.0174222 2.2618764e-05   0.47091221  0.022023147            0   0.44888906    1.5185026    1.9894148    3.5528238 
16820000    1.0340408 -3.5811747e-05    0.4614961  0.013235041            0   0.44826106     1.543306    2.0048021  -0.47050588 
16825000   0.95059916 -3.8634168e-07   0.58959233 0.0096369944            0   0.57995534    1.4187692    2.0083616    1.9816576 
16830000   0.98474258 9.314571e-06   0.50656956  0.013393199            0   0.49317636    1.4697283    1.9762979     2.620121 
16835000    0.9768292 1.6246951e-05   0.51950595   0.01363263            0   0.50587332    1.4579176    1.9774235    3.1004128 
16840000   0.95132123 -2.444063e-05   0.55034523  0.020701869            0   0.52964337    1.4198469    1.9701922   0.28085584 
16845000    1.0086684 -3.2366301e-05   0.45746201  0.011552969            0   0.44590904    1.5054376    1.9628997  -0.27425905 
16850000   0.95602103 1.4328907e-05    0.5173158   0.02184323            0   0.49547258    1.4268614    1.9441772    2.9345912 
16855000   0.90181448 8.826397e-05   0.61197623  0.019458795            0   0.59251744    1.3459581    1.9579343      8.05874 
16860000   0.93350001 3.4524984e-05   0.57676698  0.016094011            0   0.56067297    1.3932488    1.9700157    4.3563826 
16865000   0.91194116 1.2871299e-06   0.59514214  0.036486636            0    0.5586555    1.3610722    1.9562143    2.0451807 
16870000    0.9515893 -2.8865313e-05    0.5477263   0.02621629            0   0.52151001     1.420247    1.9679733 -0.027197125 
16875000   0.94164613 -2.4655344e-06   0.55997419  0.039536679            0   0.52043751    1.4054068     1.965381    1.7949633 
16880000   0.96624223 -3.162912e-05   0.52040245  0.019139287            0   0.50126317    1.4421165     1.962519  -0.22368581 
16885000   0.96479118 -6.2854639e-05   0.52437514  0.009624449            0   0.51475069    1.4399508     1.964326   -2.3801867 
16890000   0.96506353 2.0106749e-06   0.52193014 0.0053404635            0   0.51658968    1.4403573    1.9622875    2.1012653 
16895000   0.97258068 5.6890368e-05   0.50619094 0.0097900196            0   0.49640092    1.4515767    1.9577676    5.8900298 
16900000   0.98591727 3.9289411e-05   0.50945555  0.024308592            0   0.48514696    1.4714815    1.9809371    4.6966212 
16905000   0.92903371 -9.448804e-06   0.56315833 0.0086387952            0   0.55451953    1.3865828    1.9497411    1.2966398 
16910000   0.94434098 3.5094108e-05   0.50828056  0.024006843            0   0.48427371    1.4094289    1.9177095    4.3434142 
16915000   0.92220001 4.4085558e-05   0.54166308  0.023182668            0   0.51848041    1.3763835    1.9180466    4.9652404 
16920000   0.90310059 -8.5830765e-05   0.58095943  0.025650415            0   0.55530902    1.3478776    1.9288371   -4.0037854 
16925000   0.89891897 -7.8450769e-05   0.58898922  0.026787027            0   0.56220219    1.3416366    1.9306258   -3.4918913 
16930000   0.99494813 4.4374568e-05   0.44545012   0.03208388            0   0.41336624    1.4849601    1.9304102    4.9975804 
16935000   0.92431536 2.6427502e-05   0.53659619  0.020625375            0   0.51597081    1.3795407    1.9161369    3.7428058 
16940000   0.91869759 -1.2855699e-06   0.54691259  0.011677219            0   0.53523537    1.3711562    1.9180687    1.8292102 
16945000   0.90783214 2.4566851e-05   0.54972121  0.025590207            0     0.524131    1.3549395    1.9046607    3.6027214 
16950000   0.95723323 7.6029549e-05   0.47566968  0.028833202            0   0.44683648    1.4286706    1.9043403    7.1595027 
16955000   0.93173913 1.3267416e-05   0.52075362  0.035788898            0   0.48496472    1.3906206    1.9113743    2.8284181 
16960000   0.87572228 -4.2777211e-05   0.59252695  0.036733118            0   0.55579384    1.3070155    1.8995424   -1.0572184 
16965000   0.95961593 -6.3962756e-06   0.45735557  0.023546373            0    0.4338092    1.4322268    1.8895824    1.4474718 
16970000   0.94445946 3.0995374e-05    0.4846071  0.017048223            0   0.46755888    1.4096057    1.8942128    4.0366131 
16975000    0.9482169 4.4844925e-05   0.47193727  0.017038253            0   0.45489902    1.4152137     1.887151    4.9868322 
16980000   0.97188958 -7.8589388e-06    0.4398105 0.0092915123            0   0.43051898    1.4505452    1.8903557    1.3471459 
16985000   0.90041336 3.6832501e-05   0.53647054  0.012994676            0   0.52347586    1.3438669    1.8803375       4.4262 
16990000   0.95214706 1.1712014e-05    0.4749672  0.030216798            0    0.4447504    1.4210795    1.8960467    2.7055811 
16995000   0.92334936 -2.2794993e-05    0.5285017   0.02756921            0   0.50093249    1.3780989    1.9066006   0.33101069 
17000000   0.94135395 5.3337235e-05     0.480691  0.028035364            0   0.45265564    1.4049708    1.8856618    5.5723315 
17005000   0.93032256 -3.4469367e-05   0.51130853  0.023997971            0   0.48731056    1.3885064     1.899815  -0.48270767 
17010000   0.97599269 -2.7974467e-05   0.45135247 0.0042291034            0   0.44712336    1.4566691    1.9080216 -0.025573583 
17015000   0.94228718 3.7616446e-05   0.51989985 0.0045093483            0    0.5153905    1.4063636    1.9262635    4.5263122 
17020000   0.94007898 5.6959078e-05   0.51435691  0.022472989            0   0.49188392    1.4030679    1.9174248    5.8544363 
17025000   0.99899546 3.4688539e-05   0.45568809 0.0076536318            0   0.44803445    1.4910007    1.9466888    4.3443607 
17030000   0.96953084 -1.8324392e-05   0.49029807 0.0058163251            0   0.48448174    1.4470248    1.9373228   0.67074085 
17035000   0.94137041 -1.8124233e-05   0.54557218  0.009465982            0    0.5361062    1.4049953    1.9505675   0.69782051 
17040000   0.97859498 -2.2178565e-05   0.45749213  0.020147499            0   0.43734463     1.460553    1.9180451   0.38506271 
17045000   0.92797715 -4.7338823e-05   0.52573204   0.03141807            0   0.49431397    1.3850059    1.9107379   -1.3613215 
17050000   0.94348011 -1.6142709e-05   0.50255099  0.039490156            0   0.46306084    1.4081441    1.9106951   0.79491099 
17055000   0.95813938 2.3436663e-05   0.49276108  0.015663035            0   0.47709804     1.430023    1.9227841    3.5427262 
17060000   0.96679149 6.8502731e-06   0.47590378  0.023917383            0    0.4519864    1.4429363    1.9188401     2.392331 
17065000   0.94348144 -5.869322e-05   0.52051446  0.019277996            0   0.50123647     1.408146    1.9286605   -2.1282149 
17070000   0.94786342 -2.4784029e-05   0.50371023  0.010815951            0   0.49289428    1.4146862    1.9183964   0.20532429 
17075000   0.97653204 -1.8338795e-05   0.45904093  0.004125559            0   0.45491538    1.4574741     1.916515   0.64893752 
17080000   0.94621956 -4.6656618e-05   0.50116139  0.018357681            0   0.48280371    1.4122327    1.9133941   -1.3115114 
17085000   0.91190543 -2.0084706e-05   0.53958691  0.016017128            0   0.52356978    1.3610189    1.9006058   0.51235088 
17090000   0.94020753 1.7916553e-06   0.50405473  0.010865781            0   0.49318894    1.4032597    1.9073145    2.0311537 
17095000   0.95567831 -3.9980848e-05   0.47052372 0.0074572804            0   0.46306644    1.4263499    1.8968736  -0.86660262 
17100000   0.93950501 -3.4995422e-05   0.50750198  0.021950492            0   0.48555148    1.4022112    1.9097132  -0.50917034 
17105000   0.97566517 -4.0981138e-05    0.4335697 0.0061428247            0   0.42742688    1.4561803      1.88975   -0.9428663 
17110000    0.9800997 -3.4707206e-05   0.43318355  0.013022109            0   0.42016144    1.4627988    1.8959824  -0.50297971 
17115000    0.9765415 -7.9370642e-05   0.44522063  0.010384478            0   0.43483616    1.4574882    1.9027088   -3.5833899 
17120000   0.99142746 -5.824326e-05    0.4339263   0.02631055            0   0.40761575    1.4797055    1.9136318   -2.1121424 
17125000   0.98543296  1.36667e-05   0.45757281   0.02163347            0   0.43593934    1.4707587    1.9283315    2.8729738 
17130000   0.93285413 4.8688186e-05   0.53392621  0.019404182            0   0.51452203    1.3922848     1.926211    5.2915384 
17135000   0.95413595 4.7236059e-06   0.48607228  0.014839061            0   0.47123322    1.4240479    1.9101202    2.2366158 
17140000   0.95436282 -2.514407e-05   0.49955914  0.027018615            0   0.47254053    1.4243865    1.9239456   0.18598755 
17145000   0.96078728 -1.8430557e-06   0.51488803   0.01438982            0   0.50049821     1.433975     1.948863     1.821471 
17150000   0.99096811 1.939333e-05   0.47378347  0.020314508            0   0.45346896    1.4790199    1.9528034    3.2932704 
17155000   0.97940703 -3.0540186e-05   0.49312085  0.029355627            0   0.46376523     1.461765    1.9548858  -0.15605182 
17160000   0.94415319 -1.076371e-06   0.52878872  0.022420935            0   0.50636778    1.4091486    1.9379374    1.8635386 
17165000   0.98413022 6.902048e-05   0.45034476  0.026037925            0   0.42430683    1.4688144    1.9191591    6.6898547 
17170000    1.0188163  5.76228e-05   0.42057718  0.018718546            0   0.40185863    1.5205833    1.9411605    5.9240485 
17175000   0.93839261 3.9304231e-06   0.52514558  0.022153181            0    0.5029924     1.400551    1.9256966    2.1973674 
17180000   0.96774844 -4.0215653e-05   0.47513187  0.012321361            0   0.46281051    1.4443645    1.9194964  -0.86020951 
17185000     0.957275 1.9158746e-05    0.4922276  0.024200593            0     0.468027    1.4287329    1.9209605     3.245213 
17190000    1.0113727 3.245776e-05   0.42815713  0.033812886            0   0.39434424    1.5094738    1.9376309    4.1811113 
17195000   0.92895393 -2.9584313e-05   0.56241001   0.03718986            0   0.52522015    1.3864637    1.9488738 -0.095993984 
17200000   0.97497595 -4.6434621e-05   0.49127809  0.027538266            0   0.46373982    1.4551516    1.9464297   -1.2631313 
17205000   0.94537286 -3.6713256e-05   0.53236157  0.027308742            0   0.50505282     1.410969    1.9433306  -0.59428968 
17210000   0.95747197 -1.747459e-05   0.50419443  0.030682654            0   0.47351177    1.4290269    1.9332214    0.7253777 
17215000   0.97275577 1.4393852e-05   0.47765268  0.021439218            0   0.45621346     1.451838    1.9294907    2.9243937 
17220000    0.9993019 4.7446613e-05   0.44489362  0.025120843            0   0.41977278    1.4914581    1.9363517    5.2158616 
17225000   0.93214927 -1.408376e-05   0.53914576  0.026043533            0   0.51310223    1.3912328    1.9303785   0.95690904 
17230000   0.94609639 -4.7399252e-06   0.51938095  0.025519135            0   0.49386181    1.4120489    1.9314298    1.6038062 
17235000   0.93662955 4.683524e-05   0.53433929  0.022613762            0   0.51172553    1.3979196    1.9322589    5.1695106 
17240000   0.97284678 2.6430629e-05   0.47399783  0.050014071            0   0.42398376    1.4519738    1.9259716    3.7528567 
17245000   0.98579877 -5.4248566e-06   0.46634403  0.024814574            0   0.44152946    1.4713047    1.9376487    1.5626826 
17250000   0.97149538 -8.4508297e-06    0.4841634  0.021670747            0   0.46249265    1.4499569    1.9341203    1.3499989 
17255000   0.91375474 -3.6257593e-05   0.55856019  0.038029909            0   0.52053028     1.363779    1.9223391  -0.58378569 
17260000   0.92342312 -2.5336488e-05   0.54971944  0.028753317            0   0.52096612     1.378209    1.9279284   0.17667037 
17265000   0.97075769 -1.4132116e-05   0.48259271  0.015811035            0   0.46678167    1.4488558    1.9314486   0.95463667 
17270000   0.96061872 1.2391227e-05   0.50854929  0.016661822            0   0.49188747    1.4337234    1.9422727    2.7987543 
17275000    1.0065676 1.3339384e-05   0.45275858  0.027731306            0   0.42502727    1.5023021    1.9550607    2.8770789 
17280000   0.96300781 -2.1546046e-05   0.52309327  0.030741307            0   0.49235196    1.4372892    1.9603824   0.47111975 
17285000   0.97497103 -2.8915457e-05   0.50464749   0.02043243            0   0.48421506    1.4551443    1.9597918 -0.038844652 
17290000   0.99014538 2.2386099e-05   0.47870197   0.02663506            0   0.45206691     1.477792     1.956494    3.5038211 
17295000   0.95837498 9.4241782e-06   0.52632299  0.050635202            0   0.47568779    1.4303747    1.9566976    2.6080968 
17300000   0.94479103 -1.5516231e-05   0.54840634  0.017605615            0   0.53080072    1.4101006    1.9585069   0.88602505 
17305000   0.98140729 -1.3979673e-05   0.50702577  0.011687153            0   0.49533861    1.4647504    1.9717762    1.0055011 
17310000   0.94904316 -1.833297e-05   0.54380427  0.029113552            0   0.51469071    1.4164469    1.9602512   0.69307628 
17315000   0.98881542 -5.1559255e-06   0.49344236  0.041690367            0   0.45175199     1.475807    1.9692494    1.6128718 
17320000   0.97630971 -1.4984259e-05   0.49511633  0.028882846            0   0.46623349    1.4571422    1.9522586   0.91654662 
17325000   0.99994846 -5.5916625e-06   0.47092705  0.022862925            0   0.44806413    1.4924231    1.9633501    1.5768544 
17330000   0.98874283 2.8724418e-06   0.49580451  0.016098782            0   0.47970573    1.4756987    1.9715032    2.1700464 
17335000     1.018773 -2.4834913e-05   0.45985468  0.012887034            0   0.44696765    1.5205187    1.9803734   0.26378426 
17340000   0.99029631 -6.4371415e-06   0.50966994  0.013431867            0   0.49623808    1.4780172    1.9876872     1.542752 
17345000   0.97916373 -1.2027199e-06   0.52599909  0.015477736            0   0.51052136    1.4614019     1.987401     1.904269 
17350000   0.98665974 -5.1580172e-05   0.51797616 0.0076904176            0   0.51028574    1.4725897    1.9905658   -1.5746557 
17355000    1.0307306 -2.2156121e-05   0.44926236  0.010006919            0   0.43925544    1.5383654    1.9876277   0.45619663 
17360000    1.0011479 4.2089739e-05    0.4937708  0.011060837            0   0.48270996    1.4942132     1.987984    4.8972267 
17365000   0.97186663 1.6546436e-05   0.52759459  0.022725768            0   0.50486882    1.4505109    1.9781055    3.1217952 
17370000    1.0296674 8.9610487e-06   0.42684516  0.010257481            0   0.41658768    1.5367786    1.9636237    2.5830114 
17375000    1.0191361 -4.8604539e-05   0.45342263  0.019908192            0   0.43351444    1.5210606    1.9744832   -1.3850625 
17380000    1.0012929 -2.1133779e-05   0.47516925  0.012611705            0   0.46255754    1.4944297     1.969599   0.50883214 
17385000   0.94066622 1.3275884e-05   0.55218549  0.011283431            0   0.54090206    1.4039443    1.9561298    2.8737589 
17390000   0.94213879 2.9039316e-06    0.5328026  0.012437279            0   0.52036532    1.4061421    1.9389448    2.1396645 
17395000   0.98007152 -2.9435402e-05   0.47215821   0.03874963            0   0.43340857    1.4627567    1.9349149 -0.099660014 
17400000   0.94741592 -6.2506198e-05   0.52893262  0.027177442            0   0.50175518    1.4140183    1.9429509   -2.3774775 
17405000     1.001347 -2.2271367e-05   0.44725302  0.019798335            0   0.42745469    1.4945104    1.9417634   0.40236651 
17410000    1.0128687 3.169119e-05   0.42730109 0.0095642283            0   0.41773686    1.5117065    1.9390076    4.1295027 
17415000    0.9734617 3.2482572e-05   0.49267067  0.007381425            0   0.48528925    1.4528916    1.9455623    4.1907576 
17420000   0.97924716 -5.0919996e-05    0.4668012  0.012462943            0   0.45433825    1.4615264    1.9283276   -1.5912625 
17425000   0.91475424 -8.6918946e-05   0.56719679   0.03185631            0   0.53534048    1.3652707    1.9324675   -4.0753701 
17430000   0.94218124 -9.7921042e-06   0.52025254   0.04347605            0   0.47677649    1.4062055     1.926458    1.2496278 
17435000   0.95443991 -3.1126883e-05   0.50268733  0.019492791            0   0.48319454    1.4245016    1.9271889  -0.22430126 
17440000   0.97179067 -2.8140416e-05   0.46216711  0.012917614            0    0.4492495    1.4503976    1.9125647 -0.032500862 
17445000   0.90398981 8.7808236e-06    0.5414332    0.0200695            0    0.5213637    1.3492048     1.890638    2.4975685 
17450000   0.93989997 -1.7790749e-05   0.47534398  0.014964328            0   0.46037965    1.4028007    1.8781447   0.64844814 
17455000   0.95122396 -1.2353745e-05   0.46596682 0.0075454988            0   0.45842132    1.4197018    1.8856686    1.0317777 
17460000   0.96484819 -3.1109763e-05   0.45796535 0.0087297722            0   0.44923558    1.4400359    1.8980013  -0.25230551 
17465000   0.94812203 -7.8349207e-05   0.49388425  0.023731359            0   0.47015289    1.4150721    1.9089564   -3.5065408 
17470000   0.95035741 -3.6810845e-05   0.49377883 0.0079672044            0   0.48581162    1.4184084    1.9121873  -0.63217838 
17475000    1.0004257 2.5041202e-05   0.44959795 0.0088200775            0   0.44077788    1.4931353    1.9427333    3.6735812 
17480000    0.9821252 1.6382498e-05   0.48369544  0.011968812            0   0.47172663    1.4658219    1.9495173    3.0818756 
17485000   0.98711114 1.6712879e-05   0.48260284   0.01703212            0   0.46557072    1.4732634    1.9558662    3.1110604 
17490000   0.97597126 3.7780791e-05   0.50917116  0.011924382            0   0.49724678    1.4566371    1.9658083    4.5772166 
17495000    1.0181592 2.4331428e-05   0.45024325  0.021080365            0   0.42916288    1.5196025    1.9698458    3.6516341 
17500000    0.9839832 9.0739422e-06   0.47315805  0.042261998            0   0.43089605    1.4685949     1.941753    2.5689439 
17505000   0.96580259 2.3347299e-05   0.50552865  0.034097769            0   0.47143088    1.4414604     1.946989    3.5607543 
17510000   0.94918205 4.9837269e-05   0.52194587   0.02370732            0   0.49823855    1.4166542    1.9386001    5.3833521 
17515000    1.0117707  3.21849e-05   0.44985256  0.026025437            0   0.42382712    1.5100677    1.9599203    4.1845405 
17520000   0.90619693 -1.9487901e-05   0.56002471  0.018602629            0   0.54142208    1.3524989    1.9125236    0.5655199 
17525000   0.91960178 8.8735533e-06   0.53120899  0.033781339            0   0.49742765    1.3725057    1.9037146    2.5170546 
17530000   0.93730782 7.3793745e-05   0.51409715  0.026813496            0   0.48728365    1.3989319    1.9130291    7.0136527 
17535000   0.93629447 3.6494186e-05   0.50915226   0.02690529            0   0.48224697    1.3974195    1.9065718    4.4290499 
17540000   0.90054188 2.3645771e-05    0.5380961  0.014814466            0   0.52328163    1.3440588    1.8821549    3.5165505 
17545000   0.92251621 1.9971644e-05   0.51327415  0.028805695            0   0.48446845    1.3768554    1.8901296    3.2705696 
17550000   0.90244595 -4.0253539e-05   0.52693774  0.052916869            0   0.47402087    1.3469006    1.8738383  -0.90848628 
17555000   0.90484045 -6.0944217e-06    0.5168602   0.03678073            0   0.48007947    1.3504744    1.8673346    1.4460881 
17560000   0.88833647 3.9487537e-06    0.5344077  0.042112353            0   0.49229535    1.3258422    1.8602499    2.1331877 
17565000   0.87494995 -6.0085692e-05   0.53693276   0.04692907            0   0.49000369    1.3058628    1.8427956   -2.3103275 
17570000   0.90067735 -8.6239478e-06   0.50261985  0.023269046            0   0.47935081    1.3442609    1.8468808    1.2507935 
17575000   0.91628878 -2.3898377e-06   0.47715438  0.010498164            0   0.46665622     1.367561    1.8447154    1.6795298 
17580000   0.83498079 -5.0958282e-06     0.578785  0.042765604            0    0.5360194    1.2462088    1.8249938    1.4727702 
17585000   0.90278939 1.7602655e-05   0.47790637  0.035627554            0   0.44227881    1.3474132    1.8253195     3.042015 
17590000   0.90877881  1.97393e-05   0.46780629  0.011112274            0   0.45669402    1.3563524    1.8241587    3.1885391 
17595000   0.93843451 -5.6042775e-05   0.43734226    0.0286923            0   0.40864996    1.4006135    1.8379558   -2.0357208 
17600000   0.87031554 -4.9015284e-05   0.53429399   0.04528296            0   0.48901103     1.298946    1.8332399   -1.5546965 
17605000   0.93559938 -1.639495e-05   0.42342527  0.026566476            0    0.3968588    1.3963821    1.8198074    0.6865884 
17610000   0.92046239 1.7034261e-05    0.4504221  0.028073263            0   0.42234884    1.3737901    1.8242122    3.0016204 
17615000   0.91977496 2.8404372e-05   0.47624214 0.0093577016            0   0.46688444    1.3727641    1.8490063    3.8123164 
17620000   0.92242211 1.5658523e-05   0.47081845  0.014652316            0   0.45616614     1.376715    1.8475335    2.9298506 
17625000   0.93688431 1.1076406e-05   0.45871001  0.025146663            0   0.43356334    1.3982998    1.8570098     2.622611 
17630000   0.92042269 -9.3012054e-06   0.48548703  0.033309331            0   0.45217769    1.3737309    1.8592179    1.2163186 
17635000   0.93622063 -1.3154172e-05   0.46392885  0.020885686            0   0.44304316    1.3973093    1.8612381   0.95202178 
17640000   0.92732227 4.8125283e-06   0.46718037  0.011616569            0    0.4555638    1.3840285    1.8512089    2.1838508 
17645000   0.89840886 -1.3185211e-05   0.49932685  0.020878038            0   0.47844881    1.3408752    1.8402021   0.92884032 
17650000   0.90440521 -8.9048512e-06   0.49406252  0.039429706            0   0.45463281    1.3498248    1.8438873     1.228384 
17655000   0.89600519 2.7373776e-05   0.49571597  0.011311938            0   0.48440403    1.3372877    1.8330037    3.7250791 
17660000   0.91297503 4.2759078e-05   0.46070552 0.0083814245            0   0.45232409    1.3626152    1.8233207    4.7788282 
17665000    0.9314965 1.7265039e-05   0.44419274 0.0062377252            0   0.43795501    1.3902585    1.8344513    3.0278108 
17670000   0.91664645 -2.0318797e-05   0.46549665 0.0069966528            0       0.4585    1.3680948    1.8335915   0.42915619 
17675000   0.93960975 -1.899694e-05    0.4131323  0.019780731            0   0.39335157    1.4023675    1.8154998   0.50243137 
17680000   0.91393368 3.9201992e-05   0.45381047  0.032439672            0    0.4213708     1.364046    1.8178565    4.5274982 
17685000     0.908584 -2.641011e-05   0.46148577  0.008286532            0   0.45319924    1.3560616    1.8175474 -0.0079194004 
17690000   0.91896314 -3.1201932e-05   0.45187212 0.0058004305            0   0.44607169    1.3715525    1.8234246  -0.33325291 
17695000   0.95149059 1.6218566e-05   0.41632809  0.024397045            0   0.39193104    1.4200997    1.8364278    2.9574551 
17700000   0.92341146 3.0953146e-05   0.46115322   0.02160643            0   0.43954679    1.3781916    1.8393448    3.9788263 
17705000   0.92691031 4.3486285e-05   0.45446596  0.014038987            0   0.44042697    1.3834136    1.8378796    4.8436516 
17710000   0.92919292 3.1344172e-05   0.46185867  0.010730809            0   0.45112786    1.3868204    1.8486791    4.0151883 
17715000   0.93887005 4.3641293e-06   0.45076038  0.011046315            0   0.43971406    1.4012635    1.8520239    2.1536725 
17720000   0.92170362 -2.4993325e-05   0.48841234  0.024796176            0   0.46361617    1.3756427     1.864055   0.13651638 
17725000   0.94345657 -2.5179477e-05   0.47499034  0.027781846            0    0.4472085    1.4081089    1.8830993    0.1426938 
17730000   0.91680816 -1.1995824e-05    0.5136524  0.018883941            0   0.49476846    1.3683362    1.8819886    1.0528372 
17735000   0.94188967 3.4704717e-05   0.49647418  0.019205675            0    0.4772685    1.4057703    1.9022445    4.3010345 
17740000   0.93365603 4.0801573e-06   0.49916861  0.027910954            0   0.47125766    1.3934816    1.8926502    2.1746707 
17745000   0.97092735 -3.2676874e-05   0.45660972  0.022366566            0   0.43424315    1.4491091    1.9057188  -0.35290678 
17750000   0.97986773 -3.0069426e-05   0.45963339    0.0144276            0   0.44520579    1.4624526     1.922086  -0.15631279 
17755000   0.95171444 -1.36356e-05   0.50415514  0.018345862            0   0.48580928    1.4204338    1.9245889   0.98209624 
17760000   0.95415647 9.3341795e-06   0.47974795 0.0071141454            0   0.47263381    1.4240785    1.9038265     2.549005 
17765000    0.9305683 3.9691505e-05   0.51997969  0.025811731            0   0.49416796    1.3888732    1.9088529    4.6523297 
17770000   0.93917484 -2.5520598e-05   0.51353461  0.019098757            0   0.49443585    1.4017184    1.9152531   0.15126935 
17775000   0.98345514 -4.1824325e-05   0.45365861  0.015073817            0   0.43858479    1.4678068    1.9214654  -0.96943192 
17780000   0.97485224 2.5945931e-05   0.47187429  0.015462806            0   0.45641148     1.454967    1.9268413     3.720224 
17785000   0.92223923 6.4170937e-06   0.54409053  0.023391954            0   0.52069857    1.3764421    1.9205326    2.3640821 
17790000   0.94947232 2.7045184e-05   0.47061547  0.010660833            0   0.45995464    1.4170874    1.8877029     3.757066 
17795000   0.94531741 -4.9543548e-05   0.47834181  0.012670236            0   0.46567158    1.4108862     1.889228    -1.535222 
17800000   0.92309218 -6.4566693e-05   0.51842473  0.012430194            0   0.50599453    1.3777151    1.8961398     -2.56671 
17805000   0.95431418 -2.199053e-05   0.47549138  0.010109205            0   0.46538218    1.4243139    1.8998053   0.37981988 
17810000   0.93025053 -1.107803e-05   0.50402405 0.0072767604            0   0.49674729    1.3883989     1.892423    1.1267095 
17815000   0.96430205 -1.467597e-05   0.44907771 0.0061559712            0   0.44292174    1.4392208    1.8882985   0.87389549 
17820000   0.96524855 -4.2573828e-06   0.45233705  0.015423259            0   0.43691379    1.4406335    1.8929705    1.5987002 
17825000   0.93353954 5.0889264e-05   0.52580271  0.022708984            0   0.50309372    1.3933078    1.9191105    5.4365764 
17830000   0.96057776 1.2480585e-05   0.49741191 0.0084683071            0    0.4889436    1.4336623    1.9310742    2.7937323 
17835000   0.95393769 -1.0646742e-05   0.51158294 0.0089033388            0    0.5026796     1.423752     1.935335    1.1994322 
17840000     1.003565 3.382069e-05   0.44994807 0.0085095228            0   0.44143855    1.4978208    1.9477689     4.285455 
17845000   0.95849775 1.7562511e-05   0.50083045  0.018655422            0   0.48217503    1.4305579    1.9313883    3.1453091 
17850000   0.97446026 -4.2296973e-05   0.48799504  0.021200531            0   0.46679451    1.4543819     1.942377  -0.98118976 
17855000    0.9769325 -5.3811184e-05   0.49453523 0.0074686231            0   0.48706661    1.4580718     1.952607    -1.766822 
17860000   0.97490586 2.1891083e-05    0.4788117  0.017842847            0   0.46096885     1.455047    1.9338587    3.4469704 
17865000   0.98419116 4.842079e-05   0.46133087   0.01566378            0   0.44566709    1.4689053    1.9302362    5.2770812 
17870000   0.96798197 -2.3779436e-05   0.50535826  0.015777529            0   0.48958073    1.4447131    1.9500714   0.30643672 
17875000   0.94444075 -2.4878202e-05    0.5390726  0.011293377            0   0.52777922    1.4095778    1.9486504   0.22906907 
17880000    0.9552231 -1.1190492e-06   0.52371976  0.017749339            0   0.50597042    1.4256705    1.9493902    1.8720415 
17885000   0.96126006 -3.7542544e-05   0.50342136  0.047947021            0   0.45547434    1.4346806     1.938102  -0.65683863 
17890000   0.93378609 -1.7492263e-05   0.54130415  0.035686716            0   0.50561743    1.3936757    1.9349799   0.72591463 
17895000   0.95451709 3.0989224e-05   0.49799746  0.024345746            0   0.47365171    1.4246168    1.9226142    4.0645894 
17900000   0.94363953 4.3363143e-05   0.51651601  0.018102719            0   0.49841329     1.408382     1.924898    4.9221585 
17905000   0.96293041 3.0297874e-05    0.4958107  0.015722918            0   0.48008778    1.4371736    1.9329843    4.0271734 
17910000    1.0173089 4.0971065e-05   0.39709313 0.0087314413            0   0.38836169    1.5183335    1.9154266    4.7473466 
17915000   0.96741317 2.4588115e-05   0.45986033 0.0082992168            0   0.45156112    1.4438642    1.9037245     3.603255 
17920000   0.95820759 -3.5402288e-05   0.45746453 0.0095616899            0   0.44790284    1.4301248    1.8875894  -0.55941682 
17925000   0.96895781 -9.5324308e-06   0.43576448  0.010487599            0   0.42527688    1.4461695     1.881934    1.2230524 
17930000   0.92998776 4.3261282e-05   0.50628656 0.0056367352            0   0.50064982    1.3880067    1.8942933    4.8845131 
17935000   0.94658447 9.3974128e-07   0.48221518  0.016987396            0   0.46522778    1.4127773    1.8949925    1.9599474 
17940000   0.92016381 -4.6877771e-05   0.52258578  0.032927093            0   0.48965869    1.3733445    1.8959303   -1.3442612 
17945000     0.971629 1.1075819e-05   0.46519268  0.029201154            0   0.43599153    1.4501563     1.915349    2.6809096 
17950000   0.98697838 5.2750985e-05   0.45189229  0.018696377            0   0.43319591    1.4730652    1.9249575    5.5711056 
17955000   0.97495629 1.196359e-05    0.4604503  0.024446968            0   0.43600333    1.4551223    1.9155726    2.7424959 
17960000     0.946478 -3.951349e-05   0.51107193  0.031460659            0   0.47961127    1.4126184    1.9236904  -0.80748207 
17965000   0.93752341 -2.7304298e-05   0.53173921  0.012175868            0   0.51956334    1.3992537    1.9309929  0.043719801 
17970000   0.97911985 -2.8242006e-05   0.47679301 0.0060192319            0   0.47077378    1.4613364    1.9381294 -0.013958072 
17975000   0.96779567 -4.2189619e-05   0.47395155  0.019555326            0   0.45439622     1.444435    1.9183866  -0.99775986 
17980000   0.93734829 -2.3146329e-05   0.52336285  0.031754031            0   0.49160882    1.3989923    1.9223552   0.32248088 
17985000    1.0013854 -3.9118066e-05   0.43163309  0.021421771            0   0.41021132    1.4945678    1.9262009  -0.77763989 
17990000   0.95272202 -9.5222163e-06   0.50406769  0.011653718            0   0.49241397    1.4219376    1.9260053    1.2678297 
17995000   0.91021803 2.7064916e-05   0.55772943 0.0066561409            0   0.55107329    1.3585004    1.9162298    3.7869568 
18000000   0.98584079 -1.8682363e-05    0.4232532  0.013051008            0   0.41020219    1.4713674    1.8946206   0.60329563 
18005000   0.95303174 -3.6481609e-06   0.48042888  0.024155302            0   0.45627358    1.4223999    1.9028287    1.6506679 
18010000   0.93417388 -2.5395338e-05   0.50593379  0.025461293            0   0.48047249    1.3942545    1.9001883   0.14486256 
18015000   0.92387292 -2.1681559e-05   0.52346189  0.027481027            0   0.49598086    1.3788803    1.9023422   0.40371286 
18020000   0.94176636 -2.1089828e-05   0.49901856  0.019955787            0   0.47906277    1.4055863    1.9046048   0.44687594 
18025000   0.92879422 -3.1163311e-05    0.5286526  0.020303648            0   0.50834896    1.3862254     1.914878   -0.2391301 
18030000   0.98194676 -1.3147851e-05   0.45080359   0.02845666            0   0.42234693    1.4655555    1.9163591    1.0075797 
18035000   0.98394234 -2.6135417e-05     0.468359  0.029329842            0   0.43902916    1.4685339    1.9368929   0.13041294 
18040000   0.92962801 2.4440927e-05   0.51462004 0.0091083498            0   0.50551169    1.3874698    1.9020898    3.5914468 
18045000   0.94548265 1.8732666e-05   0.48996753  0.012902597            0   0.47706494    1.4111329    1.9011004    3.1959023 
18050000    1.0094462 9.3540527e-06    0.3818489  0.013648937            0   0.36819996    1.5065985    1.8884474    2.5349995 
18055000   0.93286402 -2.1569847e-05   0.48066875  0.016083904            0   0.46458485    1.3922996    1.8729683   0.38206045 
18060000   0.88575043 -4.8286701e-05   0.55085969 0.0093203765            0   0.54153931    1.3219825    1.8728422   -1.4647346 
18065000   0.92856949 -2.0906024e-05   0.49610658  0.019977447            0   0.47612914      1.38589    1.8819966   0.43697215 
18070000   0.93193779 3.1375902e-05   0.48180941  0.024436586            0   0.45737283    1.3909171    1.8727266    4.0414289 
18075000   0.92545322 1.5475704e-05   0.50468043  0.019820763            0   0.48485967    1.3812389    1.8859194       2.9556 
18080000   0.96455505 -9.3485043e-06   0.45899384  0.016477446            0   0.44251639    1.4395984    1.8985922    1.2524236 
18085000   0.95072998 -6.6947101e-06   0.47533982  0.023813668            0   0.45152615    1.4189645    1.8943043    1.4315659 
18090000   0.90072539 -7.9667746e-06   0.54633173  0.045995072            0   0.50033666    1.3443326    1.8906644    1.3400009 
18095000   0.99748771 -9.6631638e-06   0.40872151  0.017260492            0   0.39146102    1.4887504    1.8974719     1.229554 
18100000   0.94402562 -6.5928048e-06   0.50134873 0.0091497635            0   0.49219896    1.4089582     1.910307    1.4546123 
18105000   0.94828077 -1.0233719e-05   0.51345636  0.014181115            0   0.49927525     1.415309    1.9287654    1.2214108 
18110000    0.9097417 3.8906535e-05   0.58097376   0.02289754            0   0.55807622    1.3577895    1.9387633     4.627983 
18115000   0.95727896 1.0359933e-05   0.49793982  0.025174194            0   0.47276563    1.4287389    1.9266787    2.6427573 
18120000   0.95953178 -2.8962465e-05   0.49822356  0.015872196            0   0.48235136    1.4321012    1.9303247 -0.071560836 
18125000   0.95529469 2.0588649e-06   0.48642825  0.007598473            0   0.47882978    1.4257773    1.9122056    2.0545143 
18130000   0.92765963 4.8578203e-05   0.53965431 0.0045623674            0   0.53509194     1.384532    1.9241863    5.2819117 
18135000   0.96980873 2.1764607e-05   0.47904579  0.018807441            0   0.46023835    1.4474395    1.9264853    3.4308549 
18140000   0.94574126 3.000869e-05   0.51566967  0.020457679            0   0.49521199    1.4115188    1.9271885    4.0013892 
18145000   0.98922026 4.9544331e-05   0.46473028 0.0095278178            0   0.45520246    1.4764112    1.9411415    5.3656457 
18150000    0.9806797 -2.1741759e-05   0.47651656 0.0088833312            0   0.46763323    1.4636645     1.940181    0.4373906 
18155000   0.93134039 -2.6375378e-05   0.56659682  0.015601525            0   0.55099529    1.3900255    1.9566223   0.13355621 
18160000    1.0004222 -4.7945372e-06   0.46145214  0.017409694            0   0.44404245    1.4931301    1.9545822    1.6231838 
18165000    1.0087091 -2.7737522e-05   0.44928033  0.028533959            0   0.42074637    1.5054983    1.9547787  0.037561175 
18170000   0.95723798 -6.5590699e-05   0.52579001  0.024509116            0   0.50128089    1.4286777    1.9544677   -2.5791615 
18175000   0.97411696 -1.5035071e-05   0.50458608  0.025050757            0   0.47953532    1.4538696    1.9584556   0.91923154 
18180000    1.0063164 2.5800098e-05   0.48176282  0.015815789            0   0.46594704    1.5019272      1.98369    3.7669928 
18185000    1.0270972 -1.7157131e-05   0.45879193  0.011266166            0   0.44752577    1.5329426    1.9917345   0.80583363 
18190000    0.9805322 -5.1939926e-05   0.53637988  0.019219182            0    0.5171607    1.4634443    1.9998242   -1.5902635 
18195000    1.0119832 -5.4147002e-05    0.4781532  0.029631627            0   0.44852157    1.5103849    1.9885381   -1.7541026 
18200000   0.98181959 7.4936617e-06   0.52648161  0.015284885            0   0.51119673    1.4653657    1.9918473    2.5098092 
18205000   0.99697763 1.0599351e-05    0.5122376  0.019144084            0   0.49309352    1.4879891    2.0002267    2.7328538 
18210000    1.0195612 -2.0570845e-05   0.49668435  0.017373068            0   0.47931128    1.5216951    2.0183795   0.59652268 
18215000    1.0321135 5.1247591e-05    0.4612186   0.02884613            0   0.43237247    1.5404295    2.0016481    5.5438815 
18220000   0.94706474 1.135755e-05   0.57890473  0.039847348            0   0.53905739    1.4134941    1.9923989    2.7774327 
18225000   0.91364037 -6.374856e-05    0.6436664   0.04808498            0   0.59558142    1.3636082    2.0072747   -2.3990258 
18230000    1.0106157 -4.5427265e-05   0.50275366  0.023768542            0   0.47898511    1.5083439    2.0110975    -1.128835 
18235000   0.99624261 -7.5909503e-05   0.53810259  0.017658677            0   0.52044391    1.4868921    2.0249947   -3.2218702 
18240000   0.98778208 -5.5740803e-05   0.54921577  0.017140196            0   0.53207557    1.4742648    2.0234805   -1.8293237 
18245000    0.9997777 1.3868035e-05   0.53324624  0.019297756            0   0.51394848    1.4921682    2.0254145    2.9839731 
18250000    1.0167047 4.0028168e-05   0.49611745  0.015844643            0   0.48027281    1.5174317    2.0135492    4.7802961 
18255000   0.96624133 1.951502e-05   0.56560976  0.015349913            0   0.55025985    1.4421152    2.0077249    3.3566031 
18260000   0.97261809 -9.6964079e-06   0.56153811  0.039720089            0   0.52181802    1.4516325    2.0131706    1.3429549 
18265000    1.0217063 -2.1425705e-05   0.48404903  0.028022139            0   0.45602689    1.5248967    2.0089457   0.52800102 
18270000    1.0072108 -3.7510646e-06   0.49631388  0.008418205            0   0.48789567    1.5032621     1.999576    1.7403024 
18275000   0.94468699 -1.4055195e-05   0.59355464 0.0095424313            0   0.58401221    1.4099453       2.0035    1.0320049 
18280000     1.039646 1.2199271e-05   0.45414833  0.025673143            0   0.42847519    1.5516717      2.00582    2.8490336 
18285000   0.95150252 2.9759567e-05   0.55490645  0.027204787            0   0.52770167    1.4201175     1.975024    4.0320052 
18290000   0.96674313 -4.1513841e-05    0.5367996  0.020808144            0   0.51599145    1.4428641    1.9796637  -0.88977297 
18295000   0.99289959 -2.8868032e-06   0.50457284    0.0167164            0   0.48785644    1.4819026    1.9864755    1.7869396 
18300000   0.96971493 5.215841e-05   0.55504081  0.020457422            0   0.53458339    1.4472995    2.0023403    5.6075296 
18305000   0.96717017 1.3883089e-05   0.55462269  0.020003726            0   0.53461896    1.4435015    1.9981242    2.9577233 
18310000    1.0216444 1.2374392e-05   0.47098616   0.01258931            0   0.45839685    1.5248043    1.9957904    2.8511084 
18315000    0.9918877 -9.6482779e-06   0.51359227  0.008174968            0    0.5054173    1.4803924    1.9939847    1.3270957 
18320000    1.0406079 4.1493579e-05   0.46300644  0.018976291            0   0.44403015    1.5531073    2.0161137    4.8841499 
18325000   0.99879511 4.2969095e-05   0.53820926  0.032524289            0   0.50568497    1.4907017     2.028911    4.9989348 
18330000    1.0006337 -1.3393253e-05   0.55060001  0.021887728            0   0.52871229    1.4934458    2.0440458    1.1183041 
18335000    1.0442198 -1.5801912e-05   0.48249845  0.018912162            0   0.46358629     1.558498    2.0409965   0.94876829 
18340000    1.0161779 -1.8220313e-05     0.518431  0.018106963            0   0.50032404    1.5166455    2.0350766   0.77568852 
18345000    1.0350115 -1.8003502e-05   0.49729627 0.0095606011            0   0.48773567    1.5447546    2.0420509   0.79764884 
18350000    1.0117427 -5.9654472e-06   0.54207415 0.0061891282            0   0.53588502     1.510026    2.0521001    1.6397684 
18355000    1.0203553 2.8081148e-05    0.5084461  0.014881248            0   0.49356486    1.5228803    2.0313264    3.9722954 
18360000    1.0307715 -1.6423973e-05   0.52390347  0.023866823            0   0.50003665    1.5384265      2.06233   0.92710494 
18365000    1.0229791 -5.1695904e-05    0.5403216  0.019055261            0   0.52126634    1.5267963    2.0671179   -1.5061029 
18370000    1.0500035 -8.4659057e-06   0.48451992  0.022966168            0   0.46155375    1.5671302    2.0516501    1.4664867 
18375000    1.0446829 1.7222919e-05   0.51717395  0.014373838            0   0.50280011    1.5591893    2.0763632    3.2668114 
18380000     1.006129 3.7142296e-05   0.57548499   0.01921112            0   0.55627387    1.5016475    2.0771325     4.644408 
18385000    1.0057201 6.7820042e-06   0.57505418  0.017897952            0   0.55715623    1.5010373    2.0760915    2.5448636 
18390000    1.0148222 -4.4481554e-05   0.56356156  0.037320564            0     0.526241    1.5146221    2.0781837  -0.99638131 
18395000     1.012616 -1.8931666e-05   0.54937507  0.031899696            0   0.51747538    1.5113293    2.0607044   0.75214764 
18400000   0.97244593 3.3343129e-05   0.58221452  0.014374973            0   0.56783955    1.4513756    2.0335901    4.3382672 
18405000    1.0593849 3.5642567e-05   0.46882343  0.037783597            0   0.43103983    1.5811319    2.0499553    4.5135696 
18410000    1.0286482 -2.3032628e-05   0.50869064    0.0250702            0   0.48362044    1.5352575    2.0439481   0.45193285 
18415000   0.97631667 4.8689851e-06   0.59189122  0.038472644            0   0.55341858    1.4571526    2.0490439    2.3855881 
18420000    1.0315947 -1.7896068e-05   0.51202771  0.020363878            0   0.49166383    1.5396551    2.0516828   0.81470658 
18425000    1.0578846 -2.0931519e-05   0.47727004  0.015501897            0   0.46176814    1.5788928    2.0561629   0.60937628 
18430000   0.99515244 1.3387405e-05    0.5963063  0.025537178            0   0.57076912     1.485265    2.0815713    3.0069088 
18435000     1.051687 -1.0594937e-05   0.51342934  0.025983521            0   0.48744582    1.5696429    2.0830722    1.3507502 
18440000    1.0587908 1.7074625e-05   0.49506908  0.020771299            0   0.47429779    1.5802453    2.0753144    3.2555125 
18445000    1.0122743 3.6607152e-05   0.55138298  0.010011466            0   0.54137151    1.5108194    2.0622024    4.5924887 
18450000    1.0314281 -3.7907164e-06   0.51844019  0.013452146            0   0.50498805    1.5394065    2.0578467    1.7958324 
18455000    1.0105956 4.0090703e-05   0.55159656  0.044466316            0   0.50713024     1.508314    2.0599105    4.8309799 
18460000    1.0089795 3.7455838e-05   0.54781032  0.015666876            0   0.53214344    1.5059019    2.0537122    4.6426598 
18465000    1.0262417 -4.1624162e-05   0.52306093  0.021192459            0   0.50186847    1.5316658    2.0547267  -0.82233535 
18470000    1.0181155 -9.7784581e-06   0.52782724   0.04541606            0   0.48241118    1.5195373    2.0473646    1.3714776 
18475000    1.0151978 -8.5380026e-06    0.5338969  0.030941452            0   0.50295545    1.5151827    2.0490796    1.4589329 
18480000    1.0026789 -5.8960725e-05   0.56868325  0.017690788            0   0.55099247    1.4964982    2.0651815   -2.0101838 
18485000     1.002311 -6.087352e-05    0.5578805  0.011989236            0   0.54589126    1.4959491    2.0538296   -2.1537481 
18490000    1.0421776 -1.0532372e-05   0.51644112  0.025183745            0   0.49125738      1.55545    2.0718912    1.3438936 
18495000    1.0624159 2.7112806e-05   0.50283009  0.026058196            0   0.47677189    1.5856557    2.0884858    3.9625229 
18500000    1.0455839 4.7863356e-05   0.54085084  0.019684982            0   0.52116585    1.5605339    2.1013848    5.4096999 
18505000    1.0402224 7.3939888e-05   0.53374753   0.01533293            0    0.5184146    1.5525319    2.0862795    7.1970046 
18510000    1.0142697 -1.1698315e-05   0.57369805  0.014394658            0    0.5593034    1.5137975    2.0874955     1.278908 
18515000    1.0496482 -2.9338006e-05   0.52626507  0.033916732            0   0.49234834       1.5666     2.092865  0.065022098 
18520000    1.0652322 -1.2417048e-05   0.51320591  0.027852616            0   0.48535329    1.5898591     2.103065    1.2447987 
18525000    1.0547223 -7.2550118e-06   0.52629554  0.037959902            0   0.48833563     1.574173    2.1004685    1.5990021 
18530000    1.0517124 2.6554286e-05   0.52607035  0.025973264            0   0.50009709    1.5696808    2.0957511    3.9311834 
18535000    1.0780945 2.7335896e-05   0.48561656  0.021151628            0   0.46446493    1.6090561    2.0946726    3.9841298 
18540000    1.0212437 -1.1283372e-05   0.57138092  0.019367854            0   0.55201306    1.5242063    2.0955872    1.3156805 
18545000    1.0690662 -2.8328255e-05   0.51267855  0.012423177            0   0.50025537    1.5955813    2.1082599   0.15021091 
18550000    1.0344418 -3.6100938e-05   0.56072684  0.016358834            0   0.54436801    1.5439044    2.1046312  -0.39066561 
18555000   0.99146569 4.1514743e-06   0.63600067  0.048353829            0   0.58764684    1.4797625    2.1157632    2.4027131 
18560000    1.0699027 7.5477898e-06    0.5178065 0.0078582507            0   0.50994825    1.5968298    2.1146363    2.6363396 
18565000    1.0675823 -2.0635172e-05   0.51483642  0.010230345            0   0.50460608    1.5933666     2.108203   0.68189991 
18570000    1.0420941 -3.0970051e-05   0.52580631  0.026171433            0   0.49963488    1.5553255    2.0811318 -0.059518156 
18575000    1.0115749 -2.1667253e-05   0.57541744  0.029720657            0   0.54569679    1.5097756     2.085193    0.5875525 
18580000    1.0179667 -1.7446418e-05   0.56440768  0.011748352            0   0.55265933    1.5193153    2.0837229   0.87782657 
18585000    1.0754886 3.7436978e-05   0.47998401 0.0056774193            0   0.47430659    1.6051667    2.0851508    4.6727947 
18590000    1.0711364 4.6182511e-05   0.49604687  0.014191233            0   0.48185564     1.598671    2.0947179    5.2868531 
18595000    1.0305234 2.1318356e-06   0.56266496  0.030736426            0   0.53192854    1.5380562    2.1007212    2.2480737 
18600000   0.99036659 -2.9465199e-05   0.60762679  0.032134712            0   0.57549208    1.4781221    2.0857489  0.049114377 
18605000     1.069316 3.9409345e-06   0.50915558   0.03761806            0   0.47153752    1.5959541    2.1051097    2.3775071 
18610000    1.0221441 3.8579945e-05   0.56809923  0.017342228            0   0.55075701      1.52555    2.0936492     4.760295 
18615000   0.98469026 3.7461796e-05   0.63072813  0.031258209            0   0.59946992    1.4696502    2.1003784    4.6897377 
18620000   0.97589771 5.2248738e-06   0.64194249  0.041064866            0   0.60087763    1.4565273    2.0984698    2.4596131 
18625000    1.0123925 1.0370063e-05   0.58694906  0.037223321            0   0.54972574    1.5109958    2.0979449    2.8147237 
18630000    1.0050321 5.6668258e-05   0.57678298  0.051777304            0   0.52500567    1.5000105    2.0767934    5.9937035 
18635000    1.0342534 1.5188009e-05   0.53168711  0.021172702            0   0.51051441    1.5436232    2.0753103    3.1251054 
18640000    1.0824971 1.868547e-05   0.47847154 0.0075125029            0   0.47095904    1.6156269    2.0940984    3.3856382 
18645000    1.0347289 2.0457789e-05   0.54779665  0.017776885            0   0.53001976    1.5443328    2.0921295    3.5061718 
18650000    1.0447155 -3.5554462e-05   0.52660334  0.018849723            0   0.50775362    1.5592378    2.0858412  -0.37168322 
18655000    1.0391921 1.2710081e-05   0.53815983  0.017325776            0   0.52083406    1.5509942     2.089154    2.9676748 
18660000    1.0217184 7.5280801e-05   0.58421446  0.044370135            0   0.53984432    1.5249148    2.1091292    7.3125382 
18665000    1.0458029 2.7427852e-05   0.55648947   0.02414694            0   0.53234253    1.5608608    2.1173503    4.0131634 
18670000    1.0207334 2.8348544e-05   0.59720555  0.043024071            0   0.55418148    1.5234447    2.1206502    4.0801016 
18675000       1.0627 3.7075828e-05   0.55115908  0.038039754            0   0.51311933    1.5860798    2.1372389    4.6999201 
18680000    1.0376222 2.7217597e-05   0.58212692  0.042718432            0   0.53940849    1.5486511    2.1307781    4.0120584 
18685000    1.0613136 2.5071941e-06   0.55363332   0.03019908            0   0.52343424    1.5840105    2.1376438    2.3109411 
18690000    1.0518527 -1.0988299e-05   0.58129272  0.012754484            0   0.56853824    1.5698901    2.1511828    1.3916716 
18695000    1.0889202 1.7663532e-05   0.52765895  0.012256942            0   0.51540201    1.6252134    2.1528723    3.3737756 
18700000     1.057433 -9.1013296e-06   0.57480142  0.021758675            0   0.55304274    1.5782187    2.1530201    1.5239362 
18705000    1.0757526 3.9973529e-05   0.54433475  0.018556572            0   0.52577818    1.6055608    2.1498956    4.9128659 
18710000    1.0229316 0.00010665152   0.60700604   0.01842011            0   0.58858593    1.5267254    2.1337314    9.5054844 
18715000    1.0551038 3.2920802e-05   0.57777012 0.0041541882            0   0.57361593    1.5747424    2.1525125    4.4279983 
18720000     1.099711 -3.37252e-05   0.49473378 0.0047802648            0   0.48995351    1.6413187    2.1360525  -0.19503336 
18725000    1.0265701 -3.8919293e-05    0.6101204  0.010621425            0   0.59949898    1.5321558    2.1422762  -0.54782528 
18730000    1.0412992 2.1201894e-06   0.60451303  0.016418821            0   0.58809421    1.5541391    2.1586521    2.3051996 
18735000    1.0932672 2.9210947e-05    0.5273992  0.020122286            0   0.50727691    1.6317014    2.1591006    4.1781612 
18740000    1.0500915 1.5122973e-05   0.57579722  0.011860898            0   0.56393632    1.5672615    2.1430587    3.1883586 
18745000    1.0329428 1.4707187e-05   0.60568858  0.012811616            0   0.59287697    1.5416671    2.1473557    3.1639164 
18750000    1.0081919 -5.072968e-06   0.61563462  0.048045662            0   0.56758896    1.5047264     2.120361    1.7697175 
18755000    1.0362744 -6.334998e-05   0.56124889  0.024738512            0   0.53651038    1.5466395    2.1078884   -2.2708622 
18760000    1.0269021 -5.1186349e-05   0.56330477   0.01973656            0   0.54356821    1.5326514    2.0959562   -1.4420442 
18765000    1.0509221 -3.1365505e-05   0.53108629 0.0094569462            0   0.52162934    1.5685012    2.0995875 -0.068396162 
18770000    1.0557175 -3.441572e-05   0.56296928 0.0088637766            0    0.5541055    1.5756583    2.1386276  -0.24018696 
18775000    1.0231775 -1.1223022e-05    0.6297346  0.011749706            0    0.6179849    1.5270925    2.1568271    1.3810918 
18780000    1.0870745 2.232916e-05   0.53195471  0.013484839            0   0.51846987    1.6224586    2.1544133    3.6978049 
18785000    1.0383075 3.7518317e-05   0.62176357   0.05676904            0   0.56499453    1.5496739    2.1714375    4.7647035 
18790000      1.07416 2.3599531e-05   0.56887897   0.05536509            0   0.51351388    1.6031838    2.1720627    3.8032623 
18795000    1.0486998 -3.4083755e-05   0.60545904  0.026597868            0   0.57886117    1.5651844    2.1706434   -0.1852257 
18800000    1.0964785 -6.8438015e-05   0.53902675  0.019492442            0   0.51953431    1.6364942    2.1755209   -2.5549147 
18805000    1.0519011 -1.2799214e-05   0.61642027  0.024931421            0   0.59148885    1.5699623    2.1863826    1.3017009 
18810000    1.0566623 2.2820021e-05   0.59421558  0.033352507            0   0.56086307    1.5770685    2.1712841     3.748604 
18815000    1.0551267 3.5708294e-05   0.59511738  0.041886517            0   0.55323087    1.5747767     2.169894    4.6380513 
18820000    1.0452665 -1.8864605e-05   0.60743754  0.042766036            0   0.56467151    1.5600603    2.1674978    0.8635763 
18825000    1.0731914 -1.7864413e-05   0.58322447  0.045761438            0   0.53746303    1.6017381    2.1849626   0.95017434 
18830000    1.0881703 -1.9766429e-05   0.56370712  0.025044881            0   0.53866224    1.6240942    2.1878013   0.82154577 
18835000    1.0591214 4.8447242e-06    0.6187139 0.0074681485            0   0.61124575    1.5807386    2.1994525    2.5343198 
18840000    1.1221052 3.2328321e-05   0.54050295  0.013450484            0   0.52705246     1.674742     2.215245    4.4497785 
18845000    1.0771889 -2.4559037e-05   0.60144906  0.032597996            0   0.56885107    1.6077044    2.2091535   0.51163279 
18850000    1.1016576 -5.022449e-05   0.57176985  0.035173676            0   0.53659617     1.644224    2.2159939   -1.2555228 
18855000    1.1098951 -7.0417141e-05   0.56982519  0.020843557            0   0.54898164    1.6565185    2.2263436   -2.6408891 
18860000    1.0978957 2.2967538e-05   0.57992935  0.027631507            0   0.55229784    1.6386094    2.2185387     3.806055 
18865000    1.0741385 5.4926486e-05   0.60385992  0.021363514            0   0.58249641    1.6031516    2.2070116    6.0035302 
18870000    1.1188779 -2.8549508e-06    0.5571352  0.012390308            0   0.54474489    1.6699253    2.2270605    2.0297263 
18875000    1.0742842 1.327929e-05     0.599796  0.020233961            0   0.57956204    1.6033691    2.2031651    3.1210296 
18880000    1.0840339 2.4374388e-06   0.57190487  0.026948097            0   0.54495678    1.6179205    2.1898254    2.3583012 
18885000    1.0523747 -1.194937e-05   0.61876597  0.023791397            0   0.59497458    1.5706692    2.1894352    1.3634947 
18890000    1.1016228 -5.7932131e-05   0.54114942  0.031603357            0   0.50954606     1.644172    2.1853215   -1.8189475 
18895000     1.071692 6.9331321e-06   0.54863384  0.034938336            0    0.5136955    1.5995003    2.1481342    2.6273523 
18900000     1.058059 6.2592874e-05   0.56260618  0.035089836            0   0.52751635    1.5791531    2.1417593    6.4681788 
18905000    1.0049112 5.5198766e-05    0.6347314  0.021322062            0   0.61340934    1.4998299    2.1345613       5.9499 
18910000    1.0541829 1.2296857e-05   0.54968613  0.017245175            0   0.53244096     1.573368    2.1230541    2.9730129 
18915000    1.0946594 -3.9414929e-05   0.47680971  0.019262179            0   0.45754753    1.6337792    2.1105889  -0.61377096 
18920000    1.0188143 4.8838423e-06   0.56232685  0.022251691            0   0.54007515    1.5205803    2.0829071    2.4204783 
18925000     1.066921 3.2420085e-05   0.48574895  0.027235934            0   0.45851301    1.5923797    2.0781286    4.3190049 
18930000    1.0177833 -8.4464215e-06   0.53058497  0.022545972            0     0.508039    1.5190416    2.0496266    1.4658099 
18935000   0.98119329 -3.6025397e-05   0.58942786 0.0081567462            0   0.58127111     1.464431    2.0538588  -0.43621662 
18940000   0.99493463 4.4604126e-06   0.54341032 0.0098531531            0   0.53355717    1.4849399    2.0283503     2.336654 
18945000   0.99036304 1.2860976e-05    0.5497707  0.030225871            0   0.51954483    1.4781168    2.0278875    2.9168382 
18950000      1.04306 1.7384631e-05   0.47555428  0.032647861            0   0.44290642     1.556767    2.0323213    3.2339469 
18955000   0.99003322 1.2025823e-05   0.56578827  0.023894855            0   0.54189341    1.4776246    2.0434128    2.8746377 
18960000     1.022697 -2.6103537e-05   0.53058836  0.037582046            0   0.49300632    1.5263753    2.0569636   0.25268715 
18965000    1.0508695 -5.7706601e-05    0.4865149  0.024757229            0   0.46175767    1.5684227    2.0549376   -1.9337427 
18970000   0.99081601 -3.2921778e-05   0.56769232  0.032017224            0   0.53567509    1.4787929    2.0464852  -0.22906811 
18975000     1.012697 -5.9310691e-06   0.54541924  0.021423168            0   0.52399607    1.5114503    2.0568696    1.6469141 
18980000    1.0619558 -7.1488109e-06   0.47667459  0.022314519            0   0.45436007     1.584969    2.0616435    1.5675177 
18985000   0.96184253 -4.9767267e-05   0.60735038  0.030780197            0   0.57657018      1.43555    2.0429004   -1.3970131 
18990000    1.0179257 -4.6168252e-06   0.50990367   0.03075327            0    0.4791504    1.5192541    2.0291578    1.7100429 
18995000   0.99807101 1.0920074e-05   0.53091531  0.013573158            0   0.51734215     1.489621    2.0205363    2.7753318 
19000000    1.0018228 -3.5838025e-06   0.51509129  0.010886311            0   0.50420498    1.4952206    2.0103118    1.7625994 
19005000   0.98530369 1.3200246e-05    0.5315564 0.0072674309            0   0.52428897    1.4705658    2.0021222    2.9145231 
19010000      1.01356 1.1388637e-05   0.49169112   0.01045174            0   0.48123938    1.5127383    2.0044294     2.791612 
19015000   0.99020375 -4.8622792e-06   0.54394598  0.023471649            0   0.52047433    1.4778791    2.0218251    1.6857443 
19020000    1.0163972 1.8973071e-05   0.50480102  0.028798879            0   0.47600214    1.5169729    2.0217739    3.3331925 
19025000   0.99443544 1.7372735e-05   0.53718217  0.022665242            0   0.51451693    1.4841949    2.0213771    3.2221805 
19030000   0.98505003 -1.6164594e-05   0.56425021 0.0070920481            0   0.55715816    1.4701872    2.0344374   0.91714064 
19035000    1.0163587 -5.1052622e-05   0.53385603  0.020865875            0   0.51299015    1.5169154    2.0507714   -1.4779858 
19040000    1.0200414 -1.6770269e-05     0.544433   0.02347787            0   0.52095513    1.5224118    2.0668448   0.90768384 
19045000     1.024102 -1.4665004e-05   0.53558493  0.023652409            0   0.51193252    1.5284722    2.0640571     1.050412 
19050000   0.98072002 5.0806667e-05   0.60111982  0.032080975            0   0.56903885    1.4637246    2.0648445    5.5766013 
19055000    1.0169355 5.5837657e-05    0.5597952  0.026685028            0   0.53311017    1.5177762    2.0775714    5.9370702 
19060000    1.0445663 3.8312394e-05   0.51297633  0.025214585            0   0.48776174    1.5590151    2.0719915    4.7201442 
19065000    1.0133136 2.8539689e-05   0.55131727  0.015035755            0   0.53628151    1.5123706    2.0636879    4.0363512 
19070000     1.075581 1.5258784e-05   0.45806146  0.012468635            0   0.44559282    1.6053046    2.0633661    3.1180533 
19075000    1.0392992 2.8534388e-07   0.50770788  0.025053357            0   0.48265452    1.5511541    2.0588619    2.0785849 
19080000     1.001791 -5.1972397e-05   0.54870862 0.0077700903            0   0.54093853     1.495173    2.0438817   -1.5484504 
19085000    1.0040947 -1.7956883e-05   0.56033067  0.016413708            0   0.54391696    1.4986114     2.058942    0.8177623 
19090000   0.99981033 3.7352156e-05   0.57047433  0.049413704            0   0.52106063    1.4922169    2.0626912    4.6444723 
19095000   0.99004881 -4.2120339e-05   0.56492698  0.030495868            0   0.53443111    1.4776478    2.0425748  -0.86878301 
19100000    1.0235721 -3.0875622e-05   0.50704052  0.018477607            0   0.48856291    1.5276814    2.0347219 -0.099401103 
19105000    1.0050615 -1.6265162e-05   0.53066794 0.0079506607            0   0.52271728    1.5000544    2.0307223    0.9064743 
19110000   0.99426669 -2.5651748e-05   0.53374127  0.013593349            0   0.52014793     1.483943    2.0176843   0.24463548 
19115000    1.0279176 1.1473117e-05   0.48530683  0.024742711            0   0.46056412     1.534167    2.0194738    2.8124957 
19120000    1.0059737 -1.4685562e-06   0.51167357  0.029995951            0   0.48167761    1.5014158    2.0130893    1.9115827 
19125000   0.99630729 -3.3102591e-05   0.52455723  0.036654098            0   0.48790313    1.4869886    2.0115459  -0.27650524 
19130000    1.0374953 -1.3184481e-05   0.47260613  0.021404809            0   0.45120132    1.5484617    2.0210678    1.1097565 
19135000    1.0119324 6.2975414e-07   0.50811121  0.015081139            0   0.49303007    1.5103092    2.0184204     2.061949 
19140000    1.0059195 1.6231045e-05   0.50525783  0.027160644            0   0.47809718    1.5013349    2.0065927    3.1284825 
19145000    1.0414665 3.5192317e-06   0.45414514  0.019269813            0   0.43487533    1.5543887    2.0085338    2.2517831 
19150000    1.0111137 -6.4509002e-07   0.49836474  0.018586975            0   0.47977777    1.5090872    2.0074519    1.9628633 
19155000    1.0088902 7.9814639e-05   0.52397807  0.067138152            0   0.45683992    1.5057687    2.0297468    7.5465346 
19160000   0.98720243 7.608284e-05   0.53235155  0.026795514            0   0.50555603    1.4733996    2.0057512    7.2645971 
19165000    1.0083031 2.1370085e-05   0.49910416  0.025763887            0   0.47334028    1.5048923    2.0039965    3.4810968 
19170000   0.96934036 -2.1626532e-05   0.54989609 0.0063889612            0   0.54350713    1.4467405    1.9966366    0.5018107 
19175000     1.009405 1.9929456e-05   0.50407435 0.0078401691            0   0.49623418    1.5065369    2.0106113    3.3881353 
19180000    1.0428665 -9.8111116e-06   0.46747207  0.013407322            0   0.45406474    1.5564782    2.0239503    1.3458062 
19185000    1.0556634 -3.3547722e-06   0.44740614  0.014135502            0   0.43327064    1.5755776    2.0229837    1.7911019 
19190000    1.0879113 4.7382936e-06   0.40503244  0.015141323            0   0.38989112    1.6237076      2.02874    2.3562509 
19195000   0.99876335 -1.3169927e-05   0.54521461  0.024508159            0   0.52070645    1.4906543    2.0358689    1.1255635 
19200000    1.0013906 1.6327772e-05   0.53966901  0.021398043            0   0.51827097    1.4945755    2.0342445    3.1628201 
19205000    1.0190323 1.5311602e-05   0.52487283  0.017203353            0   0.50766947    1.5209056    2.0457785    3.1041164 
19210000    1.0975336 1.2396587e-05   0.41855114  0.015199792            0   0.40335135    1.6380689    2.0566201    2.9134722 
19215000    1.0145119 -1.3324593e-05    0.5368415  0.012007367            0   0.52483414     1.514159    2.0510005    1.1300046 
19220000    1.0310803 -3.2202994e-05    0.5182215  0.018482956            0   0.49973854    1.5388873    2.0571088  -0.16876217 
19225000    1.0176908 -5.4731255e-05   0.54556113  0.032499789            0   0.51306134    1.5189035    2.0644646   -1.7185598 
19230000    1.0443394 -7.6146556e-05   0.51653423  0.022371281            0   0.49416295    1.5586766    2.0752108   -3.1880391 
19235000    1.0136102 -5.1374467e-05   0.55309634  0.025214785            0   0.52788155    1.5128132    2.0659095   -1.4850936 
19240000   0.98336996 -1.1622526e-05   0.59301759  0.041514237            0   0.55150335    1.4676797    2.0606973    1.2573483 
19245000   0.98528262 1.3816045e-05   0.59895742  0.067988315            0    0.5309691    1.4705343    2.0694917    3.0244568 
19250000    1.0780936 -1.6515689e-05   0.49110498  0.037817262            0   0.45328772    1.6090547    2.1001597   0.95859528 
19255000    1.0571363 -3.6260573e-06   0.51574732  0.028629851            0   0.48711747    1.5777759    2.0935232    1.8428902 
19260000    1.0540285 -3.0621214e-05   0.52252997  0.034010491            0   0.48851948    1.5731376    2.0956675 -0.020870771 
19265000     1.043688 -1.3690219e-05   0.53154612  0.027686925            0   0.50385919    1.5577043    2.0892504    1.1429824 
19270000    1.1173988 4.7807293e-05   0.43155058  0.024242589            0   0.40730799    1.6677177    2.0992683    5.4037084 
19275000    1.0897853 3.8969607e-05   0.46816158  0.021264791            0   0.44689678    1.6265045    2.0946661    4.7882453 
19280000    1.0178158 3.8704467e-05   0.55331371  0.024483353            0   0.52883036      1.51909    2.0724037    4.7476565 
19285000    1.0896738 2.353757e-05   0.44104825  0.027542069            0   0.41350618    1.6263381    2.0673863    3.6943032 
19290000    1.0218266 -4.7440663e-05   0.54146913  0.017789203            0   0.52367992    1.5250762    2.0665453   -1.2125533 
19295000    1.0054138 -5.8594271e-05    0.5674469  0.023326221            0   0.54412068    1.5005801     2.068027    -1.982009 
19300000    1.0594252 -4.7134605e-05   0.48272601  0.031658785            0   0.45106723    1.5811921    2.0639181   -1.1940258 
19305000    1.0588433 -5.3600161e-05   0.49475682   0.02133381            0   0.47342301    1.5803236    2.0750804   -1.6297627 
19310000    1.0272987 -2.4449512e-05   0.54978035  0.011036591            0   0.53874376    1.5332433    2.0830237    0.3930734 
19315000    1.0328075 -2.2110682e-05   0.52026692 0.0078624077            0   0.51240451    1.5414652    2.0617321   0.53344178 
19320000    1.0547581 -1.1503775e-05   0.47770191 0.0071927169            0   0.47050919    1.5742265    2.0519284    1.2567875 
19325000    1.0640629 -9.8182536e-06   0.48143018  0.011168607            0   0.47026157    1.5881139    2.0695441    1.3909064 
19330000    1.0810126 -2.5283492e-05   0.44497835  0.018126755            0   0.42685159    1.6134114    2.0583897   0.31079472 
19335000    1.0222725 1.4500209e-05   0.53910037  0.018633382            0   0.52046699    1.5257418    2.0648422    3.0670966 
19340000    1.0344431 -5.9708434e-07   0.51662446  0.028903017            0   0.48772144    1.5439064    2.0605308    2.0192603 
19345000    1.0757859 -5.5326752e-06   0.46435509  0.017486127            0   0.44686896    1.6056104    2.0699655     1.687547 
19350000    1.0149951 3.4607124e-05   0.54740459  0.013608258            0   0.53379633    1.5148802    2.0622847    4.4543291 
19355000    1.0313059 2.1874355e-06   0.52697519  0.067329056            0   0.45964613    1.5392241    2.0661993    2.2173949 
19360000    1.0626917 3.6144492e-05   0.46206403  0.017163622            0   0.44490041    1.5860674    2.0481314    4.5464387 
19365000    1.0111312 3.8382127e-05   0.52664887 0.0096707878            0   0.51697808    1.5091133    2.0357621    4.6887347 
19370000    1.0286331 -2.9650539e-05   0.48423086  0.016660396            0   0.46757046    1.5352349    2.0194657 -0.029979497 
19375000    1.0134338 2.4035479e-05   0.50747455  0.014690452            0    0.4927841    1.5125499    2.0200245    3.6813568 
19380000    1.0213938 -3.5126756e-06   0.49091192 0.0092733186            0    0.4816386    1.5244303    2.0153422    1.7725461 
19385000    1.0209223 -2.9714496e-05     0.488393  0.038380002            0     0.450013    1.5237265    2.0121195 -0.041746474 
19390000   0.96416419 -4.6498578e-05   0.55666806  0.041298936            0   0.51536912    1.4390151    1.9956831   -1.2182986 
19395000   0.99184605 -4.694817e-06    0.5542248  0.030694061            0   0.52353074    1.4803302     2.034555    1.7100493 
19400000    1.0315083 2.4270373e-05    0.4936905  0.019800525            0   0.47388998    1.5395261    2.0332166    3.7107848 
19405000    1.0027004 -1.7034561e-05   0.53448016  0.016779854            0   0.51770031    1.4965304    2.0310105   0.85358171 
19410000    1.0245714 2.9195453e-05   0.50785623  0.011420421            0   0.49643581    1.5291728     2.037029    4.0550187 
19415000    1.0588753 4.6676587e-05   0.44058372 0.0099699267            0    0.4306138    1.5803714    2.0209552    5.2472408 
19420000    1.0198433 2.4057025e-05   0.47763229  0.015471257            0   0.46216103    1.5221161    1.9997484      3.66257 
19425000    1.0398765 -1.7649074e-05   0.44637331  0.011998876            0   0.43437444    1.5520157     1.998389   0.77848507 
19430000    1.0222317 -6.0115586e-06    0.4731625  0.014524812            0   0.45863768    1.5256807    1.9988432    1.5833243 
19435000    1.0386805 -8.3622195e-06   0.46385346  0.028245822            0   0.43560763    1.5502306    2.0140841    1.4360875 
19440000    0.9839925 -1.3464889e-05   0.53188408  0.013765416            0   0.51811866    1.4686088    2.0004929    1.0697998 
19445000    1.0413813 3.4105992e-05   0.47120317 0.0057056167            0   0.46549755    1.5542616    2.0254647    4.3828709 
19450000    1.0388218 -4.4812373e-05   0.48419839  0.013488059            0   0.47071034    1.5504415    2.0346399   -1.0627913 
19455000   0.99949007 -4.0736134e-05   0.53986811  0.010167842            0   0.52970027    1.4917389     2.031607  -0.78407457 
19460000    1.0239902 3.8634042e-05   0.51249606  0.010402278            0   0.50209379    1.5283053    2.0408014    4.7111864 
19465000    1.0196297 9.5338771e-06   0.52009028   0.04247414            0   0.47761614    1.5217974    2.0418877    2.7008693 
19470000     1.003416 -3.260393e-05   0.55039587  0.034082061            0   0.51631381    1.4975984    2.0479942  -0.20558938 
19475000    1.0385996 2.3245893e-05   0.49966562  0.019194285            0   0.48047133    1.5501099    2.0497755    3.6565316 
19480000    1.0234647 2.880352e-05   0.52526532  0.014748977            0   0.51051634    1.5275211    2.0527864    4.0436857 
19485000    1.0615455 3.5601161e-05   0.46021233 0.0087406429            0   0.45147168    1.5843567     2.044569    4.5053213 
19490000    1.0149007 -4.2128672e-05   0.51589474  0.009119178            0   0.50677556    1.5147393     2.030634  -0.88129974 
19495000     1.049821 1.293089e-05   0.47510267 0.0080120323            0   0.46709064    1.5668578    2.0419604    2.9357436 
19500000   0.99361213 3.0237132e-06   0.55953449  0.027327961            0   0.53220653    1.4829661    2.0425006    2.2514996 
19505000   0.93771918 -4.9129199e-05   0.63125915  0.050040501            0   0.58121865    1.3995459     2.030805   -1.3650052 
19510000    1.0109328 -1.1625565e-05    0.5025004  0.016964154            0   0.48553625    1.5088172    2.0113176    1.2077585 
19515000   0.99787306 1.3976618e-06   0.51887178  0.024433454            0   0.49443832    1.4893255    2.0081973    2.1048037 
19520000    1.0262833 -2.2432074e-05   0.47999009  0.012389738            0   0.46760036    1.5317278    2.0117179   0.46121297 
19525000      1.01538 2.4082086e-05   0.51486734  0.019913108            0   0.49495423    1.5154546     2.030322    3.6948758 
19530000    1.0109804 -2.3021204e-06   0.52480188  0.030659347            0   0.49414253    1.5088882    2.0336901    1.8745675 
19535000    1.0434331 1.4924826e-05   0.50117339  0.025111306            0   0.47606208     1.557324    2.0584973    3.0901013 
19540000    1.0593209 -3.1229715e-05   0.46538014  0.013565949            0   0.45181419    1.5810365    2.0464166  -0.11218125 
19545000    1.0136127 -2.8062125e-05   0.52326998   0.02185125            0   0.50141873    1.5128169    2.0360869  0.096432799 
19550000    1.0516126 2.3089184e-05   0.46356717  0.012840506            0   0.45072667    1.5695318     2.033099    3.6290233 
19555000    1.0497575 2.2298826e-05   0.46818155  0.016811353            0    0.4513702     1.566763    2.0349446    3.5762394 
19560000    1.0396976 -1.1035693e-05   0.49374941  0.019484477            0   0.47426494    1.5517486     2.045498     1.282711 
19565000    1.0488199 3.5159497e-05   0.50629204   0.04514638            0   0.46114566    1.5653636    2.0716557    4.5018801 
19570000    1.0388814 4.6017107e-05   0.51898831  0.038848193            0   0.48014012    1.5505305    2.0695188    5.2502212 
19575000    1.0865043 1.0820392e-05   0.46507926  0.019667828            0   0.44541143    1.6216077     2.086687    2.8345924 
19580000    1.1059162 2.0900152e-05   0.45853779  0.015864336            0   0.44267345      1.65058    2.1091178    3.5537363 
19585000    1.0152225 -1.3327667e-05    0.6009725  0.034419592            0   0.56655291    1.5152196    2.1161921    1.1949837 
19590000    1.0555735 -3.1438451e-05   0.55373957  0.026154227            0   0.52758534    1.5754435    2.1291831 -0.043842656 
19595000    1.0603768 2.2827899e-05   0.52953693   0.05494152            0   0.47459541    1.5826124    2.1121494    3.6900137 
19600000    1.0828775 1.7167983e-05   0.49634892    0.0154952            0   0.48085371    1.6161947    2.1125436    3.2991946 
19605000    1.0208555 2.5851211e-05   0.59753973 0.0086526549            0   0.58888707    1.5236268    2.1211665    3.9080022 
19610000    1.0944533 3.1196932e-05   0.48604932  0.012096793            0   0.47395252    1.6334715    2.1195208    4.2758528 
19615000    1.1049293 1.7008095e-05   0.46626344  0.030805911            0   0.43545753     1.649107    2.1153704      3.29097 
19620000     1.057816 -2.6426927e-05   0.54030439  0.033290249            0   0.50701414    1.5787903    2.1190947   0.29246548 
19625000    1.0255675 -7.3636708e-05   0.58844075  0.044354903            0   0.54408584    1.5306595    2.1191002    -2.970669 
19630000    1.1065172 -3.9961018e-05   0.46400674   0.01305672            0   0.45095002    1.6514769    2.1154837  -0.64662188 
19635000    1.0702908 3.111208e-06   0.50731339   0.01960652            0   0.48770687    1.5974091    2.1047225    2.3197692 
19640000     1.068995 4.8929661e-05   0.50198709  0.040978642            0   0.46100845     1.595475    2.0974621    5.4794803 
19645000    1.1040351 3.1673925e-06   0.46318695  0.031111029            0   0.43207592    1.6477724    2.1109594    2.3298895 
19650000    1.0379265 -6.2865416e-05   0.54131442  0.019796295            0   0.52151813    1.5491054    2.0904198   -2.2548378 
19655000    1.0447539 3.0479882e-05   0.53291208  0.018133472            0   0.51477861    1.5592952    2.0922073    4.1989767 
19660000    1.0230604 2.2718432e-05   0.53948461  0.021924472            0   0.51756014    1.5269176    2.0664023    3.6367003 
19665000      1.05241 -1.504308e-05   0.49522294  0.020729717            0   0.47449323    1.5707219    2.0659448    1.0261671 
19670000    1.0665595 -1.7059433e-05   0.47506856  0.024503633            0   0.45056493      1.59184    2.0669086   0.88776056 
19675000    1.0240819 -4.5944298e-05   0.54178361  0.015604485            0   0.52617913    1.5284422    2.0702258   -1.1054441 
19680000    1.0120715 -4.2153334e-05   0.56072234    0.0146563            0   0.54606604    1.5105168    2.0712391  -0.84239934 
19685000    1.0610531 2.0675239e-05   0.49294299  0.021770656            0   0.47117234    1.5836217    2.0765647    3.5056373 
19690000    1.0798012 1.8536088e-05   0.46814702  0.019248633            0   0.44889839    1.6116033    2.0797503    3.3609648 
19695000    1.0348324 -3.5976116e-05   0.54227574  0.039707523            0   0.50256822    1.5444873     2.086763  -0.39990611 
19700000    1.0155379 -1.5217553e-05    0.5824015  0.051626862            0   0.53077464    1.5156903    2.0980919    1.0462546 
19705000    1.0602003 -6.5636137e-07   0.51538722  0.019924856            0   0.49546237     1.582349    2.0977362    2.0523685 
19710000    1.0454801 -1.6151722e-05   0.55646417  0.011613003            0   0.54485116     1.560379    2.1168432    1.0004362 
19715000    1.0797102 -1.1334173e-05   0.48942032  0.025695179            0   0.46372514    1.6114675    2.1008878    1.3174698 
19720000    1.0779338 2.1335661e-06   0.48010354  0.035179033            0   0.44492451    1.6088162    2.0889198    2.2363919 
19725000    1.0554586 -3.5322466e-07   0.50054247  0.025765879            0   0.47477659     1.575272    2.0758145    2.0513996 
19730000     1.049884 2.9472805e-05   0.50377299  0.015990648            0   0.48778234    1.5669519    2.0707249    4.1078852 
19735000    1.0493968 -1.2349992e-05   0.49753603 0.0067346268            0   0.49080141    1.5662247    2.0637608    1.2101293 
19740000    1.0082201 -1.8329078e-05   0.57002953  0.019012693            0   0.55101683    1.5047686    2.0747981    0.8078922 
19745000    1.0539532 6.6352302e-06   0.48967106  0.017318303            0   0.47235276    1.5730251    2.0626962    2.5213233 
19750000    1.0141946 3.9330929e-05   0.55022006   0.02062895            0   0.52959111    1.5136854    2.0639055    4.7824593 
19755000    1.0066622 -1.4119808e-05   0.57930629  0.032761738            0   0.54654455    1.5024433    2.0817496    1.1057885 
19760000    1.0012604 -1.4897698e-05   0.57072593  0.031222924            0   0.53950301    1.4943812    2.0651071    1.0353782 
19765000   0.95195244 4.9210657e-05    0.6382907  0.026211469            0   0.61207924     1.420789    2.0590797    5.4605203 
19770000    1.0295753 1.8729527e-05   0.50904371  0.028286658            0   0.48075705    1.5366411    2.0456848    3.3402697 
19775000   0.99964236 3.2703387e-05   0.55571536  0.026704668            0   0.52901069    1.4919662    2.0476816    4.3081397 
19780000    1.0422092 2.620169e-05   0.48327484  0.017740255            0   0.46553459    1.5554972    2.0387721    3.8498329 
19785000   0.96246465 -2.100849e-05   0.59329513  0.004661306            0   0.58863383    1.4364785    2.0297736   0.57766679 
19790000   0.99910743 -6.8602289e-06   0.53495301  0.039953709            0    0.4949993    1.4911678    2.0261209    1.5519418 
19795000    1.0520329 -1.5220624e-05    0.4679647   0.01925869            0   0.44870601    1.5701591    2.0381238    0.9860743 
19800000   0.99076032 2.0662244e-05   0.56258468 0.0087314966            0   0.55385319    1.4787098    2.0412945    3.4694688 
19805000    1.0196655 -1.3498476e-06   0.51652025 0.0098038255            0   0.50671642    1.5218507     2.038371    1.9450695 
19810000   0.97432879 -4.0899809e-05    0.5750195  0.037302337            0   0.53771716    1.4541857    2.0292052  -0.79778959 
19815000   0.98748621 -5.5841174e-05   0.57004977  0.023232686            0   0.54681709    1.4738232    2.0438729    -1.815869 
19820000    1.0131284 -1.8642297e-05   0.55091355  0.013027812            0   0.53788574    1.5120941    2.0630077   0.77445205 
19825000    1.0238849 2.5932365e-05     0.530206  0.013376774            0   0.51682923    1.5281483    2.0583543    3.8507994 
19830000    1.0294943 -7.6305609e-06   0.52874457  0.016845997            0   0.51189857    1.5365202    2.0652648    1.5378404 
19835000    1.0255407 -6.4453103e-05   0.52352836  0.013579805            0   0.50994856    1.5306195    2.0541479   -2.4008506 
19840000    1.0029302 -6.2342516e-05   0.55769142 0.0067050577            0   0.55098636    1.4968733    2.0545648   -2.2545499 
19845000      0.98138 -2.8638731e-05   0.58926874 0.0064212136            0   0.58284753    1.4647097    2.0539784  0.074469279 
19850000    1.0100314 -5.2922998e-06   0.55448226  0.005993868            0   0.54848839    1.5074718    2.0619541    1.6961503 
19855000    1.0319218 -7.2862517e-06   0.51708587  0.021138691            0   0.49594718    1.5401434    2.0572292    1.5536035 
19860000   0.99293458 2.9499259e-05   0.56955766  0.016875515            0   0.55268214    1.4819549    2.0515125    4.0905013 
19865000    1.0273753 1.7590844e-05   0.53074757   0.01035664            0   0.52039093    1.5333576    2.0641052    3.2799843 
19870000   0.99678784 1.3647606e-05   0.57529409  0.012968644            0   0.56232544    1.4877059    2.0629999    3.0063225 
19875000   0.98485203 5.0269475e-05   0.57562757   0.01487844            0   0.56074913    1.4698917    2.0455192    5.5201453 
19880000    1.0076164 6.1969481e-05   0.55049679  0.016942778            0   0.53355401    1.5038675    2.0543643    6.3376948 
19885000   0.98036589 1.2707865e-05   0.56470149  0.015775232            0   0.54892626    1.4631961    2.0278976    2.9062652 
19890000    1.0140917 -5.4511856e-05   0.49766485 0.0090344244            0   0.48863043    1.5135319    2.0111968   -1.7566627 
19895000     1.008275 -2.6112737e-05   0.51499482  0.018966316            0    0.4960285    1.5048504    2.0198452   0.21493282 
19900000    1.0104269 1.4287263e-05   0.53416441  0.036465183            0   0.49769923    1.5080622    2.0422266    3.0297622 
19905000   0.97849512 -8.1998465e-05   0.59257428  0.031643371            0   0.56093091     1.460404    2.0529783   -3.6147556 
19910000    1.0138116 -2.1887649e-05   0.53837211 0.0044978671            0   0.53387424    1.5131138    2.0514859   0.53861155 
19915000    1.0001875 1.9193739e-05    0.5647781  0.018402747            0   0.54637535    1.4927799     2.057558    3.3842292 
19920000   0.97775805 1.4228382e-06   0.58682226  0.023085606            0   0.56373666    1.4593039    2.0461262    2.1444727 
19925000   0.98218972 4.3097579e-05   0.57320546  0.039538608            0   0.53366685    1.4659182    2.0391236    5.0180283 
19930000    1.0068849 -1.50342e-05   0.53238033  0.057360095            0   0.47502024    1.5027757    2.0351561    0.9959922 
19935000    1.0248052 -2.9530537e-05   0.52182201  0.028364392            0   0.49345762    1.5295218    2.0513438  0.010193065 
19940000    1.0395179 -1.8437999e-05   0.50621687  0.014941541            0   0.49127533    1.5514805    2.0576974   0.78326291 
19945000    1.0434127 8.3881756e-06   0.49840671  0.043169079            0   0.45523763    1.5572935    2.0557002    2.6354909 
19950000   0.99908309 7.1166887e-05   0.56996613  0.036075882            0   0.53389025    1.4911315    2.0610976    6.9801529 
19955000    1.0027666 3.6609026e-05   0.54774257  0.020901794            0   0.52684077    1.4966292    2.0443717    4.5747876 
19960000   0.99785946 -3.8308524e-05   0.55902972  0.037340689            0   0.52168903    1.4893052     2.048335  -0.59955019 
19965000    1.0494435 -4.8097863e-05   0.49006679  0.029223815            0   0.46084298    1.5662944    2.0563612   -1.2681631 
19970000   0.98631515 -4.1654584e-05   0.59482131  0.039492357            0   0.55532895    1.4720754    2.0668967  -0.81226816 
19975000    1.0217352 3.0612331e-05    0.5308731  0.022629876            0   0.50824322    1.5249398    2.0558129    4.1717372 
19980000   0.99411682 1.5545164e-05    0.5600937  0.017844751            0   0.54224895    1.4837194    2.0438131    3.1182948 
19985000   0.95802512 -4.3916161e-05   0.60259811  0.021666838            0   0.58093127    1.4298525    2.0324506   -1.0030344 
19990000     1.005772 -6.207403e-05   0.52291711  0.035609964            0   0.48730714    1.5011147    2.0240318   -2.2665251 
19995000   0.94673974 -5.1920596e-05   0.60301605   0.02383888            0   0.57917717    1.4130091    2.0160251   -1.5727265 
20000000    1.0095128 3.5289761e-05   0.51921496  0.029115549            0   0.49009941    1.5066979    2.0259128    4.4651412 
Loop time of 575.105 on 1 procs for 20000000 steps with 200 atoms

Performance: 30046.710 tau/day, 34776.285 timesteps/s
99.4% CPU use with 1 MPI tasks x no OpenMP threads

MPI task timing breakdown:
Section |  min time  |  avg time  |  max time  |%varavg| %total
---------------------------------------------------------------
Pair    | 19.102     | 19.102     | 19.102     |   0.0 |  3.32
Bond    | 73.703     | 73.703     | 73.703     |   0.0 | 12.82
Neigh   | 85.459     | 85.459     | 85.459     |   0.0 | 14.86
Comm    | 200.29     | 200.29     | 200.29     |   0.0 | 34.83
Output  | 1.0493     | 1.0493     | 1.0493     |   0.0 |  0.18
Modify  | 182.45     | 182.45     | 182.45     |   0.0 | 31.72
Other   |            | 13.06      |            |       |  2.27

Nlocal:        200.000 ave         200 max         200 min
Histogram: 1 0 0 0 0 0 0 0 0 0
Nghost:        0.00000 ave           0 max           0 min
Histogram: 1 0 0 0 0 0 0 0 0 0
Neighs:        81.0000 ave          81 max          81 min
Histogram: 1 0 0 0 0 0 0 0 0 0

Total # of neighbors = 81
Ave neighs/atom = 0.405
Ave special neighs/atom = 5.9400000
Neighbor list builds = 4311
Dangerous builds = 0
write_restart restart.equil
System init for write_restart ...
WARNING: Communication cutoff 1.4200000000000002 is shorter than a bond length based estimate of 1.8. This may lead to errors. (../comm.cpp:667)
#--------------End of Input file ------------------
Total wall time: 0:09:35
