LAMMPS (29 Oct 2020)
###################### polyelectrolyte complexation ######################
clear

#Initialization
#------------------------------------
units				lj
dimension			3
atom_style			full
boundary			p p p

#Atom Definition
#-------------------------------------
read_restart			restart.equil
Reading restart file ...
  restart file = 29 Oct 2020, LAMMPS = 29 Oct 2020
  restoring atom style full from restart
  orthogonal box = (-80.000000 -80.000000 -80.000000) to (80.000000 80.000000 80.000000)
  1 by 1 by 1 MPI processor grid
  restoring pair style lj/cut from restart
  restoring bond style harmonic from restart
  60 atoms
  59 bonds
Finding 1-2 1-3 1-4 neighbors ...
  special bond factors lj:    0.0      1.0      1.0     
  special bond factors coul:  0.0      0.0      0.0     
     2 = max # of 1-2 neighbors
     2 = max # of 1-3 neighbors
     4 = max # of 1-4 neighbors
     6 = max # of special neighbors
  special bonds CPU = 0.000 seconds
  read_restart CPU = 0.003 seconds

#Force definition
#----------------------------------------------
#Bond definition
bond_style			harmonic
bond_coeff			1 5000 1
#Pair definition
special_bonds	lj 0 1 1
dielectric		80
pair_style		 lj/cut 1.12
pair_modify 		 shift yes
pair_coeff	1 1 1 1 1.12

#Timestep etc
#--------------------------------------------
timestep		0.001
run_style		verlet
velocity		all	create	1	1

#Fix
#---------------------------------------
group polymers type 1
60 atoms in group polymers
fix 1 all nve
fix 2 all langevin 1	1	10	1

#Dump
#------------------------------------------------
compute  1 all gyration
variable  myRg2 equal c_1
variable  i equal step
fix  mythermofile all print 5000 "$i ${myRg2}" file radius_of_gyration.dat screen no

thermo_style		 custom step temp press pe evdwl ecoul ebond ke etotal enthalpy
thermo 	5000
dump	3 all custom 5000 dump.lammpstrj id mol type xu yu zu
run		2000000
Neighbor list info ...
  update every 1 steps, delay 10 steps, check yes
  max neighbors/atom: 2000, page size: 100000
  master list distance cutoff = 1.42
  ghost atom cutoff = 1.42
  binsize = 0.71, bins = 226 226 226
  1 neighbor lists, perpetual/occasional/extra = 1 0 0
  (1) pair lj/cut, perpetual
      attributes: half, newton on
      pair build: half/bin/newton
      stencil: half/bin/3d/newton
      bin: standard
WARNING: Communication cutoff 1.4200000000000002 is shorter than a bond length based estimate of 1.8. This may lead to errors. (../comm.cpp:667)
Per MPI rank memory allocation (min/avg/max) = 54.71 | 54.71 | 54.71 Mbytes
Step Temp Press PotEng E_vdwl E_coul E_bond KinEng TotEng Enthalpy 
 2000000            1 -0.00012130765   0.43871753 0.0060657727            0   0.43265176        1.475    1.9137175   -6.3675516 
 2005000    1.1221477 -7.0764829e-05   0.44661026 0.0041215964            0   0.44248866    1.6551679    2.1017782   -2.7291008 
 2010000    1.0764828 5.3981112e-05    0.4118445  0.015687775            0   0.39615672    1.5878122    1.9996567    5.6847673 
 2015000   0.90009677 -1.1639723e-05   0.47542058  0.053986739            0   0.42143384    1.3276427    1.8030633    1.0084582 
 2020000     1.012789 -1.6631547e-05   0.43130103    0.0296256            0   0.40167543    1.4938638    1.9251649   0.78978458 
 2025000   0.93396568 4.1308047e-05   0.60753825  0.036525494            0   0.57101276    1.3775994    1.9851376    4.8051003 
 2030000    1.0601217 4.428894e-05   0.54536676  0.062768597            0   0.48259816    1.5636795    2.1090462    5.1325045 
 2035000     1.015642 7.5955372e-05   0.53747429   0.01082584            0   0.52664845    1.4980719    2.0355462    7.2207663 
 2040000    1.1619731 -9.2019397e-05   0.46595232  0.011804472            0   0.45414784    1.7139103    2.1798626   -4.1019949 
 2045000   0.99126728 6.6728204e-05   0.55550661  0.049215335            0   0.50629128    1.4621192    2.0176258    6.5729379 
 2050000   0.91825284 -2.3333847e-05   0.35866493 0.0086085378            0   0.35005639    1.3544229    1.7130879   0.12016392 
 2055000    1.0178032 2.2161424e-05   0.38321741            0            0   0.38321741    1.5012597    1.8844771    3.3973636 
 2060000   0.85174014 -4.4130018e-05   0.35346792  0.027341905            0   0.32612601    1.2563167    1.6097846   -1.4028246 
 2065000   0.85331521  2.48455e-06   0.40222865  0.051014656            0   0.35121399    1.2586399    1.6608686    1.8304805 
 2070000    1.0165217 -3.2485823e-05   0.44511558 0.0086129699            0   0.43650261    1.4993696    1.9444851  -0.27321372 
 2075000   0.91213483 -7.1356073e-05     0.474021 0.0015841223            0   0.47243688    1.3453989    1.8194199   -3.0518214 
 2080000   0.92179941 2.1733148e-05   0.44712349  0.030267252            0   0.41685624    1.3596541    1.8067776    3.2904272 
 2085000   0.89989977 4.438976e-05   0.47007246  0.002009283            0   0.46806317    1.3273522    1.7974246    4.8277656 
 2090000   0.94758785 -9.8987461e-05   0.49014567 0.0035323916            0   0.48661328    1.3976921    1.8878377   -4.8697063 
 2095000    1.1460585 2.9095269e-05   0.40563183 0.0045612635            0   0.40107057    1.6904362    2.0960681    4.0823051 
 2100000    1.0035731 7.1741458e-05   0.35900932  0.007314182            0   0.35169514    1.4802704    1.8392797    6.7368299 
 2105000    1.0357313 -5.6355632e-05   0.45376296 1.6537957e-05            0   0.45374642    1.5277037    1.9814667   -1.8657444 
 2110000    1.0602816 -8.4024155e-05   0.56595502  0.046470695            0   0.51948432    1.5639153    2.1298703   -3.6061787 
 2115000   0.93726394 0.00012107989   0.49940801  0.003014278            0   0.49639373    1.3824643    1.8818723    10.147593 
 2120000    1.1091956 1.6669045e-05   0.54699597 0.0027358882            0   0.54426008    1.6360635    2.1830595    3.3209996 
 2125000   0.97728112 -7.3716314e-06   0.54760728  0.040612407            0   0.50699487    1.4414897    1.9890969    1.4858602 
 2130000   0.92823719 2.9628946e-05   0.43016697  0.049964022            0   0.38020295    1.3691499    1.7993168    3.8219862 
 2135000    1.0650312 3.8049926e-05   0.46142357   0.03638232            0   0.42504125     1.570921    2.0323446    4.6298862 
 2140000    1.0271284 4.1620979e-05   0.32620534  0.044999746            0   0.28120559    1.5150144    1.8412197    4.6825452 
 2145000   0.93684688 -2.0047136e-05   0.61628104 0.0098073406            0    0.6064737    1.3818491    1.9981302   0.62957907 
 2150000     1.020239 9.0492346e-06   0.54444774            0            0   0.54444774    1.5048525    2.0493003    2.6670613 
 2155000     1.059383 -0.00015783501   0.65734563  0.014504229            0   0.64284141      1.56259    2.2199356   -8.5549347 
 2160000   0.99991396 3.8508958e-06   0.61175283   0.11548199            0   0.49627085    1.4748731    2.0866259    2.3495137 
 2165000    1.2090508 8.828659e-05   0.53374344  0.042410141            0    0.4913333    1.7833499    2.3170934    8.3441245 
 2170000    1.1631348 5.6522814e-05   0.65691605  0.075950308            0   0.58096574    1.7156238    2.3725399     6.231164 
 2175000    1.2081153 4.6478668e-05   0.51504962 0.0042191238            0    0.5108305      1.78197    2.2970196    5.4699634 
 2180000    1.1870869 4.2260693e-05   0.40485889  0.019554255            0   0.38530463    1.7509532    2.1558121    5.0408087 
 2185000   0.92021645 -3.8484285e-05   0.51286872  0.014632332            0   0.49823639    1.3573193     1.870188   -0.7570059 
 2190000   0.94967594 -7.4366212e-05   0.46142294  0.009595721            0   0.45182722     1.400772     1.862195   -3.2145384 
 2195000    0.8058341 1.5012106e-05   0.44987157 0.0081620401            0   0.44170953    1.1886053    1.6384769    2.6633033 
 2200000    1.0380733 1.6833219e-05   0.41838779 0.0053186149            0   0.41306917    1.5311581    1.9495459    3.0986936 
 2205000    1.1199538 4.191301e-05   0.62659903  0.017414451            0   0.60918458    1.6519319    2.2785309    5.1397924 
 2210000    1.1022634 -4.2891958e-05   0.67188049  0.066714732            0   0.60516576    1.6258386    2.2977191  -0.63037194 
 2215000   0.94890762 -3.2039392e-05   0.80652874  0.025124327            0   0.78140441    1.3996387    2.2061675  0.018945005 
 2220000    1.0277742 4.0103201e-06   0.42204309  0.004430109            0   0.41761298    1.5159669      1.93801    2.2117812 
 2225000    0.9800197 -6.4848824e-05   0.59555812  0.028635776            0   0.56692234    1.4455291    2.0410872   -2.3859259 
 2230000    1.0708811 -5.5127904e-05   0.52403852 0.0041801096            0   0.51985841    1.5795497    2.1035882     -1.65981 
 2235000   0.83830431 -2.6512177e-05   0.63946141   0.01825353            0   0.62120788    1.2364989    1.8759603  0.066062306 
 2240000   0.83093517 6.9244443e-05   0.52299379  0.025629041            0   0.49736475    1.2256294    1.7486232    6.4757105 
 2245000    1.1767878 4.5709058e-05   0.52991651 0.0074500847            0   0.52246643     1.735762    2.2656785    5.3860835 
 2250000   0.99971447 2.7108749e-05   0.62137902  0.010917849            0   0.61046117    1.4745788    2.0959579    3.9465818 
 2255000   0.97322216 0.00015948146   0.60038586 0.0022291878            0   0.59815667    1.4355027    2.0358886    12.923156 
 2260000   0.96564726 0.00018317636   0.60252124  0.065081765            0   0.53743947    1.4243297    2.0268509     14.53169 
 2265000     1.041511 1.7574771e-05   0.56849255  0.050827107            0   0.51766544    1.5362288    2.1047213    3.3044923 
 2270000   0.92232094 -2.9249404e-05   0.52470222 0.0050926921            0   0.51960953    1.3604234    1.8851256  -0.11163369 
 2275000    1.0222445 4.3928612e-05   0.47935376   0.02391388            0   0.45543988    1.5078107    1.9871645    4.9860244 
 2280000    1.0512923 -3.9010597e-05   0.47745012  0.017308436            0   0.46014168    1.5506562    2.0281063   -0.6350171 
 2285000    1.1916118 -8.1158076e-06   0.59674288  0.020817559            0   0.57592532    1.7576274    2.3543703    1.8003312 
 2290000    1.1809993 -1.5813892e-05   0.54631884  0.036815355            0   0.50950348    1.7419739    2.2882927     1.208731 
 2295000     1.166623 5.2314478e-05   0.43222367  0.011473561            0   0.42075011    1.7207689    2.1529925    5.7243276 
 2300000    1.0710252 -8.3692944e-06    0.4556222 0.00037040967            0   0.45525179    1.5797621    2.0353843    1.4640405 
 2305000    1.0678508 2.6099358e-05   0.38166955 0.0088445503            0     0.372825      1.57508    1.9567495    3.7384657 
 2310000    1.0184601 -1.3450528e-05   0.65395118  0.052691768            0   0.60125941    1.5022286    2.1561798     1.237957 
 2315000    1.1384914 1.1726806e-05   0.60133033  0.018629194            0   0.58270113    1.6792748    2.2806051    3.0811551 
 2320000    1.2537314 -1.063782e-05     0.493408  0.035053099            0    0.4583549    1.8492538    2.3426618    1.6164533 
 2325000    1.0684122 -4.1034819e-05    0.6110887  0.018399477            0   0.59268922     1.575908    2.1869967   -0.6143136 
 2330000    1.0085592 3.142375e-05   0.51916518  0.011240678            0   0.50792451    1.4876248      2.00679    4.1519846 
 2335000    1.0188255 7.7356291e-05   0.54429849  0.027964503            0   0.51633399    1.5027677    2.0470662    7.3279223 
 2340000    1.1128789 -1.7615231e-06   0.63361595  0.084145349            0    0.5494706    1.6414964    2.2751124    2.1548591 
 2345000   0.85048544 -7.2383036e-05   0.49891194  0.014267226            0   0.48464471     1.254466     1.753378   -3.1879706 
 2350000       1.0597 1.3439382e-05   0.38067252  0.013258853            0   0.36741367    1.5630575      1.94373    2.8611918 
 2355000    1.0655392  5.19054e-05   0.49610922  0.090569581            0   0.40553964    1.5716703    2.0677795    5.6111882 
 2360000     1.018165 8.6089512e-05    0.5574234  0.033724425            0   0.52369897    1.5017934    2.0592168    7.9362608 
 2365000   0.90924331 9.5283644e-05   0.53291203  0.030006633            0   0.50290539    1.3411339    1.8740459    8.3787427 
 2370000   0.83815693 -9.7266547e-06   0.49107408  0.011283054            0   0.47979102    1.2362815    1.7273555    1.0633493 
 2375000   0.89254656 9.0594272e-05   0.65380222   0.11045545            0   0.54334677    1.3165062    1.9703084    8.1548774 
 2380000    1.0629231 -3.4535304e-05   0.58713515 0.00076424653            0    0.5863709    1.5678115    2.1549467  -0.20266339 
 2385000     1.051124 9.5484277e-05   0.61978738  0.010585957            0   0.60920142    1.5504079    2.1701953    8.6885886 
 2390000    1.0170824 7.9639934e-05   0.57441667  0.038153675            0     0.536263    1.5001965    2.0746132     7.511366 
 2395000    1.0355395 -7.8008758e-05   0.53984591 0.0025777513            0   0.53726816    1.5274208    2.0672667   -3.2581312 
 2400000   0.91621535 3.2047372e-05   0.57857121  0.072117319            0   0.50645389    1.3514176    1.9299888    4.1177561 
 2405000   0.99077981 5.8339854e-05   0.47896465  0.016029953            0    0.4629347    1.4614002    1.9403649    5.9230322 
 2410000    1.0093623 -9.3055204e-05    0.4861961 0.00037333337            0   0.48582277    1.4888094    1.9750055    -4.377563 
 2415000    1.0110988 7.1723408e-07   0.35631103 0.0043713458            0   0.35193968    1.4913708    1.8476818     1.896645 
 2420000   0.99934083 -5.9348669e-05   0.48692165  0.015405325            0   0.47151632    1.4740277    1.9609494   -2.0905864 
 2425000   0.98814775 0.00012016522   0.38058111  0.016628156            0   0.36395296    1.4575179     1.838099    10.041378 
 2430000   0.99944927 -3.5914301e-05   0.41756456  0.003006329            0   0.41455823    1.4741877    1.8917522  -0.55999739 
 2435000    1.0881694 1.2208175e-05   0.52108131 0.0039339701            0   0.51714734    1.6050499    2.1261312    2.9595426 
 2440000     1.190256 -0.00010978641   0.52424937 0.0058355594            0   0.51841381    1.7556276    2.2798769   -5.2148756 
 2445000    1.0786895 -7.7015707e-05   0.59652962  0.040806416            0   0.55572321     1.591067    2.1875967   -3.0700089 
 2450000    1.2223945 4.3110268e-05    0.5084939   0.02343704            0   0.48505686    1.8030319    2.3115258    5.2545201 
 2455000   0.92326079 1.4133533e-05   0.40922463 0.0063435389            0   0.40288109    1.3618097    1.7710343    2.7358835 
 2460000   0.99879275 -4.1270086e-05   0.44501736 0.0061545728            0   0.43886279    1.4732193    1.9182367  -0.89913453 
 2465000    0.9295622 -0.00012632417   0.38404609 0.0032080847            0   0.38083801    1.3711042    1.7551503   -6.8685799 
 2470000   0.94313368 -8.2383268e-05   0.58977885  0.048484171            0   0.54129468    1.3911222     1.980901   -3.6431301 
 2475000    1.0723271 0.00010081921   0.57139748  0.048431388            0   0.52296609    1.5816825      2.15308    9.0356712 
 2480000   0.83664303 2.8668161e-05   0.48105239 0.0033442405            0   0.47770815    1.2340485    1.7151009    3.6721807 
 2485000   0.95121483 -2.2782443e-05   0.45848647  0.037374428            0   0.42111204    1.4030419    1.8615283   0.30624688 
 2490000    1.0873522 6.2028398e-06   0.48493344  0.031052401            0   0.45388104    1.6038445    2.0887779    2.5122251 
 2495000   0.95003739 -3.4648568e-05   0.57523935 0.00096858845            0   0.57427076    1.4013051    1.9765445  -0.38879777 
 2500000    1.1992938 -1.7239675e-05   0.67328794  0.088237932            0   0.58505001    1.7689584    2.4422463    1.2653511 
 2505000    1.2031227 -9.8552385e-05   0.83005681  0.010803441            0   0.81925336     1.774606    2.6046629     -4.12318 
 2510000    1.2413758 1.750406e-05   0.60318482  0.022598921            0    0.5805859    1.8310293    2.4342141     3.629158 
 2515000    0.9891189 1.5129199e-05    0.6706723   0.00218812            0   0.66848418    1.4589504    2.1296227    3.1624427 
 2520000    1.0891618 -4.414548e-05   0.45464923  0.010253316            0   0.44439591    1.6065137    2.0611629  -0.95250186 
 2525000   0.87623488 -2.0148366e-05   0.70449351  0.039361017            0   0.66513249    1.2924464      1.99694   0.62147817 
 2530000    1.0887708 1.2096989e-05   0.37156581 0.0038889087            0    0.3676769    1.6059369    1.9775027    2.8033238 
 2535000    1.0298634 0.00016419108   0.57438907 0.0056640888            0   0.56872498    1.5190485    2.0934376    13.302215 
 2540000    1.0053327 -1.1710529e-07   0.50342028  0.031523057            0   0.47189722    1.4828658    1.9862861    1.9782917 
 2545000    1.1748703 -1.7053162e-05   0.51208499 0.0082806755            0   0.50380432    1.7329337    2.2450187    1.0808562 
 2550000    1.1037306 3.2576042e-05   0.44540489  0.039047837            0   0.40635705    1.6280026    2.0734075    4.2972653 
 2555000    1.1272802 0.00014403127   0.57776192 0.00027364684            0   0.57748827    1.6627382    2.2405002    12.073035 
 2560000    1.0934751 3.073024e-05   0.45814771 0.0069308868            0   0.45121682    1.6128757    2.0710235    4.1688745 
 2565000    1.0944959 -4.6906217e-05   0.42449706 0.00041568654            0   0.42408137    1.6143815    2.0388785   -1.1632526 
 2570000    1.2982257 -3.9473158e-05   0.67958431  0.024170306            0     0.655414    1.9148829    2.5944672  -0.10023364 
 2575000    1.3359821 -1.8047027e-05   0.65501343            0            0   0.65501343    1.9705736    2.6255871    1.3935767 
 2580000    1.0386605 -3.2265959e-05   0.76466452  0.087677723            0   0.67698679    1.5320243    2.2966888  0.093999296 
 2585000    1.1343846 6.3389915e-05   0.59244801 0.0034644956            0   0.58898351    1.6732173    2.2656653    6.5930835 
 2590000   0.99767441 -5.3175927e-05    0.6904321 0.00058580275            0   0.68984629    1.4715698    2.1620018   -1.4681414 
 2595000   0.94338583 -3.4123533e-05     0.502581 0.0014336659            0   0.50114734    1.3914941    1.8940751  -0.43542478 
 2600000   0.96316941 6.9655401e-05   0.25639629 0.0008740258            0   0.25552227    1.4206749    1.6770712    6.4322132 
 2605000    1.0355653 -1.3527762e-05   0.46213391  0.022516667            0   0.43961724    1.5274589    1.9895928    1.0660976 
 2610000   0.79887434 4.2283292e-05   0.47881619 0.0018422585            0   0.47697393    1.1783397    1.6571558    4.5436952 
 2615000   0.89737527 1.9037176e-05   0.54416043  0.078357463            0   0.46580297    1.3236285     1.867789    3.1673935 
 2620000   0.94024517 0.00012500887   0.51451583  0.071409292            0   0.44310654    1.3868616    1.9013775    10.435316 
 2625000    0.9232804 -3.9295905e-05   0.57415239  0.010746798            0   0.56340559    1.3618386     1.935991  -0.74660948 
 2630000   0.81703097 0.00010391683   0.42779758  0.018957213            0   0.40884037    1.2051207    1.6329183     8.726974 
 2635000   0.99529821 6.9648119e-05   0.34104831  0.042367889            0   0.29868042    1.4680649    1.8091132    6.5637581 
 2640000    1.0301888 -3.1006435e-05   0.41483346  0.019235128            0   0.39559834    1.5195285     1.934362  -0.18234395 
 2645000   0.95768718 -1.7082003e-06   0.51296147  0.065778395            0   0.44718307    1.4125886      1.92555    1.8089369 
 2650000   0.88002661 -1.0514977e-05   0.39226687  0.029093447            0   0.36317342    1.2980393    1.6903061   0.97248367 
 2655000   0.99320911 4.9175853e-05   0.54565705 0.0016929461            0    0.5439641    1.4649834    2.0106405    5.3677121 
 2660000   0.88353643 -5.6602903e-05   0.47581215 0.0031202227            0   0.47269193    1.3032162    1.7790284   -2.0850631 
 2665000    1.1664337 -4.9117419e-05   0.42051508 0.0007345989            0   0.41978048    1.7204898    2.1410049   -1.2120776 
 2670000   0.98398875 -5.344392e-05   0.54784116  0.013080099            0   0.53476106    1.4513834    1.9992246   -1.6492137 
 2675000   0.95487685 6.0331998e-05   0.56964198 0.00032497723            0     0.569317    1.4084434    1.9780853    6.0967498 
 2680000    1.0950265 2.2047459e-06    0.6174206 0.0041559992            0    0.6132646    1.6151641    2.2325847    2.3830954 
 2685000   0.99035509 -6.5516815e-05   0.53630981 0.0005562314            0   0.53575358    1.4607738    1.9970836    -2.475531 
 2690000    1.0135339 0.00012100496   0.40023138  0.011887066            0   0.38834431    1.4949626    1.8951939    10.155799 
 2695000   0.99068707 1.1650368e-05   0.62410988 0.0047912932            0   0.61931859    1.4612634    2.0853733    2.8807051 
 2700000    1.0385022 -5.0927121e-05    0.6860678  0.023547554            0   0.66252025    1.5317907    2.2178585   -1.2587663 
 2705000    1.0952087 -1.5042379e-05   0.40735519  0.021716297            0   0.38563889    1.6154328     2.022788    0.9958949 
 2710000   0.99159699 -2.81833e-05   0.50747559  0.046235075            0   0.46124051    1.4626056    1.9700811  0.046101178 
 2715000    1.0071969 -8.4054168e-06   0.60586026  0.039756278            0   0.56610398    1.4856155    2.0914757     1.517666 
 2720000    1.0633081 2.358693e-05   0.53284462  0.017143652            0   0.51570096    1.5683794     2.101224    3.7114252 
 2725000   0.94616594 -6.002436e-05   0.71763205  0.014176878            0   0.70345517    1.3955948    2.1132268   -1.9844362 
 2730000    1.0441031 -6.645283e-05   0.50503971 2.0571435e-05            0   0.50501914     1.540052    2.0450917   -2.4914215 
 2735000     1.148881 -3.9478478e-05   0.65194247  0.047021708            0   0.60492077    1.6945995     2.346542  -0.34852213 
 2740000    1.0409777 -6.8952309e-06   0.67753604  0.090437809            0   0.58709823    1.5354421    2.2129782    1.7422638 
 2745000   0.96789434 1.6661981e-05   0.57882891  0.046537995            0   0.53229091    1.4276442    2.0064731     3.143931 
 2750000   0.88641339 -6.9627331e-05    0.5291238  0.059574411            0   0.46954939    1.3074597    1.8365835   -2.9166423 
 2755000    1.0428741 3.1403392e-05   0.40576359 0.0086752945            0    0.3970883    1.5382393    1.9440029    4.0878078 
 2760000    1.2064807 -5.1655989e-05   0.49508856  0.067895575            0   0.42719298     1.779559    2.2746475   -1.2517347 
 2765000    1.2746915 -2.3629986e-05   0.42969813 0.0033022246            0   0.42639591    1.8801699     2.309868   0.69672765 
 2770000    1.2066541 -8.7537866e-05   0.58640089  0.025157447            0   0.56124345    1.7798148    2.3662157   -3.6097026 
 2775000    1.1861207 -9.7629027e-06   0.51098581  0.010621643            0   0.50036417     1.749528    2.2605138     1.594033 
 2780000   0.93779847 -1.3362412e-05   0.53140739 0.0091282079            0   0.52227918    1.3832527    1.9146601    1.0024528 
 2785000    1.0900981 8.5012654e-05    0.4601508  0.064173228            0   0.39597757    1.6078947    2.0680455     7.871576 
 2790000   0.90040774  3.00821e-06   0.47696707 7.5323575e-06            0   0.47695954    1.3281014    1.8050685     2.010429 
 2795000   0.87342801 -3.8065496e-05   0.46752336  0.053214045            0   0.41430932    1.2883063    1.7558297  -0.84277483 
 2800000   0.96629885 3.5722288e-05   0.64130251  0.031928085            0   0.60937442    1.4252908    2.0665933    4.5052349 
 2805000    1.0368001 3.6051223e-05    0.5185865 0.0068935541            0   0.51169295    1.5292801    2.0478666    4.5089634 
 2810000    1.0831599 -5.7679765e-05   0.37749503            0            0   0.37749503    1.5976608    1.9751558   -1.9624495 
 2815000    1.0951229 -9.0345887e-06   0.56804765  0.008515751            0    0.5595319    1.6153063     2.183354    1.5665927 
 2820000   0.97439403 -8.3905395e-05   0.57962644  0.027029243            0    0.5525972    1.4372312    2.0168576    -3.711084 
 2825000    1.0191697 -6.2415172e-05   0.60519212  0.025005328            0   0.58018679    1.5032753    2.1084674   -2.1524084 
 2830000     1.097932 1.5488475e-05   0.50706885 0.0047677457            0    0.5023011    1.6194497    2.1265186    3.1838652 
 2835000   0.88207553 1.722002e-05   0.52740048  0.022866583            0    0.5045339    1.3010614    1.8284619    3.0040153 
 2840000    1.0420507 -7.0522255e-05   0.49996425  0.045702514            0   0.45426174    1.5370247     2.036989   -2.7773303 
 2845000    1.1101219 -1.6460768e-05   0.52001468  0.036897794            0   0.48311688    1.6374298    2.1574445    1.0337227 
 2850000   0.99979906 3.2252778e-05   0.60573081 0.0028172282            0   0.60291358    1.4747036    2.0804344    4.2822241 
 2855000    1.0118351 -4.6086438e-05   0.40792754 0.0062448031            0   0.40168273    1.4924568    1.9003843   -1.2457831 
 2860000    1.0067824 2.721519e-05   0.49466174 0.0075745999            0   0.48708714     1.485004    1.9796657     3.837556 
 2865000    1.0785864 -2.7845697e-06   0.52711074  0.003031086            0   0.52407965    1.5909149    2.1180256    1.9279323 
 2870000    1.0406303 5.3997806e-05   0.47052595  0.007727104            0   0.46279885    1.5349297    2.0054557    5.6917059 
 2875000    1.0401391 2.4938701e-05   0.46850163  0.018190473            0   0.45031116    1.5342052    2.0027068    3.7051888 
 2880000   0.86136448 0.0001224899   0.54119555  0.034895799            0   0.50629975    1.2705126    1.8117082    10.173685 
 2885000   0.91379994 0.00010975067   0.59605633   0.07886197            0   0.51719436    1.3478549    1.9439112    9.4362238 
 2890000   0.81354772 1.3715172e-05   0.50121751  0.047536109            0    0.4536814    1.1999829    1.7012004    2.6374895 
 2895000   0.93048762 -6.7409608e-05   0.52525811  0.012015902            0   0.51324221    1.3724692    1.8977273   -2.7041019 
 2900000    1.0842231 -1.4802133e-05   0.51813121  0.011819526            0   0.50631168    1.5992291    2.1173603    1.1068681 
 2905000    1.0393828 -6.5003944e-06   0.53983282  0.068977554            0   0.47085527    1.5330897    2.0729225    1.6291622 
 2910000    1.0269422 1.3393126e-05   0.51781515   0.00160233            0   0.51621282    1.5147398    2.0325549    2.9468589 
 2915000    0.9814684 -0.00010026666   0.61904499  0.019341483            0   0.59970351    1.4476659    2.0667109   -4.7781601 
 2920000   0.90780841 3.7234818e-05   0.54834097  0.047305124            0   0.50103585    1.3390174    1.8873584    4.4292553 
 2925000   0.74897473 -7.3089539e-06   0.53440281  0.014253681            0   0.52014913    1.1047377    1.6391405    1.1401826 
 2930000   0.86928306 1.3416969e-05    0.6490357  0.053839773            0   0.59519592    1.2821925    1.9312282      2.84716 
 2935000   0.87536517 5.4307993e-05   0.67946893  0.056583394            0   0.62288554    1.2911636    1.9706326    5.6780582 
 2940000    1.1575158 4.2452994e-06   0.43439371 0.00090246929            0   0.43349124    1.7073359    2.1417296     2.431542 
 2945000   0.87059604 5.9523494e-05   0.84319656 0.0076322075            0   0.83556435    1.2841292    2.1273257    6.1907962 
 2950000   0.99195605 5.8224617e-05   0.45079991  0.018888501            0   0.43191141    1.4631352    1.9139351    5.8887356 
 2955000   0.87411058 -5.2039585e-05   0.56794122  0.017268087            0   0.55067313    1.2893131    1.8572543   -1.6953146 
 2960000   0.97440811 -5.3883096e-05   0.59314496  0.033820844            0   0.55932411     1.437252    2.0303969   -1.6480224 
 2965000   0.87271822 0.00015786805   0.57783303  0.034238939            0   0.54359409    1.2872594    1.8650924    12.642218 
 2970000    1.0221802 -8.1046655e-05   0.56226928 0.0066167228            0   0.55565256    1.5077158    2.0699851   -3.4627999 
 2975000    1.0864343 4.9767902e-05   0.56055976  0.021781875            0   0.53877788    1.6024907    2.1630504    5.5605392 
 2980000   0.98947334 7.1454985e-05   0.64712188  0.018811854            0   0.62831002    1.4594732    2.1065951    6.9845887 
 2985000    1.0469275 4.7242366e-05   0.60760891   0.04384672            0   0.56376219     1.544218    2.1518269    5.3769058 
 2990000   0.89465896 5.1539475e-05    0.5544572  0.024747263            0   0.52970993     1.319622    1.8740792    5.3925073 
 2995000    1.0093129 5.9616271e-05   0.60039729  0.021663937            0   0.57873335    1.4887365    2.0891337    6.1589378 
 3000000    1.0232087 5.2323384e-05    0.5936481  0.004359597            0    0.5892885    1.5092328    2.1028809    5.6748239 
 3005000    1.1778454 5.7465428e-05   0.44831474  0.021830071            0   0.42648467     1.737322    2.1856367    6.1086099 
 3010000   0.93588164 6.3573812e-05    0.5574858  0.014195065            0   0.54329074    1.3804254    1.9379112    6.2778834 
 3015000   0.93442946 4.0340277e-06   0.63162964  0.028595403            0   0.60303424    1.3782834    2.0099131    2.2853027 
 3020000    1.0624028 -2.6903055e-05      0.35024  0.034346121            0   0.31589388    1.5670441    1.9172841  0.080702237 
 3025000   0.87241432 -6.7998225e-05   0.55917328 0.0040644575            0   0.55510882    1.2868111    1.8459844   -2.7960278 
 3030000    1.1387317 2.3428721e-05   0.28931171 0.0061035292            0   0.28320818    1.6796293     1.968941    3.5683417 
 3035000   0.92817806 1.7191551e-05    0.4681961  0.085602429            0   0.38259367    1.3690626    1.8372587    3.0108686 
 3040000   0.96171602 6.3072035e-05   0.51709035   0.02488758            0   0.49220277    1.4185311    1.9356215    6.2413391 
 3045000   0.98211092 6.4609495e-05   0.40837366 0.0035130923            0   0.40486057    1.4486136    1.8569873    6.2676621 
 3050000   0.96842668 -5.7805789e-05   0.43980439   0.02785585            0   0.41194854    1.4284294    1.8682337   -2.0779748 
 3055000   0.93360418 -7.3686272e-05   0.38545003  0.030261006            0   0.35518903    1.3770662    1.7625162      -3.2678 
 3060000    0.8389871 4.0750863e-05   0.48503076  0.056051192            0   0.42897956     1.237506    1.7225367    4.5044623 
 3065000    0.9225335 8.3672613e-05   0.35258932   0.02389954            0   0.32868978    1.3607369    1.7133262    7.4253766 
 3070000   0.83524973 -6.1030596e-05   0.37332617  0.034686063            0   0.33864011    1.2319934    1.6053195   -2.5610358 
 3075000    1.0160852 1.8322473e-05   0.34357286  0.039725713            0   0.30384715    1.4987257    1.8422985    3.0931127 
 3080000   0.93558504 5.3906662e-05   0.44262318   0.05145215            0   0.39117103    1.3799879    1.8226111    5.5026392 
 3085000   0.97900036 -9.8019857e-06   0.48965966  0.061327039            0   0.42833262    1.4440255    1.9336852    1.2645363 
 3090000   0.94111767 -9.677199e-05   0.48111006  0.042523025            0   0.43858703    1.3881486    1.8692586   -4.7370426 
 3095000   0.91355198 5.553879e-05   0.62568428  0.048811643            0   0.57687263    1.3474892    1.9731734    5.7646215 
 3100000    1.1029075 -4.5995003e-05   0.39188208  0.031287439            0   0.36059464    1.6267885    2.0186706   -1.1212549 
 3105000   0.90305879 -4.5857106e-06   0.49749188 0.00074572236            0   0.49674616    1.3320117    1.8295036    1.5164524 
 3110000   0.92904229 -5.3300128e-05    0.4573128  0.030731491            0   0.42658131    1.3703374    1.8276502   -1.8109719 
 3115000   0.86003092 -2.9119399e-05    0.5627742  0.046355061            0   0.51641914    1.2685456    1.8313198  -0.15656449 
 3120000   0.99521504 7.3370611e-05   0.50989184 0.0076933558            0   0.50219848    1.4679422     1.977834     6.986601 
 3125000    1.0427597 -4.3068237e-05   0.42572907  0.014279523            0   0.41144955    1.5380706    1.9637997  -0.97632528 
 3130000     1.092774 1.1767259e-05   0.66575833  0.015779181            0   0.64997915    1.6118416    2.2775999    3.0809115 
 3135000    1.0269216 -4.3617152e-05   0.40090529  0.017561026            0   0.38334426    1.5147094    1.9156147   -1.0619829 
 3140000    1.0067992 -6.1952937e-05   0.56081333   0.02816638            0   0.53264695    1.4850289    2.0458422   -2.1834783 
 3145000    1.2109456 -6.1298722e-05   0.37503085 0.0056785044            0   0.36935235    1.7861448    2.1611756   -2.0234838 
 3150000    1.1018955 -6.5318066e-05   0.36393447  0.028270477            0   0.33566399    1.6252959    1.9892304   -2.4698163 
 3155000    1.2621802 -0.00017594272   0.48665191 0.0053199502            0   0.48133196    1.8617158    2.3483677   -9.6626551 
 3160000    1.0189844 1.3676919e-05   0.44066064  0.014095433            0   0.42656521     1.503002    1.9436626    2.8773403 
 3165000   0.89279734 -5.5914388e-05   0.52030363 0.0059402142            0   0.51436342    1.3168761    1.8371797   -1.9799092 
 3170000   0.95636728 4.7862461e-05    0.4700051 0.0046412018            0    0.4653639    1.4106417    1.8806468    5.1480575 
 3175000     1.006862 4.4726094e-06   0.51432376 0.0017738609            0    0.5125499    1.4851214    1.9994452    2.3047753 
 3180000    1.1705925 -1.1122406e-05    0.3844282  0.031844948            0   0.35258325    1.7266239    2.1110521    1.3517625 
 3185000    0.9229225 -4.1895124e-05   0.45374156  0.040723031            0   0.41301853    1.3613107    1.8150522   -1.0449882 
 3190000    1.0649084 -6.8759817e-06   0.40416274  0.031511031            0   0.37265171    1.5707398    1.9749026    1.5055022 
 3195000    1.0550546 0.00011557824   0.55591223  0.031331065            0   0.52458116    1.5562055    2.1121177    10.002259 
 3200000   0.88911865 -6.2888788e-05   0.68135322 0.0024145154            0    0.6789387      1.31145    1.9928032   -2.3004047 
 3205000   0.92158875 7.6894972e-05   0.63841021  0.031933894            0   0.60647631    1.3593434    1.9977536     7.247117 
 3210000   0.79358634 8.1167144e-05   0.55184126  0.058634547            0   0.49320671    1.1705399    1.7223811    7.2633915 
 3215000    1.1029288 8.1177693e-05   0.37665117 0.0098710981            0   0.36678007    1.6268199    2.0034711    7.5452016 
 3220000    0.9542692 -4.3670038e-05    0.4361784 1.7823507e-05            0   0.43616058    1.4075471    1.8437255   -1.1374825 
 3225000    1.0954791 4.7775775e-05   0.70267799  0.045881015            0   0.65679697    1.6158317    2.3185097    5.5800026 
 3230000    0.8935513 2.1026447e-05   0.64468495  0.053058692            0   0.59162626    1.3179882    1.9626731    3.3980786 
 3235000    1.2579709 2.9391056e-05   0.47915897 0.0038148522            0   0.47534411    1.8555071    2.3346661    4.3410955 
 3240000    1.1574822 -2.3310327e-05    0.4582882  0.017756269            0   0.44053193    1.7072863    2.1655745   0.57425621 
 3245000     1.017609 -0.00012267181   0.58990543 0.0041781117            0   0.58572731    1.5009732    2.0908787   -6.2835168 
 3250000   0.90867489 2.1802687e-05   0.59267252  0.013059485            0   0.57961304    1.3402955     1.932968    3.4213648 
 3255000   0.84514497 5.8875483e-05   0.52281792  0.011489782            0   0.51132814    1.2465888    1.7694067    5.7886397 
 3260000   0.95107646 -1.4258356e-05   0.49232679 0.0037146119            0   0.48861218    1.4028378    1.8951646   0.92179415 
 3265000   0.99317225 8.8009094e-06   0.51534612 0.0074879678            0   0.50785815    1.4649291    1.9802752    2.5810839 
 3270000    0.9574748 1.6241004e-05   0.48231865  0.010435921            0   0.47188273    1.4122753     1.894594    3.0033132 
 3275000   0.92461533 -9.2409966e-06   0.57464088   0.05173717            0   0.52290372    1.3638076    1.9384485    1.3075965 
 3280000    1.2166488 -0.00011167382   0.62519804 0.0068767124            0   0.61832133     1.794557    2.4197551   -5.2038444 
 3285000     1.107374 0.0001582757   0.51854507 0.0072914211            0   0.51125365    1.6333767    2.1519217    12.956876 
 3290000     1.112113 5.0435877e-05   0.40224635  0.010062197            0   0.39218415    1.6403667    2.0426131    5.4857022 
 3295000   0.94955792 8.1958687e-05   0.55659249  0.074749966            0   0.48184252    1.4005979    1.9571904    7.5522368 
 3300000   0.97100835 3.3902169e-05   0.54623524  0.032398117            0   0.51383712    1.4322373    1.9784726    4.2928606 
 3305000    1.0287396 -6.804716e-05    0.3826756            0            0    0.3826756     1.517391    1.9000666   -2.7452862 
 3310000    1.2620548 -5.5494111e-05   0.27984366 0.0023941662            0    0.2774495    1.8615309    2.1413745   -1.6470234 
 3315000    1.0391261 7.7431416e-06   0.45394318 0.0028001044            0   0.45114308     1.532711    1.9866542    2.5152526 
 3320000     1.066941 0.00010010468   0.44867214   0.01147606            0   0.43719608    1.5737379      2.02241    8.8562228 
 3325000    1.0814594 0.0001048009   0.29419833 0.0092513072            0   0.28494702    1.5951526     1.889351    9.0437587 
 3330000   0.97266805 -7.1942756e-05   0.46087331  0.012843456            0   0.44802986    1.4346854    1.8955587   -3.0157335 
 3335000   0.87642179 -8.3647829e-05   0.50847107  0.042566313            0   0.46590476    1.2927221    1.8011932   -3.9091652 
 3340000    1.1270724 -2.7006126e-05   0.49663639  0.033060325            0   0.46357607    1.6624318    2.1590682   0.31545002 
 3345000   0.94661452 4.3384177e-05   0.59644666   0.01397524            0   0.58247142    1.3962564    1.9927031    4.9543963 
 3350000    1.0136947 6.6021463e-05   0.67419772  0.061317058            0   0.61288066    1.4951997    2.1693974    6.6764627 
 3355000    1.1173348 -3.1311822e-05   0.40759828 0.0027577031            0   0.40484057    1.6480689    2.0556671 -0.081886576 
 3360000   0.98467436 -8.9262503e-05   0.44079759 0.0067432327            0   0.43405435    1.4523947    1.8931923   -4.2004613 
 3365000    1.1158078 -7.9609322e-05   0.42799588  0.016932849            0   0.41106303    1.6458166    2.0738124   -3.3608506 
 3370000    1.0690328 -6.609497e-06   0.31854496  0.026195784            0   0.29234917    1.5768233    1.8953683      1.44416 
 3375000   0.91359136 -3.8134635e-05   0.48362432  0.022087937            0   0.46153638    1.3475473    1.8311716  -0.77215284 
 3380000    0.9607678 -5.4682849e-05    0.4758593 0.00011867808            0   0.47574062    1.4171325    1.8929918    -1.840024 
 3385000    1.1383525 0.00010021245   0.42158579  0.010956561            0   0.41062922    1.6790699    2.1006557    8.9418257 
 3390000      1.06936 -1.5303716e-05   0.49003482  0.028696243            0   0.46133858     1.577306    2.0673409    1.0226072 
 3395000   0.94834345 -5.3944266e-05   0.51626704 0.0034990245            0   0.51276802    1.3988066    1.9150736   -1.7675216 
 3400000   0.79764129 4.9495983e-05   0.60320894  0.014307411            0   0.58890153    1.1765209    1.7797298    5.1586556 
 3405000   0.97771379 -4.7427408e-05   0.39136316 0.0098888297            0   0.38147433    1.4421278     1.833491     -1.40422 
 3410000    0.9373334 3.491464e-05   0.53636912  0.018633563            0   0.51773556    1.3825668    1.9189359     4.302442 
 3415000   0.94100048 1.3109616e-07   0.44222272 0.00044261093            0    0.4417801    1.3879757    1.8301984    1.8391479 
 3420000   0.96166021 -6.5738435e-05    0.4647375  0.008301917            0   0.45643559    1.4184488    1.8831863   -2.6045575 
 3425000   0.99011138 2.1265471e-05    0.5535118 0.0084050548            0   0.54510675    1.4604143    2.0139261    3.4656489 
 3430000    1.0885149 -5.8549336e-05   0.51028417  0.029425716            0   0.48085845    1.6055595    2.1158437   -1.8811243 
 3435000    1.1476868 -3.0062305e-05   0.40416033 0.00079489424            0   0.40336543     1.692838    2.0969983   0.04474498 
 3440000    1.1686228 -5.5169557e-05   0.32288671 0.0074745181            0   0.31541219    1.7237187    2.0466054   -1.7196364 
 3445000    1.1570874 -9.1469903e-06   0.43792918  0.039197092            0   0.39873209    1.7067039    2.1446331    1.5201986 
 3450000    1.1065846 0.00011099312   0.55698805  0.020106084            0   0.53688197    1.6322122    2.1892003    9.7663305 
 3455000    1.0734779 4.3795152e-05   0.65576549  0.076242351            0   0.57952314      1.58338    2.2391454    5.2288945 
 3460000    1.0215349 7.671164e-06    0.5819097 0.0045777604            0   0.57733194     1.506764    2.0886737    2.6123585 
 3465000    0.8921547 -5.2436311e-05   0.61937291  0.018203501            0   0.60116941    1.3159282    1.9353011   -1.6443511 
 3470000   0.94466044 -0.00013621237   0.61454452 0.00059067621            0   0.61395384    1.3933742    2.0079187   -7.2908459 
 3475000    1.0178842 7.8777945e-05     0.659324  0.017890981            0   0.64143301    1.5013793    2.1607032     7.538611 
 3480000    1.0443899 -4.1789416e-05   0.47424256  0.010379922            0   0.46386264    1.5404751    2.0147177  -0.83810647 
 3485000    1.0428419 6.5775638e-05   0.52522302   0.02025826            0   0.50496476    1.5381919    2.0634149    6.5536984 
 3490000    1.0265705 -0.00010193659   0.60779487  0.020895409            0   0.58689946    1.5141915    2.1219864   -4.8368851 
 3495000   0.91692106 9.3255002e-05   0.44688269 4.3807072e-05            0   0.44683889    1.3524586    1.7993413    8.1655494 
 3500000   0.94920706 -0.00015041769   0.29460118 0.0046739056            0   0.28992728    1.4000804    1.6946816   -8.5738328 
 3505000   0.97554414 8.344443e-05   0.43618536 0.0067315759            0   0.42945379    1.4389276     1.875113    7.5715861 
 3510000   0.88166765 6.6487321e-05   0.57283539  0.070762849            0   0.50207254    1.3004598    1.8732952    6.4121629 
 3515000    1.0866823 -0.00011598995   0.68075572 0.0018242736            0   0.67893144    1.6028564    2.2836121   -5.6346351 
 3520000    1.0352699 7.3016568e-05   0.64228118  0.024204134            0   0.61807705     1.527023    2.1693042    7.1539019 
 3525000   0.97313872 3.7942626e-06   0.65471339  0.010369438            0   0.64434395    1.4353796     2.090093    2.3491147 
 3530000    1.2246041 7.0072948e-05    0.6254054 0.0099739626            0   0.61543143     1.806291    2.4316964     7.215343 
 3535000    1.1108084 -0.00011854153   0.52716874  0.051788628            0   0.47538012    1.6384424    2.1656111   -5.9268238 
 3540000    1.1070113 5.4206167e-05   0.51795442  0.073195078            0   0.44475934    1.6328417    2.1507961    5.8512704 
 3545000    1.0939706 2.4710975e-05   0.59390386   0.07361731            0   0.52028655    1.6136067    2.2075106    3.8944464 
 3550000   0.95623256 2.7839888e-05    0.7481936  0.030319116            0   0.71787448     1.410443    2.1586366     4.059173 
 3555000    1.0156565 -9.4077085e-05   0.62235463  0.031092725            0    0.5912619    1.4980934     2.120448    -4.301881 
 3560000    1.1074637 0.00013943198   0.48123666 0.0080504605            0    0.4731862    1.6335089    2.1147456    11.633302 
 3565000    1.0023448 3.5374536e-05   0.56270613  0.018291876            0   0.54441426    1.4784586    2.0411648    4.4560664 
 3570000    0.9967199 -7.6838741e-05   0.48367377 0.0010730627            0   0.48260071    1.4701619    1.9538356   -3.2916891 
 3575000    0.9333807 8.9770408e-05   0.55751633            0            0   0.55751633    1.3767365    1.9342529    8.0625794 
 3580000    1.0465348 4.8962789e-05   0.57514418 0.0038510775            0    0.5712931    1.5436388     2.118783    5.4613094 
 3585000   0.94538928 -6.3839506e-05   0.51106315 0.0043002171            0   0.50676293    1.3944492    1.9055123    -2.452598 
 3590000   0.89092023 3.5867306e-05   0.52461537  0.093682107            0   0.43093326    1.3141073    1.8387227    4.2872641 
 3595000      1.02713 3.2592447e-05   0.49071827  0.070480246            0   0.42023802    1.5150167     2.005735    4.2307127 
 3600000   0.91325891 -7.8208822e-05   0.51215177  0.014574226            0   0.49757754    1.3470569    1.8592087   -3.4798469 
 3605000    1.1774248 -9.8482896e-05   0.47647183            0            0   0.47647183    1.7367016    2.2131735   -4.5099256 
 3610000    1.1477409 4.9793284e-05   0.50486732  0.027505794            0   0.47736152    1.6929179    2.1977852    5.5970067 
 3615000    1.1531497 3.7615082e-05   0.37757652  0.032226815            0    0.3453497    1.7008958    2.0784724    4.6463286 
 3620000    1.0330904 -3.0178989e-05   0.55105887  0.050810443            0   0.50024843    1.5238083    2.0748671  0.014648181 
 3625000    1.0060147 -6.0909819e-05   0.48406982  0.016650208            0   0.46741961    1.4838716    1.9679414   -2.1901689 
 3630000    0.9563168 4.6968831e-05   0.47266572 0.0049520309            0   0.46771369    1.4105673     1.883233    5.0896385 
 3635000    0.7885128 -7.2434682e-06   0.53427053  0.045256711            0   0.48901382    1.1630564    1.6973269    1.2028395 
 3640000    1.0648871 -9.9057919e-05   0.47583574  0.020158693            0   0.45567704    1.5707085    2.0465443   -4.7158097 
 3645000    1.0139574 1.2638491e-05   0.43224871 0.0064876503            0   0.42576106    1.4955872    1.9278359    2.7906236 
 3650000    0.9482353 4.5923912e-05   0.40934819  0.027737734            0   0.38161046    1.3986471    1.8079953    4.9430676 
 3655000   0.89153511 8.9687597e-05   0.40530252 0.0091655113            0   0.39613701    1.3150143    1.7203168    7.8429901 
 3660000   0.92596446 -5.4773295e-05   0.41743471            0            0   0.41743471    1.3657976    1.7832323    -1.955958 
 3665000   0.95063987 -3.3045612e-05   0.38210067 0.0086171427            0   0.37348352    1.4021938    1.7842945  -0.47161934 
 3670000   0.89363854 0.0001017482   0.34712765 0.0033426392            0   0.34378501    1.3181169    1.6652445    8.6112549 
 3675000     1.027227  1.83081e-05    0.4756879  0.042732592            0   0.43295531    1.5151598    1.9908477    3.2406807 
 3680000    1.1098582 6.6771454e-05   0.52957105 2.5862179e-05            0   0.52954519    1.6370409    2.1666119    6.7248765 
 3685000    1.1223439 4.9190582e-05   0.51182807  0.048139126            0   0.46368894    1.6554573    2.1672854    5.5253624 
 3690000    1.1405402 -2.9451233e-05   0.63258435   0.09162443            0   0.54095992    1.6822969    2.3148812   0.30434374 
 3695000     1.000239 -9.5177748e-05   0.77566959   0.08873551            0   0.68693408    1.4753526    2.2510222   -4.2464454 
 3700000   0.84599357 2.5420568e-05   0.71651247   0.13460994            0   0.58190253    1.2478405     1.964353    3.6997304 
 3705000     0.900109 -6.0358593e-05   0.48208916   0.01484978            0   0.46723938    1.3276608    1.8097499     -2.31073 
 3710000     1.158409 0.00010695463   0.40663842 0.0072593008            0   0.39937912    1.7086532    2.1152916    9.4167274 
 3715000    1.0252484 7.702491e-05   0.61069298   0.05581145            0   0.55488153    1.5122413    2.1229343    7.3811682 
 3720000   0.99511093 2.8933139e-05   0.46317364  0.031813357            0   0.43136029    1.4677886    1.9309623    3.9061312 
 3725000   0.94949119 -8.2555661e-05   0.54186997  0.012113661            0   0.52975631    1.4004995    1.9423695   -3.6934303 
 3730000    1.1026931 7.3588324e-05    0.4605058 0.00021039916            0    0.4602954    1.6264723    2.0869781    7.1106077 
 3735000    1.0426744 -5.3413785e-05    0.3573831  0.024142155            0   0.33324094    1.5379447    1.8953278   -1.7510533 
 3740000    1.0517403 -2.2376415e-05     0.538169  0.015821788            0   0.52234721    1.5513169     2.089486   0.56192272 
 3745000   0.81962915 -8.3622338e-05   0.45088038  0.070812244            0   0.38006814     1.208953    1.6598334   -4.0487849 
 3750000   0.89088557 3.1348371e-05   0.46465674  0.023175766            0   0.44148098    1.3140562     1.778713    3.9187618 
 3755000    1.0377097 -1.4224265e-05   0.46038379  0.013178043            0   0.44720575    1.5306218    1.9910056    1.0199625 
 3760000   0.90220144 -3.9419436e-05    0.5987572  0.018020311            0   0.58073689    1.3307471    1.9295043  -0.76152919 
 3765000   0.91829105 -1.2243979e-05    0.5710447  0.021182478            0   0.54986222    1.3544793     1.925524    1.0896683 
 3770000    1.0689374 1.6113986e-05   0.36127052  0.019573716            0    0.3416968    1.5766827    1.9379532    3.0380013 
 3775000   0.88339547 -5.7378038e-05   0.65903354  0.013454404            0   0.64557914    1.3030083    1.9620419   -1.9549655 
 3780000    1.0326086 5.0758945e-05   0.38474867 0.0041182777            0   0.38063039    1.5230976    1.9078463    5.3729903 
 3785000    1.0260184 1.1363514e-05   0.57762339  0.018892594            0    0.5587308    1.5133772    2.0910006    2.8667498 
 3790000    1.0923778 5.3368459e-05   0.52830952  0.025882636            0   0.50242689    1.6112572    2.1395667    5.7828535 
 3795000    1.1545898 2.787246e-05   0.50571525  0.046767747            0    0.4589475    1.7030199    2.2087352    4.1114951 
 3800000    1.1275896 -0.00010757162   0.62440517  0.099873711            0   0.52453146    1.6631947    2.2875999   -5.0559558 
 3805000    1.0282596 -3.8555976e-05    0.4861323  0.010029157            0   0.47610314    1.5166829    2.0028152  -0.62927274 
 3810000   0.93167739 -7.9940716e-05   0.65364706  0.003704008            0   0.64994305    1.3742241    2.0278712    -3.429415 
 3815000    1.1424207 -3.2543516e-05   0.67774483  0.018004357            0   0.65974047    1.6850705    2.3628154   0.14117803 
 3820000    1.1861938 5.0698935e-05   0.51445385  0.017277738            0   0.49717611    1.7496358    2.2640896    5.7251369 
 3825000    1.1769126 2.8534318e-05   0.54138643 0.0053972762            0   0.53598915    1.7359461    2.2773325    4.2252753 
 3830000    1.1425428 -2.2214952e-05   0.55161659 0.0094653246            0   0.54215127    1.6852507    2.2368673   0.72032657 
 3835000    1.1484058 -0.00010657454   0.63452677  0.017615813            0   0.61691096    1.6938985    2.3284253   -4.9470631 
 3840000    1.1107138 3.8838948e-05   0.70048836 0.0028049607            0    0.6976834    1.6383029    2.3387912    4.9901967 
 3845000    1.0385824 1.459943e-05   0.67786041  0.053312642            0   0.62454777    1.5319091    2.2097695     3.206424 
 3850000   0.88568609 -7.9577963e-06   0.46087864  0.028333783            0   0.43254485     1.306387    1.7672656    1.2240134 
 3855000   0.87620375 1.9603213e-05   0.53517301 0.0066261568            0   0.52854686    1.2924005    1.8275735    3.1658196 
 3860000    1.0895708 0.00010377741   0.34664727   0.01380416            0   0.33284311    1.6071169    1.9537642    9.0383021 
 3865000    0.9170786 0.00012219634   0.59459003  0.022269924            0    0.5723201    1.3526909     1.947281    10.289218 
 3870000   0.95659558 9.3851135e-06   0.48856437   0.03388958            0   0.45467479    1.4109785    1.8995428    2.5402333 
 3875000     0.816332 -2.1665504e-05   0.56561514  0.024954759            0   0.54066039    1.2040897    1.7697048   0.29067312 
 3880000   0.84319546 6.4579658e-05   0.46574783   0.01650711            0   0.44924072    1.2437133    1.7094611    6.1180991 
 3885000   0.99477918 -4.4779527e-05   0.42482088 0.0053458865            0     0.419475    1.4672993    1.8921202   -1.1648289 
 3890000    1.1371809 1.4661868e-05   0.48237484  0.018240641            0    0.4641342    1.6773418    2.1597167    3.1606335 
 3895000      1.02204 -5.9178809e-05   0.45551181   0.03285961            0    0.4226522    1.5075091    1.9630209   -2.0769191 
 3900000    1.0245779 3.752799e-05   0.60291785  0.012664191            0   0.59025366    1.5112524    2.1141703    4.6760811 
 3905000    1.0411525 -4.69909e-05   0.58806922 0.0057648026            0   0.58230442       1.5357    2.1237692   -1.0841429 
 3910000    1.1040873 9.223045e-06   0.65227347  0.024576772            0    0.6276967    1.6285288    2.2808023    2.9104288 
 3915000    1.2100785 6.8154577e-05   0.52694469  0.010469999            0   0.51647469    1.7848658    2.3118105    6.9644963 
 3920000    1.0965387 0.00016454784   0.63743952  0.076655246            0   0.56078427    1.6173946    2.2548341    13.487966 
 3925000    1.1631335 -8.4956961e-05   0.52421721 0.00021901549            0    0.5239982    1.7156219    2.2398391   -3.5598894 
 3930000    1.0487539 2.6940177e-05   0.40293723  0.044782735            0   0.35815449     1.546912    1.9498492    3.7889653 
 3935000    1.0846223 -1.6165716e-05   0.54548017 0.0049203169            0   0.54055986    1.5998179    2.1452981    1.0417186 
 3940000    1.1322426 2.1857973e-05   0.37125849 0.0054448943            0    0.3658136    1.6700578    2.0413163    3.5334873 
 3945000     1.168511 -5.6262185e-05   0.48349801  0.040392111            0    0.4431059    1.7235538    2.2070518   -1.6337801 
 3950000     1.163426 7.2414251e-05   0.43214275  0.056107931            0   0.37603482    1.7160533    2.1481961    7.0916756 
 3955000    1.0727654 -0.00012526304    0.4533956 0.0053020431            0   0.44809355     1.582329    2.0357246   -6.5155653 
 3960000    0.9207548 6.4119314e-05     0.567921  0.014324422            0   0.55359658    1.3581133    1.9260343    6.3032462 
 3965000    1.0467507 0.00012291362   0.51811009  0.065477759            0   0.45263233    1.5439574    2.0620674     10.45297 
 3970000    1.2591102 4.0535457e-06   0.41852564 0.00054146689            0   0.41798418    1.8571876    2.2757132    2.5524353 
 3975000    1.0704414 6.2611954e-05   0.47400517  0.027907958            0   0.44609721     1.578901    2.0529062    6.3272156 
 3980000    1.0853878 0.00011000147   0.51517714  0.021536143            0     0.493641    1.6009469    2.1161241     9.625558 
 3985000   0.95239625 1.1482801e-05   0.56854847  0.027360674            0   0.54118779    1.4047845    1.9733329    2.7572255 
 3990000    0.8633906 -1.3897362e-05    0.4335534   0.02502949            0   0.40852391    1.2735011    1.7070545   0.75832793 
 3995000   0.96243367 -3.6435617e-05   0.50135723  0.034210631            0    0.4671466    1.4195897    1.9209469  -0.56639125 
 4000000   0.93364472 -9.883745e-05   0.49595483  0.038467952            0   0.45748688     1.377126    1.8730808   -4.8742225 
Loop time of 211.182 on 1 procs for 2000000 steps with 60 atoms

Performance: 818253.431 tau/day, 9470.526 timesteps/s
99.3% CPU use with 1 MPI tasks x no OpenMP threads

MPI task timing breakdown:
Section |  min time  |  avg time  |  max time  |%varavg| %total
---------------------------------------------------------------
Pair    | 0.72973    | 0.72973    | 0.72973    |   0.0 |  0.35
Bond    | 1.8587     | 1.8587     | 1.8587     |   0.0 |  0.88
Neigh   | 178.97     | 178.97     | 178.97     |   0.0 | 84.75
Comm    | 24.866     | 24.866     | 24.866     |   0.0 | 11.77
Output  | 0.041541   | 0.041541   | 0.041541   |   0.0 |  0.02
Modify  | 4.0845     | 4.0845     | 4.0845     |   0.0 |  1.93
Other   |            | 0.6331     |            |       |  0.30

Nlocal:        60.0000 ave          60 max          60 min
Histogram: 1 0 0 0 0 0 0 0 0 0
Nghost:        0.00000 ave           0 max           0 min
Histogram: 1 0 0 0 0 0 0 0 0 0
Neighs:        26.0000 ave          26 max          26 min
Histogram: 1 0 0 0 0 0 0 0 0 0

Total # of neighbors = 26
Ave neighs/atom = 0.43333333
Ave special neighs/atom = 5.8000000
Neighbor list builds = 38491
Dangerous builds = 0
write_restart restart.rerun.1
System init for write_restart ...
WARNING: Communication cutoff 1.4200000000000002 is shorter than a bond length based estimate of 1.8. This may lead to errors. (../comm.cpp:667)
#--------------End of Input file ------------------
Total wall time: 0:03:31
