LAMMPS (29 Oct 2020)
###################### polyelectrolyte complexation ######################
clear

#Initialization
#------------------------------------
units				lj
dimension			3
atom_style			full
boundary			p p p

#Atom Definition
#-------------------------------------
read_restart			restart.equil
Reading restart file ...
  restart file = 29 Oct 2020, LAMMPS = 29 Oct 2020
  restoring atom style full from restart
  orthogonal box = (-80.000000 -80.000000 -80.000000) to (80.000000 80.000000 80.000000)
  1 by 1 by 1 MPI processor grid
  restoring pair style lj/cut from restart
  restoring bond style harmonic from restart
  60 atoms
  59 bonds
Finding 1-2 1-3 1-4 neighbors ...
  special bond factors lj:    0.0      1.0      1.0     
  special bond factors coul:  0.0      0.0      0.0     
     2 = max # of 1-2 neighbors
     2 = max # of 1-3 neighbors
     4 = max # of 1-4 neighbors
     6 = max # of special neighbors
  special bonds CPU = 0.000 seconds
  read_restart CPU = 0.002 seconds

#Force definition
#----------------------------------------------
#Bond definition
bond_style			harmonic
bond_coeff			1 5000 1
#Pair definition
special_bonds	lj 0 1 1
dielectric		80
pair_style		 lj/cut 1.12
pair_modify 		 shift yes
pair_coeff	1 1 1 1 1.12

#Timestep etc
#--------------------------------------------
timestep		0.001
run_style		verlet
velocity		all	create	1	5

#Fix
#---------------------------------------
group polymers type 1
60 atoms in group polymers
fix 1 all nve
fix 2 all langevin 1	1	1000	5

#Dump
#------------------------------------------------
compute  1 all gyration
variable  myRg2 equal c_1
variable  i equal step
fix  mythermofile all print 5000 "$i ${myRg2}" file radius_of_gyration.dat screen no

thermo_style		 custom step temp press pe evdwl ecoul ebond ke etotal enthalpy
thermo 	5000
dump	3 all custom 5000 dump.lammpstrj id mol type xu yu zu
run		2000000
Neighbor list info ...
  update every 1 steps, delay 10 steps, check yes
  max neighbors/atom: 2000, page size: 100000
  master list distance cutoff = 1.42
  ghost atom cutoff = 1.42
  binsize = 0.71, bins = 226 226 226
  1 neighbor lists, perpetual/occasional/extra = 1 0 0
  (1) pair lj/cut, perpetual
      attributes: half, newton on
      pair build: half/bin/newton
      stencil: half/bin/3d/newton
      bin: standard
WARNING: Communication cutoff 1.4200000000000002 is shorter than a bond length based estimate of 1.8. This may lead to errors. (../comm.cpp:667)
Per MPI rank memory allocation (min/avg/max) = 54.71 | 54.71 | 54.71 Mbytes
Step Temp Press PotEng E_vdwl E_coul E_bond KinEng TotEng Enthalpy 
 2000000            1 -0.00012130765   0.43871753 0.0060657727            0   0.43265176        1.475    1.9137175   -6.3675516 
 2005000    1.0523445 -9.1800646e-06   0.38590647  0.014763538            0   0.37114294    1.5522081    1.9381145    1.3114221 
 2010000   0.99953576 -4.5062942e-06    0.4738254  0.018008014            0   0.45581739    1.4743153    1.9481407     1.640511 
 2015000   0.98422368 1.3598861e-05    0.4931299   0.01277087            0   0.48035903    1.4517299    1.9448598    2.8732087 
 2020000    0.9950241 3.8852455e-05   0.50911722  0.019287299            0   0.48982992    1.4676605    1.9767778    4.6291054 
 2025000    1.0386769 -7.250181e-06   0.44947902  0.045928611            0   0.40355041    1.5320485    1.9815275    1.4865818 
 2030000   0.97090748 4.8336242e-05   0.59306127 0.0031700641            0    0.5898912    1.4320885    2.0251498    5.3249039 
 2035000    1.0203366 6.0218279e-05   0.50053899  0.008531481            0   0.49200751    1.5049965    2.0055355    6.1164367 
 2040000    1.0473351 -4.9941342e-05    0.4461706 0.0052905405            0   0.44088006    1.5448193    1.9909899    -1.418339 
 2045000    1.0310748 6.659649e-05   0.47048791    0.0111862            0   0.45930171    1.5208354    1.9913233    6.5376437 
 2050000    1.0415571 2.3419251e-05   0.44564344  0.019471366            0   0.42617207    1.5362967    1.9819402    3.5806944 
 2055000   0.93118619 2.1682605e-05   0.58177806   0.10905413            0   0.47272393    1.3734996    1.9552777    3.4354769 
 2060000   0.91662094 -2.3396853e-05   0.61748699 6.0803741e-05            0   0.61742619    1.3520159    1.9695029   0.37227769 
 2065000   0.97996298 8.9618553e-05   0.49856162            0            0   0.49856162    1.4454454     1.944007    8.0619669 
 2070000   0.92527003 2.6897719e-05   0.56109449  0.027340106            0   0.53375439    1.3647733    1.9258678    3.7620854 
 2075000   0.99507578 -9.0925972e-05   0.41714611 0.0035412082            0    0.4136049    1.4677368    1.8848829   -4.3223302 
 2080000   0.94131298 2.9609118e-05   0.50523885 0.00091315503            0   0.50432569    1.3884366    1.8936755    3.9149913 
 2085000   0.94677783 2.344088e-05   0.47891271  0.017491775            0   0.46142093    1.3964973      1.87541    3.4756407 
 2090000   0.99423483 -3.4691996e-06   0.39592872 0.0062781751            0   0.38965055    1.4664964    1.8624251    1.6255944 
 2095000   0.98508907 -7.7923359e-05   0.43292113 0.0059634095            0   0.42695772    1.4530064    1.8859275   -3.4336405 
 2100000    1.0078939 2.9245302e-05   0.41683196  0.014081358            0    0.4027506    1.4866435    1.9034755    3.8999548 
 2105000   0.95894332 -1.8256097e-05   0.45955128  0.037136345            0   0.42241494    1.4144414    1.8739927   0.62770982 
 2110000    0.9398832 6.4212475e-05   0.51658781 0.0035013684            0   0.51308644    1.3863277    1.9029155    6.2864871 
 2115000   0.96667564 -2.5967293e-05     0.493625  0.015155836            0   0.47846916    1.4258466    1.9194716   0.14677101 
 2120000   0.98696114 7.1523699e-05   0.44865711 0.0052869027            0    0.4433702    1.4557677    1.9044248    6.7871093 
 2125000   0.99179415 -1.9323723e-05    0.4554639            0            0    0.4554639    1.4628964    1.9183603   0.59919409 
 2130000    1.0078885 5.9194328e-05   0.44717218  0.027673206            0   0.41949897    1.4866355    1.9338077    5.9748072 
 2135000    1.0513652 -0.00012138425   0.42124394 0.0024421802            0   0.41880176    1.5507637    1.9720076   -6.3144907 
 2140000    1.0741261 -4.1817293e-05   0.42144451  0.021487764            0   0.39995674     1.584336    2.0057805  -0.84894667 
 2145000    1.1001972 -2.2872013e-05   0.37670074  0.027074513            0   0.34962622    1.6227909    1.9994916   0.43809553 
 2150000    1.0134317 5.2506918e-05   0.50365601 0.0024629058            0    0.5011931    1.4948118    1.9984678    5.5829401 
 2155000    1.0549192 1.8300783e-05   0.39634051 0.00031636991            0   0.39602414    1.5560058    1.9523463    3.2016798 
 2160000    0.9915639 7.9005195e-05   0.50031737  0.031736129            0   0.46858124    1.4625568    1.9628741    7.3562954 
 2165000   0.98969555 -6.7640663e-05   0.50607696  0.044045018            0   0.46203194    1.4598009    1.9658779   -2.6517247 
 2170000   0.92668306 -2.3045537e-05   0.57906075  0.022565919            0   0.55649483    1.3668575    1.9459183   0.37267627 
 2175000    1.0451015 4.9762412e-05    0.4113405  0.010054106            0   0.40128639    1.5415247    1.9528652    5.3499793 
 2180000   0.92026012 5.8064646e-05   0.57471878  0.030458731            0   0.54426005    1.3573837    1.9321025    5.8959823 
 2185000    1.0149772 -8.0817882e-06   0.45758314  0.017827845            0   0.43975529    1.4970914    1.9546745    1.4029578 
 2190000   0.95462056 -0.00013166233   0.57562563  0.016191177            0   0.55943445    1.4080653     1.983691   -7.0044576 
 2195000   0.97149454 0.00012644919   0.55934207 0.0035895746            0   0.55575249    1.4329545    1.9922965    10.624562 
 2200000   0.98209592 1.3280833e-06   0.51455961            0            0   0.51455961    1.4485915    1.9631511    2.0538149 
 2205000   0.90856395 -4.1440986e-05   0.59335518   0.01329243            0   0.58006276    1.3401318     1.933487  -0.89555098 
 2210000   0.96742924 -6.404949e-05   0.48876853  0.055632498            0   0.43313603    1.4269581    1.9157267   -2.4567186 
 2215000   0.97056931 4.9428639e-05   0.47770581  0.023628072            0   0.45407774    1.4315897    1.9092955     5.283624 
 2220000    1.0369884 2.9841479e-05    0.3597201 0.0074744947            0   0.35224561    1.5295579     1.889278    3.9264563 
 2225000    0.8800049 0.0001572355   0.61522749 0.0025869701            0   0.61264052    1.2980072    1.9132347    12.647178 
 2230000   0.98075815 -4.4617845e-05   0.44779681 0.0056593807            0   0.44213743    1.4466183    1.8944151   -1.1514965 
 2235000    1.0049656 -2.3003259e-05   0.44607421  0.021710101            0   0.42436411    1.4823243    1.9283985   0.35804273 
 2240000   0.96517694 -5.7627475e-05   0.49671208  0.016787281            0   0.47992479     1.423636    1.9203481   -2.0136876 
 2245000    1.0239486 -2.6418478e-05    0.4132032 0.0069818501            0   0.40622135    1.5103241    1.9235273    0.1200259 
 2250000    1.0053983 2.0160047e-05   0.46773367  0.026432876            0    0.4413008    1.4829625    1.9506962    3.3269554 
 2255000   0.99699272 6.8005793e-05   0.45307391 0.0059895975            0   0.44708431    1.4705643    1.9236382     6.566167 
 2260000     1.090428 -1.2248036e-05    0.3289966  0.025358348            0   0.30363825    1.6083814     1.937378    1.1012454 
 2265000    1.0160895 1.1804804e-05   0.41293134  0.022680957            0   0.39025039     1.498732    1.9116634     2.717538 
 2270000    1.0382137 1.963754e-06   0.40299141    0.0261876            0    0.3768038    1.5313652    1.9343566    2.0684155 
 2275000    1.0098608 -2.828509e-05   0.44150072  0.019207736            0   0.42229299    1.4895446    1.9310453 0.00011650106 
 2280000   0.99108507 -1.4203835e-05   0.41669548  0.007029515            0   0.40966596    1.4618505     1.878546   0.90889748 
 2285000   0.93335854 5.8389636e-05    0.4965008  0.021019575            0   0.47548122    1.3767038    1.8732046    5.8592705 
 2290000   0.97835479 -6.6253869e-05   0.45031269 2.8883502e-05            0   0.45028381    1.4430733     1.893386   -2.6295448 
 2295000   0.92711925 -6.6988228e-05   0.52213949  0.035109991            0    0.4870295    1.3675009    1.8896404   -2.6834226 
 2300000   0.98488318 5.9554968e-05   0.44447402 0.00028791457            0   0.44418611    1.4527027    1.8971767    5.9627959 
 2305000    0.9008443 -2.6133653e-05   0.52869179  0.018222893            0    0.5104689    1.3287453    1.8574371  0.073379727 
 2310000   0.96001295 -6.5921461e-05   0.44315053  0.014134134            0   0.42901639    1.4160191    1.8591696   -2.6410688 
 2315000   0.95686374 -2.7898375e-05   0.45772359  0.026920078            0   0.43080352     1.411374    1.8690976 -0.035431479 
 2320000   0.93507068 -9.3557285e-05   0.50538036  0.019414865            0   0.48596549    1.3792293    1.8846096   -4.5022344 
 2325000    1.0395637 -6.5046219e-05    0.3401838  0.007005047            0   0.33317875    1.5333564    1.8735402   -2.5669483 
 2330000   0.99288835 3.4948213e-05   0.39872743  0.014157222            0   0.38457021    1.4645103    1.8632377    4.2490357 
 2335000   0.95448761 4.8265522e-05   0.47084693 0.00061295945            0   0.47023397    1.4078692    1.8787162    5.1736424 
 2340000    1.0130865 -4.0971216e-05   0.39682329  0.011495245            0   0.38532805    1.4943027    1.8911259  -0.90584238 
 2345000    1.0410436 5.4077327e-05   0.38818162 0.00092651154            0   0.38725511    1.5355394     1.923721    5.6153999 
 2350000    1.0471859 2.7334441e-05   0.40456301  0.012632788            0   0.39193022    1.5445991    1.9491621    3.8151933 
 2355000    0.9514312 1.5537024e-05   0.52489075 0.0041847983            0   0.52070595     1.403361    1.9282518    2.9889126 
 2360000    1.0261698 -4.9046184e-05   0.40640754   0.00510427            0   0.40130327    1.5136004     1.920008   -1.4282115 
 2365000   0.94822173 2.3799046e-05   0.48962537  0.021835331            0   0.46779004     1.398627    1.8882524     3.512934 
 2370000   0.95864823 2.5035545e-05    0.5241089  0.011905584            0   0.51220332    1.4140061     1.938115    3.6472082 
 2375000    1.0325606 -6.2364813e-05   0.40780007 0.00077370213            0   0.40702637    1.5230268    1.9308269    -2.326611 
 2380000    1.0177552 -7.3421659e-05   0.43792275   0.01734871            0   0.42057404    1.5011889    1.9391116   -3.0731403 
 2385000   0.98299133 -8.8105584e-05    0.4888771 4.794051e-05            0   0.48882916    1.4499122    1.9387893   -4.0758853 
 2390000    1.0159312 1.9710298e-05   0.42869134  0.016151888            0   0.41253945    1.4984985    1.9271898    3.2727461 
 2395000     1.002868 -4.5675037e-05   0.45411682 0.00022012462            0    0.4538967    1.4792302    1.9333471   -1.1847355 
 2400000    0.9949991 2.4536326e-05   0.45199901  0.012537901            0   0.43946111    1.4676237    1.9196227    3.5946358 
 2405000    0.9745558 -0.00010679655   0.47729106 0.0095596053            0   0.46773145    1.4374698    1.9147609   -5.3758839 
 2410000    1.0366697 -9.2291603e-06   0.38577848 0.0023341033            0   0.38344437    1.5290877    1.9148662    1.2848222 
 2415000   0.92972964 3.8446892e-05   0.54662495 0.0076420814            0   0.53898287    1.3713512    1.9179762    4.5426173 
 2420000    1.0023516 -5.5157519e-05   0.43762112 0.0036615131            0    0.4339596    1.4784686    1.9160897   -1.8493302 
 2425000    1.0309709 6.1142486e-05   0.41210613 0.0023543108            0   0.40975182     1.520682    1.9327882    6.1067819 
 2430000   0.95277194 4.4455178e-05   0.50983129 0.0090101513            0   0.50082114    1.4053386    1.9151699    4.9499767 
 2435000    1.0011881 8.5656776e-05   0.41798634 0.0068459322            0    0.4111404    1.4767525    1.8947388    7.7422414 
 2440000   0.98141252 8.3098061e-06    0.4363478 0.0064067182            0   0.42994108    1.4475835    1.8839313     2.451214 
 2445000   0.96838864 9.6911099e-05   0.46158977 0.0027859171            0   0.45880385    1.4283732     1.889963    8.5057607 
 2450000    1.0079295 2.4715948e-05   0.43972125  0.011925846            0    0.4277954    1.4866961    1.9264173    3.6136927 
 2455000   0.97701096 -2.1992231e-06    0.4532021 0.0099709869            0   0.44323111    1.4410912    1.8942933    1.7441596 
 2460000    1.0273679 -4.4970809e-05   0.39822023 0.0037524432            0   0.39446779    1.5153677    1.9135879   -1.1564193 
 2465000   0.91776943 -3.2890203e-05   0.54091917  0.021303466            0   0.51961571    1.3537099    1.8946291  -0.35067546 
 2470000   0.91483858 5.5703417e-05    0.5499881 0.0073981446            0   0.54258995    1.3493869     1.899375    5.7020616 
 2475000   0.92085524 -4.434591e-05   0.52643799 0.0063077156            0   0.52013028    1.3582615    1.8846995    -1.142648 
 2480000    0.9637993 -8.184264e-06    0.4595794 0.0035628971            0   0.45601651     1.421604    1.8811834     1.322471 
 2485000   0.85352537 2.323964e-05   0.62549655  0.089814151            0   0.53568239    1.2589499    1.8844465    3.4709392 
 2490000   0.92943139 -7.5023166e-05   0.49262624  0.014452881            0   0.47817335    1.3709113    1.8635375   -3.2580439 
 2495000   0.94481985 5.0819023e-05   0.45223259 0.0010661699            0   0.45116642    1.3936093    1.8458419    5.3150872 
 2500000   0.93182816 -2.6943949e-05   0.48266828 0.0088424571            0   0.47382582    1.3744465    1.8571148  0.017741207 
 2505000   0.94769673 0.00011462633   0.46730036  0.001489972            0   0.46581039    1.3978527     1.865153    9.6903104 
 2510000    1.0094559 -9.4698921e-06   0.39431756 0.0046663919            0   0.38965117    1.4889474     1.883265     1.236787 
 2515000    0.9095167 -2.3584035e-05   0.56415239  0.020406713            0   0.54374568    1.3415371    1.9056895   0.29568604 
 2520000   0.98160573 9.9778637e-05   0.45420649  0.034669485            0   0.41953701    1.4478685    1.9020749    8.7136299 
 2525000   0.95247213 -2.3918244e-05   0.52535477 0.00083138122            0   0.52452339    1.4048964    1.9302512   0.29743238 
 2530000   0.99122994 -9.7057548e-06   0.47015589 0.0057497547            0   0.46440613    1.4620642    1.9322201    1.2696405 
 2535000    0.9497404 -1.1361745e-05   0.51932284 0.0023054613            0   0.51701738    1.4008671    1.9201899    1.1445615 
 2540000    0.9469661 -2.4547062e-06   0.50212815 1.3727913e-05            0   0.50211442     1.396775    1.8989032    1.7313285 
 2545000    1.0020221 -4.1956286e-05   0.43135542 0.0040456258            0    0.4273098    1.4779827    1.9093381  -0.95487769 
 2550000    1.0177288 3.2857907e-05   0.41960539 0.00057133315            0   0.41903406    1.5011499    1.9207553    4.1638551 
 2555000   0.95939656 7.9068763e-05     0.512513  0.061989597            0   0.45052341    1.4151099    1.9276229    7.3253838 
 2560000   0.95723101 1.1906026e-05   0.51112062 0.0015543035            0   0.50956632    1.4119157    1.9230364     2.735821 
 2565000     1.041974 4.3186026e-06    0.4030726            0            0    0.4030726    1.5369117    1.9399843    2.2348009 
 2570000   0.97417479 -7.8003005e-05   0.53526348 0.0024492405            0   0.53281424    1.4369078    1.9721713   -3.3528339 
 2575000    1.0406624 -1.4275451e-05   0.44362513 0.0061439453            0   0.43748119    1.5349771    1.9786022    1.0040648 
 2580000    1.0798927 2.3844736e-05   0.40028338 0.0052965166            0   0.39498686    1.5928418    1.9931252    3.6209258 
 2585000    1.0435634 6.004333e-05   0.45930648 0.0076545185            0   0.45165196     1.539256    1.9985624    6.0975204 
 2590000    1.0604051 8.8906959e-05   0.47495741  0.018935547            0   0.45602186    1.5640975    2.0390549    8.1084366 
 2595000    1.1158332 4.027981e-05   0.41820591 1.9986189e-05            0   0.41818592    1.6458539    2.0640598    4.8138282 
 2600000    1.0409824 3.7584179e-05   0.53329194 0.0032533779            0   0.53003856     1.535449    2.0687409    4.6344875 
 2605000    1.0844242 -7.4928374e-05   0.47822127  0.030144932            0   0.44807634    1.5995258     2.077747   -3.0373633 
 2610000    1.0640015 -1.9008442e-05   0.52384578 0.0059430898            0   0.51790269    1.5694022     2.093248   0.79560507 
 2615000    1.0676549 0.00010139382   0.49252227  0.012248395            0   0.48027387    1.5747909    2.0673132    8.9891315 
 2620000    1.0766792 4.6688298e-05   0.50670881  0.034628923            0   0.47207989    1.5881018    2.0948106    5.2820651 
 2625000    1.0603983 -2.6122174e-06   0.49909912            0            0   0.49909912    1.5640875    2.0631867    1.8848593 
 2630000    1.0934103 2.3015906e-05   0.45363139  0.042980549            0   0.41065084    1.6127803    2.0664116    3.6376308 
 2635000     1.099476 9.3809031e-05    0.4676519  0.014172326            0   0.45347957    1.6217271     2.089379    8.4934089 
 2640000    1.0734175 0.0001488785   0.44971858 0.00087326222            0   0.44884532    1.5832909    2.0330094    12.196448 
 2645000    1.0617438 -0.00012758873   0.46191956 0.0062532727            0   0.45566629    1.5660721    2.0279917   -6.6820654 
 2650000    1.0357195 -2.6917938e-05   0.50723252 0.0087065621            0   0.49852596    1.5276863    2.0349188   0.19732091 
 2655000   0.98824946 -1.586344e-06   0.60176335 0.0052002702            0   0.59656308     1.457668    2.0594313    1.9511369 
 2660000    1.0727303 3.1529464e-05   0.48869107 0.0092544051            0   0.47943666    1.5822772    2.0709683    4.2233797 
 2665000    1.0708634 -4.1132548e-06   0.50116987 0.0012077262            0   0.49996215    1.5795235    2.0806934    1.7998952 
 2670000    1.1444633 -5.8068649e-05   0.39686564 2.9923769e-05            0   0.39683571    1.6880833     2.084949   -1.8792042 
 2675000   0.99702825 3.2393567e-05    0.6015802 0.0046503995            0    0.5969298    1.4706167    2.0721969    4.2835977 
 2680000   0.99227808 1.2141259e-05   0.62501645 0.0062875652            0   0.61872889    1.4636102    2.0886266    2.9174699 
 2685000    1.0385866 2.5943695e-05   0.54158691  0.035887048            0   0.50569987    1.5319152    2.0735021    3.8445917 
 2690000    1.0116307 -5.9122757e-05   0.54800536 0.0024754249            0   0.54552994    1.4921553    2.0401606    -1.995953 
 2695000     1.031639 -9.8616053e-06   0.52336162  0.045515877            0   0.47784575    1.5216675    2.0450291    1.3718102 
 2700000    1.0898913 -4.2206299e-05   0.45839428 0.0014815142            0   0.45691277    1.6075897     2.065984  -0.81529937 
 2705000    1.0596008 -6.3773613e-05   0.48924712  0.012232247            0   0.47701487    1.5629111    2.0521583   -2.3014537 
 2710000    1.0106692 5.9685259e-05   0.54827732 0.0028418524            0   0.54543546    1.4907371    2.0390144    6.1135281 
 2715000    1.0763344 2.9823943e-05   0.45974657  0.024971974            0    0.4347746    1.5875932    2.0473397    4.0833209 
 2720000   0.94958352 3.5261571e-05   0.64027364 0.0047325285            0   0.63554111    1.4006357    2.0409093    4.4480992 
 2725000   0.97183891 -0.0001156436   0.61680961  0.043842485            0   0.57296713    1.4334624     2.050272   -5.8443313 
 2730000    1.1057573 5.5420742e-05   0.41713685  0.011152786            0   0.40598406     1.630992    2.0481288    5.8315182 
 2735000    1.1161521 2.4837793e-05   0.38538646   0.01177897            0   0.37360749    1.6463243    2.0317108    3.7273041 
 2740000    1.0174826 -9.4267309e-05   0.57797864  0.007407223            0   0.57057142    1.5007869    2.0787655   -4.3565494 
 2745000    1.1032538 2.6499053e-05   0.43592609 0.0074067315            0   0.42851936    1.6272993    2.0632254    3.8722274 
 2750000    1.1111374 0.00010245059   0.42644117 0.0038798481            0   0.42256132    1.6389277    2.0653689    9.0593294 
 2755000    1.1042065 -1.6931127e-05   0.47480739  0.013946351            0   0.46086104    1.6287045    2.1035119   0.94768033 
 2760000    1.1604176 -1.2659325e-05   0.39711186 0.0033793472            0   0.39373251     1.711616    2.1087278    1.2445179 
 2765000    1.0968263 4.1831184e-05   0.47846757  0.015484344            0   0.46298323    1.6178188    2.0962863    4.9519618 
 2770000    1.0674257 9.2233605e-05    0.5110832 0.00046430369            0   0.51061889    1.5744529    2.0855361    8.3820168 
 2775000    1.1227905 2.2171089e-05   0.46833889 0.0045701596            0   0.46376873     1.656116    2.1244549    3.6380012 
 2780000    1.0836038 -8.4848051e-05   0.51533449  0.016175386            0   0.49915911    1.5983156    2.1136501   -3.6786435 
 2785000    1.0821284 -8.5090332e-05   0.54539334  0.043624881            0   0.50176846    1.5961393    2.1415327   -3.6673006 
 2790000     1.109017 5.9897124e-05   0.54084568  0.011106485            0    0.5297392       1.6358    2.1766457    6.2656227 
 2795000    1.0810982 -0.00010481673   0.58436197  0.012607568            0    0.5717544    1.5946198    2.1789818   -4.9765068 
 2800000    1.0586452 7.0039448e-05   0.62103826  0.016648202            0   0.60439006    1.5615017      2.18254    6.9638996 
 2805000    1.1603288 4.3986327e-05   0.45262327 0.0034080567            0   0.44921522    1.7114849    2.1641082    5.1669081 
 2810000    1.1310634 1.4531941e-05   0.52277829  0.041512661            0   0.48126563    1.6683184    2.1910967    3.1831439 
 2815000    1.1337511 5.1326329e-05   0.52404166 0.0088520594            0    0.5151896    1.6722828    2.1963245    5.7002018 
 2820000    1.1607439 3.7813421e-05   0.49881591 0.0021452076            0   0.49667071    1.7120972    2.2109131    4.7923093 
 2825000    1.1165092 1.0199676e-05   0.58651688  0.026172318            0   0.56034456     1.646851    2.2333679    2.9296658 
 2830000    1.1941755 -5.5611991e-05   0.47890851 0.0086162936            0   0.47029222    1.7614089    2.2403174   -1.5561279 
 2835000    1.1273718 -1.6323266e-05   0.58939803   0.02867237            0   0.56072566    1.6628734    2.2522714    1.1379365 
 2840000    1.1998252 -3.0127694e-05   0.45096305  0.019489143            0    0.4314739    1.7697421    2.2207051   0.16398793 
 2845000    1.1586155 -7.9401658e-05   0.50379734  0.024154587            0   0.47964275    1.7089579    2.2127552   -3.2077313 
 2850000    1.1806381 4.5832825e-05   0.45766447  0.014926741            0   0.44273773    1.7414413    2.1991057    5.3279599 
 2855000    1.1279599 -5.2421765e-05   0.58320379  0.026087254            0   0.55711653    1.6637408    2.2469446   -1.3317145 
 2860000    1.1228672 5.800689e-06   0.57879361  0.007717447            0   0.57107616    1.6562291    2.2350227    2.6310164 
 2865000    1.2458344 6.2499065e-05   0.37476735 0.0020850951            0   0.37268225    1.8376058    2.2123732     6.478976 
 2870000     1.098208 -8.5284223e-05   0.58475406  0.040087301            0   0.54466676    1.6198568    2.2046109   -3.6174587 
 2875000    1.0707999 0.00010773103   0.62386874  0.028049844            0   0.59581889    1.5794298    2.2032986    9.5577366 
 2880000    1.1184165 -8.4937792e-05   0.54166411  0.032515841            0   0.50914827    1.6496643    2.1913284   -3.6070915 
 2885000    1.1618891 6.2035292e-05   0.48651213  0.036638509            0   0.44987362    1.7137864    2.2002986    6.4352412 
 2890000    1.1301188 -1.7962027e-05   0.57560244  0.015047306            0   0.56055513    1.6669252    2.2425277      1.01632 
 2895000    1.1494858 -1.9719489e-05     0.502736  0.014474419            0   0.48826159    1.6954915    2.1982275    0.8520437 
 2900000    1.0768295 -3.2453258e-05   0.61682574  0.031853711            0   0.58497203    1.5883235    2.2051492 -0.010326499 
 2905000    1.1722874 9.4833424e-05   0.44927317 6.485965e-05            0   0.44920831    1.7291239    2.1783971    8.6523588 
 2910000    1.1659384 -2.6668248e-05   0.44825594 0.0092699928            0   0.43898595    1.7197592    2.1680151   0.34746278 
 2915000    1.1297942 -5.1545742e-06   0.50142972  0.033411693            0   0.46801803    1.6664464    2.1678761    1.8159905 
 2920000    1.1290936 5.9122564e-05   0.50930488   0.01296769            0   0.49633719    1.6654131     2.174718    6.2108184 
 2925000    1.0677311 -8.5978667e-05   0.56425538 0.0039101653            0   0.56034522    1.5749033    2.1391587   -3.7303183 
 2930000    1.1593566 -4.9637897e-05   0.41611121  0.020677034            0   0.39543418     1.710051    2.1261622   -1.2624516 
 2935000    1.1271387 -5.5258818e-05   0.47509828  0.024099114            0   0.45099917    1.6625295    2.1376278   -1.6347075 
 2940000    1.0928803 3.4387344e-06    0.5103877  0.056367279            0   0.45402042    1.6119984    2.1223861    2.3571371 
 2945000    1.1119768 -4.0351738e-05    0.5037609  0.011348462            0   0.49241244    1.6401658    2.1439267  -0.61075198 
 2950000    1.0725998 1.5867809e-05   0.58969877  0.010110446            0   0.57958833    1.5820847    2.1717834    3.2550259 
 2955000    1.1112149 -8.2328002e-05   0.52455535  0.023958197            0   0.50059716     1.639042    2.1635973    -3.456661 
 2960000    1.1123066 4.3981384e-05   0.54750775 0.0024824734            0   0.54502528    1.6406523    2.1881601    5.1906225 
 2965000    1.1557741 4.6448616e-05   0.45017444 0.0091717362            0    0.4410027    1.7047668    2.1549412    5.3258334 
 2970000    1.1497584 -1.3774582e-05   0.40873982 0.0013019917            0   0.40743783    1.6958936    2.1046334    1.1642886 
 2975000    1.0614363 0.0001599204   0.54466478 0.0016646218            0   0.54300015    1.5656185    2.1102833    13.027516 
 2980000    1.0601133 -3.8239672e-05   0.52331006  0.037598502            0   0.48571156    1.5636671    2.0869771  -0.52351777 
 2985000    1.1215309 -3.8138673e-05   0.45257184  0.056970595            0   0.39560125     1.654258    2.1068298  -0.49677021 
 2990000    1.0782874 0.00015469323   0.50082273 0.0014382996            0   0.49938443    1.5904739    2.0912966    12.651687 
 2995000    1.1683812 -1.1989545e-05   0.33557434            0            0   0.33557434    1.7233623    2.0589366    1.2404503 
 3000000    1.0015557 9.4825023e-05   0.55209645  0.043655011            0   0.50844144    1.4772946    2.0293911    8.5027793 
 3005000    1.0886585 4.0455182e-05    0.4246963  0.019117565            0   0.40557874    1.6057713    2.0304676     4.792208 
 3010000    1.0803743 5.6116488e-05   0.41803024            0            0   0.41803024    1.5935522    2.0115824     5.842468 
 3015000    1.0336263 6.9175219e-05   0.48309121  0.038819056            0   0.44427215    1.5245988      2.00769    6.7300517 
 3020000   0.98792012 -7.6669754e-05   0.49450412 0.0085476612            0   0.48595646    1.4571822    1.9516863   -3.2823022 
 3025000    1.0107382 -1.753173e-05   0.48433829  0.017377901            0   0.46696039    1.4908388    1.9751771   0.77834435 
 3030000   0.96450884 0.00010542363   0.53925511  0.014468374            0   0.52478674    1.4226505    1.9619057    9.1588254 
 3035000      1.00064 0.00011649556     0.476804  0.036649289            0   0.44015471     1.475944     1.952748    9.9055113 
 3040000   0.99879646 3.1662993e-07   0.50676939   0.01332938            0   0.49344001    1.4732248    1.9799942    2.0016094 
 3045000    1.0880984 -2.8271292e-05   0.40614082  0.022511545            0   0.38362928    1.6049451     2.011086  0.081099126 
 3050000    1.0720442 -5.0497375e-05   0.41916667 0.0014627112            0   0.41770395    1.5812652    2.0004318   -1.4468557 
 3055000    1.0850969 -6.3231393e-05   0.37174386 0.0017466198            0   0.36999724    1.6005179    1.9722617   -2.3443347 
 3060000    1.0177884 9.3788012e-05    0.4527159 0.0074085735            0   0.44530733    1.5012378    1.9539537    8.3565487 
 3065000   0.98181049 -5.1088909e-05   0.50741935 0.0033644214            0   0.50405493    1.4481705    1.9555898   -1.5320797 
 3070000    1.0466081 -7.1906335e-05   0.44628454 0.00015888023            0   0.44612566     1.543747    1.9900315   -2.9187743 
 3075000   0.95362098 1.3245728e-05   0.55381439 0.0079628848            0   0.54585151    1.4065909    1.9604053     2.864647 
 3080000    1.1092208 -7.131491e-05   0.33687658 0.0017821336            0   0.33509444    1.6361007    1.9729773   -2.8954539 
 3085000    1.0368063 4.8220016e-05   0.44505092 0.0046649798            0   0.44038594    1.5292892    1.9743402    5.2661599 
 3090000    1.0271466 1.3836331e-05   0.46620066 0.00013097614            0   0.46606969    1.5150412    1.9812419     2.925802 
 3095000    1.0319378 0.00018213082   0.43938659  0.024929713            0   0.41445688    1.5221083    1.9614949    14.394959 
 3100000    1.0389253 1.9894124e-05   0.43658236 0.0073053555            0     0.429277    1.5324147    1.9689971    3.3271027 
 3105000    1.0439104 -1.0297195e-06   0.46317157   0.03767377            0    0.4254978    1.5397678    2.0029393    1.9326438 
 3110000    1.0999849 6.9548396e-05   0.36326908  0.033210736            0   0.33005834    1.6224778    1.9857469     6.733584 
 3115000    1.0578604 -0.00012119085   0.41188842 0.0050728785            0   0.40681554    1.5603442    1.9722326   -6.3010626 
 3120000    1.0600324 -2.4373956e-05    0.3981687  0.023885539            0   0.37428316    1.5635478    1.9617165   0.29778772 
 3125000    1.0521716 1.8414684e-06   0.40450846  0.012853832            0   0.39165463     1.551953    1.9564615    2.0821724 
 3130000    1.0412068 6.4494918e-05   0.41189614  0.006587479            0   0.40530866      1.53578    1.9476762    6.3505293 
 3135000    1.0064299 3.988476e-05   0.43388014 0.0017758517            0   0.43210429    1.4844841    1.9183642    4.6411638 
 3140000    1.0092661 6.2239423e-05   0.40725995 0.0051977109            0   0.40206224    1.4886674    1.8959274    6.1448053 
 3145000     1.019481 -5.4288215e-05   0.37373926  0.033910673            0   0.33982858    1.5037345    1.8774738   -1.8286017 
 3150000   0.99303362 7.1368954e-05   0.37211394 2.6847677e-05            0   0.37208709    1.4647246    1.8368385    6.7089591 
 3155000   0.86377268 3.0532527e-05   0.53861127  0.011591894            0   0.52701938    1.2740647     1.812676    3.8970298 
 3160000   0.95136856 -2.4293678e-05   0.45384823 6.4073122e-05            0   0.45378416    1.4032686    1.8571169   0.19866843 
 3165000   0.92405598 -2.5375168e-05   0.48458484  0.038927746            0    0.4456571    1.3629826    1.8475674   0.11528928 
 3170000   0.95433137 1.2959856e-05   0.43626351 0.0031794475            0   0.43308406    1.4076388    1.8439023    2.7286284 
 3175000   0.96037418 7.4464219e-06   0.40011706 0.0006115182            0   0.39950555    1.4165519     1.816669    2.3250114 
 3180000    0.9352753 6.529528e-05   0.43949834  0.038175697            0   0.40132264    1.3795311    1.8190294    6.2765205 
 3185000   0.94316383 -5.4383872e-05    0.4319751 0.0053643481            0   0.42661075    1.3911666    1.8231417   -1.8894639 
 3190000   0.93931875 -6.3401899e-05   0.43267701 0.0047839981            0   0.42789301    1.3854952    1.8181722   -2.5100641 
 3195000   0.97717746 -0.00010751447   0.35739402 5.6300082e-05            0   0.35733772    1.4413368    1.7987308   -5.5409237 
 3200000   0.93213382 -1.811075e-06   0.39902526 5.4924671e-05            0   0.39897034    1.3748974    1.7739226    1.6502866 
 3205000   0.92625968 -6.1752012e-05   0.36040447 0.0040568439            0   0.35634762     1.366233    1.7266375   -2.4889666 
 3210000   0.89753289 2.5348319e-05   0.38275712 0.00064460886            0   0.38211251     1.323861    1.7066181    3.4370634 
 3215000   0.83059593 2.524798e-05   0.47564881  0.012252943            0   0.46339587     1.225129    1.7007778    3.4243732 
 3220000   0.90444244 -1.5986645e-05   0.38797903 0.00020293151            0    0.3877761    1.3340526    1.7220316   0.63067665 
 3225000   0.87035834 7.0347117e-05   0.45279907  0.010048611            0   0.44275046    1.2837786    1.7365776    6.5389408 
 3230000    0.8754469 2.6267546e-05   0.41485799 0.0071676325            0   0.40769036    1.2912842    1.7061422      3.49934 
 3235000   0.81814761 -6.207837e-05   0.46477354  0.029583019            0   0.43519052    1.2067677    1.6715413   -2.5663422 
 3240000   0.86508498 5.6111894e-05   0.42945905  0.045025789            0   0.38443326    1.2760003    1.7054594    5.5360314 
 3245000   0.90286992 5.8821857e-05   0.38154057 4.123028e-06            0   0.38153644    1.3317331    1.7132737    5.7288458 
 3250000   0.98166723 -4.3539457e-05   0.27116332  0.015912275            0   0.25525105    1.4479592    1.7191225   -1.2531711 
 3255000   0.97775133 5.795395e-05   0.30255592  0.033976022            0   0.26857989    1.4421832    1.7447391    5.7010621 
 3260000   0.93456034 3.6413648e-05   0.33063269 0.0012425791            0   0.32939011    1.3784765    1.7091092    4.1949476 
 3265000   0.88590818 2.3744977e-05   0.37472944  0.019643151            0   0.35508629    1.3067146     1.681444    3.3024345 
 3270000   0.82411675 -8.0145158e-05   0.47469418  0.014877209            0   0.45981697    1.2155722    1.6902664   -3.7809764 
 3275000   0.86055656 3.4009102e-07   0.39480439 0.0042142352            0   0.39059015    1.2693209    1.6641253    1.6873422 
 3280000   0.84373175 -5.8631367e-05    0.4121948  0.051337064            0   0.36085773    1.2445043    1.6566991   -2.3458689 
 3285000   0.92784942 1.1513953e-05   0.27654274 0.0072079145            0   0.26933482    1.3685779    1.6451206    2.4311398 
 3290000   0.81825928   1.1365e-05   0.42933794  0.021326748            0   0.40801119    1.2069324    1.6362704    2.4121211 
 3295000   0.87678381 -4.4331159e-05   0.35840272  0.015525035            0   0.34287768    1.2932561    1.6516588   -1.3746816 
 3300000   0.84221627 -6.73238e-05   0.36816573  0.061809264            0   0.30635647     1.242269    1.6104347   -2.9855366 
 3305000   0.88999808 6.801503e-05    0.2882236 0.0047388055            0   0.28348479    1.3127472    1.6009708    6.2441302 
 3310000   0.83715433 2.1806559e-05   0.36756741  0.017345576            0   0.35022184    1.2348026      1.60237    3.0910311 
 3315000   0.86800249 3.533181e-05   0.30687634 0.0016896037            0   0.30518673    1.2803037      1.58718    3.9991649 
 3320000   0.81322617 8.1422027e-05   0.40400648  0.020749545            0   0.38325694    1.1995086    1.6035151    7.1619255 
 3325000    0.7996973 -1.8068807e-05   0.45506531  0.012038076            0   0.44302724    1.1795535    1.6346188    0.4011216 
 3330000   0.86777693 -4.6740902e-05   0.37542343  0.005775224            0   0.36964821     1.279971    1.6553944   -1.5354512 
 3335000   0.90519464 1.4057165e-05    0.3293595 0.0037467194            0   0.32561278    1.3351621    1.6645216    2.6241574 
 3340000   0.79178109 -0.00015569136   0.51237512 0.0062760816            0   0.50609903    1.1678771    1.6802522   -8.9482778 
 3345000   0.88672203 1.0260641e-05   0.37232696 0.00017933031            0   0.37214763     1.307915     1.680242    2.3807017 
 3350000   0.86806405 4.2615722e-06   0.35884554  0.013101522            0   0.34574402    1.2803945      1.63924    1.9301633 
 3355000   0.82352685 -9.4939868e-05   0.39610563  0.019741367            0   0.37636427    1.2147021    1.6108077   -4.8704206 
 3360000   0.79829161 -3.7039305e-05   0.42307625  0.020191628            0   0.40288462    1.1774801    1.6005564  -0.92799353 
 3365000   0.86545738 4.7246242e-05   0.37567518  0.025409504            0   0.35026567    1.2765496    1.6522248    4.8775683 
 3370000   0.90090549 6.477007e-05   0.33424213  0.010323752            0   0.32391838    1.3288356    1.6630777    6.0847145 
 3375000    0.8504074 -3.6524797e-05   0.41027563  0.010975128            0   0.39930051    1.2543509    1.6646265  -0.82879962 
 3380000   0.93045192 -1.7476508e-05   0.27524484   0.01740703            0   0.25783781    1.3724166    1.6476614   0.45459848 
 3385000   0.96633401 0.00010488037   0.22930907 0.0098761825            0   0.21943289    1.4253427    1.6546517    8.8144853 
 3390000   0.94348621 1.4684996e-05    0.2850586 0.0063518549            0   0.27870674    1.3916422    1.6767008    2.6791964 
 3395000   0.86503739 5.868558e-06   0.40257659  0.032449392            0    0.3701272    1.2759301    1.6785067    2.0791336 
 3400000   0.92570156 4.9745972e-06   0.31814259  0.012104879            0   0.30603771    1.3654098    1.6835524    2.0231516 
 3405000   0.87629181 -1.0200282e-05   0.38545653  0.060347407            0   0.32510912    1.2925304     1.677987   0.98164773 
 3410000   0.89220983 7.3597645e-05    0.3297233 0.0031379578            0   0.32658534    1.3160095    1.6457328    6.6699987 
 3415000   0.86597819 3.2998598e-05   0.39087925   0.01429926            0   0.37657999    1.2773178    1.6681971    3.9209014 
 3420000   0.85315887 -0.00011397634   0.41312934  0.003031108            0   0.41009823    1.2584093    1.6715387   -6.1092459 
 3425000   0.85521829 -5.5611372e-05   0.42877501  0.023242531            0   0.40553248     1.261447     1.690222    -2.106181 
 3430000   0.85826279 5.0063932e-05     0.408585  0.011271303            0   0.39731369    1.2659376    1.6745226    5.0922204 
 3435000   0.82854135 -0.00010244965   0.45517596  0.042296105            0   0.41287986    1.2220985    1.6772744   -5.3166219 
 3440000   0.85980158 4.2304871e-05   0.39975826  0.019716081            0   0.38004218    1.2682073    1.6679656    4.5559781 
 3445000    0.9355937 2.9292747e-05   0.30134132 0.0026464956            0   0.29869482    1.3800007     1.681342    3.6810602 
 3450000   0.95037684 -5.3717805e-05   0.28740073  0.013346454            0   0.27405428    1.4018058    1.6892066   -1.9779289 
 3455000   0.92269561 -3.5368688e-05   0.33334512  0.011931436            0   0.32141368     1.360976    1.6943211  -0.72018126 
 3460000   0.90361432 -2.0763635e-05   0.36543653 0.0019255478            0   0.36351098    1.3328311    1.6982676   0.28080351 
 3465000   0.87724695 -3.2909711e-05   0.45815189   0.01624422            0   0.44190767    1.2939393    1.7520911  -0.49454513 
 3470000   0.98427844 -1.9818114e-05   0.32945743  0.013560105            0   0.31589732    1.4518107    1.7812681   0.42835152 
 3475000     0.981688 2.5103641e-05   0.36551706  0.022583384            0   0.34293367    1.4479898    1.8135069    3.5272488 
 3480000   0.95151034 3.3302796e-05   0.42765573  0.025964631            0    0.4016911    1.4034778    1.8311335    4.1046044 
 3485000   0.93629382 5.9189589e-05   0.40867581  0.031950175            0   0.37672563    1.3810334    1.7897092    5.8303851 
 3490000   0.98014074 5.7494395e-05   0.32628107 0.0010217688            0   0.32525931    1.4457076    1.7719887    5.6969393 
 3495000   0.87581958 -3.0440358e-06   0.46520828  0.059628911            0   0.40557937    1.2918339    1.7570422     1.549236 
 3500000    1.0024456 -3.6696568e-05   0.29479851  0.018123962            0   0.27667455    1.4786072    1.7734057  -0.73174667 
 3505000   0.93866996 5.3091761e-05   0.41641017  0.020167177            0   0.39624299    1.3845382    1.8009484    5.4253459 
 3510000   0.95333722 -7.9458398e-05   0.39909725  0.022013053            0    0.3770842    1.4061724    1.8052696   -3.6190904 
 3515000   0.94645404 1.7922239e-05   0.39666064  0.049703563            0   0.34695708    1.3960197    1.7926803    3.0161719 
 3520000   0.92855157 5.7664314e-05   0.42678429  0.024959381            0    0.4018249    1.3696136    1.7963978    5.7329484 
 3525000   0.96421951 -2.0032156e-05   0.40362556 0.00089447974            0   0.40273108    1.4222238    1.8258493   0.45832081 
 3530000    0.9346947 0.00014096907   0.47461269  0.024454195            0   0.45015849    1.3786747    1.8532874    11.476776 
 3535000   0.93452075 8.6836791e-05   0.49159505  0.032813053            0     0.458782    1.3784181    1.8700132    7.7980714 
 3540000   0.98497662 0.00010942229   0.37365841  0.039236617            0   0.33442179    1.4528405    1.8264989    9.2963941 
 3545000     1.018788 2.4905677e-05   0.31101484 0.0097211969            0   0.30129365    1.5027123    1.8137272    3.5139548 
 3550000   0.92729317 1.3053221e-05   0.44541933  0.025088185            0   0.42033114    1.3677574    1.8131768    2.7042767 
 3555000   0.97446151 1.5928321e-05   0.37874539  0.027234483            0   0.35151091    1.4373307    1.8160761    2.9034495 
 3560000   0.93304777 9.0668206e-05     0.425128  0.025208469            0   0.39991953    1.3762455    1.8013735    7.9909897 
 3565000    0.9352258 8.2236707e-06   0.45892333  0.010803792            0   0.44811954    1.3794581    1.8383814     2.399784 
 3570000   0.94102601 3.5227536e-05   0.46086094  0.020203682            0   0.44065726    1.3880134    1.8488743    4.2537408 
 3575000   0.97497345 -6.30135e-06   0.42771815  0.049471758            0   0.37824639    1.4380858     1.865804    1.4356318 
 3580000   0.97730841 -0.00010053405   0.43398119  0.045598081            0   0.38838311    1.4415299    1.8755111   -4.9876135 
 3585000   0.92775245 5.0243622e-05   0.51835246 0.0013324141            0   0.51702004    1.3684349    1.8867873    5.3167519 
 3590000   0.92380291 -6.6155053e-05   0.52028196 0.0015918127            0   0.51869015    1.3626093    1.8828913   -2.6332937 
 3595000   0.92786762 3.5526384e-05   0.49468421  0.013447187            0   0.48123703    1.3686047     1.863289    4.2885568 
 3600000    0.9470462 -9.189291e-05   0.48179059  0.021868198            0   0.45992239    1.3968931    1.8786837    -4.394539 
 3605000   0.93496667 0.00012459104   0.50256603 0.0025758602            0   0.49999017    1.3790758    1.8816419    10.387057 
 3610000   0.96398943 9.4923465e-05   0.47310663  0.013248563            0   0.45985807    1.4218844     1.894991    8.3750996 
 3615000    1.0264294 -3.2022328e-05   0.37627741  0.028046234            0   0.34823118    1.5139833    1.8902607  -0.29579685 
 3620000   0.97488593 -8.5815477e-05   0.45549396  0.058648201            0   0.39684576    1.4379567    1.8934507   -3.9648859 
 3625000    1.0228551 8.7524891e-06   0.43059361  0.039862019            0   0.39073159    1.5087112    1.9393048    2.5368081 
 3630000    1.0773795 -1.1064055e-05   0.38984276 0.0085107271            0   0.38133203    1.5891347    1.9789775    1.2236713 
 3635000    1.0854818 5.1447391e-05   0.41174092  0.029964418            0    0.3817765    1.6010856    2.0128265    5.5249685 
 3640000     1.036224 4.5083571e-05   0.49115744  0.016858316            0   0.47429913    1.5284304    2.0195878    5.0972929 
 3645000    1.0847944 5.7727215e-05    0.4190085 0.00092499469            0   0.41808351    1.6000717    2.0190802    5.9599247 
 3650000    1.0688054 -3.4296693e-05    0.4696535 0.0021137256            0   0.46753978     1.576488    2.0461415  -0.29517941 
 3655000    1.0850892 -5.8946871e-06   0.44845724   0.01592195            0   0.43253529    1.6005066    2.0489638    1.6465532 
 3660000    1.0010078 -9.4630449e-05   0.55496007  0.039535585            0   0.51542449    1.4764866    2.0314466   -4.4286587 
 3665000    1.0573748 -3.8842594e-05   0.48334246 0.0027630928            0   0.48057937    1.5596279    2.0429704  -0.60868409 
 3670000    1.1192113 4.6698187e-05   0.40104188 3.0466787e-05            0   0.40101141    1.6508366    2.0518785    5.2398081 
 3675000    1.0736322 -2.102112e-05   0.47921588  0.013347749            0   0.46586814    1.5836074    2.0628233   0.62778151 
 3680000    1.0420391 7.3672895e-05   0.53271673  0.032955284            0   0.49976144    1.5370077    2.0697245    7.0991274 
 3685000    1.0164601 5.9835819e-05   0.58087239  0.031020227            0   0.54985217    1.4992786     2.080151    6.1649429 
 3690000     1.099325 1.6292816e-05   0.43527371 0.0064254335            0   0.42884828    1.6215043     2.056778    3.1690343 
 3695000    1.0676046 1.5834369e-05   0.47608787 0.0066970114            0   0.46939086    1.5747168    2.0508047    3.1317643 
 3700000    1.0109412 -6.6295244e-05   0.57574058 8.7551099e-05            0   0.57565303    1.4911383    2.0668788   -2.4588765 
 3705000    1.0172029 -4.3046193e-05   0.61850233 0.0014486578            0   0.61705367    1.5003743    2.1188766  -0.81974355 
 3710000    1.0515487 5.2148115e-05    0.5549778 0.0036116004            0    0.5513662    1.5510344    2.1060122    5.6659902 
 3715000    1.0435342 -9.2147073e-05   0.57048551  0.055244397            0   0.51524111    1.5392129    2.1096984   -4.1808751 
 3720000    1.1108709 -0.00010244198   0.49789844 0.0074346108            0   0.49046383    1.6385346     2.136433   -4.8569396 
 3725000    1.0836262 -2.5192226e-06   0.51263048  0.020111057            0   0.49251943    1.5983486    2.1109791    1.9390002 
 3730000    1.0772815 -9.3197245e-05   0.54794958 0.0089449622            0   0.53900461    1.5889902    2.1369398   -4.2253255 
 3735000    1.0022463 6.1916034e-05   0.65387191   0.10020632            0   0.55366559    1.4783133    2.1321852    6.3589865 
 3740000    1.0168471 -0.00012269735   0.64117011  0.039552746            0   0.60161737    1.4998495    2.1410196   -6.2351195 
 3745000    1.1695325 -5.0544323e-05   0.42501361  0.012501218            0   0.41251239    1.7250605    2.1500741   -1.3004183 
 3750000    1.0919908 5.9304082e-05   0.56375314 0.0011101029            0   0.56264304    1.6106864    2.1744395    6.2229315 
 3755000    1.1558763 -3.6897779e-05   0.45334268 0.0067101032            0   0.44663258    1.7049175    2.1582602  -0.36062812 
 3760000    1.1122119 -0.00011706197   0.51649055 0.0078302574            0   0.50866029    1.6405125     2.157003   -5.8344274 
 3765000   0.97809191 -0.0001098989   0.68613353  0.011301942            0   0.67483159    1.4426856    2.1288191   -5.3736124 
 3770000    1.1525808 4.695187e-05   0.43488023  0.019825646            0   0.41505458    1.7000567    2.1349369    5.3401846 
 3775000    1.0146719 1.9485903e-05   0.61451956  0.016711047            0   0.59780851     1.496641    2.1111606    3.4413983 
 3780000   0.96328608 -0.00015922586   0.65804047 0.0089500898            0   0.64909038     1.420847    2.0788874   -8.7909315 
 3785000    1.0155202 -5.7923376e-05     0.575974   0.01824298            0   0.55773102    1.4978922    2.0738662   -1.8803696 
 3790000    1.1310088 -1.7919057e-05   0.40958822 0.0058526161            0    0.4037356     1.668238    2.0778262   0.85455199 
 3795000    1.1392345 -9.5659563e-05   0.40666061            0            0   0.40666061    1.6803709    2.0870315    -4.443328 
 3800000    1.0222469 -1.5006645e-05   0.56478212 0.0069611985            0   0.55782092    1.5078142    2.0725963    1.0481426 
 3805000    1.0766891 -0.00010465755   0.47348462 0.0040279965            0   0.46945663    1.5881165    2.0616011    -5.083021 
 3810000    1.0580136 -1.1739985e-05   0.52048891  0.037789359            0   0.48269956      1.56057    2.0810589    1.2796093 
 3815000    1.0441803 -6.3713082e-05   0.55355327 0.0053872616            0     0.548166    1.5401659    2.0937192   -2.2557606 
 3820000    1.0764621 9.2978612e-05   0.51848921  0.053273651            0   0.46521556    1.5877816    2.1062708    8.4536107 
 3825000    1.0008131 1.3116956e-05   0.61467519  0.038186608            0   0.57648858    1.4761993    2.0908744    2.9863253 
 3830000    1.0030206 4.8863133e-05   0.61603734 0.0061056058            0   0.60993174    1.4794554    2.0954928     5.431216 
 3835000   0.94499946 1.0411059e-05    0.6565981 0.0018060305            0   0.65479207    1.3938742    2.0504723    2.7612006 
 3840000    1.0214579 2.7728229e-05   0.55581143 0.0053866405            0   0.55042479    1.5066504    2.0624619    3.9553756 
 3845000    1.0609721 5.3302499e-05   0.52136767  0.006428722            0   0.51493895    1.5649338    2.0863015    5.7250854 
 3850000    1.1161003 0.00011457591    0.4436994 0.0027002756            0   0.44099912    1.6462479    2.0899473    9.9116629 
 3855000    1.0609213 -4.0922716e-05   0.52659782  0.034749359            0   0.49184846    1.5648589    2.0914568  -0.70220062 
 3860000     1.042704 8.7144767e-06   0.52237766   0.03258522            0   0.48979244    1.5379884     2.060366    2.6552743 
 3865000   0.98460292 -6.9679144e-05   0.64820878 0.0031788744            0   0.64502991    1.4522893    2.1004981   -2.6562648 
 3870000    1.1127331 4.9063833e-06   0.47688427  0.054818625            0   0.42206565    1.6412813    2.1181655     2.453108 
 3875000     1.087808 0.00013517429   0.51200533  0.031479168            0   0.48052616    1.6045167    2.1165221     11.34442 
 3880000    1.0853925 2.3393779e-05   0.50456643  0.027887048            0   0.47667938     1.600954    2.1055204    3.7025357 
 3885000   0.99582956 -0.00013688082   0.62170558  0.015821088            0   0.60588449    1.4688486    2.0905542    -7.253843 
 3890000     1.054396 -5.1984387e-05   0.51707728  0.035479245            0   0.48159803    1.5552341    2.0723114   -1.4764895 
 3895000     1.091866 -1.8383353e-05   0.48295039 0.0014508898            0    0.4814995    1.6105023    2.0934527   0.83848246 
 3900000    1.1303928 -0.00012927213   0.42522694 0.0096695748            0   0.41555737    1.6673294    2.0925563    -6.732421 
 3905000    0.9757094 2.936722e-05   0.65607898  0.027245244            0   0.62883373    1.4391714    2.0952503    4.1000526 
 3910000    1.0689304 -5.6805688e-05   0.53003983 0.0080098243            0   0.52203001    1.5766724    2.1067122   -1.7712227 
 3915000    1.0678423 1.1954984e-05   0.54468937  0.017331091            0   0.52735828    1.5750673    2.1197567    2.9358836 
 3920000    1.0365558 -7.5829691e-05   0.57292656   0.01405551            0   0.55887105    1.5289198    2.1018464   -3.0747939 
 3925000    1.0552966 -1.912036e-05   0.53020302 0.00013589652            0   0.53006712    1.5565625    2.0867655   0.78148227 
 3930000    1.0100877 -0.00015504088   0.61341038  0.064683544            0   0.54872684    1.4898794    2.1032898   -8.4808342 
 3935000    1.0101943 -7.7078173e-05   0.63226343  0.011117262            0   0.62114616    1.4900365       2.1223     -3.13957 
 3940000   0.98490866 -0.00016082326   0.62979644  0.054766646            0   0.57502979    1.4527403    2.0825367   -8.8963312 
 3945000    1.0408896 5.7068424e-05   0.52459837 0.0013817991            0   0.52321657    1.5353121    2.0599105    5.9557816 
 3950000    1.0493939 4.0734938e-06   0.49778968  0.044237992            0   0.45355169     1.547856    2.0456457    2.3237295 
 3955000    1.0098561 -4.0215836e-05   0.56072204    0.0401332            0   0.52058885    1.4895378    2.0502599  -0.69514123 
 3960000    1.0152388 0.00016163853   0.55113918  0.020397798            0   0.53074138    1.4974773    2.0486165     13.08314 
 3965000    1.0584223 -0.00013030236   0.51054733  0.026010785            0   0.48453655    1.5611728    2.0717202   -6.8235875 
 3970000    1.0610401 -1.7811889e-05   0.50579954            0            0   0.50579954    1.5650341    2.0708337   0.85487535 
 3975000    1.0506636 0.00010375054   0.49644297  0.010172663            0   0.48627031    1.5497288    2.0461717    9.1288753 
 3980000    1.0698835 2.3336625e-05   0.45900417  0.010612688            0   0.44839148    1.5780782    2.0370824     3.630196 
 3985000    1.0179806 -3.6282328e-05     0.560073  0.043875609            0    0.5161974    1.5015214    2.0615944  -0.41527922 
 3990000    1.0636549 -3.6519855e-05   0.49269356  0.004168104            0   0.48852545    1.5688909    2.0615845  -0.43150429 
 3995000    1.0217635 -9.6700398e-05   0.58376658            0            0   0.58376658    1.5071011    2.0908677   -4.5105461 
 4000000     1.032303 -6.1967603e-06   0.53788694  0.019767382            0   0.51811956    1.5226469    2.0605339    1.6375017 
Loop time of 209.784 on 1 procs for 2000000 steps with 60 atoms

Performance: 823705.571 tau/day, 9533.629 timesteps/s
99.2% CPU use with 1 MPI tasks x no OpenMP threads

MPI task timing breakdown:
Section |  min time  |  avg time  |  max time  |%varavg| %total
---------------------------------------------------------------
Pair    | 0.69452    | 0.69452    | 0.69452    |   0.0 |  0.33
Bond    | 1.8716     | 1.8716     | 1.8716     |   0.0 |  0.89
Neigh   | 178.02     | 178.02     | 178.02     |   0.0 | 84.86
Comm    | 24.574     | 24.574     | 24.574     |   0.0 | 11.71
Output  | 0.041445   | 0.041445   | 0.041445   |   0.0 |  0.02
Modify  | 3.937      | 3.937      | 3.937      |   0.0 |  1.88
Other   |            | 0.6466     |            |       |  0.31

Nlocal:        60.0000 ave          60 max          60 min
Histogram: 1 0 0 0 0 0 0 0 0 0
Nghost:        0.00000 ave           0 max           0 min
Histogram: 1 0 0 0 0 0 0 0 0 0
Neighs:        25.0000 ave          25 max          25 min
Histogram: 1 0 0 0 0 0 0 0 0 0

Total # of neighbors = 25
Ave neighs/atom = 0.41666667
Ave special neighs/atom = 5.8000000
Neighbor list builds = 38631
Dangerous builds = 0
write_restart restart.rerun.1
System init for write_restart ...
WARNING: Communication cutoff 1.4200000000000002 is shorter than a bond length based estimate of 1.8. This may lead to errors. (../comm.cpp:667)
#--------------End of Input file ------------------
Total wall time: 0:03:29
