LAMMPS (29 Oct 2020)
###################### polyelectrolyte complexation ######################
clear

#Initialization
#------------------------------------
units				lj
dimension			3
atom_style			full
boundary			p p p

#Atom Definition
#-------------------------------------
read_restart			restart.equil
Reading restart file ...
  restart file = 29 Oct 2020, LAMMPS = 29 Oct 2020
  restoring atom style full from restart
  orthogonal box = (-80.000000 -80.000000 -80.000000) to (80.000000 80.000000 80.000000)
  1 by 1 by 1 MPI processor grid
  restoring pair style lj/cut from restart
  restoring bond style harmonic from restart
  60 atoms
  59 bonds
Finding 1-2 1-3 1-4 neighbors ...
  special bond factors lj:    0.0      1.0      1.0     
  special bond factors coul:  0.0      0.0      0.0     
     2 = max # of 1-2 neighbors
     2 = max # of 1-3 neighbors
     4 = max # of 1-4 neighbors
     6 = max # of special neighbors
  special bonds CPU = 0.000 seconds
  read_restart CPU = 0.003 seconds

#Force definition
#----------------------------------------------
#Bond definition
bond_style			harmonic
bond_coeff			1 5000 1
#Pair definition
special_bonds	lj 0 1 1
dielectric		80
pair_style		 lj/cut 1.12
pair_modify 		 shift yes
pair_coeff	1 1 1 1 1.12

#Timestep etc
#--------------------------------------------
timestep		0.001
run_style		verlet
velocity		all	create	1	3

#Fix
#---------------------------------------
group polymers type 1
60 atoms in group polymers
fix 1 all nve
fix 2 all langevin 1	1	1000	3

#Dump
#------------------------------------------------
compute  1 all gyration
variable  myRg2 equal c_1
variable  i equal step
fix  mythermofile all print 5000 "$i ${myRg2}" file radius_of_gyration.dat screen no

thermo_style		 custom step temp press pe evdwl ecoul ebond ke etotal enthalpy
thermo 	5000
dump	3 all custom 5000 dump.lammpstrj id mol type xu yu zu
run		2000000
Neighbor list info ...
  update every 1 steps, delay 10 steps, check yes
  max neighbors/atom: 2000, page size: 100000
  master list distance cutoff = 1.42
  ghost atom cutoff = 1.42
  binsize = 0.71, bins = 226 226 226
  1 neighbor lists, perpetual/occasional/extra = 1 0 0
  (1) pair lj/cut, perpetual
      attributes: half, newton on
      pair build: half/bin/newton
      stencil: half/bin/3d/newton
      bin: standard
WARNING: Communication cutoff 1.4200000000000002 is shorter than a bond length based estimate of 1.8. This may lead to errors. (../comm.cpp:667)
Per MPI rank memory allocation (min/avg/max) = 54.71 | 54.71 | 54.71 Mbytes
Step Temp Press PotEng E_vdwl E_coul E_bond KinEng TotEng Enthalpy 
 2000000            1 -0.00012130765   0.43871753 0.0060657727            0   0.43265176        1.475    1.9137175   -6.3675516 
 2005000   0.99087014 5.9920522e-05   0.46009606 0.00049937557            0   0.45959669    1.4615335    1.9216295    6.0122038 
 2010000    0.9330534 -4.0709087e-05   0.52347453  0.014163353            0   0.50931118    1.3762538    1.8997283  -0.87934536 
 2015000   0.96121439 4.232031e-06   0.46670268  0.024749174            0    0.4419535    1.4177912    1.8844939    2.1734005 
 2020000   0.95472667 -3.4040898e-05   0.50589649  0.060234128            0   0.44566236    1.4082218    1.9141183   -0.4097403 
 2025000     1.033458 3.6249618e-05   0.37264427  0.011765153            0   0.36087912    1.5243505    1.8969947    4.3716353 
 2030000    1.0238308 6.9141793e-05   0.40170835 0.0042589647            0   0.39744939    1.5101505    1.9118588    6.6319385 
 2035000   0.91261137 8.508576e-05   0.55740433 0.0010225272            0    0.5563818    1.3461018    1.9035061    7.7120273 
 2040000    0.9539235 6.6971661e-05   0.49245309   0.03432446            0   0.45812863    1.4070372    1.8994902    6.4714223 
 2045000   0.96698103 0.00011112466   0.45424689  0.012330201            0   0.44191669     1.426297    1.8805439    9.4666539 
 2050000   0.98288681 -5.0464643e-05   0.45686111  0.011316671            0   0.44554444     1.449758    1.9066192   -1.5384338 
 2055000   0.89164621 2.3041383e-05   0.61638105 0.0072600236            0   0.60912102    1.3151782    1.9315592    3.5045176 
 2060000    1.0642933 4.5631352e-05   0.34086449  0.020506346            0   0.32035814    1.5698327    1.9106972    5.0257975 
 2065000   0.89589405 6.4587475e-05   0.59241809  0.017923738            0   0.57449436    1.3214437    1.9138618    6.3230334 
 2070000   0.90362497 -1.795107e-05   0.59413437 0.00082731292            0   0.59330706    1.3328468    1.9269812   0.70152152 
 2075000   0.97163637 -7.4314247e-05   0.47107749            0            0   0.47107749    1.4331637    1.9042411   -3.1689448 
 2080000   0.97104833 -8.6958425e-05   0.46091803            0            0   0.46091803    1.4322963    1.8932143   -4.0431475 
 2085000   0.90394798 -2.8909217e-05   0.56946098  0.027221039            0   0.54223994    1.3333233    1.9027842 -0.070751601 
 2090000   0.96565954 7.3931078e-05   0.43630523  0.029828115            0   0.40647711    1.4243478    1.8606531    6.9076813 
 2095000   0.86533908 5.4918114e-05    0.5583257  0.021906208            0   0.53641949    1.2763751    1.8347008    5.5837774 
 2100000   0.90455468 -4.4285087e-05   0.48772053 0.0051217852            0   0.48259874    1.3342182    1.8219387   -1.2012566 
 2105000   0.90405948 -4.1590945e-05    0.4928007  0.047555577            0   0.44524513    1.3334877    1.8262884   -1.0129868 
 2110000   0.87997746 -8.680601e-05    0.5618817  0.029115262            0   0.53276644    1.2979668    1.8598485   -4.0661085 
 2115000     0.901443 2.8873822e-05   0.48917126 0.00035119312            0   0.48882007    1.3296284    1.8187997    3.7899193 
 2120000   0.91553491 0.00014294115   0.47184858 0.0054598063            0   0.46638877     1.350414    1.8222626    11.580378 
 2125000    1.0027478 6.5822233e-05   0.35056587 8.1484015e-05            0   0.35048438     1.479053    1.8296189    6.3230833 
 2130000   0.98367682 -5.0904495e-06   0.39972792  0.012927197            0   0.38680073    1.4509233    1.8506512    1.5031432 
 2135000   0.97948613 9.2496967e-05   0.44818931  0.021061224            0   0.42712809     1.444742    1.8929314     8.207391 
 2140000   0.93212255 7.4485402e-05   0.51675687  0.029637525            0   0.48711935    1.3748808    1.8916376    6.9765077 
 2145000   0.96894287 -3.188919e-05   0.45211074 0.0013144476            0   0.45079629    1.4291907    1.8813015  -0.29566722 
 2150000   0.92748813 -2.5138286e-06    0.5120011  0.017023577            0   0.49497752     1.368045    1.8800461    1.7084354 
 2155000   0.94908863 -1.3466822e-05    0.5206669  0.029093728            0   0.49157317    1.3999057    1.9205726    1.0012376 
 2160000   0.99877184 -5.6644348e-05   0.45104801  0.031400785            0   0.41964723    1.4731885    1.9242365   -1.9426844 
 2165000   0.99849874 2.5019331e-05   0.43626215 0.0088312897            0   0.42743086    1.4727856    1.9090478    3.6170341 
 2170000   0.90111013 -3.5466225e-05   0.58109744  0.052982511            0   0.52811493    1.3291374    1.9102349  -0.51092606 
 2175000   0.94967636 3.5428894e-05   0.47412758            0            0   0.47412758    1.4007726    1.8749002    4.2935127 
 2180000    1.0062504 -1.1081132e-05   0.38131647 0.0035722232            0   0.37774425    1.4842193    1.8655358    1.1090638 
 2185000   0.92561888 -6.172224e-05   0.49504464  0.033788702            0   0.46125594    1.3652878    1.8603325   -2.3532391 
 2190000   0.88721829 9.6503163e-05   0.60821964  0.041900405            0   0.56631924     1.308647    1.9168666    8.5048159 
 2195000   0.92714233 7.9949369e-05   0.53905169 0.0059346859            0   0.53311701    1.3675349    1.9065866    7.3644635 
 2200000    0.9723508 -6.9329137e-05    0.4393755  0.007833763            0   0.43154174    1.4342174    1.8735929   -2.8592762 
 2205000   0.97920793 2.2719337e-05   0.44662463 0.0090342492            0   0.43759038    1.4443317    1.8909563    3.4419297 
 2210000   0.97572703 -6.4662516e-05   0.49522192 0.0088274892            0   0.48639443    1.4391974    1.9344193   -2.4798751 
 2215000    1.0112279 -2.0389748e-05   0.47658252  0.051947668            0   0.42463485    1.4915612    1.9681437   0.57620357 
 2220000    1.0492223 9.4733273e-06   0.41602153  0.010807678            0   0.40521386    1.5476029    1.9636245     2.610337 
 2225000   0.98894938 2.5948487e-05   0.54637826 0.0021075133            0   0.54427074    1.4587003    2.0050786    3.7764953 
 2230000    1.0262591 -1.632832e-05    0.4830821  0.033670016            0   0.44941208    1.5137322    1.9968142   0.88213426 
 2235000   0.96848285 -3.9199652e-05    0.5680241 0.00025150564            0   0.56777259    1.4285122    1.9965363  -0.67949326 
 2240000    1.1110311 -6.4099981e-05   0.36215168 0.0046474243            0   0.35750426    1.6387709    2.0009226   -2.3749694 
 2245000    1.0935134 -3.4370062e-05   0.38107774  0.010167121            0   0.37091061    1.6129322      1.99401  -0.35231961 
 2250000   0.97137353 -3.2941973e-05    0.5675771  0.012716358            0   0.55486074     1.432776    2.0003531  -0.24848563 
 2255000    1.0744801 1.2230461e-05   0.41702104   0.03510796            0   0.38191308    1.5848581    2.0018792     2.836812 
 2260000   0.98420355 -4.215902e-05   0.54873128   0.06479246            0   0.48393882    1.4517002    2.0004315  -0.87762423 
 2265000    1.0307285 1.3261836e-07   0.50752926 0.0059094958            0   0.50161977    1.5203246    2.0278538    2.0369072 
 2270000    1.0800242 -3.2101941e-05   0.43336721 0.0049227603            0   0.42844445    1.5930356    2.0264028  -0.16508964 
 2275000     1.028697 7.0193126e-05   0.49549925 0.00053981808            0   0.49495943    1.5173281    2.0128274    6.8046781 
 2280000   0.97927148 -7.0633514e-05   0.56611855  0.012543355            0   0.55357519    1.4444254     2.010544   -2.8113706 
 2285000     1.031418 -6.5191164e-05   0.50351186  0.036573285            0   0.46693858    1.5213416    2.0248535     -2.42553 
 2290000    1.0284254 4.3260719e-05   0.54118672 0.0022546999            0   0.53893202    1.5169274    2.0581141    5.0113792 
 2295000    1.1600868 -1.7887526e-06    0.3514143 0.0022220609            0   0.34919224     1.711128    2.0625423    1.9404301 
 2300000    1.0374114 1.8213984e-05   0.52610013 0.0064141905            0   0.51968594    1.5301818     2.056282    3.2996899 
 2305000    1.0771421 6.0167001e-05    0.4128645 0.0056284271            0   0.40723607    1.5887846    2.0016491    6.1090497 
 2310000   0.99911612 7.3071681e-05   0.51577024  0.037438353            0   0.47833189    1.4736963    1.9894665    6.9778266 
 2315000    1.0967904 8.2642507e-05   0.38162105 0.0019465519            0    0.3796745    1.6177658    1.9993869    7.6411154 
 2320000    1.0696608 -8.4653319e-05   0.42488245   0.01026992            0   0.41461253    1.5777496    2.0026321   -3.7763678 
 2325000   0.99290946 5.2458941e-05   0.51718752 0.0010723967            0   0.51611513    1.4645415     1.981729     5.562926 
 2330000    1.0104461 5.409148e-05   0.50139861  0.054447047            0   0.44695157     1.490408    1.9918066    5.6844516 
 2335000    1.1404713 -8.3357229e-06   0.32873804            0            0   0.32873804    1.6821951    2.0109332    1.4418812 
 2340000     1.000062 5.1952004e-05   0.51002312 0.0021187314            0   0.50790439    1.4750914    1.9851145    5.5317047 
 2345000    1.0760936 -5.8639417e-06   0.40768508  0.016135162            0   0.39154992    1.5872381    1.9949232    1.5946114 
 2350000   0.99150023 7.2223556e-05   0.51770577 0.0065134852            0   0.51119228    1.4624628    1.9801686      6.91063 
 2355000    0.9879388 -5.4794686e-05   0.51185533  0.004453636            0   0.50740169    1.4572097    1.9690651   -1.7715855 
 2360000    1.0247698 -2.7846257e-05    0.4867386  0.024263154            0   0.46247544    1.5115354     1.998274  0.097302876 
 2365000   0.98976049 -6.4145997e-05    0.5747786 0.0014346107            0   0.57334399    1.4598967    2.0346753   -2.3443581 
 2370000     1.041775 4.0989581e-05   0.50340214  0.010850662            0   0.49255147    1.5366182    2.0400203    4.8382423 
 2375000    1.0987759 -2.1461099e-06   0.44186545  0.011672789            0   0.43019266    1.6206945      2.06256    1.9160522 
 2380000    1.0698456 -1.0059818e-05   0.51607132 0.0098464774            0   0.50622485    1.5780222    2.0940936    1.4073433 
 2385000    1.0661542 1.690746e-05   0.56519163  0.010958202            0   0.55423343    1.5725775    2.1377691    3.2919851 
 2390000    1.1819227 -6.1471693e-06   0.41271222 0.0073436298            0   0.40536859    1.7433359    2.1560482    1.7364014 
 2395000    1.1378201 -3.3316793e-06   0.51320717 0.0088624701            0    0.5043447    1.6782846    2.1914918    1.9640491 
 2400000    1.1928352 -3.6242985e-05   0.41819921 6.4177691e-05            0   0.41813503    1.7594319    2.1776311  -0.29655665 
 2405000    1.1304051 -6.7045705e-05   0.47441338 0.0031198402            0   0.47129354    1.6673475    2.1417608    -2.435226 
 2410000    1.1134166 -1.3837213e-05   0.50148455 0.0039666859            0   0.49751786    1.6422895     2.143774    1.1991537 
 2415000    1.0730854 1.4665728e-05   0.54224491  0.038351719            0   0.50389319    1.5828009    2.1250458    3.1262262 
 2420000    1.0342143 4.6297958e-05   0.58920514  0.028403405            0   0.56080173    1.5254661    2.1146713    5.2752786 
 2425000    1.1096386 1.5401317e-05   0.48166658 2.3580391e-05            0     0.481643     1.636717    2.1183836    3.1697802 
 2430000    1.0974265 -1.2396926e-05    0.4347442  0.023909511            0   0.41083468     1.618704    2.0534482    1.2071514 
 2435000    1.0369878 7.2218815e-05   0.51982671 0.00023146105            0   0.51959525     1.529557    2.0493837    6.9795215 
 2440000    1.0157179 -5.0266055e-05   0.51062707  0.032826657            0   0.47780042    1.4981838    2.0088109   -1.4226851 
 2445000    1.0592451 6.8553386e-06   0.44297148 0.0093870615            0   0.43358442    1.5623865     2.005358    2.4733491 
 2450000   0.99893448 -1.9502045e-05   0.53882802  0.015975407            0   0.52285261    1.4734284    2.0122564   0.68091677 
 2455000    1.1159413 6.9493538e-06   0.38365694   0.01371216            0   0.36994478    1.6460134    2.0296703    2.5040795 
 2460000   0.95484424 -0.00015897967   0.65023388  0.040583326            0   0.60965055    1.4083953    2.0586291   -8.7943833 
 2465000    1.0159539 0.00013988065   0.55371597 0.0065335742            0    0.5471824     1.498532     2.052248    11.601434 
 2470000    1.0669304 -7.4604492e-05   0.53670224 0.0070280927            0   0.52967415    1.5737223    2.1104245   -2.9825755 
 2475000     1.104876 7.0785671e-06   0.47706018  0.034105441            0   0.44295474    1.6296922    2.1067523    2.5899825 
 2480000    1.0818233 9.8767178e-05   0.51285971  0.015684936            0   0.49717478    1.5956894    2.1085491    8.8510551 
 2485000    1.0384113 0.0001000849   0.54296818  0.029609149            0   0.51335903    1.5316567    2.0746249    8.9070875 
 2490000    1.0203098 -2.8978138e-05   0.51146633  0.044768706            0   0.46669762    1.5049569    2.0164233  0.038182365 
 2495000   0.95851337 -0.00011756643   0.58624149 0.0046744554            0   0.58156704    1.4138072    2.0000487   -6.0258197 
 2500000     1.028839 -7.4111079e-06   0.50493286  0.032513194            0   0.47241967    1.5175375    2.0224704    1.5165387 
 2505000    1.0131425 5.3335442e-05   0.52244165 0.0041748073            0   0.51826684    1.4943851    2.0168268    5.6578596 
 2510000    1.0654461 7.8465771e-05    0.4390143 0.0044826174            0   0.43453168    1.5715329    2.0105472    7.3671438 
 2515000    1.0544822 6.6627872e-05   0.45683882 0.0069079975            0   0.44993082    1.5553613    2.0122001    6.5606629 
 2520000    1.0487586 1.8962137e-05   0.45648079 0.00068715511            0   0.45579364     1.546919    2.0033997    3.2978816 
 2525000    1.0403311 -1.0767247e-05   0.45995232 0.0071010456            0   0.45285127    1.5344884    1.9944407    1.2593966 
 2530000   0.99860712 -6.1556128e-05   0.51709863  0.015746391            0   0.50135224    1.4729455    1.9900441   -2.2121875 
 2535000    1.1396738 5.910592e-05   0.31047247 0.0097640019            0   0.30070847    1.6810189    1.9914913    6.0264555 
 2540000    1.0546289 4.3663273e-06   0.43078358  0.083897028            0   0.34688655    1.5555776    1.9863612    2.2844358 
 2545000    1.0772183 1.234612e-05   0.38336814            0            0   0.38336814     1.588897    1.9722651    2.8150936 
 2550000   0.88188162 -6.1480652e-05   0.67051453  0.064422185            0   0.60609235    1.3007754    1.9712899   -2.2257892 
 2555000    1.0364226 4.6109236e-05    0.4423903   0.01095581            0   0.43143449    1.5287233    1.9711136    5.1188375 
 2560000   0.95707195 0.00012206388   0.55412998  0.023245121            0   0.53088486    1.4116811    1.9658111    10.298706 
 2565000   0.97479647 -5.3519052e-05   0.52821739  0.041868437            0   0.48634895    1.4378248    1.9660422   -1.6875251 
 2570000   0.99915826 -5.1804031e-05   0.49330545 0.0052292021            0   0.48807624    1.4737584    1.9670639   -1.5694246 
 2575000    1.0526116 -3.7440845e-05   0.43371021 0.00059464201            0   0.43311557    1.5526021    1.9863124  -0.56964932 
 2580000    1.0371825 2.4742023e-05   0.46598262  0.027055176            0   0.43892744    1.5298442    1.9958269    3.6848823 
 2585000    1.0396011 1.6597633e-05   0.45066704  0.029147602            0   0.42151943    1.5334116    1.9840786    3.1171437 
 2590000   0.99721787 -2.7618203e-05   0.50730541 0.00025852155            0   0.50704689    1.4708964    1.9782018   0.09279908 
 2595000    1.1117977 0.00012504387   0.36445872   0.01639515            0   0.34806357    1.6399016    2.0043603    10.540689 
 2600000    1.0567227 -6.2818009e-05   0.41954023  0.004537943            0   0.41500229     1.558666    1.9782063   -2.3101698 
 2605000   0.95513346 -4.4609582e-05   0.54790913  0.041337123            0   0.50657201    1.4088219     1.956731   -1.0886165 
 2610000    1.0160919 5.9426217e-06   0.46193943  0.016396277            0   0.44554315    1.4987355     1.960675    2.3663579 
 2615000    1.0300371 3.5379161e-05    0.4420703  0.011764629            0   0.43030567    1.5193047     1.961375    4.3765924 
 2620000    1.0004539 -4.016265e-05   0.45908295 0.0092110287            0   0.44987193    1.4756694    1.9347524  -0.80701787 
 2625000   0.92036927 3.3094041e-05   0.57315025  0.056072591            0   0.51707766    1.3575447    1.9306949    4.1899148 
 2630000    1.0418076 -1.0395476e-05   0.39667072 0.0027279762            0   0.39394274    1.5366662    1.9333369    1.2236724 
 2635000   0.98808355 2.8232013e-05   0.48156369  0.012753483            0    0.4688102    1.4574232    1.9389869    3.8662924 
 2640000    1.0572858 -6.5383848e-05   0.33713135 0.0079852166            0   0.32914613    1.5594966    1.8966279   -2.5669095 
 2645000   0.92077683 1.0750291e-05   0.48761529  0.023398692            0    0.4642166    1.3581458    1.8457611    2.5796476 
 2650000    0.9756337 3.5405684e-05   0.42309601  0.027719094            0   0.39537691    1.4390597    1.8621557    4.2791838 
 2655000   0.94059117 -4.2550769e-05   0.48228315  0.010915126            0   0.47136802     1.387372    1.8696551    -1.035144 
 2660000     1.002073 1.3966371e-05   0.41569728 0.0010445186            0   0.41465277    1.4780577     1.893755    2.8471925 
 2665000    1.0021043 -5.3539801e-05   0.43021351  0.042539722            0   0.38767378    1.4781039    1.9083174   -1.7466664 
 2670000   0.98923464 0.00010680825    0.4793011  0.034781627            0   0.44451948    1.4591211    1.9384222    9.2298655 
 2675000   0.93831948 0.00012737588   0.53196996   0.03094683            0   0.50102313    1.3840212    1.9159912    10.611518 
 2680000    1.0138534 -4.5708064e-05   0.44055704 0.0029444818            0   0.43761256    1.4954338    1.9359908   -1.1843464 
 2685000    1.0162053 5.064428e-05   0.42712465   0.01904332            0   0.40808133    1.4989029    1.9260275    5.3833437 
 2690000    1.1231145 -1.4258547e-05   0.30980076  0.010510352            0   0.29929041    1.6565939    1.9663947   0.99301123 
 2695000     1.088231 -2.4617906e-05   0.40791007  0.012586741            0   0.39532333    1.6051408    2.0130509   0.33246849 
 2700000    1.0254336 1.4834481e-05   0.51191416  0.048347246            0   0.46356691    1.5125146    2.0244287    3.0371293 
 2705000     1.080094 -5.4898694e-05    0.4639153  0.021875153            0   0.44204014    1.5931386    2.0570539    -1.690697 
 2710000    1.1047989 -1.7625481e-05   0.40816633  0.019321287            0   0.38884504    1.6295784    2.0377447   0.83451184 
 2715000     1.139345 2.6682996e-05   0.33367644  0.020794377            0   0.31288206    1.6805339    2.0142104    3.8357696 
 2720000     1.047058 -1.2145646e-05   0.48439341  0.012650244            0   0.47174317    1.5444106     2.028804    1.1996612 
 2725000    1.1302071 -1.6128846e-05   0.37317306  0.012209956            0   0.36096311    1.6670555    2.0402286   0.93916603 
 2730000    1.0238351 5.1967843e-05   0.55367859  0.033987717            0   0.51969087    1.5101567    2.0638353    5.6115067 
 2735000    1.0346345 1.8049081e-05   0.51769645  0.050169333            0   0.46752712    1.5260858    2.0437823    3.2759329 
 2740000    1.0101254 -8.9339614e-06   0.50892116  0.022355113            0   0.48656604     1.489935    1.9988562    1.3889644 
 2745000    1.0368189 3.6210693e-05   0.45237092 0.0088784831            0   0.44349244    1.5293078    1.9816787     4.453662 
 2750000    1.0900895 -7.290504e-05   0.40200212 0.0052326038            0   0.39676952     1.607882    2.0098842   -2.9670999 
 2755000    1.0389931 -2.8759193e-05   0.41364726            0            0   0.41364726    1.5325148    1.9461621 -0.017132172 
 2760000    1.0045228 2.5965851e-05   0.45420834 0.0092337208            0   0.44497461    1.4816712    1.9358795    3.7084816 
 2765000   0.96688744 8.4361076e-05   0.48436648  0.040720949            0   0.44364553     1.426159    1.9105255    7.6695749 
 2770000   0.99614959 -0.00013061758    0.4353546  0.021110247            0   0.41424435    1.4693206    1.9046752   -7.0121517 
 2775000   0.98969714 2.9739409e-05   0.41728627 0.00043938645            0   0.41684689    1.4598033    1.8770895    3.9072999 
 2780000   0.87164606 2.132521e-05   0.59285135 0.00052304567            0    0.5923283    1.2856779    1.8785293    3.3343303 
 2785000    0.9675843 -2.0335363e-05   0.47142472   0.01201726            0   0.45940746    1.4271868    1.8986116   0.51038412 
 2790000   0.98643087 9.9356528e-05   0.43830764 0.0083061282            0   0.43000152    1.4549855    1.8932932    8.6760321 
 2795000    1.0318176 6.4577452e-05   0.37415663   0.02575582            0   0.34840081     1.521931    1.8960876     6.304575 
 2800000    1.0123455 6.0346798e-05   0.40104337  0.021079853            0   0.37996352    1.4932095    1.8942529    6.0139277 
 2805000    1.0233167 7.9293741e-05   0.39817635  0.035911774            0   0.36226458    1.5093921    1.9075684    7.3206878 
 2810000    1.0634892 3.1332413e-05   0.29920824 0.0062122645            0   0.29299598    1.5686465    1.8678548    4.0068141 
 2815000   0.96268149 2.3318126e-05   0.43377627  0.010272209            0   0.42350406    1.4199552    1.8537315    3.4455822 
 2820000   0.96039124 8.9428723e-05   0.45009572 0.0055564899            0   0.44453923    1.4165771    1.8666728    7.9716737 
 2825000    1.0516201 -8.1793033e-06   0.34390204  0.016178361            0   0.32772368    1.5511397    1.8950417     1.336668 
 2830000   0.97935179 3.4569028e-05   0.46612601  0.020273607            0    0.4458524    1.4445439    1.9106699    4.2705822 
 2835000    1.0035056 -7.3381306e-05   0.44483417  0.059543791            0   0.38529038    1.4801707    1.9250049   -3.0844922 
 2840000   0.99228083 3.6460321e-05   0.42495553  0.031701934            0   0.39325359    1.4636142    1.8885697    4.3775944 
 2845000    1.0170363 -2.6340415e-05    0.3646561 0.0024761132            0   0.36217998    1.5001285    1.8647846  0.066612252 
 2850000    1.0097723 -2.9091634e-05   0.35301147 0.0013659188            0   0.35164555    1.4894141    1.8424256   -0.1435633 
 2855000   0.96845853 -3.6602363e-05    0.4274551 0.0032909649            0   0.42416414    1.4284763    1.8559314  -0.64278987 
 2860000    1.0448655 3.6096958e-05   0.32682251  0.081142131            0   0.24568037    1.5411767    1.8679992    4.3322182 
 2865000    1.0283652 3.7448157e-05   0.36026134            0            0   0.36026134    1.5168387    1.8771001    4.4335609 
 2870000    1.0005675 9.5350819e-06   0.38885883  0.024513866            0   0.36434496     1.475837    1.8646958    2.5156241 
 2875000    1.0036431 2.8211442e-05   0.39016797  0.025165476            0   0.36500249    1.4803735    1.8705415    3.7964426 
 2880000    1.0485604 -0.00010171665   0.33580899 0.0027040569            0   0.33310494    1.5466266    1.8824356   -5.0614207 
 2885000   0.95059104 -1.7445731e-05   0.47792392  0.037863379            0   0.44006054    1.4021218    1.8800457   0.68908378 
 2890000    0.9439236 -1.0214129e-05    0.4798173  0.014599134            0   0.46521816    1.3922873    1.8721046      1.17482 
 2895000   0.97667298 -1.6320007e-05   0.43399087  0.013532526            0   0.42045835    1.4405926    1.8745835   0.76047107 
 2900000    1.0510828 0.00010003597   0.31105585 0.0016495362            0   0.30940631    1.5503471    1.8614029    8.6905252 
 2905000   0.92405404 -5.6412254e-05   0.46420075 0.0061609645            0   0.45803978    1.3629797    1.8271805   -2.0238961 
 2910000    0.9972389 3.8200572e-05   0.36218841 0.0071963342            0   0.35499207    1.4709274    1.8331158    4.4409415 
 2915000   0.93808979 5.4373824e-05   0.46889295  0.011587691            0   0.45730526    1.3836824    1.8525754    5.5644951 
 2920000      1.04077 4.5211917e-05   0.33114756 0.0016757145            0   0.32947185    1.5351357    1.8662833    4.9527501 
 2925000    1.0303755 -2.5815173e-05   0.35362367  0.014003998            0   0.33961967    1.5198039    1.8734276   0.11111177 
 2930000   0.93979012 7.9742725e-05   0.50321482 0.00036333445            0   0.50285149    1.3861904    1.8894053    7.3331753 
 2935000    1.0758929 -5.0082817e-05   0.31618259 0.0033173954            0   0.31286519     1.586942    1.9031246   -1.5158624 
 2940000    0.9746929 -6.503353e-05   0.48491272   0.03735808            0   0.44755464     1.437672    1.9225848   -2.5170376 
 2945000    1.0265304 8.6082599e-05   0.41857503 0.0044304468            0   0.41414458    1.5141323    1.9327074    7.8092794 
 2950000   0.99218176 2.4688598e-05   0.45848109  0.042805985            0    0.4156751    1.4634681    1.9219492    3.6073575 
 2955000    1.0430524 4.6902321e-05    0.3618134 0.0014843596            0   0.36032904    1.5385023    1.9003157    5.1021808 
 2960000    1.0271155 -5.2451117e-05   0.38774968 0.0033162727            0   0.38443341    1.5149954    1.9027451   -1.6779178 
 2965000   0.98088589 -3.1542254e-05   0.43518018  0.029699067            0   0.40548111    1.4468067    1.8819869  -0.27129768 
 2970000    0.9334519 -3.6595601e-05   0.51685224  0.033039058            0   0.48381318    1.3768416    1.8936938  -0.60456593 
 2975000    1.0091518 3.0998957e-05   0.45307637  0.029128764            0    0.4239476    1.4884988    1.9415752    4.0577707 
 2980000    1.0328262 3.0579469e-05   0.41509103 0.0097014975            0   0.40538953    1.5234186    1.9385096     4.026068 
 2985000   0.85941096 -4.1121631e-05   0.64709628  0.062551231            0   0.58454505    1.2676312    1.9147274  -0.89250922 
 2990000   0.94182988 5.7933838e-05   0.50319545 0.00055986123            0   0.50263559    1.3891991    1.8923945    5.8473445 
 2995000    1.0014296 6.7004653e-05   0.37208778   0.00199036            0   0.37009742    1.4771087    1.8491965    6.4233808 
 3000000    0.9136052 -0.00016672503    0.4959328 0.0020120277            0   0.49392077    1.3475677    1.8435005   -9.5382614 
 3005000   0.96601039 -7.5618151e-05   0.43849899  0.013380264            0   0.42511873    1.4248653    1.8633643   -3.2988348 
 3010000   0.93930068 -4.7663266e-05    0.4638945  0.011614136            0   0.45228037    1.3854685     1.849363   -1.4044493 
 3015000   0.97979445 -7.6957426e-05   0.39903673  0.014479721            0   0.38455701    1.4451968    1.8442336   -3.4093934 
 3020000   0.93763795 -5.7937545e-05   0.46318398  0.013269536            0   0.44991444     1.383016       1.8462   -2.1090031 
 3025000   0.97829855 4.4211909e-05   0.38826522 0.0042060046            0   0.38405921    1.4429904    1.8312556    4.8494553 
 3030000   0.93569984 7.1608399e-05   0.42038143 0.0060096141            0   0.41437181    1.3801573    1.8005387    6.6890054 
 3035000    0.9286979 -2.957822e-05   0.44573809  0.012209203            0   0.43352889    1.3698294    1.8155675  -0.20363899 
 3040000    0.9428973 -4.2620245e-06   0.42414893  0.022274232            0    0.4018747    1.3907735    1.8149224    1.5239682 
 3045000   0.94077073 -7.8509208e-06   0.46120104 0.0084885661            0   0.45271248    1.3876368    1.8488379    1.3128817 
 3050000    1.0169917 -4.1187758e-05   0.37368248 0.0083895861            0    0.3652929    1.5000628    1.8737453  -0.93800565 
 3055000    0.9672265 -1.5098665e-05   0.45897647  0.020980753            0   0.43799572    1.4266591    1.8856356   0.85490006 
 3060000   0.96017668 2.0792423e-05   0.46301057  0.041482813            0   0.42152776    1.4162606    1.8792712    3.2987006 
 3065000   0.86827627 -8.775888e-05    0.5981214 0.0077732747            0   0.59034813    1.2807075    1.8788289   -4.1121773 
 3070000    1.0301999 4.5769483e-05   0.38285928  0.016785042            0   0.36607424    1.5195448    1.9024041    5.0269341 
 3075000   0.98157738 -7.5671344e-05   0.47245336 0.0090635388            0   0.46338982    1.4478266      1.92028   -3.2455504 
 3080000   0.94592466 -3.2310219e-06   0.54064846  0.052877761            0    0.4877707    1.3952389    1.9358873    1.7153162 
 3085000   0.97372015 8.5822192e-06   0.47273503  0.005465613            0   0.46726942    1.4362372    1.9089723    2.4948518 
 3090000   0.98189302 1.4521234e-06   0.45627364  0.036257966            0   0.42001567    1.4482922    1.9045658    2.0036975 
 3095000   0.95964288 4.1759639e-05   0.53020216 0.0071676976            0   0.52303447    1.4154732    1.9456754    4.7964668 
 3100000     1.046027 -2.2000568e-05   0.45726213  0.011124783            0   0.44613735    1.5428899     2.000152   0.49824657 
 3105000    1.0283942 4.9422563e-05   0.48954001  0.035887222            0   0.45365279    1.5168815    2.0064215    5.3803351 
 3110000    1.0120668 -0.00013172501   0.49782815  0.028737466            0   0.46909069    1.4927986    1.9906267   -7.0018006 
 3115000    1.0028842 3.5671275e-05   0.49274457 2.9625367e-05            0   0.49271495    1.4792541    1.9719987    4.4071578 
 3120000   0.92649542 5.1458071e-06   0.57524608 0.0067601171            0   0.56848597    1.3665808    1.9418268    2.2931139 
 3125000    1.0476839 -3.1534024e-05   0.41216371 0.0044633143            0   0.40770039    1.5453337    1.9574975  -0.19522525 
 3130000   0.96607021 4.9927522e-05   0.56416214  0.020792175            0   0.54336997    1.4249536    1.9891157    5.3975012 
 3135000   0.98042715 2.1306434e-05   0.56486403  0.011614391            0   0.55324964      1.44613    2.0109941    3.4655133 
 3140000   0.99022105 -6.6585125e-05   0.51570002  0.015163384            0   0.50053663     1.460576    1.9762761   -2.5692685 
 3145000    1.0491676 -1.4029687e-05   0.44719398 0.0042606945            0   0.44293328    1.5475222    1.9947162    1.0369562 
 3150000    1.0109172 -8.7706202e-05   0.48457846  0.046723245            0   0.43785522    1.4911029    1.9756813   -4.0117287 
 3155000    1.0167918 -5.0800553e-05    0.5165196  0.020713602            0     0.495806    1.4997678    2.0162874    -1.451697 
 3160000    1.0443214 3.1795809e-05   0.47839494  0.025590564            0   0.45280438    1.5403741     2.018769    4.1893629 
 3165000   0.98027509 2.2682335e-06   0.54402953 0.0018121777            0   0.54221735    1.4459058    1.9899353      2.14478 
 3170000   0.96316043 -2.4919549e-06    0.5982155 0.0086087669            0   0.58960673    1.4206616    2.0188771    1.8487597 
 3175000    1.0024856 -3.9799644e-05   0.52361593  0.020244942            0   0.50337099    1.4786663    2.0022823  -0.71470679 
 3180000   0.92849963 -0.00013573714    0.6380724  0.065265247            0   0.57280716     1.369537    2.0076094   -7.2587129 
 3185000   0.99781998 -4.7951729e-05   0.51492289 0.0051181241            0   0.50980477    1.4717845    1.9867074   -1.2867973 
 3190000    0.9850152 -6.6810832e-05   0.53721576 0.00071776621            0     0.536498    1.4528974    1.9901132   -2.5708396 
 3195000    1.0005425 -8.0732864e-05   0.53282207  0.025617029            0   0.50720505    1.4758002    2.0086223   -3.5027412 
 3200000   0.99569582 -2.2240382e-06   0.54030653 0.00078093129            0    0.5395256    1.4686513    2.0089579    1.8571302 
 3205000   0.98505743 -4.769194e-05   0.56085424  0.018388169            0   0.54246607    1.4529597     2.013814   -1.2419558 
 3210000   0.94351463 3.4893697e-05   0.60863542 0.0068662306            0   0.60176919    1.3916841    2.0003195    4.3823959 
 3215000    1.0631671 0.00010668539   0.43532355 0.0039893133            0   0.43133424    1.5681714     2.003495    9.2865509 
 3220000    1.0312792 -4.2998169e-05   0.49159334  0.025417312            0   0.46617603    1.5211368    2.0127302  -0.92261153 
 3225000    1.0648872 -5.6134101e-05   0.43242543 0.0021210768            0   0.43030436    1.5707086    2.0031341   -1.8289539 
 3230000    1.0289603  3.88384e-06    0.5122494   0.01849837            0   0.49375103    1.5177165    2.0299659    2.2951027 
 3235000     1.039252 -4.6034671e-05    0.4987729  0.012163406            0    0.4866095    1.5328967    2.0316696    -1.110964 
 3240000    1.0407391 -5.5177187e-05   0.51381754  0.014257509            0   0.49956003    1.5350902    2.0489078   -1.7178549 
 3245000    1.0434656 -2.3160452e-05   0.51762136  0.022335168            0   0.49528619    1.5391117    2.0567331   0.47564622 
 3250000   0.98105332 4.8511548e-05   0.60908421  0.047367069            0   0.56171714    1.4470536    2.0561379    5.3678595 
 3255000    1.0124149 5.9392167e-05   0.54125237 0.0088979089            0   0.53235446     1.493312    2.0345643    6.0890696 
 3260000   0.97854858 -8.0172345e-05   0.55075064  0.040623236            0    0.5101274    1.4433592    1.9941098    -3.478989 
 3265000     1.022825 0.0001518901   0.48413505  0.040515159            0   0.44361989    1.5086669    1.9928019    12.361833 
 3270000    1.0274811 7.5862111e-05   0.48685543  0.026483422            0   0.46037201    1.5155346      2.00239    7.1812434 
 3275000   0.95023533 4.3893824e-05   0.61718711  0.013729015            0    0.6034581    1.4015971    2.0187842    5.0152693 
 3280000     1.001965 1.9771856e-05   0.49280039  0.022419909            0   0.47038048    1.4778983    1.9706987    3.3204574 
 3285000    1.0165834 2.2292042e-05    0.4851186 0.00019523078            0   0.48492336    1.4994605    1.9845791    3.5063825 
 3290000    1.0523925 -1.4210749e-05   0.43976821  0.010525173            0   0.42924304     1.552279    1.9920472    1.0219267 
 3295000   0.97574083 6.3934356e-05   0.51200272  0.031614125            0    0.4803886    1.4392177    1.9512204    6.3158058 
 3300000    1.0581374 -5.5534493e-05   0.41197864 0.0039109792            0   0.40806766    1.5607527    1.9727313   -1.8184234 
 3305000     1.011973 -4.8576052e-05   0.48112948 0.0070860488            0   0.47404344    1.4926601    1.9737896   -1.3423355 
 3310000   0.95749909 9.9759872e-05   0.54062536  0.059563864            0    0.4810615    1.4123112    1.9529365    8.7632105 
 3315000    1.0317778 1.3897977e-05   0.45472733  0.027641545            0   0.42708578    1.5218722    1.9765996    2.9253681 
 3320000    1.0349417 0.00010531183   0.41742682  0.002348744            0   0.41507808    1.5265391    1.9439659    9.1332536 
 3325000    1.0206327 -1.3900203e-05   0.43971253   0.01776337            0   0.42194916    1.5054332    1.9451457   0.99622518 
 3330000   0.99163101 6.2992914e-05   0.45152568 0.0026561683            0   0.44886951    1.4626557    1.9141814    6.2144977 
 3335000    1.0462833 2.1248303e-05   0.37412826  0.004642399            0   0.36948586    1.5432678    1.9173961    3.3679469 
 3340000   0.95559653 8.4286041e-05   0.49875193  0.075697704            0   0.42305422    1.4095049    1.9082568    7.6621839 
 3345000   0.93551458 -0.00010995234   0.46230307  0.010672342            0   0.45163073     1.379884    1.8421871   -5.6638928 
 3350000    0.9526733 -2.8999139e-05   0.46540001  0.036480235            0   0.42891977    1.4051931    1.8705931  -0.10908143 
 3355000    1.0200384 -1.5412404e-05   0.40174009  0.017487297            0    0.3842528    1.5045567    1.9062968   0.85414333 
 3360000   0.99452984 -6.0264908e-05   0.41154597  0.055258389            0   0.35628758    1.4669315    1.8784775   -2.2356069 
 3365000   0.93322403 9.4151638e-05    0.4953327  0.072939706            0   0.42239299    1.3765054    1.8718381    8.2992566 
 3370000    1.0039972 -3.9808296e-07   0.39282812   0.04398717            0   0.34884095    1.4808959     1.873724    1.8465482 
 3375000   0.92600375 -6.4946744e-05   0.44517251   0.01595342            0   0.42921909    1.3658555     1.811028   -2.6226697 
 3380000   0.89881544 6.4138897e-05   0.44520789  0.029116136            0   0.41609176    1.3257528    1.7709607    6.1495094 
 3385000   0.84995936 1.8655326e-05   0.47804729 0.0077034043            0   0.47034388    1.2536901    1.7317373    3.0052742 
 3390000   0.89006149 -8.507324e-06   0.37230687  0.015496402            0   0.35681047    1.3128407    1.6851476    1.1043809 
 3395000   0.85847316 1.1748665e-05   0.41580028 0.0080159607            0   0.40778432    1.2662479    1.6820482    2.4840904 
 3400000   0.87352651 -1.6264166e-06   0.37740131  0.015440395            0   0.36196091    1.2884516    1.6658529    1.5548229 
 3405000   0.87339473 -1.8795525e-05   0.37814849  0.039608006            0   0.33854048    1.2882572    1.6664057   0.38329786 
 3410000   0.80194151 -5.4100131e-05   0.46576504  0.016423244            0   0.44934179    1.1828637    1.6486288   -2.0446068 
 3415000   0.78492416 1.2008952e-05   0.48840176 0.0043545371            0   0.48404723    1.1577631    1.6461649     2.465976 
 3420000   0.87484758 -7.5249981e-06   0.35656542  0.029614966            0   0.32695045    1.2904002    1.6469656    1.1332591 
 3425000   0.82498146 4.2271473e-05    0.3900025   0.04528042            0   0.34472208    1.2168476    1.6068502    4.4925827 
 3430000   0.91147243 1.2595418e-05   0.28242618  0.010014322            0   0.27241186    1.3444218     1.626848    2.4866952 
 3435000   0.85654342 -2.0168437e-06   0.36268912  0.014994406            0   0.34769471    1.2634015    1.6260907    1.4884075 
 3440000   0.88189707 -2.586429e-05   0.33510565 0.0010399688            0   0.33406568    1.3007982    1.6359038  -0.12976504 
 3445000   0.77868526 -0.00010680903   0.48911111  0.039295509            0    0.4498156    1.1485608    1.6376719   -5.6538244 
 3450000   0.79857901 -3.0505946e-05   0.44795967  0.014212265            0   0.43374741     1.177904    1.6258637   -0.4566755 
 3455000    0.8542664 0.00015338215   0.39869779 0.0020341732            0   0.39666362    1.2600429    1.6587407    12.129629 
 3460000   0.86366794 -5.6125475e-05   0.38343761 0.0041694763            0   0.37926814    1.2739102    1.6573478   -2.1741513 
 3465000   0.83716117 6.0384641e-05   0.42413834 0.0072465693            0   0.41689177    1.2348127    1.6589511    5.7812092 
 3470000   0.81452261 -6.6151075e-05   0.45774927 0.0047853158            0   0.45296396    1.2014209    1.6591701   -2.8567432 
 3475000   0.82229395 -9.7875983e-06   0.46823573  0.029010115            0   0.43922561    1.2128836    1.6811193    1.0129526 
 3480000   0.89417349 8.2335707e-05   0.33836563 0.0028235887            0   0.33554204    1.3189059    1.6572715    7.2780558 
 3485000   0.86327283 -6.9213546e-06   0.38134206 0.0056914961            0   0.37565056    1.2733274    1.6546695    1.1821717 
 3490000   0.87075844 -1.4148805e-05   0.37769497 0.0023012523            0   0.37539372    1.2843687    1.6620637   0.69617193 
 3495000   0.84393476 0.00010319471   0.39719119 0.0051169719            0   0.39207422    1.2448038     1.641995    8.6867536 
 3500000   0.74733858 6.4032808e-05   0.52686715  0.039932129            0   0.48693502    1.1023244    1.6291916    6.0004979 
 3505000   0.80588058 3.8063446e-05   0.44272993  0.007792329            0    0.4349376    1.1886739    1.6314038    4.2298684 
 3510000   0.82389742 2.147387e-05   0.38771466  0.005114563            0    0.3826001    1.2152487    1.6029633    3.0689129 
 3515000   0.80206107 -2.0390428e-05   0.37838964  0.047793325            0   0.33059631    1.1830401    1.5614297   0.16944318 
 3520000    0.7233346 -8.1379933e-05   0.49347997 0.0011347402            0   0.49234523    1.0669185    1.5603985   -3.9951382 
 3525000   0.69013276 -3.269469e-05   0.52253372  0.016420814            0   0.50611291    1.0179458    1.5404795  -0.69147795 
 3530000   0.73014802 -3.0745833e-05   0.46273059  0.020705942            0   0.44202465    1.0769683    1.5396989  -0.55921662 
 3535000   0.72537312 -6.1300126e-05   0.45812487 0.0026070525            0   0.45551781    1.0699254    1.5280502   -2.6567051 
 3540000   0.85206092 -6.7111456e-05   0.29061291 0.0060148325            0   0.28459807    1.2567899    1.5474028   -3.0340727 
 3545000   0.81602966 -7.4715602e-05   0.36117636  0.010910208            0   0.35026615    1.2036437    1.5648201    -3.535765 
 3550000   0.83404379 2.4188328e-05   0.34458487  0.022057673            0    0.3225272    1.2302146    1.5747995     3.226056 
 3555000   0.75863039 -4.40057e-06   0.42065841  0.011425104            0   0.40923331    1.1189798    1.5396382     1.239226 
 3560000   0.78587218 -6.0391462e-05   0.36567866  0.030473651            0     0.335205    1.1591615    1.5248401   -2.5978837 
 3565000    0.7465431 1.405718e-05   0.41159528  0.038138314            0   0.37345697    1.1011511    1.5127463    2.4723832 
 3570000   0.84956237 4.3958809e-05   0.25789226 0.0023763541            0   0.25551591    1.2531045    1.5109968    4.5119181 
 3575000   0.83062781 1.0594615e-05   0.28660305 0.0089786456            0   0.27762441     1.225176    1.5117791    2.2350381 
 3580000   0.83386996 -3.5097424e-05   0.32034838 0.0048024799            0    0.3155459    1.2299582    1.5503066  -0.84567759 
 3585000    0.8292611 3.3572635e-05   0.34411705 0.00094683087            0   0.34317022    1.2231601    1.5672772     3.859169 
 3590000   0.83763551 1.1092709e-05   0.33799961 0.0091692565            0   0.32883035    1.2355124     1.573512    2.3307743 
 3595000   0.84564734 4.5489433e-05   0.33829348 0.0027651943            0   0.33552828    1.2473298    1.5856233    4.6910352 
 3600000    0.8623645 -8.5044492e-05   0.30808734  0.002380148            0   0.30570719    1.2719876     1.580075    -4.225629 
 3605000   0.86432238 -2.3060417e-05   0.32459627  0.034418893            0   0.29017738    1.2748755    1.5994718  0.025213994 
 3610000   0.83776607 -0.00010175719   0.35558994  0.001971014            0   0.35361893     1.235705    1.5912949   -5.3553296 
 3615000   0.84256487 1.3599622e-05   0.38333022  0.040539114            0   0.34279111    1.2427832    1.6261134    2.5545143 
 3620000   0.91804765 1.8452284e-05   0.29504878 0.00030612655            0   0.29474266    1.3541203    1.6491691     2.908845 
 3625000   0.85251414 2.037759e-05   0.40758249  0.063511757            0   0.34407073    1.2574584    1.6650408     3.056151 
 3630000   0.88318791 -3.3301606e-05    0.3986703  0.046287862            0   0.35238243    1.3027022    1.7013725  -0.57201715 
 3635000   0.87598875 1.5233304e-05     0.423381 0.00022352382            0   0.42315748    1.2920834    1.7154644    2.7553913 
 3640000    0.9609891 -1.9065527e-05   0.29452392 0.0089401808            0   0.28558373    1.4174589    1.7119828   0.41044284 
 3645000   0.85268375 8.2576813e-05   0.43286305  0.043115987            0   0.38974707    1.2577085    1.6905716    7.3278154 
 3650000   0.87767927 -0.00012810865   0.38131542            0            0   0.38131542    1.2945769    1.6758923   -7.0696581 
 3655000   0.86478712 -4.328854e-06   0.34440468 0.0081604917            0   0.33624419     1.275561    1.6199657    1.3244493 
 3660000   0.88051959 -2.2954699e-05   0.32927244 0.0096513592            0   0.31962108    1.2987664    1.6280388  0.060998068 
 3665000   0.87139323 2.8443067e-05   0.33961639 0.0096270701            0   0.32998932     1.285305    1.6249214    3.5666348 
 3670000   0.84664052 -1.6613134e-05   0.41478446  0.018520057            0   0.39626441    1.2487948    1.6635792   0.52945594 
 3675000   0.87169172 2.0291857e-05   0.35817958 0.0042360302            0   0.35394355    1.2857453    1.6439249    3.0291823 
 3680000   0.89407838 5.3086073e-05   0.32426028 0.0035649798            0    0.3206953    1.3187656    1.6430259    5.2670352 
 3685000    0.8198095 2.2483277e-05   0.45046188  0.039141374            0   0.41132051     1.209219    1.6596809    3.1945393 
 3690000   0.87305105 -7.1109698e-05   0.36405399  0.031590125            0   0.33246387    1.2877503    1.6518043   -3.2026178 
 3695000   0.89314143 5.3167359e-05   0.37415758 0.0026117848            0   0.37154579    1.3173836    1.6915412    5.3210995 
 3700000   0.83503259 3.8631714e-05   0.47197604 0.0044705911            0   0.46750545    1.2316731    1.7036491    4.3409075 
 3705000   0.90157773 4.0219563e-05   0.35263627  0.013623538            0   0.33901273    1.3298272    1.6824634    4.4281189 
 3710000    0.8502657 -3.1773164e-05   0.39390291  0.014954617            0   0.37894829    1.2541419    1.6480448  -0.52100317 
 3715000   0.87039763 3.976084e-05   0.34837777  0.051671597            0   0.29670618    1.2838365    1.6322143    4.3465543 
 3720000   0.92105851 2.0210975e-05   0.28317109 0.0067069283            0   0.27646416    1.3585613    1.6417324    3.0214683 
 3725000   0.87874036 6.8408214e-05   0.33850747 0.0037460745            0   0.33476139     1.296142    1.6346495    6.3046503 
 3730000   0.87326988 4.4221371e-05   0.37524646  0.068848874            0   0.30639759    1.2880731    1.6633195    4.6821651 
 3735000   0.87403105 -7.8670709e-05   0.39144747  0.027842913            0   0.36360456    1.2891958    1.6806433   -3.6899438 
 3740000   0.91085938 -6.1292604e-06   0.38591767 0.00036284665            0   0.38555483    1.3435176    1.7294353    1.3110111 
 3745000   0.90785015 4.3439771e-05   0.37706116  0.022734574            0   0.35432658     1.339079    1.7161401    4.6816285 
 3750000    0.8215596 4.5765264e-05   0.54204856   0.10819285            0   0.43385571    1.2118004     1.753849     4.878091 
 3755000   0.89079657 -4.5740767e-05   0.46624324  0.015559073            0   0.45068417    1.3139249    1.7801682   -1.3424015 
 3760000   0.97263667 -2.3632135e-05   0.35422953 0.0010830317            0    0.3531465    1.4346391    1.7888686   0.17558153 
 3765000   0.89666735 0.00010888933   0.47995351  0.045501939            0   0.43445158    1.3225843    1.8025379    9.2360493 
 3770000   0.93570597 -5.561677e-05   0.37289237 0.0036458102            0   0.36924656    1.3801663    1.7530587   -2.0437128 
 3775000   0.87909344 -5.1872919e-05   0.46847799  0.043082586            0   0.42539541    1.2966628    1.7651408   -1.7760504 
 3780000   0.90424976 -1.5899754e-05   0.40682954   0.02351744            0    0.3833121    1.3337684    1.7405979   0.65517473 
 3785000   0.88637898 3.6492948e-05   0.43510587  0.040404665            0   0.39470121     1.307409    1.7425149    4.2337668 
 3790000   0.83800356 8.1603961e-05   0.51299733  0.026923596            0   0.48607373    1.2360553    1.7490526     7.319883 
 3795000   0.91833064 1.9922568e-05   0.41463597 0.0019090232            0   0.41272695    1.3545377    1.7691737     3.129221 
 3800000   0.96245692 6.0726653e-05   0.36901815  0.018189545            0   0.35082861     1.419624    1.7886421    5.9342483 
 3805000    0.9519641 -9.2480914e-05   0.39129384 0.0055664882            0   0.38572735     1.404147    1.7954409   -4.5179228 
 3810000   0.90856094 7.6727758e-05   0.46209912 0.00092684643            0   0.46117228    1.3401274    1.8022265    7.0401748 
 3815000   0.95116649 0.00012454578   0.39867886 0.0067531312            0   0.39192573    1.4029706    1.8016494    10.303975 
 3820000   0.85305167 -1.2677162e-05   0.52771933 0.0076089115            0   0.52011042    1.2582512    1.7859705   0.92054294 
 3825000   0.99086606 0.00012997376   0.35284936  0.010438041            0   0.34241132    1.4615274    1.8143768    10.687252 
 3830000   0.93051448 6.1934145e-05   0.46304368  0.029678271            0   0.43336541    1.3725089    1.8355525    6.0635901 
 3835000   0.86734894 -8.7261335e-05   0.54309512  0.007244404            0   0.53585072    1.2793397    1.8224348   -4.1346057 
 3840000    1.0108396 0.00013677306   0.38299913 0.0038638448            0   0.37913528    1.4909884    1.8739875    11.211029 
 3845000   0.89509648 -6.8573694e-05   0.53722705   0.03807584            0   0.49915121    1.3202673    1.8574944   -2.8238032 
 3850000   0.91720941 5.8049478e-05   0.49686951  0.001988056            0   0.49488145    1.3528839    1.8497534    5.8125977 
 3855000    1.0384685 9.3015823e-05   0.32177751  0.013686249            0   0.30809126    1.5317411    1.8535186    8.2033988 
 3860000   0.88465454 -6.9681172e-05   0.52478998 0.00044271966            0   0.52434726    1.3048654    1.8296554   -2.9272459 
 3865000   0.89753148 -5.1069411e-05   0.49954913  0.013756298            0   0.48579283    1.3238589    1.8234081   -1.6629304 
 3870000   0.89492263 4.9248256e-05   0.52357755  0.027043129            0   0.49653442    1.3200109    1.8435884    5.2056027 
 3875000    0.9140579 -7.0478514e-05   0.44185432  0.014049713            0   0.42780461    1.3482354    1.7900897   -3.0212435 
 3880000    0.8810556 2.1381598e-05   0.49620206 0.0066266594            0    0.4895754     1.299557    1.7957591    3.2554095 
 3885000   0.90789125 1.3738379e-05   0.46148182 0.0070173646            0   0.45446446    1.3391396    1.8006214    2.7384947 
 3890000   0.96390761 4.970928e-05   0.36958601  0.034515177            0   0.33507084    1.4217637    1.7913497    5.1848366 
 3895000   0.92277973 -0.00010437407   0.44985464 0.00095867575            0   0.44889597    1.3611001    1.8109547   -5.3143153 
 3900000    0.9161153 4.1931208e-05   0.46494306            0            0   0.46494306    1.3512701    1.8162131    4.6787169 
 3905000   0.93370319 -4.1414362e-05   0.43862857  0.041179255            0   0.39744931    1.3772122    1.8158408   -1.0113796 
 3910000   0.87771011 -0.00014547487   0.51331695  0.019871787            0   0.49344517    1.2946224    1.8079394   -8.1231451 
 3915000    0.9073518 8.0351837e-05    0.4699549 0.0002465391            0   0.46970836    1.3383439    1.8082988    7.2936509 
 3920000   0.94332397 7.1972646e-06   0.40933742  0.039666804            0   0.36967061    1.3914029    1.8007403    2.2920735 
 3925000     0.917461 4.0161818e-06   0.46015071  0.015568293            0   0.44458241     1.353255    1.8134057     2.087577 
 3930000    0.9313395 -3.5675179e-05   0.43579108  0.003393376            0    0.4323977    1.3737258    1.8095168  -0.62590868 
 3935000   0.91010047 0.00012752767   0.53522711            0            0   0.53522711    1.3423982    1.8776253    10.583514 
 3940000   0.88028604 -1.5886044e-05   0.57249165 0.0059568383            0   0.56653482    1.2984219    1.8709136   0.78642627 
 3945000    1.0365127 -3.5098362e-05   0.37198092 0.0038080538            0   0.36817287    1.5288562    1.9008371  -0.49521104 
 3950000    0.9291542 -3.4320369e-05   0.52612311 0.0023037245            0   0.52381939    1.3705025    1.8966256  -0.44631166 
 3955000   0.97773909 -6.2327484e-05   0.45599233 0.0076459714            0   0.44834636    1.4421652    1.8981575   -2.3567321 
 3960000    1.0051199 -2.5718278e-05   0.40476813  0.052555417            0   0.35221271    1.4825519      1.88732   0.13161891 
 3965000   0.90808426 9.5591247e-06   0.57200089  0.042742088            0   0.52925881    1.3394243    1.9114252    2.5639948 
 3970000    0.9564057 -1.6340381e-05   0.49330182 0.0084100427            0   0.48489178    1.4106984    1.9040002   0.78849688 
 3975000   0.93296001 5.9112091e-05   0.50970233  0.012612867            0   0.49708946     1.376116    1.8858183    5.9212038 
 3980000   0.93222607 8.7450274e-05   0.50900147  0.041654319            0   0.46734715    1.3750334    1.8840349    7.8539736 
 3985000    0.9366717 -1.5449391e-05   0.50959551  0.033869595            0   0.47572591    1.3815908    1.8911863   0.83650781 
 3990000    1.0493867 -3.6524179e-05   0.36360671 0.0034023099            0    0.3602044    1.5478454    1.9114521  -0.58193183 
 3995000   0.93940141 3.2344823e-06   0.52178763  0.013099843            0   0.50868779    1.3856171    1.9074047     2.128212 
 4000000   0.95741184 1.4392829e-05   0.49791694  0.037034394            0   0.46088255    1.4121825    1.9100994    2.8926498 
Loop time of 216.392 on 1 procs for 2000000 steps with 60 atoms

Performance: 798551.911 tau/day, 9242.499 timesteps/s
99.4% CPU use with 1 MPI tasks x no OpenMP threads

MPI task timing breakdown:
Section |  min time  |  avg time  |  max time  |%varavg| %total
---------------------------------------------------------------
Pair    | 0.7523     | 0.7523     | 0.7523     |   0.0 |  0.35
Bond    | 1.8584     | 1.8584     | 1.8584     |   0.0 |  0.86
Neigh   | 182.99     | 182.99     | 182.99     |   0.0 | 84.56
Comm    | 25.846     | 25.846     | 25.846     |   0.0 | 11.94
Output  | 0.050377   | 0.050377   | 0.050377   |   0.0 |  0.02
Modify  | 4.2668     | 4.2668     | 4.2668     |   0.0 |  1.97
Other   |            | 0.6264     |            |       |  0.29

Nlocal:        60.0000 ave          60 max          60 min
Histogram: 1 0 0 0 0 0 0 0 0 0
Nghost:        0.00000 ave           0 max           0 min
Histogram: 1 0 0 0 0 0 0 0 0 0
Neighs:        20.0000 ave          20 max          20 min
Histogram: 1 0 0 0 0 0 0 0 0 0

Total # of neighbors = 20
Ave neighs/atom = 0.33333333
Ave special neighs/atom = 5.8000000
Neighbor list builds = 37937
Dangerous builds = 0
write_restart restart.rerun.1
System init for write_restart ...
WARNING: Communication cutoff 1.4200000000000002 is shorter than a bond length based estimate of 1.8. This may lead to errors. (../comm.cpp:667)
#--------------End of Input file ------------------
Total wall time: 0:03:36
