LAMMPS (29 Oct 2020)
###################### polyelectrolyte complexation ######################
clear

#Initialization
#------------------------------------
units				lj
dimension			3
atom_style			full
boundary			p p p

#Atom Definition
#-------------------------------------
read_data			data.complexation
Reading data file ...
  orthogonal box = (-80.000000 -80.000000 -80.000000) to (80.000000 80.000000 80.000000)
  1 by 1 by 1 MPI processor grid
  reading atoms ...
  80 atoms
  scanning bonds ...
  1 = max bonds/atom
  reading bonds ...
  79 bonds
Finding 1-2 1-3 1-4 neighbors ...
  special bond factors lj:    0.0      0.0      0.0     
  special bond factors coul:  0.0      0.0      0.0     
     2 = max # of 1-2 neighbors
     2 = max # of 1-3 neighbors
     4 = max # of 1-4 neighbors
     6 = max # of special neighbors
  special bonds CPU = 0.000 seconds
  read_data CPU = 0.002 seconds

#Force definition
#----------------------------------------------
#Bond definition
bond_style			harmonic
bond_coeff			1 5000 1
#Pair definition
special_bonds	lj 0 1 1
Finding 1-2 1-3 1-4 neighbors ...
  special bond factors lj:    0.0      1.0      1.0     
  special bond factors coul:  0.0      0.0      0.0     
     2 = max # of 1-2 neighbors
     2 = max # of 1-3 neighbors
     4 = max # of 1-4 neighbors
     6 = max # of special neighbors
  special bonds CPU = 0.000 seconds
pair_style		 lj/cut 1.12
pair_modify 		 shift yes
pair_coeff	1 1 1 1 1.12

#Timestep etc
#--------------------------------------------
timestep		1e-05
run_style		verlet
velocity		all	create	1	11

#Fix
#---------------------------------------
group polymers type 1
80 atoms in group polymers
fix 1 all nve
fix 2 all langevin 1	1	10	11
fix 3 polymers recenter INIT INIT INIT units box

#Dump
#------------------------------------------------
compute  1 all gyration
variable  myRg2 equal c_1
variable  i equal step
fix  mythermofile all print 5000 "$i ${myRg2}" file radius_of_gyration.dat screen no

thermo_style		 custom step temp press pe evdwl ecoul ebond ke etotal enthalpy
thermo 	5000
dump	3 all custom 5000 dump.lammpstrj id mol type xu yu zu
run		20000000
Neighbor list info ...
  update every 1 steps, delay 10 steps, check yes
  max neighbors/atom: 2000, page size: 100000
  master list distance cutoff = 1.42
  ghost atom cutoff = 1.42
  binsize = 0.71, bins = 226 226 226
  1 neighbor lists, perpetual/occasional/extra = 1 0 0
  (1) pair lj/cut, perpetual
      attributes: half, newton on
      pair build: half/bin/newton
      stencil: half/bin/3d/newton
      bin: standard
WARNING: Communication cutoff 1.4200000000000002 is shorter than a bond length based estimate of 1.8. This may lead to errors. (../comm.cpp:667)
Per MPI rank memory allocation (min/avg/max) = 54.71 | 54.71 | 54.71 Mbytes
Step Temp Press PotEng E_vdwl E_coul E_bond KinEng TotEng Enthalpy 
       0            1 1.9287109e-05            0            0            0            0      1.48125      1.48125      2.46875 
    5000   0.82011096 -0.00029658078   0.26447295            0            0   0.26447295    1.2147894    1.4792623   -13.705674 
   10000   0.48552573 -0.00066551745   0.75002155            0            0   0.75002155   0.71918499    1.4692065   -32.605287 
   15000   0.73189271 -0.00030734969   0.40867199            0            0   0.40867199    1.0841161    1.4927881   -14.243516 
   20000   0.79724518 -6.2552374e-05   0.30409577            0            0   0.30409577    1.1809194    1.4850152   -1.7176664 
   25000   0.72195747 -0.00037074753   0.41303014            0            0   0.41303014    1.0693995    1.4824296   -17.499844 
   30000   0.67944192 -0.00046072434   0.47936558            0            0   0.47936558    1.0064233    1.4857889   -22.103297 
   35000   0.85048031 2.3794964e-06    0.2415295            0            0    0.2415295     1.259774    1.5013035    1.6231337 
   40000   0.86560158 2.9677044e-05   0.26190261            0            0   0.26190261    1.2821723    1.5440749    3.0635396 
   45000   0.72643669 -0.0003587155   0.44466224            0            0   0.44466224    1.0760344    1.5206966   -16.845537 
   50000   0.80842117 -0.00030403732   0.35016033            0            0   0.35016033    1.1974739    1.5476342   -14.019077 
   55000   0.86281048 9.7841338e-05   0.26720524            0            0   0.26720524     1.278038    1.5452433    6.5547198 
   60000    0.8830596 9.8470512e-05   0.25488022            0            0   0.25488022     1.308032    1.5629122    6.6046025 
   65000   0.86238361 -0.00024118509   0.32392759            0            0   0.32392759    1.2774057    1.6013333   -10.747343 
   70000   0.86866309 -0.00016191995   0.32565607            0            0   0.32565607    1.2867072    1.6123633   -6.6779382 
   75000   0.90247701 0.00014414577   0.27257688            0            0   0.27257688    1.3367941    1.6093709    8.9896343 
   80000   0.85321335 0.00010159868   0.34201583            0            0   0.34201583    1.2638223    1.6058381    6.8076905 
   85000   0.90074436 -8.9169296e-05   0.30693554            0            0   0.30693554    1.3342276    1.6411631   -2.9243048 
   90000   0.85770535 -0.00023512645   0.36907612            0            0   0.36907612    1.2704761    1.6395522   -10.398922 
   95000   0.89569877 0.0001427721   0.27413107            0            0   0.27413107    1.3267538    1.6008849    8.9108163 
  100000   0.86798284 0.00017294929   0.30896397            0            0   0.30896397    1.2856996    1.5946635    10.449667 
  105000   0.83263675 -0.00019736193   0.36349719            0            0   0.36349719    1.2333432    1.5968404   -8.5080904 
  110000   0.89457339 -0.00015151438   0.26954583            0            0   0.26954583    1.3250868    1.5946327   -6.1629037 
  115000   0.92686944 0.00023613165    0.2665392            0            0    0.2665392    1.3729254    1.6394646    13.729405 
  120000   0.90574649 -6.8632869e-05   0.31558859            0            0   0.31558859     1.341637    1.6572256   -1.8567773 
  125000   0.82709572 -0.00019738104   0.41883154            0            0   0.41883154    1.2251355    1.6439671   -8.4619422 
  130000   0.89908136 9.0873789e-05   0.30727173            0            0   0.30727173    1.3317643     1.639036     6.291774 
  135000   0.84133605 9.0580303e-05   0.36389107            0            0   0.36389107     1.246229    1.6101201    6.2478316 
  140000   0.84998327 -0.00017292762   0.36553158            0            0   0.36553158    1.2590377    1.6245693    -7.229325 
  145000   0.85857377 4.0265783e-05   0.34668681            0            0   0.34668681    1.2717624    1.6184492    3.6800573 
  150000   0.88565968 5.1708802e-05   0.27262049            0            0   0.27262049    1.3118834    1.5845039    4.2319946 
  155000   0.87027633 -1.8924639e-05   0.30126385            0            0   0.30126385    1.2890968    1.5903607   0.62141914 
  160000   0.76562414 8.3649321e-06   0.45435644            0            0   0.45435644    1.1340808    1.5884372    2.0167217 
  165000   0.88940337 -1.5633559e-05   0.26476287            0            0   0.26476287    1.3174287    1.5821916   0.78175339 
  170000   0.82531205 1.7415527e-05   0.36082743            0            0   0.36082743    1.2224935    1.5833209    2.4749959 
  175000   0.82162344 8.7006727e-05   0.41170049            0            0   0.41170049    1.2170297    1.6287302    6.0834746 
  180000   0.85608913 -0.00013397274   0.38892825            0            0   0.38892825     1.268082    1.6570103    -5.202394 
  185000   0.88882458 0.00010676134   0.35547153            0            0   0.35547153    1.3165714     1.672043    7.1382238 
  190000   0.95358924 6.9422076e-05   0.26745422            0            0   0.26745422    1.4125041    1.6799583    5.2343686 
  195000   0.88568865 -0.00014444813   0.33955323            0            0   0.33955323    1.3119263    1.6514795   -5.7442648 
  200000   0.87971078 8.4666161e-05   0.32844005            0            0   0.32844005    1.3030716    1.6315116    5.9664191 
  205000   0.83103529 6.0559059e-05   0.36851281            0            0   0.36851281     1.230971    1.5994838    4.7001077 
  210000   0.77225357 -0.0001237964   0.43420834            0            0   0.43420834    1.1439006    1.5781089    -4.760267 
  215000   0.82753536 -4.1031981e-05   0.33983367            0            0   0.33983367    1.2257867    1.5656204  -0.53521698 
  220000   0.84373739 0.00015328016   0.33614984            0            0   0.33614984     1.249786    1.5859359    9.4338802 
  225000   0.88682986 -0.00012980547   0.27542201            0            0   0.27542201    1.3136167    1.5890387   -5.0570012 
  230000   0.87763041 -2.4869569e-05   0.30703206            0            0   0.30703206      1.29999    1.6070221   0.33370016 
  235000   0.83736865 0.00018937894   0.34120086            0            0   0.34120086    1.2403523    1.5815532    11.277755 
  240000   0.78450831 -0.00018512443   0.38113676            0            0   0.38113676    1.1620529    1.5431897   -7.9351811 
  245000   0.80608813 9.3278128e-05   0.31618982            0            0   0.31618982     1.194018    1.5102079     6.286048 
  250000   0.77798732 -6.2832446e-06   0.35069205            0            0   0.35069205    1.1523937    1.5030858    1.1813837 
  255000   0.76734125 -8.4184169e-05    0.3610456            0            0    0.3610456    1.1366242    1.4976698   -2.8125596 
  260000   0.76799963 9.2881391e-05   0.35774581            0            0   0.35774581    1.1375994    1.4953453    6.2508724 
  265000   0.75105522 -1.4172872e-05   0.39634687            0            0   0.39634687    1.1125005    1.5088474   0.78319635 
  270000   0.75977662 4.8426529e-06   0.37726471            0            0   0.37726471    1.1254191    1.5026838    1.7506277 
  275000   0.79091675 6.544188e-05   0.36661669            0            0   0.36661669    1.1715454    1.5381621    4.8887864 
  280000   0.78113742 -0.00013780549   0.36737986            0            0   0.36737986    1.1570598    1.5244397   -5.5312014 
  285000   0.76121968 6.848695e-05   0.43019854            0            0   0.43019854    1.1275567    1.5577552     5.064287 
  290000   0.78460022 -7.4908035e-05   0.41722075            0            0   0.41722075    1.1621891    1.5794098   -2.2558816 
  295000   0.79225398 7.2445249e-05    0.3881383            0            0    0.3881383    1.1735262    1.5616645    5.2708613 
  300000   0.84303923 -7.0365704e-06   0.30523487            0            0   0.30523487    1.2487519    1.5539867    1.1937143 
  305000   0.77696395 0.00010255939    0.3981116            0            0    0.3981116    1.1508778    1.5489895    6.8000302 
  310000   0.78595401 1.1334939e-05   0.37296427 0.0013947569            0   0.37156951    1.1641944    1.5371586    2.1175075 
  315000    0.7851124 -1.6599725e-05   0.38363857 0.0056680923            0   0.37797048    1.1629477    1.5465863   0.69668036 
  320000   0.77314109 8.2401265e-05   0.41528328 0.0041101374            0   0.41117314    1.1452152    1.5604985    5.7794433 
  325000   0.80664651 -6.0971412e-05   0.37780716 0.0031333498            0   0.37467381    1.1948451    1.5726523    -1.549084 
  330000   0.79517608 -6.0409343e-05   0.38010036 0.00026028585            0   0.37984007    1.1778546    1.5579549   -1.5350034 
  335000   0.79162725 -2.5074207e-06   0.35029414 1.0897746e-05            0   0.35028324    1.1725979     1.522892    1.3945121 
  340000   0.74520997 0.00010395351   0.39548116            0            0   0.39548116    1.1038423    1.4993234    6.8217431 
  345000   0.72678514 -8.6455204e-05   0.46886718 0.00075875584            0   0.46810843    1.0765505    1.5454177   -2.8810888 
  350000   0.79747745 0.00015033356   0.38279931 0.00055537373            0   0.38224394    1.1812635    1.5640628    9.2611409 
  355000   0.74646246 -6.775181e-05   0.47349405 0.00029029032            0   0.47320376    1.1056975    1.5791916   -1.8897011 
  360000   0.80655128 -0.00013020036   0.40794087 0.0012819775            0   0.40665889    1.1947041    1.6026449   -5.0636136 
  365000   0.78322629 0.00014659708   0.44843579 0.0017251208            0   0.44671067    1.1601539    1.6085897    9.1143604 
  370000   0.78206016 -5.4849822e-05   0.45917061 0.0017733001            0   0.45739731    1.1584266    1.6175972   -1.1907136 
  375000   0.87134792 2.914467e-05   0.35778042 0.00068406167            0   0.35709636    1.2906841    1.6484645    3.1406717 
  380000   0.84903667 4.2550504e-05   0.40259248            0            0   0.40259248    1.2576356    1.6602281    3.8388139 
  385000   0.83084433 -0.00015549134   0.42237833            0            0   0.42237833    1.2306882    1.6530665     -6.30809 
  390000   0.85698395 0.0001848301   0.42579171 0.00012112623            0   0.42567058    1.2694075    1.6951992      11.1585 
  395000   0.88895757 -8.7834417e-05   0.39730009 0.0013078879            0   0.39599221    1.3167684    1.7140685   -2.7830537 
  400000   0.88571158 5.2042968e-05   0.41109975 0.00084631315            0   0.41025343    1.3119603      1.72306      4.38766 
  405000   0.84659866 3.4562269e-05   0.47970489 0.00028647365            0   0.47941842    1.2540243    1.7337292    3.5033173 
  410000   0.82725651 -6.8668384e-05    0.5131446 8.5117838e-05            0   0.51305949    1.2253737    1.7385183    -1.777303 
  415000   0.88276136 5.5836069e-05   0.44714607            0            0   0.44714607    1.3075903    1.7547363    4.6135431 
  420000   0.87241084 -6.7326922e-05   0.44931557            0            0   0.44931557    1.2922586    1.7415741   -1.7055643 
  425000   0.82989736 -8.9905147e-05   0.49811094 0.00018322057            0   0.49792772    1.2292855    1.7273964   -2.8757471 
  430000   0.84953057 3.3667666e-05   0.44473631 0.00070597082            0   0.44403034    1.2583672    1.7031035    3.4268879 
  435000   0.85763064 -5.6225306e-05   0.43952613 0.0030338894            0   0.43649224    1.2703654    1.7098915   -1.1688442 
  440000   0.88909589 -2.6641815e-05   0.39186855 0.00081608317            0   0.39105247    1.3169733    1.7088418   0.34478091 
  445000   0.91069379 1.3587065e-05   0.33833627 0.00049384725            0   0.33784242    1.3489652    1.6873014    2.3829592 
  450000   0.84445054 -0.00012744015   0.45409388 0.0013221782            0    0.4527717    1.2508424    1.7049362   -4.8199993 
  455000   0.84798659 0.00010162161   0.42519439 0.0018352564            0   0.42335913    1.2560801    1.6812745    6.8843007 
  460000   0.92321838 -1.8310756e-05   0.32332794 0.0013289675            0   0.32199897    1.3675172    1.6908452   0.75333444 
  465000    0.8846416 -1.901875e-06   0.35264481 0.0036561652            0   0.34898865    1.3103754    1.6630202    1.5656442 
  470000   0.85580832 4.2689593e-05   0.40159759 0.0069506464            0   0.39464694    1.2676661    1.6692637    3.8549708 
  475000   0.80133656 2.346289e-05   0.45726805  0.003990292            0   0.45327776    1.1869798    1.6442478    2.8455478 
  480000   0.78090464 -0.00012160161   0.48964384 0.0040618107            0   0.48558203     1.156715    1.6463588   -4.5796438 
  485000   0.81365206 0.00018512278   0.42734645 0.0023551908            0   0.42499126    1.2052221    1.6325686    11.110855 
  490000   0.80024635 -0.00012747639   0.44414504 0.00016148193            0   0.44398355    1.1853649    1.6295099   -4.8972812 
  495000   0.85516756 0.0001407474   0.35140248 1.0371279e-05            0   0.35139211    1.2667169    1.6181194    8.8243865 
  500000   0.87399297 3.9533756e-05   0.34598794 1.2409241e-05            0   0.34597553    1.2946021      1.64059    3.6647183 
  505000   0.80794475 -0.0001582593   0.43327429            0            0   0.43327429    1.1967682    1.6300425   -6.4728336 
  510000    0.7413966 7.1635633e-05   0.53687929            0            0   0.53687929    1.0981937     1.635073    5.3028174 
  515000   0.79928938 -9.0456554e-05   0.46686166            0            0   0.46686166    1.1839474    1.6508091   -2.9805665 
  520000   0.84820917 0.00012881622   0.41582048            0            0   0.41582048    1.2564098    1.6722303    8.2676208 
  525000   0.81577678 6.7703707e-05   0.45372541            0            0   0.45372541    1.2083694    1.6620948    5.1285246 
  530000    0.8767903 -4.8216895e-05   0.37483647            0            0   0.37483647    1.2987456    1.6735821  -0.79512292 
  535000   0.80040068 -4.4325436e-05   0.48164042            0            0   0.48164042    1.1855935    1.6672339  -0.60222839 
  540000   0.85265862 -0.00010951541   0.43419173            0            0   0.43419173    1.2630006    1.6971923   -3.9099969 
  545000   0.81375465 1.8001588e-06   0.49532294            0            0   0.49532294    1.2053741     1.700697    1.7928651 
  550000   0.88026323 -4.1115727e-05   0.40963011 0.0003056972            0   0.40932442    1.3038899      1.71352  -0.39160522 
  555000   0.83124483 -1.9018426e-05   0.47881837 0.0013227565            0   0.47749562    1.2312814    1.7100998    0.7363564 
  560000   0.85140789 4.1439477e-05   0.45674927  0.002484981            0   0.45426429    1.2611479    1.7178972    3.8395984 
  565000   0.82801808 -0.00014993925   0.48083995 0.0041695622            0   0.47667039    1.2265018    1.7073417   -5.9695477 
  570000   0.90089906 8.1733492e-06   0.34430078 0.0026016469            0   0.34169914    1.3344567    1.6787575     2.097233 
  575000   0.85447913 6.1317777e-05   0.39464567 0.00027817806            0   0.39436749    1.2656972    1.6603429    4.7998131 
  580000   0.82729957 -5.7181184e-05   0.42989578            0            0   0.42989578    1.2254375    1.6553333   -1.2723433 
  585000   0.77270274 9.4953302e-05   0.50005318            0            0   0.50005318    1.1445659    1.6446191    6.5062282 
  590000   0.87599914 -8.573474e-05   0.37472661            0            0   0.37472661    1.2975737    1.6723003   -2.7173183 
  595000    0.8258116 1.9032298e-06   0.48818312            0            0   0.48818312    1.2232334    1.7114166    1.8088619 
  600000     0.899455 -5.1392431e-05   0.34741755            0            0   0.34741755    1.3323177    1.6797353  -0.95155719 
  605000   0.87033042 5.1994169e-05   0.39820266            0            0   0.39820266    1.2891769    1.6873796     4.349481 
  610000   0.87765965 -1.6608962e-05   0.39128902            0            0   0.39128902    1.3000334    1.6913224   0.84094353 
  615000   0.91143874 4.4040978e-05   0.32410013 1.4479101e-05            0   0.32408565    1.3500686    1.6741688    3.9290669 
  620000   0.79781545 2.3367002e-05   0.50366422 0.0038068687            0   0.49985736    1.1817641    1.6854284    2.8818189 
  625000   0.81858737 -2.7175228e-05   0.46831824 0.0075717879            0   0.46074646    1.2125325    1.6808508   0.28947911 
  630000   0.85725194 6.1609264e-05   0.41039819  0.010714795            0    0.3996834    1.2698044    1.6802026    4.8345969 
  635000   0.84850046 -2.0340535e-05   0.43918497 0.0068920805            0   0.43229289    1.2568413    1.6960263   0.65459089 
  640000    0.8733988 1.3770148e-05   0.42114416 0.0017465927            0   0.41939757     1.293722    1.7148661    2.4198977 
  645000   0.85823511 -7.3504953e-06   0.44994857 0.00039267802            0   0.44955589    1.2712608    1.7212093     1.344864 
  650000   0.82095408 -2.3726558e-06   0.51337698 5.6714662e-05            0   0.51332026    1.2160382    1.7294152    1.6079352 
  655000   0.84078907 4.0109841e-05   0.47570042 0.00045482947            0   0.47524559    1.2454188    1.7211192    3.7747431 
  660000   0.90153066 -5.8076062e-05   0.38644746 0.00091092941            0   0.38553653    1.3353923    1.7218397   -1.2516546 
  665000   0.92253417 3.0803263e-05   0.36635975 0.0019243483            0    0.3644354    1.3665037    1.7328635    3.3099906 
  670000    0.8874148 0.00010723699   0.42884502 0.0022592082            0   0.42658581    1.3144832    1.7433282    7.2338621 
  675000   0.83481159 -8.6411305e-05   0.49448568 0.00072363014            0   0.49376205    1.2365647    1.7310504   -2.6932085 
  680000   0.87561415 -5.5762913e-05   0.48148122            0            0   0.48148122    1.2970035    1.7784847   -1.0765765 
  685000   0.87073289 -2.3639917e-05   0.47114968            0            0   0.47114968    1.2897731    1.7609228   0.55055905 
  690000   0.87370437 0.00019639648   0.45903399 5.1715845e-06            0   0.45902882    1.2941746    1.7532086    11.808708 
  695000    1.0128207 8.4347554e-05   0.27933156 0.0030645935            0   0.27626697    1.5002407    1.7795723    6.0981671 
  700000   0.92813714 -0.00012070314    0.3895206 0.0066625857            0   0.38285802    1.3748031    1.7643237   -4.4156769 
  705000   0.91642739 7.6182416e-06   0.37907676 0.0076865556            0    0.3713902    1.3574581    1.7365348    2.1265888 
  710000   0.84447746 -9.3570293e-05   0.46583756 0.0015473873            0   0.46429017    1.2508822    1.7167198   -3.0740792 
  715000   0.88458265 9.7127559e-05   0.39515617            0            0   0.39515617    1.3102881    1.7054442    6.6783752 
  720000   0.91697392 -8.1486902e-05   0.35303524 0.00020079255            0   0.35283445    1.3582676    1.7113029   -2.4608265 
  725000    0.8451401 2.6645936e-05   0.46172454 0.0011950003            0   0.46052954    1.2518638    1.7135883    3.0778602 
  730000   0.90938259 5.4128656e-05   0.35976126 0.0028218402            0   0.35693942     1.347023    1.7067842    4.4781714 
  735000   0.84989517 -0.00015937525   0.45276252  0.004743924            0   0.44801859    1.2589072    1.7116697    -6.448343 
  740000    0.8742623 0.00012839222   0.40904387 0.0023265794            0   0.40671729     1.295001    1.7040449    8.2777268 
  745000   0.90259444 -8.3182713e-07   0.37867283 6.666509e-05            0   0.37860617     1.336968    1.7156408    1.6730513 
  750000   0.88473454 -6.6876476e-05   0.39076856            0            0   0.39076856     1.310513    1.7012816    -1.722794 
  755000   0.82552581 7.4475493e-05   0.45276795            0            0   0.45276795    1.2228101    1.6755781    5.4887233 
  760000   0.89275483 -0.00011246393   0.37349922            0            0   0.37349922    1.3223931    1.6958923   -4.0622607 
  765000   0.87026583 0.00012517846   0.39384517            0            0   0.39384517    1.2890813    1.6829264    8.0920634 
  770000   0.85770285 -0.0001045323   0.40062126            0            0   0.40062126    1.2704723    1.6710936   -3.6809601 
  775000   0.81786665 -4.9243492e-05   0.46320536            0            0   0.46320536     1.211465    1.6746703  -0.84659646 
  780000   0.82256578 4.4448746e-05   0.45360439            0            0   0.45360439    1.2184256      1.67203    3.9478057 
  785000   0.86901454 -0.00012382688   0.38175191 0.00029733479            0   0.38145457    1.2872278    1.6689797   -4.6709568 
  790000   0.84506652 1.9699113e-05   0.43940495  0.003739071            0   0.43566587    1.2517548    1.6911597    2.6997543 
  795000   0.90245251 -4.7938161e-05   0.37910725 0.0047246001            0   0.37438265    1.3367578     1.715865   -0.7385688 
  800000   0.97110131 -1.8067407e-05   0.28678016 0.0013632646            0   0.28541689    1.4384438     1.725224   0.80017275 
  805000   0.95144796 2.636447e-05   0.33195382 5.4473179e-06            0   0.33194838    1.4093323    1.7412861     3.091147 
  810000   0.90439132 -4.7980602e-05   0.41316078 2.9544634e-05            0   0.41313124    1.3396296    1.7527904  -0.70381641 
  815000   0.90082231 7.3595329e-05   0.40477788 0.0012578558            0   0.40352003     1.334343    1.7391209    5.5072018 
  820000   0.85722829 4.8168258e-05   0.48751382  0.002248552            0   0.48526527    1.2697694    1.7572832     4.223498 
  825000   0.90098023 2.541239e-05   0.41797762 0.0042943377            0   0.41368328     1.334577    1.7525546     3.053669 
  830000   0.93245497 1.4408185e-05   0.37885499 0.0017364772            0   0.37711852    1.3811989    1.7600539     2.497753 
  835000   0.95995516 -7.5117778e-05   0.34409576 0.0076722106            0   0.33642355    1.4219336    1.7660293   -2.0800009 
  840000   0.98835918 7.5414048e-05    0.3342982  0.014377804            0    0.3199204     1.464007    1.7983052    5.6595045 
  845000   0.90772807 0.00013614582   0.42139735 0.0049883362            0   0.41640902    1.3445722    1.7659696    8.7366356 
  850000   0.88749531 -6.3819756e-05   0.43953313 0.0060687355            0   0.43346439    1.3146024    1.7541356    -1.513436 
  855000   0.87318421 -3.1852959e-05   0.43864331 0.0037135573            0   0.43492975    1.2934041    1.7320474   0.10117594 
  860000   0.90516713 1.7027239e-05   0.39620404 0.00080163359            0   0.39540241    1.3407788    1.7369828    2.6087775 
  865000   0.92664052 -7.178696e-06   0.36969645 0.0034708866            0   0.36622556    1.3725863    1.7422827    1.3747335 
  870000   0.94235657 -4.1577803e-05    0.3451168 0.0041421177            0   0.34097469    1.3958657    1.7409825  -0.38780105 
  875000   0.88157641 0.00012851483   0.41891568 0.0022051567            0   0.41671052    1.3058351    1.7247507      8.30471 
  880000   0.91463336 3.5595349e-06   0.37691547   0.00166995            0   0.37524552    1.3548007    1.7317161    1.9139643 
  885000   0.95113474 -3.7750013e-05   0.32253086 0.0015999401            0   0.32093092    1.4088683    1.7313992   -0.2014015 
  890000   0.91986354 1.8695134e-05   0.38258064 0.0042696843            0   0.37831095    1.3625479    1.7451285    2.7023194 
  895000   0.88815994 -0.00010870375   0.42494827  0.011912681            0   0.41303559    1.3155869    1.7405352    -3.825097 
  900000   0.98177498 7.3047016e-05   0.29874988  0.002613042            0   0.29613684    1.4542542    1.7530041    5.4930113 
  905000   0.90794174 -1.30647e-05   0.41790209 0.00058217407            0   0.41731991    1.3448887    1.7627908    1.0938782 
  910000   0.86906594 -8.0341399e-05   0.47169876 0.0051781808            0   0.46652058    1.2873039    1.7590027   -2.3544769 
  915000   0.91984867 -0.00012267599    0.3870317  0.011524015            0   0.37550768    1.3625258    1.7495575   -4.5314529 
  920000   0.90524259 0.00018166646   0.41256302 0.0072393108            0   0.40532371    1.3408906    1.7534536    11.054776 
  925000   0.88298963 -0.00010359524   0.43112568 0.0093992967            0   0.42172638    1.3079284    1.7390541   -3.5650222 
  930000    0.9173064 0.00013980186   0.39252522 0.0086453772            0   0.38387984    1.3587601    1.7512853    8.9091405 
  935000   0.86963912 1.8764791e-05   0.44279408 0.0083554523            0   0.43443862    1.2881529     1.730947    2.6917043 
  940000   0.96126538 0.00019508248   0.32148736 0.0082079697            0   0.31327939    1.4238743    1.7453617    11.733585 
  945000   0.96433251 -6.7442497e-05   0.31403601 0.0053401261            0   0.30869589    1.4284175    1.7424535   -1.7106023 
  950000   0.95981489 -0.00011768431   0.33708836 0.0050150416            0   0.33207332    1.4217258    1.7588142   -4.2666227 
  955000   0.93873338 8.6173584e-05   0.37861112 0.0040008263            0   0.37461029    1.3904988    1.7691099    6.1811975 
  960000   0.91005989 -6.1088718e-05   0.44386584 0.0036795353            0    0.4401863    1.3480262     1.791892   -1.3358503 
  965000   0.93905671 5.0100817e-05   0.39869862 0.0021051096            0   0.39659351    1.3909778    1.7896764    4.3548382 
  970000   0.90274634 -1.9644797e-05   0.44116702 0.00018760865            0   0.44097942     1.337193      1.77836   0.77254646 
  975000   0.89160262 0.00015124239   0.45743675            0            0   0.45743675    1.3206864    1.7781231    9.5217336 
  980000   0.94319517 5.4668342e-06   0.36365688 0.00074896208            0   0.36290792    1.3971078    1.7607647    2.0406666 
  985000   0.90641937 -7.6490282e-05   0.41905137 0.0023545833            0   0.41669678    1.3426337    1.7616851   -2.1546174 
  990000    0.9126041 0.00013046239   0.37199524 0.0017675328            0    0.3702277    1.3517948    1.7237901    8.4034643 
  995000   0.87926243 -0.00017656272    0.4160936 0.00059997935            0   0.41549362    1.3024075    1.7185011   -7.3215104 
 1000000    0.9334751 -8.6809897e-05   0.31443033 0.0017592024            0   0.31267113      1.38271    1.6971403   -2.7475264 
 1005000   0.91470178 6.5113943e-05    0.3577626 0.0077785456            0   0.34998405     1.354902    1.7126646    5.0464985 
 1010000   0.79638594 -7.8721618e-05   0.53388646  0.028064771            0   0.50582169    1.1796467    1.7135331   -2.3170137 
 1015000   0.82553959 0.00017574517   0.46718466  0.038304931            0   0.42887973    1.2228305    1.6900152    10.688168 
 1020000   0.86139452 -0.00013809333   0.41269155 0.0083291545            0    0.4043624    1.2759406    1.6886322   -5.3817461 
 1025000   0.86671147 -1.5573513e-05   0.42311742   0.01281984            0   0.41029758    1.2838164    1.7069338   0.90956993 
 1030000   0.87781196 1.4936136e-05   0.38953738 0.0047292962            0   0.38480808     1.300259    1.6897963    2.4545265 
 1035000   0.89818038 -1.3616305e-05   0.35524489 0.00093405057            0   0.35431084    1.3304297    1.6856746   0.98851977 
 1040000   0.87031061 4.0138871e-05   0.37760472 0.0031056869            0   0.37449903    1.2891476    1.6667523    3.7218625 
 1045000   0.80944502 -0.00015735966   0.46623837 0.0033782436            0   0.46286013    1.1989904    1.6652288   -6.3915857 
 1050000   0.82875938 4.7606961e-05   0.41534244 0.0041071665            0   0.41123528    1.2275998    1.6429423    4.0804187 
 1055000   0.86991679 -2.7069651e-05   0.32312522 0.0064941017            0   0.31663112    1.2885642    1.6116895   0.22572335 
 1060000   0.84833596 6.4695645e-05   0.34811992  0.010482389            0   0.33763753    1.2565976    1.6047176    4.9171346 
 1065000   0.82826783 0.00011453729   0.42096375  0.018767442            0   0.40219631    1.2268717    1.6478355    7.5121448 
 1070000   0.80564989 4.9816214e-06   0.44388668 0.0073483494            0   0.43653833    1.1933689    1.6372556    1.8923146 
 1075000   0.83744872 -2.4673761e-06   0.43134254 0.0056185673            0   0.42572398    1.2404709    1.6718135    1.5454838 
 1080000   0.79427227 2.4329114e-05   0.49864957 0.0029196642            0   0.49572991    1.1765158    1.6751654     2.920816 
 1085000   0.88594016 5.2216695e-05   0.39076788   0.00246497            0   0.38830291    1.3122989    1.7030667    4.3765615 
 1090000   0.92237211 -0.000106044   0.33918884  0.013218415            0   0.32597042    1.3662637    1.7054525   -3.7240005 
 1095000   0.91799214 3.795739e-05   0.36029882  0.011482831            0   0.34881599    1.3597759    1.7200747    3.6634931 
 1100000   0.93603996 0.00013701515   0.33776203 0.0057727095            0   0.33198932    1.3865092    1.7242712    8.7394467 
 1105000   0.87418641 -9.45025e-05    0.4238536 0.0028466331            0   0.42100697    1.2948886    1.7187422   -3.1197858 
 1110000   0.82563975 0.00020191542   0.51839384 0.00069966426            0   0.51769418    1.2229789    1.7413727    12.079442 
 1115000   0.86474146 -0.0001047776   0.45357035 0.0047614318            0   0.44880892    1.2808983    1.7344686   -3.6301443 
 1120000   0.90845237 5.7750511e-05   0.38222242  0.023828475            0   0.35839395    1.3456451    1.7278675    4.6846936 
 1125000   0.93934313 -3.0968301e-05    0.3452065 0.0075743808            0   0.33763212     1.391402    1.7366085   0.15103152 
 1130000   0.92954914 -1.6570175e-05   0.33940397            0            0   0.33940397    1.3768947    1.7162986   0.86790567 
 1135000   0.93179387 0.00016311744   0.37114147 1.7053915e-05            0   0.37112442    1.3802197    1.7513611    10.102974 
 1140000   0.89948281 -0.00011322912   0.45962586 0.00084513503            0   0.45878073    1.3323589    1.7919848   -4.0053463 
 1145000   0.94428808 4.9922237e-05   0.41304574 0.0032595056            0   0.40978623    1.3987267    1.8117725     4.367791 
 1150000   0.92054856 -0.00011913741   0.48132945  0.012671534            0   0.46865792    1.3635626     1.844892   -4.2549432 
 1155000   0.95705963 8.0729779e-05   0.44599837  0.024258915            0   0.42173945    1.4176446    1.8636429    5.9970076 
 1160000   0.97667501 -2.0296343e-05   0.43172066  0.019104838            0   0.41261582    1.4466999    1.8784205   0.83924776 
 1165000    1.0005521   5.5036e-05   0.39740866 0.0039780564            0    0.3934306    1.4820678    1.8794765    4.6973197 
 1170000   0.97684556 -2.5295378e-05   0.45450941            0            0   0.45450941    1.4469525    1.9014619   0.60633855 
 1175000    1.0569062 -1.0409396e-05   0.33842238 0.00036314506            0   0.33805924    1.5655423    1.9039646    1.3710036 
 1180000   0.98521455 5.4433574e-05   0.40627765 0.0079824964            0   0.39829515     1.459349    1.8656267    4.6526257 
 1185000   0.94173357 -0.00014614712   0.47381998   0.01783152            0   0.45598846    1.3949428    1.8687628   -5.6139695 
 1190000   0.95479895 0.00013910317   0.46066076   0.01887499            0   0.44178577    1.4142959    1.8749567     8.997039 
 1195000   0.95266753 -9.2063311e-05   0.48628806 0.0086035076            0   0.47768455    1.4111388    1.8974268   -2.8162147 
 1200000   0.99371415 -2.1175173e-05   0.43605937 0.0016768317            0   0.43438254    1.4719391    1.9079985   0.82382958 
 1205000    1.0030309 7.6567913e-05    0.4142882 0.00034087464            0   0.41394733    1.4857396    1.9000278    5.8203049 
 1210000   0.96025955 -5.3674662e-05   0.44607412 0.0056908826            0   0.44038324    1.4223845    1.8684586  -0.87968412 
 1215000   0.87707956 2.1284584e-05   0.55064271  0.015331328            0   0.53531138    1.2991741    1.8498168    2.9395875 
 1220000    0.9064251 -7.1181678e-05   0.50564069  0.014219425            0   0.49142127    1.3426422    1.8482829    -1.796219 
 1225000   0.94309698 4.9030476e-05    0.4517839 0.0053393879            0   0.44644451    1.3969624    1.8487463    4.3591067 
 1230000   0.94381738 -8.9309466e-05   0.46069461  0.017739874            0   0.44295474    1.3980295    1.8587241   -2.7139206 
 1235000   0.91173026 5.4243377e-05    0.4965142   0.02327022            0   0.47324398    1.3505005    1.8470146    4.6242755 
 1240000   0.95234118 -4.72002e-05   0.44189158  0.029058141            0   0.41283344    1.4106554     1.852547  -0.56410326 
 1245000   0.95046222 -1.8047963e-05   0.41084549  0.019735817            0   0.39110967    1.4078722    1.8187176   0.89466192 
 1250000   0.94592723 -6.4897347e-05   0.42934318 0.0076740169            0   0.42166916    1.4011547    1.8304979   -1.4922462 
 1255000   0.96982429 -6.2025745e-05   0.42824463  0.027255119            0   0.40098952    1.4365522    1.8647969   -1.3109213 
 1260000    1.0145447 6.9645475e-05   0.38957772  0.023609151            0   0.36596857    1.5027943     1.892372    5.4582204 
 1265000   0.96351258 -6.7812763e-05   0.43885064  0.016763468            0   0.42208717     1.427203    1.8660537   -1.6059598 
 1270000   0.99125098 0.00010207559   0.40173668 0.0059047098            0   0.39583197    1.4682905    1.8700272    7.0962976 
 1275000   0.93729103 7.5042789e-05   0.45573408  0.021523103            0   0.43421098    1.3883623    1.8440964    5.6862872 
 1280000   0.98131486 -1.3714892e-05   0.40527494  0.011140652            0   0.39413429    1.4535726    1.8588476    1.1566451 
 1285000   0.99918351 -3.6301957e-05   0.38931502 0.0015805367            0   0.38773449    1.4800406    1.8693556  0.010695422 
 1290000    1.0129064 0.00016210892   0.38804542 0.0019651234            0    0.3860803    1.5003675     1.888413     10.18839 
 1295000    1.0057277 7.4131925e-06   0.41810666  0.003561798            0   0.41454486    1.4897342    1.9078408    2.2873963 
 1300000   0.99830003 8.3571094e-05   0.43257273  0.003059134            0   0.42951359    1.4787319    1.9113046    6.1901446 
 1305000    1.0488461 -8.5850117e-05   0.36604907  0.011319795            0   0.35472928    1.5536033    1.9196524   -2.4758736 
 1310000    1.0158519 -8.9206234e-05   0.41030882   0.02337509            0   0.38693374    1.5047306    1.9150395   -2.6523197 
 1315000   0.98904369 -3.2751665e-05   0.43827949  0.030387121            0   0.40789237     1.465021    1.9033005   0.22641521 
 1320000   0.90267297 -0.00018081591   0.57486019  0.036084139            0   0.53877605    1.3370843    1.9119445   -7.3458302 
 1325000    1.0077589 4.0922634e-05   0.44385889 0.0036226648            0   0.44023623    1.4927429    1.9366018    4.0318406 
 1330000   0.99127503 -0.00011236759   0.47799613            0            0   0.47799613    1.4683261    1.9463223   -3.8068985 
 1335000    1.0820711 2.7196781e-05     0.346348 0.0017290345            0   0.34461897    1.6028178    1.9491658     3.341641 
 1340000     1.091762 -4.9024123e-05   0.33417641  0.012089268            0   0.32208714    1.6171724    1.9513488  -0.55868628 
 1345000   0.97951139 -0.000145908   0.49668871  0.014712073            0   0.48197663    1.4509012      1.94759   -5.5228994 
 1350000   0.99998633 3.1138265e-05   0.45386844  0.012080137            0    0.4417883    1.4812297    1.9350982    3.5293773 
 1355000    1.0211813 -0.00012845481   0.40702022 0.0043134354            0   0.40270678    1.5126248    1.9196451   -4.6572414 
 1360000   0.89398354 9.3649497e-05   0.55956054 0.0022537055            0   0.55730684    1.3242131    1.8837737    6.6786279 
 1365000   0.94820494 5.0303641e-05   0.47022462 0.0016710334            0   0.46855358    1.4045286    1.8747532    4.4502996 
 1370000   0.97266694 0.00011009223   0.42417644 0.0015194238            0   0.42265702    1.4407629    1.8649393    7.5016616 
 1375000   0.99987969 -5.9316057e-05   0.42560676  0.010690839            0   0.41491592    1.4810718    1.9066785   -1.1303036 
 1380000   0.99481608 8.0733484e-05   0.43879743  0.012875075            0   0.42592236    1.4735713    1.9123688    6.0459231 
 1385000   0.97680155 -0.00011831349   0.44189565 0.0045466916            0   0.43734896    1.4468873     1.888783   -4.1688678 
 1390000   0.91660397 -0.00012653766   0.48938133  0.018147756            0   0.47123357    1.3577196     1.847101   -4.6316273 
 1395000   0.88625887 -1.2897009e-05   0.51605933  0.016171895            0   0.49988744     1.312771    1.8288303    1.1685034 
 1400000   0.86512998 8.6133027e-05   0.55383924  0.017300405            0   0.53653884    1.2814738     1.835313     6.245324 
 1405000   0.92768439 -3.3684092e-05   0.41600578  0.010229925            0   0.40577585    1.3741325    1.7901383  0.065512762 
 1410000   0.92015835 6.8662789e-05   0.42662838 0.0031168545            0   0.42351152    1.3629845    1.7896129    5.3051477 
 1415000   0.87527593 -0.00013528751   0.49752223   0.01539128            0   0.48213095    1.2965025    1.7940247   -5.1326956 
 1420000   0.85292064 0.00016862116   0.55151658  0.045229247            0   0.50628734    1.2633887    1.8149053    10.448309 
 1425000   0.86861522 -3.8560975e-05   0.52483801  0.020018432            0   0.50481958    1.2866363    1.8114743  -0.16284763 
 1430000   0.90774497 0.00014904582   0.44314163  0.005770316            0   0.43737132    1.3445972    1.7877389    9.4188848 
 1435000   0.80649591 -0.00010311904   0.58801627  0.022582146            0   0.56543412    1.1946221    1.7826383   -3.4970566 
 1440000   0.88662786 0.00015346022   0.48740745  0.014839276            0   0.47256817    1.3133175     1.800725    9.6578881 
 1445000   0.90422945 -3.0372369e-05   0.47254179  0.015560388            0    0.4569814    1.3393899    1.8119317   0.25686636 
 1450000    0.8805894 3.8734059e-05   0.50132648  0.031170493            0   0.47015599     1.304373    1.8056995    3.7888834 
 1455000   0.89444568 -0.000202283   0.48202671 0.0046249811            0   0.47740173    1.3248977    1.8069244   -8.5499651 
 1460000   0.88553595 6.767074e-05   0.50798566 0.0072304182            0   0.50075525    1.3117001    1.8196858    5.2844277 
 1465000   0.94670167 -3.9721647e-05    0.4219839  0.007662253            0   0.41432164    1.4023019    1.8242857  -0.20946255 
 1470000   0.87292267 3.4495545e-05   0.53473295  0.004938402            0   0.52979455    1.2930167    1.8277497    3.5939216 
 1475000   0.96905445 8.0175387e-05   0.39075954 0.0020405443            0   0.38871899    1.4354119    1.8261714    5.9311513 
 1480000   0.89455758 -3.6797287e-05    0.5220229 0.00075528213            0   0.52126761    1.3250634    1.8470863 -0.036934813 
 1485000   0.91671758 6.8704662e-05   0.46718572  0.011701572            0   0.45548415    1.3578879    1.8250736    5.3427523 
 1490000   0.91332665 -0.00010239685   0.48075671  0.031085986            0   0.44967073    1.3528651    1.8336218    -3.409097 
 1495000   0.94154869 9.1884732e-06   0.44673166  0.024878741            0   0.42185292     1.394669    1.8414007    2.3118505 
 1500000   0.92662373 -3.3405191e-05    0.4817796  0.016326329            0   0.46545327    1.3725614     1.854341   0.14399524 
 1505000   0.91931166 1.136757e-05   0.47557586  0.011591488            0   0.46398437    1.3617304    1.8373063    2.4193258 
 1510000    1.0189716 0.00010452732   0.38163016 0.0076246397            0   0.37400552    1.5093517    1.8909819    7.2427806 
 1515000   0.91269636 -0.00013619741   0.53297657 0.0053465547            0   0.52763001    1.3519315    1.8849081   -5.0883995 
 1520000   0.92198839 -7.9906503e-05   0.47647922 0.0060460025            0   0.47043321    1.3656953    1.8421745   -2.2490384 
 1525000   0.89000426 -8.667865e-05   0.51758306  0.020108355            0    0.4974747    1.3183188    1.8359019    -2.602045 
 1530000    0.8915663 0.00013334228   0.54311238  0.010437529            0   0.53267485    1.3206326     1.863745    8.6908699 
 1535000   0.90352198 -9.650524e-05   0.51468694 0.0069164075            0   0.50777053    1.3383419    1.8530289   -3.0880394 
 1540000   0.94192924 -7.6407245e-05   0.46496696  0.019501112            0   0.44546585    1.3952327    1.8601997   -2.0518513 
 1545000   0.92966375 -5.0203829e-06   0.47282851  0.014848554            0   0.45797996    1.3770644    1.8498929    1.5928493 
 1550000   0.89897937 -0.00011794805   0.54341147  0.024402008            0   0.51900946    1.3316132    1.8750247   -4.1639155 
 1555000   0.91022275 -7.7890557e-05   0.54540102  0.037795294            0   0.50760572    1.3482674    1.8936685    -2.094328 
 1560000    0.9154079 -4.4942174e-05   0.54307953  0.011889853            0   0.53118967    1.3559479    1.8990275  -0.40201185 
 1565000   0.91699336 0.00020176486   0.53210306 0.0034786317            0   0.52862443    1.3582964    1.8903995     12.22076 
 1570000    0.9055849 -4.560904e-07   0.55399381  0.023833634            0   0.53016017    1.3413976    1.8953914    1.8720396 
 1575000   0.99219871 1.5502853e-06   0.40275458   0.01729351            0   0.38546107    1.4696943    1.8724489    1.9518235 
 1580000   0.96729359 -6.9947324e-05   0.45074716 0.0013772325            0   0.44936992    1.4328036    1.8835508   -1.6977522 
 1585000   0.98646122 -7.8777033e-05   0.41538252 0.0017281245            0   0.41365439    1.4611957    1.8765782   -2.1568059 
 1590000   0.95219714 0.00012340493   0.45862571  0.010116185            0   0.44850953     1.410442    1.8690677    8.1874002 
 1595000   0.95852346 1.4620699e-05   0.44990033  0.023706703            0   0.42619363    1.4198129    1.8697132     2.618293 
 1600000   0.84211617 -3.931078e-05   0.61417959 0.0069204277            0   0.60725916    1.2473846    1.8615642  -0.15114774 
 1605000   0.95859364 -8.5112367e-06   0.41164862  0.036301943            0   0.37534668    1.4199168    1.8315654    1.3957901 
 1610000   0.92695707 0.00011261556   0.44372341 0.0059716581            0   0.43775175    1.3730552    1.8167786    7.5826951 
 1615000   0.87514421 -0.00017972907   0.53113578  0.015871932            0   0.51526385    1.2963074    1.8274431   -7.3746851 
 1620000   0.90572848 -5.4425204e-05   0.47960913 0.0086987851            0   0.47091034    1.3416103    1.8212194  -0.96535101 
 1625000   0.83947035 -4.3727771e-05    0.5496984  0.015367354            0   0.53433105    1.2434655    1.7931639  -0.44569801 
 1630000   0.92765412 0.00016203478   0.41534741  0.014661086            0   0.40068632    1.3740877    1.7894351    10.085616 
 1635000   0.92357051 -1.2562397e-05   0.43244316 0.0078411319            0   0.42460202    1.3680388     1.800482    1.1572873 
 1640000   0.87784945  3.62045e-05    0.4687045  0.030159709            0   0.43854479    1.3003145     1.769019    3.6226894 
 1645000   0.87066462 0.00019727425   0.45075895  0.023610593            0   0.42714835     1.289672    1.7404309    11.840872 
 1650000   0.86467512 -0.00011957755   0.44708851 0.0023157266            0   0.44477278       1.2808    1.7278885   -4.3944818 
 1655000   0.83027587 -9.4235527e-06   0.51987191 0.0011451517            0   0.51872676    1.2298461     1.749718    1.2672321 
 1660000   0.89546348 3.4771842e-05   0.40958773  0.011634049            0   0.39795368    1.3264053     1.735993    3.5163113 
 1665000   0.82205397 2.2870838e-05   0.51299976  0.012062491            0   0.50093727    1.2176674    1.7306672    2.9016541 
 1670000   0.86629128 5.195061e-05   0.42630543 0.0025273787            0   0.42377805     1.283194    1.7094994    4.3693706 
 1675000   0.93301251 1.7985192e-06   0.37822253 0.0053607582            0   0.37286177    1.3820248    1.7602473    1.8523315 
 1680000   0.83784456 4.0999134e-06   0.51036397 0.0056218161            0   0.50474216    1.2410573    1.7514212    1.9613368 
 1685000   0.84658027 -0.00010711769   0.50890375 0.00065563787            0   0.50824811     1.253997    1.7629008   -3.7215248 
 1690000   0.87443587 -2.6481243e-05   0.47146077 0.0018077207            0   0.46965305    1.2952581    1.7667189   0.41087924 
 1695000   0.88365409 7.0977244e-05   0.44723119  0.047939498            0   0.39929169    1.3089126    1.7561438    5.3901787 
 1700000   0.84576136 0.00019130204   0.50915272  0.047292804            0   0.46185992     1.252784    1.7619367    11.556601 
 1705000   0.82896655 1.6853117e-05   0.52896856  0.051835639            0   0.47713292    1.2279067    1.7568753    2.6197548 
 1710000   0.80798656 -1.4907281e-05   0.55191558  0.015079785            0   0.53683579    1.1968301    1.7487457   0.98549289 
 1715000   0.81436367 9.1359066e-06   0.52516389  0.012685217            0   0.51247867    1.2062762    1.7314401    2.1991985 
 1720000   0.80818476 8.4230314e-06   0.50595079  0.024234954            0   0.48171583    1.1971237    1.7030745    2.1343337 
 1725000   0.80715386 -2.4599029e-05   0.48309256 0.0052939864            0   0.47779858    1.1955967    1.6786892   0.41921894 
 1730000   0.88516515 1.8669631e-05   0.36616676  0.005912023            0   0.36025473    1.3111509    1.6773176    2.6332027 
 1735000   0.82385411 -5.7335773e-05   0.47655155 0.0044440128            0   0.47210754    1.2203339    1.6968855   -1.2387061 
 1740000   0.85821239 4.6339799e-05   0.41840313   0.00401695            0   0.41438618    1.2712271    1.6896302    4.0622279 
 1745000   0.86345158 4.6100063e-05   0.40835909  0.004267858            0   0.40409123    1.2789877    1.6873467    4.0476699 
 1750000   0.87374458 -9.7127785e-05    0.4110009 0.0036802829            0   0.40732061    1.2942342    1.7052351   -3.2677076 
 1755000    0.9233661 0.00013155147   0.34930352  0.007301596            0   0.34200192     1.367736    1.7170395    8.4524748 
 1760000   0.91926056 0.00010956101   0.36263575  0.013265815            0   0.34936993    1.3616547    1.7242905     7.333814 
 1765000   0.85977952 -6.7019758e-05   0.48456604  0.009037359            0   0.47552868    1.2735484    1.7581145   -1.6732972 
 1770000   0.86470524 7.6902802e-05   0.48470114 0.0070138987            0   0.47768724    1.2808446    1.7655458    5.7029692 
 1775000   0.89154133 4.1339851e-05   0.42851303 0.0080794061            0   0.42043362    1.3205956    1.7491086     3.865709 
 1780000    0.8702371 -3.3299683e-05   0.44787931 0.0049759745            0   0.44290334    1.2890387     1.736918  0.031974259 
 1785000   0.88432433 -6.7038654e-05   0.40503747 0.0045988706            0    0.4004386    1.3099054    1.7149429   -1.7174362 
 1790000   0.85765344 2.2618653e-05   0.43113547 0.0028378362            0   0.42829763    1.2703992    1.7015346    2.8596097 
 1795000   0.80834781 0.00011860302    0.4743172  0.023129389            0   0.45118781    1.1973652    1.6716824    7.7441568 
 1800000   0.80836445 -9.6504775e-05   0.45243422  0.016960071            0   0.43547415    1.1973898    1.6498241   -3.2912204 
 1805000   0.82592089 -2.2415498e-05   0.43198223 0.00087568046            0   0.43110655    1.2233953    1.6553775   0.50770403 
 1810000   0.85622285 6.1315773e-06   0.37932482 0.0050096623            0   0.37431516    1.2682801    1.6476049    1.9615417 
 1815000   0.85946159 -0.00012144437   0.35087022 0.0090656553            0   0.34180457    1.2730775    1.6239477   -4.5940042 
 1820000   0.84364144 6.7531091e-05   0.38616188  0.033095959            0   0.35306592    1.2496439    1.6358058    5.0933976 
 1825000   0.76770517 8.1998647e-05   0.50309771  0.035088219            0   0.46800949    1.1371633     1.640261    5.8385917 
 1830000   0.88689777 -1.8412668e-05   0.36529297  0.011679767            0    0.3536132    1.3137173    1.6790103    0.7362817 
 1835000   0.85307338 -2.7912437e-05   0.44167091  0.025462856            0   0.41620805     1.263615    1.7052859    0.2761691 
 1840000   0.86693525 -4.1691248e-06   0.42415973  0.022360932            0    0.4017988    1.2841478    1.7083076    1.4948484 
 1845000   0.78009935 -8.0917012e-06   0.53279988  0.039977223            0   0.49282266    1.1555222     1.688322    1.2740269 
 1850000   0.80685914 4.227753e-05   0.46740883  0.027282792            0   0.44012603    1.1951601    1.6625689    3.8271785 
 1855000   0.81764983 9.2243868e-05   0.43984488 0.0093236874            0   0.43052119    1.2111438    1.6509887    6.3738747 
 1860000    0.8489569 -7.1874141e-05   0.35401852 0.0028252911            0   0.35119323    1.2575174    1.6115359   -2.0684201 
 1865000    0.8019203 -9.3130519e-05   0.43848283 0.0015463458            0   0.43693649    1.1878444    1.6263273   -3.1419553 
 1870000   0.76564848 -9.8194417e-05    0.4552203 0.0093349409            0   0.44588536    1.1341168    1.5893371   -3.4382171 
 1875000   0.78777362 -9.2029735e-05   0.43666172  0.016346812            0   0.42031491    1.1668897    1.6035514    -3.108371 
 1880000   0.77970935 -9.002712e-05   0.48852667 0.0029392027            0   0.48558747    1.1549445    1.6434711   -2.9659174 
 1885000   0.78901564 -4.183955e-05   0.48196877            0            0   0.48196877    1.1687294    1.6506982  -0.49148679 
 1890000   0.88897098 9.0777567e-06   0.33507856 5.4537762e-05            0   0.33502402    1.3167883    1.6518668     2.116648 
 1895000   0.76525244 9.3082871e-07    0.4834621 0.00084430109            0    0.4826178    1.1335302    1.6169923    1.6646507 
 1900000   0.74557727 3.2596724e-05   0.51809081 0.0061336792            0   0.51195713    1.1043863    1.6224771    3.2914294 
 1905000   0.77434662 -3.7473395e-05   0.48110142  0.023245569            0   0.45785586    1.1470009    1.6281024  -0.29053546 
 1910000   0.78251301 3.8971189e-05   0.46579658  0.067537525            0   0.39825905    1.1590974     1.624894    3.6202189 
 1915000   0.75949696 0.00015604421   0.49822833  0.011704184            0   0.48652415    1.1250049    1.6232332    9.6126965 
 1920000   0.83291146 2.4224117e-05   0.40801319 0.0037254341            0   0.40428776    1.2337501    1.6417633    2.8820381 
 1925000   0.83233942  -5.7982e-05   0.41537375  0.010145718            0   0.40522803    1.2329028    1.6482765   -1.3204019 
 1930000   0.79016471 -0.00010013296    0.4836642  0.015697889            0   0.46796631    1.1704315    1.6540957   -3.4727119 
 1935000   0.78032781 -9.7075506e-05   0.50365742  0.014582082            0   0.48907534    1.1558606     1.659518   -3.3107479 
 1940000   0.85426797 3.3397729e-05   0.39886812  0.016317358            0   0.38255076    1.2653844    1.6642525    3.3742163 
 1945000   0.83434883 6.6293969e-05   0.44159049 0.0044922964            0   0.43709819    1.2358792    1.6774697    5.0717209 
 1950000   0.87840306 1.5788848e-05   0.38863795 0.0031892292            0   0.38544872    1.3011345    1.6897725    2.4981615 
 1955000     0.801452 -3.1715172e-05   0.52248129   0.00629531            0   0.51618598    1.1871508    1.7096321  0.085815249 
 1960000   0.83790127 2.1586224e-05   0.45495522   0.01088642            0    0.4440688    1.2411413    1.6960965    2.8013111 
 1965000    0.8519339 -3.1500153e-08   0.44355878 0.0074889004            0   0.43606988    1.2619271    1.7054859    1.7038731 
 1970000   0.83578862 6.8515606e-05   0.49229977 0.0047642703            0    0.4875355    1.2380119    1.7303117    5.2383107 
 1975000   0.90757483 -2.3939605e-05   0.42126097 0.0085660012            0   0.41269497    1.3443452    1.7656062    0.5398984 
 1980000    0.8803847 6.9805861e-05   0.47519608  0.013239233            0   0.46195685    1.3040698    1.7792659     5.353326 
 1985000   0.85564579 0.00016004947   0.50341014  0.015917415            0   0.48749273    1.2674253    1.7708355    9.9653683 
 1990000    0.8494517 8.7946038e-05   0.53234472  0.051545071            0   0.48079964    1.2582503    1.7905951    6.2934322 
 1995000   0.91252778 1.9607608e-05   0.46510161  0.044706339            0   0.42039527    1.3516818    1.8167834    2.8206929 
 2000000   0.85314778 -2.0431713e-06   0.51361823  0.014301423            0   0.49931681    1.2637251    1.7773434     1.672733 
 2005000   0.87784178 -1.3691988e-05   0.49868426 0.0087644313            0   0.48991983    1.3003031    1.7989874    1.0979576 
 2010000   0.89932137 2.3995034e-05   0.45849606 0.0072263998            0   0.45126966    1.3321198    1.7906158    3.0191616 
 2015000    0.9141221 -2.1456368e-05   0.43658089  0.043197096            0   0.39338379    1.3540434    1.7906243   0.69205822 
 2020000   0.82192282 -6.0990283e-05   0.59468644  0.055615316            0   0.53907113    1.2174732    1.8121596   -1.3105429 
 2025000   0.88092358 -1.8917482e-05   0.51294736   0.02814325            0    0.4848041    1.3048681    1.8178154   0.84924036 
 2030000   0.88450189 8.6088858e-05   0.50664002 0.0055787765            0   0.50106125    1.3101684    1.8168084     6.224558 
 2035000   0.94748532 -3.1179138e-05    0.4069549  0.019278696            0   0.38767621    1.4034626    1.8104175   0.21404568 
 2040000   0.83108554 -8.8925657e-05   0.53926126   0.01303544            0   0.52622582    1.2310455    1.7703067   -2.7826869 
 2045000   0.96475739 2.0087113e-05   0.35492494 0.0024516382            0    0.3524733    1.4290469    1.7839718     2.812432 
 2050000   0.84061217 -1.4291325e-05   0.53418464 0.00021951706            0   0.53396512    1.2451568    1.7793414    1.0476256 
 2055000   0.94626431 2.279497e-06   0.35937324  0.010050046            0    0.3493232     1.401654    1.7610272    1.8777375 
 2060000   0.84713503 2.7894738e-05   0.48503114   0.02601229            0   0.45901885    1.2548188    1.7398499    3.1680605 
 2065000   0.81513891 -0.0001720132   0.51994685 0.0091003869            0   0.51084646    1.2074245    1.7273714   -7.0797046 
 2070000   0.88834578 -9.9381223e-05   0.43295743  0.020443124            0   0.41251431    1.3158622    1.7488196    -3.339499 
 2075000   0.89884978 5.3847686e-05   0.43973733  0.020452697            0   0.41928464    1.3314212    1.7711586    4.5281601 
 2080000   0.81315463 -1.6586898e-05   0.56304121   0.02647731            0    0.5365639    1.2044853    1.7675265   0.91827731 
 2085000   0.93450965 0.0001123669   0.37226069  0.028696813            0   0.34356387    1.3842424    1.7565031    7.5096886 
 2090000   0.89739471 -1.3000769e-05   0.42601476  0.010605271            0   0.41540948    1.3292659    1.7552807    1.0896413 
 2095000   0.90669586 -7.0370097e-05   0.42275921 0.0049953579            0   0.41776385    1.3430432    1.7658025   -1.8371465 
 2100000   0.90006104 -1.6287111e-05   0.39824909  0.012547489            0    0.3857016    1.3332154    1.7314645   0.89756444 
 2105000    0.8692899 -4.2919201e-05   0.44429108   0.01687866            0   0.42741242    1.2876357    1.7319267  -0.46553633 
 2110000   0.88775105 -2.2644007e-06   0.43218433  0.013877468            0   0.41830687    1.3149812    1.7471656    1.6312283 
 2115000   0.91551547 9.6683327e-05   0.39124912  0.021487905            0   0.36976121    1.3561073    1.7473564    6.6975427 
 2120000   0.86006824 1.8017106e-05   0.45367532   0.01406658            0   0.43960874    1.2739761    1.7276514    2.6501272 
 2125000   0.85586109 -8.676322e-05   0.45758559 0.0057560851            0   0.45182951    1.2677442    1.7253298    -2.716947 
 2130000   0.83622689 -4.8523557e-05    0.4814267 0.0080778777            0   0.47334882    1.2386611    1.7200878  -0.76431836 
 2135000   0.93104549 -6.4787683e-06    0.3470356  0.008983093            0   0.33805251    1.3791111    1.7261467    1.3944338 
 2140000   0.97202512 -2.9781416e-05   0.30927872  0.013347198            0   0.29593152    1.4398122    1.7490909   0.22428244 
 2145000    0.8740593 3.093772e-07   0.44778358 0.0086203941            0   0.43916319    1.2947003    1.7424839     1.758324 
 2150000   0.86303309 1.5477683e-05   0.44383706 0.0010151404            0   0.44282192    1.2783678    1.7222048    2.5146622 
 2155000   0.91955645 -4.359331e-05   0.39126308 0.0045378059            0   0.38672528     1.362093    1.7533561   -0.4786214 
 2160000   0.80724104 -4.5780114e-07   0.54687925  0.017492287            0   0.52938696    1.1957258     1.742605    1.7191656 
 2165000   0.90517412 -5.2760253e-05   0.41540237  0.016745656            0   0.39865672    1.3407892    1.7561915  -0.94513342 
 2170000   0.90698857 -0.00010111675   0.41230199  0.007671845            0   0.40463014    1.3434768    1.7557788   -3.4213986 
 2175000   0.84557575 4.0979431e-05   0.49149608 0.0026229034            0   0.48887317    1.2525091    1.7440052     3.842152 
 2180000   0.89783811 3.5599729e-05   0.39977318  0.031971575            0    0.3678016    1.3299227    1.7296959     3.552402 
 2185000   0.84387312 2.0404988e-05   0.49118315  0.020764739            0   0.47041841    1.2499871    1.7411702    2.7859056 
 2190000   0.89392021 8.1123675e-06   0.39023101  0.011373941            0   0.37885707    1.3241193    1.7143503    2.1297035 
 2195000   0.85424133 -4.6476302e-05   0.45990363 0.0068858887            0   0.45301774     1.265345    1.7252486  -0.65433805 
 2200000   0.95956239 8.0222521e-05   0.32207938  0.012608267            0   0.30947112    1.4213518    1.7434312    5.8508242 
 2205000   0.89345603 4.2641629e-05   0.45751073  0.027311617            0   0.43019912    1.3234318    1.7809425    3.9641939 
 2210000   0.83630582 -4.8681235e-05   0.51804817  0.014891152            0   0.50315701     1.238778    1.7568262  -0.73565305 
 2215000   0.90610174 -1.989735e-05   0.40850223 0.0036464787            0   0.40485576    1.3421632    1.7506654   0.73192113 
 2220000   0.90350898 1.3872289e-05   0.42064555  0.015119535            0   0.40552602    1.3383227    1.7589682    2.4692294 
 2225000   0.86938509 6.6730815e-05    0.4454706   0.01831596            0   0.42715464    1.2877767    1.7332473     5.149865 
 2230000   0.86060359 2.0882738e-05   0.44397833 0.0084753752            0   0.43550295    1.2747691    1.7187474    2.7879436 
 2235000   0.90195942 -4.8801847e-05   0.38777396 0.0097068979            0   0.37806706    1.3360274    1.7238013  -0.77485321 
 2240000   0.92789951 -2.2443617e-05   0.38750265 0.0091279387            0   0.37837471    1.3744511    1.7619538   0.61284059 
 2245000    0.8658794 -5.2425366e-05   0.46766672 0.0087683411            0   0.45889838    1.2825839    1.7502506  -0.93392818 
 2250000   0.90668244 -7.907249e-05    0.4352393  0.028131503            0    0.4071078    1.3430234    1.7782627   -2.2702488 
 2255000   0.86114986 -3.9284031e-05   0.49981678  0.010212064            0   0.48960472    1.2755782     1.775395  -0.23594738 
 2260000   0.91297622 -6.2377999e-05   0.38739799  0.017735542            0   0.36966245     1.352346     1.739744   -1.4540095 
 2265000   0.83716916 -0.00010082069   0.50300093  0.048981779            0   0.45401915    1.2400568    1.7430577   -3.4189614 
 2270000   0.82196647 1.3897786e-05   0.53215619  0.042658686            0   0.48949751    1.2175378     1.749694    2.4612607 
 2275000   0.89892736 8.5186806e-05   0.40741076 0.0082331127            0   0.39917765    1.3315362    1.7389469    6.1005114 
 2280000   0.93065757 -9.7458259e-05   0.32877861  0.035621054            0   0.29315755    1.3785365    1.7073151   -3.2825477 
 2285000   0.82409836 -0.0001808743   0.47874913  0.026551278            0   0.45219785    1.2206957    1.6994448   -7.5613192 
 2290000   0.83835762 1.3054558e-05   0.45870088  0.019325108            0   0.43937577    1.2418172    1.7005181    2.3689115 
 2295000   0.86297425 3.4158076e-06   0.42727734 0.0038570665            0   0.42342027    1.2782806    1.7055579    1.8804473 
 2300000   0.88732445 -0.00012119728   0.39127871 0.00049192932            0   0.39078679    1.3143493    1.7056281   -4.4996729 
 2305000   0.86793838 -5.256656e-05   0.46921391 0.00071586611            0   0.46849804    1.2856337    1.7548476  -0.93656023 
 2310000   0.87928864 2.478399e-05   0.44529827 0.0011160265            0   0.44418224    1.3024463    1.7477446    3.0166848 
 2315000   0.92129895 -4.0121112e-05   0.37011635 0.0024353456            0     0.367681    1.3646741    1.7347904  -0.31941053 
 2320000   0.88707061 -4.8419055e-05   0.44646108 0.0042746234            0   0.44218645    1.3139733    1.7604344  -0.71862121 
 2325000   0.90391853 0.00014520515   0.42050867 0.0087783173            0   0.41173035    1.3389293     1.759438    9.1939415 
 2330000   0.90365151 0.00015018569   0.40169103 0.0073579935            0   0.39433303    1.3385338    1.7402248    9.4297323 
 2335000   0.83788799 5.4860743e-06   0.47383291 0.0056940004            0   0.46813891    1.2411216    1.7149545    1.9958415 
 2340000   0.94067113 3.0252394e-05   0.35934235 0.0045744495            0    0.3547679    1.3933691    1.7527115     3.301634 
 2345000   0.88431433 9.4629352e-05   0.43312476  0.010022158            0   0.42310261    1.3098906    1.7430154    6.5880382 
 2350000   0.84726528 -2.4491077e-05   0.47122765  0.025675074            0   0.44555257    1.2550117    1.7262393   0.47229619 
 2355000   0.84919533 -6.0079959e-05   0.45004219   0.01802921            0   0.43201299    1.2578706    1.7079128   -1.3681811 
 2360000   0.87216546 5.699811e-05   0.41722938  0.016094675            0   0.40113471    1.2918951    1.7091245    4.6274277 
 2365000   0.91124609 2.1047206e-06   0.34548855  0.022914306            0   0.32257425    1.3497833    1.6952718    1.8030335 
 2370000   0.87868539 -1.0816955e-05   0.40181401 0.0051836691            0   0.39663034    1.3015527    1.7033667    1.1495386 
 2375000   0.83806721 1.6154459e-05   0.47849599 0.0063513912            0    0.4721446     1.241387     1.719883    2.5469913 
 2380000   0.95907247 2.1971966e-05   0.32406915 0.0036969621            0   0.32037219    1.4206261    1.7446953    2.8696599 
 2385000   0.95578714 -3.9106021e-05     0.372126  0.018439433            0   0.35368656    1.4157597    1.7878857  -0.21434259 
 2390000   0.94588218 4.327912e-05   0.38577803   0.01844184            0   0.36733619     1.401088     1.786866     4.002757 
 2395000   0.90462674 -3.1250529e-05   0.45683961 0.0085112872            0   0.44832833    1.3399784     1.796818   0.19679088 
 2400000   0.97870999 -1.1425604e-06    0.3599458  0.018729835            0   0.34121596    1.4497142      1.80966    1.7511609 
 2405000   0.93363116 -7.6890341e-05   0.42579947 0.0067503966            0   0.41904907    1.3829412    1.8087406   -2.1280448 
 2410000   0.88415128 0.00012790828   0.49444745  0.004676024            0   0.48977142    1.3096491    1.8040965    8.3530003 
 2415000   0.88276791 3.6140401e-05   0.48929848  0.007656267            0   0.48164222       1.3076    1.7968985     3.647287 
 2420000    1.0010709 -5.4222188e-05   0.32754378 0.0047664425            0   0.32277733    1.4828363      1.81038  -0.96579597 
 2425000   0.92637564 -6.0707155e-06    0.4506493 0.0013846542            0   0.44926465    1.3721939    1.8228432    1.5120226 
 2430000   0.98493721 -2.7776618e-05   0.37590605 0.00014614476            0    0.3757599    1.4589382    1.8348443   0.41268144 
 2435000   0.93848441 -4.5887138e-05   0.43427433  0.011562378            0   0.42271195      1.39013    1.8244044  -0.52501712 
 2440000   0.93644518 7.2348655e-05   0.44821915  0.035408406            0   0.41281074    1.3871094    1.8353286    5.5395797 
 2445000   0.91975239 5.1247196e-05   0.47141568  0.024695861            0   0.44671982    1.3623832    1.8337989    4.4576553 
 2450000   0.96057568 -6.0076822e-05   0.44114833  0.017253261            0   0.42389507    1.4228527    1.8640011   -1.2119322 
 2455000   0.89689287 -4.0597022e-05   0.52975963 0.0014109186            0   0.52834871    1.3285226    1.8582822  -0.22028533 
 2460000   0.93122963 3.8102313e-05   0.50784243            0            0   0.50784243    1.3793839    1.8872263    3.8380648 
 2465000   0.99169255 -2.9500727e-05   0.40862631            0            0   0.40862631    1.4689446    1.8775709   0.36713368 
 2470000    1.0027024 -7.8772305e-05    0.3517696            0            0    0.3517696    1.4852529    1.8370225   -2.1961195 
 2475000   0.99308515 -8.6053789e-05   0.38198721 7.505216e-06            0    0.3819797    1.4710074    1.8529946   -2.5529594 
 2480000   0.95917094 -4.6676464e-06   0.44084543 0.0038728718            0   0.43697255     1.420772    1.8616174    1.6226339 
 2485000   0.96692358 7.4226987e-05   0.43321292  0.017163319            0    0.4160496    1.4322555    1.8654685    5.6658902 
 2490000   0.94743819 2.7678705e-07   0.42047094  0.042251055            0   0.37821989    1.4033928    1.8238638    1.8380353 
 2495000   0.91518165 -0.00010469838    0.4494112  0.020558438            0   0.42885277    1.3556128     1.805024   -3.5555329 
 2500000   0.99094717 -7.6401597e-05   0.36235435 0.0086600534            0   0.35369429    1.4678405    1.8301948    -2.081567 
 2505000   0.94650697 2.6478421e-05   0.43487397 0.0025680748            0   0.43230589    1.4020134    1.8368874    3.1925826 
 2510000   0.92937754 -2.723684e-05   0.45650945 0.0065963505            0    0.4499131    1.3766405    1.8331499   0.43862371 
 2515000    0.9531572 -0.00011774354   0.43354264  0.018403015            0   0.41513962    1.4118641    1.8454067   -4.1830625 
 2520000   0.93115423 -0.00014807817   0.47607164  0.029395164            0   0.44667647    1.3792722    1.8553438   -5.7262584 
 2525000     1.007479 2.7956727e-06   0.35732122   0.02391122            0      0.33341    1.4923283    1.8496495    1.9927879 
 2530000    1.0000789 8.2881579e-05   0.36070723  0.011872146            0   0.34883508    1.4813668    1.8420741    6.0856109 
 2535000   0.95408156 0.00010338263   0.41394256 0.0057586062            0   0.40818396    1.4132333    1.8271759    7.1203666 
 2540000   0.98608866 -7.4792616e-05   0.39437824   0.00435642            0   0.39002182    1.4606438    1.8550221   -1.9743599 
 2545000   0.96178128 -0.00014955957   0.41858353 0.0064894052            0   0.41209412    1.4246385     1.843222    -5.814228 
 2550000   0.96223046 2.0928677e-05   0.40436735  0.013535463            0   0.39083189    1.4253039    1.8296712    2.9012195 
 2555000   0.93727591 1.1984173e-05   0.47276182  0.033479885            0   0.43928193    1.3883399    1.8611018    2.4746914 
 2560000   0.96554019 -7.2333046e-05   0.41151169  0.020985945            0   0.39052574    1.4302064    1.8417181   -1.8617339 
 2565000   0.95566602 -1.2295677e-05    0.4233358  0.013468537            0   0.40986726    1.4155803    1.8389161    1.2093774 
 2570000   0.91619905 2.544426e-05   0.46300616  0.046524665            0   0.41648149    1.3571198     1.820126    3.1228721 
 2575000   0.89537507 -3.2034484e-05      0.49378   0.04481246            0   0.44896754    1.3262743    1.8200543   0.17988876 
 2580000   0.93237339 -0.00010883697   0.45019399  0.043370318            0   0.40682367    1.3810781    1.8312721   -3.7411807 
 2585000   0.96851085 6.7730341e-07    0.4120794  0.034891442            0   0.37718796    1.4346067    1.8466861     1.881364 
 2590000   0.92553243 -0.00013536402   0.45987032  0.016492813            0   0.44337751    1.3709449    1.8308152   -5.0998228 
 2595000   0.95406623 -0.00012798251   0.42628661 0.0046172972            0   0.42166931    1.4132106    1.8394972   -4.7132071 
 2600000   0.94033901 3.2548957e-05   0.44968352 0.0021943477            0   0.44748917    1.3928772    1.8425607    3.5090673 
 2605000   0.92619664 -3.9633472e-05   0.47727603  0.009707206            0   0.46756883    1.3719288    1.8492048  -0.18002898 
 2610000    1.0106605 -1.1391635e-05   0.39905029 0.0046779038            0   0.39437238    1.4970409    1.8960912    1.3128395 
 2615000   0.95137453 1.4816823e-05   0.48233987 0.0021709944            0   0.48016887    1.4092235    1.8915634    2.6501847 
 2620000   0.97827408 -4.48941e-05   0.43332396  0.020856792            0   0.41246717    1.4490685    1.8823924  -0.41618549 
 2625000   0.95696182 -9.3980989e-05     0.443946  0.020150202            0    0.4237958    1.4174997    1.8614457   -2.9503809 
 2630000   0.96065492 -9.0909081e-05    0.4269823  0.029298125            0   0.39768417    1.4229701    1.8499524   -2.8045925 
 2635000   0.99839292 7.0837031e-05   0.37787427   0.01351248            0   0.36436179    1.4788695    1.8567438    5.4835998 
 2640000    1.0248998 0.00010749145   0.34716777   0.01003958            0   0.33712819    1.5181329    1.8653006    7.3688628 
 2645000   0.96551123 -5.0231115e-05   0.41018635  0.014047815            0   0.39613853    1.4301635    1.8403499  -0.73148325 
 2650000   0.99332509 -1.8745381e-06   0.39114874  0.013203845            0   0.37794489    1.4713628    1.8625115    1.7665352 
 2655000    1.0269806 -7.2516252e-06   0.29995869 0.0044786267            0   0.29548006     1.521215    1.8211737    1.4498905 
 2660000   0.97183697 -4.3256004e-06   0.37594614 0.0018364909            0   0.37410965    1.4395335    1.8154796    1.5940089 
 2665000   0.99653958 -2.3079263e-05    0.3402426  0.010659995            0    0.3295826    1.4761243    1.8163669    0.6347086 
 2670000   0.96339051 4.0949281e-05   0.39784887  0.031615227            0   0.36623364    1.4270222    1.8248711    3.9214742 
 2675000   0.91811567 4.2509198e-05   0.47071339  0.052751827            0   0.41796157    1.3599588    1.8306722    4.0071432 
 2680000   0.97602914 9.3395861e-05   0.37705831  0.025926608            0    0.3511317    1.4457432    1.8228015    6.6046695 
 2685000   0.97073615 6.8257867e-05   0.33774311  0.012653807            0   0.32508931    1.4379029     1.775646    5.2704488 
 2690000   0.93078749  4.17748e-05   0.40149982  0.024644832            0   0.37685499     1.378729    1.7802288    3.9190986 
 2695000   0.92210434 8.7728265e-05   0.40213471  0.035135283            0   0.36699942    1.3658671    1.7680018    6.2596889 
 2700000   0.86272027 2.0152037e-05   0.47392427  0.030126069            0    0.4437982    1.2779044    1.7518287     2.783613 
 2705000   0.93582302 -1.7378346e-05   0.36193763  0.012515964            0   0.34942167    1.3861878    1.7481255   0.85835414 
 2710000   0.98521071 -8.5176224e-05   0.27768473 0.0065937523            0   0.27109098    1.4593434    1.7370281   -2.6239945 
 2715000   0.94020905 -8.7146895e-05   0.33741497 0.0050650254            0   0.33234995    1.3926847    1.7300996   -2.7318214 
 2720000   0.90965863 1.265408e-05   0.41934033 0.0085098024            0   0.41083053    1.3474318    1.7667722    2.4146611 
 2725000   0.91719426 -6.5696643e-05   0.39479596  0.023533228            0   0.37126273     1.358594      1.75339   -1.6102781 
 2730000   0.90243552 -2.3746571e-06   0.37946369  0.010583238            0   0.36888045    1.3367326    1.7161963    1.5946139 
 2735000   0.89289004 5.5843692e-05   0.38034723  0.018253894            0   0.36209334    1.3225934    1.7029406    4.5621376 
 2740000   0.91811727 -5.881117e-05   0.34010251  0.028919716            0   0.31118279    1.3599612    1.7000637   -1.3110682 
 2745000   0.88912367 -0.0001130677   0.38776178  0.027297328            0   0.36046445    1.3170144    1.7047762     -4.08429 
 2750000   0.87076742 -6.4510981e-05    0.4391569  0.025054053            0   0.41410285    1.2898242    1.7289811   -1.5739811 
 2755000   0.90897865 6.4765471e-06   0.38232038 0.0071552818            0    0.3751651    1.3464246     1.728745    2.0603442 
 2760000   0.93648009 -3.0389077e-05   0.34029346  0.009844191            0   0.33044927    1.3871611    1.7274546   0.17153387 
 2765000   0.89998771 -4.7444303e-05   0.39485061  0.013094045            0   0.38175656    1.3331068    1.7279574  -0.70119091 
 2770000   0.89892328 -4.2440962e-07    0.3774596  0.010759569            0   0.36670004    1.3315301    1.7089897    1.6872599 
 2775000   0.91239495 2.5310519e-05   0.38866567 0.0043936508            0   0.38427201     1.351485    1.7401507    3.0360492 
 2780000   0.96032931 -8.2391805e-05   0.34021964 0.0071510116            0   0.33306863    1.4224878    1.7627074    -2.455753 
 2785000   0.89512076 -0.00014806139   0.42165793 0.0042791153            0   0.41737882    1.3258976    1.7475556   -5.8331877 
 2790000   0.95297036 2.6423827e-05    0.3428523 0.00041643764            0   0.34243586    1.4115873    1.7544396    3.1073396 
 2795000   0.86435659 6.1219273e-05   0.44895924 0.0050041029            0   0.44395514    1.2803282    1.7292874    4.8637142 
 2800000    0.9295695 1.8787289e-05   0.36058475  0.024662491            0   0.33592226    1.3769248    1.7375096    2.6994188 
 2805000    0.9360331 2.9790742e-05   0.36471153 0.0061332355            0    0.3585783     1.386499    1.7512106    3.2764966 
 2810000   0.84398655 -0.00012240486   0.47595111 0.0076584397            0   0.46829267    1.2501551    1.7261062   -4.5410225 
 2815000   0.85292627 -0.0001065668   0.41966605 0.0076986554            0    0.4119674     1.263397    1.6830631   -3.7731569 
 2820000   0.90874959 -1.515932e-06   0.36229532 0.0030760639            0   0.35921926    1.3460853    1.7083807    1.6307649 
 2825000   0.89358102 -9.7777475e-05   0.36442904 0.0050701643            0   0.35935888    1.3236169    1.6880459   -3.3181608 
 2830000   0.84238154 -0.00010247424   0.43253283  0.002088548            0   0.43044428    1.2477777    1.6803105   -3.5663708 
 2835000   0.88034435 3.3034677e-05   0.37646016 0.0032570125            0   0.37320314    1.3040101    1.6804702    3.3718457 
 2840000   0.87839448 -5.6391788e-05   0.38864553 0.0041533937            0   0.38449213    1.3011218    1.6897673   -1.1974922 
 2845000   0.91350067 1.625458e-06   0.33048876 0.0032457798            0   0.32724298    1.3531229    1.6836116    1.7668351 
 2850000   0.85327691 0.00014730193   0.44991023  0.004285339            0   0.44562489    1.2639164    1.7138266    9.2556854 
 2855000   0.91620541 4.5691074e-05   0.38067064 0.0044936505            0   0.37617699    1.3571293    1.7377999    4.0771829 
 2860000   0.88901429 7.993809e-06   0.44245899  0.012231008            0   0.43022798    1.3168524    1.7593114    2.1685944 
 2865000   0.88376979 1.885587e-05    0.4362584  0.032978955            0   0.40327944     1.309084    1.7453424     2.710763 
 2870000   0.87314635 -2.8579344e-05   0.44929672  0.041705314            0   0.40759141     1.293348    1.7426448   0.27938235 
 2875000   0.90788412 -3.040198e-05   0.39438241  0.017837776            0   0.37654463    1.3448034    1.7391858    0.1826044 
 2880000   0.87449887 0.00010114811     0.480978 0.0056972547            0   0.47528074    1.2953515    1.7763294    6.9551128 
 2885000   0.88577075 2.4927187e-05   0.45945415 0.0041546218            0   0.45529953    1.3120479    1.7715021     3.047774 
 2890000   0.92661559 2.5726195e-05    0.3992279 0.0053874765            0   0.39384042    1.3725493    1.7717772    3.0889584 
 2895000   0.84241389 5.4441865e-05    0.5066483 0.0011881321            0   0.50546017    1.2478256    1.7544739    4.5418974 
 2900000    0.9623351 -2.6134682e-05   0.35885644 0.0042241305            0   0.35463231    1.4254589    1.7843153   0.44621959 
 2905000   0.91413393 -5.3222292e-05   0.42374792  0.018791675            0   0.40495625    1.3540609    1.7778088  -0.94717256 
 2910000   0.93450031 1.4149394e-05   0.42513767  0.025257682            0   0.39987999    1.3842286    1.8093663    2.5338152 
 2915000   0.91884608 -3.6371662e-05   0.42841188  0.010823943            0   0.41758794    1.3610408    1.7894526 -0.072776454 
 2920000   0.93732165 3.2432356e-05   0.43175572 0.0068055964            0   0.42495012    1.3884077    1.8201634       3.4807 
 2925000   0.88161896 0.00017073234   0.50615337 0.0038325917            0   0.50232078    1.3058981    1.8120515    10.553547 
 2930000   0.93355056 -7.7896701e-05   0.44908915 0.00095715339            0     0.448132    1.3828218    1.8319109   -2.1564002 
 2935000   0.89461186 -0.00014115496   0.50418342 0.0077205986            0   0.49646282    1.3251438    1.8293272   -5.3978067 
 2940000   0.95901814 5.743112e-05   0.41488463 0.0035722959            0   0.41131234    1.4205456    1.8354303    4.7759036 
 2945000   0.93034112 2.8438195e-05   0.45484784 0.0044829886            0   0.45036485    1.3780678    1.8329156    3.2889512 
 2950000   0.84602892 5.2390397e-05   0.56732301  0.024658671            0   0.54266434    1.2531803    1.8205034    4.5028917 
 2955000    0.9615229 7.9389845e-05   0.40484133  0.048364219            0   0.35647711    1.4242558    1.8290971    5.8938572 
 2960000    0.8985812 3.7375694e-05   0.52270181 0.0090988579            0   0.51360295    1.3310234    1.8537252    3.7673607 
 2965000   0.96834766 -1.4061236e-05   0.44908232 0.0068963264            0     0.442186     1.434365    1.8834473     1.163512 
 2970000     1.011564 -0.00011157694   0.43417531 0.0048162459            0   0.42935907    1.4983791    1.9325545    -3.780185 
 2975000   0.98274104 1.2475416e-05   0.46537319  0.020273205            0   0.44509998    1.4556852    1.9210583    2.5597996 
 2980000   0.94836638 9.776153e-05   0.50826916  0.020575393            0   0.48769377    1.4047677    1.9130369    6.9184272 
 2985000   0.96587872 7.0429851e-06   0.46097148  0.025751977            0   0.43521951    1.4307079    1.8916793    2.2522802 
 2990000   0.99780582 -1.7460309e-05   0.42322345   0.04733019            0   0.37589326    1.4779999    1.9012233    1.0072555 
 2995000   0.99737499 -2.5529495e-07   0.41272315  0.012990196            0   0.39973296    1.4773617    1.8900849    1.8770138 
 3000000    1.0068352 4.8521157e-05    0.3854407  0.014056317            0   0.37138439    1.4913747    1.8768154    4.3610987 
 3005000   0.93666013 -5.3651591e-05   0.44041665  0.016556878            0   0.42385977    1.3874278    1.8278445  -0.91911701 
 3010000   0.94791678 -2.1034271e-05   0.41262922 0.0093744584            0   0.40325476    1.4041017     1.816731    0.7397763 
 3015000   0.93112263 3.3553472e-06   0.45477162 0.0023487385            0   0.45242288    1.3792254     1.833997    2.0057908 
 3020000   0.91991407 -5.8803778e-05   0.44028754 0.00011150553            0   0.44017603    1.3626227    1.8029103   -1.2078432 
 3025000   0.95811942 -4.6220641e-05   0.40704741 0.00012758853            0   0.40691982    1.4192144    1.8262618    -0.540235 
 3030000   0.94966718 7.0000452e-05   0.40946906 0.0058641493            0   0.40360491    1.4066945    1.8161636    5.4001867 
 3035000   0.92044916 3.1287133e-06   0.46322352  0.018505349            0   0.44471817    1.3634153    1.8266388     1.986829 
 3040000   0.99031042 -2.8594957e-06    0.3800988 0.0098143661            0   0.37028443    1.4668973    1.8469961    1.7005899 
 3045000    0.9946011 1.9556436e-05   0.38947424 0.0035251928            0   0.38594905    1.4732529    1.8627271    2.8640166 
 3050000   0.94717418 -8.4318517e-05   0.45057475 0.0072477318            0   0.44332702    1.4030017    1.8535765   -2.4635315 
 3055000   0.95845534 2.1630049e-06   0.40642755 0.0031665405            0   0.40326101     1.419712    1.8261395    1.9368854 
 3060000   0.95329893 1.9336534e-05   0.38611672 0.0083505302            0   0.37776619     1.412074    1.7981908    2.7882213 
 3065000    0.9496786 4.9654239e-05   0.39672108  0.020029112            0   0.37669197    1.4067114    1.8034325    4.3457295 
 3070000   0.94321958 -0.00013254235   0.44813252  0.023090408            0   0.42504211     1.397144    1.8452765   -4.9408916 
 3075000   0.91416878 -5.9797366e-05   0.49676793 0.0072591782            0   0.48950875    1.3541125    1.8508804   -1.2107447 
 3080000   0.98528999 0.00012298297   0.39474539  0.034285951            0   0.36045944    1.4594608    1.8542062    8.1509343 
 3085000   0.96739608 -9.9230308e-06   0.40642646  0.024955781            0   0.38147068    1.4329554    1.8393819    1.3313227 
 3090000   0.96214561 7.1742293e-05   0.41530967  0.018937619            0   0.39637205    1.4251782    1.8404879    5.5136933 
 3095000   0.91286582 0.00012697804    0.4640781  0.015538288            0   0.44853981    1.3521825    1.8162606    8.3175364 
 3100000   0.90371428 -4.3851772e-05   0.48114762  0.031626114            0    0.4495215    1.3386268    1.8197744  -0.42543633 
 3105000   0.97436475 2.7874843e-05    0.3590649 0.0031570573            0   0.35590784    1.4432778    1.8023427    3.2295347 
 3110000   0.99155228 8.2576651e-05   0.32758801  0.014671375            0   0.31291663    1.4687368    1.7963248    6.0242493 
 3115000   0.84560166 -0.00013527325   0.53299995  0.046160316            0   0.48683964    1.2525475    1.7855474    -5.140443 
 3120000   0.87475547 -3.5594099e-05   0.48770186  0.019540452            0   0.46816141    1.2957315    1.7834334 -0.038984479 
 3125000    1.0192145 -8.270106e-05   0.34257012  0.010501977            0   0.33206815    1.5097115    1.8522816   -2.3820127 
 3130000    0.9427255 -0.00018163379   0.45887118  0.036562713            0   0.42230847    1.3964122    1.8552833   -7.4443668 
 3135000   0.90823771 4.6368165e-05   0.49443058   0.01378914            0   0.48064144    1.3453271    1.8397577    4.2138078 
 3140000   0.96221975 8.9048188e-05   0.42647775 0.0042726192            0   0.42220514     1.425288    1.8517658     6.411033 
 3145000   0.95586317 -9.0620379e-05   0.41080341  0.001532335            0   0.40927107    1.4158723    1.8266757   -2.8130877 
 3150000   0.92939895 -8.6262139e-05   0.47892119  0.004889725            0   0.47403146    1.3766722    1.8555934   -2.5610281 
 3155000   0.97382034 6.8163823e-05   0.42517588  0.010360255            0   0.41481562    1.4424714    1.8676473     5.357635 
 3160000   0.87699283 7.6712756e-05   0.52409539  0.010086071            0   0.51400932    1.2990456     1.823141    5.7508341 
 3165000   0.88973089 4.3599642e-05   0.53579878 0.0018537091            0   0.53394508    1.3179139    1.8537127    4.0860143 
 3170000   0.96079142 9.8298094e-05   0.42658688 0.00013011519            0   0.42645677    1.4231723    1.8497592    6.8826216 
 3175000   0.96836655 -3.8018939e-05   0.42149967 0.0010949695            0    0.4204047    1.4343929    1.8558926 -0.090677081 
 3180000   0.93842618 -0.0001344221   0.48177056  0.010243213            0   0.47152734    1.3900438    1.8718143   -5.0105974 
 3185000   0.94984457 -6.3696497e-05   0.48592676  0.015987579            0   0.46993918    1.4069573     1.892884   -1.3683766 
 3190000   0.94625702 -3.3015679e-05   0.49401962  0.037844182            0   0.45617544    1.4016432    1.8956628   0.20526006 
 3195000   0.90668557 3.9377696e-06   0.55176909  0.026765059            0   0.52500403     1.343028    1.8947971    2.0964109 
 3200000   0.97584632 -6.1893629e-05   0.42689091  0.016973199            0   0.40991771    1.4454724    1.8723633   -1.2965906 
 3205000   0.99340864 -0.00016414968   0.41667637   0.04541364            0   0.37126273    1.4714865    1.8881629   -6.5163007 
 3210000   0.97002669 -1.7817185e-05   0.43057147  0.037683697            0   0.39288778     1.436852    1.8674235   0.95518363 
 3215000   0.94377876 6.5630158e-05   0.49646638  0.018519898            0   0.47794649    1.3979723    1.8944387    5.2547028 
 3220000   0.97404754 -2.4715098e-05   0.44299502 0.0079116051            0   0.43508341    1.4428079    1.8858029   0.62038994 
 3225000    0.9607413 3.7495357e-06   0.45954615 0.0021256991            0   0.45742045     1.423098    1.8826442    2.0746204 
 3230000   0.93256861 5.5258531e-05   0.49655707 0.00062731952            0   0.49592975    1.3813673    1.8779243    4.7071611 
 3235000   0.91409801 5.8462472e-05   0.52282967 0.00013501392            0   0.52269465    1.3540077    1.8768373    4.8701159 
 3240000   0.97802038 -1.5366087e-05   0.41438539 5.0494275e-05            0   0.41433489    1.4486927    1.8630781    1.0763344 
 3245000    0.9993219 2.9667529e-05   0.37000569 4.8725173e-05            0   0.36995696    1.4802456    1.8502513    3.3692287 
 3250000   0.95835994 0.00010604459   0.44158657 0.0012119985            0   0.44037457    1.4195707    1.8611572    7.2906402 
 3255000   0.91450065 -8.4319787e-05   0.50711496 0.0077129975            0   0.49940196    1.3546041     1.861719   -2.4554541 
 3260000   0.94526587 -7.2339633e-05   0.44051424 0.0085954948            0   0.43191875    1.4001751    1.8406893   -1.8630999 
 3265000   0.93203593 3.5607637e-05   0.45116821  0.011486483            0   0.43968173    1.3805782    1.8317464    3.6548574 
 3270000    0.9454239 -1.3171586e-05   0.42504886  0.036905228            0   0.38814363    1.4004092     1.825458    1.1510728 
 3275000   0.87585949 -6.2184433e-05   0.50425663  0.042717482            0   0.46153915    1.2973669    1.8016235   -1.3822195 
 3280000   0.92806999 1.7597683e-05   0.43842074  0.023207769            0   0.41521297    1.3747037    1.8131244    2.7141258 
 3285000   0.87080789 6.1445624e-05   0.51233058  0.015734092            0   0.49659649    1.2898842    1.8022148    4.9482307 
 3290000   0.89491151 -6.8374242e-05   0.46791858  0.010043797            0   0.45787479    1.3255877    1.7935063    -1.707255 
 3295000   0.89066677 -0.00014451621   0.48018803   0.00440286            0   0.47578517    1.3193002    1.7994882   -5.5997417 
 3300000   0.99558387 -3.0269871e-05   0.33128484 0.00093570901            0   0.33034914    1.4747086    1.8059935   0.25617605 
 3305000   0.95748748 4.6441032e-05   0.40447125 0.00047525779            0   0.40399599    1.4182783    1.8227496    4.2005304 
 3310000   0.97979749 4.422786e-05   0.35880448 0.0027612179            0   0.35604326     1.451325    1.8101295     4.074596 
 3315000   0.95275555 -2.7182826e-06   0.40126655 0.0090661325            0   0.39220041    1.4112692    1.8125357    1.6733596 
 3320000   0.89189579 -3.9377798e-05   0.47992858  0.019503983            0    0.4604246    1.3211206    1.8010492  -0.21509405 
 3325000    0.9386631 3.3183305e-05    0.3810259  0.017316812            0   0.36370908    1.3903947    1.7714206    3.4704058 
 3330000    0.9235315 2.6242493e-05   0.43262406 0.0073520884            0   0.42527197     1.367981    1.8006051    3.1442208 
 3335000   0.90404802 -1.0515833e-05   0.42542408 0.00033726061            0   0.42508682    1.3391211    1.7645452    1.2261345 
 3340000   0.91577472 4.1541116e-05   0.42815934 0.0041094898            0   0.42404985    1.3564913    1.7846506    3.9115558 
 3345000   0.90193073 -1.7493778e-05    0.4390608 0.0071276929            0   0.43193311    1.3359849    1.7750457   0.87936429 
 3350000   0.91076888 -0.00010858615   0.43372763 0.0039408144            0   0.42978682    1.3490764     1.782804    -3.776807 
 3355000   0.91652834 -3.6819577e-05   0.42197674  0.026204209            0   0.39577253    1.3576076    1.7795844    -0.105578 
 3360000   0.94741605 8.4233334e-05     0.388275   0.03960098            0   0.34867402      1.40336     1.791635    6.1043817 
 3365000   0.86982632 0.00013549286   0.48534785  0.015037598            0   0.47031025    1.2884302    1.7737781    8.7110127 
 3370000   0.93802437 4.0453853e-05   0.41862458  0.059915649            0   0.35870893    1.3894486    1.8080732    3.8793105 
 3375000   0.91823493 -4.9857216e-05   0.42583617 0.0099152106            0   0.41592096    1.3601355    1.7859717  -0.76671778 
 3380000   0.93386731 3.7276328e-05    0.3794619 0.0028463307            0   0.37661557     1.383291    1.7627528    3.6713008 
 3385000   0.90651519 4.2575871e-05   0.42711873 0.0022180489            0   0.42490068    1.3427756    1.7698944     3.949779 
 3390000   0.94825274 -3.9053167e-05   0.36978539 0.0046021866            0   0.36518321    1.4045994    1.7743848  -0.22513739 
 3395000   0.92256506 -0.00015555497   0.43194335  0.015727933            0   0.41621542    1.3665495    1.7984929   -6.1659216 
 3400000    0.9105587 -0.00012505145   0.46075474   0.02191261            0   0.43884213    1.3487651    1.8095198   -4.5931146 
 3405000   0.87535095 1.7018662e-05   0.50768619  0.058130145            0   0.44955604    1.2966136    1.8042998    2.6756553 
 3410000   0.95380319 0.00012749989   0.40395023  0.048736181            0   0.35521405     1.412821    1.8167712    8.3447654 
 3415000   0.92160922 2.6795497e-05   0.45001028  0.024454289            0   0.42555599    1.3651337    1.8151439    3.1870734 
 3420000   0.91227776 -0.00012480909   0.44397476   0.01555117            0   0.42842359    1.3513114    1.7952862   -4.5949392 
 3425000   0.89315024 -2.0061548e-05   0.46092412  0.025015416            0   0.43590871    1.3229788    1.7839029   0.75675168 
 3430000   0.88535453 7.652554e-06   0.44461018  0.025276671            0   0.41933351    1.3114314    1.7560416    2.1478523 
 3435000   0.91915013 -5.8850796e-05   0.38663857  0.023414796            0   0.36322377    1.3614911    1.7481297    -1.265031 
 3440000   0.85470493 4.083209e-05   0.47649457 0.0052144995            0   0.47128007    1.2660317    1.7425262    3.8331293 
 3445000   0.93493272 5.1405507e-05   0.35503918 0.0027188526            0   0.35232033    1.3848691    1.7399083    4.3718702 
 3450000   0.88839462 -8.4171662e-05   0.43330706  0.027064894            0   0.40624216    1.3159345    1.7492416   -2.5603475 
 3455000   0.90986861 1.903714e-05   0.39159031 0.0097326933            0   0.38185762    1.3477429    1.7393332    2.7140347 
 3460000   0.92888594 4.8124839e-05   0.38280392  0.020920242            0   0.36188367    1.3759123    1.7587162     4.222708 
 3465000    0.9146606 -3.9177117e-05   0.41558912  0.047093136            0   0.36849598     1.354841    1.7704301  -0.23543827 
 3470000   0.83496827 4.4871103e-05   0.53301903  0.071991037            0   0.46102799    1.2367967    1.7698158    4.0672163 
 3475000   0.83272445 -3.9889397e-05    0.5435014  0.092835854            0   0.45066554    1.2334731    1.7769745  -0.26536265 
 3480000   0.90186276 -0.0001152214   0.46713643  0.025347137            0   0.44178929    1.3358842    1.8030206    -4.096315 
 3485000   0.98785801 -1.8268405e-05   0.36229178 0.0088274876            0   0.35346429    1.4632647    1.8255565   0.89021412 
 3490000    0.9382461 3.3914565e-05   0.48046291  0.009506402            0   0.47095651     1.389777      1.87024    3.6066657 
 3495000   0.92437829 4.5946338e-05   0.49629501  0.011895082            0   0.48439993    1.3692353    1.8655304    4.2179829 
 3500000   0.95077362 2.0091459e-05   0.47769639 0.0042014132            0   0.47349498    1.4083334    1.8860298    2.9147125 
 3505000    1.0310179 6.7448954e-05    0.3619965 0.0042084012            0    0.3577881    1.5271952    1.8891917    5.3425782 
 3510000   0.97707858 0.00015199764   0.41661811  0.022088467            0   0.39452964    1.4472976    1.8639157    9.6461947 
 3515000   0.94585549 0.00011320141   0.45634423  0.022776452            0   0.43356777    1.4010484    1.8573927    7.6533048 
 3520000   0.97628836 5.2931987e-05   0.41942529  0.036444733            0   0.38298056    1.4461271    1.8655524    4.5756702 
 3525000   0.92724108 -2.0846562e-05   0.51703531  0.061430746            0   0.45560456    1.3734759    1.8905112   0.82316717 
 3530000   0.95838032 -4.3046173e-05   0.44548246   0.10318423            0   0.34229822    1.4196009    1.8650833  -0.33888076 
 3535000   0.87820028 6.949595e-05   0.54745543  0.058667077            0   0.48878835    1.3008342    1.8482896    5.4064822 
 3540000   0.98458011 1.6123052e-05   0.39546824  0.021624506            0   0.37384373    1.4584093    1.8538775    2.6793778 
 3545000    1.0415942 -7.2244443e-05   0.34454395  0.013043751            0    0.3315002    1.5428614    1.8874054   -1.8115101 
 3550000   0.91816728 -0.00010085994   0.50869174 0.0080918453            0   0.50059989    1.3600353     1.868727   -3.2953018 
 3555000   0.90686888 -0.00010596461   0.50040106 0.0098676524            0   0.49053341    1.3432995    1.8437006   -3.5816873 
 3560000     0.955142 -6.0846108e-05    0.4446901 0.0087055612            0   0.43598454    1.4148041    1.8594942   -1.2558265 
 3565000   0.91906109 -0.00012384097   0.47744376 0.0094370774            0   0.46800668    1.3613592     1.838803   -4.5018547 
 3570000   0.99841852 -1.3233288e-05   0.35228234  0.018084486            0   0.33419785    1.4789074    1.8311898    1.1536454 
 3575000   0.87070556 6.1693826e-05   0.54590776  0.025307546            0   0.52060022    1.2897326    1.8356404    4.9943643 
 3580000   0.91498227 8.5327998e-05   0.51575358  0.023984323            0   0.49176926    1.3553175    1.8710711    6.2398646 
 3585000   0.97444254 7.9798823e-05   0.42064861   0.01623451            0    0.4044141     1.443393    1.8640416    5.9497414 
 3590000   0.92115111 -0.00010664394   0.52655537 0.0037588632            0   0.52279651    1.3644551    1.8910105   -3.5691593 
 3595000    1.0404543 -9.6985408e-05   0.36814192 0.0060669885            0   0.36207493     1.541173    1.9093149    -3.056338 
 3600000   0.93259324 8.6723673e-07   0.53224936 0.0080688715            0   0.52418048    1.3814037    1.9136531    1.9580556 
 3605000    1.0197557 -7.0148787e-06   0.39215415  0.011567049            0    0.3805871    1.5105131    1.9026673    1.5435055 
 3610000   0.88850633 9.7231882e-05   0.57828081  0.027959648            0   0.55032117       1.3161    1.8943808    6.8726532 
 3615000   0.95572252 0.00012411573   0.49302848  0.047956275            0   0.44507221     1.415664    1.9086925    8.2634181 
 3620000   0.95268672 6.3760805e-05   0.47010576  0.016256997            0   0.45384876    1.4111672     1.881273    5.1458262 
 3625000   0.93666642 -2.0046487e-05   0.49351976  0.025573473            0   0.46794629    1.3874371    1.8809569   0.85457678 
 3630000   0.88075337 -2.568107e-05   0.60433817  0.025111172            0     0.579227    1.3046159    1.9089541   0.59408329 
 3635000     1.003629  7.36938e-05   0.43311202  0.015864694            0   0.41724733    1.4866255    1.9197375    5.6928601 
 3640000   0.96759756 -4.4650925e-05   0.49908934  0.026684251            0   0.47240509    1.4332539    1.9323432  -0.35378413 
 3645000   0.95104657 -6.1166095e-05   0.51274796  0.022366596            0   0.49038137    1.4087377    1.9214857   -1.2102184 
 3650000   0.99425679 -1.1436015e-05   0.45748185  0.018523214            0   0.43895863    1.4727429    1.9302247    1.3447007 
 3655000   0.89971326 -1.5110375e-05   0.56247952  0.011466733            0   0.55101279    1.3327003    1.8951798    1.1215286 
 3660000    1.0051197 -0.00012605314    0.4185823 0.0077919653            0   0.41079034    1.4888336    1.9074159   -4.5465047 
 3665000   0.97512607 -0.00012469152   0.46700273  0.011795477            0   0.45520725    1.4444055    1.9114082   -4.4727974 
 3670000   0.94786509 9.1769707e-05    0.5097626  0.021623176            0   0.48813942    1.4040252    1.9137878    6.6123968 
 3675000   0.89747505 8.2607365e-05   0.58726322  0.056355708            0   0.53090751    1.3293849    1.9166481    6.1461452 
 3680000   0.96501179 1.7212222e-05   0.49857835   0.02508045            0    0.4734979    1.4294237    1.9280021    2.8092679 
 3685000     1.025284 0.00011700261   0.41004043 0.00046805646            0   0.40957237     1.518702    1.9287424     7.919276 
 3690000   0.89625151 -5.8185064e-05    0.5545354  0.024669718            0   0.52986568    1.3275725    1.8821079   -1.0969673 
 3695000   0.91888119 3.8932912e-05   0.53280403  0.037474547            0   0.49532948    1.3610928    1.8938968    3.8872619 
 3700000   0.98698195 7.5514046e-05   0.41141843  0.048702742            0   0.36271568     1.461967    1.8733854    5.7397046 
 3705000   0.85912552 -0.00013738981   0.60719376  0.035306531            0   0.57188723    1.2725797    1.8797734   -5.1545848 
 3710000   0.95048634 8.5922609e-05   0.44687503  0.017624172            0   0.42925085    1.4079079    1.8547829    6.2540205 
 3715000    0.9457782 6.0512133e-06   0.47562041  0.012726332            0   0.46289408     1.400934    1.8765544    2.1863765 
 3720000   0.87077087 -2.8660107e-05   0.60092226  0.011523719            0   0.58939854    1.2898294    1.8907516   0.42335411 
 3725000   0.88482466 -4.4899079e-05   0.59030474  0.002752622            0   0.58755212    1.3106465    1.9009513  -0.39788158 
 3730000   0.93553155 -9.4610303e-05   0.49147016 0.0021863707            0   0.48928379    1.3857561    1.8772263   -2.9668213 
 3735000    1.0286051 -0.00012014067   0.36455024   0.00513793            0   0.35941231    1.5236214    1.8881716   -4.2630305 
 3740000   0.94617924 -1.2266495e-05   0.46006504 0.0063842571            0   0.45368079     1.401528     1.861593    1.2335485 
 3745000   0.87347723 -6.1543632e-05   0.56631387  0.011911725            0   0.55440215    1.2938382     1.860152   -1.2908819 
 3750000   0.88177785 0.00011001618   0.54975599 0.0089441456            0   0.54081184    1.3061334    1.8558894     7.488718 
 3755000   0.92058799 5.8819557e-06   0.46238991 0.0040306994            0   0.45835921     1.363621    1.8260109     2.127167 
 3760000   0.92897559 -4.591671e-06   0.49218121 0.0054752335            0   0.48670598    1.3760451    1.8682263    1.6331328 
 3765000   0.95763098 -6.363172e-05   0.46888322  0.020496061            0   0.44838716    1.4184909    1.8873741     -1.37057 
 3770000   0.96509462 0.00010854269   0.46732657  0.054459972            0    0.4128666    1.4295464     1.896873    7.4542588 
 3775000   0.92761268 9.4386308e-05   0.55801707   0.05410963            0   0.50390744    1.3740263    1.9320434    6.7646223 
 3780000   0.93643059 5.6742631e-05   0.55065456  0.015903089            0   0.53475147    1.3870878    1.9377424    4.8429651 
 3785000    1.0067457 2.550623e-05   0.42445274 0.0022823643            0   0.42217038     1.491242    1.9156948    3.2216138 
 3790000   0.91175196 -9.1428577e-05   0.55651752 0.00031976569            0   0.55619776    1.3505326    1.9070501    -2.774093 
 3795000    1.0241032 -8.1450043e-05    0.3853585  0.010807246            0   0.37455125    1.5169528    1.9023113   -2.2679309 
 3800000   0.97132018 -3.105736e-05   0.46242294  0.060030857            0   0.40239208     1.438768     1.901191   0.31105414 
 3805000   0.92553696   5.6338e-05   0.53326756  0.078657898            0   0.45460966    1.3709516    1.9042192    4.7887248 
 3810000   0.92625099 -1.356443e-05   0.52403602  0.039438584            0   0.48459744    1.3720093    1.8960453    1.2015465 
 3815000   0.88756413 4.5149104e-05   0.58475235  0.032562457            0    0.5521899    1.3147044    1.8994567    4.2110908 
 3820000    1.0276587 6.4885666e-05   0.35497949  0.037650357            0   0.31732913    1.5222194    1.8771989     5.199345 
 3825000   0.94726964 3.961952e-05   0.46077633  0.019656953            0   0.44111937    1.4031432    1.8639195    3.8924389 
 3830000   0.92978173 -9.8945058e-05   0.50794379 0.0021648267            0   0.50577896    1.3772392     1.885183    -3.180804 
 3835000   0.99746853 -0.00011182875   0.40740551 0.0033189807            0   0.40408653    1.4775003    1.8849058   -3.8407263 
 3840000   0.97719515 -4.9802174e-05   0.43868927 0.0030622952            0   0.43562697    1.4474703    1.8861596  -0.66371173 
 3845000   0.93598599 5.0778054e-05   0.49639352 0.0032336201            0    0.4931599    1.3864293    1.8828228    4.4826591 
 3850000   0.95587281 0.00011592892   0.48331347 0.0056611045            0   0.47765236    1.4158866    1.8992001    7.8347607 
 3855000   0.93175674 5.3856414e-06   0.52115418  0.010387239            0   0.51076694    1.3801647    1.9013188    2.1770637 
 3860000   0.98897432 -6.3648217e-05   0.46733155  0.033248893            0   0.43408266    1.4649182    1.9322498   -1.3265389 
 3865000    1.0225545 2.1610075e-05   0.42746026  0.020592405            0   0.40686786    1.5146589    1.9421191     3.048555 
 3870000    1.0008932 0.00019044371   0.46238044  0.025605842            0    0.4367746    1.4825731    1.9449535    11.695671 
 3875000    0.9189086 3.8878194e-05    0.5889567  0.027428835            0   0.56152786    1.3611334    1.9500901    3.9406536 
 3880000   0.95962202 -8.4038928e-06   0.53376477   0.03933192            0   0.49443285    1.4214401    1.9552049    1.5249256 
 3885000   0.95248046 -0.00011092257   0.53984916  0.036741118            0   0.50310804    1.4108617    1.9507108   -3.7285247 
 3890000    0.9601422 -9.1097653e-05   0.53164376  0.021529927            0   0.51011383    1.4222106    1.9538544   -2.7103454 
 3895000    1.0036144 -8.4437317e-05   0.49187443 0.0051267063            0   0.48674773    1.4866038    1.9784782   -2.3447124 
 3900000    1.0124007 7.1708457e-05   0.45476884  0.020269984            0   0.43449885    1.4996185    1.9543874    5.6258604 
 3905000   0.99747935 7.3619856e-05   0.44779889  0.044125797            0   0.40367309    1.4775163    1.9253152    5.6946518 
 3910000   0.92395948 -7.3841029e-06   0.54630651  0.016079112            0    0.5302274     1.368615    1.9149215    1.5368554 
 3915000   0.98387825 -6.0068616e-05   0.46957354  0.048771544            0   0.42080199    1.4573697    1.9269432     -1.14857 
 3920000   0.93221974 -8.164593e-05   0.55069182  0.039958501            0   0.51073332    1.3808505    1.9315423   -2.2487293 
 3925000   0.96256658 5.6178332e-05    0.5252178  0.023347917            0   0.50186988    1.4258017    1.9510195    4.8273501 
 3930000   0.99231262 4.7626232e-05   0.46619621  0.013298442            0   0.45289777    1.4698631    1.9360593    4.3745223 
 3935000   0.97063234 -1.9835331e-05   0.52478491  0.027784854            0   0.49700005    1.4377492    1.9625341   0.94696512 
 3940000   0.98104342 4.8835623e-05   0.52316139  0.025750933            0   0.49741046    1.4531706     1.976332    4.4767159 
 3945000   0.92251611 5.0369674e-05   0.59446893  0.025436977            0   0.56903196     1.366477    1.9609459    4.5398732 
 3950000   0.99146166 -1.8498572e-05   0.49378165  0.044380529            0   0.44940112    1.4686026    1.9623842    1.0152574 
 3955000    1.0340314 8.7029327e-05   0.41581161 0.0014929351            0   0.41431867     1.531659    1.9474706    6.4033721 
 3960000   0.95597932 5.855772e-05   0.54788763 0.0029997199            0   0.54488791    1.4160444     1.963932    4.9620873 
 3965000    0.9918297 0.0001197106   0.49062633 0.0092069837            0   0.48141934    1.4691477    1.9597741    8.0889566 
 3970000    1.0372462 0.00015261528   0.41322424  0.011028497            0   0.40219574    1.5364209    1.9496451    9.7635473 
 3975000   0.92690966 3.4769701e-06   0.57433425  0.011461044            0   0.56287321    1.3729849    1.9473192    2.1253401 
 3980000   0.98035556 -9.0748746e-05   0.45004401 0.0080248851            0   0.44201912    1.4521517    1.9021957   -2.7441401 
 3985000   0.93547981 -0.00011885222   0.49386109   0.03796645            0   0.45589464    1.3856795    1.8795406   -4.2056934 
 3990000   0.88214264 -3.7153899e-05   0.56075186  0.055801157            0    0.5049507    1.3066738    1.8674256 -0.034853975 
 3995000   0.91544805 0.00010793738    0.5058032  0.062409766            0   0.44339343    1.3560074    1.8618106    7.3882046 
 4000000   0.90947463 7.8915578e-05   0.49049715  0.051035822            0   0.43946133    1.3471593    1.8376564     5.878134 
 4005000   0.87027178 -1.482872e-05   0.56275198  0.018668534            0   0.54408345    1.2890901    1.8518421    1.0926116 
 4010000   0.93916693 -7.6993603e-05   0.46630759  0.003247529            0   0.46306006     1.391141    1.8574486   -2.0846239 
 4015000   0.93581153 -9.115468e-05   0.48782472 0.0022100138            0   0.48561471    1.3861708    1.8739956   -2.7931241 
 4020000   0.97227512 -9.2461324e-07   0.44550359 0.0091033418            0   0.43640025    1.4401825    1.8856861    1.8383459 
 4025000   0.89159209 0.00013521238   0.61144754  0.028490836            0    0.5829567    1.3206708    1.9321183     8.854992 
 4030000   0.88494149 8.8304691e-05   0.62268237  0.037472821            0   0.58520955    1.3108196     1.933502    6.4547021 
 4035000    1.0105395 -1.5536814e-05   0.42178694 0.0051170595            0   0.41666988    1.4968616    1.9186486    1.1231637 
 4040000   0.94573427 1.3807242e-05   0.52329218 0.0038364409            0   0.51945574    1.4008689    1.9241611    2.6310918 
 4045000   0.96352948 -6.466089e-05   0.50599123 0.0017486733            0   0.50424256     1.427228    1.9332193   -1.3774183 
 4050000   0.97043523 6.9832867e-05    0.5022399 0.0037501617            0   0.49848974    1.4374572    1.9396971    5.5151399 
 4055000   0.94621002 0.00017184844   0.54074199 0.0075796488            0   0.53316235    1.4015736    1.9423156    10.740956 
 4060000    1.0359539 6.3224761e-05   0.43479792  0.010949728            0   0.42384819    1.5345067    1.9693046    5.2064123 
 4065000    0.9397299 1.2407844e-05   0.59400094  0.006267404            0   0.58773354    1.3919749    1.9859759    2.6212575 
 4070000    0.9746924 -6.2493284e-05   0.53683629  0.001555545            0   0.53528074    1.4437631    1.9805994   -1.2190567 
 4075000   0.99065167 1.603136e-05   0.50910123 0.0031977569            0   0.50590347    1.4674028     1.976504    2.7973097 
 4080000   0.93025879 9.9193158e-05   0.59830642  0.012177934            0   0.58612848    1.3779458    1.9762522    7.0549419 
 4085000   0.95997349 -0.00010986676   0.57064578 0.0066003135            0   0.56404547    1.4219607    1.9926065   -3.6325717 
 4090000   0.95449523 -0.00010845823   0.57329065    0.0066545            0   0.56663615    1.4138461    1.9871367   -3.5659247 
 4095000   0.94283321 7.0671292e-05   0.59794305  0.014689636            0   0.58325341    1.3965717    1.9945147    5.6128849 
 4100000    1.0256709 0.00010948045   0.45251412  0.027062845            0   0.42545128     1.519275    1.9717892    7.5771881 
 4105000   0.99335487 -8.335338e-06    0.5005131  0.049970134            0   0.45054297    1.4714069      1.97192    1.5451507 
 4110000     1.016971 -4.872277e-05   0.49343457  0.021057043            0   0.47237753    1.5063883    1.9998229  -0.49478291 
 4115000   0.94577645 -5.0935346e-05   0.61487214  0.033324788            0   0.58154735    1.4009314    2.0158035  -0.59208618 
 4120000    1.0433991 -3.0316525e-05   0.47828875  0.081952025            0   0.39633672    1.5455349    2.0238236   0.47161753 
 4125000   0.94617748 -2.0229348e-05   0.62764013  0.061884172            0   0.56575596    1.4015254    2.0291655   0.99342289 
 4130000    1.0472154 4.3536266e-05   0.49681131 0.0072829394            0   0.48952837    1.5511879    2.0479992     4.277056 
 4135000    0.9721338 0.00013594413   0.60737036  0.049944183            0   0.55742618    1.4399732    2.0473436     9.007683 
 4140000   0.96448785 -3.2358569e-06   0.59095527  0.026958584            0   0.56399668    1.4286476    2.0196029     1.853927 
 4145000    1.0225953 2.0757961e-05    0.5277442 0.0015352292            0   0.52620897    1.5147193    2.0424635    3.1052711 
 4150000    1.0492369 -2.4003083e-05   0.52612824  0.015965349            0   0.51016289    1.5541821    2.0803104   0.85135255 
 4155000    1.0620004 0.00010796013   0.48658278  0.037624901            0   0.44895788    1.5730881    2.0596708    7.5872296 
 4160000    1.0245374 9.4670445e-05     0.507682 0.0089494379            0   0.49873256    1.5175961    2.0252781    6.8724048 
 4165000   0.98083769 -0.00012696482   0.57666876  0.018085183            0   0.55858357    1.4528658    2.0295346   -4.4710641 
 4170000    1.0150684 2.6706688e-06   0.53574687  0.064352902            0   0.47139396    1.5035701     2.039317    2.1760552 
 4175000    1.0988413 3.343018e-05    0.4221034 0.0033121662            0   0.41879123    1.6276586     2.049762    3.7613872 
 4180000    1.0484446 -5.3341518e-05   0.47170284  0.015844485            0   0.45585835    1.5530086    2.0247114   -0.7063743 
 4185000   0.98721261 -5.8302071e-05   0.56419898  0.029247674            0    0.5349513    1.4623087    2.0265077  -0.95855838 
 4190000   0.97801896 -5.0060298e-05   0.56552003  0.059573004            0   0.50594703    1.4486906    2.0142106  -0.54887663 
 4195000    1.0474907 2.9733215e-05   0.48187053 0.0043469854            0   0.47752354    1.5515957    2.0334662    3.5558068 
 4200000     1.056202 9.1106521e-05   0.50643756 0.0072850833            0   0.49915248    1.5644992    2.0709368    6.7355906 
 4205000    1.0553137 6.9353083e-05   0.52194795 0.0093577416            0   0.51259021    1.5631834    2.0851314    5.6360092 
 4210000    1.1452874 9.6655327e-06    0.4073957 0.0015636897            0   0.40583201     1.696457    2.1038527     2.598728 
 4215000    1.0313076 0.0001276994    0.5614396  0.026140978            0   0.53529863    1.5276243    2.0890639    8.6272733 
 4220000    1.0477462 1.1160319e-05   0.53665652   0.02813647            0   0.50852005     1.551974    2.0886306    2.6600389 
 4225000    1.0440543 0.00010779542   0.54956563  0.017899781            0   0.53166585    1.5465054     2.096071    7.6151966 
 4230000    1.1021168 0.00011712537   0.47718551  0.030708734            0   0.44647677    1.6325105     2.109696    8.1065149 
 4235000    1.0798421 -7.7228703e-05    0.5326141 0.0043398963            0    0.5282742    1.5995162    2.1321303   -1.8219793 
 4240000    1.0884113 -1.1418628e-05   0.55172012 0.00052159319            0   0.55119852    1.6122092    2.1639293    1.5792956 
 4245000    1.1726221 6.0756845e-05   0.43832437   0.01210979            0   0.42621458    1.7369465    2.1752709    5.2860214 
 4250000    1.0919417 5.8325953e-05   0.52173156  0.050067918            0   0.47166365    1.6174387    2.1391702    5.1254591 
 4255000    1.0188129 5.1708737e-06   0.62435809  0.047758522            0   0.57659957    1.5091166    2.1334747    2.3982235 
 4260000    1.1630331 -2.3784289e-05    0.4020905 0.0063738005            0    0.3957167    1.7227428    2.1248333    0.9070777 
 4265000     1.127896 3.5017811e-05   0.46575835  0.011639299            0   0.45411905     1.670696    2.1364544    3.9293663 
 4270000   0.92377891 1.1434764e-05   0.73714006  0.038900792            0   0.69823927    1.3683475    2.1054876    2.6909475 
 4275000    1.1108081 -8.6237801e-06    0.4586915 0.0080379686            0   0.45065353    1.6453845     2.104076    1.6625384 
 4280000    1.0041419 -2.7112967e-06   0.62124921  0.012014127            0   0.60923508    1.4873852    2.1086344     1.969816 
 4285000     1.093177 4.6493277e-05   0.48339872  0.043040835            0   0.44035788    1.6192685    2.1026672     4.483123 
 4290000    1.0935812 2.175687e-05   0.48716059  0.018169705            0   0.46899088    1.6198672    2.1070278    3.2209796 
 4295000    1.0816139 6.6160087e-06    0.4839674  0.017685325            0   0.46628208    1.6021405    2.0861079    2.4248476 
 4300000   0.98508759 -2.1420467e-05   0.61213092  0.028634783            0   0.58349614     1.459161    2.0712919   0.97456397 
 4305000    1.0870521 -2.4130581e-05   0.45029558  0.012494625            0   0.43780096    1.6101959    2.0604915   0.82500569 
 4310000    1.0308839 6.5469037e-05   0.54537064  0.021521744            0   0.52384889    1.5269968    2.0723674    5.4243821 
 4315000    1.0653072 -5.3554808e-05   0.50506307  0.015662017            0   0.48940105    1.5779863    2.0830493  -0.65895687 
 4320000    1.0272037 3.9081969e-06   0.55720139 0.0064028083            0   0.55079858    1.5215454    2.0787468    2.2788465 
 4325000    1.0374341 5.9553081e-05   0.52566809 0.0032521681            0   0.52241592    1.5366993    2.0623673    5.1114851 
 4330000    1.0970869 0.00010364542    0.4213728 0.0038491026            0    0.4175237    1.6250599    2.0464327    7.3530781 
 4335000    1.0597395 7.0771786e-06   0.45045345  0.012057709            0   0.43839574    1.5697392    2.0201926    2.3825441 
 4340000   0.95689902 4.2892056e-06   0.58011384  0.030558853            0   0.54955498    1.4174067    1.9975205    2.2171278 
 4345000    1.0557244 1.8355726e-05   0.42513734  0.036422909            0   0.38871443    1.5637918    1.9889292    2.9287423 
 4350000    1.0128906 7.0153931e-05   0.48838713  0.036318387            0   0.45206874    1.5003442    1.9887313    5.5806126 
 4355000    1.0174393 0.00010695526   0.49737407  0.062365735            0   0.43500834    1.5070819     2.004456    7.4805651 
 4360000    1.0187662 -3.1028356e-05   0.51055774  0.021758736            0     0.488799    1.5090474    2.0196051    0.4309533 
 4365000    1.0081704 -4.8226226e-05   0.53783733 0.0099693745            0   0.52786795    1.4933524    2.0311897  -0.43799308 
 4370000    1.0905867 -5.851944e-05   0.47245224 0.0094934423            0   0.46295879    1.6154316    2.0878838  -0.90831149 
 4375000     1.042955 1.7372444e-05   0.55232219  0.040172015            0   0.51215018    1.5448771    2.0971993    2.9866685 
 4380000    1.0618059 -1.8135413e-05   0.53796898  0.010443373            0   0.52752561       1.5728     2.110769    1.1822358 
 4385000    1.1104382 3.1105771e-05   0.50387813 0.0017319762            0   0.50214615    1.6448366    2.1487147    3.7413302 
 4390000    1.1728467 -2.1205637e-05   0.44131853 0.0018220512            0   0.43949648    1.7372792    2.1785978    1.0928691 
 4395000    1.0907041 -2.9675898e-05   0.57523309 0.0014879429            0   0.57374515    1.6156055    2.1908385   0.67143257 
 4400000    1.0965639 -0.00010172105   0.54967037 0.0025972718            0    0.5470731    1.6242853    2.1739557   -3.0341623 
 4405000    1.1260097 -7.8881042e-05   0.52181323  0.018606329            0   0.50320691    1.6679019    2.1897151   -1.8489943 
 4410000    1.1556837 0.00013881756   0.50597079  0.015368008            0   0.49060278    1.7118565    2.2178273    9.3252865 
 4415000    1.1839418 0.00012497897   0.49706133 0.0050422838            0   0.49201904    1.7537137    2.2507751    8.6496983 
 4420000     1.122358 -4.8467004e-05   0.59599358  0.029511703            0   0.56648187    1.6624929    2.2584864  -0.22302415 
 4425000    1.1145267 -6.2625522e-05   0.61256018  0.053438691            0   0.55912149    1.6508927    2.2634529  -0.94297385 
 4430000    1.1611836 1.2043952e-05   0.54767384 0.0083697829            0   0.53930406    1.7200032    2.2676771    2.8843274 
 4435000    1.1107032 4.5168024e-05   0.61656033  0.046640251            0   0.56992008    1.6452291    2.2617894    4.5743923 
 4440000    1.1844565 7.1869361e-05   0.50740518   0.10087894            0   0.40652624    1.7544762    2.2618814    5.9415927 
 4445000    1.1507274 -1.1430193e-05   0.54100486  0.037707584            0   0.50329727     1.704515    2.2455198     1.660294 
 4450000    1.1126168 -0.0001130548   0.59100446  0.040482857            0    0.5505216    1.6480637    2.2390682   -3.5493376 
 4455000    1.0591261 -7.8241387e-05   0.64613575  0.019278545            0   0.62685721    1.5688305    2.2149663   -1.7909928 
 4460000     1.085483 -2.6026034e-05   0.62527917  0.041739465            0   0.58353971    1.6078717    2.2331509   0.90061796 
 4465000     1.147517 6.7500228e-07   0.53466784  0.018282727            0   0.51638512    1.6997595    2.2344274    2.2689875 
 4470000    1.1803566 0.0001091496   0.50494049   0.01886984            0   0.48607065    1.7484031    2.2533436    7.8418032 
 4475000       1.1485 -1.0826699e-05    0.5420108  0.005448055            0   0.53656274    1.7012157    2.2432265    1.6888995 
 4480000    1.0437645 -7.9427592e-05   0.69002027  0.023895602            0   0.66612466    1.5460762    2.2360965   -1.8305963 
 4485000    1.0727508 3.7964691e-05   0.66124204  0.063759247            0    0.5974828    1.5890122    2.2502542    4.1940464 
 4490000    1.1256015 -3.4008893e-05   0.60399297  0.027609409            0   0.57638356    1.6672972    2.2712902   0.53003489 
 4495000    1.1686433 -8.8216218e-05   0.53295167  0.023229692            0   0.50972198     1.731053    2.2640046   -2.2526657 
 4500000    1.1348553 -8.8105107e-05    0.5812311  0.023978862            0   0.55725224    1.6810044    2.2622355    -2.248746 
 4505000    1.1369291 -0.00012615817   0.57830579  0.018088323            0   0.56021747    1.6840762     2.262382   -4.1969164 
 4510000    1.2157608 -9.5192302e-05   0.45313752 0.0034722585            0   0.44966526    1.8008457    2.2539832   -2.6198626 
 4515000    1.1044831 -3.9348727e-05   0.59277834  0.002965406            0   0.58981293    1.6360156    2.2287939   0.21413907 
 4520000    1.1353828 -2.3933339e-05   0.56511445  0.002011247            0    0.5631032    1.6817858    2.2469002    1.0215133 
 4525000    1.1756081 8.0810979e-05   0.49514904 0.0038035099            0   0.49134553    1.7413694    2.2365185    6.3740406 
 4530000    1.1237779 7.5056054e-05   0.56647688  0.022271526            0   0.54420536     1.664596    2.2310728    6.0739428 
 4535000    1.0887789 -0.00011501611   0.63077089  0.037452735            0   0.59331815    1.6127537    2.2435246   -3.6453004 
 4540000    1.1067541 -6.0569583e-05   0.57910677 0.0091590809            0   0.56994769    1.6393795    2.2184863  -0.88267633 
 4545000     1.167989 8.2617461e-05   0.47515046 0.0044923156            0   0.47065814    1.7300837    2.2052341    6.4352481 
 4550000    1.1610347 5.215643e-05   0.48419804  0.005473753            0   0.47872429    1.7197827    2.2039807    4.8743899 
 4555000    1.0702918 -5.0332225e-06   0.57619708 0.0040753667            0   0.57212171    1.5853698    2.1615669    1.9038659 
 4560000    1.1041898 -3.8644724e-05      0.50679  0.011515577            0   0.49527442    1.6355812    2.1423712   0.16376128 
 4565000    1.0220225 -1.7567957e-05   0.62166492  0.011785359            0   0.60987956    1.5138709    2.1355358    1.2360564 
 4570000    1.0541648 8.2758024e-05     0.608185  0.017164847            0   0.59102015    1.5614816    2.1696666    6.4068775 
 4575000    1.1472719 8.0676909e-05   0.45849792  0.064144315            0   0.39435361    1.6993965    2.1578944    6.2885522 
 4580000    1.0817349 4.2065457e-05   0.54245553  0.052355574            0   0.49009995    1.6023198    2.1447753    4.2985267 
 4585000    1.0370582 -6.4292444e-05   0.59267408   0.03403628            0    0.5586378    1.5361424    2.1288165   -1.1629567 
 4590000    1.0875939 -5.9813116e-05   0.52547407  0.027537309            0   0.49793676    1.6109984    2.1364725  -0.92595908 
 4595000    1.0974076 -1.3706714e-05   0.49884393  0.054306891            0   0.44453704    1.6255351     2.124379    1.4225953 
 4600000    1.0306228 -3.7924621e-05   0.61806733  0.079656984            0   0.53841035    1.5266101    2.1446774   0.20293684 
 4605000    1.0324346 -6.5851531e-05   0.60115402  0.040923824            0    0.5602302    1.5292938    2.1304478   -1.2411506 
 4610000    1.0836775 -3.7187185e-05   0.53253952  0.014601342            0   0.51793818    1.6051973    2.1377368    0.2337529 
 4615000    1.0853011 7.7186106e-06   0.51915489  0.013398538            0   0.50575635    1.6076023    2.1267572    2.5219501 
 4620000    1.1044054 -1.2674011e-05   0.52339231   0.01721809            0   0.50617422    1.6359006    2.1592929    1.5103835 
 4625000    1.1099399 -4.8085064e-05   0.48980483   0.01108826            0   0.47871657    1.6440985    2.1339033  -0.32805197 
 4630000    1.0067811 -8.1252196e-05   0.59835365 0.0058188355            0   0.59253481    1.4912945    2.0896481   -2.0704643 
 4635000   0.99052505 -6.5941209e-05   0.61676594  0.002737958            0   0.61402798    1.4672152    2.0839812   -1.2922087 
 4640000    1.1093907 1.1122506e-05   0.45453978 0.0024901662            0   0.45204961    1.6432849    2.0978247     2.667297 
 4645000    1.1145281 0.0001156067   0.44155222  0.010945072            0   0.43060715    1.6508948     2.092447    8.0115101 
 4650000   0.93689689 0.00010037778   0.66472795  0.014894848            0    0.6498331    1.3877785    2.0525065    7.1918487 
 4655000     1.054482 7.3162326e-05   0.47971645 0.0078552159            0   0.47186123    1.5619515    2.0416679     5.787579 
 4660000    1.0103035 -4.4670252e-06   0.55347131   0.01066637            0   0.54280494     1.496512    2.0499833    1.8212716 
 4665000    1.0034109 -3.0778976e-05   0.60177847   0.01641304            0   0.58536543    1.4863024    2.0880808   0.51219727 
 4670000    1.0997345 4.2384511e-05   0.43573313  0.018231968            0   0.41750116    1.6289817    2.0647148    4.2348018 
 4675000    1.0645788 3.8201386e-05   0.46555452  0.010876209            0   0.45467831    1.5769074    2.0424619    3.9983729 
 4680000    1.0379566 2.7151299e-05   0.51996361  0.010124484            0   0.50983913    1.5374732    2.0574368    3.4475833 
 4685000   0.99901421 4.3508143e-06   0.62563025  0.017400172            0   0.60823008    1.4797898      2.10542    2.3281817 
 4690000    1.0533326 8.0349696e-05    0.4951336  0.035184173            0   0.45994943    1.5602489    2.0553825    6.1692869 
 4695000    1.0806983 6.5421941e-05   0.45319665  0.019424728            0   0.43377192    1.6007843     2.053981    5.4035844 
 4700000    1.0426505 -6.0550906e-05   0.53446723  0.044131491            0   0.49033573    1.5444261    2.0788933   -1.0213131 
 4705000   0.95990284 -0.00010026483   0.67017652  0.046695954            0   0.62348057    1.4218561    2.0920326   -3.0415269 
 4710000    1.0017682 -4.7057142e-05   0.59119821  0.034254852            0   0.55694336    1.4838691    2.0750673  -0.33425837 
 4715000   0.99403616 2.8350927e-05   0.59317745  0.054067286            0   0.53911017    1.4724161    2.0655935     3.517161 
 4720000    1.0309333 -5.450483e-06   0.58611363  0.027841768            0   0.55827187      1.52707    2.1131836    1.8341189 
 4725000    1.0201016 5.1421947e-05   0.58926278  0.026401752            0   0.56286103    1.5110255    2.1002883     4.733092 
 4730000    1.0303721 3.3525044e-05   0.60002849  0.021707414            0   0.57832108    1.5262386    2.1262671    3.8427494 
 4735000   0.95570141 -3.2280401e-06   0.64609812   0.01863273            0   0.62746539    1.4156327    2.0617308    1.8964552 
 4740000    1.0523462 5.6273229e-05   0.50262463  0.013049391            0   0.48957524    1.5587879    2.0614125    4.9426018 
 4745000   0.93516671 2.0566015e-05   0.65909118  0.019779391            0   0.63931179    1.3852157    2.0443069    3.0972869 
 4750000    1.0319433 4.0923949e-05   0.51697701  0.014364863            0   0.50261214     1.528566     2.045543    4.1408492 
 4755000   0.97445999 -3.4437775e-05   0.59429222 0.00013157912            0   0.59416064    1.4434189    2.0377111   0.27449701 
 4760000     1.061937 -2.9648817e-05   0.45147125 0.0093821794            0   0.44208907    1.5729942    2.0244655   0.50644603 
 4765000   0.92452633 2.5627837e-05   0.63617535  0.028873439            0   0.60730191    1.3694546      2.00563    3.3177752 
 4770000   0.94045615 -8.1882926e-05   0.60776794  0.010657756            0   0.59711019    1.3930507    2.0008186   -2.1915872 
 4775000    0.9752277 -4.1660427e-05   0.55778915 0.0081850584            0   0.54960409     1.444556    2.0023452  -0.13066871 
 4780000     0.894175 1.2855995e-05    0.6629059  0.011831165            0   0.65107473    1.3244967    1.9874026    2.6456295 
 4785000    1.0481945 -2.3544583e-05   0.42978235 0.0064459836            0   0.42333636    1.5526381    1.9824204   0.77693777 
 4790000   0.99262998 -6.4445302e-05   0.53109698 0.0058070581            0   0.52528992    1.4703332    2.0014301   -1.2981693 
 4795000   0.92406648 -5.6095956e-05    0.6420599  0.011293647            0   0.63076625    1.3687735    2.0108334   -0.8612796 
 4800000   0.95404419 -5.2197709e-05   0.58562725   0.04223746            0   0.54338979     1.413178    1.9988052  -0.67371751 
 4805000   0.94506073 -4.0461709e-05   0.61304051  0.036914732            0   0.57612578    1.3998712    2.0129117 -0.058727766 
 4810000    1.0340487 1.3814993e-05    0.5006166  0.013400747            0   0.48721586    1.5316847    2.0323013    2.7396289 
 4815000    1.0326274 9.6810722e-05   0.49019767 0.0090709713            0    0.4811267    1.5295794     2.019777     6.976486 
 4820000    1.0445031 2.2381393e-05   0.47412246 0.0040569435            0   0.47006552    1.5471702    2.0212926    3.1672199 
 4825000    1.0029544 -1.1898104e-05   0.53265069 0.0039102976            0   0.52874039    1.4856263     2.018277     1.409094 
 4830000    1.0152733 0.00011415595   0.50162766   0.02221444            0   0.47941322    1.5038736    2.0055013    7.8502859 
 4835000   0.99630877 -4.2732666e-05   0.54679316  0.018703759            0    0.5280894    1.4757824    2.0225755  -0.16533696 
 4840000    0.9982027 -0.00015236669   0.52905997  0.024247042            0   0.50481293    1.4785878    2.0076477   -5.7935269 
 4845000    1.0115232 -7.3807914e-05   0.51551997  0.014040357            0   0.50147961    1.4983187    2.0138386   -1.7651265 
 4850000    1.0457334 -9.5990989e-05   0.45533514 0.00063994192            0   0.45469519    1.5489926    2.0043277    -2.910411 
 4855000    1.0090409 -3.8961037e-05   0.49269754 0.0077779564            0   0.48491959    1.4946418    1.9873393 -0.0074657641 
 4860000   0.97610009 4.7934358e-05   0.56878192  0.013755015            0   0.55502691    1.4458483    2.0146302    4.4688693 
 4865000    1.0131457 -2.3599245e-05   0.49602234 0.0046667541            0   0.49135559    1.5007221    1.9967444   0.78846307 
 4870000    0.9993554 -5.0685578e-05   0.51056207 0.00078713894            0   0.50977493    1.4802952    1.9908572  -0.60424433 
 4875000    1.0434868 1.6218143e-05   0.44583962 0.00057333461            0   0.44526629    1.5456649    1.9915045    2.8218735 
 4880000    1.0555122 0.00013416195   0.42505318 0.0018088196            0   0.42324436    1.5634774    1.9885306    8.8576226 
 4885000   0.90914998 0.00020988009   0.62309803  0.032323077            0   0.59077495    1.3466784    1.9697764    12.715637 
 4890000    1.0062783 -3.5110336e-07    0.4914491  0.051525411            0   0.43992369    1.4905498    1.9819989    1.9640224 
 4895000    1.0435382 -8.8754397e-05   0.41964534  0.014873132            0   0.40477221    1.5457409    1.9653863   -2.5788389 
 4900000     1.005697 -7.1544418e-05   0.48885089 2.4826011e-05            0   0.48882606    1.4896886    1.9785395   -1.6845347 
 4905000   0.97110783 -6.0243222e-05   0.54436568 4.0019767e-05            0   0.54432566    1.4384535    1.9828192   -1.1016338 
 4910000    1.1130351 -5.2300554e-05   0.36083807 0.00015084673            0   0.36068722    1.6486833    2.0095213  -0.66826703 
 4915000    1.0055032 -9.0828268e-05   0.52215388 0.0015583312            0   0.52059555    1.4894017    2.0115555   -2.6388518 
 4920000    1.0148125 2.0557182e-05   0.51145568  0.003383065            0   0.50807262     1.503191    2.0146467    3.0671744 
 4925000    1.0057127 1.566019e-05   0.53570049  0.011956276            0   0.52374422    1.4897119    2.0254124    2.8272142 
 4930000     1.001827 -4.5154497e-05   0.50552721  0.025226371            0   0.48030084    1.4839562    1.9894834  -0.32242682 
 4935000    1.0167687 2.9034784e-05   0.46974487 0.0033668041            0   0.46637807    1.5060886    1.9758335    3.4624145 
 4940000   0.96760582 -6.3612069e-05   0.53944441 0.0069873437            0   0.53245707    1.4332661    1.9727105   -1.2842274 
 4945000   0.97276755 -6.3386939e-05   0.54008532 0.0098071939            0   0.53027813    1.4409119    1.9809973    -1.264414 
 4950000     1.027224 -4.3967531e-05   0.44355178  0.017113217            0   0.42643856    1.5215756    1.9651274  -0.28601021 
 4955000    1.1131792 -6.2074227e-05   0.34813196 0.0052709329            0   0.34286103    1.6488967    1.9970287   -1.1811718 
 4960000    1.0199517 2.591959e-05   0.47358758 0.0036040963            0   0.46998348    1.5108035     1.984391    3.3114741 
 4965000   0.98705541 4.1574777e-05   0.49858113  0.011272635            0   0.48730849    1.4620758    1.9606569    4.0892855 
 4970000   0.99711454 -5.1569212e-06   0.50589298 0.0050713885            0   0.50082159    1.4769759    1.9828689    1.7188345 
 4975000    1.0568151 -4.6035863e-05   0.45867648 0.00078354539            0   0.45789294    1.5654073    2.0240838  -0.33295242 
 4980000      1.05602 1.4257629e-05   0.47770651            0            0   0.47770651    1.5642296    2.0419361    2.7719267 
 4985000    1.0313143 6.4104025e-05   0.52006593 0.00093596369            0   0.51912997    1.5276343    2.0477002    5.3298263 
 4990000    1.0316787 -7.4548976e-05   0.53884654   0.01926909            0   0.51957745    1.5281741    2.0670207   -1.7498869 
 4995000    1.0441063 -0.00013535757   0.51922769  0.035423332            0   0.48380436    1.5465824    2.0658101   -4.8644976 
 5000000    1.0811799 -3.8353865e-05   0.47490479  0.043116101            0   0.43178869    1.6014978    2.0764026   0.11268468 
 5005000     1.152119 -3.8213367e-05   0.38668936  0.025980376            0   0.36070898    1.7065763    2.0932656   0.13674122 
 5010000    1.0003221 -0.00012808836   0.61372665 0.0019366618            0   0.61178999    1.4817271    2.0954538   -4.4626703 
 5015000    1.1274418 2.8511088e-05   0.42883074 0.0073428021            0   0.42148794    1.6700232    2.0988539    3.5586216 
 5020000    1.0665613 0.00015590016   0.54827151  0.024691018            0   0.52358049    1.5798439    2.1281154    10.110204 
 5025000    1.0792442 -3.9352759e-05   0.52977481  0.013015972            0   0.51675884    1.5986304    2.1284053   0.11354399 
 5030000    1.1012545 -0.00014071594   0.48827344  0.011673935            0   0.47659951    1.6312332    2.1195067   -5.0851494 
 5035000    1.0579174 3.6528587e-05   0.54674013  0.013736341            0   0.53300379    1.5670402    2.1137803    3.9840439 
 5040000    1.1686264 3.876194e-05   0.38681109 0.0039710719            0   0.38284001    1.7310279     2.117839    4.1024503 
 5045000    1.0675671 4.7456374e-05   0.54185981 0.0063776276            0   0.53548218    1.5813337    2.1231935    4.5529599 
 5050000    1.1369079 3.5928955e-05   0.43495983   0.02695021            0   0.40800962    1.6840449    2.1190047    3.9585672 
 5055000    1.0638272 -0.00013817432   0.56409847  0.050374031            0   0.51372444     1.575794    2.1398925   -4.9346329 
 5060000    1.1468901 -6.4583103e-05    0.4649073  0.019789043            0   0.44511826    1.6988309    2.1637382   -1.1429167 
 5065000    1.1174207 -7.8437928e-05    0.5069117   0.01308034            0   0.49383136    1.6551794    2.1620911   -1.8539309 
 5070000    1.0130928 -4.3203407e-05   0.64866114  0.029922076            0   0.61873906    1.5006437    2.1493049 -0.062709588 
 5075000    1.1540591 -3.3357972e-05   0.41143436  0.038243474            0   0.37319088      1.70945    2.1208843   0.41295617 
 5080000    1.0676551 -2.6618479e-05   0.53730153  0.041785919            0   0.49551561    1.5814642    2.1187657   0.75589956 
 5085000    1.0949687 2.9834827e-05   0.55549556   0.01206476            0    0.5434308    1.6219224     2.177418    3.7049611 
 5090000    1.1281749 -3.3619217e-05   0.47696947 0.0010908223            0   0.47587865     1.671109    2.1480785   0.42677459 
 5095000    1.1352934 -5.6216861e-05    0.4677219  0.010155036            0   0.45756687    1.6816533    2.1493752  -0.72892806 
 5100000    1.0711026 -0.0001553759   0.56658784  0.021425812            0   0.54516202    1.5865707    2.1531585   -5.8020878 
 5105000    1.0696501 -0.00018281394   0.61138821  0.018117777            0   0.59327043    1.5844193    2.1958075   -7.1642662 
 5110000    1.1218448 -1.0809073e-05   0.51845937  0.021500153            0   0.49695921    1.6617327     2.180192    1.6267675 
 5115000    1.1885982 3.7037983e-05   0.41327027  0.015071668            0    0.3981986    1.7606111    2.1738814    4.0702261 
 5120000    1.1040922 3.0221759e-05   0.52089948  0.047911608            0   0.47298787    1.6354365     2.156336    3.7036901 
 5125000    1.0945745 6.4385354e-05   0.54995297  0.067184382            0   0.48276858    1.6213384    2.1712914    5.4678215 
 5130000    1.1384154 0.00010867935    0.4979749   0.01427224            0   0.48370266    1.6862779    2.1842528    7.7486355 
 5135000    1.0884518 2.9160788e-05   0.55909387  0.076476186            0   0.48261768    1.6122692    2.1713631    3.6643955 
 5140000    1.1127595 -9.8234602e-05   0.48243744  0.038140771            0   0.44429667    1.6482751    2.1307125   -2.8988991 
 5145000    1.0670629 -2.6609462e-05   0.57560254  0.033455682            0   0.54214686    1.5805869    2.1561894   0.79378497 
 5150000    1.0899057 1.3189889e-05   0.52426614 0.0067638822            0   0.51750226    1.6144228    2.1386889    2.8140112 
 5155000    1.1689187 0.00013476872   0.43145955 0.0047592661            0   0.42670029    1.7314608    2.1629204     9.063079 
 5160000    1.0968141 0.00010447387   0.57928717  0.017423041            0   0.56186413    1.6246559    2.2039431    7.5530054 
 5165000    1.1301066 2.2294735e-05   0.52516874  0.019554084            0   0.50561466    1.6739703    2.1991391    3.3406295 
 5170000     1.145021 5.7158425e-05   0.50319278  0.019475511            0   0.48371727    1.6960623    2.1992551    5.1257665 
 5175000    1.1093273 8.6697393e-05   0.55051651 0.0090727807            0   0.54144373    1.6431911    2.1937076    6.6326141 
 5180000     1.183703 7.2755145e-05   0.48951291  0.014400522            0   0.47511239    1.7533601     2.242873    5.9679364 
 5185000    1.1792487 8.6840248e-05   0.46705735 0.0020886717            0   0.46496868    1.7467621    2.2138195    6.6600402 
 5190000    1.1473212 8.8476261e-07   0.47661623 0.0025097091            0   0.47410652    1.6994695    2.1760857    2.2213856 
 5195000    1.1336107 -7.7493647e-05    0.5009048  0.026105339            0   0.47479946    1.6791609    2.1800657    -1.787609 
 5200000    1.1391878 1.5868879e-05   0.48167926  0.019394566            0    0.4622847    1.6874219    2.1691012    2.9815878 
 5205000    1.0739901 1.9225539e-05   0.54332941 0.0070874134            0     0.536242    1.5908478    2.1341772    3.1185248 
 5210000    1.1505912 -3.5910382e-05   0.42067358  0.024838411            0   0.39583517    1.7043133    2.1249869   0.28637531 
 5215000    1.1109781 -5.8346549e-05   0.48047269 0.0069184294            0   0.47355426    1.6456363     2.126109  -0.86123435 
 5220000    1.1246171 -1.7602732e-06   0.46328201   0.01349986            0   0.44978215     1.665839     2.129121    2.0389951 
 5225000    1.0503971 0.00011857184   0.52609744  0.055857985            0   0.47023946    1.5559007    2.0819982    8.1528762 
 5230000    1.0961028 7.4772595e-05   0.47783257  0.037372729            0   0.44045984    1.6236023    2.1014349    5.9297918 
 5235000    1.0345146 -1.0509819e-07   0.57100995  0.013144486            0   0.55786546    1.5323747    2.1033847    2.0980036 
 5240000    1.0869838 -3.9052289e-05   0.52509717  0.040125017            0   0.48497215    1.6100948     2.135192   0.13571478 
 5245000    1.0737227 -2.4118721e-05   0.55565352    0.0417609            0   0.51389262    1.5904518    2.1461053   0.91122679 
 5250000    1.1197193 7.6095471e-05   0.52548551  0.036360755            0   0.48912476    1.6585842    2.1840697    6.0801578 
 5255000    1.1340174 7.0594146e-05   0.52738244  0.041759593            0   0.48562285    1.6797633    2.2071457     5.821566 
 5260000    1.0290476 -1.3033633e-06    0.7028146  0.078351575            0   0.62446303    1.5242768    2.2270914    2.1603592 
 5265000    1.1282232 -9.5748586e-05   0.51766603  0.028101896            0   0.48956413    1.6711806    2.1888466    -2.713481 
 5270000    1.1036162 3.0858126e-05   0.59237089  0.020291122            0   0.57207976    1.6347315    2.2271024    3.8070384 
 5275000    1.0959039 0.00012723515   0.56420671  0.012405926            0   0.55180078    1.6233076    2.1875143     8.701954 
 5280000     1.136704 7.3472394e-05   0.49378997 0.0093715984            0   0.48441837    1.6837428    2.1775328    5.9393194 
 5285000    1.0866297 6.9759528e-05   0.55369186  0.017744897            0   0.53594696    1.6095703    2.1632621      5.73495 
 5290000    1.0786865 9.5771684e-05   0.58367591  0.021820796            0   0.56185512    1.5978043    2.1814802    7.0849905 
 5295000    1.1475805 7.3974348e-05    0.4850177  0.026892762            0   0.45812494    1.6998536    2.1848713    5.9723579 
 5300000    1.1061914 9.8217071e-05   0.54484179  0.013853079            0   0.53098871    1.6385461    2.1833879    7.2121019 
 5305000    1.0444739 2.1731219e-05   0.59723486 0.0061308431            0   0.59110401     1.547127    2.1443619    3.2570003 
 5310000    1.0661401 -3.4271398e-05    0.5806819  0.027951951            0   0.55272995      1.57922    2.1599019   0.40520631 
 5315000    1.0818239 6.2596948e-05   0.53176709  0.038557275            0   0.49320982    1.6024517    2.1342188    5.3391825 
 5320000    1.1358038 0.00017142599   0.45613269  0.025179874            0   0.43095281    1.6824094    2.1385421    10.915553 
 5325000   0.98870878 0.00016364075     0.679599 0.0050252895            0   0.67457371    1.4645249    2.1441239     10.52253 
 5330000    1.1042803 3.4927698e-05   0.47601793  0.007262305            0   0.46875562    1.6357152    2.1117331    3.9000312 
 5335000    1.0723099 -0.00011785055   0.50005578  0.032937562            0   0.46711821    1.5883591    2.0884148   -3.9455331 
 5340000    1.0423117 -0.00020293252   0.53904187  0.010126218            0   0.52891566    1.5439242     2.082966   -8.3071788 
 5345000     1.054218 -0.00010747318   0.51975919 0.0056435978            0   0.51411559    1.5615605    2.0813197   -3.4213073 
 5350000    1.0598715 4.006347e-05   0.52310554  0.010660233            0    0.5124453    1.5699346    2.0930401    4.1442898 
 5355000    1.0530138 -7.1072803e-05   0.52882769  0.016373994            0    0.5124537    1.5597766    2.0886043   -1.5503232 
 5360000    1.0974694 -3.6894403e-05   0.46805195  0.043184335            0   0.42486761    1.6256266    2.0936786   0.20468511 
 5365000     1.036524 6.9792175e-05   0.60518086  0.032310407            0   0.57287045    1.5353512    2.1405321    5.7138915 
 5370000    1.0275771 -2.6781094e-06   0.59264193  0.025388239            0   0.56725369    1.5220986    2.1147405    1.9776213 
 5375000    1.1199044 4.3750486e-05    0.4578098  0.010899192            0   0.44691061    1.6588583    2.1166681     4.356693 
 5380000    1.1083425 3.1128295e-05   0.50641206  0.002815817            0   0.50359625    1.6417323    2.1481444    3.7419131 
 5385000    1.0813808 -5.1140558e-05   0.50471393 0.0025181265            0    0.5021958    1.6017954    2.1065093  -0.51188725 
 5390000    1.0500675 -2.3243827e-05   0.55992004 1.8682393e-05            0   0.55990136    1.5554126    2.1153326   0.92524865 
 5395000    1.0376636 1.9971873e-05   0.56506715  0.012703137            0   0.55236401    1.5370391    2.1021063    3.1246662 
 5400000    1.0164787 -9.4377115e-07   0.62407206  0.047373603            0   0.57669845     1.505659    2.1297311      2.08141 
 5405000    1.0853542 5.0477062e-05   0.52700492  0.042573311            0    0.4844316    1.6076809    2.1346858    4.7191114 
 5410000     1.125862 9.9346246e-05   0.47521275   0.06053476            0   0.41467799     1.667683    2.1428958    7.2294236 
 5415000    1.1718964 9.4426503e-05   0.43603221  0.013034078            0   0.42299813    1.7358715    2.1719037    7.0065406 
 5420000    1.1268485 5.9681351e-05   0.50545674 0.0083238422            0    0.4971329    1.6691444    2.1746011    5.2302863 
 5425000    1.0599548 6.6843947e-05   0.57049252  0.021504748            0   0.54898777    1.5700581    2.1405506    5.5629607 
 5430000    1.0957275 1.1263128e-05   0.51677835  0.032960506            0   0.48381785    1.6230463    2.1398247    2.7164968 
 5435000    1.1056906 6.3521233e-05   0.55098762    0.0997503            0   0.45123732    1.6378042    2.1887919     5.441079 
 5440000     1.041114 8.3388347e-05   0.65397769   0.09760271            0   0.55637498      1.54215    2.1961277    6.4656111 
 5445000    1.1118895 -3.3691078e-05   0.59310251  0.019332787            0   0.57376973    1.6469864    2.2400889   0.51510567 
 5450000    1.1681594 -0.00017058455    0.4734957 0.0076826662            0   0.46581304    1.7303361    2.2038318    -6.530097 
 5455000    1.1306465 -5.6013739e-05   0.51548049  0.009532447            0   0.50594805    1.6747702    2.1902507  -0.67765276 
 5460000    1.0336092 3.129664e-05   0.63869548  0.015374346            0   0.62332113    1.5310337    2.1697292    3.7721171 
 5465000     1.093157 -1.5746595e-05    0.5678528  0.023706359            0   0.54414644    1.6192389    2.1870917     1.380866 
 5470000    1.1621435 1.1409723e-05   0.46253601 0.0071837293            0   0.45535228     1.721425     2.183961    2.7681389 
 5475000    1.0892396 2.3376264e-05   0.55697419  0.017291803            0   0.53968239    1.6134362    2.1704104    3.3672751 
 5480000    1.0932117 1.2957814e-05   0.55012953  0.023892018            0   0.52623751    1.6193198    2.1694493    2.8328894 
 5485000    1.0761228 -2.5801862e-05   0.63092406  0.056950492            0   0.57397357    1.5940069    2.2249309   0.90387561 
 5490000    1.1580457 -3.4330097e-05   0.51724203  0.044514183            0   0.47272785    1.7153552    2.2325973    0.4748963 
 5495000    1.0428053 -3.0138199e-05   0.67872481  0.045834498            0   0.63289031    1.5446553    2.2233801   0.68030436 
 5500000    1.1244962 -4.9559112e-05   0.53892657 0.0040701803            0   0.53485639    1.6656601    2.2045866  -0.33283992 
 5505000    1.2403573 -3.2897579e-06   0.37912573 0.0097521464            0   0.36937358    1.8372793     2.216405    2.0479694 
 5510000    1.1097669 9.8854679e-05   0.59214642  0.015303629            0   0.57684279    1.6438422    2.2359886    7.2973482 
 5515000    1.0695629 0.00011810388    0.6497307  0.020679499            0    0.6290512    1.5842901    2.2340208    8.2809393 
 5520000    1.1452452 -3.4149443e-05   0.53833959  0.023811816            0   0.51452777    1.6963944     2.234734   0.48628248 
 5525000    1.1707635 -7.2562178e-05   0.52048486  0.024206593            0   0.49627827    1.7341934    2.2546783   -1.4605053 
 5530000    1.1924862 1.2778601e-05   0.45160845  0.013405345            0    0.4382031    1.7663702    2.2179787    2.8722431 
 5535000    1.1429172 2.054628e-05   0.56741739  0.012362123            0   0.55505526     1.692946    2.2603634     3.312333 
 5540000    1.1405317 -2.8104245e-05   0.53711857   0.01035416            0   0.52676441    1.6894126    2.2265312   0.78759383 
 5545000    1.1810973 -0.00010289169   0.48442914  0.011992818            0   0.47243632    1.7495004    2.2339295   -3.0341248 
 5550000    1.0967875 2.922041e-05   0.59600391  0.015052557            0   0.58095136    1.6246165    2.2206204    3.7167054 
 5555000    1.1905101 0.0001074183   0.46557776  0.014778253            0   0.45079951     1.763443    2.2290208    7.7288376 
 5560000    1.0990346 5.7624524e-05   0.57443714  0.015262011            0   0.55917513     1.627945    2.2023821    5.1527578 
 5565000    1.1383854 8.1551967e-05   0.55316717  0.016700811            0   0.53646636    1.6862334    2.2394006    6.4148613 
 5570000    1.1016101  7.33659e-05   0.58238803  0.024909855            0   0.55747817      1.63176     2.214148    5.9704821 
 5575000    1.0971224 7.8056979e-05   0.55727467  0.011657896            0   0.54561677    1.6251126    2.1823873    6.1789046 
 5580000    1.1518001 -5.7607523e-06     0.448656   0.01696547            0   0.43169053    1.7061039    2.1547599    1.8598094 
 5585000     1.101051 2.3793613e-07   0.52310573  0.019329326            0   0.50377641    1.6309318    2.1540375    2.1662198 
 5590000    1.0062957 0.00012732712   0.63790729  0.055169665            0   0.58273763    1.4905754    2.1284827    8.6476315 
 5595000    1.0335644 0.00017211656   0.61114776  0.058354511            0   0.55279325    1.5309673    2.1421151    10.954483 
 5600000    1.0740907 -3.2161288e-06   0.53269856  0.058371857            0    0.4743267    1.5909968    2.1236954    1.9590296 
 5605000    1.0613887 -8.1542833e-05   0.57283324  0.055902538            0    0.5169307     1.572182    2.1450152   -2.0299778 
 5610000   0.93076343 2.2668024e-05   0.75487811  0.055661059            0   0.69921706    1.3786933    2.1335715    3.2941743 
 5615000    1.0854719 -7.0512276e-05   0.53801385  0.027746628            0   0.51026722    1.6078553    2.1458692   -1.4643593 
 5620000    1.1014906 -0.00019933589   0.50947012  0.020511834            0   0.48895829     1.631583    2.1410531   -8.0649443 
 5625000    1.1113031 -4.6580663e-05   0.50260357 0.0071773457            0   0.49542622    1.6461177    2.1487213  -0.23620868 
 5630000    1.0935239 0.00015208057   0.51489501  0.002932319            0   0.51196269    1.6197822    2.1346772    9.9212024 
 5635000    1.0993445 3.6662246e-05   0.52691767  0.014344378            0   0.51257329    1.6284041    2.1553218    4.0324288 
 5640000    1.1094361 -6.953539e-05   0.54801132  0.023613478            0   0.52439784    1.6433522    2.1913636   -1.3688484 
 5645000    1.1337604 -2.7293864e-05   0.52836343  0.019638901            0   0.50872453    1.6793825     2.207746   0.81030015 
 5650000    1.0924531 3.817335e-05    0.5997322  0.005887499            0    0.5938447    1.6181962    2.2179284    4.1724039 
 5655000    1.0970985 0.00014016919   0.58822311  0.017661395            0   0.57056172    1.6250772    2.2133003     9.389963 
 5660000     1.069536 3.9389678e-05   0.62006556  0.044601148            0   0.57546441    1.5842501    2.2043157    4.2210672 
 5665000    1.1243775 2.4287141e-05   0.53634186  0.020746586            0   0.51559527    1.6654842     2.201826    3.4453277 
 5670000    1.1398463 5.9238682e-05   0.52502627  0.015037044            0   0.50998923    1.6883974    2.2134237    5.2464441 
 5675000     1.133817 0.0001027302   0.53114281  0.039993081            0   0.49114973    1.6794665    2.2106093    7.4703958 
 5680000    1.1423337 7.1947149e-05   0.53286964  0.029316148            0    0.5035535    1.6920817    2.2249514    5.9086454 
 5685000    1.0700561 -4.7657154e-05   0.66436983  0.015242255            0   0.64912757    1.5850206    2.2493904  -0.19065586 
 5690000    1.1299583 8.6375709e-05   0.56628921  0.015376385            0   0.55091283    1.6737507      2.24004    6.6624763 
 5695000    1.1039503 0.00013834418   0.59827165  0.017218646            0     0.581053    1.6352265    2.2334981    9.3167202 
 5700000    1.1161156 0.00016253663    0.5858492  0.026005967            0   0.55984324    1.6532462    2.2390954    10.560971 
 5705000    1.0943202 7.7537548e-05    0.6133828  0.015644998            0    0.5977378    1.6209618    2.2343446     6.204267 
 5710000    1.1822688 1.2617556e-05   0.48438421  0.014605833            0   0.46977838    1.7512357    2.2356199    2.8816388 
 5715000    1.1068524 5.1349037e-05   0.61104819  0.037858898            0   0.57318929    1.6395251    2.2505733     4.879644 
 5720000    1.1467759 6.1082498e-06   0.52615178  0.018052813            0   0.50809897    1.6986617    2.2248135    2.5375559 
 5725000    1.1675241 -1.9375121e-05    0.4868989  0.031079189            0   0.45581971    1.7293951     2.216294    1.2242878 
 5730000    1.2347295 -0.00012856103   0.38086701  0.010262582            0   0.37060443    1.8289431    2.2098101   -4.3725148 
 5735000    1.0627448 -0.00020055497   0.61315314 0.0035635608            0   0.60958958    1.5741907    2.1873438   -8.0810708 
 5740000    1.1250094 -9.1958764e-05   0.54077941  0.014443792            0   0.52633562    1.6664202    2.2071996    -2.501089 
 5745000    1.1161525 -8.7196155e-06   0.53784727  0.021681013            0   0.51616626    1.6533009    2.1911482    1.7447039 
 5750000    1.1225742 -9.8264069e-05   0.54163074  0.017241497            0   0.52438924     1.662813    2.2044437   -2.8266766 
 5755000    1.1338684 -0.00010588988   0.49708769  0.017150656            0   0.47993703    1.6795426    2.1766303   -3.2449316 
 5760000     1.092025 1.2721596e-05   0.57833356  0.046261439            0   0.53207212     1.617562    2.1958956    2.8472413 
 5765000    1.1138476 4.2954413e-05   0.51699463  0.021185591            0   0.49580904    1.6498868    2.1668814    4.3661473 
 5770000    1.1469923 0.00013181067   0.45747817 0.0079260739            0    0.4495521    1.6989823    2.1564605     8.905167 
 5775000    1.1508735 0.00011091922   0.49561626  0.023248248            0   0.47236802    1.7047314    2.2003477    7.8794119 
 5780000    1.0688256 -5.7215679e-05   0.62897473  0.017458527            0    0.6115162    1.5831979    2.2121727  -0.71727008 
 5785000    1.1135089 -0.00010175935   0.56057849 0.0048518927            0   0.55572659    1.6493851    2.2099636   -3.0001153 
 5790000    1.1899604 -9.6554719e-06   0.45938369 0.0036399046            0   0.45574378    1.7626289    2.2220126    1.7276524 
 5795000    1.0666473 7.2890649e-05   0.63601381  0.036717938            0   0.59929588    1.5799714    2.2159852    5.9479864 
 5800000    1.1877714 -1.604102e-05   0.44886415   0.05191352            0   0.39695063    1.7593864    2.2082506    1.3869503 
 5805000    1.1136331 -4.1635365e-05    0.5751576   0.01086882            0   0.56428878     1.649569    2.2247266  0.092995878 
 5810000    1.1221623 6.7746376e-05   0.54056766  0.026560985            0   0.51400668    1.6622029    2.2027705     5.671385 
 5815000    1.1152074 -1.7065087e-05    0.5319601  0.017406924            0   0.51455318    1.6519009     2.183861    1.3101286 
 5820000    1.1042775 -9.0843799e-05   0.54776268 0.0056478852            0   0.54211479    1.6357111    2.1834738   -2.4677287 
 5825000     1.096611 -0.00010984678   0.51625033  0.029660516            0   0.48658981     1.624355    2.1406054   -3.4835498 
 5830000    1.1151234 1.5418013e-05   0.46987499 0.0042484808            0    0.4656265    1.6517765    2.1216515    2.9110537 
 5835000     1.120862 3.0963619e-05   0.49151572 0.0064393261            0   0.48507639    1.6602769    2.1517926    3.7371299 
 5840000    1.1399168 3.2013946e-05   0.43930417  0.012622579            0   0.42668159    1.6885017    2.1278059    3.7669199 
 5845000    1.0856775 9.6649715e-05   0.50669963 0.0049218516            0   0.50177777    1.6081597    2.1148594    7.0633248 
 5850000    1.1537137 -3.7887091e-05   0.39169377 0.0063329653            0    0.3853608    1.7089385    2.1006322   0.16081315 
 5855000    1.0661153 -0.00010313298   0.47948567 0.0039478863            0   0.47553778    1.5791833     2.058669   -3.2217397 
 5860000    1.0473291  1.93854e-05    0.5087641  0.016068011            0   0.49269609    1.5513563    2.0601204    3.0526528 
 5865000    1.0378108 1.9311033e-05   0.51827759  0.050062157            0   0.46821543    1.5372572    2.0555348    3.0442597 
 5870000    1.0149007 4.9689308e-05   0.56083135  0.070650342            0   0.49018101    1.5033217     2.064153    4.6082456 
 5875000    1.0368275 7.961835e-05   0.50516695  0.031092783            0   0.47407417    1.5358007    2.0409677    6.1174272 
 5880000    1.0454273 1.5016162e-05   0.49254353  0.041242478            0   0.45130105    1.5485392    2.0410827    2.8099102 
 5885000    1.0056975 -1.5090734e-05   0.54930434  0.056211505            0   0.49309284    1.4896894    2.0389937    1.2663481 
 5890000   0.99955584 -2.5603523e-05   0.57567181  0.062856088            0   0.51281572    1.4805921    2.0562639   0.74536352 
 5895000     1.081892 7.9936274e-05   0.44072262  0.037009101            0   0.40371352    1.6025525    2.0432752    6.1360124 
 5900000    1.0481725 8.9491591e-05    0.4994913  0.043981117            0   0.45551018    1.5526055    2.0520967    6.6340662 
 5905000   0.95290751 -2.6884516e-06   0.64316135  0.050335018            0   0.59282634    1.4114942    2.0546556    1.9170069 
 5910000    1.0554229 4.275538e-05   0.49726632  0.033449109            0   0.46381721    1.5633452    2.0606115    4.2496869 
 5915000    1.0938296 6.3095583e-05   0.42898032  0.032923441            0   0.39605688    1.6202351    2.0492154    5.2797093 
 5920000    1.0736848 7.6866988e-05    0.4768721   0.05354657            0   0.42332553    1.5903956    2.0672677    6.0028575 
 5925000    1.1115562 -6.9066641e-05   0.42832756  0.013566389            0   0.41476117    1.6464927    2.0748202   -1.4613918 
 5930000    1.0358012 -0.0002231657    0.5381978 0.00096646055            0   0.53723134    1.5342805    2.0724783   -9.3536057 
 5935000    1.0830131 -9.4341446e-05   0.45945945   0.01129279            0   0.44816666    1.6042132    2.0636727   -2.7666094 
 5940000    1.1184731 -5.4050234e-05   0.41127925  0.035127675            0   0.37615158    1.6567383    2.0680175  -0.69935448 
 5945000    1.0742394 1.338014e-06     0.479984  0.056323834            0   0.42366016    1.5912171    2.0712011    2.1397074 
 5950000    1.1151549 0.00011637661    0.3961998  0.045231027            0   0.35096878    1.6518232     2.048023    8.0065054 
 5955000    1.0247316 6.7765294e-05   0.51391429  0.068976631            0   0.44493766    1.5178837     2.031798    5.5013811 
 5960000    1.0209887 -1.4228531e-05   0.52583067  0.056882262            0    0.4689484    1.5123396    2.0381702    1.3096694 
 5965000    1.0476668 5.8691363e-05    0.4698129  0.003957719            0   0.46585518    1.5518565    2.0216694    5.0266672 
 5970000    1.0227024 1.8309919e-05   0.51108906 0.0024537522            0   0.50863531    1.5148779    2.0259669    2.9634348 
 5975000    1.0692851 -5.8320252e-05   0.44711727  0.032721374            0    0.4143959    1.5838786    2.0309959  -0.95500105 
 5980000    1.1127642 -0.00011822742   0.39355529  0.010027626            0   0.38352767    1.6482819    2.0418372   -4.0114065 
 5985000    1.1356054 -6.9692064e-05   0.37811631 0.0044203881            0   0.37369592    1.6821155    2.0602318   -1.5080018 
 5990000    1.0725127 0.00010104463   0.46993008  0.016956438            0   0.45297365    1.5886594    2.0585895    7.2320747 
 5995000    1.0937996 0.00015099601   0.45995516  0.037058952            0   0.42289621    1.6201906    2.0801458    9.8111413 
 6000000    1.0420036 -1.2405635e-05   0.53844984  0.025660872            0   0.51278897    1.5434679    2.0819177    1.4467492 
 6005000    1.0958145 -2.0328263e-05    0.4578465  0.034053026            0   0.42379348    1.6231752    2.0810217    1.0402146 
 6010000    1.0803535 1.7029799e-05   0.48147361  0.015208886            0   0.46626473    1.6002736    2.0817472    2.9536729 
 6015000     1.119629 3.3975216e-05   0.43083335 0.00031832536            0   0.43051503    1.6584505    2.0892839    3.8288149 
 6020000    1.0431244 7.6713389e-05   0.55043938  0.015543964            0   0.53489541     1.545128    2.0955674    6.0232929 
 6025000    1.1564179 -7.8502804e-05   0.41333655  0.023394402            0   0.38994215     1.712944    2.1262805    -1.893063 
 6030000    1.1033418 -0.00010115107   0.48138798  0.011726293            0   0.46966169    1.6343251    2.1157131   -3.0632217 
 6035000    1.1657483 1.0483521e-05   0.39618947 0.0076208772            0   0.38856859    1.7267646    2.1229541    2.6597103 
 6040000    1.1497612 5.5030673e-05   0.41243201 0.0036445672            0   0.40878744    1.7030837    2.1155157    4.9330862 
 6045000    1.0725505 5.3553562e-05   0.49377175  0.001798918            0   0.49197283    1.5887154    2.0824872    4.8244296 
 6050000    1.0838472 1.459326e-05   0.44300585 0.00015264645            0    0.4428532    1.6054486    2.0484544    2.7956293 
 6055000    1.0425476 -7.2284319e-05   0.49046968 0.0047221795            0    0.4857475    1.5442736    2.0347433   -1.6662139 
 6060000    1.0182708 -1.433216e-05   0.55557161  0.041387321            0   0.51418429    1.5083136    2.0638852    1.3300786 
 6065000    1.1092108 9.0961518e-05   0.41104533 0.0065920443            0   0.40445328    1.6430186    2.0540639    6.7112936 
 6070000    1.1064342 -1.0355137e-05   0.44690484 0.0089827346            0    0.4379221    1.6389056    2.0858104    1.5556274 
 6075000     1.106414 -2.0262963e-05   0.47049971 0.0023272477            0   0.46817246    1.6388757    2.1093755    1.0719118 
 6080000    1.1047029 3.7460748e-05   0.47709468 0.0010960158            0   0.47599867    1.6363412    2.1134359    4.0314262 
 6085000    1.1268724 9.4407511e-05   0.45307518  0.002572717            0   0.45050246    1.6691797    2.1222548    6.9559194 
 6090000    1.1041404 6.2358958e-05   0.49109968 0.0092899589            0   0.48180972     1.635508    2.1266077    5.3193863 
 6095000    1.1022921 0.0001286386    0.4921401  0.031723848            0   0.46041625    1.6327702    2.1249103    8.7112067 
 6100000    1.1773993 0.00012934562   0.43818155  0.036992727            0   0.40118882    1.7440227    2.1822043    8.8046999 
 6105000    1.1966996 1.7651201e-05   0.43600777  0.023477052            0   0.41253072    1.7726113    2.2086191    3.1123606 
 6110000    1.1359225 5.0830399e-05   0.53128991  0.032082666            0   0.49920724    1.6825853    2.2138752    4.8163916 
 6115000    1.1816272 1.965192e-05   0.46982381  0.016584604            0   0.45323921    1.7502852     2.220109    3.2262874 
 6120000    1.1767701 8.8910237e-05   0.48609763  0.014885468            0   0.47121217    1.7430908    2.2291884    6.7813925 
 6125000    1.1515503 -3.151943e-05   0.50358245  0.047462338            0   0.45612011    1.7057338    2.2093163   0.59552146 
 6130000    1.2250371 -3.0767773e-05   0.42536181   0.02521675            0   0.40014506    1.8145863    2.2399481   0.66463808 
 6135000    1.1646264 8.860206e-05   0.53372906  0.023789274            0   0.50993978    1.7251028    2.2588319    6.7952573 
 6140000    1.1438172 7.7469662e-05    0.5777855  0.069980727            0   0.50780478    1.6942792    2.2720647    6.2385114 
 6145000    1.2177605 0.00019373527   0.46776873  0.046995062            0   0.42077366    1.8038078    2.2715765    12.190822 
 6150000    1.1694051 8.3160677e-05   0.54097664   0.05795877            0   0.48301787    1.7321813     2.273158    6.5309846 
 6155000    1.2297659 5.752679e-05   0.41995513  0.020350358            0   0.39960477    1.8215907    2.2415458    5.1869175 
 6160000    1.1065516 0.00017689189     0.589901  0.075438868            0   0.51446213    1.6390795    2.2289805    11.285845 
 6165000    1.1330083 9.1043916e-05    0.5756618  0.076456794            0   0.49920501    1.6782686    2.2539304    6.9153789 
 6170000    1.1866161 2.4735151e-05    0.4997615  0.027887289            0   0.47187421     1.757675    2.2574365    3.5238763 
 6175000    1.2265141 3.303327e-05   0.45620399 0.0020584986            0   0.45414549     1.816774    2.2729779    3.9642814 
 6180000    1.2350955 -2.3549776e-05   0.45594295 0.0019373822            0   0.45400557    1.8294853    2.2854282    1.0796797 
 6185000    1.2364586 -3.9598105e-05   0.50753539  0.010840458            0   0.49669494    1.8315042    2.3390396   0.31161663 
 6190000    1.2199061 2.9452578e-05   0.54210798  0.035736644            0   0.50637133    1.8069858    2.3490938    3.8570658 
 6195000    1.2385251 0.00011456677   0.51778668   0.03799891            0   0.47978777    1.8345653     2.352352    8.2181705 
 6200000    1.1883758 0.00010596655   0.56408726  0.050167717            0   0.51391955    1.7602817    2.3243689    7.7498564 
 6205000    1.1685132 8.5920997e-05   0.59450663   0.02501047            0   0.56949616    1.7308601    2.3253667    6.7245218 
 6210000    1.2741596 4.4485843e-05   0.47389415  0.019306273            0   0.45458787    1.8873489     2.361243    4.6389182 
 6215000     1.161749 5.2863012e-05   0.62295935  0.025672358            0   0.59728699    1.7208407       2.3438    5.0503863 
 6220000    1.2488017 0.00015058131   0.47417993  0.023596655            0   0.45058328    1.8497875    2.3239674    10.033731 
 6225000    1.2256801 0.00014344711   0.50218444  0.029325331            0    0.4728591    1.8155386     2.317723    9.6622151 
 6230000    1.1844557 6.9219396e-05   0.51661306  0.031990185            0   0.48462287     1.754475     2.271088    5.8151211 
 6235000    1.1614642 5.4590423e-05   0.54069286  0.015924599            0   0.52476826    1.7204188    2.2611116    5.0561413 
 6240000     1.152655 4.4733926e-06   0.56750789 0.0035101367            0   0.56399776    1.7073702    2.2748781    2.5039158 
 6245000    1.1505018 1.7879992e-05   0.56256631 0.0035392459            0   0.55902706    1.7041809    2.2667472    3.1822028 
 6250000    1.2049472 -2.4151461e-05   0.48019969  0.027660759            0   0.45253893     1.784828    2.2650277    1.0284729 
 6255000    1.1085685 -4.0595764e-06    0.5749602  0.035241332            0   0.53971887     1.642067    2.2170272    2.0091769 
 6260000    1.1466571 3.6168166e-05   0.54566808 0.0090653519            0   0.53660272    1.6984858    2.2441539     4.095964 
 6265000    1.2074235 -4.9217085e-06   0.45799385  0.016630098            0   0.44136375     1.788496    2.2464899    1.9944984 
 6270000    1.1944221 -6.3391382e-05   0.50782355  0.025818242            0   0.48200531    1.7692378    2.2770613  -0.96857745 
 6275000    1.1382295 -3.921875e-05   0.56901226  0.018128494            0   0.55088377    1.6860025    2.2550148   0.24701477 
 6280000    1.1525534 3.6363046e-05   0.55540512  0.027121687            0   0.52828343    1.7072198    2.2626249    4.1244129 
 6285000    1.2047944 5.3750222e-05   0.51242512 0.0098253676            0   0.50259975    1.7846017    2.2970268    5.0490382 
 6290000    1.1755726 3.4708535e-05   0.53104632 0.0069439318            0   0.52410239    1.7413169    2.2723632    4.0494402 
 6295000    1.1750945 6.0276201e-05   0.51049975  0.002483188            0   0.50801656    1.7406087    2.2511085      5.33725 
 6300000     1.173892 0.00013353812   0.52517086 0.0030978038            0   0.52207305    1.7388275    2.2639984      9.10115 
 6305000    1.2567304 -6.8075171e-06   0.42456555  0.015437595            0   0.40912796    1.8615319    2.2860975    1.9375526 
 6310000    1.1349163 -0.00013643171   0.58885744  0.048032667            0   0.54082478    1.6810947    2.2699522   -4.7153514 
 6315000    1.2015316 -1.3521071e-05   0.49793737  0.020476106            0   0.47746126    1.7797686     2.277706    1.5854272 
 6320000    1.2041481 7.1893833e-05    0.4814981  0.024627363            0   0.45687074    1.7836444    2.2651425    5.9461067 
 6325000    1.1255872 6.7368682e-06   0.58712944  0.060338266            0   0.52679117    1.6672761    2.2544055    2.5993332 
 6330000    1.1488105 -5.3800705e-05   0.55202712  0.037551989            0   0.51447513    1.7016756    2.2537027  -0.50089339 
 6335000    1.2491387 -4.6547865e-05   0.39144436  0.015527188            0   0.37591717    1.8502867     2.241731  -0.14151965 
 6340000    1.1137651 5.4158447e-05   0.57542996 0.0025845013            0   0.57284546    1.6497646    2.2251945     4.998107 
 6345000    1.1415645 -5.3799651e-05   0.53563561 0.0015624526            0   0.53407316    1.6909424    2.2265781   -0.5279641 
 6350000    1.1877411 -0.00014709896    0.4987654  0.010732644            0   0.48803275    1.7593415    2.2581069     -5.27336 
 6355000    1.1312736 -1.3090507e-05   0.58659844  0.036816693            0   0.54978174     1.675699    2.2622974    1.5920635 
 6360000    1.1806176 -7.5426904e-05   0.53409685  0.038421683            0   0.49567517    1.7487899    2.2828867   -1.5789708 
 6365000    1.1857981 -0.00016039325   0.54702359  0.015905987            0   0.53111761    1.7564634     2.303487   -5.9086473 
 6370000    1.2108237 -6.6967008e-05   0.51353188  0.019771824            0   0.49376006    1.7935326    2.3070645   -1.1216463 
 6375000    1.1630456 -4.4635373e-05   0.58451272  0.004397651            0   0.58011507    1.7227614    2.3072741  0.021942986 
 6380000    1.2216405 -7.7202501e-05   0.50350565 0.0079944915            0   0.49551116     1.809555    2.3130607   -1.6397074 
 6385000    1.2079179 -0.00014047542   0.51830462  0.011973182            0   0.50633144    1.7892284     2.307533   -4.8848085 
 6390000    1.1493464 -4.3427103e-05   0.56393247   0.02670688            0   0.53722559    1.7024694    2.2664019  0.042934206 
 6395000    1.0994807 -6.7656318e-05    0.6383519  0.022726457            0   0.61562544    1.6286057    2.2669576   -1.1970458 
 6400000    1.0865898 -3.8483819e-06   0.64687433  0.034834389            0   0.61203994    1.6095112    2.2563855    2.0593483 
 6405000    1.1508525 -6.7155144e-05   0.54236831  0.010270393            0   0.53209792    1.7047003    2.2470686   -1.1912747 
 6410000    1.1037726 -7.0640451e-05    0.5921291  0.015396919            0   0.57673218    1.6349632    2.2270923   -1.3896987 
 6415000    1.1054769 7.3113504e-05    0.5912357  0.049339198            0   0.54189651    1.6374877    2.2287234    5.9721348 
 6420000    1.1447397 4.2989385e-06   0.56117975  0.075156935            0   0.48602281    1.6956456    2.2568254     2.476931 
 6425000    1.2231529 0.00014654803   0.47172425  0.030314987            0   0.44140926    1.8117952    2.2835195    9.7867787 
 6430000    1.1402075 5.5829221e-05   0.59692291  0.087671367            0   0.50925155    1.6889323    2.2858552    5.1443114 
 6435000     1.226708 -1.9717604e-05   0.42859775  0.014788404            0   0.41380935    1.8170613     2.245659    1.2361177 
 6440000    1.1697521 0.00012076076   0.49790758  0.011492108            0   0.48641547    1.7326953    2.2306028    8.4135536 
 6445000    1.1933243 -2.3377998e-08   0.45527754  0.016553839            0    0.4387237    1.7676116    2.2228891    2.2216922 
 6450000    1.0723478 2.6046997e-05   0.59929599  0.014554702            0   0.58474128    1.5884152    2.1877111    3.5213174 
 6455000    1.1155848 2.3524432e-05   0.50739431  0.017240659            0   0.49015365      1.65246    2.1598544    3.3643053 
 6460000    1.0751648 -0.00018326303    0.5671078   0.01393073            0   0.55317707    1.5925879    2.1596957   -7.2233715 
 6465000     1.137106 -0.00013194051    0.4378636  0.015145544            0   0.42271806    1.6843382    2.1222018   -4.6331525 
 6470000    1.0545742 4.4762291e-05   0.51407929  0.015866921            0   0.49821236     1.562088    2.0761673    4.3679965 
 6475000   0.98625343 4.3292531e-05   0.61177027  0.037555897            0   0.57421437    1.4608879    2.0726582    4.2892358 
 6480000     1.028352 8.2725598e-05   0.51270822  0.033645554            0   0.47906266    1.5232464    2.0359547    6.2715053 
 6485000    1.0369114 2.7939806e-05   0.50867394   0.01452912            0   0.49414482     1.535925    2.0445989     3.475117 
 6490000    1.0254888 -3.7412184e-05   0.51353535 0.0078143079            0   0.50572104    1.5190052    2.0325406   0.11703679 
 6495000    1.0205721 3.3937204e-05   0.50670744  0.026073672            0   0.48063377    1.5117224    2.0184299    3.7560147 
 6500000     1.001152 7.7650877e-05   0.53735724  0.027233783            0   0.51012346    1.4829564    2.0203136    5.9960386 
 6505000    1.0413919 0.00011893171    0.4664872  0.020224953            0   0.44626225    1.5425617    2.0090489    8.0983523 
 6510000    1.0801187 -5.2551514e-05   0.41236881  0.006934447            0   0.40543436    1.5999258    2.0122946  -0.67834292 
 6515000    1.0446561 -9.792929e-05   0.48149518  0.060530949            0   0.42096423    1.5473968     2.028892   -2.9850877 
 6520000     1.034074 4.9957487e-05    0.4866508  0.044334988            0   0.44231581    1.5317221    2.0183729    4.5761962 
 6525000    0.9976081 0.00014618368   0.52451579  0.019087994            0    0.5054278     1.477707    2.0022228    9.4868272 
 6530000    1.0295652 2.0370319e-05   0.50377679 0.0096393204            0   0.49413747    1.5250434    2.0288202    3.0717806 
 6535000     1.060927 -0.00013058077   0.46218514   0.01515295            0   0.44703219    1.5714982    2.0336833   -4.6520523 
 6540000    0.9952562 3.5572247e-05   0.53206356  0.015333617            0   0.51672994    1.4742232    2.0062868    3.8275858 
 6545000    1.0229779 6.3863049e-05   0.45470612 0.0053081913            0   0.44939793     1.515286    1.9699922    5.2397802 
 6550000    1.0422844 0.00010436325   0.41069692 0.0043321686            0   0.40636475    1.5438837    1.9545807    7.2979791 
 6555000    1.0110241 5.0672107e-05   0.45373988   0.01627523            0   0.43746465    1.4975795    1.9513194    4.5457312 
 6560000   0.97059336 -7.001188e-05   0.49036099  0.036906808            0   0.45345419    1.4376914    1.9280524   -1.6565559 
 6565000    1.0133261 -2.2845947e-05   0.42438009  0.016074188            0    0.4083059    1.5009893    1.9253694   0.75565694 
 6570000   0.95156985 4.8233234e-05   0.50215657 0.0046783545            0   0.49747822    1.4095128    1.9116694     4.381211 
 6575000   0.94840347 6.0177844e-05    0.4810703  0.052196026            0   0.42887427    1.4048226    1.8858929    4.9669986 
 6580000   0.96120962 -6.0799002e-05   0.42632113  0.011663542            0   0.41465759    1.4237918    1.8501129    -1.262796 
 6585000   0.86019667 -5.093389e-05    0.5702035  0.018195248            0   0.55200825    1.2741663    1.8443698  -0.76344537 
 6590000   0.97304513 6.8548517e-05   0.43149751  0.024107212            0    0.4073903    1.4413231    1.8728206    5.3825047 
 6595000    1.0158026 -1.2781789e-05   0.37220135 0.0096332753            0   0.36256808    1.5046576     1.876859    1.2224314 
 6600000   0.95564967 -1.5435357e-06   0.47436285 0.0035728495            0      0.47079    1.4155561    1.8899189    1.8108899 
 6605000   0.90588019 -7.0955305e-05   0.55160939 0.0018730785            0   0.54973632     1.341835    1.8934444   -1.7394672 
 6610000    1.0269905 -1.1371413e-05   0.38781093  0.012265539            0   0.37554539    1.5212297    1.9090406    1.3268243 
 6615000   0.91384841 2.2623555e-05   0.50098151  0.032242361            0   0.46873915     1.353638    1.8546195    3.0129455 
 6620000   0.95627746 -3.2890869e-05   0.44557746 0.0034312266            0   0.44214624     1.416486    1.8620635   0.17805098 
 6625000   0.95701431 1.2212713e-05    0.4460841 0.0018119681            0   0.44427214    1.4175774    1.8636615    2.4889525 
 6630000   0.97345077 4.5270002e-06   0.46161694 0.0025786147            0   0.45903832    1.4419239    1.9035409    2.1353233 
 6635000   0.94010235 -5.7531493e-06   0.51384743  0.019170403            0   0.49467703    1.3925266     1.906374    1.6118128 
 6640000   0.93062477 4.6266332e-05   0.52179617  0.023870894            0   0.49792527    1.3784879    1.9002841    4.2691203 
 6645000   0.99521012 -2.371575e-05   0.42102976  0.012913777            0   0.40811598     1.474155    1.8951847   0.68093835 
 6650000   0.93815631 -3.5097778e-05   0.51097501  0.036332745            0   0.47464227     1.389644     1.900619    0.1036128 
 6655000   0.95544142 -6.146285e-05    0.4616117  0.025014899            0    0.4365968    1.4152476    1.8768593   -1.2700386 
 6660000    1.0144788 -7.1988977e-05    0.3834045 0.0061631198            0   0.37724138    1.5026967    1.8861012   -1.7997344 
 6665000     0.937933 6.1708328e-05   0.48339314  0.015347135            0     0.468046    1.3893133    1.8727064    5.0321728 
 6670000   0.85267772   5.5216e-05   0.62673995  0.065903735            0   0.56083621    1.2630289    1.8897688     4.716828 
 6675000   0.97485575 -9.8888091e-05   0.46006024  0.057440594            0   0.40261965    1.4440051    1.9040653    -3.159005 
 6680000   0.91430727 -0.00015179337   0.54894062   0.02700255            0   0.52193807    1.3543176    1.9032583   -5.8685621 
 6685000   0.89804277 -6.057701e-05   0.57145792  0.006016681            0   0.56544124    1.3302259    1.9016838   -1.1998591 
 6690000    1.0350757 2.9564243e-05   0.35457587 0.0022354167            0   0.35234045    1.5332059    1.8877817     3.401471 
 6695000    0.9900325 -2.0462827e-05    0.4587586  0.013075111            0   0.44568349    1.4664856    1.9252442   0.87754751 
 6700000   0.97854861 1.6308723e-05   0.47798409  0.060023209            0   0.41796088    1.4494751    1.9274592    2.7624658 
 6705000   0.99954269 -6.3655697e-05   0.41560619  0.015244113            0   0.40036207    1.4805726    1.8961788   -1.3629929 
 6710000   0.97520465 -0.00012460557   0.45361278  0.025996874            0   0.42761591    1.4445219    1.8981347   -4.4816704 
 6715000   0.97345109 -2.5641856e-06   0.43917942  0.037835187            0   0.40134423    1.4419244    1.8811039    1.7498175 
 6720000   0.93555047 2.9681812e-06   0.50595422  0.038234156            0   0.46772006    1.3857841    1.8917384    2.0437092 
 6725000   0.92956377 -2.7144832e-05   0.50079692  0.032336507            0   0.46846041    1.3769163    1.8777132   0.48789787 
 6730000   0.93157306 -0.00017137124    0.4761318  0.023184175            0   0.45294763    1.3798926    1.8560244   -6.9181829 
 6735000   0.99915171 -0.00010629712   0.36689704 0.0043883321            0   0.36250871    1.4799935    1.8468905    -3.595522 
 6740000   0.94492258 2.5199578e-05   0.45676786 0.0010957136            0   0.45567215    1.3996666    1.8564344    3.1466529 
 6745000   0.92805237 -6.7005751e-05   0.48559683   0.01024189            0   0.47535493    1.3746776    1.8602744   -1.5704201 
 6750000   0.86086735 9.9719203e-05   0.57923086  0.033616623            0   0.54561424    1.2751598    1.8543906    6.9600138 
 6755000   0.95127234 8.1749676e-05   0.42530479   0.02120561            0   0.40409918    1.4090722     1.834377    6.0199604 
 6760000   0.89347052 0.00013787695   0.52547412   0.03035612            0     0.495118    1.3234532    1.8489273    8.9082271 
 6765000   0.87893348 7.1320756e-05   0.56421091  0.061031693            0   0.50317921    1.3019202    1.8661311    5.5177538 
 6770000   0.88898741 -5.1720867e-05   0.55585861  0.023827317            0    0.5320313    1.3168126    1.8726712  -0.77543716 
 6775000   0.90986563 6.8551759e-05   0.52011139 0.0093802596            0   0.51073113    1.3477385    1.8678499    5.3776999 
 6780000   0.89350185 5.6986348e-05   0.52639887  0.014693745            0   0.51170512    1.3234996    1.8498985    4.7675995 
 6785000   0.89686438 -3.0448976e-05   0.52777787  0.015286988            0   0.51249089    1.3284804    1.8562582   0.29727067 
 6790000   0.87141609 -4.8030082e-07   0.55642438 0.0014954598            0   0.55492892    1.2907851    1.8472095    1.8226181 
 6795000    0.9410298 -1.2594408e-05   0.46070277  0.018457513            0   0.44224526    1.3939004    1.8546032    1.2097695 
 6800000   0.90597508 -4.3592442e-06   0.50269576  0.040219478            0   0.46247628    1.3419756    1.8446713     1.621478 
 6805000   0.88878964 -1.1386496e-05   0.52183937  0.011100314            0   0.51073906    1.3165197     1.838359    1.2553705 
 6810000    0.9526202 3.729203e-05   0.40489848 0.0012266883            0   0.40367179    1.4110687    1.8159672    3.7253191 
 6815000   0.92413606 4.3088319e-05   0.41329901 0.0024708853            0   0.41082812    1.3688765    1.7821756    3.9882975 
 6820000   0.86871986 -0.00010319078   0.50553377  0.011762443            0   0.49377133    1.2867913    1.7923251   -3.4910428 
 6825000   0.90544123 -6.9774054e-05   0.45746791  0.031058755            0   0.42640916    1.3411848    1.7986527   -1.7737789 
 6830000    0.9469237 0.00012842414   0.41504453  0.039946305            0   0.37509823    1.4026307    1.8176753    8.3929915 
 6835000   0.94604841 0.00019423029   0.45446593  0.019500386            0   0.43496554    1.4013342    1.8558001    11.800391 
 6840000   0.93021187 2.3585548e-05   0.46758005  0.018319821            0   0.44926023    1.3778763    1.8454564    3.0530364 
 6845000   0.87507392 -4.016068e-05   0.56828099  0.055312057            0   0.51296893    1.2962032    1.8644842  -0.19174259 
 6850000   0.90139583 0.00011890101   0.53510056  0.066703091            0   0.46839747    1.3351926    1.8702931     7.958025 
 6855000    0.8824515 0.00014409392   0.53528824  0.038664156            0   0.49662409    1.3071313    1.8424195    9.2200284 
 6860000   0.90098084 1.8596819e-05    0.5430781  0.031784653            0   0.51129345    1.3345779     1.877656    2.8298131 
 6865000    0.9933205 -1.4686125e-06   0.42848302 0.0066557455            0   0.42182728     1.471356     1.899839     1.824646 
 6870000   0.93265589 5.4222976e-05   0.48689735  0.015902966            0   0.47099438    1.3814965    1.8683939    4.6446102 
 6875000   0.99086882 2.6025675e-05   0.38828632   0.03142291            0   0.35686341    1.4677244    1.8560108    3.1885253 
 6880000   0.94719724 3.9770441e-05   0.47123881  0.039434056            0   0.43180476    1.4030359    1.8742747    3.9105213 
 6885000    1.0039837 1.0034826e-06   0.42383368  0.065964306            0   0.35786937    1.4871508    1.9109845    1.9623628 
 6890000   0.95118673 -7.4013776e-05   0.47602101   0.03489513            0   0.44112588    1.4089453    1.8849663    -1.904539 
 6895000   0.94069359 -4.0650471e-05   0.50549247  0.020185131            0   0.48530734    1.3934024    1.8988948  -0.18240928 
 6900000   0.99546148 2.6636019e-06   0.46282672  0.021704965            0   0.44112175    1.4745273     1.937354    2.0737304 
 6905000     1.062041 2.9444413e-05   0.38609629 0.0064600513            0   0.37963624    1.5731482    1.9592445    3.4667984 
 6910000   0.97603109 2.7744544e-05   0.54902368  0.050389789            0   0.49863389     1.445746    1.9947697    3.4152904 
 6915000    1.0175305 1.5286386e-05   0.49324604  0.062231244            0   0.43101479     1.507217     2.000463     2.783126 
 6920000    1.0314243 7.1433134e-05   0.49842104   0.01500709            0   0.48341395    1.5277972    2.0262183    5.6835947 
 6925000    1.0843087 6.1303504e-05   0.46501873 0.0019644821            0   0.46305424    1.6061323    2.0711511    5.2098905 
 6930000    1.1087176 2.0493338e-05   0.42119957 0.0030673362            0   0.41813223     1.642288    2.0634876    3.1127465 
 6935000    1.0587569 3.2672645e-05   0.51357275 0.0088069601            0   0.50476579    1.5682836    2.0818564    3.7546958 
 6940000    1.1158091 8.9322548e-07   0.41613965  0.011305412            0   0.40483424    1.6527922    2.0689318     2.114665 
 6945000    1.0230725 2.9936867e-05    0.5676082  0.026780917            0   0.54082728    1.5154261    2.0830343    3.6158019 
 6950000    1.1066969 5.5116531e-05    0.4578712  0.015877216            0   0.44199398    1.6392947    2.0971659    4.9191323 
 6955000    1.0616266 -3.6982328e-05   0.53632009 0.0064373552            0   0.52988274    1.5725343    2.1088544   0.21535924 
 6960000    1.1354081 1.1614556e-05   0.42695218  0.012819686            0   0.41413249    1.6818233    2.1087755    2.7034408 
 6965000    1.0841047 5.0623703e-05   0.51668248  0.016800114            0   0.49988237    1.6058301    2.1225126    4.7144462 
 6970000    1.0661332 -3.0568423e-06   0.54005157  0.018536522            0   0.52151505    1.5792098    2.1192613     1.962751 
 6975000    1.0404255 -2.0191511e-05   0.57010691  0.090881907            0     0.479225    1.5411303    2.1112372    1.0774318 
 6980000    1.0368793 -6.900807e-05   0.57788494  0.062566444            0   0.51531849    1.5358775    2.1137624   -1.4194508 
 6985000    1.0941409 -1.5953959e-05   0.48261702  0.024217179            0   0.45839984    1.6206962    2.1033132    1.2864705 
 6990000    1.1173204 2.5654678e-06    0.4472242  0.020048302            0    0.4271759    1.6550309     2.102255     2.233607 
 6995000    1.0930265 2.0394783e-05   0.46837746 0.0069520442            0   0.46142541    1.6190456     2.087423    3.1316359 
 7000000    1.0476502 -5.6530504e-05   0.52199126  0.047370485            0   0.47462077    1.5518319    2.0738232  -0.82053865 
 7005000    1.0375293 -1.8931462e-05   0.52203316  0.024727443            0   0.49730571    1.5368402    2.0588734    1.0895825 
 7010000     1.062023 5.0492382e-05   0.48407972 0.0097837867            0   0.47429593    1.5731216    2.0572013    4.6424113 
 7015000    1.0420659 -1.4163054e-05   0.54010167 0.0044400189            0   0.53566165    1.5435601    2.0836618    1.3585134 
 7020000    1.0164269 -4.7558126e-05   0.53605489  0.013157212            0   0.52289768    1.5055824    2.0416373  -0.39333876 
 7025000    1.1150561 -1.1775435e-05   0.41675817  0.028325052            0   0.38843312    1.6516769     2.068435    1.4655328 
 7030000    1.0481691 -5.7568806e-06   0.51875602  0.038786555            0   0.47996946    1.5526005    2.0713566    1.7766043 
 7035000    1.0620582 1.8301387e-05   0.51806268   0.03801118            0    0.4800515    1.5731737    2.0912364    3.0282674 
 7040000    1.0324655 2.8499513e-05   0.53126704  0.037044296            0   0.49422275    1.5293396    2.0606066    3.5197816 
 7045000   0.99708131 -4.3878848e-05   0.56854858 0.0074278782            0   0.56112071    1.4769267    2.0454753  -0.20112174 
 7050000    1.0362275 -9.2302035e-05   0.50125463  0.017533106            0   0.48372153     1.534912    2.0361667   -2.6896975 
 7055000    1.0967424 -6.9163152e-05   0.42678064  0.026000953            0   0.40077969    1.6245497    2.0513303    -1.489823 
 7060000    1.0288243 -1.4192915e-05    0.5059904 0.0087284521            0   0.49726195     1.523946    2.0299364    1.3032592 
 7065000    1.0821852 -4.8606819e-05   0.45016628  0.035599502            0   0.41456678    1.6029868    2.0531531  -0.43551599 
 7070000    1.0300669 -3.397423e-06   0.54775348 0.0054559312            0   0.54229755    1.5257866    2.0735401     1.899592 
 7075000    1.0688277 9.4322913e-05   0.46887356 0.0053265326            0   0.46354703     1.583201    2.0520746    6.8814078 
 7080000    1.0646046 7.2133941e-05   0.48528071  0.023212223            0   0.46206849    1.5769456    2.0622263    5.7554841 
 7085000    1.0376285 -5.5128374e-05   0.50964646    0.0219321            0   0.48771436    1.5369872    2.0466336  -0.77593916 
 7090000    1.0594335 -3.2004009e-05    0.4548873  0.019674237            0   0.43521307    1.5692858    2.0241731   0.38556786 
 7095000    1.0010964 4.8817298e-05    0.5589853  0.025628521            0   0.53335678     1.482874    2.0418593     4.541305 
 7100000    1.1160582 4.5945954e-05   0.41134462   0.03323056            0   0.37811406    1.6531611    2.0645058    4.4169386 
 7105000    1.0216271 -1.7804686e-05   0.53106926  0.027120515            0   0.50394874    1.5132852    2.0443545    1.1327545 
 7110000    1.0125595 -2.7190155e-05   0.51644626  0.020610394            0   0.49583587    1.4998537       2.0163   0.62416407 
 7115000   0.98617201 1.5307067e-05   0.57392657  0.062661452            0   0.51126512    1.4607673    2.0346939    2.8184157 
 7120000    1.0551981 7.3022818e-06   0.48488469  0.066572281            0    0.4183124    1.5630122    2.0478969    2.4217738 
 7125000    1.0664797 5.528438e-06   0.48708076   0.01817588            0   0.46890488     1.579723    2.0668038    2.3498598 
 7130000     1.077877 3.3968556e-05    0.4651384  0.018983222            0   0.44615518    1.5966053    2.0617437    3.8009338 
 7135000    1.0919774 0.00013534863   0.43427839  0.021660984            0   0.41261741    1.6174915    2.0517699      8.98162 
 7140000    1.0353974 0.00013349932   0.50208993  0.032013761            0   0.47007617    1.5336823    2.0357723    8.8709373 
 7145000    1.0212339 -3.3955197e-05   0.50454864 0.0097144025            0   0.49483423    1.5127027    2.0172513   0.27874521 
 7150000     1.043819 -0.00014026036   0.46444475 0.0097489424            0    0.4546958    1.5461569    2.0106016   -5.1707288 
 7155000    1.0119771 -5.2172701e-05   0.49730327  0.026691148            0   0.47061213    1.4989911    1.9962944  -0.67494792 
 7160000    0.9643579 8.1157328e-06   0.55869791  0.027390249            0   0.53130767    1.4284551     1.987153    2.4026786 
 7165000    1.0359446 4.2679796e-05   0.44491116  0.031720752            0    0.4131904    1.5344929     1.979404    4.1646096 
 7170000   0.99497341 4.447181e-05   0.51145152   0.04744584            0   0.46400568    1.4738044    1.9852559    4.2622125 
 7175000    1.0243037 -0.00010285244   0.44770147  0.033047059            0   0.41465441    1.5172498    1.9649513   -3.3010937 
 7180000     1.026294 -7.6827664e-05   0.40881879  0.029963632            0   0.37885516    1.5201981    1.9290169   -2.0045596 
 7185000   0.90144207 0.00013327591   0.60088497  0.060533949            0   0.54035102    1.3352611     1.936146    8.7598726 
 7190000     1.014462 -1.0969985e-06   0.45011566  0.022409896            0   0.42770577    1.5026718    1.9527875    1.8966212 
 7195000    1.0272106 -0.00013322572   0.42299078   0.04778064            0   0.37521014    1.5215557    1.9445464   -4.8766103 
 7200000   0.88710398 -7.0138377e-05   0.62413576  0.076177182            0   0.54795858    1.3140228    1.9381585   -1.6529263 
 7205000    1.0138201 -4.5146265e-05   0.44515239  0.048866819            0   0.39628557    1.5017211    1.9468735  -0.36461531 
 7210000    1.0197178 -7.298785e-05   0.45620791  0.023138861            0   0.43306905     1.510457    1.9666649    -1.770313 
 7215000   0.97683148 -2.2196205e-05   0.50807776  0.041624142            0   0.46645362    1.4469316    1.9550094    0.8185637 
 7220000     1.011349 5.5740939e-06   0.47519823  0.016116333            0   0.45908189    1.4980606    1.9732589    2.2586525 
 7225000    1.0062399 1.8870328e-05   0.49152034 0.0054708658            0   0.48604947    1.4904929    1.9820132     2.948174 
 7230000    1.0104893 -0.00013286368   0.51231216 0.0078260582            0    0.5044861    1.4967872    2.0090994   -4.7935209 
 7235000     1.043622 -9.1115764e-05   0.47526693 0.0080237736            0   0.46724316    1.5458651    2.0211321   -2.6439951 
 7240000     1.028265 7.1307959e-05   0.49880262 0.0041351717            0   0.49466745    1.5231176    2.0219202    5.6728877 
 7245000    1.0864874 5.5454805e-05   0.42321186 0.00091343878            0   0.42229842    1.6093595    2.0325714    4.8718574 
 7250000    1.1026602 -2.2903807e-06   0.41152195  0.001849698            0   0.40967226    1.6333154    2.0448373    1.9275698 
 7255000   0.99512452 1.957092e-05   0.53491171 0.0001873827            0   0.53472433    1.4740282    2.0089399     3.010971 
 7260000    1.0577834 3.6036552e-05   0.43984489  0.012271403            0   0.42757349    1.5668416    2.0066865     3.851758 
 7265000    1.0238164 9.627797e-05     0.485772  0.038356072            0   0.44741592     1.516528       2.0023     6.931732 
 7270000    1.0591834 0.00010305377   0.42840597  0.011587932            0   0.41681804    1.5689154    1.9973214    7.2736747 
 7275000   0.95807239 -1.6914643e-06   0.56960356  0.026161424            0   0.54344214    1.4191447    1.9887483    1.9021453 
 7280000   0.97492937 -0.00010560776    0.4922701  0.024609104            0     0.467661    1.4441141    1.9363842   -3.4707331 
 7285000   0.91804663 -0.00011410464   0.56806932  0.020706702            0   0.54736262    1.3598566    1.9279259   -3.9142315 
 7290000   0.88826036 -5.1712867e-05   0.61044744  0.043403041            0    0.5670444    1.3157357    1.9261831  -0.72151568 
 7295000   0.92345268 5.4717117e-05   0.55606502  0.092219344            0   0.46384567    1.3678643    1.9239293    4.7254457 
 7300000    1.0080898 6.2097308e-05    0.4401548  0.012136943            0   0.42801786     1.493233    1.9333878      5.11277 
 7305000   0.94630835 -1.874232e-05   0.52841515  0.021706468            0   0.50670868    1.4017192    1.9301344    0.9705276 
 7310000   0.94907727 -2.6251704e-06   0.49377019  0.027183243            0   0.46658695    1.4058207    1.8995909    1.7651822 
 7315000   0.94382939 1.9167525e-05   0.50187934  0.013624371            0   0.48825497    1.3980473    1.8999266    2.8813039 
 7320000   0.95353583 8.8771807e-06    0.4789021  0.040481305            0    0.4384208    1.4124249     1.891327    2.3458387 
 7325000    0.9827807 0.00011520317   0.43787043  0.032251174            0   0.40561925    1.4557439    1.8936143    7.7920168 
 7330000   0.94164673 -8.6526322e-05     0.491289  0.029064003            0   0.46222499    1.3948142    1.8861032   -2.5440445 
 7335000   0.93344102 -0.00011773361    0.4944739  0.045401292            0   0.44907261    1.3826595    1.8771334   -4.1508274 
 7340000    1.0049553 -2.8496059e-05   0.38784906  0.035471874            0   0.35237719    1.4885901    1.8764391   0.41744095 
 7345000   0.89148157 5.2926424e-06   0.53683349  0.063362289            0   0.47347121    1.3205071    1.8573406    2.1283239 
 7350000   0.89701745 0.00012781982   0.51156237  0.017214329            0   0.49434804    1.3287071    1.8402695    8.3846444 
 7355000   0.93294942 -1.6380523e-05   0.43052066  0.020653841            0   0.40986681    1.3819313     1.812452   0.97376923 
 7360000   0.92433047 -1.4040539e-05   0.45545311  0.016661805            0    0.4387913    1.3691645    1.8246176     1.105742 
 7365000   0.89371915 3.9835262e-05   0.49998541   0.01810619            0   0.48187922    1.3238215    1.8238069    3.8633723 
 7370000   0.89892636 3.1504878e-06   0.50356333   0.01925294            0   0.48431039    1.3315347     1.835098     1.996403 
 7375000   0.87208895 5.4150418e-05   0.55814901  0.012611383            0   0.54553763    1.2917818    1.8499308    4.6224322 
 7380000   0.92070124 2.0463662e-05   0.49169159  0.038396087            0    0.4532955    1.3637887    1.8554803    2.9032198 
 7385000   0.93117392 -1.4751156e-05   0.48324684  0.027927544            0    0.4553193    1.3793014    1.8625482     1.107289 
 7390000   0.88547904 -1.6824866e-05   0.57734433  0.080550824            0    0.4967935    1.3116158    1.8889601     1.027527 
 7395000   0.92863283 -1.5992842e-05   0.49718285  0.052328865            0   0.44485398    1.3755374    1.8727202    1.0538867 
 7400000   0.85573773 1.3662956e-05   0.60894688  0.036556279            0    0.5723906    1.2675615    1.8765084    2.5760517 
 7405000   0.92044776 6.8810738e-05   0.50809386  0.074514531            0   0.43357933    1.3634133    1.8715071    5.3946169 
 7410000   0.99277815 8.6985853e-05   0.42524341  0.027124641            0   0.39811877    1.4705526     1.895796    6.3494717 
 7415000    0.9764018 7.351864e-06    0.4318044  0.024114865            0   0.40768953    1.4462952    1.8780996     2.254515 
 7420000   0.93860668 -0.00017238046   0.47837475  0.014605483            0   0.46376927    1.3903112    1.8686859   -6.9571937 
 7425000   0.94134678 -0.0001677878   0.47899907 0.0098460141            0   0.46915305    1.3943699     1.873369   -6.7173661 
 7430000   0.89908118 -1.0647924e-06   0.52154022  0.031998125            0    0.4895421     1.331764    1.8533042    1.7987868 
 7435000   0.91965544 9.9806769e-06   0.49067571  0.048433428            0   0.44224228    1.3622396    1.8529153     2.363926 
 7440000   0.94537323 -0.00013478296    0.4831133  0.067899404            0    0.4152139    1.4003341    1.8834474   -5.0174401 
 7445000   0.85583667 -9.4655154e-05    0.6237031   0.10858962            0   0.51511348    1.2677081    1.8914112   -2.9549327 
 7450000    0.9291408 4.2218093e-05   0.52605832 0.0073757705            0   0.51868255    1.3762898    1.9023481    4.0639145 
 7455000   0.94170841 4.830304e-05   0.51210497  0.010094403            0   0.50201057    1.3949056    1.9070106    4.3801262 
 7460000   0.97870933 1.3565618e-05   0.43190319  0.019291409            0   0.41261179    1.4497132    1.8816164     2.576176 
 7465000   0.98250259 2.354011e-05   0.43531458  0.011534329            0   0.42378025     1.455332    1.8906465    3.0959002 
 7470000     1.042648 0.00013195502   0.36399499 0.0065422711            0   0.35745272    1.5444224    1.9084174    8.6645145 
 7475000   0.97804407 8.2914621e-05   0.47093953  0.010064945            0   0.46087458    1.4487278    1.9196673    6.1648959 
 7480000   0.96465484 -8.8431395e-05   0.50440583  0.024568854            0   0.47983697     1.428895    1.9333008   -2.5943866 
 7485000   0.95649989 1.6485872e-05   0.50504362  0.049327165            0   0.45571646    1.4168155    1.9218591    2.7659357 
 7490000    0.9028467 9.2572795e-05   0.59131721   0.11974246            0   0.47157474    1.3373417    1.9286589     6.668386 
 7495000    1.0089043 7.2856741e-05   0.42526778    0.0212869            0   0.40398088    1.4944395    1.9197072    5.6499724 
 7500000   0.93723747 -7.4162956e-05    0.5296986  0.066370398            0    0.4633282     1.388283    1.9179816   -1.8791617 
 7505000   0.98080879 -6.651795e-06   0.45696677  0.026475324            0   0.43049145     1.452823    1.9097898    1.5692179 
 7510000    1.0166596 0.00014246926   0.42977884    0.0143277            0   0.41545114     1.505927    1.9357058    9.2301319 
 7515000    1.0013947 1.811403e-05    0.4644534 0.0078447422            0   0.45660866    1.4833159    1.9477693    2.8752076 
 7520000     1.003466 4.2652331e-05   0.45285912 0.0033692494            0   0.44948987    1.4863839    1.9392431    4.1230424 
 7525000   0.95507629 0.0001395019   0.52369709  0.002811582            0   0.52088551    1.4147068    1.9384038    9.0809013 
 7530000    1.0455571 2.6612021e-06   0.35628587  0.026473845            0   0.32981203    1.5487314    1.9050173    2.0412708 
 7535000   0.98581607 -0.00011009487   0.43581384  0.040614436            0    0.3951994    1.4602401    1.8960539   -3.7408033 
 7540000    0.9158576 -5.1142739e-05   0.55489285  0.043131758            0   0.51176109    1.3566141    1.9115069  -0.70700131 
 7545000    0.9277006 -1.2987438e-05    0.5450883  0.035517766            0   0.50957053    1.3741565    1.9192448     1.254288 
 7550000   0.98052162 -2.7082336e-05   0.48840696  0.016232408            0   0.47217455    1.4523977    1.9408046   0.55418902 
 7555000   0.96172539 5.9234205e-05   0.50126841 0.0085457739            0   0.49272264    1.4245557    1.9258241    4.9586154 
 7560000    0.9381823 -3.5573786e-06   0.54411617 0.0095616018            0   0.53455457    1.3896825    1.9337987    1.7516609 
 7565000    1.0150715 -6.5386135e-07   0.42433249  0.019216303            0   0.40511618    1.5035747    1.9279071    1.8944294 
 7570000   0.98855069 5.5100068e-06    0.4318108  0.016093249            0   0.41571755    1.4642907    1.8961015    2.1782139 
 7575000   0.93482297 1.5141961e-05   0.51530773  0.020146841            0   0.49516089    1.3847065    1.9000143    2.6752826 
 7580000   0.97452459 1.471425e-05   0.44238909  0.074211464            0   0.36817762    1.4435146    1.8859036    2.6392733 
 7585000   0.94205938 -7.9712626e-05    0.5028659  0.030247692            0    0.4726182    1.3954255    1.8982914   -2.1829951 
 7590000   0.97528004 3.5201768e-06   0.44947193  0.041690307            0   0.40778162    1.4446336    1.8941055    2.0743385 
 7595000   0.93024187 7.0011208e-05   0.53300229  0.010083758            0   0.52291853    1.3779208    1.9109231    5.4954969 
 7600000    0.9823782 -4.7153356e-05   0.45767957 0.00066129367            0   0.45701827    1.4551477    1.9128273  -0.50142454 
 7605000    1.0148635 -1.5465414e-05   0.37126195 0.0013094173            0   0.36995253    1.5032665    1.8745284    1.0826992 
 7610000   0.91601651 -2.6333945e-05   0.52037698  0.004140072            0   0.51623691    1.3568495    1.8772264   0.52892846 
 7615000   0.92202265 7.4517464e-05   0.50602311 0.0025716223            0   0.50345149    1.3657461    1.8717692    5.6870633 
 7620000   0.96597709 5.926236e-05   0.43610816 0.0047623119            0   0.43134585    1.4308536    1.8669617    4.9011946 
 7625000   0.96703477 0.00015650905   0.44928712  0.013034115            0   0.43625301    1.4324203    1.8817074     9.894971 
 7630000   0.88919832 8.3759486e-06   0.54524046   0.01591483            0   0.52932563     1.317125    1.8623655     2.291214 
 7635000   0.95251864 -3.8697879e-05   0.44158041   0.02591807            0   0.41566234    1.4109182    1.8524986  -0.12883278 
 7640000   0.97360273 -0.00012045091   0.41852621  0.011148927            0   0.40737728     1.442149    1.8606752   -4.3064113 
 7645000   0.91784255 1.1794636e-05   0.51665037  0.012416485            0   0.50423389    1.3595543    1.8762047      2.48009 
 7650000     0.930116 -0.00013446083   0.50083116  0.022974931            0   0.47785623    1.3777343    1.8785655    -5.005829 
 7655000   0.91754774 7.4648071e-06   0.50941602  0.019810827            0   0.48960519    1.3591176    1.8685336    2.2507317 
 7660000   0.94812082 5.1214389e-05   0.48170269 0.0035183275            0   0.47818437     1.404404    1.8861067    4.5082834 
 7665000   0.95853578 0.0001202397   0.47689524  0.021176095            0   0.45571915    1.4198311    1.8967264     8.052999 
 7670000   0.99517797 -3.8809292e-05    0.3939414  0.022279231            0   0.37166217    1.4741074    1.8680488  -0.11898697 
 7675000   0.99527129 5.4927618e-05    0.3676935 0.00069385369            0   0.36699965    1.4742456    1.8419391    4.6542332 
 7680000   0.93679273 4.2396938e-05   0.42138356 0.00086140634            0   0.42052215    1.3876242    1.8090078     3.979731 
 7685000   0.90567824 -5.6777937e-05   0.45755723 0.0055613387            0   0.45199589    1.3415359    1.7990931   -1.1079372 
 7690000    0.8970683 9.4722981e-05   0.47167219  0.030324338            0   0.44134786    1.3287824    1.8004546    6.6502712 
 7695000   0.90727449 -2.1840583e-05    0.4498435  0.016369246            0   0.43347426    1.3439003    1.7937438     0.675506 
 7700000   0.92517834 6.5436416e-06   0.41855966 0.0039943575            0    0.4145653    1.3704204    1.7889801    2.1240145 
 7705000   0.95820979 8.7124417e-06   0.38363571   0.03058936            0   0.35304635    1.4193483     1.802984     2.249061 
 7710000   0.89986634 8.164309e-06   0.48579955  0.060956812            0   0.42484274     1.332927    1.8187266    2.2367392 
 7715000   0.97070963 0.00012911404   0.40404507    0.0376057            0   0.36643937    1.4378636    1.8419087    8.4525475 
 7720000   0.99752571 -3.7583526e-05   0.37687226  0.012986843            0   0.36388542     1.477585    1.8544572  -0.06981931 
 7725000   0.93672749 -1.7275172e-05   0.45349307  0.012740607            0   0.44075246    1.3875276    1.8410207   0.95653184 
 7730000   0.90678572 -8.771005e-05    0.4817796  0.041935473            0   0.43984413    1.3431764     1.824956   -2.6657986 
 7735000   0.93144919 -4.4267067e-05   0.43594357  0.026052466            0    0.4098911    1.3797091    1.8156527  -0.45082116 
 7740000   0.90981577 5.388129e-05   0.44262748  0.016535575            0    0.4260919    1.3476646    1.7902921    4.5490142 
 7745000   0.85724121 -8.5827226e-05   0.50147813 0.0096303327            0   0.49184779    1.2697885    1.7712667   -2.6230873 
 7750000   0.96719414 -4.061064e-05   0.34878256  0.018561851            0   0.33022071    1.4326563    1.7814389  -0.29782588 
 7755000    0.8935246  -1.1399e-05   0.45822952  0.015012922            0   0.44321659    1.3235333    1.7817628     1.198134 
 7760000   0.85129325 -6.8297326e-05    0.5171527    0.0240463            0    0.4931064    1.2609781    1.7781308   -1.7186923 
 7765000   0.92407125 -3.2561125e-05   0.42907519  0.065344925            0   0.36373027    1.3687805    1.7978557   0.13072614 
 7770000   0.91399781 -1.1055289e-05   0.45917515   0.03146052            0   0.42771463    1.3538593    1.8130344    1.2470036 
 7775000   0.93321732 -0.00010934312   0.46254623 0.0061325573            0   0.45641368    1.3823282    1.8448744   -3.7534934 
 7780000   0.89266117 -0.00011145177   0.52408749  0.017032571            0   0.50705492    1.3222544    1.8463419   -3.8599886 
 7785000   0.95167862 -1.0921606e-05   0.44535864  0.022106996            0   0.42325165     1.409674    1.8550326    1.2958464 
 7790000   0.99782255 2.6431529e-05   0.38019454 0.0030661306            0   0.37712841    1.4780247    1.8582192    3.2115135 
 7795000    1.0402424 0.00010615239   0.32969369 0.0015714386            0   0.32812225    1.5408591    1.8705528    7.3055551 
 7800000   0.96975298 1.3053584e-05   0.44974509  0.010126419            0   0.43961867    1.4364466    1.8861917    2.5545352 
 7805000   0.99917752 -6.2363009e-05   0.42741931  0.018196315            0   0.40922299    1.4800317     1.907451    -1.285535 
 7810000   0.93113942 3.8350048e-05   0.53049731  0.048102738            0   0.48239457    1.3792503    1.9097476      3.87327 
 7815000   0.91794553 -2.3142406e-05    0.5617612  0.036512511            0   0.52524869    1.3597068     1.921468   0.73657686 
 7820000   0.98943289 -4.905176e-05   0.46494497  0.030357039            0   0.43458793    1.4655975    1.9305424  -0.58090767 
 7825000    1.0515183 -1.1148618e-05    0.4030852  0.021230065            0   0.38185513    1.5575615    1.9606467    1.3898374 
 7830000   0.98577485 -6.999953e-05   0.54198471  0.093743184            0   0.44824153     1.460179    2.0021637   -1.5818122 
 7835000   0.99055677 0.0001093373   0.53712525  0.099550434            0   0.43757482    1.4672622    2.0043875    7.6024572 
 7840000    1.0182951 0.00012804417   0.45321669  0.021479577            0   0.43173711    1.5083496    1.9615663    8.5174276 
 7845000    1.0683982 5.9532276e-05   0.37808602 0.0068655774            0   0.37122045    1.5825649    1.9606509    5.0087034 
 7850000    1.0555938 4.4178227e-05    0.3938166  0.018548185            0   0.37526842    1.5635983    1.9574149    4.2193401 
 7855000    1.0287068 7.8557558e-05   0.41658039  0.020112018            0   0.39646837     1.523772    1.9403523    5.9624993 
 7860000   0.97833149 6.4464095e-05   0.49172085 0.0097156603            0   0.48200519    1.4491535    1.9408744     5.241436 
 7865000   0.99104484 4.6179763e-05   0.45386548  0.010102348            0   0.44376313    1.4679852    1.9218507    4.2862545 
 7870000   0.98284856 5.0179663e-05   0.45979952  0.029451216            0    0.4303483    1.4558444    1.9156439    4.4848427 
 7875000   0.98973086 8.7084677e-06   0.45665373 0.0094263774            0   0.44722735    1.4660388    1.9226926    2.3685661 
 7880000    1.0142256 4.9203795e-05   0.41861071  0.037550875            0   0.38105983    1.5023217    1.9209324    4.4401667 
 7885000   0.98836324 7.0359723e-05   0.46216992  0.091466618            0   0.37070331     1.464013     1.926183    5.5286008 
 7890000   0.97266784 -9.2467729e-05   0.45442935  0.017137304            0   0.43729205    1.4407642    1.8951936   -2.8391541 
 7895000   0.94174907 -0.00015736633   0.49744315  0.024802876            0   0.47264028    1.3949658     1.892409   -6.1647471 
 7900000    0.9989312 2.6238225e-05   0.42932997  0.035688157            0   0.39364181    1.4796668    1.9089968    3.2523939 
 7905000   0.91019834 0.00014267886   0.54786475  0.015951672            0   0.53191308    1.3482313     1.896096    9.2012537 
 7910000   0.96988107 -1.4996287e-06   0.44242069  0.014527256            0   0.42789343    1.4366363     1.879057     1.802276 
 7915000   0.99807211 -9.4356896e-06   0.39209595  0.028798499            0   0.36329745    1.4783943    1.8704903    1.3873829 
 7920000   0.94087164 1.3398428e-05   0.48462898  0.042042347            0   0.44258664    1.3936661    1.8782951    2.5642946 
 7925000   0.96357689 5.7705861e-05   0.44738955  0.025225429            0   0.42216412    1.4272983    1.8746878    4.8292279 
 7930000    1.0403446 7.7740932e-05   0.34877206  0.014233671            0   0.33453838    1.5410104    1.8897825    5.8701182 
 7935000   0.90686349 -1.5881589e-05   0.53987626  0.021966858            0   0.51790941    1.3432915    1.8831678    1.0700304 
 7940000   0.98205262 5.7646148e-05   0.44646787 0.0077194967            0   0.43874838    1.4546654    1.9011333    4.8526161 
 7945000    1.0216769 1.3253489e-05    0.3904828 7.0558201e-05            0   0.39041224     1.513359    1.9038418    2.5824204 
 7950000   0.99440486 -0.00010112114   0.45706694            0            0   0.45706694    1.4729622    1.9300291   -3.2473733 
 7955000    1.0378658 -5.1756411e-05   0.42279689 0.0010521393            0   0.42174475    1.5373386    1.9601355  -0.68979271 
 7960000    1.0109928 -0.00010423595   0.46093712 0.0061353824            0   0.45480174     1.497533    1.9584701   -3.3784106 
 7965000    1.0244146 -0.00011678978   0.46556509  0.014697903            0   0.45086719    1.5174142    1.9829793   -3.9966575 
 7970000    1.0464389 5.0339964e-05    0.4487353  0.018299936            0   0.43043536    1.5500377     1.998773    4.5761791 
 7975000    1.0198792 3.3939504e-05   0.45709987  0.024316818            0   0.43278306    1.5106961     1.967796    3.7054986 
 7980000    1.0187609 -2.9052983e-05   0.47571151  0.024606993            0   0.45110452    1.5090396    1.9847511   0.49723837 
 7985000    1.0245851 0.00014440258   0.49594189  0.011883278            0   0.48405861    1.5176668    2.0136086    9.4070207 
 7990000    1.0949907 4.8979391e-05   0.41260331 0.00021169227            0   0.41239162    1.6219549    2.0345582    4.5423031 
 7995000    1.0890221 1.2557983e-05   0.46402964 0.0015485416            0    0.4624811     1.613114    2.0771436    2.7201123 
 8000000    1.0533716 0.00010438375   0.53909068  0.026575111            0   0.51251557    1.5603066    2.0993973    7.4438455 
 8005000    1.1171201 -1.6974176e-06   0.43909568  0.024218537            0   0.41487715    1.6547342    2.0938299    2.0069221 
 8010000    1.1019234 7.9348265e-06   0.46574488  0.015619196            0   0.45012568    1.6322241     2.097969    2.5042321 
 8015000    1.0850155 8.5126093e-05     0.525314  0.016504025            0   0.50880998    1.6071793    2.1324933    6.4909492 
 8020000    1.1363879 -5.4417437e-05   0.44593201 0.0077071142            0   0.43822489    1.6832746    2.1292066  -0.65696617 
 8025000    1.0558545 -9.9180345e-05   0.56602282  0.013251743            0   0.55277108    1.5639846    2.1300074   -2.9480263 
 8030000    1.1707696 0.00010685511   0.44863988  0.010261572            0   0.43837831    1.7342024    2.1828423    7.6538239 
 8035000     1.171136 0.00011380911   0.42809947 0.0037418097            0   0.42435766    1.7347453    2.1628447    7.9898711 
 8040000    1.1548481 7.7444558e-05   0.48875039  0.025129083            0   0.46362131    1.7106187    2.1993691    6.1645305 
 8045000     1.116711 -1.2455227e-05   0.53424114  0.010762675            0   0.52347847    1.6541281    2.1883693    1.5506617 
 8050000    1.1882048 -2.5611202e-05   0.43918709  0.019941575            0   0.41924551    1.7600284    2.1992155   0.88792194 
 8055000     1.200955 5.5895418e-05   0.46417105  0.037594959            0   0.42657609    1.7789146    2.2430856     5.104931 
 8060000    1.2277084 6.8797509e-05   0.43151617   0.01602608            0   0.41549009     1.818543    2.2500592    5.7724916 
 8065000    1.2196335 4.6503933e-05   0.44806035  0.028139104            0   0.41992124    1.8065821    2.2546424    4.6356438 
 8070000    1.0767715 -1.2500568e-05   0.63059052   0.04750011            0   0.58309041    1.5949678    2.2255583    1.5855292 
 8075000    1.1980294 3.0803216e-05   0.45946272  0.061733995            0   0.39772872    1.7745811    2.2340438    3.8111685 
 8080000    1.1841818 3.2663862e-05   0.49097627  0.034031069            0    0.4569452    1.7540693    2.2450456    3.9174353 
 8085000    1.1629385 1.1925326e-05   0.53194937  0.028548416            0   0.50340096    1.7226027    2.2545521    2.8651288 
 8090000    1.2241094 -1.4575393e-05    0.4625462  0.015255483            0   0.44729072     1.813212    2.2757582    1.5294981 
 8095000    1.2106614 -2.2970846e-05   0.48156009  0.012375204            0   0.46918488    1.7932923    2.2748523     1.098745 
 8100000     1.148729 -2.3091161e-05   0.59626002  0.027683237            0   0.56857679    1.7015548    2.2978148    1.1155474 
 8105000     1.153599 7.422787e-05   0.57967461  0.092847852            0   0.48682675    1.7087686    2.2884432    6.0889101 
 8110000    1.2192197 -8.7337888e-05   0.48072047  0.031975289            0   0.44874518    1.8059692    2.2866896   -2.1850103 
 8115000    1.2095814 -1.0784742e-05   0.51519312  0.035192774            0   0.48000035    1.7916924    2.3068855    1.7547067 
 8120000    1.2418378 3.1905436e-05   0.48597468  0.040760944            0   0.44521373    1.8394722    2.3254469    3.9590053 
 8125000    1.2316403 1.7647618e-05   0.49704412   0.01820767            0   0.47883645    1.8243672    2.3214113    3.2249694 
 8130000    1.2538523 2.5862822e-05   0.42839329  0.020445618            0   0.40794767    1.8572688    2.2856621    3.6098385 
 8135000    1.1558464 -1.3218187e-05   0.56854574  0.015144269            0   0.55340147    1.7120975    2.2806432     1.603872 
 8140000    1.2104973 -3.5567841e-05   0.49059166 0.0085784505            0   0.48201321    1.7930491    2.2836407   0.46256728 
 8145000    1.2029097 -3.6468462e-05   0.48039323  0.019353738            0   0.46103949    1.7818101    2.2622033   0.39501803 
 8150000    1.1865052 8.2893934e-05   0.52799687  0.017878828            0   0.51011804    1.7575109    2.2855078    6.5296772 
 8155000    1.1885708 0.00012459034   0.51873606  0.023360317            0   0.49537575    1.7605705    2.2793066    8.6583319 
 8160000    1.2048781 2.275317e-05   0.47868296  0.068105238            0   0.41057772    1.7847257    2.2634087     3.428371 
 8165000    1.2044264 1.7088605e-05   0.49721997  0.019384665            0   0.47783531    1.7840566    2.2812766    3.1562131 
 8170000    1.2114481 4.8858185e-05   0.50624354  0.045488621            0   0.46075492    1.7944576    2.3007011    4.8022402 
 8175000    1.2518349 2.8427755e-05   0.44844972  0.056684929            0   0.39176479    1.8542805    2.3027302    3.7582312 
 8180000    1.2484477 -3.6621927e-05   0.43886776  0.045037172            0   0.39383059    1.8492632     2.288131    0.4130883 
 8185000    1.2295814 -5.2968224e-05   0.43971614  0.062960301            0   0.37675584    1.8213175    2.2610337  -0.45093943 
 8190000     1.153142 -7.4025662e-05   0.57159189  0.029096757            0   0.54249513    1.7080916    2.2796835   -1.5104304 
 8195000    1.2114391 -0.00013940827   0.45847117  0.009979138            0   0.44849203    1.7944441    2.2529153   -4.8847879 
 8200000    1.2340124 -0.00013453974   0.42270605  0.025948904            0   0.39675714    1.8278809    2.2505869   -4.6378476 
 8205000    1.1607366 -2.305942e-06   0.51479923  0.041100878            0   0.47369835    1.7193411    2.2341404    2.1160761 
 8210000    1.1505907 -1.5411487e-05   0.54511939  0.043176084            0   0.50194331    1.7043125    2.2494319    1.4603637 
 8215000    1.1712814 -3.5124328e-06   0.52144821   0.06299985            0   0.45844836    1.7349605    2.2564087    2.0765722 
 8220000     1.214205 5.4982994e-05   0.47235026  0.027066996            0   0.44528326    1.7985412    2.2708914    5.0860207 
 8225000    1.1162486 -1.9912011e-05   0.60457209  0.031752249            0   0.57281984    1.6534432    2.2580153    1.2385203 
 8230000    1.1290935 5.1457172e-06   0.55976345   0.05721766            0   0.50254579    1.6724697    2.2322332    2.4956939 
 8235000    1.1761733 -1.8118318e-05   0.48597142  0.056367769            0   0.42960365    1.7422067    2.2281781    1.3005202 
 8240000    1.2181455 -1.7286317e-05   0.39855227   0.04151362            0   0.35703865     1.804378    2.2029303    1.3178708 
 8245000    1.1461567 6.6098889e-05   0.48305761 0.0077715207            0   0.47528609    1.6977446    2.1808022    5.5650653 
 8250000    1.1200151 -1.3978846e-05   0.54977927  0.013577157            0   0.53620211    1.6590224    2.2088017    1.4930848 
 8255000    1.1005462 8.8399492e-06   0.56882382  0.036964382            0   0.53185943    1.6301841    2.1990079    2.6516133 
 8260000    1.0302852 3.5301979e-05   0.66103713  0.046518992            0   0.61451814      1.52611    2.1871471    3.9946085 
 8265000    1.1166676 4.3426796e-05    0.5378862  0.019893807            0    0.5179924    1.6540638      2.19195     4.415402 
 8270000    1.0635442 1.8992326e-05   0.60062966  0.025501332            0   0.57512833    1.5753749    2.1760046    3.1484116 
 8275000     1.131619 6.1669283e-05   0.46742599  0.035671176            0   0.43175481    1.6762107    2.1436367     5.301104 
 8280000    1.1176831 5.0689094e-05   0.47699065  0.045129719            0   0.43186093    1.6555681    2.1325587    4.7278404 
 8285000    1.1070298 -0.00011648502   0.49028097  0.024271305            0   0.46600967    1.6397879    2.1300689   -3.8339642 
 8290000    1.1445938 -0.00014021957   0.44666213  0.035683106            0   0.41097902    1.6954295    2.1420917   -5.0371502 
 8295000    1.1285993 4.513703e-05   0.50508819   0.01844971            0   0.48663848    1.6717376    2.1768258    4.4878418 
 8300000    1.1461599 -1.7614421e-05   0.47157592  0.010274337            0   0.46130158    1.6977493    2.1693252    1.2674668 
 8305000    1.0901943 3.3766922e-06   0.55663933  0.039838508            0   0.51680082    1.6148503    2.1714896    2.3443762 
 8310000    1.0929074 8.3358494e-05    0.5488712  0.046196902            0    0.5026743    1.6188691    2.1677403    6.4356952 
 8315000    1.1291948 5.3903069e-05   0.47662444  0.045817723            0   0.43080672    1.6726197    2.1492442    4.9090813 
 8320000    1.1727609 -7.8303189e-05   0.44823958 0.0099883861            0    0.4382512    1.7371521    2.1853916   -1.8237316 
 8325000    1.0915178 -0.0001099728   0.56899577 0.0094244372            0   0.55957133    1.6168108    2.1858066   -3.4448006 
 8330000    1.1107577 -3.9107069e-05   0.54770421  0.010471064            0   0.53723315    1.6453099    2.1930141   0.19073214 
 8335000    1.1293394 -1.1987802e-05   0.52056283  0.036457774            0   0.48410506    1.6728339    2.1933968    1.5796213 
 8340000    1.0689438 4.4137434e-05   0.61172148  0.048035632            0   0.56368585     1.583373    2.1950944    4.4549311 
 8345000     1.136535 8.5221075e-05   0.51340098  0.086338775            0   0.42706221    1.6834925    2.1968935    6.5602126 
 8350000   0.99978775 0.00012533512   0.65105782   0.12069543            0   0.53036239    1.4809356    2.1319934    8.5491515 
 8355000    1.0975316 0.00017891416   0.52150399  0.073867645            0   0.44763635    1.6257186    2.1472226    11.307628 
 8360000    1.0559408 0.00010971114   0.58213936  0.020573876            0   0.56156548    1.5641123    2.1462516    7.7634622 
 8365000    1.0803574 9.7664479e-05   0.51257461  0.022514261            0   0.49006035    1.6002793    2.1128539    7.1132753 
 8370000    1.1307671 -8.3208006e-06   0.45717536  0.016545379            0   0.44062998    1.6749488    2.1321242    1.7060992 
 8375000     1.102094 -8.1090476e-05   0.49879637  0.014885416            0   0.48391095    1.6324767    2.1312731   -2.0205593 
 8380000    1.1455783 -3.5915945e-05   0.44167421  0.023055352            0   0.41861885    1.6968878    2.1385621   0.29966565 
 8385000    1.0945977 2.055718e-06   0.50785384  0.024508578            0   0.48334526    1.6213729    2.1292267    2.2344795 
 8390000    1.0338488 -2.1273428e-05   0.60209546  0.074551529            0   0.52754394    1.5313885     2.133484    1.0442845 
 8395000    1.0654925 -4.5811115e-05   0.54152394  0.081195595            0   0.46032834    1.5782608    2.1197847  -0.22574435 
 8400000    1.1788176 0.00010784013   0.39836975  0.026054677            0   0.37231508    1.7461235    2.1444933    7.6659078 
 8405000    1.1371272 7.3245594e-05   0.43952398  0.016809034            0   0.42271494    1.6843696    2.1238936     5.874068 
 8410000    1.0843363 -0.0001138211   0.52203385 0.0080367671            0   0.51399708    1.6061731     2.128207   -3.6994334 
 8415000    1.1267137 -5.2219991e-05   0.45905594  0.023390681            0   0.43566526    1.6689447    2.1280006  -0.54566295 
 8420000    1.0496178 3.6707978e-05    0.5355616  0.039309489            0   0.49625211    1.5547464     2.090308    3.9697565 
 8425000    1.0421086 0.00015134916   0.53405459  0.036663712            0   0.49739088    1.5436233    2.0776779    9.8267551 
 8430000    1.0638822  1.49892e-05   0.48598371  0.031902225            0   0.45408149    1.5758756    2.0618593    2.8293063 
 8435000    1.1197703 9.6477023e-06   0.42625348  0.054176459            0   0.37207702    1.6586598    2.0849133    2.5788757 
 8440000    1.1513905 4.2997186e-06   0.38642958  0.013909793            0   0.37251979    1.7054971    2.0919267    2.3120723 
 8445000    1.0772611 -4.8968143e-05   0.49784319   0.01685556            0   0.48098763     1.595693    2.0935362  -0.41363269 
 8450000    1.0704304 4.262366e-05   0.51246682  0.050404114            0   0.46206271     1.585575    2.0980418    4.2803732 
 8455000    1.0947939 1.8884284e-05   0.43644581  0.026760976            0   0.40968483    1.6216634    2.0581092    3.0249846 
 8460000    1.0492328 -0.00013795347   0.50108241  0.020566382            0   0.48051603     1.554176    2.0552584   -5.0079591 
 8465000    1.0805261 -7.0962976e-05   0.43591499  0.031050917            0   0.40486407    1.6005293    2.0364443   -1.5968601 
 8470000    1.1153878 1.5287116e-05   0.39502122  0.057680253            0   0.33734096    1.6521682    2.0471894    2.8298897 
 8475000    1.0510695 -4.2428198e-05   0.48309759  0.050475855            0   0.43262173    1.5568967    2.0399942   -0.1323295 
 8480000    1.0817552 -7.8498883e-05   0.46898102   0.01866314            0   0.45031788      1.60235     2.071331   -1.9478118 
 8485000    1.0600497 -6.0869707e-05   0.47940151  0.013018033            0   0.46638347    1.5701986    2.0496001   -1.0669289 
 8490000    1.0841129 1.1911132e-05   0.43128747  0.022727322            0   0.40856015    1.6058423    2.0371297    2.6469797 
 8495000    1.1144154 3.5233299e-05   0.36558031  0.026834223            0   0.33874609    1.6507278    2.0163081     3.820253 
 8500000   0.96182803 -0.00010547733   0.60740883  0.019504895            0   0.58790393    1.4247078    2.0321166   -3.3683227 
 8505000    1.0996908 -9.9905484e-05   0.42758163  0.023419961            0   0.40416167     1.628917    2.0564987   -3.0586621 
 8510000    1.1081689 2.6692417e-05   0.40593005  0.016989909            0   0.38894014    1.6414752    2.0474052     3.414057 
 8515000   0.99265365 -1.1150794e-05   0.62176126  0.037256099            0   0.58450516    1.4703682    2.0921295    1.5212088 
 8520000    1.0886396 8.5389758e-05   0.47635414  0.037968088            0   0.43838605    1.6125473    2.0889015    6.4608571 
 8525000    1.1288069 -9.0181136e-06   0.42886416  0.024569264            0   0.40429489    1.6720453    2.1009094     1.639182 
 8530000    1.1325968 -6.7474992e-05   0.40975446  0.004106226            0   0.40564823    1.6776591    2.0874135   -1.3673061 
 8535000    1.0757607 8.1003906e-05   0.50444952  0.014696531            0   0.48975299    1.5934706    2.0979201    6.2453201 
 8540000    1.0192642 2.5466495e-06   0.55574335  0.024837524            0   0.53090583    1.5097851    2.0655284    2.1959169 
 8545000     1.062553 1.7828227e-05    0.4705528  0.024655766            0   0.44589703    1.5739067    2.0444595    2.9572647 
 8550000    1.0387002 9.7038493e-05   0.53821991  0.057820048            0   0.48039987    1.5385747    2.0767946    7.0451655 
 8555000    1.0362954 -5.1097391e-05    0.5353706  0.016468098            0   0.51890251    1.5350126    2.0703832  -0.54580322 
 8560000    1.0455353 -9.5245811e-05   0.50115668 0.0092635147            0   0.49189316    1.5486991    2.0498558   -2.8267297 
 8565000    1.0674691 4.5241933e-05   0.49919887  0.055714626            0   0.44348424    1.5811887    2.0803875    4.3967745 
 8570000    1.0920773 -4.2195691e-05   0.46022624  0.030639833            0    0.4295864    1.6176395    2.0778657 -0.082553664 
 8575000    1.0635809 -4.8941178e-05   0.49813143  0.017361736            0    0.4807697    1.5754292    2.0735607  -0.43222765 
 8580000    1.0347094 -7.8404658e-05   0.55770981  0.031938759            0   0.52577105    1.5326632    2.0903731   -1.9239454 
 8585000    1.1471137 -3.7255372e-06   0.36203321  0.018616453            0   0.34341675    1.6991621    2.0611953    1.8704478 
 8590000    1.0573943 3.3597229e-05   0.49459364  0.015141358            0   0.47945229    1.5662654     2.060859    3.7810371 
 8595000    1.0893462 8.6871868e-05   0.48105816  0.043867561            0    0.4371906    1.6135941    2.0946522    6.5424919 
 8600000    1.0437835 0.00011104539   0.57007113  0.040451451            0   0.52961967    1.5461043    2.1161754    7.8016996 
 8605000    1.1056188 5.0665349e-05   0.49807272  0.020054517            0    0.4780182    1.6376979    2.1357706    4.7298364 
 8610000    1.1219174 6.5622981e-06   0.50735718  0.011844425            0   0.49551276    1.6618401    2.1691973    2.5051869 
 8615000    1.0797457 -3.7816743e-05   0.61282933 0.0086699543            0   0.60415938    1.5993733    2.2122026    0.2759854 
 8620000    1.1720403 -1.9063587e-05   0.46849234  0.010584084            0   0.45790826    1.7360847     2.204577    1.2285214 
 8625000    1.1816945 -2.4764778e-05   0.44196573   0.02268237            0   0.41928336    1.7503849    2.1923507   0.92439404 
 8630000    1.0825777 -5.293919e-05   0.60608188  0.041700386            0    0.5643815    1.6035682    2.2096501  -0.50083649 
 8635000    1.1103815 -7.8436483e-05   0.57984188  0.020324388            0    0.5595175    1.6447526    2.2245945   -1.7913535 
 8640000    1.1286391 -0.00013363239   0.56208612  0.053714981            0   0.50837114    1.6717967    2.2338828   -4.6080958 
 8645000    1.1527041 -0.00014905046   0.53145492  0.027973712            0   0.50348121     1.707443    2.2388979   -5.3924854 
 8650000    1.1801087 8.3738426e-05   0.52064601  0.077994247            0   0.44265176    1.7480359     2.268682    6.5560893 
 8655000    1.1122134 0.00010696754   0.61853381  0.035546423            0   0.58298739    1.6474661    2.2659999     7.742738 
 8660000    1.1585155 -2.9482708e-06   0.57783188   0.11956943            0   0.45826245     1.716051    2.2938829    2.1429314 
 8665000    1.1696742 -2.4911723e-05   0.54338571  0.050489652            0   0.49289606      1.73258    2.2759657    1.0004854 
 8670000    1.2311252 -9.289814e-05   0.45587336  0.026841433            0   0.42903193    1.8236041    2.2794775   -2.4769073 
 8675000    1.2374271 -2.4206168e-05    0.4400017  0.029268962            0   0.41073273    1.8329388    2.2729405    1.0335847 
 8680000      1.22185 9.4203582e-05   0.45594044  0.062811236            0   0.39312921    1.8098653    2.2658058    7.0890292 
 8685000      1.16799 8.4047246e-05   0.50823869  0.040133441            0   0.46810525    1.7300852    2.2383239    6.5415429 
 8690000    1.1787779 1.2327329e-05    0.4819208  0.028637643            0   0.45328315    1.7460648    2.2279856    2.8591448 
 8695000    1.1857475 -4.9966773e-05   0.48759196 0.0073212781            0   0.48027068    1.7563884    2.2439804  -0.31431838 
 8700000    1.1380898 -3.3850271e-05   0.54340317 0.0096506427            0   0.53375252    1.6857956    2.2291988    0.4960649 
 8705000    1.1829549 -6.2008256e-05   0.52424057  0.039948929            0   0.48429164    1.7522519    2.2764925  -0.89833021 
 8710000    1.2634586 6.4239785e-06   0.43621116  0.037146129            0   0.39906503     1.871498    2.3077092    2.6366169 
 8715000    1.2392892 1.7603023e-05   0.45700383  0.036665233            0   0.42033859    1.8356971    2.2927009    3.1939757 
 8720000    1.2204861 -1.2308829e-06   0.46802697 0.0053395117            0   0.46268746    1.8078451     2.275872    2.2128508 
 8725000    1.1709081 -3.7737481e-05   0.53374591 0.0029514614            0   0.53079445    1.7344076    2.2681535   0.33599444 
 8730000    1.2364977 -1.7275429e-05   0.42774264  0.009500377            0   0.41824227    1.8315622    2.2593048    1.3748029 
 8735000    1.1789604 5.3491739e-05   0.50703193  0.025580709            0   0.48145122    1.7463351     2.253367     4.992144 
 8740000    1.2299031 5.3310415e-05   0.42923874  0.066325323            0   0.36291341     1.821794    2.2510327     4.980526 
 8745000    1.2014107 -3.0845831e-06    0.5005424  0.054168341            0   0.44637406    1.7795896     2.280132    2.1222013 
 8750000     1.166502 2.4989528e-05   0.54311351  0.060620189            0   0.48249332    1.7278811    2.2709946    3.5504584 
 8755000     1.127568 1.2535621e-05   0.58420018  0.047119394            0   0.53708079    1.6702101    2.2544103    2.8962341 
 8760000     1.155091 -4.4599229e-05   0.54877186  0.045787438            0   0.50298442    1.7109785    2.2597503 -0.023730178 
 8765000    1.2084696 7.2837922e-06   0.48229099  0.016381903            0   0.46590909    1.7900456    2.2723366    2.6452667 
 8770000    1.1806095 0.00010106553   0.52685378 0.0093946188            0   0.51745916    1.7487778    2.2756316    7.4501867 
 8775000    1.1510044 9.2564947e-05   0.59916824  0.049398815            0   0.54976942    1.7049253    2.3040935    7.0434188 
 8780000    1.2406882 9.2481726e-05    0.4843806  0.028246724            0   0.45613388    1.8377695    2.3221501    7.0572144 
 8785000    1.2697219 2.7824477e-05   0.44329652 0.0061735477            0   0.43712297    1.8807756    2.3240721    3.7486854 
 8790000    1.1798479 -3.7900364e-05   0.54456576  0.012739327            0   0.53182643    1.7476498    2.2922155   0.35171686 
 8795000    1.1728223 -4.0957023e-05   0.52738314  0.070946763            0   0.45643637    1.7372431    2.2646262   0.16762664 
 8800000    1.1744918 2.3697767e-05   0.47997671  0.040551327            0   0.43942539    1.7397159    2.2196926    3.4330183 
 8805000    1.1554318 2.7918405e-05   0.51577635  0.040496188            0   0.47528016    1.7114834    2.2272597    3.6566821 
 8810000    1.1288384 -4.4702878e-07   0.54624233  0.020892888            0   0.52534944    1.6720918    2.2183342    2.1954463 
 8815000    1.2397828 -1.1565813e-05   0.39980847  0.018492894            0   0.38131558    1.8364282    2.2362367    1.6440671 
 8820000    1.1994456 -2.1095841e-05   0.43425152  0.040930649            0   0.39332087    1.7766789    2.2109304    1.1308233 
 8825000    1.1847901 5.7736278e-05    0.4724905  0.015264627            0   0.45722587    1.7549704    2.2274609    5.1835583 
 8830000     1.054865 8.0725964e-05   0.62319562  0.069325278            0   0.55387034    1.5625188    2.1857145    6.3188838 
 8835000    1.1389632 7.0370315e-05   0.50173485  0.068237881            0   0.43349697    1.6870892     2.188824    5.7917842 
 8840000    1.1597502 7.046885e-05   0.46535932 0.0072883033            0   0.45807101      1.71788    2.1832393    5.7912445 
 8845000      1.10196 4.1511191e-05   0.54911775  0.052780796            0   0.49633695    1.6322782     2.181396     4.306769 
 8850000    1.0763097 -3.1230888e-06   0.62020945  0.076819562            0   0.54338989    1.5942837    2.2144932     2.054591 
 8855000    1.0976164 -8.2934941e-05   0.59293901  0.069007049            0   0.52393196    1.6258442    2.2187833   -2.0274857 
 8860000    1.1296725 5.0248188e-05   0.54366245   0.15218829            0   0.39147416    1.6733274    2.2169899    4.7896971 
 8865000    1.0949798 7.3971142e-05   0.56024351   0.06964437            0   0.49059914    1.6219389    2.1821824    5.9695048 
 8870000    1.1274077 -9.1572286e-05   0.48861283  0.077786595            0   0.41082624    1.6699726    2.1585854   -2.5299156 
 8875000    1.0918685 -0.00018512693   0.52890517  0.033995973            0    0.4949092    1.6173302    2.1462354   -7.3322633 
 8880000    1.1097734 -0.00014423663   0.47444305  0.012952861            0   0.46149019    1.6438519    2.1182949   -5.2666206 
 8885000    1.1116737 1.7775352e-06   0.45688058  0.012531191            0   0.44434939    1.6466666    2.1035472     2.194557 
 8890000     1.063873 5.3882242e-05    0.4978436  0.022655933            0   0.47518766    1.5758619    2.0737055    4.8324762 
 8895000     1.106349 3.7839602e-05   0.44837687  0.027907538            0   0.42046933    1.6387795    2.0871563    4.0245439 
 8900000     1.141334 6.1532613e-05   0.41520479  0.025940857            0   0.38926393     1.690601    2.1058058    5.2562755 
 8905000     1.025509 1.6791913e-05   0.59635573    0.0417265            0   0.55462923    1.5190352    2.1153909    2.9751369 
 8910000    1.1070732 -6.6819493e-05   0.47879455  0.058054906            0   0.42073965    1.6398521    2.1186467   -1.3025113 
 8915000    1.1080871 -5.641325e-05   0.49402716  0.058861511            0   0.43516565     1.641354    2.1353812  -0.75297725 
 8920000     1.150322 1.4780439e-05   0.42516992  0.049262374            0   0.37590754    1.7039145    2.1290844    2.8858428 
 8925000    1.0438529 5.0300861e-05   0.57279786  0.025472635            0   0.54732523    1.5462071    2.1190049     4.694409 
 8930000    1.0804371 6.8824736e-06   0.50605848  0.011124953            0   0.49493353    1.6003974    2.1064559    2.4588385 
 8935000     1.160707 5.1541728e-05   0.39440879 0.0074966091            0   0.38691218    1.7192972     2.113706    4.7526425 
 8940000    1.0533788 1.6152641e-05   0.53413367  0.037914117            0   0.49621955    1.5603174     2.094451    2.9214663 
 8945000    1.0553098 -8.0300211e-05   0.52530589  0.022041653            0   0.50326424    1.5631776    2.0884835   -2.0228873 
 8950000    1.1142216  -7.3025e-05   0.42859414  0.010152887            0   0.41844126    1.6504407    2.0790349   -1.6598451 
 8955000    1.0939571 -2.4308602e-05   0.48067129 0.0015811019            0   0.47909018     1.620424    2.1010953   0.85649488 
 8960000    1.1531456 4.5221813e-05   0.40151796 0.0034626646            0    0.3980553    1.7080969    2.1096149    4.4249717 
 8965000    1.1067367 1.7096591e-05   0.47539754 0.0094943629            0   0.46590317    1.6393537    2.1147512    2.9900967 
 8970000    1.0856645 -0.00010953697   0.53640166  0.022757094            0   0.51364456    1.6081406    2.1445422   -3.4637507 
 8975000    1.1237675 -7.6331958e-05   0.48683156  0.022357398            0   0.46447416    1.6645806    2.1514122   -1.7567841 
 8980000    1.1734626 4.9369799e-06   0.41080848  0.028316668            0   0.38249181    1.7381914    2.1489999    2.4017733 
 8985000    1.1173455 -5.1655294e-05   0.47179594  0.024596787            0   0.44719915     1.655068    2.1268639  -0.51788715 
 8990000    1.0953884 -2.4778435e-05   0.51052428  0.028845932            0   0.48167834    1.6225441    2.1330683   0.86441247 
 8995000     1.147397 5.5263013e-05   0.43929023  0.036251803            0   0.40303843    1.6995819    2.1388721    4.9683384 
 9000000    1.1480038 0.00017310521   0.43142015  0.037039938            0   0.39438022    1.7004806    2.1319008    10.994887 
 9005000    1.1309674 0.00012488814   0.45662611  0.039508557            0   0.41711756    1.6752455    2.1318716    8.5261443 
 9010000    1.1554203 1.6931435e-06   0.42149057  0.054494309            0   0.36699626    1.7114664    2.1329569    2.2196459 
 9015000    1.0305028 -0.00016977966   0.58162733  0.044050252            0   0.53757707    1.5264323    2.1080597   -6.5846589 
 9020000    1.1040011 -8.8060662e-05   0.50994414  0.047100537            0   0.46284361    1.6353016    2.1452457   -2.3634602 
 9025000    1.0493276 5.2024185e-05   0.60157866  0.017305976            0   0.58427269    1.5543166    2.1558952    4.8195335 
 9030000    1.0501092 1.2720585e-05   0.55639015  0.025708488            0   0.53068166    1.5554742    2.1118644    2.7631583 
 9035000    1.1432254 3.8875499e-05   0.44257529  0.034738196            0   0.40783709    1.6934026    2.1359779    4.1264035 
 9040000    1.0951763 -2.817357e-05   0.51199874  0.035196599            0   0.47680214    1.6222298    2.1342286   0.69174181 
 9045000    1.0891918 -0.0001073196   0.49271848  0.020164927            0   0.47255355    1.6133653    2.1060838   -3.3886798 
 9050000    1.1034616 -5.0602927e-05   0.46660189 0.0024989309            0   0.46410296    1.6345025    2.1011044  -0.48976542 
 9055000    1.1767628 9.0014986e-05   0.36190565  0.013337856            0   0.34856779    1.7430799    2.1049855    6.7137528 
 9060000    1.1699576 5.2488753e-05   0.39082554  0.013701049            0   0.37712449    1.7329997    2.1238253    4.8112494 
 9065000    1.0316602 -2.3808482e-05   0.58007622  0.023402807            0   0.55667341    1.5281467    2.1082229   0.88922861 
 9070000    1.0477173 -4.1762157e-05    0.5731038  0.034031399            0    0.5390724    1.5519312     2.125035 -0.013187381 
 9075000      1.10972 3.0995549e-05   0.46246473  0.039727258            0   0.42273747    1.6437727    2.1062375    3.6932096 
 9080000    1.1025533 1.3720079e-05   0.46716117  0.012890052            0   0.45427111    1.6331571    2.1003183    2.8027864 
 9085000    1.0372425 4.6495465e-05   0.54111263  0.023777508            0   0.51733512    1.5364155    2.0775281    4.4580959 
 9090000     1.001435 -2.6343685e-06    0.5680554  0.018817924            0   0.54923747    1.4833757    2.0514311    1.9165514 
 9095000    1.0945284 -0.00015492207   0.45554447  0.016742207            0   0.43880226    1.6212702    2.0768147   -5.8551953 
 9100000    1.0889826 -7.6080866e-05   0.44830826  0.006554714            0   0.44175355    1.6130554    2.0613637   -1.8339767 
 9105000    1.1398153 0.00011398682   0.36611499  0.004495576            0   0.36161942    1.6883514    2.0544664    7.8905918 
 9110000    1.0546154 0.00010413776   0.47497532 0.0073109484            0   0.46766437     1.562149    2.0371243    7.3689775 
 9115000    1.0717239 4.7650787e-05   0.47057137  0.024145323            0   0.44642604     1.587491    2.0580623    4.4977826 
 9120000    1.0571144  7.63176e-05    0.5022678  0.053874499            0    0.4483933    1.5658507    2.0681185    5.9755796 
 9125000    1.0405967 -4.7078611e-05   0.51632272  0.029542302            0   0.48678042    1.5413838    2.0577066  -0.35271833 
 9130000    1.0510327 -2.8339143e-05   0.51368789  0.031546751            0   0.48214114    1.5568423    2.0705301   0.61956601 
 9135000    1.0703013 8.9829986e-05   0.47814485  0.020563924            0   0.45758092    1.5853838    2.0635286    6.6628239 
 9140000    1.0774613 2.3973807e-05   0.45644706 0.0033876445            0   0.45305941    1.5959896    2.0524367    3.2798956 
 9145000    1.0701232 7.089575e-05   0.47260254 0.0072790604            0   0.46532348      1.58512    2.0577225    5.6875849 
 9150000    1.0441277 0.0001885482   0.49824275 0.0098948774            0   0.48834787    1.5466142    2.0448569    11.698525 
 9155000    1.0484551 8.9724445e-05    0.4924723  0.018758818            0   0.47371348    1.5530242    2.0454964    6.6393881 
 9160000    1.0235693 -1.8159637e-06   0.56623676  0.050497144            0   0.51573962     1.516162    2.0823988    1.9894214 
 9165000    1.0846249 1.3053639e-05   0.44274667 0.0080828571            0   0.43466382    1.6066007    2.0493474    2.7176937 
 9170000     1.097964 5.6794156e-05    0.4642409 0.0072302149            0   0.45701068    1.6263591       2.0906    4.9984608 
 9175000    1.0551207 4.5752916e-06   0.52933156  0.021389529            0   0.50794203    1.5628975    2.0922291     2.326484 
 9180000    1.1601665 -5.666291e-05   0.38767438  0.017725762            0   0.36994861    1.7184966     2.106171  -0.79496998 
 9185000    1.0638061 1.1716511e-05   0.46719625  0.019141932            0   0.44805432    1.5757628     2.042959    2.6428444 
 9190000    1.0214372 6.4809782e-05   0.53530494  0.057243886            0   0.47806106    1.5130038    2.0483087    5.3665696 
 9195000     1.053964 5.8845299e-05   0.48066327   0.04297646            0   0.43768681    1.5611841    2.0418474    5.0547267 
 9200000     1.018854 5.9854962e-05   0.56946632  0.054288851            0   0.51517747    1.5091775    2.0786438    5.1432178 
 9205000    1.0539043 3.1083773e-05   0.51846952  0.070875559            0   0.44759396    1.5610957    2.0795652    3.6710544 
 9210000    1.1135639 1.3238642e-05   0.44669391  0.038686781            0   0.40800713    1.6494665    2.0961604    2.7739789 
 9215000    1.0168989 -4.1290196e-06   0.57388907  0.053172257            0   0.52071681    1.5062815    2.0801705    1.8687647 
 9220000    1.0536103 -1.9547966e-05   0.52322318  0.094306905            0   0.42891628    1.5606603    2.0838835    1.0830277 
 9225000    1.1099507 3.3485845e-06   0.44754927  0.048349897            0   0.39919937    1.6441145    2.0916638    2.2631113 
 9230000    1.0409834 3.4087358e-05   0.55568624 0.0010390159            0   0.55464722    1.5419567    2.0976429    3.8429157 
 9235000    1.0243792 -2.0206093e-06    0.5593282 0.0071991679            0   0.55212904    1.5173618      2.07669    1.9732348 
 9240000    1.1490972 -4.3609146e-05   0.37238455   0.01794766            0   0.35443689    1.7021002    2.0744847  -0.15830355 
 9245000    1.1417463 1.7162815e-05   0.42909979   0.02407605            0   0.40502374    1.6912117    2.1203115    2.9990476 
 9250000    1.0813106 4.6117483e-05   0.53176139  0.012852709            0   0.51890868    1.6016913    2.1334527    4.4946678 
 9255000   0.98218106 7.5433195e-05   0.64871115  0.035420675            0   0.61329048    1.4548557    2.1035669    5.9657464 
 9260000    1.1220686 2.6711967e-05   0.45791736  0.012478674            0   0.44543868    1.6620642    2.1199815    3.4876342 
 9265000    1.0906049 1.6891852e-05   0.49045944 0.0094362888            0   0.48102315    1.6154584    2.1059179    2.9707807 
 9270000    1.0606416 6.9594568e-05    0.5421312  0.023165319            0   0.51896588    1.5710753    2.1132065    5.6764484 
 9275000    1.0337057 -7.3646382e-05   0.57365684  0.028238759            0   0.54541808    1.5311766    2.1048334   -1.6658614 
 9280000     1.095835 -0.00015193837   0.48668521  0.015069497            0   0.47161572    1.6232056    2.1098908   -5.6693536 
 9285000    1.0353941 -4.4955289e-06   0.56077597  0.025046651            0   0.53572932    1.5336775    2.0944535    1.8642824 
 9290000    1.0487031 0.00011723888   0.57247414  0.068606629            0   0.50386752    1.5533915    2.1258657    8.1284964 
 9295000    1.0678669 5.9667738e-05   0.55681044  0.039660057            0   0.51715038    1.5817779    2.1385883    5.1935765 
 9300000    1.0975791 -0.00012044531   0.53825576  0.057058828            0   0.48119693     1.625789    2.1640448    -4.002755 
 9305000   0.99036117 -0.00018482312   0.68814052   0.06105828            0   0.62708224    1.4669725     2.155113   -7.3078305 
 9310000    1.0791274 -6.4522661e-05   0.54495598   0.01486359            0   0.53009239    1.5984575    2.1434135   -1.1601468 
 9315000    1.1104226 6.1679888e-05    0.5005832 0.0037876936            0    0.4967955    1.6448135    2.1453967     5.303407 
 9320000     1.021239 5.4442666e-05   0.61725848 0.0096376714            0   0.60762081    1.5127102    2.1299687    4.9174332 
 9325000    1.1068309 -3.2701497e-05   0.50458345 0.0064240852            0   0.49815936    1.6394932    2.1440767   0.46976001 
 9330000    1.0950988 -4.5524901e-05   0.53120819 0.0056952906            0    0.5255129    1.6221151    2.1533232   -0.1775517 
 9335000    1.1363331 9.2694329e-06   0.49177102   0.03945917            0   0.45231185    1.6831934    2.1749644    2.6495594 
 9340000    1.0836877 -6.1158701e-05   0.57768687  0.049600883            0   0.52808599    1.6052125    2.1828993  -0.94842618 
 9345000   0.99747755 -0.0001558688   0.70092462  0.066411422            0    0.6345132    1.4775136    2.1784382   -5.8020445 
 9350000    1.0184122 -0.0001320261   0.68904372   0.00938276            0   0.67966096     1.508523    2.1975667   -4.5621696 
 9355000    1.1409139 5.0019827e-06   0.47215616 4.1943446e-05            0   0.47211421    1.6899787    2.1621348    2.4182364 
 9360000    1.1685663 7.8337245e-05   0.43742738 0.00045999797            0   0.43696739    1.7309388    2.1683662    6.1792331 
 9365000   0.98790215 0.00012734902   0.64896028 0.0023406038            0   0.64661967    1.4633301    2.1122903    8.6325599 
 9370000    1.1399167 6.1873229e-05   0.41271302  0.011898069            0   0.40081495    1.6885016    2.1012146    5.2691239 
 9375000    1.0991753 -7.0058068e-05   0.49669315  0.014508043            0   0.48218511    1.6281535    2.1248466   -1.4621265 
 9380000    1.1004101 2.4031067e-05   0.43934206   0.01909946            0    0.4202426    1.6299824    2.0693245    3.2997151 
 9385000    1.0211247 1.9662814e-05   0.56897759  0.031505637            0   0.53747195    1.5125409    2.0815185    3.0882546 
 9390000    1.0771193 -3.103824e-05   0.44853675  0.026168066            0   0.42236868    1.5954829    2.0440197   0.45486182 
 9395000    1.0087352 2.4757001e-05   0.56058808  0.059942691            0   0.50064539     1.494189     2.054777    3.3223355 
 9400000   0.99060699 -2.9991241e-05   0.55506097  0.026763576            0   0.52829739    1.4673366    2.0223976   0.48684605 
 9405000    1.0627582 1.4799186e-05   0.43803598  0.028868414            0   0.40916757    1.5742106    2.0122466    2.7699649 
 9410000   0.95346322 4.4160673e-05   0.55474809  0.037320396            0   0.51742769    1.4123174    1.9670655     4.228092 
 9415000   0.90170068 -3.1114609e-06   0.60588165  0.034596152            0    0.5712855    1.3356441    1.9415258     1.782219 
 9420000    1.0222808 8.5891386e-05   0.42731532  0.025793262            0   0.40152206    1.5142535    1.9415688    6.3392078 
 9425000    1.0226918 3.3177383e-05   0.42179411  0.008722804            0   0.41307131    1.5148622    1.9366564    3.6353384 
 9430000     1.036078 -0.00010041659   0.42956695 0.0055522631            0   0.42401468    1.5346905    1.9642574   -3.1770722 
 9435000    1.0096701 -3.2787184e-05   0.45810022 0.0092082953            0   0.44889192    1.4955739    1.9536741    0.2749703 
 9440000   0.93839455 2.9093919e-05   0.56641142 0.0084267155            0   0.55798471    1.3899969    1.9564083     3.446017 
 9445000    1.0352687 -1.5005099e-05   0.43416014 0.0085030455            0   0.42565709    1.5334917    1.9676519    1.1993908 
 9450000   0.98757738 5.1978245e-05   0.45952594  0.015781169            0   0.44374477     1.462849    1.9223749    4.5836611 
 9455000   0.91499948 0.00010308562   0.55850121  0.048999821            0   0.50950139     1.355343    1.9138442    7.1918278 
 9460000   0.96545226 1.5180149e-05   0.51185128  0.036104188            0   0.47574709    1.4300762    1.9419274    2.7191511 
 9465000   0.97972533 2.6801914e-05   0.50608257  0.049921902            0   0.45616067    1.4512182    1.9573007    3.3295587 
 9470000    1.0774844 -6.5021009e-05   0.39056071  0.012557723            0   0.37800299    1.5960238    1.9865845   -1.3424912 
 9475000   0.97212159 -5.4623972e-05   0.55228369 0.0051065024            0   0.54717719    1.4399551    1.9922388  -0.80450857 
 9480000   0.99880749 1.1815582e-05   0.46788993  0.020540278            0   0.44734965    1.4794836    1.9473735    2.5523313 
 9485000   0.94081966  -7.1001e-05   0.57214483  0.010689445            0   0.56145538    1.3935891     1.965734   -1.6695173 
 9490000     1.007626 -0.00011705287   0.50287194  0.036468197            0   0.46640374     1.492546    1.9954179   -3.9976892 
 9495000     1.001226 -0.00014115401     0.520762  0.029344099            0    0.4914179     1.483066     2.003828   -5.2232572 
 9500000   0.99440467 -6.5331891e-05   0.51595015  0.016544608            0   0.49940554    1.4729619    1.9889121   -1.3560807 
 9505000     1.071568 5.0251384e-05   0.42822793  0.029512971            0   0.39871496    1.5872601     2.015488    4.5883589 
 9510000   0.98514008 4.7971786e-05   0.56818403  0.022141635            0    0.5460424    1.4592387    2.0274228    4.4835782 
 9515000     1.086279 4.7076807e-05   0.41233806  0.021509189            0   0.39082887    1.6090508    2.0213889    4.4317214 
 9520000    1.0115554 -8.7091594e-05   0.48900919  0.013880464            0   0.47512873    1.4983665    1.9873757   -2.4717139 
 9525000   0.97580947 -7.2340093e-05   0.55835838 0.0072594282            0   0.55109896    1.4454178    2.0037762   -1.7000366 
 9530000    1.0139054 8.2831113e-05    0.4836394  0.015966177            0   0.46767322    1.5018474    1.9854868    6.2264398 
 9535000    1.0217247 3.3294908e-05   0.45600744  0.027179291            0   0.42882815    1.5134297    1.9694371    3.6741364 
 9540000    1.0781264 7.9519761e-05   0.35129099  0.011514446            0   0.33977654    1.5969747    1.9482657    6.0196775 
 9545000   0.99059639 8.0628572e-05   0.47712003 0.0069680249            0     0.470152    1.4673209    1.9444409    6.0726238 
 9550000   0.92847293 8.6565005e-05   0.59132666  0.072278774            0   0.51904789    1.3753005    1.9666272    6.3987555 
 9555000    1.0040585 4.5047577e-05   0.46832637  0.071316185            0   0.39701019    1.4872616     1.955588    4.2620239 
 9560000   0.97091479 -4.5774364e-05   0.53330586  0.032651873            0   0.50065398    1.4381675    1.9714734  -0.37217405 
 9565000     1.021976 -2.6598049e-05   0.45247747  0.019143046            0   0.43333443     1.513802    1.9662794   0.60445934 
 9570000   0.97569396 -3.8365582e-05   0.51759476  0.013186462            0    0.5044083    1.4452467    1.9628414 -0.0014763709 
 9575000    0.9788269 -6.3728306e-05   0.51483273   0.03450183            0    0.4803309    1.4498873    1.9647201   -1.2981692 
 9580000    1.0948406 1.4259286e-05   0.35784951   0.01804825            0   0.33980126    1.6217326    1.9795821    2.7096575 
 9585000   0.98941188 2.8903341e-05   0.49182437  0.007342485            0   0.48448189    1.4655664    1.9573907    3.4372418 
 9590000   0.97873897 7.9530376e-05   0.50153386  0.026780836            0   0.47475302    1.4497571     1.951291    6.0232462 
 9595000   0.96601412 0.00012919291   0.49387716  0.031236988            0   0.46264017    1.4309084    1.9247856    8.5394625 
 9600000   0.93464901 -3.0620673e-05   0.51683147    0.0167374            0   0.50009407    1.3844488    1.9012803   0.33350188 
 9605000   0.90687648 -0.00016451836   0.56492338  0.041937106            0   0.52298628    1.3433108    1.9082342   -6.5151059 
 9610000   0.94736828 -6.6661762e-05   0.48000575  0.025760787            0   0.45424496    1.4032893     1.883295   -1.5297872 
 9615000   0.93489568 8.2958527e-05   0.48133023 0.0072277303            0    0.4741025    1.3848142    1.8661444    6.1136211 
 9620000   0.92706927 5.915523e-05   0.46935978  0.027246531            0   0.44211325    1.3732214    1.8425811    4.8713289 
 9625000   0.89535756 -9.1672348e-06   0.50411929  0.042151143            0   0.46196815    1.3262484    1.8303677    1.3610053 
 9630000   0.93718381 1.867237e-05   0.42656418  0.024884682            0   0.40167949    1.3882035    1.8147677    2.7707931 
 9635000   0.87108805 7.743548e-05   0.48494671  0.031084526            0   0.45386218    1.2902992    1.7752459    5.7399424 
 9640000   0.89526679 4.2829201e-05   0.45901973  0.026156751            0   0.43286298    1.3261139    1.7851337    3.9779887 
 9645000   0.80160866 -1.4856169e-06   0.61032665   0.05870151            0   0.55162514    1.1873828    1.7977095    1.7216459 
 9650000   0.90073146 -3.1645991e-05   0.44038675  0.028256073            0   0.41213068    1.3342085    1.7745952   0.15432049 
 9655000   0.88286132 5.0149902e-06   0.46616371  0.040417623            0   0.42574608    1.3077383     1.773902    2.0306695 
 9660000   0.84986491 5.8915965e-05   0.50196497  0.028876677            0    0.4730883    1.2588624    1.7608274    4.7773248 
 9665000   0.92483663 4.7348967e-05   0.35915668 0.0078972262            0   0.35125945    1.3699143    1.7290709    4.1533381 
 9670000   0.88590329 -6.75986e-05   0.45465518 0.0016724417            0   0.45298274    1.3122442    1.7668994   -1.6941489 
 9675000   0.91132368 -9.7999664e-05    0.4263285 0.00085942492            0   0.42546908    1.3498982    1.7762267   -3.2413561 
 9680000   0.88398313 1.769586e-05   0.46761345  0.006822596            0   0.46079085       1.3094    1.7770135    2.6830415 
 9685000   0.87765288 4.9229674e-05   0.46292735  0.011395218            0   0.45153213    1.3000233    1.7629507      4.28351 
 9690000   0.89299119 2.4200076e-06   0.44205535 0.0058936413            0   0.43616171    1.3227432    1.7647986    1.8887029 
 9695000   0.95353088 -9.6513036e-05   0.37577913  0.021668392            0   0.35411074    1.4124176    1.7881967   -3.1532707 
 9700000   0.87136722 -8.5408284e-05   0.51395906  0.040783124            0   0.47317593    1.2907127    1.8046717   -2.5682324 
 9705000   0.95918387 6.1330893e-05   0.37933464 0.0097798566            0   0.36955479    1.4207911    1.8001258    4.9402675 
 9710000   0.93390746 3.5100123e-05   0.41937123  0.014472477            0   0.40489875    1.3833504    1.8027217    3.5998479 
 9715000   0.94185359 -3.3125286e-05   0.42385154   0.03457401            0   0.38927753    1.3951206    1.8189722   0.12295754 
 9720000   0.88154327 -6.5253102e-05   0.54913716  0.045300491            0   0.50383667     1.305786    1.8549231   -1.4860357 
 9725000   0.94840817 7.7180226e-05   0.46815912   0.04228927            0   0.42586985    1.4048296    1.8729887    5.8246163 
 9730000   0.88083615 -1.8766502e-05   0.56560698  0.098125235            0   0.46748175    1.3047385    1.8703455    0.9095006 
 9735000   0.90912174 -1.4123456e-05   0.47582539  0.034362382            0   0.44146301    1.3466366     1.822462     1.099341 
 9740000   0.90007214 -1.351883e-05   0.50334987  0.041074101            0   0.46227576    1.3332319    1.8365817    1.1444176 
 9745000   0.95100277 -5.537585e-05   0.40477524  0.031128312            0   0.37364693    1.4086729    1.8134481   -1.0217954 
 9750000   0.88936669 -2.2996835e-05   0.50581018    0.0559356            0   0.44987458    1.3173744    1.8231846   0.64574662 
 9755000   0.97173352 -3.0044322e-05   0.40973886  0.016858531            0   0.39288033    1.4393803    1.8491191   0.31084987 
 9760000   0.91054004 -3.370403e-06   0.49672421  0.036393152            0   0.46033106    1.3487374    1.8454616     1.672897 
 9765000   0.96642295 7.5864273e-06   0.42502654 0.0082744231            0   0.41675211     1.431514    1.8565405    2.2449656 
 9770000   0.94381077 4.3070438e-05    0.4866523  0.036521418            0   0.45013088    1.3980197     1.884672    4.0898784 
 9775000   0.89570433 5.7184491e-05   0.54775541  0.044791671            0   0.50296373     1.326762    1.8745174    4.8023634 
 9780000   0.97756793 5.4854919e-05   0.44026796  0.025616805            0   0.41465115    1.4480225    1.8882905    4.6968623 
 9785000   0.94783235 4.6523089e-05   0.51229518  0.035407591            0   0.47688759    1.4039767    1.9162718     4.298254 
 9790000   0.99996428 -3.2959821e-05   0.43453841  0.026977425            0   0.40756099    1.4811971    1.9157355   0.22819265 
 9795000    0.8632817 2.4716428e-05   0.59477393  0.075332876            0   0.51944105     1.278736      1.87351     3.138991 
 9800000   0.94148207 7.9729685e-05   0.50961029 0.0089829763            0   0.50062731    1.3945703    1.9041806    5.9863405 
 9805000   0.93706038 -5.1934089e-05   0.48957447  0.021703941            0   0.46787053    1.3880207    1.8775952  -0.78143018 
 9810000   0.94294706 -3.5133526e-05   0.45803815  0.069884041            0   0.38815411    1.3967403    1.8547785  0.055941944 
 9815000   0.96553437 6.8931213e-05   0.44680304  0.023398835            0   0.42340421    1.4301978    1.8770008    5.4062789 
 9820000   0.96002217 4.1852093e-05   0.45777366  0.023369782            0   0.43440388    1.4220328    1.8798065    4.0226336 
 9825000   0.94365414 -0.00014770802   0.48453834 0.0073797229            0   0.47715862    1.3977877     1.882326   -5.6803244 
 9830000    1.0013407 -7.3300027e-05   0.36089782 0.0021428554            0   0.35875496    1.4832359    1.8441337   -1.9088277 
 9835000   0.88099814 1.6089805e-05   0.54115163 0.0070951855            0   0.53405644    1.3049785    1.8461301    2.6699281 
 9840000   0.96761353 -5.7929937e-05   0.44356215  0.010128048            0    0.4334341    1.4332775    1.8768397   -1.0891731 
 9845000   0.95219353 -7.6430565e-05   0.46127456  0.023244094            0   0.43803047    1.4104367    1.8717112   -2.0415337 
 9850000   0.90730806 -3.2311431e-05   0.53428849  0.013844963            0   0.52044353    1.3439501    1.8782385   0.22389328 
 9855000    1.0344202 2.9808368e-05   0.30644406  0.003683996            0   0.30276006     1.532235    1.8386791    3.3648675 
 9860000   0.92674119 4.871731e-05   0.46891148 0.0054522667            0   0.46345922    1.3727354    1.8416469    4.3359731 
 9865000   0.98692594 5.0250397e-05   0.38461622  0.015918658            0   0.36869756     1.461884    1.8465003    4.4193206 
 9870000   0.91985692 -5.0009566e-05   0.52076162  0.031598148            0   0.48916347    1.3625381    1.8832997   -0.6771901 
 9875000   0.88511592 -0.0001224141   0.57959638  0.061651172            0   0.51794521     1.311078    1.8906743   -4.3769278 
 9880000   0.99801067 -8.8685615e-05   0.40069278  0.047973976            0    0.3527188    1.4783033    1.8789961   -2.6617074 
 9885000   0.97303883 -5.5609669e-05   0.43635195  0.013443733            0   0.42290822    1.4413138    1.8776657  -0.96954934 
 9890000    0.9023604 -7.1599423e-05   0.55893888  0.019095649            0   0.53984323    1.3366213    1.8955602   -1.7703302 
 9895000   0.99695919 -0.00010728281   0.42109959  0.036033052            0   0.38506654    1.4767458    1.8978454   -3.5950343 
 9900000    1.0070716 -1.1532349e-05   0.37985093  0.017413537            0   0.36243739    1.4917248    1.8715757    1.2811195 
 9905000     1.025493 -2.8517255e-05   0.36244777 0.0096173281            0   0.35283045    1.5190116    1.8814594   0.42137591 
 9910000   0.99622685 -0.00019437311   0.44064349 0.0092664095            0   0.43137708     1.475661    1.9163045   -8.0355987 
 9915000    0.9626281 -0.00018909712   0.49389713  0.020079488            0   0.47381764    1.4258929      1.91979   -7.7619827 
 9920000     1.022737 1.3094171e-05   0.39553522 0.0082589848            0   0.38727624    1.5149291    1.9104644    2.5808859 
 9925000    1.0295541 7.5301279e-05   0.37957814  0.003153481            0   0.37642466     1.525027    1.9046051    5.7600306 
 9930000   0.96160936 0.00011981766   0.47699366 0.00070463254            0   0.47628903    1.4243839    1.9013775    8.0360416 
 9935000   0.96015191 0.00014232112   0.47842286 0.00012521976            0   0.47829764     1.422225    1.9006479     9.187489 
 9940000    1.0376043 5.6367376e-05   0.37152709 2.5449335e-07            0   0.37152684    1.5369513    1.9084784     4.794488 
 9945000   0.99678657 -5.972222e-05   0.45203165 0.0003919919            0   0.45163966    1.4764901    1.9285218   -1.1292559 
 9950000   0.96631381 -6.6102702e-05   0.50244313 0.0069272125            0   0.49551592    1.4313523    1.9337955   -1.4506629 
 9955000   0.99886161 -1.3398047e-05    0.4565359 0.0067640845            0   0.44977182    1.4795638    1.9360997    1.2501196 
 9960000    1.0024429 -8.4821431e-05   0.42373486 0.00052010482            0   0.42321475    1.4848685    1.9086034   -2.4342539 
 9965000    1.0389962 -1.2689926e-05   0.39016054 0.00068067392            0   0.38947987    1.5390131    1.9291736    1.2794494 
 9970000    1.0382399 9.444723e-05   0.39792885 0.0091879334            0   0.38874092    1.5378928    1.9358216    6.7715198 
 9975000   0.99412686 1.3909152e-05   0.45531002  0.011600312            0   0.44370971    1.4725504    1.9278604     2.640009 
 9980000   0.97768645 -8.097958e-05   0.49944194  0.018046441            0    0.4813955    1.4481981      1.94764   -2.1985145 
 9985000    1.0030312 -5.4035361e-05   0.46292459  0.012282807            0   0.45064179    1.4857399    1.9486645  -0.81794597 
 9990000   0.98645115 -1.6372892e-05   0.49384094  0.011907512            0   0.48193343    1.4611808    1.9550217    1.1167296 
 9995000    1.0223475 4.3174325e-05   0.46842957   0.01902523            0   0.44940434    1.5143523    1.9827819    4.1933073 
10000000    0.9286734 -4.6606956e-05   0.62140864  0.033624204            0   0.58778443    1.3755975    1.9970061  -0.38927006 
10005000    1.0902354 -6.0278982e-06   0.40206517  0.033575991            0   0.36848918    1.6149112    2.0169763    1.7083479 
10010000    1.0601958 -1.0310096e-05   0.46207406  0.012810162            0   0.44926389     1.570415    2.0324891    1.5046122 
10015000    1.0224426 -9.8834484e-05   0.51271052 0.0076699234            0    0.5050406    1.5144932    2.0272037   -3.0331219 
10020000    1.0232576 1.4991859e-06   0.53855187  0.019179313            0   0.51937255    1.5157004    2.0542522    2.1310105 
10025000    1.0917182 -7.3990893e-05   0.45699922  0.037486175            0   0.41951304    1.6171076    2.0741068   -1.7142269 
10030000    1.1771683 3.6043439e-06   0.33399107 0.0057156908            0   0.32827537    1.7436806    2.0776716     2.262214 
10035000    1.0342516 0.0001018769   0.55394132 0.0088326083            0   0.54510871    1.5319851    2.0859264    7.3020235 
10040000    1.0315611 2.7968278e-06   0.53386612  0.030518999            0   0.50334712        1.528    2.0618661    2.2050637 
10045000    1.1317296  2.35584e-05   0.41376686  0.026923338            0   0.38684353    1.6763745    2.0901414    3.2963314 
10050000    1.0721476 3.4469318e-05   0.51827926  0.015429374            0   0.50284989    1.5881187     2.106398     3.871227 
10055000     1.188537 5.6221335e-05   0.37918229  0.026854688            0    0.3523276    1.7605205    2.1397028    5.0182351 
10060000    1.1356813 -1.9437089e-05   0.45103398   0.05504893            0   0.39598505    1.6822279    2.1332618    1.1380829 
10065000    1.0829674 1.7990742e-05   0.50481227  0.033909494            0   0.47090278    1.6041455    2.1089578    3.0300838 
10070000     1.100758 4.370656e-05   0.48727345  0.015478271            0   0.47179518    1.6304977    2.1177712     4.355547 
10075000    1.1465133 -0.0001011952   0.40019944   0.01205681            0   0.38814263    1.6982728    2.0984722   -3.0827222 
10080000    1.1233052 -0.00020984016   0.41110857 0.0036679917            0   0.40744058    1.6638959    2.0750044   -8.6688117 
10085000    1.0495151 -1.9938798e-05   0.50011398  0.014072349            0   0.48604163    1.5545942    2.0547082    1.0338418 
10090000    1.0331092 0.00012376273   0.51320041  0.023777331            0   0.48942308    1.5302929    2.0434934    8.3801452 
10095000    1.1203069 1.7870496e-05   0.41474506 0.0096118416            0   0.40513322    1.6594545    2.0741996     2.989169 
10100000    1.0619477 -2.6782007e-05    0.5017036  0.089136721            0   0.41256688    1.5730101    2.0747137   0.70347492 
10105000    1.0579865 -3.7239588e-05   0.47928162  0.023209843            0   0.45607178    1.5671425    2.0464241   0.13975724 
10110000    1.1076332 2.3335678e-05   0.41931566  0.014988728            0   0.40432694    1.6406818    2.0599974    3.2547841 
10115000    1.1227007 -1.8984577e-05   0.39194411 0.0028427777            0   0.38910133    1.6630004    2.0549445    1.0829341 
10120000    1.1156689 -5.3349459e-05   0.37399909 0.0041036534            0   0.36989544    1.6525846    2.0265837  -0.70490859 
10125000    1.0221732 -4.4927168e-05    0.4648389 0.0039984061            0    0.4608405    1.5140941     1.978933  -0.32133802 
10130000   0.95959821 2.8512963e-05   0.54561491  0.011118384            0   0.53449652    1.4214049    1.9670198    3.4268834 
10135000    1.0220667 4.3811409e-05   0.46710442  0.019370827            0   0.44773359    1.5139362    1.9810407    4.2241848 
10140000    1.0427057 -8.4722271e-06   0.41032046 0.0078034909            0   0.40251697    1.5445079    1.9548283    1.5210503 
10145000     1.057978 4.0493981e-05   0.39267773  0.020746745            0   0.37193098    1.5671298    1.9598076    4.0330994 
10150000    1.0201214 -0.00014111644   0.43494082  0.013269835            0   0.42167099    1.5110549    1.9459957   -5.2791663 
10155000     1.008053 -0.00012057137   0.40827237 0.0060680411            0   0.40220433    1.4931785    1.9014508   -4.2718031 
10160000   0.95230484 1.057883e-05    0.4897266  0.012579784            0   0.47714682    1.4106015    1.9003281    2.4419642 
10165000   0.97713733 0.00011100759   0.46361505  0.003730637            0   0.45988441    1.4473847    1.9109997    7.5945884 
10170000    1.0253376 3.1618396e-06   0.40666573  0.016781592            0   0.38988413    1.5187814    1.9254471    2.0873333 
10175000   0.98480563 -9.9564283e-05   0.46387188  0.029169627            0   0.43470226    1.4587433    1.9226152   -3.1750761 
10180000     0.957958 -2.5925628e-07    0.4874894 0.0068690206            0   0.48062038    1.4189753    1.9064647    1.8931908 
10185000    1.0011459 -1.819398e-05   0.43577454 0.00018558874            0   0.43558895    1.4829474     1.918722   0.98719018 
10190000     1.010223 -1.9943588e-05   0.42799316 9.3522679e-05            0   0.42789964    1.4963928     1.924386   0.90327427 
10195000   0.97014402 -1.8916275e-05   0.50024807  0.029168668            0   0.47107941    1.4370258    1.9372739   0.96876064 
10200000   0.98676881 -6.1916378e-05     0.468081  0.035737592            0   0.43234341    1.4616513    1.9297323   -1.2403863 
10205000    1.0305152 -1.3331067e-05   0.40233011  0.031289792            0   0.37104031    1.5264507    1.9287808    1.2462302 
10210000   0.96898244 -4.4217402e-05    0.4809124    0.0517173            0    0.4291951    1.4353052    1.9162176  -0.34771337 
10215000    1.0027805 -8.4116674e-05    0.4458925  0.022759207            0   0.42313329    1.4853686    1.9312611   -2.3755126 
10220000   0.96592479 -2.415869e-05   0.50388902  0.042171849            0   0.46171717    1.4307761    1.9346651   0.69774017 
10225000   0.97263564 -5.7397557e-05   0.51047075   0.04207583            0   0.46839492    1.4407165    1.9511873  -0.98756763 
10230000   0.99547148 -4.9345372e-05   0.47692167  0.025662092            0   0.45125958    1.4745421    1.9514638  -0.57501927 
10235000    1.0030802 -4.5640329e-05   0.46751584  0.018015233            0   0.44950061    1.4858125    1.9533283  -0.38345651 
10240000    1.0085883 -8.4515199e-05   0.43063725  0.015455366            0   0.41518189    1.4939714    1.9246087   -2.4025695 
10245000   0.96842145 -0.00011069671   0.45528315  0.011691965            0   0.44359118    1.4344743    1.8897574   -3.7779141 
10250000   0.94371484 -5.232833e-05   0.49357845  0.025984072            0   0.46759438    1.3978776    1.8914561  -0.78775444 
10255000   0.98797037 8.3730198e-05   0.43998358  0.030429812            0   0.40955377    1.4634311    1.9034147    6.1904008 
10260000   0.96248276 6.9183048e-05    0.4567911  0.021441866            0   0.43534923    1.4256776    1.8824687    5.4246408 
10265000   0.99352737 2.140615e-05   0.40956987  0.020059831            0   0.38951004    1.4716624    1.8812323    2.9772272 
10270000   0.95850421 4.2843356e-05   0.47406382  0.024117252            0   0.44994657    1.4197844    1.8938482     4.087428 
10275000   0.93489973 0.00010999993   0.46064129  0.023603962            0   0.43703733    1.3848202    1.8454615    7.4774577 
10280000    0.9993167 0.00013974915   0.38062291  0.032126813            0    0.3484961    1.4802379    1.8608608    9.0160171 
10285000   0.96956698 8.5410283e-05   0.43583229  0.023881503            0   0.41195078    1.4361711    1.8720034    6.2450099 
10290000   0.89748233 2.154573e-05   0.52102157 0.0066021905            0   0.51441938    1.3293957    1.8504173    2.9535586 
10295000    1.0135368 -6.6345365e-05   0.33710596  0.013260209            0   0.32384575    1.5013014    1.8384073   -1.5584754 
10300000   0.87342064 -7.6626189e-05     0.535345   0.02841545            0   0.50692955    1.2937543    1.8290993   -2.0941615 
10305000   0.92746969 -4.2499277e-05   0.43654017  0.016239098            0   0.42030107    1.3738145    1.8103546  -0.36560835 
10310000   0.89401693 7.6272024e-05   0.46596699 0.0053359836            0   0.46063101    1.3242626    1.7902296    5.6953572 
10315000   0.92602971 8.4862832e-05   0.39485295  0.011112089            0   0.38374086    1.3716815    1.7665345    6.1115114 
10320000   0.90331329 -8.2027494e-05   0.44173023   0.02209806            0   0.41963217    1.3380328     1.779763   -2.4200446 
10325000   0.90935429 -9.2293685e-05   0.42987265  0.031809653            0     0.398063     1.346981    1.7768537    -2.948583 
10330000    0.8074026 -7.4224933e-05    0.5401986  0.016440171            0   0.52375843    1.1959651    1.7361637   -2.0641529 
10335000   0.94612743 -2.6704385e-05   0.38919269 0.0058428022            0   0.38334989    1.4014513    1.7906439   0.42337943 
10340000   0.95442988 -2.7141161e-05   0.36319865 0.0094659318            0   0.35373272    1.4137493    1.7769479   0.38732049 
10345000   0.90225833 8.2007736e-05   0.41744441  0.010711003            0    0.4067334    1.3364702    1.7539146    5.9527106 
10350000   0.91020266 -5.5290146e-06   0.41058405 0.0026306634            0   0.40795339    1.3482377    1.7588217    1.4757362 
10355000   0.82127846 -3.4314672e-05   0.52067226   0.03163122            0   0.48904104    1.2165187     1.737191 -0.019720201 
10360000   0.85417057 -4.5950015e-05   0.48246977  0.044860515            0   0.43760926    1.2652402    1.7477099  -0.60493085 
10365000   0.91466622 8.6167995e-05   0.40857009  0.017042812            0   0.39152728    1.3548493    1.7634194    6.1752208 
10370000   0.91906991 2.5651507e-05   0.40468621 0.0029809115            0    0.4017053    1.3613723    1.7660585    3.0794157 
10375000   0.83114034 1.7827966e-06   0.52424506 0.0043887415            0   0.51985631    1.2311266    1.7553717    1.8466509 
10380000   0.96048658 9.1106348e-05   0.37824622 0.0094022622            0   0.36884396    1.4227208     1.800967     6.465612 
10385000   0.94629854 -4.7751142e-05    0.3918335  0.010046579            0   0.38178692    1.4017047    1.7935382  -0.65132025 
10390000   0.94709413 -3.2927238e-05   0.40790691  0.010896638            0   0.39701027    1.4028832    1.8107901   0.12491553 
10395000   0.93164045 6.5695484e-05   0.42305984  0.010806818            0   0.41225302    1.3799924    1.8030523     5.166661 
10400000   0.94370291 -5.5386675e-05   0.41014953   0.01942654            0   0.39072299    1.3978599    1.8080095   -1.0277883 
10405000   0.94776751 -0.00011422473   0.42356113  0.048753842            0   0.37480729    1.4038806    1.8274418   -4.0208645 
10410000   0.94620927 3.4278501e-05   0.43008281  0.025182895            0   0.40489991    1.4015725    1.8316553    3.5867146 
10415000    0.9271794 1.9640384e-05   0.47474367  0.008990744            0   0.46575293    1.3733845    1.8481282    2.8537158 
10420000   0.93549561 -2.8202767e-05   0.44150131  0.031706095            0   0.40979521    1.3857029    1.8272042   0.38322249 
10425000   0.92757937 -2.7018873e-05   0.47155197  0.018725621            0   0.45282635    1.3739769    1.8455289   0.46216262 
10430000   0.93033499 1.7276999e-05   0.49049036  0.006472306            0   0.48401805    1.3780587    1.8685491    2.7531314 
10435000    1.0022068 -1.9187863e-05   0.39396108 0.0034706662            0   0.39049041    1.4845189    1.8784799   0.89606135 
10440000   0.94935762 -5.2213745e-05   0.47559579  0.002732754            0   0.47286303     1.406236    1.8818318  -0.79151197 
10445000    1.0210352 2.4984429e-06   0.34394822   0.02337859            0   0.32056963    1.5124084    1.8563566    1.9842769 
10450000   0.95969127 3.4268665e-05   0.41995492  0.039610993            0   0.38034393    1.4215427    1.8414976    3.5960533 
10455000   0.96095013 1.242029e-05   0.43206343 0.0033505483            0   0.42871288    1.4234074    1.8554708    2.4913897 
10460000    1.0109554 3.0126834e-05   0.39820452  0.014965696            0   0.38323883    1.4974777    1.8956822    3.4381761 
10465000   0.93744328 0.00011660979   0.48646854  0.011162176            0   0.47530636    1.3885879    1.8750564    7.8454778 
10470000   0.96809129 7.5537813e-06   0.42233045 0.0015754694            0   0.42075498    1.4339852    1.8563157    2.2430693 
10475000   0.96045529 -6.8871443e-05   0.40524408 0.0041534869            0   0.40109059    1.4226744    1.8279185   -1.6982994 
10480000   0.94247005 4.7852056e-05   0.42509728   0.01913976            0   0.40595752    1.3960338     1.821131    4.2711563 
10485000   0.90485584 8.3140071e-05   0.49359925  0.032593266            0   0.46100598    1.3403177     1.833917    6.0906886 
10490000    0.9283846 4.4427948e-05   0.46225021  0.020776411            0    0.4414738    1.3751697    1.8374199    4.1121308 
10495000    0.9514903 7.5213893e-05   0.39529877  0.044715418            0   0.35058336     1.409395    1.8046938    5.6556451 
10500000   0.94019203 8.1773751e-05   0.43069244  0.031858466            0   0.39883397    1.3926594    1.8233519    6.0101679 
10505000   0.89449137 4.5480669e-05   0.49859098   0.02384048            0    0.4747505    1.3249653    1.8235563    4.1521665 
10510000   0.92203341 -3.141108e-05   0.42507862 0.0088973261            0    0.4161813     1.365762    1.7908406   0.18259331 
10515000   0.86657891 -6.9822719e-05   0.51193208  0.022362366            0   0.48956971      1.28362    1.7955521   -1.7793711 
10520000   0.87559018 4.2605323e-05    0.5363312  0.066419786            0   0.46991141     1.296968    1.8332992    4.0146917 
10525000   0.96385204 5.4933734e-05   0.38500872  0.024998332            0   0.36001038    1.4277058    1.8127145    4.6253217 
10530000   0.92136282 2.7347201e-05   0.45521142 0.0031669273            0   0.45204449    1.3647687    1.8199801    3.2201568 
10535000   0.84795191 4.4446887e-05   0.55579083  0.022185341            0   0.53360549    1.2560288    1.8118196    4.0875002 
10540000    0.9028028 3.5061873e-05    0.4847742  0.060463729            0   0.42431048    1.3372767    1.8220509    3.6172188 
10545000   0.96612893 3.9342847e-05   0.38334243   0.04043216            0   0.34291027    1.4310785    1.8144209    3.8287747 
10550000   0.87387864 8.3992757e-06   0.49514092  0.019015363            0   0.47612555    1.2944327    1.7895736    2.2196166 
10555000   0.88977388 -5.0062237e-05   0.43965041  0.041072274            0   0.39857813    1.3179776     1.757628  -0.80555855 
10560000   0.83374022 2.7933535e-05   0.50949532  0.034275835            0   0.47521949    1.2349777     1.744473      3.17467 
10565000   0.90727433 5.8217549e-05   0.43133767  0.010054332            0   0.42128334    1.3439001    1.7752378    4.7559763 
10570000   0.90266635 1.3428217e-05   0.40038441 0.0052736699            0   0.39511074    1.3370745    1.7374589    2.4249837 
10575000   0.89542114 -2.7207269e-05   0.41229216 0.0088690274            0   0.40342313    1.3263426    1.7386347   0.34562254 
10580000   0.87443148 3.8441888e-05   0.47834062  0.040467374            0   0.43787325    1.2952516    1.7735923    3.7418169 
10585000   0.94414003 6.7456927e-05   0.38142626  0.022198291            0   0.35922797    1.3985074    1.7799337    5.2337283 
10590000    0.8889794 1.1505369e-05   0.45772231 0.0097412441            0   0.44798106    1.3168007     1.774523    2.3635979 
10595000    0.8491726 6.9856341e-05   0.49048957  0.039330807            0   0.45115876    1.2578369    1.7483265    5.3249711 
10600000   0.89073057 1.518807e-05   0.42505495  0.031813006            0   0.39324195    1.3193947    1.7444496    2.5220788 
10605000   0.91482805 -0.00016445754   0.39332836  0.011996664            0    0.3813317    1.3550891    1.7484174   -6.6718086 
10610000   0.87337867 -0.00023550848   0.44350897  0.006800604            0   0.43670836    1.2936922    1.7372011   -10.320833 
10615000   0.91917548 -0.00013954658   0.37032399  0.011409721            0   0.35891427    1.3615287    1.7318527   -5.4129321 
10620000   0.89200379 2.7641959e-05   0.40802519 0.0089286151            0   0.39909657    1.3212806    1.7293058    3.1445741 
10625000   0.90336044 6.2018587e-05   0.39148336  0.002685631            0   0.38879772    1.3381026     1.729586    4.9049377 
10630000   0.90577702 -2.8453784e-05   0.38150946  0.009203359            0    0.3723061    1.3416822    1.7231917   0.26635794 
10635000   0.92546754 7.6222868e-07   0.37227634   0.03989664            0    0.3323797    1.3708488    1.7431251    1.7821512 
10640000   0.88370933 5.473053e-05   0.40505686  0.010110278            0   0.39494658    1.3089944    1.7140513    4.5162545 
10645000   0.88854027 7.2594156e-05   0.40903626 0.0050159098            0   0.40402035    1.3161503    1.7251865    5.4420073 
10650000   0.89360381 8.8529854e-05   0.42929316  0.016262022            0   0.41303113    1.3236506    1.7529438    6.2856723 
10655000   0.93200357 -7.1067356e-05   0.37570331   0.02589691            0    0.3498064    1.3805303    1.7562336    -1.882415 
10660000   0.92053098 9.0779982e-05   0.37958015 0.0054057123            0   0.37417444    1.3635365    1.7431167    6.3910518 
10665000   0.92325738 0.00014486985   0.40075705   0.00552118            0   0.39523587     1.367575     1.768332    9.1856685 
10670000   0.92637564 -4.556909e-05   0.40811991 0.0027980109            0   0.40532189    1.3721939    1.7803138  -0.55282361 
10675000   0.94744411 -0.00010384432   0.39880516 0.00045361495            0   0.39835154    1.4034016    1.8022067   -3.5146225 
10680000   0.90560307 -8.1851788e-05   0.44446751 0.0062405896            0   0.43822692    1.3414245     1.785892   -2.4049195 
10685000   0.91959902 -4.4748795e-05   0.42920268  0.033211035            0   0.39599165    1.3621561    1.7913587  -0.49977959 
10690000   0.86216105 -3.359052e-05   0.50239893  0.060230814            0   0.44216812    1.2770761     1.779475  0.059640341 
10695000   0.95500642 -1.762174e-05    0.3528413  0.027037486            0   0.32580382    1.4146033    1.7674446   0.86521148 
10700000   0.89221083 -7.1399633e-06   0.43664659  0.026215958            0   0.41043063    1.3215873    1.7582339    1.3926678 
10705000   0.87597306 -2.6338937e-08   0.45067621  0.025674611            0    0.4250016    1.2975351    1.7482113    1.7468627 
10710000   0.86761499 9.2159484e-06   0.46762879  0.089009396            0    0.3786194    1.2851547    1.7527835    2.2246401 
10715000   0.87712659 3.8875313e-05    0.4451349  0.049840231            0   0.39529467    1.2992438    1.7443787    3.7347947 
10720000   0.90935201 -8.0253784e-07   0.40989979  0.032056641            0   0.37784315    1.3469777    1.7568775    1.7157875 
10725000   0.90753911 9.1194563e-06   0.39716703  0.020841347            0   0.37632568    1.3442923    1.7414593    2.2083755 
10730000   0.84837156 7.6001395e-06   0.50765077   0.05750502            0   0.45014575    1.2566504    1.7643011    2.1534283 
10735000   0.97427338 -1.6352733e-05   0.33650576  0.034326975            0   0.30217878    1.4431425    1.7796482   0.94238826 
10740000   0.99224809 -1.4937061e-06   0.32697113 0.0093004087            0   0.31767072    1.4697675    1.7967386    1.7202609 
10745000   0.93972519 -4.0903122e-05   0.43367766  0.012814385            0   0.42086328    1.3919679    1.8256456  -0.26859426 
10750000   0.94970416 -0.0001032301    0.4218167  0.018802544            0   0.40301416    1.4067493     1.828566   -3.4568152 
10755000   0.97758514 -7.2094054e-05   0.40205348  0.017040253            0   0.38501322     1.448048    1.8501015   -1.8411141 
10760000   0.93618281 -8.3964511e-05    0.4749216  0.011187572            0   0.46373403    1.3867208    1.8616424   -2.4373406 
10765000   0.98138502 -6.3580418e-05   0.39740659 0.0080995597            0   0.38930703    1.4536766    1.8510831   -1.4042342 
10770000   0.87658307 -2.0668734e-05   0.55415868  0.092970613            0   0.46118807    1.2984387    1.8525973   0.79435815 
10775000   0.92521156 -8.4545044e-05   0.49392371  0.060182823            0   0.43374089    1.3704696    1.8643933   -2.4643129 
10780000   0.96226028 -4.7254753e-05   0.44485464   0.01310128            0   0.43175336     1.425348    1.8702027  -0.54924066 
10785000    0.9203605 1.4292532e-05   0.51597146   0.10559752            0   0.41037394     1.363284    1.8792555    2.6110331 
10790000   0.98508461 0.00012585955    0.4198938  0.023454899            0    0.3964389    1.4591566    1.8790504    8.3230591 
10795000    1.0140861 0.0001145066   0.35701931  0.016425577            0   0.34059373    1.5021151    1.8591344    7.7218724 
10800000   0.92023635 3.9660716e-05   0.50552535   0.02143211            0   0.48409324    1.3631001    1.8686254    3.8992541 
10805000   0.94751977  3.90599e-06   0.46682186  0.020152821            0   0.44666904    1.4035137    1.8703355    2.0703222 
10810000    0.9252736 3.4288153e-05   0.47821194  0.040298604            0   0.43791333    1.3705615    1.8487735    3.6043269 
10815000    1.0019476 2.4588865e-05   0.38038838  0.031079788            0   0.34930859    1.4841349    1.8645232    3.1234732 
10820000   0.98215971 -5.7395873e-05   0.40870168   0.01105478            0    0.3976469    1.4548241    1.8635258   -1.0751429 
10825000   0.98092684 -0.00011519705   0.41338722  0.012066844            0   0.40132037    1.4529979    1.8663851   -4.0317039 
10830000     1.024234 -3.6709256e-05   0.35010221  0.014942843            0   0.33515936    1.5171467    1.8672489  -0.01226503 
10835000     1.016514 6.6264748e-05   0.36451898 0.0077019034            0   0.35681707    1.5057113    1.8702303    5.2629854 
10840000   0.95703345 5.1968996e-05   0.47576204  0.025203819            0   0.45055822    1.4176058    1.8933678    4.5541805 
10845000   0.96196823 0.00016846049   0.44414646  0.023148765            0   0.42099769    1.4249154    1.8690619    10.494239 
10850000   0.99811108 -2.5549484e-07   0.41293021 0.0012796134            0   0.41165059     1.478452    1.8913822    1.8783009 
10855000   0.98294598 -6.5851469e-05   0.40813351 0.0056633751            0   0.40247014    1.4559887    1.8641223    -1.507473 
10860000    1.0162819 -8.3779583e-06    0.3627832  0.009425496            0    0.3533577    1.5053676    1.8681508    1.4391993 
10865000   0.93158075 3.6661393e-05   0.48788709   0.01475036            0   0.47313673     1.379904    1.8677911    3.7448544 
10870000    1.0054772 2.5498623e-05   0.40765889  0.034761729            0   0.37289716    1.4893631     1.897022    3.2025516 
10875000   0.97534204 -7.730659e-05   0.51071286   0.03891334            0   0.47179952    1.4447254    1.9554383   -2.0026591 
10880000    1.0162334 -8.2666004e-05   0.45275915  0.024581342            0    0.4281778    1.5052957    1.9580548   -2.2744446 
10885000    1.0073754 3.4367046e-05   0.44798463  0.030545938            0   0.41743869    1.4921749    1.9401595    3.6997522 
10890000     1.014921 5.333774e-05   0.44905941 0.0082588719            0   0.44080054    1.5033517    1.9524111    4.6833034 
10895000    1.0457243 -2.6854168e-05   0.41431546  0.022456811            0   0.39185865    1.5489791    1.9632945   0.58836111 
10900000    1.0191126 8.6408783e-06   0.47081955 0.0042602675            0   0.46655929    1.5095606    1.9803802    2.4227931 
10905000    1.0595365 7.280308e-05   0.44601112  0.012843756            0   0.43316736    1.5694385    2.0154496    5.7429673 
10910000    0.9988611 7.3971721e-05   0.52610665  0.076077558            0   0.45002909     1.479563    2.0056696    5.7930218 
10915000    1.1203773 1.5737184e-05   0.33722766 0.0045912675            0   0.33263639    1.6595588    1.9967865    2.8025303 
10920000    1.0127967 1.1215159e-05   0.44078521 0.0035156561            0   0.43726955    1.5002051    1.9409903    2.5152064 
10925000    0.9965724 -1.6417712e-05   0.46219216 0.0091422079            0   0.45304996    1.4761729     1.938365    1.0977782 
10930000    1.0103482 -2.0072894e-05   0.42605214  0.015553836            0    0.4104983    1.4965783    1.9226304   0.89489824 
10935000   0.97140275 -7.906813e-06   0.50172564   0.01989233            0   0.48183331    1.4388903     1.940616    1.5357871 
10940000   0.98871818 6.1253673e-05   0.47698557  0.020107896            0   0.45687767    1.4645388    1.9415244    5.0777124 
10945000    1.0022734 4.2629149e-05   0.46253227  0.021742604            0   0.44078967    1.4846175    1.9471498    4.1297622 
10950000    1.0300522 6.7582687e-06   0.41287461 0.0016704124            0   0.41120419    1.5257647    1.9386394    2.2846627 
10955000    1.0562909 -3.1316648e-05   0.38407167 0.0032516582            0   0.38082001     1.564631    1.9487026   0.34529024 
10960000    1.0493969 1.8458252e-05   0.40026397  0.015256426            0   0.38500754    1.5544192    1.9546832    2.8997457 
10965000   0.94559853 4.4871695e-05   0.56658314  0.032103566            0   0.53447958    1.4006678     1.967251    4.2646818 
10970000   0.98361921 -5.632724e-05   0.50624599   0.02389343            0   0.48235256     1.456986    1.9632319  -0.92072273 
10975000    1.0100426 -9.7854702e-05   0.45568747  0.010447124            0   0.44524035    1.4961256    1.9518131   -3.0583476 
10980000    1.0000341 5.9811502e-05   0.45354392  0.017282486            0   0.43626143    1.4813006    1.9348445    4.9971933 
10985000    1.0142063 -2.632999e-05   0.40864148  0.026219449            0   0.38242203     1.502293    1.9109345   0.56283904 
10990000    0.9556129 -8.9278153e-05   0.49429647 0.0086246665            0    0.4856718    1.4155016    1.9097981   -2.6612434 
10995000   0.96995499 -6.6447098e-06   0.48528986 0.0075104268            0   0.47777943    1.4367458    1.9220357    1.5818266 
11000000    1.0100934 5.4035847e-05     0.415452 0.0060963142            0   0.40935569    1.4962008    1.9116528    4.6782882 
11005000   0.98056795 4.0448144e-05   0.48303065  0.026303603            0   0.45672704    1.4524663    1.9354969    4.0064419 
11010000   0.98238434  3.93389e-05   0.49204178  0.032178198            0   0.45986358    1.4551568    1.9471986    3.9613503 
11015000    1.0046681 -5.8311513e-05   0.48368109  0.020593953            0   0.46308714    1.4881646    1.9718457   -1.0137038 
11020000   0.98076094 1.6830764e-05   0.51170093  0.010589089            0   0.50111184    1.4527521    1.9644531    2.8261882 
11025000    1.0409479 3.8795793e-05   0.43382766   0.00232655            0   0.43150111    1.5419041    1.9757318    3.9620764 
11030000    1.0311622 -7.2661695e-05   0.44982664  0.024991312            0   0.42483533     1.527409    1.9772356   -1.7430431 
11035000   0.99447071 -4.5142721e-05   0.49059226  0.063241725            0   0.42735054    1.4730597     1.963652   -0.3476553 
11040000   0.91420549 -5.8849996e-05   0.61643524 0.0088605494            0   0.60757469    1.3541669    1.9706021   -1.0425177 
11045000   0.91897869 -7.6736882e-05   0.59998684  0.020950688            0   0.57903615    1.3612372     1.961224   -1.9677043 
11050000     1.000933 -1.8599938e-05   0.48003572  0.045610346            0   0.43442538     1.482632    1.9626677    1.0103509 
11055000    1.0754857 3.5597131e-05   0.38643552  0.025905935            0   0.36052959    1.5930631    1.9794986    3.8020717 
11060000   0.97386336 -9.0281283e-06   0.57219628  0.012557974            0   0.55963831    1.4425351    2.0147314    1.5524912 
11065000    1.0450354 2.428656e-05    0.4688437  0.023903802            0    0.4449399    1.5479587    2.0168024    3.2602743 
11070000    1.0138509 -2.9206456e-05   0.51973766  0.026049291            0   0.49368837    1.5017666    2.0215043   0.52613376 
11075000     1.068774 -6.2480921e-05   0.42975521  0.027864527            0   0.40189068    1.5831215    2.0128767   -1.1861465 
11080000    1.0156124 0.00012710855     0.511796  0.046531116            0   0.46526489    1.5043759    2.0161719    8.5241297 
11085000   0.97037931 0.00014219703   0.54965234  0.031850232            0   0.51780211    1.4373744    1.9870267    9.2675145 
11090000    1.0136293 -2.6720897e-05   0.51781213  0.010926718            0   0.50688542    1.5014384    2.0192505   0.65114062 
11095000    1.0176559 -4.0199527e-05   0.52820532  0.017580987            0   0.51062433    1.5074028    2.0356081 -0.022607662 
11100000    1.1074336 9.2863151e-05   0.40986287  0.020662137            0   0.38920073     1.640386    2.0502489    6.8048422 
11105000    1.0629496 0.00014910055   0.47380345  0.035024718            0   0.43877873    1.5744941    2.0482975    9.6822455 
11110000    1.0651205 6.6184774e-05   0.46813965  0.071938579            0   0.39620108    1.5777097    2.0458493    5.4345097 
11115000    1.0167039 -0.0001724823   0.53798846  0.020092516            0   0.51789594    1.5059926    2.0439811   -6.7871126 
11120000    1.0476944 -5.8872365e-05   0.49607093 0.0076744175            0   0.48839651    1.5518973    2.0479682  -0.96629687 
11125000    1.0618571 0.00013168099   0.49205524  0.012363371            0   0.47969187    1.5728759    2.0649311     8.806998 
11130000    1.0227138 4.1488224e-05   0.56586377   0.01120599            0   0.55465778    1.5148948    2.0807586    4.2049556 
11135000    1.0094112 -1.1176627e-05   0.55821391  0.021745455            0   0.53646846    1.4951903    2.0534043     1.481161 
11140000    1.0837969 -8.9840837e-05   0.46397905  0.010015395            0   0.45396365    1.6053742    2.0693533   -2.5304976 
11145000     1.074614 -0.00010940469   0.48363574  0.026082619            0   0.45755312     1.591772    2.0754078   -3.5261124 
11150000   0.93501036 -3.5261177e-05   0.69148796  0.048515165            0    0.6429728    1.3849841    2.0764721   0.27109979 
11155000    1.0680343 -3.0624283e-05   0.48704932  0.053970873            0   0.43307845    1.5820258    2.0690752   0.50111189 
11160000    1.0642636 -0.00011099521   0.50171274  0.012787291            0   0.48892544    1.5764404    2.0781532   -3.6048016 
11165000    1.0355008 -1.5090343e-05   0.56065466  0.014416102            0   0.54623856    1.5338356    2.0944903    1.3218647 
11170000    1.0847715 3.3493196e-06   0.49965453  0.013310803            0   0.48634373    1.6068178    2.1064723    2.2779574 
11175000    1.0481338 -5.4875673e-05   0.54935548 0.0050101187            0   0.54434536    1.5525482    2.1019036  -0.70773083 
11180000    1.0387023 1.5135249e-05   0.55147771  0.012273315            0   0.53920439    1.5385777    2.0900554    2.8649802 
11185000    1.0524051 0.00015267223   0.50616146  0.042959012            0   0.46320244    1.5588751    2.0650365    9.8818547 
11190000    1.0051406 4.1300853e-05   0.56765387  0.035907056            0   0.53174681    1.4888645    2.0565183     4.171122 
11195000     1.074457 -1.4231493e-05   0.45939287  0.025402479            0   0.43399039    1.5915395    2.0509324    1.3222799 
11200000     1.020444 3.6608826e-05   0.51871792  0.030612678            0   0.48810525    1.5115327    2.0302506    3.9046225 
11205000    1.0625498 4.2372096e-05    0.4389896  0.031241222            0   0.40774838    1.5739019    2.0128915    4.1823428 
11210000     1.024435 -1.8739416e-05   0.48642848  0.034020628            0   0.45240785    1.5174443    2.0038728    1.0444147 
11215000    1.0010772 -1.99872e-05   0.51668373  0.044654135            0    0.4720296    1.4828456    1.9995294   0.97618472 
11220000    1.0163955 2.2008326e-06   0.48871139  0.062376838            0   0.42633455    1.5055359    1.9942473    2.1069299 
11225000    1.0316014 -0.00015504853   0.47322194  0.026274753            0   0.44694719    1.5280596    2.0012815   -5.9372035 
11230000    1.0536003 -0.00010194888   0.45366062 0.0099746507            0   0.44368596    1.5606454     2.014306   -3.2054768 
11235000    1.0764668 -3.4225149e-05   0.39366303  0.028093129            0    0.3655699    1.5945165    1.9881795    0.2358519 
11240000   0.98462085 1.6757507e-05   0.53135923  0.058086213            0   0.47327301    1.4584696    1.9898289    2.8478132 
11245000    1.0366038 0.00014298105   0.45050841  0.022780691            0   0.42772772    1.5354693    1.9859777    9.3066075 
11250000   0.98659522 -4.9129807e-05   0.53958026  0.037688954            0   0.50189131    1.4613942    2.0009744   -0.5144717 
11255000    0.9813196 -9.5062952e-05   0.55279203  0.036708141            0   0.51608389    1.4535797    2.0063717   -2.8608515 
11260000   0.97897463 2.4516044e-05   0.56914304  0.037422871            0   0.53172017    1.4501062    2.0192492    3.2744707 
11265000    1.0446962 -7.6314837e-05   0.47118859  0.017333887            0   0.45385471    1.5474562    2.0186448   -1.8886749 
11270000    1.0791398 5.862478e-05   0.40382876   0.05310317            0   0.35072559    1.5984758    2.0023045    5.0038933 
11275000   0.92590083 -0.00015000001   0.60361738  0.035017475            0   0.56859991    1.3714906     1.975108   -5.7048923 
11280000    1.0078699 -0.00010427587   0.48108148  0.023548455            0   0.45753302    1.4929073    1.9739888   -3.3649356 
11285000   0.99346177 -3.5714546e-05   0.47430516  0.025664666            0   0.44864049    1.4715652    1.9458704   0.11728564 
11290000     1.061834 -7.8968582e-07    0.3974485    0.0114496            0    0.3859989    1.5728416    1.9702901    1.9298582 
11295000     1.045964 3.9256023e-06   0.42635833  0.020053478            0   0.40630485    1.5493342    1.9756925    2.1766833 
11300000   0.99513103 -0.00010093733   0.51437426  0.012528342            0   0.50184592    1.4740378    1.9884121    -3.179579 
11305000    1.0057918 -6.8259913e-05    0.4866514 0.0042925055            0   0.48235889    1.4898291    1.9764805   -1.5184271 
11310000   0.95760418 -2.2748796e-05   0.56843471   0.01405366            0   0.55438105    1.4184512    1.9868859   0.82214755 
11315000   0.96439031 9.2154086e-05   0.55426188  0.030724463            0   0.52353741    1.4285032     1.982765    6.7010542 
11320000    0.9885932 -5.091996e-05   0.50050846  0.016063066            0    0.4844454    1.4643537    1.9648621  -0.64223982 
11325000    1.0584518 -0.00011426655    0.3933362 0.0055102714            0   0.38782592    1.5678317    1.9611679   -3.8892794 
11330000    0.9619079 -0.00010260667   0.54951575 0.0041296768            0   0.54538607    1.4248261    1.9743418   -3.2791197 
11335000   0.95464645 -9.6976519e-05    0.5555081  0.020415764            0   0.53509234      1.41407    1.9695782   -2.9956196 
11340000   0.95180856 -3.8737875e-06    0.5555865  0.023569208            0   0.53201729    1.4098664    1.9654529     1.767115 
11345000    1.0182942 9.4201154e-05   0.47593186  0.014832464            0    0.4610994    1.5083483    1.9842802    6.8073793 
11350000   0.97419205 0.00013109634   0.53348346 0.0053470088            0   0.52813645     1.443022    1.9765054     8.688638 
11355000   0.98392258 7.9153521e-05   0.50498901 0.0018504022            0   0.50313861    1.4574353    1.9624243    6.0150846 
11360000      1.00205 -4.7184832e-05   0.48883978 0.0080110108            0   0.48082877    1.4842865    1.9731263  -0.44273708 
11365000     1.007078 -2.1158006e-05   0.51242352    0.0131102            0   0.49931332    1.4917343    2.0041578    0.9208679 
11370000    1.0008508 -1.0334925e-05   0.53524381  0.018256116            0   0.51698769    1.4825102     2.017754    1.4886059 
11375000   0.96842782 -2.5898012e-05   0.56372386  0.022564013            0   0.54115985    1.4344837    1.9982076   0.67222937 
11380000    1.0373438 7.6280232e-05    0.4753661 0.0078121841            0   0.46755391    1.5365656    2.0119317    5.9174795 
11385000   0.95402645 3.7656669e-05    0.6053082 0.0077156293            0   0.59759257    1.4131517    2.0184599    3.9464813 
11390000   0.96144516 4.7662109e-05   0.60892489  0.011842961            0   0.59708193    1.4241406    2.0330655    4.4733655 
11395000    1.0429846 1.1589177e-05   0.49518672  0.027140777            0   0.46804594    1.5449209    2.0401076    2.6334735 
11400000    1.0146292 -2.2649671e-05   0.51716221   0.01414731            0    0.5030149    1.5029196    2.0200818   0.86041859 
11405000   0.98745811 -4.1258474e-05   0.52431246  0.026492952            0   0.49781951    1.4626723    1.9869848   -0.1254491 
11410000    1.0159637 -4.9089524e-05   0.48354611  0.026140008            0    0.4574061    1.5048963    1.9884424  -0.52494124 
11415000    1.0176265 -1.0202076e-05   0.49595083  0.025163232            0    0.4707876    1.5073593    2.0033101    1.4809638 
11420000    0.9697013 4.5481341e-05   0.60778265  0.017244485            0   0.59053817    1.4363701    2.0441527    4.3727974 
11425000   0.99368621 -1.3750009e-05   0.59452675  0.011355176            0   0.58317157    1.4718977    2.0664245     1.362424 
11430000    1.0247918 -7.8936489e-05   0.51143975  0.013114146            0    0.4983256    1.5179729    2.0294127   -2.0121356 
11435000    1.0833225 -7.9707767e-05   0.45997128  0.022552764            0   0.43741851    1.6046714    2.0646427    -2.016395 
11440000   0.97099636 -2.619021e-05   0.61365323  0.022694834            0    0.5909584    1.4382884    2.0519416   0.71100283 
11445000    0.9973741 6.584828e-05    0.5880432  0.016520925            0   0.57152228    1.4773604    2.0654036    5.4368355 
11450000    1.0204934 -1.3680102e-05   0.52746048 0.0042930815            0    0.5231674    1.5116058    2.0390663    1.3386451 
11455000    1.0718696 -7.566841e-06   0.48450567 0.00079416849            0    0.4837115    1.5877069    2.0722125    1.6847903 
11460000    1.0096587 -1.0460965e-05   0.55263366 0.0032594835            0   0.54937418     1.495557    2.0481906    1.5125892 
11465000    1.0208496 3.3209555e-05   0.52043283 0.0051781104            0   0.51525472    1.5121334    2.0325663    3.7328954 
11470000    1.0279992 0.00010469771   0.50378151  0.034059501            0   0.46972201    1.5227238    2.0265053    7.3870283 
11475000    1.0617975 8.808658e-05   0.42226997  0.020091494            0   0.40217848    1.5727875    1.9950575    6.5050904 
11480000    1.0380237 -0.00012796506   0.48877624 0.0090447519            0   0.47973149    1.5375726    2.0263488   -4.5254621 
11485000   0.96248337 3.8439131e-05   0.61870584 0.0039005814            0   0.61480526    1.4256785    2.0443843    4.0124678 
11490000    1.0714868 -1.4498526e-05   0.47520813  0.023744722            0    0.4514634    1.5871398    2.0623479    1.3200234 
11495000    1.0949575 9.4468805e-05   0.45996883  0.029277974            0   0.43069085    1.6219058    2.0818746    6.9186775 
11500000    1.0607048 5.3658089e-05   0.53185999 0.0062830283            0   0.52557696     1.571169     2.103029    4.8503232 
11505000    1.0320712 -0.00011283632   0.60860732  0.010380877            0   0.59822645    1.5287555    2.1373628   -3.6398568 
11510000   0.99601097 -3.3319574e-05   0.66847245  0.004247676            0   0.66422478    1.4753412    2.1438137   0.43785154 
11515000    1.1463804 -1.106452e-05   0.41629571  0.018050227            0   0.39824548    1.6980759    2.1143716    1.5478682 
11520000    1.0584484 0.00013309481    0.5835912   0.06500647            0   0.51858473    1.5678267    2.1514179     8.965872 
11525000   0.98271313 8.901591e-05   0.67471551  0.035564083            0   0.63915143    1.4556438    2.1303593    6.6879739 
11530000    1.0603066 -7.0855505e-05   0.57214205  0.026963754            0    0.5451783    1.5705791    2.1427212   -1.4850807 
11535000    1.0905329 -9.1173325e-05   0.51423934  0.015973251            0   0.49826609    1.6153519    2.1295912    -2.538483 
11540000    1.1369212 -0.00011637422   0.47185213   0.01514352            0   0.45670861    1.6840646    2.1559167   -3.8024431 
11545000    1.0657607 4.8380432e-05   0.58153324   0.01904186            0   0.56249138    1.5786581    2.1601913    4.6372695 
11550000    1.0358263 -7.2269281e-05   0.59522366 0.0089359201            0   0.58628774    1.5343177    2.1295413   -1.5706459 
11555000    1.0476122 4.6638653e-05    0.5739225  0.059871549            0   0.51405095    1.5517756    2.1256981    4.5135971 
11560000    1.0150047 -8.7272275e-05   0.59364476  0.090322421            0   0.50332234    1.5034757    2.0971205     -2.37122 
11565000    1.0293946 3.4702732e-05   0.58714012  0.028042608            0   0.55909751    1.5247907    2.1119308    3.8887107 
11570000    1.0256494 8.8649465e-05   0.59439119  0.069371299            0   0.52501989    1.5192432    2.1136344     6.652487 
11575000    1.0986056 0.00010565357   0.45754236  0.016165805            0   0.44137656    1.6273095    2.0848519    7.4943145 
11580000     1.067141 2.5842376e-05   0.50030691 0.0030793908            0   0.49722752    1.5807026    2.0810095    3.4041392 
11585000   0.98351475 0.0001184395   0.60648813 0.00068250053            0   0.60580563    1.4568312    2.0633194    8.1274219 
11590000    1.0188497 7.5023904e-05   0.60516966 0.0015213638            0    0.6036483    1.5091712    2.1143408    5.9555647 
11595000    1.1230214 3.908804e-05   0.47132887 0.0091421027            0   0.46218677    1.6634754    2.1348043     4.136112 
11600000   0.98268552 -7.0512719e-05   0.64938813  0.010338402            0   0.63904973    1.4556029    2.1049911   -1.5052602 
11605000     1.020288 6.4819549e-05   0.60638409  0.038837493            0    0.5675466    1.5113016    2.1176857    5.4364466 
11610000    1.0991088 -2.7935022e-05   0.51058766  0.023917268            0   0.48667039    1.6280548    2.1386425   0.70836939 
11615000    1.1267112 -1.3828794e-05   0.51208053  0.016619012            0   0.49546152    1.6689409    2.1810215    1.4729872 
11620000    1.0386542 -4.1512685e-05   0.63765482  0.038677005            0   0.59897781    1.5385065    2.1761613  0.050711853 
11625000    1.1419213 -3.7358453e-06   0.49638952  0.026244161            0   0.47014536    1.6914709    2.1878605    1.9965852 
11630000    1.1333967 -9.5678394e-07   0.51652285  0.049702611            0   0.46682024    1.6788438    2.1953667    2.1463793 
11635000    1.0838101 7.0710747e-05   0.56088567  0.059388672            0     0.501497    1.6053938    2.1662794    5.7866697 
11640000    1.0179708 0.0002177128   0.62153641  0.024185323            0   0.59735108    1.5078692    2.1294057    13.276301 
11645000     1.086243 -8.3050441e-06   0.53455832  0.017626967            0   0.51693136    1.6089975    2.1435558    1.7183375 
11650000    1.0868735 1.1899587e-05   0.55528797  0.070728683            0   0.48455928    1.6099313    2.1652193    2.7744782 
11655000     1.143607 -6.597954e-06    0.5106138  0.025228471            0   0.48538533    1.6939678    2.2045816    1.8667664 
11660000    1.1165588 -8.6827843e-05   0.56336346 6.3094103e-05            0   0.56330036    1.6539027    2.2172661   -2.2283194 
11665000    1.1394725 8.7803024e-05   0.52077987  0.014862159            0   0.50591771    1.6878436    2.2086235    6.7041383 
11670000    1.0110885 4.411299e-05   0.71692518  0.041564022            0   0.67536116    1.4976748       2.2146    4.4731851 
11675000    1.0742837 -2.9862264e-05   0.61722901  0.040749311            0    0.5764797    1.5912828    2.2085118    0.6795639 
11680000    1.1187095 0.0001029452   0.55707141  0.034123156            0   0.52294825    1.6570885    2.2141599    7.4849539 
11685000    1.1268237 -1.3242308e-05   0.56740484  0.045657958            0   0.52174688    1.6691077    2.2365125    1.5585063 
11690000    1.0616963 -6.455788e-05   0.63219589   0.03417787            0   0.59801802    1.5726376    2.2048335     -1.10053 
11695000    1.0515773 -0.00010740616    0.5991665  0.024800499            0     0.574366    1.5576488    2.1568153   -3.3423798 
11700000    1.0986723 4.5210125e-05   0.57312534   0.05386422            0   0.51926112    1.6274083    2.2005336     4.515292 
11705000    1.0385987 6.6597368e-05   0.62778217  0.026002753            0   0.60177941    1.5384244    2.1662066    5.5759918 
11710000    1.0013125 1.817176e-05   0.66784047    0.0233305            0   0.64450997    1.4831942    2.1510347    3.0814288 
11715000    1.0895003 3.6078743e-06   0.53775331  0.036647281            0   0.50110602    1.6138224    2.1515757    2.3362989 
11720000     1.094769 -7.5065309e-05   0.56155473  0.027635317            0   0.53391941    1.6216265    2.1831813   -1.6601626 
11725000    1.1022179 1.6954865e-05   0.52273341    0.0212798            0   0.50145361    1.6326603    2.1553937    3.0234828 
11730000    1.1282779 -9.7908893e-06    0.5071935  0.008997526            0   0.49819597    1.6712616    2.1784551    1.6771616 
11735000    1.0749317 -7.8222667e-05   0.59695439 0.0084525185            0   0.58850187    1.5922425    2.1891969   -1.8158036 
11740000    1.1266005 -5.1697661e-05   0.49065165  0.010283767            0   0.48036788    1.6687769    2.1594286  -0.48749165 
11745000    1.0374291 -2.6116046e-05   0.60818946  0.047760014            0   0.56042945    1.5366919    2.1448814   0.80773982 
11750000    1.0338568 0.00017303348   0.58027109  0.066753373            0   0.51351772    1.5314004    2.1116715    10.970986 
11755000    1.0870937 8.5129399e-05   0.50803432  0.042853697            0   0.46518062    1.6102576    2.1182919    6.4769171 
11760000    1.0918732 4.4401199e-05   0.49050038 0.0045614752            0   0.48593891    1.6173372    2.1078376     4.381179 
11765000   0.98293405 -3.7737785e-05   0.62158209 0.0050587857            0   0.61652331    1.4559711    2.0775532   0.14537857 
11770000   0.97648258 -0.00010530493   0.63948351  0.039042125            0   0.60044139    1.4464148    2.0858983   -3.3057143 
11775000    1.0191236 -6.7836665e-05   0.56711586  0.025188258            0    0.5419276    1.5095769    2.0766927   -1.3965445 
11780000    1.0913972 -4.1640186e-05   0.42745373 0.0011053835            0   0.42634835    1.6166321    2.0440858 -0.087891695 
11785000    1.0601166 9.2888715e-06   0.48654723   0.02687526            0   0.45967197    1.5702976    2.0568449    2.5324351 
11790000     1.027961 0.00013574146   0.53856397  0.039778252            0   0.49878571    1.5226672    2.0612312    9.0111937 
11795000    1.0111248 7.449567e-05    0.5573842  0.018814297            0   0.53856991    1.4977286    2.0551128    5.8692911 
11800000      1.06475 2.1132605e-05   0.45664466  0.010836102            0   0.44580856     1.577161    2.0338056     3.115795 
11805000    1.0155766 -0.00010857853   0.51027997  0.012524518            0   0.49775545    1.5043229    2.0146029   -3.5446178 
11810000   0.97054392 -7.3591753e-05   0.59847341  0.059728139            0   0.53874527    1.4376182    2.0360916   -1.7318062 
11815000   0.94072553 5.9101175e-06   0.66979875  0.044365719            0   0.62543303    1.3934497    2.0632484    2.3658465 
11820000   0.98133893 -3.9145655e-05   0.58303397  0.012723237            0   0.57031074    1.4536083    2.0366423  0.032384716 
11825000    1.0128584 -5.0445286e-05   0.55898995  0.035644544            0   0.52334541    1.5002965    2.0592865  -0.52351218 
11830000    1.0227244 -0.00010649806   0.54419239  0.067305179            0   0.47688721    1.5149104    2.0591028    -3.393598 
11835000    1.0119479 -2.513412e-05   0.53565746  0.061799127            0   0.47385833    1.4989478    2.0346053   0.74773836 
11840000   0.97491843 0.00014695564   0.60409551  0.019047341            0   0.58504817    1.4440979    2.0481934    9.5723223 
11845000    1.0733235 3.5556101e-05   0.45030081  0.010426178            0   0.43987463    1.5898604    2.0401613    3.8606336 
11850000    1.0092243 -3.4011868e-05   0.55484271  0.050409921            0   0.50443279    1.4949135    2.0497562   0.30834856 
11855000   0.97609617 4.5852638e-06   0.63288749  0.024668544            0   0.60821894    1.4458424    2.0787299    2.3134954 
11860000   0.99039256 -2.5785732e-05   0.61903359  0.070801519            0   0.54823207     1.467019    2.0860526    0.7658231 
11865000    1.0690513 4.4316963e-05   0.48831969  0.018763475            0   0.46955622    1.5835322    2.0718519    4.3408804 
11870000    1.0433024 0.00011826676   0.53640502  0.012735418            0    0.5236696    1.5453916    2.0817967    8.1370546 
11875000    1.0407187 0.00018354891   0.51494977  0.016707142            0   0.49824263    1.5415646    2.0565143    11.454218 
11880000   0.93397172 0.00017411486   0.67275786  0.050113972            0   0.62264389    1.3834456    2.0562035    10.970884 
11885000   0.99646261 3.7391218e-05    0.5657401  0.030060415            0   0.53567968    1.4760102    2.0417503    3.9561807 
11890000   0.94635339 5.032975e-05   0.64608986  0.026122345            0   0.61996752     1.401786    2.0478758     4.624759 
11895000   0.97024261 8.5767368e-05     0.607399  0.031786013            0   0.57561299    1.4371719    2.0445709    6.4358601 
11900000    1.0394919 8.8606046e-06   0.51330602  0.053360031            0   0.45994599    1.5397474    2.0530534    2.5067163 
11905000    1.0273481 -7.1452085e-05   0.55183282  0.056764601            0   0.49506822    1.5217593    2.0735921   -1.5847546 
11910000    1.0329047 4.6585123e-05   0.56917242  0.055562516            0   0.51360991    1.5299902    2.0991626    4.4843209 
11915000   0.96204814 4.0519948e-05   0.66353142  0.088044732            0   0.57548668    1.4250338    2.0885652    4.1631866 
11920000   0.98527524 -4.8541397e-05   0.64272929   0.01453037            0   0.62819892    1.4594389    2.1021682  -0.38315128 
11925000   0.97757648 4.6426006e-05   0.64506679 0.0061017243            0   0.63896507    1.4480352    2.0931019    4.4701134 
11930000    1.0801112 4.3148609e-05   0.47674346 0.0042281563            0    0.4725153    1.5999147    2.0766581    4.2858669 
11935000    1.0154422 8.9820238e-05   0.58446247  0.012975317            0   0.57148716    1.5041237    2.0885862    6.6873824 
11940000   0.94088309 0.00018338864   0.66875139  0.050147243            0   0.61860415    1.3936831    2.0624345    11.451933 
11945000   0.92240133 0.00018532381    0.6620005  0.025858454            0   0.63614205     1.366307    2.0283075    11.516886 
11950000   0.96419618 9.4467266e-05    0.6059277   0.03242283            0   0.57350487    1.4282156    2.0341433    6.8708673 
11955000   0.93724103 2.6907439e-06   0.65728389  0.059496921            0   0.59778697    1.3882883    2.0455722    2.1833383 
11960000   0.97613656 -6.492962e-05   0.57677594  0.018337265            0   0.55843868    1.4459023    2.0226782   -1.3017183 
11965000   0.96435791 -6.3605807e-05   0.58569556 0.0057237473            0   0.57997182    1.4284552    2.0141507   -1.2424666 
11970000   0.90382081 2.9043615e-05   0.66760941 0.0077017338            0   0.65990768    1.3387846     2.006394    3.4934271 
11975000   0.99971137 5.4098028e-05   0.54584947 0.0047760454            0   0.54107342    1.4808225    2.0266719     4.796491 
11980000   0.91547844 -5.2283479e-05   0.67528574   0.03741367            0   0.63787207    1.3560524    2.0313382  -0.64557595 
11985000   0.99438729 2.647314e-05   0.56473608  0.039768073            0     0.524968    1.4729362    2.0376722     3.393097 
11990000    1.0340289 2.6142523e-05    0.5065538  0.020805315            0   0.48574849    1.5316553    2.0382091    3.3767063 
11995000   0.97977297 -7.3541645e-05   0.56292362  0.025319666            0   0.53760395    1.4512887    2.0142123   -1.7511199 
12000000    0.9487445 3.6759824e-06    0.6158628  0.011289847            0   0.60457295    1.4053278    2.0211906    2.2094009 
12005000   0.96566447 8.8791843e-05   0.55499478 0.0028248667            0   0.55216991    1.4303905    1.9853853    6.5315276 
12010000   0.90453751 -8.1823561e-05   0.65227412  0.002172509            0   0.65010161    1.3398462    1.9921203    -2.197246 
12015000   0.94602637 -4.3637409e-05   0.60456164 0.0054720719            0   0.59908957    1.4013016    2.0058632  -0.22837212 
12020000   0.95421698 7.0074502e-05   0.56693954  0.027809732            0    0.5391298    1.4134339    1.9803734    5.5681879 
12025000   0.97884987 -6.4391516e-05   0.55059456  0.010596771            0   0.53999779    1.4499214    2.0005159   -1.2963297 
12030000    1.0121546 -7.814094e-05   0.53812919 0.0090757482            0   0.52905345    1.4992541    2.0373833   -1.9634329 
12035000   0.97872056 -4.4353374e-05   0.59927918   0.01969811            0   0.57958107    1.4497298     2.049009  -0.22188376 
12040000   0.96984204 -4.7048739e-05   0.59481069  0.024489219            0   0.57032147    1.4365785    2.0313892  -0.37750621 
12045000    1.0039227 4.933416e-05   0.53849232  0.015424482            0   0.52306784    1.4870604    2.0255528    4.5514617 
12050000   0.99495986 2.701243e-05   0.56048625   0.01764995            0    0.5428363    1.4737843    2.0342705     3.417307 
12055000    1.0656505 -8.9931893e-05   0.48925249  0.027490859            0   0.46176163    1.5784947    2.0677472   -2.5367657 
12060000    1.0487256 4.6055016e-05   0.51022548  0.032897397            0   0.47732808    1.5534248    2.0636503    4.4216671 
12065000    1.0700603 2.1754704e-05   0.48060645  0.013915874            0   0.46669058    1.5850268    2.0656333    3.1794741 
12070000    1.0570191 -4.446651e-05   0.51466658  0.011647637            0   0.50301894    1.5657095    2.0803761  -0.19630919 
12075000    1.0193639 4.7186639e-05   0.55878349  0.036235245            0   0.52254824    1.5099328    2.0687163    4.4846722 
12080000    1.0752172 9.3044025e-06   0.50678996  0.015753302            0   0.49103666    1.5926654    2.0994554    2.5758408 
12085000    1.0606384 -0.00015239538   0.52126148  0.014517328            0   0.50674416    1.5710707    2.0923322   -5.7103115 
12090000    1.0540093 -0.00011010825   0.55094444  0.013379634            0    0.5375648    1.5612512    2.1121957   -3.5253469 
12095000    1.0436406 -1.1337565e-05   0.54435888  0.015687344            0   0.52867153    1.5458926    2.0902515    1.5097682 
12100000   0.99418252 2.2368182e-05   0.58128673   0.02476097            0   0.55652576    1.4726329    2.0539196    3.1991705 
12105000    1.0032083 1.5409317e-05   0.56018245  0.047164064            0   0.51301839    1.4860023    2.0461847    2.8351418 
12110000    0.9907241 -2.3948423e-05    0.5933781  0.033888784            0   0.55948932    1.4675101    2.0608882   0.83472893 
12115000    1.0273368 5.6292647e-05   0.53882352 0.0060925719            0   0.53273095    1.5217427    2.0605662    4.9427497 
12120000    1.0754464 4.4572908e-05   0.43971856 7.653621e-06            0    0.4397109     1.593005    2.0327235    4.3148564 
12125000    1.0098217 -3.2794853e-05   0.53631235  0.000256122            0   0.53605622    1.4957984    2.0321107   0.35301428 
12130000    1.0537813 -1.6804785e-05   0.47415522 0.0064563032            0   0.46769892    1.5609136    2.0350688    1.1746638 
12135000   0.99852125 4.9217682e-05   0.55891538  0.028225751            0   0.53068963    1.4790596     2.037975    4.5579203 
12140000    1.0262753 1.3190501e-05   0.52009481  0.043244508            0    0.4768503    1.5201703    2.0402651    2.7156188 
12145000    1.0430258 5.3737618e-05   0.48509518 0.0088588138            0   0.47623636     1.544982    2.0300772    4.7814432 
12150000   0.88268587 -3.839023e-05   0.73923356  0.027728043            0   0.71150551    1.3074784     2.046712  0.081132215 
12155000   0.94689434 -9.9399223e-05   0.66737103  0.014235592            0   0.65313544    1.4025872    2.0699583   -3.0192819 
12160000    1.0260381 4.6467532e-05   0.52641773 0.0063786355            0    0.5200391    1.5198189    2.0462366    4.4253743 
12165000    1.0628916 0.00012828094   0.47917772 0.0097882704            0   0.46938945    1.5744082    2.0535859    8.6215699 
12170000   0.93157715 8.6277307e-05   0.64571129 0.0039139128            0   0.64179738    1.3798987    2.0256099    6.4430081 
12175000    0.9726235 5.3893357e-05   0.58152689 0.0086521447            0   0.57287475    1.4406986    2.0222255    4.7815653 
12180000   0.97903609 -6.9307978e-05   0.58379383  0.028280483            0   0.55551335    1.4501972     2.033991   -1.5145774 
12185000   0.90198493 -0.00012606299   0.69669719  0.023792096            0    0.6729051    1.3360652    2.0327624   -4.4216629 
12190000    1.0377638 7.1536068e-05   0.48993918  0.016906545            0   0.47303264    1.5371877    2.0271269    5.6897735 
12195000   0.97764353 7.7865926e-05   0.57314447  0.015334944            0   0.55780953    1.4481345    2.0212789    6.0080144 
12200000   0.92742555 1.0261824e-05   0.63478072  0.029777212            0   0.60500351    1.3737491    2.0085298    2.5339352 
12205000   0.99420618 -5.5059138e-06   0.55376491  0.035075339            0   0.51868957    1.4726679    2.0264328      1.74453 
12210000    1.0256701 4.785104e-05   0.50538607  0.028368114            0   0.47701795    1.5192738    2.0246598    4.4746331 
12215000   0.98390686 -2.368501e-05   0.60999944  0.039355566            0   0.57064387     1.457412    2.0674115   0.85473899 
12220000    1.0143302 -9.7479073e-05   0.57795208  0.039713594            0   0.53823848    1.5024766    2.0804287   -2.9104999 
12225000   0.91671048 2.5650121e-05   0.73828114  0.053257173            0   0.68502397    1.3578774    2.0961585    3.4094448 
12230000    1.0661593 7.8557744e-05   0.51064391  0.022395358            0   0.48824855    1.5792485    2.0898924    6.1120489 
12235000    1.0450699 -4.8727668e-05   0.56602043  0.011716456            0   0.55430397    1.5480098    2.1140302  -0.38082641 
12240000    1.0238585 1.9336086e-05   0.59942051 0.0017563594            0   0.59766415    1.5165904    2.1160109    3.1060185 
12245000     1.121576 9.5246765e-05   0.47343807 0.0035607203            0   0.46987735    1.6613344    2.1347725    7.0114068 
12250000   0.95978786 -9.2214003e-05   0.69406391  0.015731781            0   0.67833213    1.4216858    2.1157497   -2.6056073 
12255000   0.99498336 -7.1448154e-05    0.6332527  0.028297136            0   0.60495556    1.4738191    2.1070718   -1.5510737 
12260000    1.0621143 0.00010411338    0.5261153  0.048399228            0   0.47771607    1.5732568    2.0993721    7.4299772 
12265000    1.0279773 9.9779432e-05   0.57781797  0.037944672            0    0.5398733    1.5226913    2.1005093    7.2092162 
12270000   0.89170401 9.6932269e-06    0.7788717  0.021550807            0   0.75732089    1.3208366    2.0997083    2.5960015 
12275000    1.0962746 1.1451839e-05   0.49675695  0.023049499            0   0.47370745    1.6238568    2.1206138    2.7069479 
12280000    1.0681809 -5.790116e-05   0.55859006  0.041810364            0   0.51677969     1.582243     2.140833  -0.82370638 
12285000    1.1088446 -0.00019626382   0.50153662 0.0042465484            0   0.49729007    1.6424761    2.1440127   -7.9046948 
12290000   0.96985667 -0.00017851381   0.69518767 0.0056036171            0   0.68958405    1.4366002    2.1317879   -7.0081194 
12295000    1.0634932 -9.0549629e-05   0.59376528  0.019545128            0   0.57422015    1.5752993    2.1690646   -2.4670764 
12300000    1.1380123 -7.7127878e-05   0.48260131  0.020406673            0   0.46219464    1.6856808    2.1682821   -1.7806653 
12305000    1.1157803 5.8509517e-05   0.54212676  0.015800562            0   0.52632619    1.6527496    2.1948764    5.1905637 
12310000    1.0767878 0.00027028218   0.61093644   0.01591341            0   0.59502303    1.5949919    2.2059283    16.044376 
12315000    1.0461605 0.00018581193    0.6379904  0.014488449            0   0.62350195    1.5496252    2.1876156    11.701186 
12320000    1.0544866 -2.2383649e-06   0.57954408   0.05316643            0   0.52637765    1.5619582    2.1415023     2.026898 
12325000    1.0501902 -9.2911152e-05   0.59728121  0.035507775            0   0.56177344    1.5555942    2.1528754   -2.6041755 
12330000    1.0494414 -3.4879245e-05   0.58838903   0.03434164            0   0.55404739    1.5544851    2.1428741   0.35705678 
12335000    1.0914826 5.0690135e-05   0.52203784  0.022077462            0   0.49996038    1.6167586    2.1387965    4.7341314 
12340000    1.0128943 -1.0062174e-05   0.62547905  0.088494628            0   0.53698442    1.5003497    2.1258288    1.6106455 
12345000    1.0416802 7.2071919e-06   0.56948619  0.049450495            0    0.5200357    1.5429888     2.112475    2.4814832 
12350000    1.0844908 0.0001017554   0.53551543  0.044435709            0   0.49107972     1.606402    2.1419174     7.351794 
12355000    1.0438595 3.1484911e-05   0.55853361  0.019501605            0     0.539032    1.5462169    2.1047505    3.7167779 
12360000    1.0225876 -7.9952547e-05   0.56275508 0.0056287192            0   0.55712637    1.5147079     2.077463   -2.0161074 
12365000    1.0148706 -8.9244147e-05    0.5417805 0.0092579838            0   0.53252252    1.5032771    2.0450576   -2.5242427 
12370000    1.0222534 1.5279559e-06   0.52059072  0.031281521            0    0.4893092    1.5142129    2.0348036    2.1130349 
12375000     1.010582 0.00017121414     0.526384  0.016948153            0   0.50943585    1.4969246    2.0233086    10.789473 
12380000    1.0660804 2.4346327e-05   0.43886071  0.033937964            0   0.40492275    1.5791316    2.0179924    3.2645243 
12385000   0.97433529 -0.00023122229   0.58607421   0.05147791            0    0.5345963    1.4432341    2.0293084   -9.8092731 
12390000    1.0166894 -1.7955131e-05   0.53885916  0.013774627            0   0.52508453    1.5059712    2.0448304    1.1255276 
12395000     0.973895 3.6902494e-05   0.60674174  0.031461598            0   0.57528014     1.442582    2.0493237    3.9387314 
12400000    1.0727505 -6.9319893e-05   0.43513835 0.0075700854            0   0.42756827    1.5890117      2.02415   -1.5250285 
12405000    1.0208949 -9.7715248e-05   0.52192911 0.0077899952            0   0.51413911    1.5122006    2.0341297    -2.968891 
12410000   0.94728191 -2.0018605e-05     0.638012 0.0082950264            0   0.62971697    1.4031613    2.0411733    1.0162208 
12415000    1.0226251 -6.9227609e-05   0.52327403  0.019609441            0   0.50366459    1.5147634    2.0380374   -1.5064162 
12420000    1.0452034 -0.00017817508   0.48458439  0.080479636            0   0.40410475    1.5482076    2.0327919   -7.0897724 
12425000    0.9753058 -0.00013777406   0.58195075  0.066787778            0   0.51516297    1.4446717    2.0266225   -5.0274094 
12430000   0.92383557 -4.3361803e-05   0.63421067  0.032658068            0    0.6015526    1.3684314    2.0026421  -0.21748221 
12435000     1.038978 7.9883584e-05   0.46364022 0.0077310542            0   0.45590917    1.5389861    2.0026264    6.0926659 
12440000    1.0373172 5.6220529e-05   0.48348216 0.0060147042            0   0.47746745     1.536526    2.0200082    4.8984993 
12445000    1.0238255 -4.4142047e-05   0.48333064  0.023494929            0   0.45983571    1.5165415    1.9998722  -0.26020064 
12450000    1.0450877 2.0233168e-05   0.44259905  0.018237107            0   0.42436194    1.5480361    1.9906352    3.0265734 
12455000   0.97617464 3.1116919e-05   0.51038971  0.012432048            0   0.49795766    1.4459587    1.9563484    3.5495346 
12460000   0.95275694 1.912017e-05   0.54868656  0.050823053            0   0.49786351    1.4112712    1.9599578    2.9389105 
12465000   0.98704885 -2.5443489e-05   0.49057267  0.045372497            0   0.44520017    1.4620661    1.9526388   0.64993216 
12470000   0.95677491 -2.1933786e-05   0.53136327  0.013032291            0   0.51833098    1.4172228    1.9485861   0.82557624 
12475000    1.0085351 2.3393793e-05    0.4353931  0.010547396            0    0.4248457    1.4938927    1.9292858     3.127048 
12480000   0.93695669 -3.1870286e-05   0.54857032  0.026486373            0   0.52208395    1.3878671    1.9364374   0.30467876 
12485000   0.94063658 -7.3859343e-06   0.55899651  0.042874193            0   0.51612231    1.3933179    1.9523144    1.5741546 
12490000    1.0289677 3.3133966e-05   0.43521264  0.011056707            0   0.42415593    1.5241584    1.9593711    3.6558301 
12495000   0.97274358 5.5084484e-05   0.51233723 0.0066478908            0   0.50568934    1.4408764    1.9532137    4.7735393 
12500000   0.97720194 0.00018419332   0.49367921 0.0021465946            0   0.49153261    1.4474804    1.9411596    11.371857 
12505000    1.0136324 0.00019770339   0.44940318 0.0011169869            0   0.44828619     1.501443    1.9508462     12.07326 
12510000   0.94922236 0.00015245962   0.53448192 0.0062238853            0   0.52825803    1.4060356    1.9405175    9.7464502 
12515000    0.9562262 3.6526921e-05     0.524169  0.016690508            0   0.50747849    1.4164101    1.9405791    3.8107574 
12520000   0.91435836 -1.2749085e-05   0.55557723  0.011466087            0   0.54411114    1.3543933    1.9099706    1.2572174 
12525000    1.0001471 -9.7759398e-05    0.4435482  0.016289274            0   0.42725892    1.4814679    1.9250161   -3.0802651 
12530000   0.95233542 -7.5274658e-05   0.52927038  0.011771075            0    0.5174993    1.4106468    1.9399172   -1.9141453 
12535000    1.0148198 2.3425534e-05   0.45274186  0.040485557            0    0.4122563    1.5032018    1.9559437     3.155331 
12540000   0.97097379 -4.3813644e-05   0.49445617  0.081456008            0   0.41300016    1.4382549    1.9327111  -0.31054748 
12545000   0.90606678 4.5429051e-05   0.60320382  0.098958044            0   0.50424577    1.3421114    1.9453152    4.2712826 
12550000   0.95434056 0.0001268709   0.52454725  0.030512283            0   0.49403496     1.413617    1.9381642    8.4339545 
12555000    1.0385051 5.7536196e-05   0.45283949  0.037433459            0   0.41540603    1.5382857    1.9911252    4.9369784 
12560000   0.96809003 5.1674225e-05   0.52322152 0.0099717435            0   0.51324978    1.4339834    1.9572049    4.6029252 
12565000   0.98930682 0.0001014604   0.49542006 0.0055406239            0   0.48987943    1.4654107    1.9608308    7.1556035 
12570000    1.0019897 5.2290829e-05   0.48188541  0.067157853            0   0.41472756    1.4841972    1.9660826    4.6433731 
12575000   0.98160933 1.5153457e-05   0.52532255  0.053557371            0   0.47176517    1.4540088    1.9793314    2.7551884 
12580000    1.0196821 -2.6505411e-05   0.48195988  0.010405104            0   0.47155478    1.5104041     1.992364   0.63528694 
12585000   0.96357943 -8.4089562e-05   0.55373996  0.074648465            0   0.47909149     1.427302     1.981042   -2.3243436 
12590000   0.97396322 -1.9685315e-05   0.53983347  0.014775197            0   0.52505828     1.442683    1.9825165   0.97462838 
12595000    1.0229888 0.0001052023   0.48772653  0.018594948            0   0.46913158    1.5153022    2.0030287    7.3893864 
12600000   0.96795061 -7.5472837e-05   0.58198809  0.035313983            0    0.5466741    1.4337768    2.0157649   -1.8484443 
12605000    1.0756072 -0.0001504747   0.45933625  0.031185706            0   0.42815054    1.5932432    2.0525794   -5.6517252 
12610000    1.0811227 -7.4303323e-05   0.44238466 0.0064234921            0   0.43596117    1.6014129    2.0437976   -1.7605325 
12615000    1.0113192 -6.0213302e-05   0.54539004  0.013203499            0   0.53218654    1.4980166    2.0434066   -1.0395145 
12620000    1.0097451 -2.034711e-06   0.55582783  0.016873208            0   0.53895462     1.495685    2.0515128    1.9473356 
12625000    1.0625159 -7.5502571e-06   0.46427232   0.03023618            0   0.43403614    1.5738517     2.038124    1.6515509 
12630000    1.0892083 -2.411325e-05   0.42836256  0.016454639            0   0.41190792    1.6133898    2.0417524   0.80715397 
12635000   0.95951823 2.6633677e-05   0.59906459  0.027039191            0   0.57202539    1.4212864     2.020351    3.3839952 
12640000     1.052524 6.4568172e-05    0.4610714  0.036187923            0   0.42488348    1.5590511    2.0201225     5.326013 
12645000    1.0261643 -9.6644072e-05   0.52617563  0.042412754            0   0.48376288    1.5200059    2.0461815    -2.901995 
12650000    1.0385478 -1.2290622e-05   0.49224987  0.010698583            0   0.48155129    1.5383489    2.0305987    1.4013189 
12655000    1.0923605 3.0999628e-05   0.40797797 0.0012749717            0     0.406703     1.618059     2.026037    3.6132179 
12660000    1.0024638 -2.2581972e-05    0.5189675 0.0041377589            0   0.51482974    1.4848994    2.0038669   0.84766998 
12665000    1.0412814 0.00011100285   0.51675833 0.0066323781            0   0.51012595    1.5423981    2.0591564    7.7425025 
12670000   0.97621066 7.5251846e-05   0.57812978   0.02523995            0   0.55288983     1.446012    2.0241418    5.8770363 
12675000   0.95458403 -5.319622e-05   0.60794495  0.011359065            0   0.59658588    1.4139776    2.0219225   -0.7017239 
12680000    1.0358694 -5.7076235e-05   0.48952548 0.0055210187            0   0.48400446    1.5343816     2.023907   -0.8983962 
12685000    1.0258325 1.3194421e-05   0.51883273 0.0025551712            0   0.51627756    1.5195144    2.0383471    2.7139015 
12690000    1.0830276 7.3838361e-05   0.43084411 0.0017949149            0    0.4290492    1.6042346    2.0350787    5.8156028 
12695000    1.0040027 1.5928187e-05   0.55024104  0.022983028            0   0.52725802     1.487179    2.0374201    2.8529432 
12700000   0.95921389 -9.4773773e-05   0.62619732  0.059701082            0   0.56649624    1.4208356    2.0470329   -2.8053843 
12705000    1.0297449 -7.6699881e-05    0.5419264  0.028289352            0   0.51363705    1.5253097    2.0672361   -1.8597978 
12710000    1.0243349 4.3088488e-05     0.532032  0.039326685            0   0.49270532    1.5172961    2.0493281    4.2554587 
12715000    1.0347489 0.00010802993    0.5109045   0.02727823            0   0.48362627    1.5327218    2.0436263    7.5747588 
12720000   0.97721845 2.8818493e-06   0.58451966  0.020186388            0   0.56433327    1.4475048    2.0320245    2.1795752 
12725000    1.0426872 -1.2343621e-05   0.46717364  0.029200672            0   0.43797297    1.5444804    2.0116541    1.3796607 
12730000    1.0235022 2.3037039e-05   0.48569108 0.0033365656            0   0.48235452    1.5160626    2.0017537    3.1812501 
12735000   0.93962685 -2.0137404e-05   0.56713447 0.0036934454            0   0.56344102    1.3918223    1.9589567   0.92792167 
12740000     1.003233 -6.5442493e-06   0.49635646 0.0080855187            0   0.48827094    1.4860389    1.9823953    1.6473298 
12745000    1.0567076 4.841614e-05   0.45934015  0.016353374            0   0.44298677    1.5652482    2.0245883    4.5034947 
12750000   0.95836655 3.6225935e-05    0.5999316  0.022981819            0   0.57694978    1.4195805     2.019512    3.8742799 
12755000    1.0503987 -4.8483498e-05   0.44119006  0.019849244            0   0.42134082     1.555903    1.9970931  -0.48526201 
12760000    1.0375122 -6.3406657e-05   0.50101543  0.010398054            0   0.49061738     1.536815    2.0378304   -1.2085905 
12765000   0.98974121 -4.0058113e-05   0.53946437 0.0032984485            0   0.53616592    1.4660542    2.0055185 -0.045456846 
12770000     1.043239 3.8913661e-05   0.48486293 0.0056373451            0   0.47922558    1.5452978    2.0301608    4.0225402 
12775000    1.0017557 8.339874e-05   0.52562746 0.0073451009            0   0.51828236    1.4838506    2.0094781    6.2794935 
12780000   0.95005783 0.00010181196   0.63440688 0.0091142283            0   0.62529265    1.4072732      2.04168    7.2544525 
12785000     1.060612 6.3536699e-05   0.50298096  0.036228488            0   0.46675248    1.5710315    2.0740124    5.3270914 
12790000    1.0933811 2.4445154e-05   0.46488114  0.055749682            0   0.40913146    1.6195707    2.0844519    3.3360438 
12795000    1.1088518 -2.1257164e-05   0.44875069  0.028424062            0   0.42032663    1.6424867    2.0912374    1.0028706 
12800000    0.9934355 -3.6336121e-05   0.63822426  0.039020909            0   0.59920335    1.4715263    2.1097506   0.24934121 
12805000   0.96878087 -3.6349956e-05   0.68221345  0.024425806            0   0.65778765    1.4350067    2.1172201   0.25610236 
12810000     1.061797 -8.6542851e-05    0.5252042 0.0082094167            0   0.51699478    1.5727868     2.097991   -2.3330029 
12815000    1.1535759 2.908523e-05   0.39502025 0.0031513168            0   0.39186893    1.7087343    2.1037545    3.5929183 
12820000    1.0593365 -9.7924041e-06   0.55846199  0.034910861            0   0.52355113    1.5691422    2.1276042    1.6262331 
12825000   0.94977872 -0.0001095873   0.71519384  0.095924737            0   0.61926911    1.4068597    2.1220536   -3.4888163 
12830000    1.1739851 4.1956261e-05   0.38225315  0.019640896            0   0.36261225    1.7389654    2.1212185    4.2693791 
12835000    1.1531324 0.00011918694   0.44755744  0.015833485            0   0.43172396    1.7080773    2.1556348    8.2580062 
12840000    1.0583878 8.8596067e-05   0.55830486  0.020824284            0   0.53748057     1.567737    2.1260418    6.6621605 
12845000    1.0651406 -6.6373271e-05   0.56898332  0.012030568            0   0.55695275    1.5777395    2.1467228   -1.2515887 
12850000    1.0354489 8.1334121e-06    0.6033933 0.0043969439            0   0.59899635    1.5337586    2.1371519    2.5535826 
12855000    1.0536253 7.1264344e-05   0.56936865 0.0082817388            0   0.56108691    1.5606825    2.1300512    5.7787856 
12860000    1.0695215 -4.271212e-05   0.50908379  0.014268913            0   0.49481487    1.5842288    2.0933125 -0.093547997 
12865000     1.131393 -3.2190361e-05   0.46654705  0.012992935            0   0.45355411    1.6758759    2.1424229   0.49427645 
12870000    1.0235505 -3.3980374e-05   0.63206865  0.057240933            0   0.57482772    1.5161341    2.1482028   0.40840762 
12875000    1.1387705 -0.00011183935   0.49037008  0.039174509            0   0.45119557    1.6868038    2.1771739    -3.549001 
12880000    1.1138442 -8.2606612e-05   0.55207728   0.01492874            0   0.53714854    1.6498817     2.201959   -2.0274995 
12885000    1.0169734 8.4152881e-06   0.70193371  0.030871098            0   0.67106261    1.5063919    2.2083256    2.6391884 
12890000    1.1114501 -2.3053876e-06   0.52738936  0.038780877            0   0.48860848    1.6463354    2.1737248    2.0556889 
12895000    1.1002862 5.7599106e-05   0.52252778  0.025877071            0   0.49665071    1.6297989    2.1523267    5.1014009 
12900000     1.074009 8.3039785e-05   0.51264195  0.031124479            0   0.48151747    1.5908758    2.1035177    6.3551547 
12905000    1.0197628 -6.3579338e-06   0.62503275  0.047986526            0   0.57704622    1.5105236    2.1355564    1.8100302 
12910000    1.1170464 2.8278548e-05   0.46296509  0.048576426            0   0.41438867     1.654625    2.1175901    3.5654518 
12915000     1.037803 -0.00012071681   0.59202469   0.04912711            0   0.54289758    1.5372457    2.1292704   -4.0514305 
12920000    1.1148827 -0.00010673215   0.48626488  0.029094267            0   0.45717062    1.6514199    2.1376848   -3.3270011 
12925000    1.0231918 -6.1337366e-05   0.63745208  0.022883688            0   0.61456839    1.5156029    2.1530549  -0.98741821 
12930000    1.1144845 -6.3783211e-05    0.5149366  0.021028656            0   0.49390795    1.6508302    2.1657668   -1.0999336 
12935000    1.1573547 3.6093207e-05    0.4779717  0.015857961            0   0.46211374    1.7143317    2.1923034    4.0402756 
12940000    1.0771677 -3.1523348e-05   0.58359969 0.0076562901            0    0.5759434    1.5955547    2.1791544   0.56515898 
12945000    1.0517852 -0.00010461286   0.65141777 0.0041540798            0   0.64726369    1.5579568    2.2093746   -3.1468038 
12950000    1.1099886 -3.9002629e-05   0.59450471 0.0054584513            0   0.58904626    1.6441707    2.2386754    0.2417408 
12955000     1.077472 -4.5325738e-05   0.62557979  0.024456196            0   0.60112359    1.5960055    2.2215853 -0.099092508 
12960000    1.0820251 -0.00012359283   0.63337741  0.052025394            0   0.58135201    1.6027496     2.236127   -4.0918259 
12965000    1.2440382 -5.5558115e-06   0.41683851  0.032873977            0   0.38396453    1.8427316    2.2595701    1.9751125 
12970000    1.1406769 4.8655515e-05   0.54545461  0.050662544            0   0.49479207    1.6896277    2.2350823    4.7262447 
12975000    1.1721376 -6.2071879e-05   0.52650013  0.062850476            0   0.46364966    1.7362288     2.262729  -0.91535126 
12980000    1.0893768 -5.9563426e-05   0.60641174  0.053822775            0   0.55258897    1.6136394    2.2200511  -0.82959627 
12985000    1.1491946 -1.1805377e-05   0.52074352  0.046135511            0   0.47460801    1.7022444     2.222988    1.6185527 
12990000    1.1353294 3.4882262e-05   0.53447246  0.035739017            0   0.49873345    1.6817067    2.2161791    4.0021509 
12995000    1.1106246 8.0173233e-05    0.5741105  0.025788058            0   0.54832245    1.6451128    2.2192233    6.3240928 
13000000     1.041991 -9.2601414e-06    0.6319847  0.023061057            0   0.60892365    1.5434492    2.1754339    1.7013146 
13005000    1.0582946 -5.5398399e-05   0.61737272  0.054095515            0    0.5632772    1.5675989    2.1849716  -0.65142639 
13010000    1.0937995 1.6864636e-05    0.5515954  0.048949392            0   0.50264601    1.6201905    2.1717859    3.0352553 
13015000    1.1041369 -4.2801473e-05   0.54852381  0.012867493            0   0.53565632    1.6355028    2.1840266 -0.007408846 
13020000    1.1035791 -2.0760443e-05   0.54182407 0.00049554585            0   0.54132852    1.6346766    2.1765007     1.113566 
13025000    1.1689122 0.00016393542   0.45883967            0            0   0.45883967    1.7314512    2.1902909    10.583784 
13030000    1.0962621 3.4666946e-05   0.55146383            0            0   0.55146383    1.6238383    2.1753021    3.9502498 
13035000    1.0882662 -0.00010928528   0.53772599 0.00013204394            0   0.53759395    1.6119944    2.1497204   -3.4456859 
13040000    1.1287928 3.6091663e-05    0.4916354 0.00060489284            0   0.49103051    1.6720244    2.1636598    4.0115529 
13045000    1.0558229 7.0453537e-05   0.60392536 0.0022400151            0   0.60168534    1.5639376     2.167863    5.7750841 
13050000    1.1251504 3.4082066e-05   0.47063958 0.0056105887            0   0.46502899     1.666629    2.1372686    3.8822704 
13055000     1.040216 4.462489e-05   0.57781817  0.023585762            0    0.5542324    1.5408199    2.1186381    4.4034325 
13060000    1.0183335 -4.1626387e-05   0.62913436  0.039507028            0   0.58962733    1.5084065    2.1375409 0.0062698412 
13065000   0.97730587 6.1714827e-05   0.66950535  0.054565345            0      0.61494    1.4476343    2.1171397    5.2769388 
13070000    1.0425369 5.804572e-05   0.58487505  0.042217107            0   0.54265795    1.5442577    2.1291328    5.1010736 
13075000    1.1009142 -7.0098076e-05   0.53299813 0.0055694823            0   0.52742864    1.6307292    2.1637274   -1.4252941 
13080000    1.0743042 4.2344775e-05   0.57114472 0.0086809592            0   0.56246376    1.5913131    2.1624578    4.3305103 
13085000    1.1339228 -1.0442172e-05   0.50288685  0.011735138            0   0.49115171    1.6796232      2.18251    1.6478708 
13090000    1.0671133 -4.7106547e-05   0.63926325 0.0082101644            0   0.63105308    1.5806615    2.2199248  -0.19193041 
13095000    1.0409077 4.1007092e-06   0.65409359  0.063102693            0   0.59099089    1.5418446    2.1959382    2.4058945 
13100000   0.99660943 -4.3555636e-05   0.71472361  0.061462633            0   0.65326098    1.4762277    2.1909513  -0.03909724 
13105000    1.0639371 1.6669941e-05    0.5691484   0.02564043            0   0.54350797    1.5759568    2.1451052    2.9986062 
13110000    1.0454562 -2.2267679e-06   0.56320327 0.0099787133            0   0.55322456     1.548582    2.1117852    1.9977747 
13115000    1.1096422 -4.9592677e-05   0.46809948 0.0037016952            0   0.46439778    1.6436576    2.1117571  -0.42738803 
13120000    1.0510445 -4.0002909e-05   0.50688486 0.0073911352            0   0.49949372    1.5568597    2.0637446   0.01559562 
13125000   0.94696303 -1.3300504e-05   0.66414263  0.018745768            0   0.64539686     1.402689    2.0668316    1.3858458 
13130000    1.0669329 3.4312385e-05    0.5178462  0.013775877            0   0.50407032    1.5803944    2.0982406    3.8550347 
13135000    1.0163113 -2.6979378e-05   0.58435916 0.0088712208            0   0.57548793    1.5054111    2.0897703   0.70842611 
13140000    1.0032407 -1.8748731e-05   0.56049651  0.034840973            0   0.52565554    1.4860503    2.0465469    1.0866118 
13145000    1.0340224 4.5419912e-05   0.52572788  0.038655619            0   0.48707226    1.5316457    2.0573736    4.3828731 
13150000    1.0362035 -1.4565401e-05   0.52496739 0.0088229183            0   0.51614447    1.5348764    2.0598438    1.3140952 
13155000   0.96979188 -0.00010016912   0.63357223 0.00053688934            0   0.63303534    1.4365042    2.0700765   -3.0585824 
13160000    1.0845488 -2.1038613e-05   0.44310991 0.0027004271            0   0.44040948    1.6064879    2.0495978    0.9724208 
13165000    1.0074835 -8.0018317e-06   0.57319513  0.017924013            0   0.55527112     1.492335    2.0655301    1.6558363 
13170000   0.99151097 -4.0131196e-05   0.57294521 0.0098398959            0   0.56310532    1.4686756    2.0416208 -0.013096372 
13175000    1.0243009  1.03029e-05   0.56490334 0.0093406472            0    0.5555627    1.5172457     2.082149    2.6096575 
13180000    1.0244437 -2.4025808e-05   0.53116854  0.044665587            0   0.48650295    1.5174573    2.0486258   0.81850442 
13185000   0.92909226 -2.2478706e-05   0.66479298  0.050705321            0   0.61408766    1.3762179    2.0410109   0.89010113 
13190000   0.96081857 2.1846667e-05   0.61155969  0.052060766            0   0.55949892    1.4232125    2.0347722    3.1533215 
13195000    1.0078365 -2.2279799e-05   0.49490542  0.035337318            0    0.4595681    1.4928578    1.9877632   0.84703751 
13200000    0.9432665 -0.00011742487   0.58580852  0.015547794            0   0.57026072    1.3972135     1.983022   -4.0291314 
13205000    1.0028697 4.4998222e-06   0.52825077  0.036002809            0   0.49224796    1.4855007    2.0137515    2.2441424 
13210000   0.94233348 1.0059763e-05   0.60584538  0.040390158            0   0.56545522    1.3958315    2.0016769    2.5167367 
13215000   0.94741676 -0.00010346828   0.60174518  0.036864866            0   0.56488031    1.4033611    2.0051062   -3.2924695 
13220000   0.95271247 -6.8181092e-05   0.59010607  0.021312683            0   0.56879339    1.4112053    2.0013114   -1.4895605 
13225000   0.93221313 1.7173605e-05   0.64111386  0.013948596            0   0.62716526    1.3808407    2.0219545    2.9012431 
13230000   0.99773313 1.2206977e-05   0.51904276  0.044328371            0   0.47471439    1.4778922     1.996935    2.6219322 
13235000    0.9222966 -8.0386043e-05   0.64505024  0.015854383            0   0.62919586    1.3661518    2.0112021   -2.1045633 
13240000    0.9742359 -7.6267119e-05   0.57522702  0.005561911            0   0.56966511    1.4430869    2.0183139   -1.8865625 
13245000    0.9175463 -3.8555649e-05   0.64629638  0.020588519            0   0.62570786    1.3591155    2.0054118  0.031362612 
13250000   0.97452504 3.6150567e-06   0.55078343  0.073570951            0   0.47721248    1.4435152    1.9942987    2.1793896 
13255000   0.95288274 -3.5414109e-05   0.59598197  0.043674498            0   0.55230747    1.4114576    2.0074395   0.19423717 
13260000    1.0107327 -5.38813e-05   0.50214824  0.045372801            0   0.45677544    1.4971477     1.999296  -0.75942658 
13265000   0.98643944 1.8249329e-05   0.50688779 0.0086958383            0   0.49819195    1.4611634    1.9680512    2.9024169 
13270000   0.90376769 7.0857751e-05   0.61793945  0.010572621            0   0.60736683    1.3387059    1.9566453    5.5845622 
13275000   0.90090852 8.7117463e-05   0.62121131  0.022619715            0    0.5985916    1.3344707    1.9556821    6.4160962 
13280000   0.98142985 -8.1281961e-06   0.50900143  0.015071778            0   0.49392965     1.453743    1.9627444    1.5465808 
13285000    1.0013979 -7.7294467e-05   0.48075194  0.019271939            0      0.46148    1.4833206    1.9640725   -1.9934042 
13290000    0.8727088 -3.9455811e-05   0.67859961   0.10572695            0   0.57287266    1.2926999    1.9712995 -0.048838004 
13295000   0.95901306 -3.9835083e-05    0.5029514  0.011138397            0     0.491813    1.4205381    1.9234895  -0.11606676 
13300000   0.94162096 2.0167002e-07   0.54631119 0.0053697631            0   0.54094143     1.394776    1.9410872    1.9514127 
13305000   0.96496097 -2.4765228e-05   0.49932574   0.01578543            0   0.48354031    1.4293484    1.9286742    0.6606945 
13310000   0.88942866 7.1896374e-06   0.59672118  0.010696074            0    0.5860251    1.3174662    1.9141874    2.2822968 
13315000   0.95363573 -2.6106261e-05   0.48201254  0.030986993            0   0.45102554    1.4125729    1.8945855   0.55794487 
13320000   0.82562394 2.7186177e-05   0.65165414  0.097835843            0    0.5538183    1.2229555    1.8746096    3.2665419 
13325000   0.92455181 -4.3550871e-06   0.51190685  0.056045825            0   0.45586103    1.3694924    1.8813992    1.6584188 
13330000   0.89793139 -3.0143656e-05    0.5243753  0.021212016            0   0.50316328    1.3300609    1.8544362   0.31108096 
13335000   0.91384981 4.3151543e-06    0.5093564 0.0044627245            0   0.50489368      1.35364    1.8629964    2.0839323 
13340000   0.92242682 3.528584e-05   0.48109991 0.0046915485            0   0.47640836    1.3663447    1.8474446    3.6540796 
13345000   0.96892889 -2.4290839e-05   0.39394642  0.011238971            0   0.38270745    1.4352259    1.8291723   0.58548137 
13350000   0.89750927 4.9979288e-05   0.47145107  0.017663885            0   0.45378718    1.3294356    1.8008867    4.3598262 
13355000   0.86030975 4.5727491e-05   0.54825735  0.057975396            0   0.49028195    1.2743338    1.8225912    4.1638387 
13360000   0.84542058 5.9047898e-05   0.57263637  0.068652218            0   0.50398415    1.2522792    1.8249156     4.848168 
13365000   0.89284689 8.7118627e-05   0.52110235  0.023561024            0   0.49754133    1.3225294    1.8436318    6.3041055 
13370000   0.90979964 8.0189878e-05   0.50422032  0.068808559            0   0.43541176    1.3476407     1.851861    5.9575828 
13375000   0.90036506 0.00015722471   0.50021438   0.03736707            0   0.46284731    1.3336657    1.8338801    9.8837854 
13380000   0.90087055 2.5474763e-05   0.49633584  0.018076611            0   0.47825923    1.3344145    1.8307503    3.1350582 
13385000   0.88568835 -5.8179624e-05   0.50239143 0.0059864457            0   0.49640498    1.3119259    1.8143173   -1.1644794 
13390000   0.93237833 -6.1848485e-05   0.40837218  0.012887537            0   0.39548464    1.3810854    1.7894576   -1.3771848 
13395000   0.90631522 -1.7664084e-05   0.48227768  0.008742229            0   0.47353545    1.3424794    1.8247571   0.92035602 
13400000   0.90221897 -1.0747985e-05   0.46448488 0.0043237667            0   0.46016112    1.3364119    1.8008967    1.2505999 
13405000   0.91892704 -6.7862321e-05   0.43214454 0.0011612716            0   0.43098327    1.3611607    1.7933052   -1.6812456 
13410000   0.89415496 -7.2563642e-05   0.46287849 0.00049211828            0   0.46238638     1.324467    1.7873455   -1.9279129 
13415000   0.87420101 -4.1503198e-05   0.50249789 0.0072346918            0    0.4952632    1.2949102    1.7974081   -0.3275556 
13420000   0.89961521 -2.3929215e-06   0.47447323  0.013740246            0   0.46073298     1.332555    1.8070283    1.6845107 
13425000    0.8751046 -2.9692734e-05   0.51505024  0.019536751            0   0.49551349    1.2962487    1.8112989   0.29103097 
13430000   0.90547091 -6.3007358e-05   0.49761034  0.075424676            0   0.42218566    1.3412288    1.8388391   -1.3871376 
13435000   0.95878381 -4.0892503e-05    0.4226679  0.026064229            0   0.39660368    1.4201985    1.8428664  -0.25082972 
13440000   0.91615172 3.1099187e-05   0.48131094  0.023669956            0   0.45764098    1.3570497    1.8383607    3.4306391 
13445000   0.88761303 4.5623487e-05   0.53719297  0.011862248            0   0.52533073    1.3147768    1.8519698    4.1878923 
13450000   0.94233719 4.5732559e-05   0.43614736  0.006332408            0   0.42981495     1.395837    1.8319843    4.1734914 
13455000   0.96148387 2.0757481e-05   0.40146721 0.0099710653            0   0.39149614     1.424198    1.8256652    2.8884482 
13460000   0.93705058 1.422329e-06     0.431009  0.019459074            0   0.41154992    1.3880062    1.8190152    1.8918384 
13465000   0.82989115 -9.773577e-06   0.58554231  0.018617959            0   0.56692435    1.2292763    1.8148186    1.3144114 
13470000   0.92235247 -4.3128088e-06    0.4413916 0.0084771438            0   0.43291446    1.3662346    1.8076262    1.5868104 
13475000   0.93911091 6.038132e-05   0.39979228 0.0082131128            0   0.39157917     1.391058    1.7908503    4.8823739 
13480000   0.89770792 2.6433884e-05   0.44954622  0.014450636            0   0.43509558    1.3297299    1.7792761    3.1326909 
13485000   0.88806728 -5.5194839e-05   0.45894539  0.010591686            0    0.4483537    1.3154497     1.774395   -1.0515807 
13490000   0.80521746 -1.7346484e-05   0.60509429  0.023307186            0   0.58178711    1.1927284    1.7978227   0.90968266 
13495000   0.86047523 -3.8251035e-05   0.52232155  0.041266596            0   0.48105495    1.2745789    1.7969005  -0.16155249 
13500000   0.91469539 -4.0311664e-05   0.45620874  0.029298939            0    0.4269098    1.3548925    1.8111013  -0.25285588 
13505000   0.97807534 -3.7340908e-05   0.33094483 0.0048427438            0   0.32610209    1.4487741    1.7797189  -0.13213557 
13510000   0.86838258 -2.4323279e-05   0.51910437  0.026436145            0   0.49266823    1.2862917    1.8053961   0.56004418 
13515000   0.89441402 -5.2222075e-06   0.47467738  0.059189302            0   0.41548808    1.3248508    1.7995281    1.5321511 
13520000   0.86398123 3.3453301e-05   0.51184438  0.064611276            0    0.4472331    1.2797722    1.7916166    3.5044256 
13525000   0.86090228 -2.5796609e-05   0.49467945  0.055673005            0   0.43900644    1.2752115     1.769891   0.44910455 
13530000   0.87167063 -7.4363137e-05   0.49839622  0.052923665            0   0.44547255    1.2911621    1.7895583   -2.0178343 
13535000   0.86770154 1.2090634e-05   0.48334931  0.020158024            0   0.46319129    1.2852829    1.7686322    2.3876727 
13540000   0.90020635 -4.1205525e-05   0.45937582 0.0032138658            0   0.45616196    1.3334307    1.7928065  -0.31691642 
13545000   0.87381189 -3.6906494e-05   0.52598512  0.025530504            0   0.50045462    1.2943339     1.820319  -0.06929349 
13550000    0.9208616 -0.00010123032   0.48135013  0.013434106            0   0.46791603    1.3640262    1.8453764   -3.3376161 
13555000   0.93282199 -0.00013347799   0.46047502 0.0011093443            0   0.45936568    1.3817426    1.8422176   -4.9918556 
13560000   0.97280485 -4.8218312e-05   0.36976825 0.00041840935            0   0.36934984    1.4409672    1.8107354  -0.65804213 
13565000   0.86709892 -1.2706093e-05   0.50954189 0.0012230925            0    0.5083188    1.2843903    1.7939322    1.1433802 
13570000   0.85794549 -5.6021797e-05    0.5100997  0.014226794            0    0.4958729    1.2708318    1.7809315   -1.0873846 
13575000   0.91827375 -5.1633004e-05   0.43702827  0.031709164            0   0.40531911     1.360193    1.7972213  -0.84638852 
13580000   0.88542467 3.7639439e-05   0.51807559  0.018206744            0   0.49986884    1.3115353    1.8296109    3.7567501 
13585000   0.92817263 5.6575647e-05   0.46280614 0.0064184772            0   0.45638766    1.3748557    1.8376618     4.734335 
13590000   0.93462108 -0.00010124826   0.42951188 0.0044252608            0   0.42508662    1.3844075    1.8139194   -3.3699914 
13595000    0.9775095 -6.1847808e-05   0.36229988 0.0091496979            0   0.35315018     1.447936    1.8102358    -1.356372 
13600000   0.85390618 -2.123025e-05   0.55642114  0.012587581            0   0.54383356    1.2648485    1.8212697    0.7342809 
13605000   0.84264652 -0.00010521694   0.58201979  0.025117489            0    0.5569023    1.2481702      1.83019   -3.5569174 
13610000   0.87754882 -8.4984621e-05   0.56879948  0.023083756            0   0.54571572    1.2998692    1.8686687   -2.4825439 
13615000   0.90855553 3.1083108e-05   0.52387427  0.002158106            0   0.52171616    1.3457979    1.8696721    3.4611273 
13620000   0.98824825 4.6236215e-05    0.4639355   0.01670152            0   0.44723398    1.4638427    1.9277782    4.2950724 
13625000    0.9329724 0.0001176822   0.53712037  0.023355017            0   0.51376535    1.3819654    1.9190857    7.9444143 
13630000    1.0001132 8.683766e-05   0.45080235  0.017192534            0   0.43360982    1.4814176      1.93222    6.3783081 
13635000   0.98092414 -0.00010885904   0.49597586 0.0060480106            0   0.48992785    1.4529939    1.9489697   -3.6246129 
13640000   0.95192628 -0.00010578187   0.51836567 0.0031697328            0   0.51519593    1.4100408    1.9284065   -3.4876254 
13645000   0.94932308 -0.00012961914   0.50058475  0.023302778            0   0.47728198    1.4061848    1.9067696   -4.7297306 
13650000   0.86822306 -8.402649e-05   0.62185728  0.033457405            0   0.58839987    1.2860554    1.9079127   -2.3942436 
13655000   0.90438561 -2.8421861e-05   0.57361567  0.012431233            0   0.56118444    1.3396212    1.9132369   0.45803759 
13660000   0.94519833 1.9864412e-05   0.51104938  0.036182374            0   0.47486701     1.400075    1.9111244    2.9281823 
13665000   0.98498501 -6.3967445e-05   0.44799323  0.010699243            0   0.43729398     1.459009    1.9070023   -1.3681309 
13670000    1.0111397 1.6381012e-05    0.4198461 0.0053130088            0   0.41453309    1.4977506    1.9175967    2.7563046 
13675000   0.92256749 8.8151571e-05   0.54928051 0.0024834557            0   0.54679706    1.3665531    1.9158336     6.429194 
13680000    0.9404248 -1.3475497e-05   0.53128954 0.00095214588            0    0.5303374    1.3930042    1.9242938    1.2343483 
13685000    1.0123672 4.3776252e-05   0.43601217 0.0056451323            0   0.43036704     1.499569    1.9355811    4.1769253 
13690000    1.0196181 5.9182652e-05   0.42580969  0.014384119            0   0.41142557    1.5103094     1.936119    4.9662708 
13695000   0.98101498 -9.4345184e-05    0.5207948  0.040781665            0   0.48001314    1.4531284    1.9739232   -2.8565502 
13700000    1.0156118 3.9007616e-06   0.45850967  0.014272473            0    0.4442372    1.5043749    1.9628846    2.1626036 
13705000   0.99041137 -1.3912753e-06   0.49785442   0.00472384            0   0.49313058    1.4670468    1.9649013     1.893668 
13710000    1.0312646 -9.3073688e-05   0.43826539 0.0006561959            0    0.4376092    1.5275607    1.9658261   -2.7995467 
13715000    1.0335704 2.6429823e-06   0.40361878 0.00062013442            0   0.40299864    1.5309762    1.9345949    2.0699156 
13720000   0.98180404 -2.5146604e-05   0.44903894 0.0064671249            0   0.44257181    1.4542972    1.9033362   0.61583007 
13725000   0.89614568 -2.6039629e-05   0.54668203 0.0083228051            0   0.53835922    1.3274158    1.8740978   0.54086882 
13730000    0.9738178 1.7995274e-05   0.41022971 0.0056279276            0   0.40460179    1.4424676    1.8526973    2.7740554 
13735000   0.99104622 7.8308826e-05   0.41066997  0.019319931            0   0.39135004    1.4679872    1.8786572    5.8880691 
13740000     1.005566 8.0720545e-05   0.41689079   0.02173283            0   0.39515796    1.4894946    1.9063854    6.0392773 
13745000   0.99471125 -1.4481597e-05     0.415416  0.016521332            0   0.39889467     1.473416     1.888832    1.1473743 
13750000    0.8849357 -4.8588403e-05   0.58480356  0.019784359            0    0.5650192     1.310811    1.8956146  -0.59211167 
13755000      1.01874 -6.7645225e-05   0.40236358 0.0099669868            0   0.39239659    1.5090086    1.9113722   -1.5520633 
13760000   0.95643726 -4.5905373e-05   0.47894128  0.012582083            0    0.4663592    1.4167227     1.895664  -0.45469113 
13765000    1.0205661 2.1617603e-05   0.39866504  0.011563565            0   0.38710148    1.5117136    1.9103786    3.0171999 
13770000   0.87805228 -8.8354811e-07   0.60177763 0.0081423797            0   0.59363525    1.3006149    1.9023926    1.8571549 
13775000   0.86483256 -6.899375e-05   0.62698215  0.022226115            0   0.60475603    1.2810332    1.9080154   -1.6244646 
13780000    0.9733206 -0.00011627872   0.46987319  0.040624255            0   0.42924894    1.4417311    1.9116043   -4.0418664 
13785000   0.89945905 -5.3527443e-05   0.58328366  0.061348127            0   0.52193554    1.3323237    1.9156074  -0.82499769 
13790000   0.91977639 -7.9146981e-05   0.56592916  0.046184064            0    0.5197451    1.3624188    1.9283479   -2.1239775 
13795000    1.0163003 -7.1444144e-05   0.43307168  0.064906077            0    0.3681656    1.5053948    1.9384665   -1.7194737 
13800000     1.001263 2.1448733e-05   0.48731282  0.042672355            0   0.44464046    1.4831208    1.9704336    3.0686087 
13805000   0.98953297 4.7893579e-05   0.47408204  0.024998068            0   0.44908397    1.4657457    1.9398277     4.391979 
13810000    1.0455935 4.7121156e-05   0.39066464   0.02566446            0   0.36500018    1.5487854      1.93945    4.3520532 
13815000   0.97460277 -6.1597344e-05   0.49510708   0.02712636            0   0.46798072    1.4436304    1.9387374   -1.2150466 
13820000    1.0277627 -6.7643944e-05   0.44273595  0.026937096            0   0.41579886    1.5223735    1.9651095   -1.4982605 
13825000   0.97764354 6.6154095e-06   0.52158074   0.02482996            0   0.49675078    1.4481345    1.9697152    2.3084242 
13830000    1.0247486 5.7362683e-05   0.43950814  0.032720231            0   0.40678791    1.5179089     1.957417    4.8943864 
13835000    1.0310398 -0.0001221429   0.40866278  0.023146597            0   0.38551618    1.5272277    1.9358905   -4.3178257 
13840000    1.0361228 -9.2307661e-05   0.39272173   0.01572388            0   0.37699785     1.534757    1.9274787   -2.7986736 
13845000   0.94788023 7.4778591e-05   0.49905118   0.01420465            0   0.48484653    1.4040476    1.9030988    5.7317626 
13850000   0.95269209 6.2315717e-05   0.45744073 0.0092151746            0   0.44822555    1.4111752    1.8686159    5.0591806 
13855000   0.93402775 9.7109714e-06   0.50809661  0.010830038            0   0.49726657    1.3835286    1.8916252     2.388827 
13860000   0.93510355 1.1804155e-06   0.49600408 0.0090557897            0   0.48694829    1.3851221    1.8811262    1.9415635 
13865000   0.99342518 0.00015354735   0.43648946 0.0075381345            0   0.42895133    1.4715111    1.9080005    9.7696246 
13870000   0.88592612 0.00013840443   0.58698049 0.0062164202            0   0.58076407    1.3122781    1.8992586    8.9855655 
13875000     1.015228 2.5010182e-05   0.39278096 0.0072997046            0   0.38548126    1.5038064    1.8965874    3.1771087 
13880000   0.93267084 5.1804349e-05   0.51211913 0.0076798254            0    0.5044393    1.3815187    1.8936378    4.5460205 
13885000   0.93731329 1.0319972e-05   0.51290029   0.02900461            0   0.48389568    1.3883953    1.9012956    2.4296782 
13890000   0.87883472 -6.398219e-05   0.59075367  0.029314835            0   0.56143884    1.3017739    1.8925276   -1.3833605 
13895000   0.99644543 5.4192133e-05    0.4111004 0.0052283167            0   0.40587209    1.4759848    1.8870852    4.6617224 
13900000   0.94257304 2.6417313e-05   0.50390762 0.0077905468            0   0.49611707    1.3961863    1.9000939    3.2526604 
13905000    0.9896658 6.2050341e-05    0.4585949  0.018746339            0   0.43984856    1.4659425    1.9245374    5.1015148 
13910000   0.89533345 -4.7276872e-05   0.57429535  0.023398083            0   0.55089727    1.3262127     1.900508  -0.52006783 
13915000    1.0249292 -2.0801194e-05   0.38684061  0.018952058            0   0.36788856    1.5181764     1.905017   0.83999587 
13920000    0.9824557 0.00011155067   0.49418645  0.029939682            0   0.46424677    1.4552625     1.949449    7.6608431 
13925000   0.94023655 8.4663643e-05   0.54616403  0.040814305            0   0.50534972    1.3927254    1.9388894    6.2736679 
13930000   0.92727364 1.6850109e-05   0.55373567  0.014443806            0   0.53929186    1.3735241    1.9272597    2.7899853 
13935000    1.0104919 5.3222007e-05   0.48884071  0.015509821            0   0.47333089    1.4967911    1.9856318    4.7105986 
13940000   0.97148656 9.9209749e-05   0.54204387  0.026462593            0   0.51558127    1.4390145    1.9810583    7.0605975 
13945000   0.92355297 4.2038934e-05   0.63016402  0.033847226            0   0.59631679    1.3680128    1.9981769    4.1505703 
13950000   0.98550124 7.9988807e-05   0.53506633  0.020134014            0   0.51493231    1.4597737      1.99484     6.090267 
13955000    1.0249475 9.0835053e-05    0.5101165 0.0096185054            0     0.500498    1.5182034    2.0283199    6.6790746 
13960000    1.0141303 4.8330739e-05   0.51241278  0.014195135            0   0.49821765    1.5021805    2.0145933    4.4891271 
13965000    1.0388798 1.2925936e-05    0.4936069  0.017224039            0   0.47638286    1.5388407    2.0324476    2.6942555 
13970000    1.0548216 -6.5340613e-05   0.48582479  0.025776652            0   0.46004814    1.5624546    2.0482794     -1.29716 
13975000    1.0496759 -8.9712606e-05     0.489265 0.0093390871            0   0.47992591    1.5548325    2.0440975    -2.549188 
13980000    1.0199637 4.0671366e-05     0.506488  0.009508328            0   0.49697967    1.5108212    2.0173092    4.0996832 
13985000   0.94177158 7.1459562e-05   0.61231998 0.0073922373            0   0.60492774    1.3949992    2.0073191    5.6660487 
13990000   0.93531213 -7.0961122e-08    0.6033373 0.0071216191            0   0.59621568    1.3854311    1.9887684    1.9851352 
13995000    1.0396439 -1.8160625e-05   0.42075683  0.017433831            0     0.403323    1.5399725    1.9607293    1.0309053 
14000000    0.9888166 2.759311e-05   0.51428695  0.044855671            0   0.46943127    1.4646846    1.9789715    3.3917388 
14005000    0.9947742 -3.9894098e-05   0.49572128  0.019773152            0   0.47594813    1.4735093    1.9692306 -0.073347245 
14010000   0.98910684 -2.2355182e-05   0.50708219  0.034975735            0   0.47210645    1.4651145    1.9721967   0.82761138 
14015000    1.0504863 0.0001138245   0.44798327  0.023687267            0   0.42429601    1.5560328    2.0040161    7.8318306 
14020000   0.97154004 8.7663087e-05   0.57222573 0.0093068643            0   0.56291887    1.4390937    2.0113194    6.4996695 
14025000   0.99167034 2.3784665e-06   0.52121215   0.01191007            0   0.50930208    1.4689117    1.9901238    2.1119013 
14030000   0.99283087 -3.9360427e-05   0.52901038  0.018932037            0   0.51007835    1.4706307    1.9996411 -0.015612767 
14035000    0.9067295 -1.5914976e-05    0.6382177  0.016568555            0   0.62164915    1.3430931    1.9813108     1.166464 
14040000   0.95997929 1.9164783e-05   0.58526388 0.0038647318            0   0.58139915    1.4219693    2.0072332    2.9884701 
14045000    1.0063317 1.465615e-05   0.51054167 0.0015380025            0   0.50900367    1.4906288    2.0011704    2.7515653 
14050000   0.94691408 0.00012416472   0.58637724 0.0067734568            0   0.57960378    1.4026165    1.9889937    8.3462271 
14055000    1.0183906 0.00016899027   0.46029952  0.027770359            0   0.43252916     1.508491    1.9687906    10.621092 
14060000    1.0654511 4.0146144e-05   0.39858523  0.021783733            0   0.37680149    1.5781994    1.9767847    4.0322672 
14065000   0.96015247 -4.6217503e-05   0.55374444 0.0012780688            0   0.55246637    1.4222258    1.9759703  -0.39036587 
14070000    1.0411925 6.823499e-05   0.42488331 0.0024688426            0   0.42241446    1.5422663    1.9671496    5.4607811 
14075000    1.0078008 0.00014692076    0.4789605 0.0073299949            0   0.47163051    1.4928049    1.9717654    9.4941082 
14080000    1.0066394 5.3726586e-05   0.49250826  0.012444202            0   0.48006406    1.4910847    1.9835929    4.7343941 
14085000   0.93487872 -2.8001877e-05   0.60326066  0.019136345            0   0.58412431    1.3847891    1.9880498   0.55435366 
14090000     1.024676 -4.9042454e-05   0.47054622  0.014328896            0   0.45621733    1.5178013    1.9883476  -0.52262611 
14095000   0.93711491 -4.533138e-05   0.57537758  0.014969819            0   0.56040776    1.3881015     1.963479  -0.35748764 
14100000   0.96147217 4.2748268e-06   0.52524182  0.018250399            0   0.50699142    1.4241806    1.9494225    2.1682936 
14105000    1.0138241 8.3489912e-05   0.48509961  0.019687192            0   0.46541242     1.501727    1.9868266    6.2615101 
14110000   0.97010354 -7.5905548e-05   0.53492016  0.031714654            0    0.5032055    1.4369659     1.971886    -1.914478 
14115000    0.9034469 -0.00022695028   0.63394273  0.023816395            0   0.61012634    1.3382307    1.9721735    -9.647681 
14120000    1.0065819 -7.8842714e-05   0.48250216 0.0057281522            0   0.47677401    1.4909994    1.9735015   -2.0632454 
14125000    1.0096199 6.8255792e-05    0.4674533  0.024120778            0   0.44333253    1.4954994    1.9629527    5.4576493 
14130000   0.89810219 2.8052722e-05   0.60906882  0.018529633            0   0.59053919    1.3303139    1.9393827    3.3756821 
14135000    1.0126833 -5.8155981e-05   0.45121161  0.010490991            0   0.44072062    1.5000371    1.9512488   -1.0263375 
14140000   0.99877037 -2.9064834e-05    0.5086744   0.06338864            0   0.44528576    1.4794286     1.988103   0.49998354 
14145000    1.0137117 3.723052e-05   0.50243877   0.02387163            0   0.47856714    1.5015605    2.0039993    3.9102019 
14150000   0.98415263 9.0536356e-05   0.55015094  0.014449152            0   0.53570179    1.4577761     2.007927    6.6433884 
14155000   0.97186128 0.00016710222   0.57717853  0.014744238            0   0.56243429    1.4395695    2.0167481    10.572382 
14160000    1.0713348 0.00014663727   0.44129054 0.0043714484            0   0.43691909    1.5869147    2.0282053    9.5360336 
14165000   0.93523886 -4.3291991e-05   0.61425586    0.0602535            0   0.55400236    1.3853226    1.9995784  -0.21697151 
14170000   0.99701775 -8.5672535e-05   0.53758302  0.070302846            0   0.46728018    1.4768325    2.0144156   -2.3720182 
14175000   0.99534549 -3.2549453e-05   0.53197388  0.053577302            0   0.47839658    1.4743555    2.0063294   0.33979739 
14180000     1.040538 3.8667025e-05   0.49918801  0.042030225            0   0.45715778    1.5412969    2.0404849    4.0202366 
14185000    1.0388476 3.6442126e-05   0.56938081 0.0062510585            0   0.56312976    1.5387931    2.1081739    3.9740107 
14190000    1.0537767 -2.3614152e-05   0.55987752  0.021748159            0   0.53812936    1.5609067    2.1207842   0.91173964 
14195000    1.0408231 -1.114414e-05   0.56425697 0.0098870222            0   0.55436995    1.5417191    2.1059761    1.5353961 
14200000    1.1169471 -3.019876e-05   0.43556608  0.019043894            0   0.41652218    1.6544779     2.090044   0.54386747 
14205000    1.0531146 1.9874804e-05   0.52201649  0.029381808            0   0.49263468     1.559926    2.0819424    3.0995324 
14210000    1.0271782 0.00011522312    0.5420351    0.0289348            0    0.5131003    1.5215077    2.0635428    7.9629665 
14215000   0.94824116 1.7760595e-05   0.67181242   0.06666698            0   0.60514544    1.4045822    2.0763946    2.9857371 
14220000   0.98376225 -9.2734731e-05   0.59172906  0.032296421            0   0.55943264    1.4571978    2.0489269   -2.6990913 
14225000    1.1073493 3.2461697e-05   0.38603205 0.0043034099            0   0.38172864    1.6402611    2.0262932    3.6883321 
14230000    1.0440184 5.7651728e-05   0.50284018 0.0030749872            0   0.49976519    1.5464522    2.0492924    5.0010608 
14235000    1.0235742 -2.9231732e-05   0.53181769 0.0095353188            0   0.52228237    1.5161692    2.0479869   0.55132224 
14240000   0.95427306 -0.00016168651   0.62197157  0.020825358            0   0.60114621     1.413517    2.0354885   -6.2428609 
14245000    1.0383459 -0.00010640272   0.49569571  0.025416805            0   0.47027891    1.5380499    2.0337456   -3.4140735 
14250000   0.95352958 1.6824024e-05   0.62742009  0.010869447            0   0.61655064    1.4124157    2.0398358    2.9012258 
14255000     1.079517 -3.873265e-05   0.45529966 0.0018871526            0   0.45341251    1.5990345    2.0543342  0.071222479 
14260000   0.95636879 -0.00015909936   0.63060371  0.013385842            0   0.61721787    1.4166213     2.047225   -6.0986625 
14265000   0.94391183 -0.00012202417   0.64014232  0.013959813            0    0.6261825    1.3981694    2.0383117   -4.2093259 
14270000    1.0905082 2.6941107e-05   0.42928596  0.013571148            0   0.41571481    1.6153153    2.0446012    3.4239859 
14275000    1.0384254 1.7214556e-05   0.53129202  0.020890989            0   0.51040103    1.5381676    2.0694597    2.9508449 
14280000    1.0490395 -1.8465522e-05   0.54155148 0.0059031112            0   0.53564837    1.5538897    2.0954412    1.1500065 
14285000    1.0318635 4.180478e-05   0.56562288  0.057107445            0   0.50851544    1.5284479    2.0940707    4.2344755 
14290000    1.0395407 -3.8790254e-05   0.57682341  0.046514044            0   0.53030936    1.5398197    2.1166431   0.13058205 
14295000    1.0366362 -4.4355652e-05   0.58069396 0.0069999375            0   0.57369402    1.5355174    2.1162114  -0.15479802 
14300000    1.1025822 3.7776506e-05    0.4632303 0.0078222358            0   0.45540807    1.6331999    2.0964302    4.0305873 
14305000    1.0352623 1.8984867e-05   0.60303791   0.01013441            0    0.5929035    1.5334823    2.1365202    3.1085454 
14310000    1.0780519 -5.9056017e-06   0.55344856  0.020235796            0   0.53321277    1.5968643    2.1503129    1.8479461 
14315000     1.111949 1.9986313e-05    0.4996294  0.018274021            0   0.48135538    1.6470744    2.1467038     3.170003 
14320000    1.0203532 6.9174665e-05   0.63120366  0.045302859            0    0.5859008    1.5113981    2.1426018    5.6843446 
14325000    1.0618818 -4.6106838e-07   0.54440979  0.013134479            0   0.53127531    1.5729124    2.1173222    2.0937155 
14330000    1.0462678 -2.0451392e-05   0.57021228  0.049021356            0   0.52119093    1.5497842    2.1199965    1.0728852 
14335000    1.0408643 -7.1152117e-06   0.55947159  0.071202678            0   0.48826892    1.5417802    2.1012518     1.736953 
14340000    1.0251625 4.5054042e-05   0.57453187  0.059925305            0   0.51460656     1.518522    2.0930539    4.3998208 
14345000    1.0481345 0.00012679112   0.52534373  0.053940082            0   0.47140365    1.5525493     2.077893    8.5695984 
14350000    1.0589271 4.7056328e-05   0.51691584  0.028851067            0   0.48806478    1.5685358    2.0854516    4.4947357 
14355000    1.1148149 2.1060633e-05   0.43183704  0.027949934            0    0.4038871    1.6513195    2.0831565    3.1614609 
14360000    1.0969141 -3.6178144e-05   0.49264912   0.03081216            0   0.46183696     1.624804    2.1174531   0.26513214 
14365000    1.0810016 -9.1270308e-05   0.49926333   0.03293287            0   0.46633046    1.6012337     2.100497   -2.5725428 
14370000    1.0945628 -5.8265699e-05    0.4922996 0.0094302621            0   0.48286934    1.6213212    2.1136208  -0.86958296 
14375000    1.0958364 3.2920914e-05   0.47651787 0.0075528166            0   0.46896506    1.6232076    2.0997255    3.7852763 
14380000    1.0420229 0.00011737785   0.49716302  0.030838427            0   0.46632459    1.5434965    2.0406595    8.0504052 
14385000    1.0933225 4.6232279e-05   0.42579137 0.0094092236            0   0.41638215     1.619484    2.0452754     4.412368 
14390000    1.0764047 -3.8066755e-05   0.46386794  0.020896344            0    0.4429716    1.5944244    2.0582924   0.10927453 
14395000   0.94773827 -9.6652353e-05   0.62894921  0.088820933            0   0.54012827    1.4038373    2.0327865    -2.915814 
14400000     1.042018 -0.00011154055   0.50737424  0.023735126            0   0.48363912    1.5434892    2.0508634   -3.6600128 
14405000    1.0624173 -1.4569154e-05   0.50910592  0.029782543            0   0.47932337    1.5737056    2.0828115    1.3368708 
14410000    1.0317668 7.4464633e-06    0.5497188  0.047153576            0   0.50256522    1.5283045    2.0780233    2.4592822 
14415000    1.0730047 -7.2414778e-05   0.52321319  0.034605285            0    0.4886079    1.5893883    2.1126015   -1.5950351 
14420000   0.99774517 -0.00010948558   0.62891404  0.031296914            0   0.59761713      1.47791    2.1068241   -3.4988378 
14425000    1.0537562 1.0788413e-05   0.58942493  0.035696711            0   0.55372822    1.5608764    2.1503013     2.702668 
14430000    1.1143689 0.00013167241   0.52168517  0.063026581            0   0.45865859     1.650659    2.1723441    8.9139714 
14435000    1.1096774 0.00014199068   0.53785305  0.061237675            0   0.47661537    1.6437097    2.1815627    9.4514857 
14440000    1.1674982 0.00015364711   0.44586327  0.019058904            0   0.42680436    1.7293566    2.1752199    10.041952 
14445000    1.1406622 -2.6687715e-05   0.51066447  0.021611041            0   0.48905343     1.689606    2.2002704    0.8338594 
14450000    1.1050848 -0.00016636034   0.57255419  0.036748583            0   0.53580561    1.6369069    2.2094611   -6.3081883 
14455000    1.1507046 5.1935676e-05   0.49962978  0.058620227            0   0.44100956    1.7044811    2.2041109    4.8632175 
14460000    1.1381631 0.0001566382   0.53576363  0.013635282            0   0.52212834     1.685904    2.2216677    10.241543 
14465000      1.16458 4.6407346e-06   0.51859032 0.0087515211            0    0.5098388    1.7250342    2.2436245    2.4812301 
14470000    1.1727839 6.5729169e-05   0.51876404   0.01473823            0   0.50402581    1.7371861    2.2559502    5.6212836 
14475000    1.2115236 1.6193653e-05   0.47471994  0.024033049            0   0.45068689    1.7945693    2.2692892    3.0984042 
14480000    1.1187203 -2.4257607e-05   0.59645556  0.055213837            0   0.54124172    1.6571045    2.2535601    1.0115706 
14485000    1.2085336 7.4080401e-05   0.44815284  0.017179842            0     0.430973    1.7901404    2.2382932    6.0312098 
14490000    1.1013418 -6.9243444e-05   0.61215941  0.017093499            0   0.59506591    1.6313625     2.243522   -1.3017424 
14495000    1.2215864 1.7925411e-06   0.42492552  0.018160316            0   0.40676521    1.8094748    2.2344004    2.3261785 
14500000    1.1043058 0.00010051561   0.58039313 0.0045275987            0   0.57586553    1.6357529    2.2161461    7.3625452 
14505000    1.1240419 5.5185516e-05   0.55208392   0.01250754            0   0.53957638    1.6649871     2.217071    5.0425694 
14510000    1.1180814 -4.8820231e-06   0.53123944  0.022518845            0   0.50872059    1.6561581    2.1873975     1.937438 
14515000    1.1519347 4.2374184e-05   0.46420382  0.035205776            0   0.42899804    1.7063033    2.1705071    4.3400654 
14520000    1.1837016 -3.4002222e-06   0.41171891  0.017442042            0   0.39427687    1.7533579    2.1650769    1.9909855 
14525000     1.060662 -6.5075158e-05   0.58649042 0.0010472171            0   0.58544321    1.5711055     2.157596   -1.1742521 
14530000    1.1669007 1.0021488e-05    0.4140601 0.0035450978            0     0.410515    1.7284716    2.1425317    2.6556319 
14535000    1.0576355 -3.0890474e-05   0.56582308 0.0085458063            0   0.55727727    1.5666225    2.1324456   0.55085334 
14540000    1.0382815 4.3947382e-06    0.5700132 0.0013311652            0   0.56868203    1.5379544    2.1079676    2.3329782 
14545000    1.1337679 1.7398306e-05   0.41135857 0.0017145478            0   0.40964402    1.6793937    2.0907523    2.9815455 
14550000    1.0718123  8.42686e-05     0.515405 0.0042717466            0   0.51113326     1.587622     2.103027    6.4175794 
14555000    1.0831118 4.0852332e-05   0.50655757 0.0093769037            0   0.49718067    1.6043593    2.1109169    4.2025563 
14560000    1.0519671 -9.92716e-05   0.57625776  0.018458532            0   0.55779922    1.5582263     2.134484   -2.9482219 
14565000    1.0812909 -9.0092758e-05    0.5846032  0.030488112            0   0.55411509    1.6016621    2.1862653   -2.4264839 
14570000    1.1585242 3.2400867e-05   0.41341744 0.0057960418            0    0.4076214     1.716064    2.1294814    3.7884058 
14575000    1.1337904 -4.9824881e-05    0.4928215 0.0038551514            0   0.48896635     1.679427    2.1722485  -0.37878545 
14580000    1.0496337 -4.5587126e-05   0.58845387   0.00779058            0   0.58066329    1.5547699    2.1432238  -0.19083707 
14585000    1.0676329 0.00015323686   0.53129705  0.013348852            0    0.5179482    1.5814312    2.1127283    9.9584556 
14590000    1.0638847 0.00012290731    0.5444777 0.0096737456            0   0.53480395    1.5758792    2.1203569     8.413211 
14595000    1.1275516 4.357622e-05   0.44341871   0.05154536            0   0.39187335    1.6701858    2.1136045     4.344707 
14600000    1.0888078 5.336582e-05   0.49437698  0.040732602            0   0.45364437    1.6127965    2.1071735    4.8395035 
14605000    1.0336065 -3.7048059e-05   0.60386596  0.015515942            0   0.58835002    1.5310296    2.1348956   0.23803497 
14610000    1.1306556 3.9446579e-05   0.47797463 0.0060573434            0   0.47191728    1.6747836    2.1527583    4.1724231 
14615000    1.1031267 9.7945189e-05   0.51648719  0.041566256            0   0.47492093    1.6340065    2.1504937    7.1652873 
14620000    1.0919448 0.00010413942   0.50967894 0.0072425206            0   0.50243642    1.6174432    2.1271221    7.4590605 
14625000    1.0991948 9.7683255e-05   0.49692181 0.0015334167            0   0.49538839    1.6281822     2.125104    7.1264867 
14630000    1.0826013 -1.1229341e-05   0.52216216  0.007410102            0   0.51475206    1.6036032    2.1257653    1.5508231 
14635000    1.0001992 -2.9746499e-05   0.63686182 0.0044481566            0   0.63241366    1.4815451    2.1184069    0.5953862 
14640000    1.0440479 2.1236993e-05   0.53740241  0.001487228            0   0.53591518    1.5464959    2.0838983    3.1712323 
14645000    1.0843295 -7.8133931e-05    0.4813671 0.0013188775            0   0.48004822    1.6061631    2.0875302    -1.912927 
14650000    1.0395193 1.4405284e-05   0.53504655  0.011667712            0   0.52337884     1.539788    2.0748345    2.8123851 
14655000    1.0093059 7.1788163e-05   0.58449785  0.018175094            0   0.56632276    1.4950343    2.0795322    5.7550862 
14660000    1.1174011 5.1670731e-05   0.38553403   0.03047465            0   0.35505938    1.6551504    2.0406844    4.6862258 
14665000   0.94534779 -4.2927832e-05   0.66113605  0.030576615            0   0.63055944    1.4002964    2.0614325  -0.13647253 
14670000    1.1141159 6.1306133e-05   0.41423397  0.012787621            0   0.40144635    1.6502842    2.0645181    5.2033921 
14675000    1.0109048 7.0151163e-05    0.5307832 0.0081124331            0   0.52267077    1.4974027    2.0281859    5.6199255 
14680000    1.0207247 4.3371844e-05    0.5116833 0.0057180232            0   0.50596528    1.5119485    2.0236318    4.2442702 
14685000   0.93143951 -2.4608879e-05   0.63050807  0.024099243            0   0.60640883    1.3796948    2.0102028   0.75022823 
14690000    1.0626139 -2.2579667e-05   0.44874789  0.020019676            0   0.42872822    1.5739968    2.0227447   0.86666573 
14695000    1.0343216 -9.6866965e-06   0.49839428 0.0086409441            0   0.48975334    1.5320888    2.0304831    1.5345243 
14700000   0.98582634 -3.0567436e-05   0.56703767 0.0018521407            0   0.56518553    1.4602553    2.0272929   0.46224023 
14705000    1.0299713 2.9790325e-05   0.51309721 6.8492609e-05            0   0.51302872     1.525645    2.0387423    3.5640069 
14710000     1.088478 2.1530678e-05   0.42851166 0.00020534577            0   0.42830632     1.612308    2.0408197    3.1431904 
14715000    1.0518676 4.3876993e-05   0.51139134 0.0098327073            0   0.50155863    1.5580788    2.0694702    4.3159722 
14720000    1.0642598 4.7573378e-05    0.4969283 0.0080382514            0   0.48889005    1.5764349    2.0733632    4.5091202 
14725000    1.0305501 9.8253314e-05   0.53524183 0.0068149969            0   0.52842683    1.5265023    2.0617441    7.0923138 
14730000   0.97564419 0.00012450926   0.58902445   0.01456105            0    0.5744634     1.445173    2.0341974    8.4090716 
14735000     1.018163 -0.00011966592   0.51659195  0.026272903            0   0.49031905     1.508154    2.0247459   -4.1021494 
14740000    1.0079033 -7.5529157e-05   0.52213942  0.018846451            0   0.50329297    1.4929568    2.0150962   -1.8519966 
14745000   0.96026924 9.5435391e-06   0.58149164  0.011460495            0   0.57003115    1.4223988    2.0038905    2.4925197 
14750000   0.91076268 8.507287e-07   0.65218887 0.0070158804            0   0.64517299    1.3490672    2.0012561    2.0448134 
14755000    1.0148563 4.9508531e-05   0.50116195  0.011221836            0   0.48994012    1.5032558    2.0044178    4.5392546 
14760000    1.0245197 2.1924233e-05   0.49600645  0.038748733            0   0.45725772    1.5175698    2.0135762    3.1360969 
14765000    1.0181119 -9.848812e-05   0.48084478  0.018334155            0   0.46251063    1.5080782     1.988923   -3.0536688 
14770000    1.0668183 -9.4150459e-05    0.4583059  0.010343571            0   0.44796233    1.5802246    2.0385305    -2.781973 
14775000   0.98124968 -6.2919578e-05   0.60085712  0.030506143            0   0.57035097    1.4534761    2.0543332   -1.1671492 
14780000    1.0445207 6.615349e-05   0.51240058 0.0058887167            0   0.50651186    1.5471962    2.0595968    5.4466555 
14785000    1.0567193 1.8100109e-05   0.49307188 0.0058868245            0   0.48718505    1.5652655    2.0583374     2.985063 
14790000    1.0720882 6.0336073e-07   0.46074046 0.0027361578            0    0.4580043    1.5880307    2.0487711    2.0796632 
14795000    1.1067942 5.6567769e-05   0.41929075 0.0079857931            0   0.41130496     1.639439    2.0587297    4.9549995 
14800000    1.0791373 -1.8548829e-05   0.46886249  0.028471982            0   0.44039051    1.5984721    2.0673346    1.1176346 
14805000    1.0241432 -3.8163454e-05   0.53672238  0.032136807            0   0.50458557    1.5170121    2.0537345  0.099765657 
14810000   0.98790683 -4.722232e-05   0.60048679  0.031196228            0   0.56929056     1.463337    2.0638238  -0.35395901 
14815000    1.0179325 -3.2353569e-05   0.54628151  0.014857622            0   0.53142388    1.5078126    2.0540941   0.39759135 
14820000    1.0835732 4.6819037e-05   0.50090552 0.0090311193            0    0.4918744    1.6050428    2.1059483     4.503083 
14825000     1.121073 4.9588991e-06   0.43728123 0.0080065041            0   0.42927473    1.6605894    2.0978706    2.3517663 
14830000     1.063669 -1.2818613e-05   0.54606344 0.0054133889            0   0.54065005    1.5755597    2.1216232    1.4653102 
14835000    1.0860477 5.2837856e-05   0.47043309 0.0086793642            0   0.46175373    1.6087082    2.0791413    4.7844395 
14840000   0.97744926 0.00025277653   0.65409424  0.018546388            0   0.63554785    1.4478467     2.101941    15.044099 
14845000    1.0909989 6.8007946e-05   0.48373567  0.023146069            0    0.4605896    1.6160421    2.0997777    5.5817846 
14850000   0.94335382 -7.4370208e-05   0.69157112  0.032959001            0   0.65861211    1.3973428     2.088914   -1.7188407 
14855000    1.0720855 -5.3010439e-05    0.4767143  0.034421451            0   0.44229285    1.5880267     2.064741  -0.64939348 
14860000    1.0899601 1.7660132e-05   0.43064195  0.021451658            0    0.4091903    1.6145034    2.0451453    2.9493441 
14865000    1.0614413 -2.8408302e-05   0.46279783  0.007343471            0   0.45545436      1.57226    2.0350578    0.5805527 
14870000    1.0457193 -7.3513098e-05   0.47027872  0.010302818            0    0.4599759    1.5489717    2.0192504   -1.7446202 
14875000   0.97352547 0.00010416266   0.53945516  0.015798629            0   0.52365653    1.4420346    1.9814898    7.3146177 
14880000   0.98034251 0.00010941611   0.54217588  0.013385721            0   0.52879016    1.4521323    1.9943082    7.5964132 
14885000    1.0313352 -1.0610703e-05   0.51614958  0.067229948            0   0.44891963    1.5276653    2.0438148    1.5005468 
14890000   0.95767826 -0.00010526159   0.62140182  0.055891885            0   0.56550993    1.4185609    2.0399627   -3.3494309 
14895000    1.0488853 2.6198761e-05   0.46013331  0.014544417            0   0.44558889    1.5536614    2.0137947    3.3551713 
14900000    1.0562878 2.7795339e-05     0.441908 0.0084455921            0   0.43346241    1.5646264    2.0065343    3.4296557 
14905000    0.9532966 -6.0132276e-05   0.57822111 0.0099108811            0   0.56831023    1.4120706    1.9902917   -1.0884808 
14910000   0.98296956 -2.1943836e-05   0.53660724  0.010831918            0   0.52577532    1.4560237    1.9926309   0.86910647 
14915000    1.0392818 -7.8652957e-05   0.42599456 0.0065148648            0   0.41947969    1.5394362    1.9654308   -2.0616006 
14920000    1.0133232 -6.7537388e-05   0.45450932  0.047013583            0   0.40749573     1.500985    1.9554943   -1.5024199 
14925000   0.95103224 -2.5943087e-05   0.55991139  0.021344835            0   0.53856655    1.4087165    1.9686279   0.64034183 
14930000   0.97988583 -8.6094487e-06   0.52035179 0.0095288777            0   0.51082291    1.4514559    1.9718077    1.5310039 
14935000   0.90821033 4.1461682e-05   0.64189378  0.022625063            0   0.61926871    1.3452865    1.9871803    4.1100184 
14940000    1.0402689 8.9502677e-05   0.44580913   0.04157877            0   0.40423036    1.5408984    1.9867075    6.5692445 
14945000   0.98258667 -5.534848e-05   0.51199928  0.048282307            0   0.46371697    1.4554565    1.9674558  -0.86638639 
14950000   0.97899137 -1.9918745e-05    0.5075835  0.034200032            0   0.47338347     1.450131    1.9577145    0.9378747 
14955000   0.92109233 0.00012391399    0.5716691  0.018761567            0   0.55290754     1.364368    1.9360371    8.2804334 
14960000    1.0118431 3.392777e-05   0.46270721  0.017917159            0   0.44479006    1.4987926    1.9614998    3.6986016 
14965000    1.0476366 -3.0248382e-05   0.41879594   0.02189549            0   0.39690045    1.5518118    1.9706077   0.42189053 
14970000   0.96036617 -9.1480846e-05   0.52903113  0.021516267            0   0.50751486    1.4225424    1.9515735   -2.7322458 
14975000    1.0059921 3.0335463e-05   0.47212643 0.0028604339            0     0.469266    1.4901258    1.9622522    3.5154279 
14980000   0.96737839 -2.5318844e-06   0.51045931   0.00347615            0   0.50698316    1.4329292    1.9433886    1.8137561 
14985000   0.95141509 -0.0001351358   0.50743141 0.0078202805            0   0.49961113    1.4092836     1.916715   -5.0022382 
14990000   0.98123585 2.6483882e-05   0.47732385  0.026677391            0   0.45064646    1.4534556    1.9307795    3.2867542 
14995000   0.99643453 0.0001184921   0.43430075  0.027557377            0   0.40674337    1.4759687    1.9102694    7.9770649 
15000000   0.92731636 -3.102573e-05   0.56781961   0.01182577            0   0.55599384    1.3735874     1.941407   0.35288958 
15005000   0.94579274 -3.8378577e-05   0.54918912  0.013961529            0   0.53522759    1.4009555    1.9501446 -0.014838548 
15010000    1.0870444 5.9588989e-05   0.36988616 0.0037591823            0   0.36612698    1.6101845    1.9800707    5.0310269 
15015000   0.92452458 9.2749181e-05   0.60033691 0.0034289244            0   0.59690798     1.369452    1.9697889     6.718547 
15020000   0.99836437 -8.4763205e-07   0.46585232  0.032592395            0   0.43325993    1.4788272    1.9446795    1.9012808 
15025000   0.96706069 -4.3401028e-05    0.4956125  0.063271461            0   0.43234104    1.4324586    1.9280712  -0.29406147 
15030000   0.99449357 -9.6711801e-06   0.46258734  0.013815308            0   0.44877203    1.4730936    1.9356809    1.4405165 
15035000    1.0081127 0.00010035889   0.47018692  0.032580224            0    0.4376067    1.4932669    1.9634538    7.1018289 
15040000   0.98208784 9.0363136e-05   0.49917356  0.059381537            0   0.43979202    1.4547176    1.9538912    6.5804838 
15045000   0.90698118 -6.2663501e-05   0.57448614   0.04140431            0   0.53308183    1.3434659     1.917952   -1.2904192 
15050000   0.94909857 -0.00015563129   0.49941961  0.013019936            0   0.48639967    1.4058523    1.9052719   -6.0630504 
15055000   0.94881711 -7.6133197e-05    0.4765164  0.016568151            0   0.45994825    1.4054353    1.8819517   -2.0160679 
15060000   0.97532194 2.1350912e-05   0.44935195   0.00429028            0   0.44506167    1.4446956    1.8940476    2.9872142 
15065000   0.92742388 3.9062852e-05   0.53091259 0.0051569182            0   0.52575567    1.3737466    1.9046592    3.9046773 
15070000   0.91517519 -9.2467791e-06   0.52091707  0.010372929            0   0.51054414    1.3556032    1.8765203    1.4030852 
15075000   0.95492214 -6.2392522e-05   0.47251252  0.010972147            0   0.46154038    1.4144784    1.8869909   -1.3075062 
15080000   0.87348223 -0.00010093645   0.59920891 0.0057894325            0   0.59341948    1.2938456    1.8930545   -3.2748916 
15085000   0.94795643 -6.5620893e-05   0.46213541  0.087694709            0    0.3744407    1.4041605    1.8662959   -1.4934939 
15090000   0.95093237 8.5564682e-05   0.49586163  0.044985336            0    0.4508763    1.4085686    1.9044302    6.2853419 
15095000   0.97820586 6.2400127e-05   0.46443339  0.032385563            0   0.43204783    1.4489674    1.9134008    5.1082873 
15100000   0.97945944 4.3190351e-05   0.52020562  0.012128545            0   0.50807707    1.4508243    1.9710299    4.1823759 
15105000    1.0032031 8.2254499e-05   0.48886249 0.0038245816            0   0.48503791    1.4859946    1.9748571    6.1862874 
15110000   0.99359093 2.2635846e-05   0.51436613 0.0064405112            0   0.50792561    1.4717566    1.9861227     3.145078 
15115000    1.0321353 2.7772652e-06   0.44580335  0.019513803            0   0.42628955    1.5288504    1.9746538    2.1168498 
15120000    0.9805928 -0.00014063187   0.51036917  0.017201007            0   0.49316816    1.4525031    1.9628723   -5.2374795 
15125000   0.91249892 -3.5576774e-05   0.60540355  0.025093448            0    0.5803101     1.351639    1.9570426   0.13551176 
15130000   0.96027339 3.0444049e-06   0.53724983   0.01732196            0   0.51992788     1.422405    1.9596548    2.1155283 
15135000   0.97393574 -5.8703636e-05   0.49499602  0.022766627            0   0.47222939    1.4426423    1.9376383   -1.0679878 
15140000   0.93831684 6.8813115e-05   0.50228003   0.01613222            0   0.48614781    1.3898818    1.8921618    5.4153933 
15145000    0.9131948 -6.5152278e-05   0.53261205 0.0021779665            0   0.53043408    1.3526698    1.8852818   -1.4505148 
15150000   0.91878148 -0.00010978608   0.54534597  0.012171915            0   0.53317406    1.3609451     1.906291    -3.714756 
15155000   0.91661674 0.00014468253   0.53055739  0.024170338            0   0.50638705    1.3577385    1.8882959    9.2960416 
15160000   0.92867754 7.4403444e-05   0.51069635  0.014447962            0   0.49624838    1.3756036       1.8863    5.6957563 
15165000    0.9301124 4.2410379e-05   0.48637162 0.0074548008            0   0.47891682     1.377729    1.8641006     4.035512 
15170000   0.90415961 6.5680944e-05   0.53382929   0.01826322            0   0.51556607    1.3392864    1.8731157    5.2359801 
15175000   0.88231598 -8.4837064e-05   0.52729197  0.012197464            0   0.51509451    1.3069305    1.8342225   -2.5094352 
15180000   0.96740775 -3.3909981e-05   0.42200581 0.0042613154            0   0.41774449    1.4329727    1.8549785   0.11878752 
15185000   0.95058457 7.4528502e-05   0.45710902 0.0011059105            0   0.45600311    1.4080534    1.8651624    5.6810217 
15190000   0.89796515 3.8286242e-05   0.54865246 0.0060820353            0   0.54257043    1.3301109    1.8787633    3.8390189 
15195000   0.93275496 2.2327146e-05   0.48767559  0.015628415            0   0.47204717    1.3816433    1.8693189    3.0124687 
15200000   0.90468895 1.6173072e-05   0.55819573  0.011117794            0   0.54707794    1.3400705    1.8982662    2.7263276 
15205000   0.92675078 -6.4522295e-05   0.52332183 0.0069897613            0   0.51633207    1.3727496    1.8960714   -1.4074701 
15210000   0.93472545 -8.529926e-05   0.49691175  0.040513446            0   0.45639831    1.3845621    1.8814738   -2.4858483 
15215000   0.97945846 -7.4616741e-05   0.44052916  0.032096299            0   0.40843286    1.4508228     1.891352   -1.9290251 
15220000   0.88894338 1.0775497e-05   0.56579641  0.015283734            0   0.55051267    1.3167474    1.8825438    2.4342492 
15225000   0.97585687 6.7614327e-05   0.46329296 0.0035485318            0   0.45974443     1.445488    1.9087809    5.3706345 
15230000    0.9578411 6.6195952e-05   0.46971121  0.016713669            0   0.45299754    1.4188021    1.8885133    5.2777461 
15235000   0.96378776 -1.8904775e-05   0.47799014  0.044930996            0   0.43305915    1.4276106    1.9056008    0.9376763 
15240000    0.9770895 -3.4538933e-05   0.46046545  0.031340929            0   0.42912452    1.4473138    1.9077793   0.13938589 
15245000   0.93601503 -1.1754633e-06   0.51857549  0.032444473            0   0.48613101    1.3864723    1.9050477     1.844864 
15250000   0.95823798 -0.00011875605   0.51940031 0.0066493222            0   0.51275099      1.41939    1.9387903   -4.1415196 
15255000   0.98662695 1.6447717e-05   0.44973792 0.0033389701            0   0.44639895    1.4614412    1.9111791    2.7533022 
15260000   0.98131976 3.995405e-05   0.43375792 0.0033401623            0   0.43041775    1.4535799    1.8873378    3.9329852 
15265000     0.887058 -6.862652e-05   0.54201364 0.0054149648            0   0.53659868    1.3139547    1.8559683   -1.6577095 
15270000   0.87356653 -5.9605968e-05   0.52947306  0.014401365            0    0.5150717    1.2939704    1.8234435   -1.2283821 
15275000   0.97529631 1.3683555e-05   0.37661435 0.0075655579            0   0.36904879    1.4446577     1.821272      2.52187 
15280000   0.94377587 0.0001163954   0.42212836 0.0051185469            0   0.41700981     1.397968    1.8200964    7.7795407 
15285000   0.85911947 2.6574809e-05   0.55941978   0.02009434            0   0.53932544    1.2725707    1.8319905    3.1926207 
15290000   0.89357428 2.7372545e-06   0.50774772  0.019939757            0   0.48780797    1.3236069    1.8313546    1.9715021 
15295000   0.91080768 -6.4640878e-06   0.46679862  0.014725681            0   0.45207293    1.3491339    1.8159325    1.4849712 
15300000   0.87574817 -6.6845068e-05   0.53253493  0.018137326            0    0.5143976     1.297202    1.8297369   -1.5927306 
15305000   0.86820775 -6.5776612e-05   0.56023339  0.022436506            0   0.53779688    1.2860327    1.8462661   -1.5214964 
15310000   0.90880628 -5.5912542e-05   0.49728278  0.059012816            0   0.43826996    1.3461693    1.8434521   -1.0192701 
15315000   0.88039077 -3.2890232e-05   0.55153193   0.05410255            0   0.49742938    1.3040788    1.8556108   0.17163088 
15320000   0.91005181 3.9288096e-06    0.5093587  0.037820914            0   0.47153779    1.3480142    1.8573729     2.058528 
15325000   0.96308939 -0.00010338463   0.44346626  0.057874464            0    0.3855918    1.4265762    1.8700424   -3.4232509 
15330000   0.95765822 -3.9540858e-05   0.44927171  0.009828368            0   0.43944334    1.4185312     1.867803  -0.15668898 
15335000   0.87459603 1.4239985e-05   0.55596352  0.005321737            0   0.55064179    1.2954954    1.8514589    2.5805461 
15340000   0.94115649 5.9092882e-05   0.47507798 0.0062422852            0   0.46883569    1.3940881     1.869166    4.8947216 
15345000   0.91287498 0.00010495551   0.50627947  0.015094233            0   0.49118523    1.3521961    1.8584755    7.2321978 
15350000   0.87155186 6.3612298e-05    0.5773733  0.066042371            0   0.51133093    1.2909862    1.8683595    5.1253092 
15355000   0.92369647 -5.4306867e-05   0.49532165  0.025399372            0   0.46992228    1.3682254    1.8635471  -0.91696454 
15360000   0.95846263 -7.9595211e-05   0.41568967 0.00084303743            0   0.41484663    1.4197228    1.8354124   -2.2398624 
15365000   0.95801088 -5.3560607e-05   0.39139087 0.00076599512            0   0.39062488    1.4190536    1.8104445  -0.93185857 
15370000   0.94040995 -4.5475635e-05    0.4166082  0.010211321            0   0.40639688    1.3929822    1.8095904   -0.5187621 
15375000   0.89482913 9.3862817e-06   0.47766035 0.0076701115            0   0.46999024    1.3254656     1.803126    2.2837036 
15380000   0.81364773 7.0625667e-05   0.58997129 0.0017116952            0   0.58825959    1.2052157     1.795187    5.4112212 
15385000   0.93519003 6.0907319e-05   0.40529408 0.0067181249            0   0.39857596    1.3852502    1.7905443     4.908999 
15390000   0.90985115 -3.4759073e-05   0.41509814   0.00744792            0   0.40765022     1.347717    1.7628152 -0.016849358 
15395000   0.85135942 -6.1052164e-05   0.52264188  0.010412097            0   0.51222978    1.2610761     1.783718   -1.3421528 
15400000   0.88987834 -1.1361334e-05   0.46722402  0.012212176            0   0.45501185    1.3181323    1.7853563     1.203656 
15405000   0.84406699 -1.0027441e-05   0.50372156  0.010038649            0   0.49368291    1.2502742    1.7539958    1.2405908 
15410000   0.90251409 7.0300788e-05   0.43207323  0.027440087            0   0.40463314     1.336849    1.7689222    5.3683226 
15415000   0.82705129 8.8057832e-05    0.5876701   0.04220684            0   0.54546326    1.2250697    1.8127398    6.3213008 
15420000   0.87753849 3.7321741e-05   0.54194698  0.013165345            0   0.52878164    1.2998539    1.8418009     3.752674 
15425000   0.84697843 9.9914864e-05   0.56967435 0.0044808327            0   0.56519352    1.2545868    1.8242611    6.9399022 
15430000   0.93700608 7.7253005e-05   0.43341868 0.0030840089            0   0.43033468    1.3879403    1.8213589    5.7767128 
15435000   0.89797823 -3.8486709e-05   0.50445335  0.017487532            0   0.48696582    1.3301302    1.8345836  -0.13593591 
15440000   0.84870852 8.1115363e-05   0.57217485    0.0309968            0   0.54117805    1.2571495    1.8293243     5.982431 
15445000   0.85412624 0.00012169354   0.55505403  0.033968104            0   0.52108592    1.2651745    1.8202285     8.050938 
15450000   0.94024729 2.0575457e-05   0.43032905  0.027759379            0   0.40256967    1.3927413    1.8230703    2.8765337 
15455000   0.95649624 8.1994392e-06   0.40826215  0.017376067            0   0.39088608    1.4168101    1.8250722    2.2448835 
15460000   0.93982026 -2.8932102e-05   0.45013109  0.021222272            0   0.42890882    1.3921088    1.8422398   0.36091623 
15465000   0.94624302 -5.5062828e-05   0.43506419  0.079613175            0   0.35545101    1.4016225    1.8366867  -0.98253011 
15470000   0.94690268 -3.8059461e-05   0.43572857  0.022230462            0   0.41349811    1.4025996    1.8383282  -0.11031622 
15475000   0.92252242 6.2714643e-05   0.47793333  0.005344992            0   0.47258833    1.3664863    1.8444197    5.0554094 
15480000    1.0115577 0.00012045598     0.348643 0.0017869925            0   0.34685601    1.4983698    1.8470128    8.0143588 
15485000   0.95351151 4.7826342e-05   0.41433289 0.0044614375            0   0.40987146    1.4123889    1.8267218    4.2754305 
15490000   0.92179251 -3.2171912e-05   0.47606119  0.022445929            0   0.45361526    1.3654052    1.8414664   0.19426447 
15495000   0.97228166 -9.1814634e-06   0.42665917  0.020265906            0   0.40639326    1.4401922    1.8668514    1.3967605 
15500000   0.99653907 5.1835626e-05   0.37147723   0.01436486            0   0.35711237    1.4761235    1.8476007    4.5015848 
15505000    1.0502227 7.3380748e-05   0.31140744 0.0081322932            0   0.30327514    1.5556424    1.8670498    5.6241441 
15510000   0.89901538 4.2015689e-05   0.51464759  0.015875062            0   0.49877253    1.3316665    1.8463141    3.9975174 
15515000   0.93553272 -1.9080068e-05   0.44160099 0.0077830131            0   0.43381797    1.3857578    1.8273588   0.85045932 
15520000   0.89318064 -3.2671641e-05    0.4913135  0.013379379            0   0.47793412    1.3230238    1.8143373   0.14154932 
15525000   0.94898623 -2.304232e-05   0.40010893  0.019726799            0   0.38038213    1.4056859    1.8057948   0.62602799 
15530000   0.94686975 -7.1874262e-05   0.40556912  0.015757307            0   0.38981182    1.4025508    1.8081199   -1.8718423 
15535000   0.95250381 6.9456269e-06    0.4065827  0.027019338            0   0.37956336    1.4108963     1.817479    2.1730951 
15540000   0.90904334 7.6467781e-05   0.46082728  0.044282036            0   0.41654525    1.3465204    1.8073477    5.7224981 
15545000   0.87637009 -1.0412237e-05   0.49856083  0.043006695            0   0.45555414    1.2981232     1.796684    1.2635775 
15550000   0.92787182 -8.0083459e-05   0.45020403  0.010022309            0   0.44018172    1.3744101    1.8246142   -2.2756589 
15555000    0.9603738 4.0788612e-05    0.4236833 0.0073479759            0   0.41633532    1.4225537     1.846237    3.9346139 
15560000   0.95264488 0.00014608912   0.44072408  0.029519192            0   0.41120489    1.4111052    1.8518293    9.3315924 
15565000   0.91576806 3.4011954e-05   0.47437755   0.04034844            0   0.43402911    1.3564814     1.830859    3.5722711 
15570000   0.97866248 -1.2334473e-05   0.39732716 0.0016163836            0   0.39571077    1.4496438     1.846971    1.2154459 
15575000   0.92515625 1.1554937e-05   0.49100285 0.0047086628            0   0.48629419    1.3703877    1.8613905    2.4530033 
15580000   0.86246808 -0.00016389645   0.53564238  0.026100447            0   0.50954193    1.2775308    1.8131732   -6.5783248 
15585000   0.86551789 -0.00015108467   0.54865758  0.024407436            0   0.52425014    1.2820484    1.8307059   -5.9048292 
15590000   0.94634248 0.00012136991   0.42542785 0.0035339859            0   0.42189387    1.4017698    1.8271976    8.0413372 
15595000   0.94629301 8.9930618e-05   0.44554072 0.0028182613            0   0.44272246    1.4016965    1.8472372    6.4516849 
15600000   0.91043968 -5.1121153e-07   0.47491832 0.0047640827            0   0.47015423    1.3485888    1.8235071    1.7973331 
15605000   0.90690956 -6.2200549e-05    0.5030355  0.002970585            0   0.50006491    1.3433598    1.8463953   -1.3382728 
15610000   0.92225977 -7.3805468e-06    0.4879523 0.0019937728            0   0.48595853    1.3660973    1.8540496    1.4761656 
15615000    1.0371378 -8.4102121e-05   0.38183338 0.0056699791            0    0.3761634    1.5362604    1.9180937   -2.3879349 
15620000    1.0066029 -5.5039421e-05   0.46333135  0.019796244            0   0.44353511    1.4910306    1.9543619  -0.86365642 
15625000    1.0488977 3.4569372e-06   0.42595663  0.035291453            0   0.39066518    1.5536798    1.9796364    2.1566316 
15630000   0.96240617 1.9967867e-05   0.56171339  0.063341938            0   0.49837145    1.4255641    1.9872775    3.0096323 
15635000    1.0601636 6.4486717e-05   0.41940822  0.026585783            0   0.39282244    1.5703673    1.9897755    5.2914954 
15640000    1.0917917 6.2296233e-06   0.40762233  0.011760929            0    0.3958614    1.6172165    2.0248388    2.3437955 
15645000    1.0395351 -1.6869403e-05   0.47942075   0.03142355            0    0.4479972    1.5398114    2.0192322    1.1555188 
15650000    1.0525526 2.0166188e-05   0.51825896    0.0574801            0   0.46077886    1.5590935    2.0773525    3.1098613 
15655000    1.0447899 5.7051617e-05   0.52853568  0.072357134            0   0.45617855     1.547595    2.0761307    4.9971734 
15660000    1.1164693 6.6757378e-05   0.42669352  0.005465939            0   0.42122758    1.6537701    2.0804636    5.4984414 
15665000    1.1944087 0.00013694123   0.34811241  0.016105022            0   0.33200739     1.769218    2.1173304    9.1287212 
15670000    1.0966576 2.0879945e-05   0.52294535  0.044988582            0   0.47795677     1.624424    2.1473693    3.2164225 
15675000    1.0699688 -6.7184592e-05   0.54289882  0.033102606            0   0.50979622    1.5848912      2.12779   -1.3120611 
15680000    1.1788884 4.6067109e-05   0.42015819  0.012137108            0   0.40802109    1.7462284    2.1663866    4.5250226 
15685000    1.1392822 -5.4254351e-05   0.47633827  0.021665312            0   0.45467295    1.6875617       2.1639  -0.61392278 
15690000    1.0882098 -7.4111308e-05   0.53130075  0.077362256            0   0.45393849    1.6119107    2.1432115   -1.6512875 
15695000    1.1732926 -6.4650422e-05    0.4339709  0.031381538            0   0.40258936    1.7379397    2.1719106    -1.138191 
15700000    1.1576003 -8.3883894e-06   0.44095099  0.030912727            0   0.41003827    1.7146954    2.1556464    1.7261609 
15705000    1.1481959 -4.7921797e-06    0.4709607 0.0054443251            0   0.46551638    1.7007652    2.1717259    1.9263663 
15710000    1.1700619 -1.2144844e-05   0.43674125 0.0012413084            0   0.43549994    1.7331542    2.1698954    1.5480794 
15715000    1.1300803 4.2785076e-05   0.49540732  0.025565763            0   0.46984156    1.6739314    2.1693387    4.3599346 
15720000    1.1304316 -3.5909067e-05   0.49044445  0.039294456            0   0.45114999    1.6744518    2.1648963   0.32635208 
15725000    1.0928367 8.6801901e-05   0.55804031    0.0882213            0   0.46981902    1.6187644    2.1768047     6.621062 
15730000    1.0997303 0.00014946641   0.55646288  0.058485685            0   0.49797719    1.6289756    2.1854384    9.8381188 
15735000    1.1187619 7.682339e-05   0.54866818  0.048965302            0   0.49970288     1.657166    2.2058342    6.1391918 
15740000    1.1408767 1.4943401e-05   0.51729679  0.054679207            0   0.46261758    1.6899237    2.2072205    2.9723226 
15745000    1.1249973 -6.9829012e-05   0.49171631  0.018851976            0   0.47286433    1.6664022    2.1581185   -1.4171269 
15750000    1.1580173 -3.3911734e-05   0.45849611  0.055962509            0    0.4025336    1.7153131    2.1738092   0.43752839 
15755000    1.0998712 0.00010029598   0.51671562  0.031521004            0   0.48519461    1.6291842    2.1458998    7.2810539 
15760000    1.1185417 1.5460865e-05   0.47971651  0.011956908            0    0.4677596    1.6568399    2.1365564    2.9281527 
15765000    1.1886894 -0.00011271694   0.37151787  0.020963609            0   0.35055426    1.7607461     2.132264   -3.6388433 
15770000    1.1575973 8.7039884e-05   0.44727631  0.016025857            0   0.43125045    1.7146909    2.1619672    6.6184093 
15775000    1.1657992 4.1730534e-05   0.42763629  0.005752812            0   0.42188348    1.7268401    2.1544764    4.2910797 
15780000    1.1388873 -1.9513445e-05   0.48943875 0.0055625892            0   0.48387617    1.6869769    2.1764156    1.1773273 
15785000    1.1729867 8.6376126e-06   0.38339148  0.013829944            0   0.36956153    1.7374865     2.120878    2.5631238 
15790000    1.0404134 -2.0034776e-05   0.53036179  0.066555702            0   0.46380609    1.5411123    2.0714741    1.0456936 
15795000    1.0197753 -1.7451165e-05   0.56423986 0.0046591462            0   0.55958071    1.5105422    2.0747821    1.1812824 
15800000    1.1100128 -4.2519013e-05   0.40676441 0.0023025229            0   0.40446188    1.6442065    2.0509709  -0.12600255 
15805000    1.0423937 0.00016697599   0.53862384  0.008622308            0   0.53000153    1.5440457    2.0826696     10.63184 
15810000    1.1558247 1.4141388e-05   0.36453287  0.016675541            0   0.34785732    1.7120653    2.0765982    2.8006372 
15815000    1.0587238 -0.00014363029   0.49739079  0.021611776            0   0.47577901    1.5682346    2.0656254   -5.2882454 
15820000    1.0355014 5.3439945e-05   0.53631878  0.021867015            0   0.51445176    1.5338364    2.0701552    4.8062803 
15825000    1.0715885 -1.5541888e-05   0.50995672  0.059769914            0   0.45018681    1.5872905    2.0972472    1.3015025 
15830000    1.1318728 8.0151881e-05   0.45283273  0.025190823            0   0.42764191    1.6765866    2.1294193    6.2331956 
15835000   0.99888591 8.1844078e-05   0.64188469  0.095603932            0   0.54628075    1.4795998    2.1214844    6.3119012 
15840000     1.127788 0.0001185449   0.46713078  0.035154855            0   0.43197592     1.670536    2.1376668    8.2071658 
15845000    1.1541056 1.9489761e-05   0.41732528 0.0048677996            0   0.41245748    1.7095189    2.1268442      3.12472 
15850000    1.1486082 0.00011327206   0.41615187  0.023265384            0   0.39288648    1.7013758    2.1175277    7.9170574 
15855000     1.183763 4.3121856e-05   0.38576158  0.016785242            0   0.36897634    1.7534489    2.1392105    4.3470495 
15860000    1.0725862 -0.00019281408   0.55488879 0.0074539612            0   0.54743483    1.5887683    2.1436571   -7.7284237 
15865000    1.1374079 4.4750178e-05   0.44173065  0.032807807            0   0.40892284    1.6847854    2.1265161    4.4177252 
15870000    1.0327566 8.6052329e-05   0.55328351  0.062032683            0   0.49125083    1.5297707    2.0830542    6.4889335 
15875000    1.1053109 0.00012199865   0.43068965  0.019526983            0   0.41116267    1.6372418    2.0679315    8.3142625 
15880000    1.0763983 -0.00010100654   0.51124819 0.0047924841            0    0.5064557     1.594415    2.1056632   -3.0658715 
15885000    1.1298571 -9.9954036e-05   0.42366216  0.012576193            0   0.41108596    1.6736008     2.097263   -3.0203837 
15890000    1.1963247 3.3538884e-05   0.35389686 0.0073728251            0   0.34652404     1.772056    2.1259528    3.8431437 
15895000     1.120184 7.9669031e-05   0.44227869  0.005508327            0   0.43677036    1.6592726    2.1015513    6.1806057 
15900000    1.1078491 5.5562702e-05    0.4037366  0.029311991            0   0.37442461    1.6410015    2.0447381    4.8895485 
15905000    1.1238794 -0.00015012446   0.40858602 0.0097581527            0   0.39882786    1.6647463    2.0733323   -5.6130403 
15910000    1.1433108 -7.3894756e-05   0.40816117 2.0136372e-05            0   0.40814104    1.6935291    2.1016903   -1.6817212 
15915000    1.1029289 -6.7123718e-05   0.51731597 0.0091004474            0   0.50821552    1.6337135    2.1510295   -1.2857049 
15920000    1.0960099 3.9388555e-05   0.55015153  0.020227301            0   0.52992423    1.6234647    2.1736162    4.1903102 
15925000    1.1581158 -0.00010628829    0.4860678  0.019930704            0    0.4661371     1.715459    2.2015268   -3.2404334 
15930000    1.1792652 -5.7271065e-05   0.42875461  0.048138323            0   0.38061629    1.7467866    2.1755412  -0.75673728 
15935000     1.164535 -2.7682163e-05   0.45523507  0.032316495            0   0.42291858    1.7249675    2.1802026   0.76287584 
15940000    1.1354915 -7.3444615e-05   0.52376003  0.051010514            0   0.47274951    1.6819469    2.2057069   -1.5546574 
15945000    1.2231849 2.0004742e-05   0.39172761  0.028037217            0   0.36369039    1.8118427    2.2035703    3.2278131 
15950000    1.1547713 6.4246362e-05   0.49275096  0.049610023            0   0.44314094     1.710505    2.2032559    5.4926697 
15955000    1.0439276 9.9137333e-05   0.63913265  0.066408175            0   0.57272447    1.5463177    2.1854504    7.2612818 
15960000    1.1597095 0.00014661231   0.50186045  0.021261764            0   0.48059868    1.7178198    2.2196802    9.7262303 
15965000    1.2579461 2.9516694e-06   0.33770813 0.0033997541            0   0.33430838    1.8633327    2.2010409    2.3521663 
15970000    1.2062904 -6.7199794e-05   0.40613114 0.0098543313            0   0.39627681    1.7868177    2.1929488   -1.2476806 
15975000    1.0474272 -4.8455544e-05   0.60614753  0.025840907            0   0.58030662    1.5515016    2.1576491  -0.32327474 
15980000    1.1212294 7.5192244e-05   0.49208055  0.012024334            0   0.48005621     1.660821    2.1529015    6.0027444 
15985000    1.0548729 -0.00010623587   0.55323869 0.00010342962            0   0.55313526    1.5625305    2.1157692   -3.3235073 
15990000    1.1351894 -1.1090623e-05   0.43417111 0.0042024108            0    0.4299687    1.6814993    2.1156704    1.5478305 
15995000      1.08774 7.0051705e-05   0.48639185  0.018392617            0   0.46799923    1.6112148    2.0976067     5.684254 
16000000    1.1105803 -8.578104e-05   0.47844206  0.018577467            0   0.45986459    1.6450471    2.1234892   -2.2685001 
16005000    1.1180319 0.00010848166   0.44816737  0.018075399            0   0.43009197    1.6560848    2.1042522    7.6585132 
16010000    1.0802238 0.00012169046   0.48432234  0.014241659            0   0.47008068    1.6000816    2.0844039    8.3149552 
16015000    1.0346188 -4.3160248e-05      0.54694 0.0085264783            0   0.53841352    1.5325291    2.0794691  -0.13033564 
16020000    1.1420977 9.4547654e-05   0.41107119 0.0079187021            0   0.40315249    1.6917322    2.1028034    6.9436433 
16025000    1.1280257 7.2264748e-05   0.44484994  0.023197214            0   0.42165272    1.6708881     2.115738    5.8156931 
16030000    1.0258051 -5.1128017e-05   0.54712206  0.024037763            0   0.52308429    1.5194738    2.0665959  -0.55115855 
16035000    1.0373238 -1.3322666e-05   0.52549189 0.0087827395            0   0.51670915    1.5365359    2.0620277    1.3799073 
16040000    1.0751548 8.9016743e-06   0.48526737  0.030815878            0    0.4544515    1.5925731    2.0778405    2.5336062 
16045000   0.98992686 -6.7094521e-05   0.57962152  0.014869475            0   0.56475205    1.4663292    2.0459507   -1.3892888 
16050000    1.0638942 -8.1915352e-05   0.46821626 0.0032621563            0    0.4649541    1.5758932    2.0441095   -2.1499566 
16055000    1.0125275 3.2352313e-06   0.52661437 0.0043492035            0   0.52226517    1.4998064    2.0264208    2.1920646 
16060000    1.0198867 -6.97658e-05   0.52275188 0.0078640245            0   0.51488786    1.5107072    2.0334591   -1.5385498 
16065000    1.0246861 -9.1339409e-05   0.50252908 0.0070423539            0   0.49548673    1.5178163    2.0203454   -2.6562324 
16070000      1.07049 5.185271e-05   0.43928466 0.00024241815            0   0.43904224    1.5856633     2.024948    4.6798067 
16075000    1.0915119 1.0145898e-05   0.39858398            0            0   0.39858398     1.616802     2.015386     2.534856 
16080000    1.0526755 3.1252614e-05   0.47638444  0.010055491            0   0.46632895    1.5592756      2.03566    3.6357939 
16085000   0.99693986 4.488972e-05   0.55478051  0.051507125            0   0.50327339    1.4767172    2.0314977    4.3298513 
16090000     1.016001 -4.7731803e-05   0.49892308  0.062540867            0   0.43638221    1.5049515    2.0038745  -0.43999379 
16095000    1.0071841 -8.3792241e-05   0.49968861  0.023317217            0   0.47637139    1.4918914      1.99158   -2.2985827 
16100000    1.0660579 -0.00012322989   0.43926537 0.0011580621            0    0.4381073    1.5790983    2.0183637   -4.2910066 
16105000     1.024997 -0.00012200852   0.50561424 0.00015398721            0   0.50546026    1.5182768     2.023891   -4.2229454 
16110000    1.0636951 -2.5379375e-05   0.43973423 0.0012315478            0   0.43850268    1.5755984    2.0153326   0.71590867 
16115000    1.0848935 -1.8413982e-05   0.42705247  0.031260481            0   0.39579199    1.6069985     2.034051    1.0912551 
16120000    1.0367484 2.7412132e-05   0.51265218  0.040112795            0   0.47253939    1.5356836    2.0483358    3.4518369 
16125000    1.0630826 0.00013200985   0.47275462  0.021611518            0    0.4511431    1.5746911    2.0474457    8.8063502 
16130000    1.0220762 0.00012938598   0.49377756 0.0084864503            0   0.48529111    1.5139504     2.007728    8.6322902 
16135000   0.99656136 6.4438479e-05   0.51544225  0.023369668            0   0.49207258    1.4761565    1.9915988    5.2908489 
16140000   0.86720719 4.462917e-05   0.63873956  0.030717844            0   0.60802172    1.2845507    1.9232902    4.2083037 
16145000   0.98632216 0.00015506527   0.46317582  0.032007722            0    0.4311681    1.4609897    1.9241655    9.8635074 
16150000     1.011508 6.2798916e-05    0.4164932  0.017588823            0   0.39890438    1.4982962    1.9147894    5.1300939 
16155000    1.0103086 9.4512253e-06   0.42877299  0.012003255            0   0.41676974    1.4965196    1.9252926    2.4091953 
16160000   0.92405784 -1.7252243e-05   0.55258896   0.02241946            0    0.5301695    1.3687607    1.9213496    1.0380348 
16165000    1.0387183 -8.7757829e-05   0.40222402  0.050498345            0   0.35172568    1.5386014    1.9408255   -2.5523754 
16170000   0.98543628 6.6545618e-05   0.49155657 0.0020908122            0   0.48946576    1.4596775    1.9512341    5.3583697 
16175000    1.0225955 5.7042256e-05   0.43111839 0.0029540614            0   0.42816433    1.5147196     1.945838    4.8664015 
16180000    1.0222753 -4.1840224e-05   0.41966139 0.0070249414            0   0.41263645    1.5142452    1.9339066  -0.20831285 
16185000    0.9687305 4.6133852e-05   0.50592897 0.0069160447            0   0.49901293    1.4349321     1.940861    4.3029142 
16190000    1.0118225 4.962836e-07   0.47926175 0.0030032981            0   0.47625845     1.498762    1.9780238    2.0034335 
16195000    1.0142005 -1.1440465e-05   0.50931009 0.0014401112            0   0.50786998    1.5022845    2.0115946    1.4258427 
16200000    1.1092434 -2.4439405e-05    0.3830205 0.0013528596            0   0.38166764    1.6430668    2.0260873   0.77478972 
16205000    1.0245824 -8.3580959e-05   0.51853971  0.039899678            0   0.47864003    1.5176627    2.0362024   -2.2431428 
16210000   0.97600224 7.4605999e-05   0.60174386    0.0668976            0   0.53484626    1.4457033    2.0474472    5.8672743 
16215000    1.0403732 2.6810326e-05   0.48385693   0.01711812            0   0.46673881    1.5410529    2.0249098    3.3975985 
16220000    1.0334589 2.3728399e-05   0.43685046 0.0071039081            0   0.42974655     1.530811    1.9676615    3.1825555 
16225000    1.0130665 -4.2937855e-05    0.4753279  0.018691446            0   0.45663646    1.5006048    1.9759327  -0.22248548 
16230000     1.002586 5.6403608e-05   0.47603278  0.056502045            0   0.41953074    1.4850805    1.9611132     4.848978 
16235000   0.93673618 -7.9252063e-05   0.56372379  0.023417548            0   0.54030624    1.3875405    1.9512643   -2.1064414 
16240000   0.96967203 -8.8515233e-05   0.53620578 0.0054560808            0    0.5307497    1.4363267    1.9725325   -2.5594474 
16245000   0.93377833 0.00010502228   0.58529486 0.0036750346            0   0.58161982    1.3831591     1.968454     7.345595 
16250000   0.95787354 -0.00010428465   0.51725478  0.019984621            0   0.49727016    1.4188502     1.936105   -3.4032691 
16255000    1.0498585 7.2003634e-05   0.37451693    0.0206682            0   0.35384873    1.5551029    1.9296198    5.6162059 
16260000    1.0003067 0.00012193447   0.45773758 0.0028324496            0   0.45490513    1.4817043    1.9394419    8.1824867 
16265000    1.0124973 -7.0939356e-05   0.46256776 0.00024457804            0   0.46232319    1.4997616    1.9623294   -1.6697657 
16270000   0.98842242 -4.6680807e-05   0.48995204  0.034386203            0   0.45556583    1.4641007    1.9540528  -0.43600456 
16275000   0.99226353 2.7708146e-05   0.50590551  0.060851533            0   0.44505398    1.4697903    1.9756959    3.3943529 
16280000   0.94556441 6.2503839e-05   0.54743916  0.020274331            0   0.52716483    1.4006173    1.9480564     5.148253 
16285000   0.95145278 2.3624021e-05   0.51948839 0.0060963642            0   0.51339203    1.4093394    1.9288278    3.1383777 
16290000    1.0754955 -5.8755714e-06   0.34935412 2.7258574e-05            0   0.34932686    1.5930777    1.9424319    1.6416026 
16295000     1.034504 -6.050254e-05   0.42096294            0            0   0.42096294    1.5323591     1.953322    -1.144408 
16300000   0.99683723 -2.2048791e-05   0.45519396            0            0   0.45519396    1.4765651    1.9317591     0.802861 
16305000   0.97382581 -2.0201906e-05   0.49282386 0.00016657489            0   0.49265729    1.4424795    1.9353033   0.90096576 
16310000   0.92914227 -0.00012053601   0.55356573 0.0078930083            0   0.54567272     1.376292    1.9298577    -4.241586 
16315000   0.98533622 -0.0002109523   0.45417649  0.010824875            0   0.44335162    1.4595293    1.9137058   -8.8870518 
16320000    1.0370404 5.1887803e-05   0.36972301 0.00069671277            0    0.3690263    1.5361161    1.9058391    4.5624946 
16325000   0.96194082 0.00019874235   0.51710138 0.00069670961            0   0.51640467    1.4248748    1.9419762    12.117584 
16330000    1.0088875 -3.0317064e-05   0.48070657  0.016495692            0   0.46421088    1.4944147    1.9751212   0.42288756 
16335000    1.0615227 -6.5481956e-05   0.42380049  0.016695371            0   0.40710512    1.5723804    1.9961809   -1.3564952 
16340000   0.99170869 3.6873716e-05   0.54220728  0.014724678            0    0.5274826    1.4689685    2.0111758    3.8991101 
16345000    1.0447818 -3.4649017e-05   0.45862695 0.0095202716            0   0.44910667     1.547583    2.0062099   0.23218024 
16350000   0.99521506 -5.5554358e-05   0.54504898 0.0065725328            0   0.53847645    1.4741623    2.0192113  -0.82517182 
16355000    1.0110827 -2.496132e-05   0.52431389  0.013759625            0   0.51055426    1.4976662    2.0219801    0.7439605 
16360000    1.0711794 8.0242475e-05   0.45671213  0.051618369            0   0.40509376    1.5866845    2.0433966    6.1518113 
16365000   0.98850373 0.00012065921   0.57578452  0.034613752            0   0.54117076    1.4642211    2.0400057    8.2177573 
16370000     1.016344 -6.6980776e-05   0.53387563  0.029355309            0   0.50452032    1.5054595    2.0393351   -1.3900806 
16375000   0.96085991 -0.00014829917   0.58123786  0.027489028            0   0.55374884    1.4232737    2.0045116   -5.5884057 
16380000    1.0538777 -0.00010456433   0.45743485 0.0091441836            0   0.44829067    1.5610563    2.0184911   -3.3352024 
16385000    1.0543235 -2.6408401e-05   0.46497578 0.0039550131            0   0.46102077    1.5617166    2.0266924   0.67458228 
16390000   0.98691735 3.0157354e-05   0.52786194  0.037044726            0   0.49081722    1.4618713    1.9897333    3.5337898 
16395000    1.0154036 2.0921279e-05   0.48569919  0.076049595            0   0.40964959    1.5040667    1.9897658    3.0609353 
16400000   0.97949775 1.1686877e-05   0.56165936  0.022159783            0   0.53949958     1.450881    2.0125404    2.6109085 
16405000    1.0065538 0.00014007017   0.49216647  0.021144358            0   0.47102211    1.4909578    1.9831243    9.1547172 
16410000    1.0414614 6.8561193e-05   0.43570095  0.012915133            0   0.42278582    1.5426647    1.9783656    5.4886987 
16415000    1.1051502 -5.91958e-05   0.36418683  0.016811073            0   0.34737576    1.6370037    2.0011906   -1.0296344 
16420000    0.9087083 -4.0038001e-05   0.65563611  0.051760001            0   0.60387611    1.3460242    2.0016603 -0.048285408 
16425000    1.0103119 -2.4665048e-05   0.50461518 3.5809824e-07            0   0.50461482    1.4965245    2.0011397   0.73828924 
16430000   0.99682537 -4.9210511e-06   0.54725028            0            0   0.54725028    1.4765476    2.0237979      1.77184 
16435000    1.0955647 5.3962666e-05   0.42634294            0            0   0.42634294    1.6228052    2.0491481    4.8120366 
16440000    1.0424247 -5.5619456e-05    0.4975413            0            0    0.4975413    1.5440916    2.0416329  -0.80608321 
16445000    1.0572221 -7.5569369e-05   0.51140903 9.7703443e-06            0   0.51139926    1.5660103    2.0774193   -1.7917324 
16450000    1.0162476 1.9636161e-06   0.51977822  0.027117695            0   0.49266053    1.5053168     2.025095    2.1256321 
16455000    1.0166323 2.240308e-05   0.51206817  0.017101728            0   0.49496644    1.5058865    2.0179547    3.1649924 
16460000    1.0195157 -6.0565671e-05   0.49164274 0.0095478419            0    0.4820949    1.5101576    2.0018003    -1.099162 
16465000    1.0374113 -0.00011089825   0.48776036 0.0064172833            0   0.48134308    1.5366656    2.0244259   -3.6535644 
16470000    1.0040583 -2.7431169e-05   0.51018774  0.011165807            0   0.49902194    1.4872613    1.9974491   0.59297326 
16475000   0.93592065 -1.2868278e-05   0.59876674  0.037774562            0   0.56099218    1.3863325    1.9850992    1.3262433 
16480000   0.96171007 6.4704613e-05   0.49825517  0.068253549            0   0.43000162     1.424533    1.9227882    5.2356644 
16485000   0.99208195 0.00010327541    0.4460582  0.023373763            0   0.42268443    1.4695214    1.9155796    7.2032804 
16490000    1.0209035 3.1403874e-05   0.42300786 0.0012100147            0   0.42179785    1.5122134    1.9352212    3.5430996 
16495000   0.92998259 -4.8953582e-05   0.54549039 0.0034853163            0   0.54200507    1.3775367    1.9230271  -0.58339627 
16500000    0.9579619 -5.5143121e-05   0.47893822 0.0084900824            0   0.47044814    1.4189811    1.8979193  -0.92540851 
16505000   0.95387567 -6.7488424e-05   0.47916334  0.013036417            0   0.46612692    1.4129283    1.8920917   -1.5633157 
16510000   0.92373924 -4.567505e-06   0.52784296  0.043660174            0   0.48418279    1.3682888    1.8961317    1.6622755 
16515000   0.98967114 -5.0557429e-05   0.44906773  0.014674696            0   0.43439303    1.4659504    1.9150181  -0.67352229 
16520000    1.0176555 -6.5958968e-05   0.43945955  0.010710263            0   0.42874929    1.5074023    1.9468618   -1.4302373 
16525000    1.0053747 3.5396594e-05   0.46659518  0.031140274            0   0.43545491    1.4892113    1.9558065    3.7681121 
16530000    0.9603292 2.335277e-05   0.53989211  0.015228886            0   0.52466322    1.4224876    1.9623797    3.1580416 
16535000    0.9781267 3.7492681e-06   0.51246855  0.010320415            0   0.50214813    1.4488502    1.9613187    2.1532812 
16540000   0.96993101 2.1327209e-05   0.51268242  0.031679869            0   0.48100256    1.4367103    1.9493927    3.0413458 
16545000   0.94579748 -1.1051759e-05   0.54369711   0.02935467            0   0.51434244    1.4009625    1.9446596    1.3788096 
16550000   0.96128288 -1.7711102e-05   0.51646427  0.011944339            0   0.50451993    1.4239003    1.9403645    1.0335561 
16555000   0.96577806 -8.8246168e-05   0.48159285  0.021220953            0    0.4603719    1.4305588    1.9121516   -2.6060522 
16560000   0.96465976 -0.00011764996   0.47379333  0.017550471            0   0.45624286    1.4289023    1.9026956   -4.1209825 
16565000   0.89716136 2.5224612e-05   0.56585403 0.0066557186            0   0.55919831    1.3289203    1.8947743    3.1862744 
16570000   0.90237904 1.414595e-05   0.53700762 0.0070097229            0    0.5299979     1.336649    1.8736566    2.5979292 
16575000   0.91947474 -0.00012983645   0.48430897  0.011224377            0   0.47308459     1.361972    1.8462809   -4.8013452 
16580000   0.92245621 -0.00012969749   0.50396861   0.01898884            0   0.48497977    1.3663883    1.8703569   -4.7701549 
16585000   0.94039913 -7.0437118e-05    0.4583106  0.029879818            0   0.42843078    1.3929662    1.8512768   -1.7551036 
16590000   0.85566169 4.129191e-05    0.5681374  0.050121116            0   0.51801628    1.2674489    1.8355863    3.9497321 
16595000    0.9850237 5.8287063e-06   0.37556265  0.032859951            0    0.3427027    1.4590664     1.834629    2.1330588 
16600000   0.93778417 -5.2018004e-05   0.41845429  0.010636688            0    0.4078176    1.3890928    1.8075471  -0.85577469 
16605000   0.93148641 3.3151971e-05   0.45031643 0.0012475519            0   0.44906888    1.3797643    1.8300807    3.5274616 
16610000   0.92497479 5.4712627e-05   0.45428579  0.013006287            0    0.4412795    1.3701189    1.8244047    4.6256912 
16615000    1.0176337 5.1445071e-05   0.32169266  0.021516362            0    0.3001763    1.5073699    1.8290625    4.4630502 
16620000   0.90751801 -9.737585e-05   0.49490648   0.01455139            0   0.48035509    1.3442611    1.8391675    -3.146476 
16625000   0.84400988 -8.1337506e-05   0.57686475  0.015805447            0    0.5610593    1.2501896    1.8270544   -2.3374259 
16630000   0.90228116 -3.0896809e-05   0.49057048 0.0069270961            0   0.48364339     1.336504    1.8270745   0.24515781 
16635000   0.94267863 -3.6128205e-05   0.41426865 0.0087669286            0   0.40550172    1.3963427    1.8106114 -0.039152726 
16640000   0.98843494 8.2464248e-06   0.36033465  0.016540502            0   0.34379415    1.4641193    1.8244539    2.2466708 
16645000   0.90888664 1.7955554e-05   0.45767516 0.0091482987            0   0.44852686    1.3462883    1.8039635    2.7232879 
16650000   0.86015556 -6.6123939e-05      0.51108 0.0038714508            0   0.50720854    1.2741054    1.7851854   -1.6003603 
16655000   0.91768736 -8.2723154e-05   0.43767493 0.0080904093            0   0.42958452    1.3593244    1.7969993   -2.4384261 
16660000    1.0324696 -2.245138e-05   0.27057077  0.010447005            0   0.26012376    1.5293456    1.7999164   0.65040572 
16665000   0.88880084 3.3276117e-05   0.46796412  0.019187062            0   0.44877706    1.3165363    1.7845004    3.4882376 
16670000   0.88402853 2.6471986e-05   0.49435127  0.079720513            0   0.41463076    1.3094673    1.8038185    3.1591842 
16675000    0.9377877 2.4637721e-05   0.41836375  0.014583283            0   0.40378047     1.389098    1.8074618    3.0689131 
16680000   0.92658506 0.00012792929    0.4200116  0.009242016            0   0.41076959    1.3725041    1.7925157    8.3424955 
16685000    0.8645357 0.00010509485   0.48814108  0.021576135            0   0.46656494    1.2805935    1.7687346    7.1495908 
16690000   0.82804894 2.9586192e-05   0.51659355   0.03468764            0   0.48190591    1.2265475     1.743141    3.2579541 
16695000   0.94482209 6.6221945e-05   0.35239375  0.034226219            0   0.31816753    1.3995177    1.7519115     5.142475 
16700000   0.89560842 5.2483273e-05   0.41871915  0.010726848            0   0.40799231      1.32662    1.7453391    4.4324827 
16705000   0.82757493 5.7220774e-05    0.5122654  0.061137993            0    0.4511274    1.2258454    1.7381108    4.6678144 
16710000   0.86652369 2.1311566e-05   0.46753787  0.029675213            0   0.43786266    1.2835382    1.7510761    2.8422282 
16715000   0.89469958 -6.3544911e-05   0.43212285  0.011092958            0   0.42102989    1.3252738    1.7573966   -1.4961028 
16720000   0.82086664 -1.7343316e-05   0.55906223  0.046081747            0   0.51298048    1.2159087    1.7749709   0.88699315 
16725000   0.87447096 6.7090763e-05   0.49392211  0.032310413            0    0.4616117    1.2953101    1.7892322    5.2242793 
16730000   0.88693019 -4.7361262e-05   0.45177608 0.0082627899            0   0.44351329    1.3137653    1.7655414  -0.65935519 
16735000   0.96254726 -0.00010667977   0.34590648 0.0016405738            0    0.3442659    1.4257731    1.7716796   -3.6903248 
16740000   0.95159613 -4.4305949e-05   0.39014723 0.0026343002            0   0.38751293    1.4095518     1.799699  -0.46876558 
16745000   0.84222382 -5.1982786e-05   0.51497121  0.047844158            0   0.46712705     1.247544    1.7625152  -0.89900339 
16750000   0.94391137 -5.1895222e-05   0.36757462   0.01354711            0   0.35402751    1.3981687    1.7657433  -0.89129206 
16755000    0.8673208 1.920186e-05   0.48968738 0.0029512574            0   0.48673612    1.2847189    1.7744063    2.7575415 
16760000   0.86859029 -6.9411833e-05   0.48135061  0.057063758            0   0.42428685    1.2865994      1.76795   -1.7859359 
16765000   0.92713607 -7.5227258e-05   0.40962839  0.017245658            0   0.39238273    1.3733203    1.7829487   -2.0686869 
16770000   0.87325707 -1.510812e-05   0.48534183 0.0020962692            0   0.48324556     1.293512    1.7788539    1.0053181 
16775000   0.94351465 -7.1538418e-05    0.3615811 0.0084094791            0   0.35317162    1.3975811    1.7591622   -1.9036048 
16780000   0.87478409 -0.0001015356   0.47827926  0.040932979            0   0.43734628    1.2957739    1.7740532   -3.4245694 
16785000   0.86011615 2.1684686e-05   0.47163241  0.023510909            0    0.4481215     1.274047    1.7456795    2.8559354 
16790000   0.90485729 7.166481e-05   0.39398978  0.012500855            0   0.38148892    1.3403199    1.7343096    5.4035479 
16795000   0.91489499 7.226813e-05    0.3673954 0.0085769565            0   0.35881844    1.3551882    1.7225836    5.4227119 
16800000   0.91368659 5.866613e-05    0.3759739 0.0090342209            0   0.36693968    1.3533983    1.7293722     4.733078 
16805000   0.94164312 -3.6429018e-05   0.33602926 0.0088599487            0   0.32716931    1.3948089    1.7308381  -0.13432757 
16810000   0.90389865 -2.1878773e-05   0.40777352  0.012442882            0   0.39533064    1.3388999    1.7466734   0.62648024 
16815000   0.90418432 2.7644735e-05   0.40200188  0.019716701            0   0.38228518     1.339323    1.7413249    3.1567353 
16820000   0.90618207 3.369354e-05   0.41357492  0.010763288            0   0.40281163    1.3422822    1.7558571    3.4809664 
16825000   0.87216446 -3.6837912e-05   0.44679416  0.015277032            0   0.43151713    1.2918936    1.7386878  -0.14741332 
16830000   0.87145954 -6.7970326e-05   0.44663393  0.018214164            0   0.42841976    1.2908494    1.7374834   -1.7425973 
16835000   0.90181635 3.6980981e-05   0.38358039  0.019399228            0   0.36418116    1.3358155    1.7193959    3.6128221 
16840000   0.82704832 9.9433768e-05   0.51144826  0.090276656            0   0.42117161    1.2250653    1.7365136    6.8275225 
16845000   0.91073163 5.3906722e-05   0.39472613   0.03091439            0   0.36381174    1.3490212    1.7437474    4.5037715 
16850000   0.92480928 3.2480412e-06   0.39551681  0.019294365            0   0.37622245    1.3698737    1.7653906    1.9316903 
16855000   0.94902227 -2.9674071e-05   0.34670673 0.00060072641            0   0.34610601    1.4057392     1.752446   0.23313354 
16860000    0.9855653 -2.0142158e-05   0.32895964 0.00098161199            0   0.32797802    1.4598686    1.7888282   0.75754973 
16865000   0.97301844 -5.0077877e-06   0.36643437 0.0060324085            0   0.36040196    1.4412836    1.8077179    1.5513192 
16870000   0.97686959 -4.0500225e-06   0.37583285 0.0066493864            0   0.36918346    1.4469881    1.8228209    1.6154598 
16875000   0.98207113 -3.5501506e-05   0.37572007  0.016610083            0   0.35910999    1.4546929    1.8304129   0.01273584 
16880000   0.92164594 -3.5323177e-05   0.48802744  0.043256551            0   0.44477089     1.365188    1.8532155  0.044668814 
16885000   0.92958055 6.9207923e-05   0.46179398  0.087356452            0   0.37443753    1.3769412    1.8387352    5.3821808 
16890000   0.99277235 4.3500572e-05    0.3591538  0.024556013            0   0.33459779     1.470544    1.8296978    4.0569271 
16895000    0.9758367 8.4964056e-05   0.36345104  0.007803968            0   0.35564707    1.4454581    1.8089091    6.1590688 
16900000   0.89248512 -1.0708435e-05   0.48634365  0.042708356            0    0.4436353    1.3219936    1.8083372    1.2600654 
16905000   0.94804928 2.3723934e-05   0.40606995  0.019718882            0   0.38635106     1.404298    1.8103679    3.0250333 
16910000   0.95934347 -1.0960602e-05   0.39751234 0.0047761236            0   0.39273622    1.4210275    1.8185399     1.257357 
16915000   0.95922156 -4.0597882e-05   0.42306144 0.0021015963            0   0.42095984    1.4208469    1.8439084  -0.23470317 
16920000   0.96850645 -0.00015500215   0.41271724  0.002878584            0   0.40983866    1.4346002    1.8473174   -6.0887926 
16925000    1.0074568 -7.8793227e-05   0.37801037   0.02934958            0   0.34866079    1.4922953    1.8703057   -2.1639075 
16930000    1.0635058 8.0402607e-05   0.28483886  0.043417437            0   0.24142142    1.5753179    1.8601568    5.9767702 
16935000    1.0475774 5.8936329e-05   0.31798927  0.011766862            0   0.30622241     1.551724    1.8697133    4.8872534 
16940000   0.99147953 -0.00010381178   0.41366603  0.021278325            0    0.3923877     1.468629    1.8822951   -3.4328683 
16945000    0.9611351 -7.6460248e-05   0.43766328  0.016088737            0   0.42157454    1.4236814    1.8613446   -2.0534201 
16950000    1.0605918 1.1208725e-05   0.29868301 0.0035483082            0    0.2951347    1.5710015    1.8696846    2.4435713 
16955000   0.94131859 4.2804571e-05   0.48097907  0.049485122            0   0.43149395    1.3943282    1.8753072    4.0669013 
16960000   0.96983477 -4.0919115e-05   0.42141386  0.054954876            0   0.36645898    1.4365678    1.8579816  -0.23707705 
16965000    1.0109975 -7.5207142e-05   0.36937157   0.04967116            0   0.31970041      1.49754    1.8669116   -1.9836941 
16970000    1.0489537 7.7834459e-05   0.34037393  0.018319321            0   0.32205461    1.5537626    1.8941366    5.8792609 
16975000    0.9787778 0.00010944325   0.43565458  0.017371689            0    0.4182829    1.4498146    1.8854692    7.4889634 
16980000   0.98627106 5.5184193e-05   0.40384436  0.042102379            0   0.36174198     1.460914    1.8647584    4.6901891 
16985000   0.97524844 -1.2233155e-05   0.44960717  0.035619729            0   0.41398744    1.4445868    1.8941939    1.2678564 
16990000    1.0080934 -2.4447566e-05   0.37201081  0.030580096            0   0.34143071    1.4932384    1.8652492   0.61353378 
16995000   0.95978696 -6.0865538e-05   0.42120949  0.040149413            0   0.38106008    1.4216844    1.8428939   -1.2734216 
17000000   0.99719688 -0.00015034377    0.3986974  0.043773011            0   0.35492439    1.4770979    1.8757953   -5.8218055 
17005000   0.95161612 -0.00015595279   0.46624462  0.026147159            0   0.44009746    1.4095814     1.875826   -6.1089567 
17010000    1.0181487 -9.1588957e-05   0.34891917 0.0092853193            0   0.33963385    1.5081327    1.8570519   -2.8323027 
17015000    1.0099297 3.4680061e-06   0.38736007 0.0028082224            0   0.38455185    1.4959584    1.8833185    2.0608804 
17020000   0.98895191 7.2150347e-05   0.41449716 0.0032689042            0   0.41122826     1.464885    1.8793822    5.5734799 
17025000    1.0255156 0.00017017585   0.36193346  0.027809756            0    0.3341237     1.519045    1.8809784    10.593982 
17030000   0.94726715 3.0283276e-05   0.48771875   0.02391517            0   0.46380358    1.4031395    1.8908582     3.441362 
17035000    1.0004636 -0.00015336966    0.3996643 0.0068580824            0   0.39280622    1.4819367    1.8816011   -5.9709254 
17040000    1.0394095 -3.2789218e-05   0.34589066   0.01547809            0   0.33041257    1.5396253    1.8855159   0.20670795 
17045000    1.0681092 0.00013610587     0.323035  0.011604534            0   0.31143047    1.5821368    1.9051718    8.8737923 
17050000   0.99412941 8.852738e-05    0.4373303  0.020943312            0   0.41638699    1.4725542    1.9098845    6.4424863 
17055000   0.97919664 -2.3310867e-05   0.45559269  0.037868628            0   0.41772406     1.450435    1.9060277    0.7125113 
17060000   0.97811137 -4.4679044e-05     0.467775  0.029599046            0   0.43817595    1.4488275    1.9166025  -0.37096461 
17065000    0.9584762 3.8770249e-05   0.45775713  0.023437252            0   0.43431987    1.4197429       1.8775    3.8625367 
17070000   0.99099516 6.5729264e-05   0.43147364  0.035414774            0   0.39605886    1.4679116    1.8993852    5.2647236 
17075000   0.98856443 3.3715164e-05   0.42286331  0.029675506            0    0.3931878    1.4643111    1.8871744    3.6133907 
17080000    1.0369852 9.8644865e-06   0.38746167  0.013385548            0   0.37407612    1.5360343     1.923496    2.4285577 
17085000    1.0243455 -4.467015e-05   0.40937308   0.01883749            0   0.39053559    1.5173117    1.9266848  -0.36042686 
17090000     1.021376 -1.6061498e-05   0.40484106  0.015815793            0   0.38902527    1.5129132    1.9177542    1.0954055 
17095000   0.94229461 6.6333433e-05   0.49896321  0.013567318            0   0.48539589    1.3957739    1.8947371    5.2910088 
17100000   0.99302698 3.7261113e-05   0.42399064  0.022445899            0   0.40154474    1.4709212    1.8949119    3.8026808 
17105000   0.96357037 -3.5718916e-05   0.45939549  0.030271193            0   0.42912429    1.4272886    1.8866841  0.057875607 
17110000   0.91167852 -3.2959981e-05    0.4896866  0.030178011            0   0.45950859    1.3504238    1.8401104    0.1525594 
17115000   0.92926507 -7.7593324e-05   0.45622777   0.01379232            0   0.44243545    1.3764739    1.8327017   -2.1400766 
17120000    0.9650506 -8.5108498e-05   0.41864581  0.008747809            0     0.409898    1.4294812     1.848127   -2.5094281 
17125000   0.93191663 -2.5438433e-05   0.46506303  0.019754158            0   0.44530887    1.3804015    1.8454645   0.54301677 
17130000   0.98759763 2.6559582e-05   0.39031709  0.020172611            0   0.37014448     1.462879    1.8531961    3.2130467 
17135000   0.97860505 4.4965443e-05   0.39675251   0.02731423            0   0.36943828    1.4495587    1.8463112    4.1485419 
17140000   0.95471792 -3.5509284e-05   0.42115757   0.01815501            0   0.40300256    1.4141759    1.8353335  0.017258129 
17145000   0.90199902 -0.00012763568   0.50270176  0.024505847            0   0.47819592     1.336086    1.8387878   -4.6961588 
17150000   0.97447596 -2.4181219e-05   0.39309207  0.013196678            0   0.37989539    1.4434425    1.8365346   0.59845617 
17155000   0.94583498 1.7184532e-05    0.4355469 0.0019531855            0   0.43359371    1.4010181     1.836565     2.716413 
17160000    1.0013557 -5.0952747e-05   0.35319977   0.01067696            0   0.34252281    1.4832582    1.8364579  -0.77232273 
17165000   0.95074014 -3.0479027e-05   0.44305553  0.012592769            0   0.43046276    1.4082838    1.8513394   0.29081319 
17170000   0.97015368 4.682312e-05   0.42827278 0.0069736122            0   0.42129917    1.4370401    1.8653129    4.2626567 
17175000    1.0046543 -4.2656021e-05   0.39429645  0.014373353            0   0.37992309    1.4881442    1.8824407  -0.30154762 
17180000    1.0163518 -0.00014760299   0.41475772 0.0095580393            0   0.40519968    1.5054711    1.9202288   -5.6370445 
17185000   0.94471769 -8.7188773e-05   0.49183149 0.0097438536            0   0.48208764    1.3993631    1.8911946   -2.5728706 
17190000    1.0251906 -7.9977807e-05   0.40374752  0.012944532            0   0.39080298    1.5185636    1.9223111   -2.1725526 
17195000     1.004299 -9.5894573e-05   0.43141949  0.010856284            0   0.42056321    1.4876178    1.9190373   -2.9907648 
17200000    1.0447326 5.0667964e-05   0.38276964 0.0050338164            0   0.37773582    1.5475101    1.9302798    4.5244795 
17205000    1.0515927 4.6446212e-06   0.40176563  0.023930791            0   0.37783484    1.5576717    1.9594374     2.197242 
17210000    0.9482639 -7.508218e-06   0.53048512  0.066331091            0   0.46415403    1.4046159     1.935101    1.5506803 
17215000   0.97833874 5.1717379e-05   0.50439457  0.025930835            0   0.47846373    1.4491643    1.9535588    4.6014886 
17220000    1.0359159 -3.1371483e-05   0.42820147   0.02032252            0   0.40787895    1.5344505     1.962652   0.35643204 
17225000    1.0466024 -1.2961202e-05   0.39389448  0.011105702            0   0.38278878    1.5502799    1.9441743    1.2805608 
17230000   0.98665421 1.2277927e-05   0.49396132  0.025314865            0   0.46864645    1.4614815    1.9554429    2.5840727 
17235000    1.0542783 5.7840659e-05   0.39883995  0.009211986            0   0.38962797    1.5616497    1.9604896    4.9219313 
17240000    1.0435753 -2.4243272e-05   0.41671224 0.0037056841            0   0.41300656     1.545796    1.9625082   0.72125271 
17245000    1.0844086 3.9248673e-05   0.37731612 0.0052537384            0   0.37206238    1.6062803    1.9835964    3.9931285 
17250000    1.0859026 -3.7165801e-05   0.37877886 0.0096792404            0   0.36909962    1.6084932     1.987272  0.084382998 
17255000    1.0416902 -8.7301296e-05   0.45784704  0.017360247            0   0.44048679    1.5430036    2.0008506   -2.4689757 
17260000    1.0928913 -6.8761293e-05   0.36138745  0.014555946            0   0.34683151    1.6188452    1.9802326   -1.5403456 
17265000    1.0287725 -6.0634436e-05   0.46956772  0.040032306            0   0.42953542    1.5238692    1.9934369   -1.1110462 
17270000    1.0272988 4.3466462e-05   0.47912186  0.040084247            0   0.43903761    1.5216864    2.0008082    4.2262911 
17275000    1.1177241 8.3548445e-05   0.34271979  0.019089417            0   0.32363037    1.6556288    1.9983486    6.2760289 
17280000    1.0549905 1.6536522e-05   0.41614467  0.006013294            0   0.41013138    1.5627046    1.9788493    2.8255192 
17285000     1.056843 -1.4466132e-05   0.40646039  0.013821964            0   0.39263843    1.5654487    1.9719091    1.2312432 
17290000    1.0347654 -4.159609e-05   0.44105423  0.033682875            0   0.40737136    1.5327463    1.9738006  -0.15591926 
17295000    1.0375613 -6.097949e-05   0.45428737  0.034758446            0   0.41952892    1.5368877    1.9911751   -1.1309748 
17300000    1.0904632 -9.135105e-05   0.39162121 0.0069839262            0   0.38463729    1.6152486    2.0068698   -2.6703039 
17305000    1.0712932 6.5924345e-05   0.41771084 0.0030837168            0   0.41462712    1.5868531     2.004564    5.3798904 
17310000     1.082306 0.00012906744   0.41926805 0.0035199318            0   0.41574812    1.6031658    2.0224338    8.6306868 
17315000    1.0512158 -0.00010871682   0.49017081 0.0096661435            0   0.48050467    1.5571135    2.0472843   -3.5190168 
17320000     1.101727 2.3044811e-05   0.36645277     0.018252            0   0.34820077    1.6319331    1.9983858    3.1782801 
17325000     1.028096 7.5067804e-05   0.47070793  0.067552568            0   0.40315536    1.5228672    1.9935751    5.8370466 
17330000   0.97372731 3.7075147e-05   0.51732152  0.017796055            0   0.49952546    1.4423336    1.9596551    3.8579026 
17335000    1.0643794 0.00011281114   0.39144729 0.0040380831            0   0.38740921    1.5766119    1.9680592    7.7439894 
17340000    1.0676977 -4.7732091e-05    0.3884991  0.026253404            0    0.3622457    1.5815272    1.9700263   -0.4738567 
17345000    0.9766865 -0.00014030559   0.52128021  0.053489833            0   0.46779038    1.4467169    1.9679971    -5.215649 
17350000    1.0955424 8.2971354e-06   0.35109921 0.0079582278            0   0.34314098    1.6227722    1.9738714    2.3986847 
17355000    1.0350257 5.599769e-05   0.43266601  0.017177578            0   0.41548843    1.5331317    1.9657978    4.8328795 
17360000   0.99193769 -1.3728359e-05   0.48292136  0.077357792            0   0.40556357    1.4693077    1.9522291    1.2493371 
17365000      1.02859 -5.5273402e-05   0.40838298  0.030524133            0   0.37785885     1.523599     1.931982  -0.89801623 
17370000    1.0387914 -0.00011357039   0.42411893  0.015054038            0    0.4090649    1.5387098    1.9628287   -3.8519754 
17375000    1.0384885 -4.1281726e-05   0.48114073  0.018058996            0   0.46308174    1.5382612    2.0194019 -0.094222511 
17380000    1.0857382 5.3207388e-05   0.41866226  0.017751541            0   0.40091072    1.6082498     2.026912    4.7511303 
17385000    1.0742623 8.8773556e-05   0.42921686  0.023191443            0   0.40602542     1.591251    2.0204678    6.5656739 
17390000    1.0439937   2.7577e-05   0.49395415   0.01978961            0   0.47416454    1.5464157    2.0403698    3.4523123 
17395000    1.0509382 9.5248849e-05   0.43749994  0.020477561            0   0.41702238    1.5567022    1.9942021    6.8709432 
17400000    1.0657387  0.000180862   0.43007466  0.036954417            0   0.39312025    1.5786255    2.0087002    11.268835 
17405000    1.0213512 2.0526496e-05   0.47615478  0.022764106            0   0.45339068    1.5128765    1.9890313    3.0399879 
17410000    1.0652186 -1.367274e-06   0.44184593 0.0014443732            0   0.44040156    1.5778551     2.019701    1.9496966 
17415000    1.1040224 -0.00010673407   0.36183234 0.00032937021            0   0.36150297    1.6353331    1.9971655   -3.4676192 
17420000    1.0218448 -6.7996877e-05   0.50880717  0.003677763            0    0.5051294    1.5136076    2.0224147   -1.4590254 
17425000     1.064468 -4.5032334e-05   0.41919671 0.0058636125            0    0.4133331    1.5767432    1.9959399  -0.30971559 
17430000    1.0741005 -1.4975842e-05   0.39837728  0.012037158            0   0.38634012    1.5910113    1.9893886    1.2226255 
17435000    1.0239017 -8.9378154e-05   0.46624345  0.011460515            0   0.45478294    1.5166544    1.9828978   -2.5932636 
17440000    1.0364837 -3.6832416e-05   0.44560542 0.0080863328            0   0.43751909    1.5352915    1.9808969    0.0950772 
17445000    1.0035233 3.2605037e-05   0.49545229  0.011333307            0   0.48411899    1.4864688    1.9819211     3.651299 
17450000    1.0030398 1.6616749e-05   0.49536085  0.033333348            0    0.4620275    1.4857527    1.9811136    2.8318912 
17455000   0.99955091 3.6838772e-05   0.50262474  0.035822602            0   0.46680214    1.4805848    1.9832095    3.8693547 
17460000    1.1102387 4.2311446e-05   0.32805668  0.015908859            0   0.31214782    1.6445411    1.9725978    4.1389438 
17465000   0.98841719 7.3967757e-05   0.47557642  0.014091857            0   0.46148456     1.464093    1.9396694    5.7268185 
17470000   0.97168802 -4.5499059e-05   0.49201474 0.0061188295            0   0.48589591    1.4393129    1.9313276  -0.39822418 
17475000    1.0028728 -5.9244618e-05   0.44596362  0.010240498            0   0.43572313    1.4855054     1.931469   -1.1018554 
17480000   0.97266155 -2.5292509e-05   0.47816614  0.031030674            0   0.44713546    1.4407549    1.9189211    0.6239446 
17485000   0.95549165 1.2992815e-05   0.47435447  0.038713928            0   0.43564054     1.415322    1.8896765    2.5549086 
17490000    1.0047691 0.00010066755   0.40480858 0.0050267645            0   0.39978182    1.4883142    1.8931228    7.0473014 
17495000     1.024441 0.00010849254   0.38941572  0.041964563            0   0.34745116    1.5174533     1.906869    7.4616872 
17500000    1.0386543 3.6213019e-05   0.38501664   0.01556099            0   0.36945565    1.5385068    1.9235234      3.77763 
17505000    1.0319304 2.2035674e-05    0.3855657  0.016896739            0   0.36866896    1.5285469    1.9141126    3.0423391 
17510000    1.0290256 4.6647646e-05   0.38038141  0.024031058            0   0.35635035    1.5242442    1.9046256    4.2929851 
17515000    1.0006853 -5.0672631e-06   0.44249387  0.018223923            0   0.42426995    1.4822651    1.9247589    1.6653151 
17520000   0.99872289 -0.0001221249   0.45931289  0.020903514            0   0.43840937    1.4793583    1.9386712   -4.3141239 
17525000    1.0629699 -0.00010841151   0.38612311  0.004168017            0    0.3819551    1.5745241    1.9606473   -3.5900222 
17530000    1.0330033 3.2898015e-06   0.40340443 0.0060572835            0   0.39734715    1.5301362    1.9335406    2.1019785 
17535000    1.0294639 7.575014e-05   0.43611605  0.027084432            0   0.40903162    1.5248934    1.9610094    5.8394166 
17540000    1.0069333 1.2093728e-05   0.46882002  0.046928377            0   0.42189164      1.49152      1.96034    2.5795389 
17545000    1.0872268 -8.3624907e-05   0.34222042  0.037506656            0   0.30471377    1.6104547    1.9526751   -2.3289201 
17550000    1.0304006 -3.1447525e-05   0.44013547  0.040368855            0   0.39976662    1.5262809    1.9664163   0.35630305 
17555000    1.0514411 -5.485862e-05   0.40734801  0.028859709            0    0.3784883    1.5574471    1.9647951  -0.84396622 
17560000    1.0028454 -6.1092088e-05   0.48834519   0.11084489            0    0.3775003    1.4854648      1.97381   -1.1541049 
17565000     1.072696 3.9968819e-05    0.4159569  0.020486707            0    0.3954702     1.588931    2.0048879    4.0512914 
17570000    1.0674845 6.4125422e-05   0.38730714  0.016917487            0   0.37038965    1.5812114    1.9685185    5.2517401 
17575000   0.98564622 -2.4600361e-05   0.49105809  0.042227559            0   0.44883053    1.4599885    1.9510466   0.69150809 
17580000    1.0069306 -4.0117664e-05   0.44923063  0.019203491            0   0.43002714    1.4915159    1.9407465   -0.1132779 
17585000    1.0367814 7.4896569e-05   0.40125154  0.043946757            0   0.35730479    1.5357324    1.9369839    5.7716882 
17590000    1.0336416 3.9771322e-05   0.37804286  0.050584016            0   0.32745884    1.5310817    1.9091246    3.9454162 
17595000     1.021935 -3.7313307e-05   0.38433302  0.014616398            0   0.36971662    1.5137413    1.8980743 -0.012367022 
17600000    1.0297815 3.6973345e-05   0.38287434  0.045363045            0    0.3375113    1.5253638    1.9082382    3.8012734 
17605000   0.97410913 8.7825879e-05   0.46224228  0.010914701            0   0.45132758    1.4428992    1.9051414    6.4018264 
17610000    1.0086518 -0.00010553673   0.40358515  0.020010148            0     0.383575    1.4940655    1.8976507   -3.5058299 
17615000   0.99121364 -0.00016526516   0.42655083  0.010502944            0   0.41604789    1.4682352     1.894786   -6.5667901 
17620000   0.99242579 4.6814291e-05   0.42178354 0.0071034288            0   0.41468012    1.4700307    1.8918143     4.288706 
17625000   0.95311013 6.7481761e-05   0.42065075  0.002531957            0   0.41811879    1.4117944    1.8324451    5.2875113 
17630000    1.0414431 8.5553229e-05   0.32847573 0.0024641821            0   0.32601155    1.5426376    1.8711133    6.2514386 
17635000   0.97561127 6.7556461e-05   0.41913748   0.03629605            0   0.38284143    1.4451242    1.8642617    5.3231525 
17640000   0.93361951 -0.00013997002   0.49091547  0.020567771            0    0.4703477    1.3829239    1.8738394   -5.2926257 
17645000    1.0042895 -8.2338801e-05   0.38599382 8.9542838e-05            0   0.38590428    1.4876038    1.8735976    -2.342149 
17650000    1.0116433 0.00013562657   0.37256022            0            0   0.37256022    1.4984966    1.8710568    8.8151372 
17655000   0.96812942 9.0488267e-05    0.4680255 0.00025818181            0   0.46776732    1.4340417    1.9020672    6.5350665 
17660000   0.98101573 -4.7579877e-05   0.42967278 0.0024987979            0   0.42717399    1.4531296    1.8828023  -0.55328737 
17665000    0.9792999 -4.3743861e-05    0.4310408 0.0064513746            0   0.42458943     1.450588    1.8816288  -0.35805691 
17670000   0.96954224 3.1969323e-05   0.41994239  0.018127964            0   0.40181443    1.4361344    1.8560768    3.4929062 
17675000   0.88280037 9.6627633e-05   0.54770965  0.083139908            0   0.46456975     1.307648    1.8553577    6.8026925 
17680000   0.95250216 -2.0872519e-05   0.44757517  0.019602351            0   0.42797282    1.4108938     1.858469   0.78979604 
17685000   0.96227449 -0.00014814888    0.4419931 0.0078939273            0   0.43409917    1.4253691    1.8673622   -5.7178606 
17690000   0.97884497 -0.00012757258   0.38829521   0.04206009            0   0.34623512    1.4499141    1.8382093   -4.6935067 
17695000   0.94959348 2.516863e-05   0.43498589  0.012994227            0   0.42199166    1.4065853    1.8415712    3.1302051 
17700000   0.97217999 9.2325023e-05   0.45695236  0.019209049            0   0.43774331    1.4400416     1.896994    6.6240352 
17705000   0.98760614 6.6489838e-05    0.4367768  0.051553536            0   0.38522327    1.4628916    1.8996684    5.3039481 
17710000    1.0061398 -5.821302e-05   0.42300761  0.037036292            0   0.38597131    1.4903446    1.9133522   -1.0671544 
17715000   0.96008231 -0.00013080555   0.47993607  0.025981837            0   0.45395424    1.4221219     1.902058   -4.7951861 
17720000   0.98221914 -4.3990743e-05   0.47164395  0.013314595            0   0.45832935    1.4549121     1.926556     -0.32577 
17725000    1.0175633 -2.5298749e-05    0.4290764  0.008695081            0   0.42038132    1.5072656     1.936342   0.64104608 
17730000    1.0070277 -3.1626493e-05   0.44945633 0.0020082336            0    0.4474481    1.4916597     1.941116    0.3218396 
17735000   0.92204588 -7.8299675e-05   0.56513539  0.001736135            0   0.56339925    1.3657805    1.9309158   -2.0780275 
17740000   0.94919805 -0.00012300857   0.49985818 0.0041822455            0   0.49567593    1.4059996    1.9058578   -4.3921811 
17745000   0.95416978 -9.0232908e-05   0.48425834  0.013051466            0   0.47120687     1.413364    1.8976223   -2.7223026 
17750000   0.94123828 -3.7087573e-05   0.48756188  0.045315556            0   0.44224633    1.3942092    1.8817711 -0.017112666 
17755000   0.94417716 9.1705817e-05   0.46276462  0.020313493            0   0.44245113    1.3985624     1.861327    6.5566648 
17760000   0.97576591 8.6957049e-05   0.43007608  0.026874244            0   0.40320183    1.4453533    1.8754293    6.3276302 
17765000   0.89640082 5.9487239e-05    0.5806134   0.01774295            0   0.56287045    1.3277937    1.9084071    4.9541538 
17770000   0.98918733 0.00012681548   0.42686256 0.0055140595            0    0.4213485    1.4652337    1.8920963     8.385049 
17775000   0.99629283 0.00012000996    0.4300804  0.014737729            0   0.41534267    1.4757588    1.9058392    8.0503492 
17780000   0.91094108 8.6529503e-05   0.53759709   0.03747655            0   0.50012054    1.3493315    1.8869286    6.3172391 
17785000   0.96940767 8.1078455e-05   0.46497429  0.016986001            0   0.44798829    1.4359351    1.9009094    6.0521263 
17790000   0.94857874 -2.0307318e-05   0.49308508  0.063385199            0   0.42969988    1.4050823    1.8981673   0.85843268 
17795000   0.99952411 -3.0853641e-05   0.40641529  0.012283421            0   0.39413187    1.4805451    1.8869604   0.30725394 
17800000   0.95101015 -8.7533844e-06   0.47089479 0.0070002267            0   0.46389456    1.4086838    1.8795786    1.4314053 
17805000   0.95150541 -7.8252716e-05   0.46242524 0.0097514484            0   0.45267379    1.4094174    1.8718426   -2.1346964 
17810000   0.90561864 -1.3968607e-05   0.50655397   0.01033358            0   0.49622039    1.3414476    1.8480016    1.1328089 
17815000   0.93645423 0.00012512685   0.43953842 0.0096538106            0   0.42988461    1.3871228    1.8266612    8.2331557 
17820000   0.95501039 2.5831877e-05   0.39719976 0.0053724231            0   0.39182734    1.4146091    1.8118089     3.134401 
17825000   0.88490514 4.4154687e-05   0.48324182 0.0077943047            0   0.47544751    1.3107657    1.7940076    4.0547275 
17830000   0.91230898 0.00013619255   0.42932916 0.0039324897            0   0.42539667    1.3513577    1.7806868    8.7537456 
17835000   0.93455004 2.5001546e-05   0.39936984 0.00038465227            0   0.39898519    1.3843022    1.7836721    3.0637512 
17840000   0.91358353 3.1264641e-05   0.43256678 0.0040553113            0   0.42851147    1.3532456    1.7858124     3.386562 
17845000   0.95096214 9.6722948e-05   0.38195697  0.018050599            0   0.36390637    1.4086127    1.7905696    6.7427846 
17850000   0.90373502 1.0967966e-05    0.4140138  0.015164739            0   0.39884906    1.3386575    1.7526713    2.3142312 
17855000   0.81135928 -7.910282e-05    0.5218943  0.011336879            0   0.51055742    1.2018259    1.7237202   -2.3263441 
17860000   0.91797764 -0.00010778578   0.39669843   0.01424988            0   0.38244855    1.3597544    1.7564528   -3.7621792 
17865000   0.93530407 1.914188e-06     0.380732 0.0062890417            0   0.37444295    1.3854192    1.7661511    1.8641576 
17870000   0.86625495 8.2598524e-05    0.4786095 0.0011465494            0   0.47746295    1.2831402    1.7617497    5.9907941 
17875000   0.93165765 2.443884e-05   0.39208347 0.0098694382            0   0.38221403    1.3800179    1.7721014      3.02337 
17880000   0.98485019 1.2823187e-05    0.3379444  0.016006969            0   0.32193743    1.4588093    1.7967537    2.4533009 
17885000   0.81975113 -5.1004988e-05   0.57414874  0.011532316            0   0.56261642    1.2142564    1.7884051  -0.82305027 
17890000   0.89486318 -9.9865676e-05   0.46788895  0.029796849            0    0.4380921    1.3255161     1.793405   -3.3197176 
17895000   0.96254602 -0.00012902916   0.38829093  0.032189556            0   0.35610137    1.4257713    1.8140622    -4.792231 
17900000   0.91866614 -9.7815734e-05   0.47512402  0.011271962            0   0.46385206    1.3607742    1.8358982   -3.1722673 
17905000   0.89236457 -6.6389746e-05   0.52395272   0.01497803            0   0.50897469     1.321815    1.8457677   -1.5533873 
17910000   0.99419902 -2.0028535e-05   0.36778427 0.0057752667            0     0.362009    1.4726573    1.8404416   0.81498059 
17915000   0.86567844 7.7057841e-05    0.5676878 0.0019006189            0   0.56578719    1.2822862     1.849974    5.7953355 
17920000    0.9641795 -2.7603798e-05   0.43312281 0.0033828214            0   0.42973999    1.4281909    1.8613137   0.44799924 
17925000    1.0027699 -0.00012587908    0.4080158  0.028562243            0   0.37945355    1.4853529    1.8933687   -4.5516402 
17930000   0.96592107 -2.2379346e-05   0.47385528  0.028978498            0   0.44487679    1.4307706    1.9046259   0.75880336 
17935000   0.99568769 -1.0879754e-05   0.45789893  0.022907831            0    0.4349911    1.4748624    1.9327613    1.3757179 
17940000   0.91096822 -3.6392254e-05   0.59833332  0.083304348            0   0.51502897    1.3493717     1.947705  0.084421596 
17945000   0.99354108 -3.0320126e-05   0.51252702  0.019411972            0   0.49311505    1.4716827    1.9842097   0.43181928 
17950000    1.0756286 5.6991871e-05   0.38647401 0.0026141228            0   0.38385989    1.5932749    1.9797489    4.8977327 
17955000    1.0600256 3.8139592e-05   0.42429914 0.0061983389            0    0.4181008     1.570163    1.9944621    3.9472092 
17960000    1.0185559 -8.0929892e-05   0.51049189  0.013106717            0   0.49738517     1.508736    2.0192279   -2.1243826 
17965000    1.1127686 2.2859061e-05   0.35498076 0.0071958105            0   0.34778495    1.6482886    2.0032693    3.1736533 
17970000    1.0555929 -1.1166699e-05   0.43780339 0.0031289144            0   0.43467447    1.5635969    2.0014003    1.4296654 
17975000    1.0340464 -6.2984183e-05   0.43076576  0.036609137            0   0.39415662    1.5316813    1.9624471   -1.2623431 
17980000    1.0180464 -2.0486167e-05   0.43786577  0.054593738            0   0.38327203    1.5079813    1.9458471   0.89695531 
17985000   0.96177967 8.0057348e-05   0.56642244  0.013897889            0   0.55252455    1.4246361    1.9910586    6.0899948 
17990000    1.0686035 -9.9688107e-06   0.39007444  0.020528097            0   0.36954635     1.582869    1.9729434    1.4625403 
17995000    1.0090992 5.3986124e-05   0.47068279  0.017829789            0     0.452853    1.4947281    1.9654109    4.7295005 
18000000    1.0491357 0.0001065628   0.40626126 0.0063468225            0   0.39991444    1.5540323    1.9602936    7.4163091 
18005000    1.0103218 -9.7046778e-05   0.49304121 0.0046922689            0   0.48834894    1.4965392    1.9895804   -2.9792146 
18010000    1.0186783 -7.4013449e-05   0.49898714 0.0097988899            0   0.48918825    1.5089172    2.0079043   -1.7815842 
18015000    1.0654554 -1.9614887e-05   0.44898288 0.0098181142            0   0.43916477    1.5782059    2.0271888    1.0229065 
18020000    1.0023009 -1.3581373e-05   0.53721639  0.039133827            0   0.49808256    1.4846582    2.0218746    1.3265083 
18025000    1.0464036 6.4932965e-05   0.43205345  0.022503557            0    0.4095499    1.5499854    1.9820389    5.3066067 
18030000   0.95393753 8.3776687e-05   0.55104242  0.015586132            0   0.53545628      1.41302    1.9640624    6.2534288 
18035000    1.0207539 -2.501126e-05   0.43885666 0.0030723851            0   0.43578427    1.5119918    1.9508484   0.67027193 
18040000   0.98244316 -9.6777977e-05   0.45812063 0.0039078684            0   0.45421276    1.4552439    1.9133646   -3.0416679 
18045000   0.97944918 -0.00010446296   0.47649764 0.0046236745            0   0.47187396    1.4508091    1.9273067    -3.421197 
18050000    1.0161486 -3.1836019e-05   0.41705838 0.0043467615            0   0.41271162    1.5051701    1.9222284   0.29222429 
18055000   0.99008299 8.2587125e-06   0.49426385  0.018242093            0   0.47602175    1.4665604    1.9608243    2.3836704 
18060000   0.97973523 -5.1279728e-05   0.47532991  0.020881287            0   0.45444862    1.4512328    1.9265627  -0.69895936 
18065000    1.0528816 -4.7242217e-05   0.36615131  0.004094669            0   0.36205664    1.5595809    1.9257322  -0.49306926 
18070000   0.99229575 -0.00010573305   0.49729721  0.011655334            0   0.48564188    1.4698381    1.9671353    -3.446397 
18075000    1.0201098 -0.0001681699   0.48841363  0.016922147            0   0.47149148    1.5110376    1.9994513   -6.6108479 
18080000    1.0616395 -0.00011179821   0.43174639  0.031559267            0   0.40018712    1.5725535    2.0042999   -3.7197684 
18085000    1.0882277 -3.9273157e-06   0.38966679  0.017068605            0   0.37259818    1.6119372     2.001604    1.8005254 
18090000     1.030778 0.00010300473   0.47115787  0.025935495            0   0.44522237    1.5268399    1.9979978      7.27184 
18095000    1.0481152 0.00016060784   0.42150725 0.0084690194            0   0.41303823    1.5525207    1.9740279     10.19715 
18100000    1.0593726 9.8944428e-05   0.38216092 2.7770856e-06            0   0.38215814    1.5691957    1.9513566    7.0173114 
18105000    1.0326044 -0.00011888853   0.42051616 0.00073663805            0   0.41977952    1.5295453    1.9500615   -4.1370312 
18110000    1.0218364 -0.00013587494   0.45119054 0.0055970445            0   0.44559349    1.5135952    1.9647857   -4.9920111 
18115000   0.94581129 0.0001023808   0.54485159  0.078109141            0   0.46674245     1.400983    1.9458346    7.1877316 
18120000    1.0192496 5.613963e-05   0.44509888 0.0098775445            0   0.43522133    1.5097634    1.9548623    4.8292114 
18125000    1.0188785 -4.5185638e-05   0.42187172  0.010581124            0    0.4112906    1.5092137    1.9310855   -0.3824192 
18130000   0.97351131 -0.000103183   0.48845221  0.012857063            0   0.47559515    1.4420136    1.9304658   -3.3525037 
18135000    1.0734482 -7.6040856e-05   0.31656352   0.03628722            0    0.2802763    1.5900452    1.9066087   -1.9866832 
18140000    0.9752907 1.6084999e-05   0.46409183  0.078177647            0   0.38591418    1.4446493    1.9087412    2.7322931 
18145000   0.96803492 0.00015209129   0.48176068   0.02678835            0   0.45497233    1.4339017    1.9156624    9.7027364 
18150000   0.99689592 2.8869759e-05   0.45236992  0.078138976            0   0.37423095    1.4766521     1.929022    3.4071537 
18155000    1.0286428 -0.00012837369   0.40963659  0.020673082            0   0.38896351    1.5236771    1.9333137   -4.6394194 
18160000    1.0366955 5.0555635e-05   0.40450011  0.018089067            0   0.38641105    1.5356052    1.9401053    4.5285538 
18165000    1.0451336 6.7726972e-06   0.40320632  0.008058171            0   0.39514815    1.5481041    1.9513104    2.2980725 
18170000    1.0130015 -5.8908333e-05   0.45643889 7.2708195e-05            0   0.45636618    1.5005084    1.9569473   -1.0591593 
18175000    0.9972744 1.3445336e-05   0.45833373 2.3948556e-05            0   0.45830978    1.4772127    1.9355464    2.6239476 
18180000    1.0741232 -3.5706163e-06   0.40051941 0.0073576273            0   0.39316179    1.5910449    1.9915644    1.8087488 
18185000    1.0246548 -7.7128936e-05   0.47679486  0.013725448            0   0.46306941      1.51777    1.9945648   -1.9544367 
18190000    1.0870028 -4.9908184e-05   0.42724631  0.006332722            0   0.42091359    1.6101229    2.0373692   -0.5179298 
18195000    1.1108263 7.7501084e-05   0.40661289  0.020296471            0   0.38631642    1.6454115    2.0520244    6.0200799 
18200000     1.044992 0.00010437655   0.50566845  0.071016156            0   0.43465229    1.5478944    2.0535629    7.3976423 
18205000    1.0725427 5.4142332e-05   0.48086199  0.036540051            0   0.44432194    1.5887038    2.0695658    4.8416532 
18210000    1.0686265 -7.2063878e-05   0.48676416  0.055982581            0   0.43078158     1.582903    2.0696672   -1.6200034 
18215000    1.0460304 -8.9499102e-05   0.51227926  0.006771813            0   0.50550745    1.5494326    2.0617118   -2.5206422 
18220000    1.0799098 0.00013184934   0.43989747  0.016120344            0   0.42377713    1.5996164    2.0395139    8.7902001 
18225000    1.1095657 4.8191976e-05   0.39890224   0.01190665            0   0.38699559    1.6435442    2.0424465    4.5098756 
18230000    1.0425251 -2.0189269e-05   0.47564644  0.011565803            0   0.46408064    1.5442403    2.0198868   0.98619618 
18235000    1.0299644 9.2824297e-05   0.49405452  0.056569016            0    0.4374855    1.5256348    2.0196893    6.7722933 
18240000   0.99373246 4.0456128e-05   0.52006175  0.054026367            0   0.46603538    1.4719662     1.992028    4.0633817 
18245000    1.0070954 -6.4920449e-05   0.49092783  0.030046102            0   0.46088173    1.4917601    1.9826879   -1.3412391 
18250000   0.96026694 -2.0558477e-05   0.52565849  0.093521244            0   0.43213725    1.4223954    1.9480539   0.89545988 
18255000   0.96751643 2.5603964e-05   0.50740515  0.044432734            0   0.46297242    1.4331337    1.9405389    3.2514618 
18260000    0.9779557 -6.5093826e-05   0.48308945  0.019717144            0   0.46337231    1.4485969    1.9316863   -1.4011175 
18265000   0.94979605 7.8269207e-05   0.53789356   0.04690651            0   0.49098705    1.4068854    1.9447789    5.9521624 
18270000    1.0701266 8.6642277e-05   0.37301273  0.016550121            0    0.3564626    1.5851251    1.9581378    6.3942224 
18275000    1.0079074 -2.5776268e-05   0.42482333  0.017615212            0   0.40720812    1.4929629    1.9177862   0.59804132 
18280000   0.94949182 1.1439237e-05   0.50173225  0.027921346            0   0.47381091    1.4064348     1.908167     2.493856 
18285000   0.89761186 6.0665148e-05   0.58864009   0.10954826            0   0.47909183    1.3295876    1.9182277    5.0242833 
18290000   0.97802342 6.8986924e-05   0.46030854  0.016675101            0   0.44363344    1.4486972    1.9090057    5.4411363 
18295000    0.9011867 -0.000144473   0.57234512  0.020293914            0    0.5520512    1.3348828    1.9072279   -5.4897898 
18300000   0.93242983 -2.4943137e-05   0.49314057  0.035971682            0   0.45716889    1.3811617    1.8743023   0.59721362 
18305000    1.0293383 -2.4405628e-05   0.36956369  0.015425589            0    0.3541381    1.5247074    1.8942711   0.64470298 
18310000   0.98666523 -0.00010442781   0.44096762  0.012563569            0   0.42840405    1.4614979    1.9024655   -3.4442384 
18315000    1.0038255 -2.4163854e-05   0.42097827  0.017600201            0   0.40337807    1.4869165    1.9078948   0.67070546 
18320000    1.0895303 2.1704356e-06    0.3022307   0.02945752            0   0.27277318    1.6138668    1.9160975    2.0272238 
18325000   0.92930617 1.5220133e-06   0.53763763  0.026453271            0   0.51118435    1.3765348    1.9141724    1.9920995 
18330000    1.0242458 -3.8144842e-06   0.38859702  0.026600637            0   0.36199639    1.5171641    1.9057612    1.7104596 
18335000      1.00331 -9.7385173e-06   0.44007014   0.01926824            0    0.4208019    1.4861529     1.926223     1.427611 
18340000    1.0349232 -2.4458757e-05   0.36830722  0.012817584            0   0.35548964      1.53298    1.9012872   0.64899885 
18345000   0.97557146 -5.4011484e-05    0.4479036  0.022607933            0   0.42529567    1.4450652    1.8929688  -0.87241914 
18350000   0.99689195 -3.3630684e-05   0.40709854  0.020170204            0   0.38692834    1.4766462    1.8837447   0.16185375 
18355000   0.99148423 1.9955445e-05   0.41294579 0.0056937302            0   0.40725206     1.468636    1.8815818    2.9033006 
18360000   0.95940109 7.6952906e-05   0.42814683 0.0094721538            0   0.41867468    1.4211129    1.8492597    5.7892485 
18365000   0.95061783 2.8898278e-05    0.4264421 0.0018125164            0   0.42462958    1.4081027    1.8345448    3.3141366 
18370000   0.97339885 7.9240771e-05   0.38845135  0.051736248            0    0.3367151     1.441847    1.8302984    5.8874259 
18375000   0.97500761 8.513067e-05   0.40820893   0.06346751            0   0.34474142      1.44423    1.8524389    6.2111292 
18380000   0.92000448 -5.7214407e-05   0.49923446  0.040285733            0   0.45894872    1.3627566    1.8619911   -1.0673865 
18385000   0.96077491 3.2506042e-05   0.46024166  0.037785462            0    0.4224562    1.4231478    1.8833895    3.5476988 
18390000   0.99836771 -5.5576529e-05   0.39923967  0.022509578            0    0.3767301    1.4788322    1.8780718  -0.96744645 
18395000   0.92216093 -0.00012537258   0.53608134  0.045875603            0   0.49020574    1.3659509    1.9020322   -4.5170441 
18400000   0.96669658 -4.5312804e-05   0.42729837   0.01138803            0   0.41591034    1.4319193    1.8592177  -0.46079786 
18405000   0.94184272 -2.4217529e-05   0.45422628  0.027603609            0   0.42662268    1.3951045    1.8493308   0.60939335 
18410000   0.87134499 -7.9846068e-05   0.56022317  0.012544234            0   0.54767893    1.2906798    1.8509029   -2.2372157 
18415000    0.9830608 -6.7745923e-05    0.3811125 0.0044761825            0   0.37663632    1.4561588    1.8372713   -1.6313199 
18420000   0.99982076 -6.5284497e-06   0.38656526 0.0030421746            0   0.38352308    1.4809845    1.8675498    1.5332931 
18425000   0.95671871 1.3725088e-06   0.45033079  0.020512027            0   0.42981876    1.4171396    1.8674704    1.9377428 
18430000   0.96739188 0.00011331242   0.42723523  0.051555557            0   0.37567967    1.4329492    1.8601845    7.6617803 
18435000   0.93768075 1.2895431e-05   0.47106798  0.040424335            0   0.43064365    1.3889396    1.8600076    2.5202537 
18440000   0.93458736 -7.5769496e-05   0.46634813  0.075551893            0   0.39079624    1.3843575    1.8507057   -2.0286925 
18445000   0.95845908 1.6098354e-06   0.41626324 0.0083199045            0   0.40794334    1.4197175    1.8359808    1.9184043 
18450000   0.99425774 6.1698368e-05   0.36368343 0.0036916342            0   0.35999179    1.4727443    1.8364277    4.9953841 
18455000   0.97381496 -3.0278249e-05   0.40246702  0.024661431            0   0.37780559    1.4424634    1.8449304   0.29468406 
18460000   0.99705876 -3.9294535e-05   0.37662125  0.019959548            0    0.3566617    1.4768933    1.8535145  -0.15836563 
18465000   0.97266084 4.346207e-05   0.38531438  0.014646761            0   0.37066762    1.4407539    1.8260682    4.0513262 
18470000   0.95816875 -3.6202717e-05   0.42650939   0.01455944            0   0.41194995    1.4192875    1.8457969 -0.007782267 
18475000   0.96655133 -2.2100168e-05   0.43493129  0.006841816            0   0.42808947    1.4317042    1.8666354   0.73510687 
18480000   0.91750035 8.3550724e-05   0.50006512 0.0088576944            0   0.49120742    1.3590474    1.8591125    6.1369096 
18485000   0.97408695 -4.8613329e-05   0.42785803  0.010869376            0   0.41698866    1.4428663    1.8707243  -0.61827813 
18490000   0.90901528 -0.00014916067   0.51694279  0.019396048            0   0.49754674    1.3464789    1.8634217   -5.7736047 
18495000   0.97309875 -3.170689e-05   0.43137257  0.024156403            0   0.40721617    1.4414025    1.8727751   0.24938232 
18500000    1.0145256 6.054562e-06   0.36736994  0.012474503            0   0.35489544    1.5027661    1.8701361    2.1801296 
18505000    0.9552518 8.4815623e-05   0.48274578 0.0035995828            0    0.4791462    1.4149667    1.8977125    6.2402724 
18510000   0.91165547 0.00015649501   0.52645028 0.0010501511            0   0.52540013    1.3503897      1.87684    9.8893845 
18515000    1.0053322 4.9843365e-05   0.36320413  0.002420028            0    0.3607841    1.4891484    1.8523525    4.4043328 
18520000   0.93057229 -2.2799154e-05   0.49916234 0.0051722216            0   0.49399012    1.3784102    1.8775726   0.71025585 
18525000   0.96495232 7.5859267e-06   0.47870646  0.018311613            0   0.46039485    1.4293356    1.9080421    2.2964415 
18530000   0.98883052 -1.5536524e-05   0.40967378  0.023336329            0   0.38633745    1.4647052     1.874379    1.0789089 
18535000   0.94573164 -1.4626549e-05   0.47850796  0.014242006            0   0.46426595     1.400865     1.879373    1.1304937 
18540000   0.91615651 1.5748016e-05   0.50390784  0.022230129            0   0.48167772    1.3570568    1.8609647    2.6672631 
18545000   0.92960551 -1.4598308e-05   0.47777868 0.0069180956            0   0.47086058    1.3769782    1.8547568    1.1073235 
18550000   0.96707889 -5.0731398e-05    0.4200524 0.0046157351            0   0.41543667    1.4324856     1.852538  -0.74490956 
18555000   0.95057902 -2.1607696e-05   0.42962228  0.022158377            0    0.4074639    1.4080452    1.8376675   0.73135341 
18560000   0.92985666 4.9092328e-05   0.44570384  0.023193342            0    0.4225105    1.3773502     1.823054    4.3365812 
18565000   0.95923101 1.5588295e-06   0.41419917 0.0095581343            0   0.40464103    1.4208609    1.8350601    1.9148722 
18570000   0.95262934 -9.2776118e-05   0.45856682  0.007506926            0    0.4510599    1.4110822     1.869649   -2.8804882 
18575000    1.0065485 -3.1239868e-06   0.36026301 0.0083577901            0   0.35190522      1.49095     1.851213    1.6912649 
18580000   0.91374166 0.00016330027   0.52701263  0.010358744            0   0.51665389    1.3534798    1.8804925    10.241466 
18585000    0.9573328 3.9744541e-05   0.47127514  0.030821424            0   0.44045371    1.4180492    1.8893243    3.9242449 
18590000   0.95222636 -5.0005607e-05   0.48712754 0.0089888044            0   0.47813874    1.4104853    1.8976128  -0.66267425 
18595000    1.0309753 0.00011025985    0.4226868  0.016946554            0   0.40574024    1.5271321    1.9498189     7.595123 
18600000    1.0079283 8.6469007e-05   0.43674503  0.029640806            0   0.40710422    1.4929938    1.9297388     6.356952 
18605000   0.96797446 -7.8583402e-05   0.51698156  0.031689818            0   0.48529174    1.4338122    1.9507937   -2.0726764 
18610000   0.95938893 3.0990353e-05    0.5313992  0.023504673            0   0.50789452    1.4210949     1.952494    3.5392001 
18615000    0.9754029 8.0453223e-05   0.52163566  0.053365706            0   0.46826996    1.4448155    1.9664512    6.0856562 
18620000   0.97397759 -3.3451028e-05   0.52451047  0.055396893            0   0.46911358    1.4427043    1.9672148   0.25452217 
18625000    1.0090385 -1.6704324e-05   0.46319112  0.015355613            0    0.4478355    1.4946383    1.9578295    1.1025681 
18630000    1.0204328 7.5581022e-06   0.45952906 0.0059117658            0    0.4536173    1.5115161    1.9710451      2.35802 
18635000   0.98821601 3.9319138e-05    0.5124582  0.022158518            0   0.49029968     1.463795    1.9762532     3.989393 
18640000    1.0062953 6.1710813e-05   0.51484356  0.066588091            0   0.44825547     1.490575    2.0054185    5.1650122 
18645000    1.0427877 4.8825299e-05   0.49866037  0.022982779            0    0.4756776    1.5446292    2.0432896    4.5431449 
18650000   0.99934551 -5.6203033e-05   0.56872217 0.0040056679            0   0.56471651    1.4802805    2.0490027  -0.82859256 
18655000    0.9918615 -0.00013574834   0.59739039 0.0075218471            0   0.58986854    1.4691948    2.0665852   -4.8837295 
18660000    1.1044129 -1.6042147e-05   0.44432735 0.0061848591            0   0.43814249    1.6359116    2.0802389     1.258881 
18665000     1.076876 -5.8680889e-05   0.50752337 0.0059377622            0   0.50158561    1.5951226     2.102646  -0.90181552 
18670000    1.0472663 -4.3412984e-05   0.54628854  0.021930231            0   0.52435831    1.5512632    2.0975517  -0.12519308 
18675000    1.0610988 -8.6298104e-06   0.52978621  0.069481862            0   0.46030435    1.5717526    2.1015388    1.6596925 
18680000   0.99437269 1.8269419e-05   0.62765175  0.050800868            0   0.57685088    1.4729145    2.1005663    3.0359606 
18685000    1.1253384 3.0116717e-06     0.437294  0.036378272            0   0.40091572    1.6669075    2.1042014     2.258399 
18690000    1.0182684 7.675362e-05   0.62090977  0.016367708            0   0.60454207      1.50831    2.1292198    6.0590051 
18695000    1.0412758 0.00010430226   0.54738353  0.012500642            0   0.53488289    1.5423898    2.0897734    7.4300489 
18700000    1.0450738 1.5443233e-05   0.55783414  0.040561586            0   0.51727255    1.5480156    2.1058497    2.8965432 
18705000    1.0684475 -3.6425618e-05   0.52622221  0.030826783            0   0.49539542    1.5826379    2.1088601   0.24386845 
18710000    1.0570818 -3.097931e-05   0.50550496 0.0094166007            0   0.49608836    1.5658024    2.0713074   0.48516672 
18715000    1.0685503 4.8363339e-05   0.44177097  0.028091806            0   0.41367917    1.5827901    2.0245611     4.500764 
18720000    1.0320078 0.00010640127   0.51033378  0.045439643            0   0.46489414    1.5286615    2.0389953    7.4867404 
18725000    1.0890255 -5.0187492e-06   0.45215733  0.019049114            0   0.43310821    1.6131191    2.0652764    1.8083164 
18730000    1.0246031 -0.00013661447   0.52794006  0.026738574            0   0.50120149    1.5176933    2.0456334   -4.9490272 
18735000    1.0348417 -6.4103266e-05   0.51340882  0.041859639            0   0.47154918    1.5328593    2.0462681   -1.2358191 
18740000    1.0839064 2.4107622e-05   0.43303478 0.0043026521            0   0.42873213    1.6055363    2.0385711    3.2728813 
18745000   0.99387501 4.7999447e-05   0.56183386  0.023732721            0   0.53810114    1.4721774    2.0340112    4.4915829 
18750000   0.96589663 4.0797313e-05   0.58882618  0.026482507            0   0.56234367    1.4307344    2.0195606     4.108383 
18755000   0.89800318 4.7643618e-05   0.68883195  0.040268025            0   0.64856392    1.3301672    2.0189992    4.4583524 
18760000   0.96182179 4.317236e-05   0.57365565  0.047916897            0   0.52573875    1.4246985    1.9983542     4.208779 
18765000    1.0306425 4.000577e-05    0.4710552  0.024496637            0   0.44655856    1.5266391    1.9976943    4.0459898 
18770000    1.0442964 -2.0363124e-07   0.44889416  0.019875032            0   0.42901913    1.5468641    1.9957583    1.9853323 
18775000   0.95072941 -4.911277e-05   0.55704912  0.023385901            0   0.53366322    1.4082679    1.9653171  -0.54925677 
18780000   0.99676535 -4.6017559e-05   0.53479067 0.0076420458            0   0.52714862    1.4764587    2.0112493  -0.34484969 
18785000    1.0552116 -9.2341303e-06   0.48537247 0.0092974055            0   0.47607506    1.5630322    2.0484047    1.5756172 
18790000    0.9871789 6.4935789e-05   0.57958113  0.067519499            0   0.51206163    1.4622587    2.0418399    5.3665522 
18795000     1.042307 5.4478793e-05   0.53130126  0.044145856            0    0.4871554    1.5439172    2.0752185    4.8645327 
18800000    1.0925101 5.3738624e-06   0.47857938  0.012862979            0    0.4657164    1.6182806      2.09686    2.3720018 
18805000    1.0831964 -3.3195565e-05   0.51642308  0.023301356            0   0.49312172    1.6044847    2.1209077    0.4212948 
18810000    1.0089366 -7.5115806e-05   0.58775069   0.01559318            0   0.57215751    1.4944874    2.0822381   -1.7636912 
18815000    1.0416286 -6.265332e-05   0.56383775  0.013054038            0   0.55078371    1.5429124    2.1067501   -1.1010999 
18820000    1.1034403 -5.1123361e-05   0.47974877  0.011551492            0   0.46819728     1.634471    2.1142198  -0.50329632 
18825000    1.0882872 7.1793265e-05   0.52419776 0.0060900206            0   0.51810774    1.6120255    2.1362232    5.8120384 
18830000    1.1867882 0.00021279747   0.38519005  0.013555151            0    0.3716349      1.75793    2.1431201     13.03835 
18835000    1.0629002 0.00019860572   0.57178112  0.037527619            0    0.5342535    1.5744209    2.1462021    12.314815 
18840000    1.0656831 0.00010039152   0.55536241  0.055770563            0   0.49959185     1.578543    2.1339054    7.2739513 
18845000    1.0554846 -3.2257156e-05   0.52881534  0.027195069            0   0.50162027    1.5634365    2.0922519   0.44068548 
18850000    1.0154947 -7.4928799e-05    0.5563176  0.032898004            0    0.5234196    1.5042016    2.0605192   -1.7758354 
18855000    1.0544017 -2.0160813e-05   0.51397464  0.014727507            0   0.49924713    1.5618325    2.0758071    1.0435735 
18860000    1.0586051 -0.00010193684   0.53364864 0.0028733981            0   0.53077524    1.5680588    2.1017074   -3.1174589 
18865000    1.0281915 -0.00021549589   0.58076689  0.018097099            0   0.56266979    1.5230087    2.1037756   -8.9296141 
18870000    1.1095824 -7.3466148e-05   0.48121192  0.038972635            0   0.44223929     1.643569    2.1247809   -1.6366859 
18875000    1.0164288 7.594323e-05   0.59860729  0.046835903            0   0.55177139    1.5055852    2.1041925    5.9924859 
18880000    1.0669197  0.000133073   0.52295108  0.037207413            0   0.48574367    1.5803748    2.1033258    8.9166636 
18885000    1.1127491 8.5237287e-05   0.45644721   0.01690701            0    0.4395402    1.6482596    2.1047069     6.468856 
18890000    1.0755379 -7.1625459e-05   0.48899053  0.018731902            0   0.47025863    1.5931405     2.082131   -1.5850925 
18895000   0.97404918 -9.4593294e-05   0.62060661  0.034247144            0   0.58635947    1.4428104     2.063417   -2.7797597 
18900000    1.0070895 -2.3988268e-05   0.54951638  0.039723143            0   0.50979324    1.4917513    2.0412677    0.8130684 
18905000    1.0628204 -4.7770227e-06   0.44392287  0.058536378            0   0.38538649    1.5743027    2.0182256     1.773642 
18910000    1.0191184 -5.524808e-05   0.49692666  0.026743843            0   0.47018281    1.5095691    2.0064958  -0.82220595 
18915000   0.99641988 -1.8729277e-05   0.54831772  0.018047821            0   0.53026989     1.475947    2.0242647    1.0653257 
18920000    1.0388452 9.905932e-05   0.47888024  0.036168256            0   0.44271198    1.5387894    2.0176697    7.0895069 
18925000    1.0289405 9.7465988e-05   0.48039271  0.030271536            0   0.45012118    1.5241182    2.0045109    6.9947695 
18930000   0.94171741 -9.3960811e-05   0.57492944 0.0094719411            0    0.5654575    1.3949189    1.9698484   -2.8409452 
18935000   0.87814773 -0.00015263726   0.63292701  0.017545775            0   0.61538123    1.3007563    1.9336833   -5.8813445 
18940000   0.93454491 -5.960454e-05   0.56542245  0.034861032            0   0.53056142    1.3842946    1.9497171   -1.1020353 
18945000   0.95648941 6.3947484e-05   0.49937608  0.086868557            0   0.41250752    1.4167999     1.916176    5.1902872 
18950000    0.9206152 2.842958e-05   0.53762531  0.034800799            0   0.50282451    1.3636613    1.9012866    3.3568811 
18955000   0.95428467 -1.0483134e-05   0.47686492  0.018597575            0   0.45826735    1.4135342    1.8903991    1.3536626 
18960000   0.96048309 2.374239e-05   0.48200724  0.010322314            0   0.47168492    1.4227156    1.9047228    3.1203332 
18965000   0.91821725 -3.9346165e-05   0.57663565  0.042414763            0   0.53422089    1.3601093    1.9367449 -0.077778689 
18970000   0.90226312 -6.9951693e-05   0.60390098  0.062453651            0   0.54144732    1.3364773    1.9403782   -1.6411484 
18975000   0.92373273 -2.757802e-05   0.56051384  0.043978691            0   0.51653514    1.3682791    1.9287929   0.51679829 
18980000   0.91858619 -3.9584589e-05   0.55865276  0.032660325            0   0.52599243    1.3606558    1.9193085  -0.10742243 
18985000   0.89903453 -8.1407401e-05   0.61588824  0.021677531            0   0.59421071    1.3316949    1.9475831   -2.2204758 
18990000     1.008033 5.7528379e-05   0.44499633  0.016748278            0   0.42824805    1.4931489    1.9381452    4.8835982 
18995000   0.91041697 1.6930828e-05   0.58268265 0.0050509726            0   0.57763168    1.3485551    1.9312378    2.7980962 
19000000   0.96340772 -3.2390729e-05   0.48028032 0.0041215997            0   0.47615872    1.4270477     1.907328   0.24892266 
19005000    0.9462293 -2.5675065e-05   0.47691205 0.0045370708            0   0.47237498    1.4016022    1.8785142   0.56395087 
19010000   0.88464705 -1.5303731e-05   0.60374077  0.031104991            0   0.57263578    1.3103834    1.9141242    1.1305732 
19015000   0.95944045 0.00014031265   0.51073699  0.029258668            0   0.48147832    1.4211712    1.9319082    9.1159158 
19020000    0.9441838 0.00011165145   0.55225567  0.048271829            0   0.50398384    1.3985723    1.9508279    7.6673824 
19025000    0.9397073 4.8927267e-05   0.57542741  0.046027141            0   0.52940027    1.3919414    1.9673688    4.4724449 
19030000    1.0416397 -4.204205e-05   0.43840558 0.0073288516            0   0.43107673    1.5429289    1.9813344  -0.17121855 
19035000   0.98631591 -5.8003919e-05   0.50051885 0.0065768798            0   0.49394197    1.4609804    1.9614993   -1.0083014 
19040000   0.93899258 2.6829558e-05   0.58860905  0.023656685            0   0.56495237    1.3908828    1.9794918    3.3531652 
19045000    1.0302382 6.6057335e-05   0.43958949  0.020371451            0   0.41921804    1.5260404    1.9656299    5.3477654 
19050000    1.0068309 -1.8091439e-05   0.47097325 0.0062959746            0   0.46467727    1.4913683    1.9623415    1.0360598 
19055000   0.96211986 -1.8746576e-05    0.5498603  0.006740555            0   0.54311975      1.42514    1.9750003    1.0151757 
19060000     1.015227 2.1202126e-05   0.47161334   0.01795096            0   0.45366238    1.5038049    1.9754183    3.0609671 
19065000    1.0138224 5.5077253e-05   0.50245635  0.014836336            0   0.48762001    1.5017245    2.0041808    4.8241362 
19070000   0.99081898 3.2873033e-05   0.51962581 0.0020723739            0   0.51755344    1.4676506    1.9872764    3.6703757 
19075000   0.99660249 -2.8836489e-05   0.51103059 0.00065623421            0   0.51037436    1.4762174     1.987248    0.5108198 
19080000   0.93309161 -2.1053889e-05   0.62425973 0.0022786266            0    0.6219811    1.3821419    2.0064017   0.92844256 
19085000   0.99575203 4.0125808e-05   0.52455636 0.0031632714            0   0.52139309    1.4749577    1.9995141    4.0539554 
19090000   0.94053283 9.3762329e-05   0.59548214 0.00026566405            0   0.59521648    1.3931643    1.9886464    6.7892776 
19095000   0.91092862 0.0001118919   0.63811691            0            0   0.63811691     1.349313    1.9874299    7.7162952 
19100000   0.93720266 2.1586466e-05   0.59561133            0            0   0.59561133    1.3882314    1.9838428    3.0890698 
19105000    1.0307099 -6.3489484e-05   0.44628114 0.0021866256            0   0.44409452     1.526739    1.9730202   -1.2776414 
19110000   0.92816497 -5.8357603e-05   0.59467371  0.013274936            0   0.58139877    1.3748444    1.9695181   -1.0183912 
19115000   0.97983892 2.8163476e-05   0.52489224  0.025764551            0   0.49912769    1.4513864    1.9762786    3.4182486 
19120000    1.0381215 0.00013615418   0.45483468  0.023402645            0   0.43143204    1.5377175    1.9925522    8.9636461 
19125000   0.95683943 0.00010752082   0.57875695  0.018931631            0   0.55982532    1.4173184    1.9960754    7.5011413 
19130000   0.95072408 7.7450725e-05   0.56319352  0.013873012            0    0.5493205      1.40826    1.9714536    5.9369307 
19135000    1.0793241 2.5379368e-05   0.36292573 0.0036735306            0    0.3592522    1.5987489    1.9616746    3.2610983 
19140000     0.860365 -8.9531452e-05   0.63795692  0.021780498            0   0.61617643    1.2744157    1.9123726   -2.6716378 
19145000   0.92212241 1.0245243e-05   0.55865371  0.053928126            0   0.50472559    1.3658938    1.9245475     2.449104 
19150000   0.91540471 -2.2003333e-05   0.56712377  0.048184022            0   0.51893975    1.3559432     1.923067   0.79649633 
19155000   0.94809118 -8.1778866e-05   0.53272947  0.019402916            0   0.51332655    1.4043601    1.9370895   -2.2499884 
19160000    1.0262397 5.3625962e-05   0.42237199 0.0080888348            0   0.41428315    1.5201176    1.9424896    4.6881389 
19165000    0.9171285 0.0001226852   0.59270709  0.028214667            0   0.56449242    1.3584966    1.9512037    8.2326859 
19170000   0.94701634 0.00010759152   0.51671865   0.02492522            0   0.49179343     1.402768    1.9194866    7.4281726 
19175000   0.98402382 4.8854577e-05    0.4476744  0.014566267            0   0.43310813    1.4575853    1.9052597     4.406614 
19180000   0.98651229 -3.6001755e-05    0.4585885 0.0065252913            0   0.45206321    1.4612713    1.9198598  0.076569981 
19185000   0.98531619 -4.0607728e-05    0.4563705  0.010315767            0   0.44605473    1.4594996    1.9158701  -0.16324557 
19190000   0.92719378 0.00010136241    0.5735955 0.0064697486            0   0.56712575    1.3734058    1.9470013    7.1367567 
19195000   0.98462303 0.00014198998   0.47924957  0.010628249            0   0.46862132    1.4584729    1.9377224    9.2076096 
19200000   0.94172178 -4.4097136e-05   0.54233768  0.017133208            0   0.52520447    1.3949254    1.9372631  -0.32051032 
19205000   0.96476215 -1.4071453e-05   0.50909456 0.0037162897            0   0.50537827    1.4290539    1.9381485    1.2176901 
19210000   0.91636877 5.0077342e-05   0.57342456  0.043524743            0   0.52989981    1.3573712    1.9307958    4.4947557 
19215000    1.0133669 -0.00014028676    0.4431662  0.049122117            0   0.39404408    1.5010498     1.944216   -5.2384662 
19220000   0.99710808 -8.496115e-05   0.50084655  0.029620027            0   0.47122652    1.4769663    1.9778129    -2.372198 
19225000    1.0307156 8.3495532e-05   0.45839921  0.031590233            0   0.42680897    1.5267475    1.9851467    6.2601179 
19230000   0.94716797 4.2312815e-05   0.55139227  0.017184185            0   0.53420809    1.4029926    1.9543848     4.120801 
19235000   0.99324812 2.3789587e-05    0.5259079  0.026067728            0   0.49984017    1.4712488    1.9971567    3.2151836 
19240000    1.0469503 -2.2013019e-05   0.44473541  0.012118044            0   0.43261737    1.5507952    1.9955306     0.868464 
19245000    1.0222334 -2.7948428e-05   0.50942232 0.0039095737            0   0.50551275    1.5141832    2.0236055     0.592646 
19250000    1.0135299 4.9454967e-05   0.48694494  0.002740461            0   0.48420448    1.5012912    1.9882361    4.5203304 
19255000   0.98392068 -2.8700126e-05    0.5392002 0.0049925732            0   0.53420762    1.4574325    1.9966327   0.52718628 
19260000   0.95443643 -1.77213e-05   0.59502038 0.0032151733            0   0.59180521     1.413759    2.0087793    1.1014488 
19265000    1.0666045 0.00010294155    0.4466308 0.0037645685            0   0.44286623    1.5799079    2.0265387     7.297146 
19270000    1.0051054 8.8402859e-05   0.52704322 0.0068887517            0   0.52015447    1.4888123    2.0158555    6.5420819 
19275000    1.0682384 -0.0001135399   0.44921302  0.012254703            0   0.43695832    1.5823281    2.0315411   -3.7817018 
19280000   0.94734366 -0.000113176   0.61257232  0.008727975            0   0.60384434    1.4032528    2.0158251    -3.778786 
19285000     1.011644 7.2793831e-05   0.51986268  0.020245078            0    0.4996176    1.4984977    2.0183604    5.7454046 
19290000    1.0341569 1.4486135e-05   0.47426575  0.041578473            0   0.43268728    1.5318449    2.0061107    2.7478008 
19295000   0.96647732 3.0604339e-05   0.57972216  0.023111488            0   0.55661067    1.4315945    2.0113167    3.5782589 
19300000    0.9378859 6.632002e-05   0.60236159  0.010285123            0   0.59207646    1.3892435    1.9916051    5.3871901 
19305000   0.95343943 9.7559281e-06   0.60682952  0.034983226            0   0.57184629    1.4122821    2.0191117    2.5186152 
19310000    1.0047196 -2.204892e-05   0.51049182  0.038977828            0   0.47151399    1.4882409    1.9987327     0.869828 
19315000    1.0971275 6.932026e-06   0.37770098  0.014819122            0   0.36288186      1.62512     2.002821    2.3577407 
19320000   0.90316955 8.4649407e-05   0.67109916   0.02075155            0   0.65034761    1.3378199    2.0089191    6.3429687 
19325000    1.0233672 5.8064391e-05   0.49021641  0.015782576            0   0.47443384    1.5158627    2.0060791    4.9789759 
19330000    1.0192237 -1.8239865e-05   0.53162683 0.0057777888            0   0.52584904    1.5097251     2.041352    1.1074709 
19335000    1.0974818 8.5079495e-05    0.4552467 0.0061424723            0   0.44910423    1.6256449    2.0808916    6.4369617 
19340000    1.0417297 0.00012276998   0.51787637  0.018211172            0    0.4996652    1.5430622    2.0609385    8.3467617 
19345000   0.99433822 -8.042873e-06    0.6363382  0.038109189            0   0.59822901    1.4728635    2.1092017    1.6974066 
19350000    1.0381927 -2.6224832e-05    0.5861533  0.039184704            0    0.5469686     1.537823    2.1239763    0.7812649 
19355000    1.0961046 0.00014039251   0.50380526  0.046170966            0   0.45763429     1.623605    2.1274102    9.3155068 
19360000    1.0861192 4.9785381e-05   0.50007524  0.019189805            0   0.48088543     1.608814    2.1088892    4.6579007 
19365000    1.0496968 -0.00010227771   0.55415704 0.0066262312            0   0.54753081    1.5548633    2.1090204   -3.1275985 
19370000    1.0927376 7.2134932e-06   0.50984356  0.018546883            0   0.49129668    1.6186175    2.1284611    2.4977919 
19375000   0.95532403 2.9924722e-05   0.71393359  0.031779543            0   0.68215405    1.4150737    2.1290073    3.6611531 
19380000   0.98027491 -5.488975e-05     0.637535  0.061603688            0   0.57593132    1.4520322    2.0895672  -0.72078799 
19385000    1.0100737 -7.0066876e-05     0.602176  0.023622222            0   0.57855377    1.4961716    2.0983476   -1.4890764 
19390000    1.0214464 -1.3169622e-05    0.5996758  0.017979406            0   0.58169639    1.5130175    2.1126933    1.4384086 
19395000     1.080617 8.5653195e-05    0.5247448  0.010219546            0   0.51452525     1.600664    2.1254088    6.5108524 
19400000    1.0371748 -1.2343607e-05   0.57008109  0.014488028            0   0.55559306    1.5363152    2.1063963    1.4744036 
19405000    1.0577266 -6.4503603e-05   0.54939015  0.030820485            0   0.51856967    1.5667575    2.1161477   -1.1864368 
19410000    1.0804196 5.6065201e-05   0.49592528  0.024649031            0   0.47127625    1.6003715    2.0962968     4.966835 
19415000    1.0358397 3.6374459e-05   0.55931346  0.032436293            0   0.52687716    1.5343376     2.093651    3.9560233 
19420000    1.0905203 -4.0643279e-05   0.46842258  0.027968324            0   0.44045425    1.6153332    2.0837558 0.0028199259 
19425000    1.0362872 -5.1831526e-05   0.52268523  0.018484791            0   0.50420044    1.5350005    2.0576857  -0.59608841 
19430000    1.0248151 1.4552173e-05    0.5441507  0.016183972            0   0.52796673    1.5180073     2.062158    2.8072293 
19435000    1.0440964  0.000117145      0.49688  0.010965051            0   0.48591495    1.5465678    2.0434478    8.0412719 
19440000    1.0738134 8.374704e-05   0.43918303 0.0035133337            0    0.4356697    1.5905861    2.0297691    6.3176176 
19445000    1.0145277 0.00010141377   0.54872667 0.00078774745            0   0.54793893    1.5027691    2.0514958    7.2438807 
19450000    1.0645009 5.5432896e-05    0.4894168            0            0    0.4894168    1.5767919    2.0662087     4.904373 
19455000   0.96360732 -3.2963007e-05   0.59778138            0            0   0.59778138    1.4273433    2.0251247   0.33741878 
19460000    1.0234785 -7.5830504e-05   0.49948808 0.00060384041            0   0.49888424    1.5160276    2.0155157   -1.8670061 
19465000    1.0234545 3.2068227e-05   0.50190555  0.020190994            0   0.48171455    1.5159919    2.0178975    3.6597907 
19470000   0.97302615 0.00010790396   0.59710082  0.026527279            0   0.57057354     1.441295    2.0383958    7.5630787 
19475000    1.0417277 9.6510832e-05   0.52522924   0.01485657            0   0.51037267    1.5430591    2.0682884     7.009643 
19480000   0.95558522 3.0648693e-05   0.62956638  0.015612427            0   0.61395395    1.4154606     2.045027    3.6142401 
19485000   0.99442155 2.0422082e-05   0.57705529  0.056611953            0   0.52044334    1.4729869    2.0500422    3.0956528 
19490000   0.98553297 -8.7836447e-05   0.57476498  0.062871331            0   0.51189365    1.4598207    2.0345857   -2.4626404 
19495000    1.0217152 -4.8719418e-05   0.49303187  0.055263848            0   0.43776802    1.5134156    2.0064475  -0.48798671 
19500000    1.0135139 5.6712639e-05   0.51355109  0.065352888            0    0.4481982    1.5012675    2.0148186    4.9185057 
19505000   0.94429449 -3.988356e-05   0.61627829  0.059858171            0   0.55642012    1.3987362    2.0150145 -0.027023771 
19510000   0.94708635 -3.1317015e-05   0.61041551  0.037796306            0    0.5726192    1.4028717    2.0132872   0.40985599 
19515000      1.00683 1.2575649e-05   0.49496058  0.011612779            0    0.4833478     1.491367    1.9863276    2.6302008 
19520000   0.95969623 1.7291066e-05   0.56910754 0.0071925837            0   0.56191496      1.42155    1.9906576    2.8759602 
19525000   0.99589529 8.7686109e-05   0.50577975  0.014207673            0   0.49157208    1.4751699    1.9809497    6.4704784 
19530000    0.9614959 4.1490909e-05   0.56486643  0.023749446            0   0.54111698    1.4242158    1.9890822    4.1134168 
19535000   0.96804205 -1.5422272e-05    0.5627243  0.082977655            0   0.47974664    1.4339123    1.9966366    1.2070163 
19540000   0.96438841 2.890762e-05   0.57286351   0.11662636            0   0.45623715    1.4285003    2.0013638     3.481434 
19545000    1.0297889 2.5188067e-05   0.50937386 0.0070197144            0   0.50235414    1.5253748    2.0347487    3.3243777 
19550000    1.0844835 -0.00013803229   0.44898001  0.018563505            0    0.4304165    1.6063912    2.0553712   -5.0118822 
19555000    1.0281701 -0.00018059718   0.54869947  0.032999666            0   0.51569981     1.522977    2.0716765   -7.1748989 
19560000    1.0628825 3.4083069e-05   0.47968827 0.0048479318            0   0.47484034    1.5743948     2.054083    3.7991362 
19565000    1.0237699 2.3364644e-05   0.52055928 0.0078130923            0   0.51274618    1.5164591    2.0370184    3.2332882 
19570000    1.0544235 -0.00012417423   0.48469399  0.031493247            0   0.45320074    1.5618649    2.0465588   -4.3111618 
19575000    1.0240408 -2.3292266e-05    0.4840597  0.023953761            0   0.46010594    1.5168604    2.0009201   0.80835605 
19580000    1.0595416 -3.4484229e-05   0.41550776 0.0011466444            0   0.41436111     1.569446    1.9849537   0.21936122 
19585000   0.94308886 -5.3655573e-05    0.5683195 0.0003482994            0    0.5679712    1.3969504    1.9652699  -0.78189545 
19590000    0.9961948 8.6239044e-05   0.48412425 0.0044866658            0   0.47963758    1.4756135    1.9597378    6.3751769 
19595000   0.95942044 8.1882967e-05   0.52188015  0.011835291            0   0.51004486    1.4211415    1.9430217    6.1354296 
19600000   0.97270102 -4.4718532e-05   0.50510035  0.023858016            0   0.48124233    1.4408134    1.9459137  -0.34367511 
19605000   0.99889231 1.1030135e-06    0.4911372  0.022797829            0   0.46833937    1.4796092    1.9707464    2.0272207 
19610000   0.93382648 3.8875142e-05   0.57337096 0.0020300737            0   0.57134088    1.3832305    1.9566014    3.9470087 
19615000   0.94753247 2.8297791e-05    0.5550428 0.00091125509            0   0.55413154    1.4035325    1.9585753    3.4074222 
19620000   0.97669146 1.3756954e-05   0.50390014  0.023170166            0   0.48072997    1.4467242    1.9506244    2.6549804 
19625000   0.88299017 -2.2589713e-05    0.6193824   0.10031407            0   0.51906833    1.3079292    1.9273116   0.77071828 
19630000   0.91228827 5.378851e-05   0.57114518  0.063334653            0   0.50781053     1.351327    1.9224722    4.6764439 
19635000   0.91874766 3.1933797e-05   0.54137577  0.059576946            0   0.48179882     1.360895    1.9022707    3.5372811 
19640000   0.94821574 4.4128005e-06   0.46920859  0.041216379            0   0.42799221    1.4045446    1.8737531    2.0996885 
19645000    0.9211461 -5.5690024e-05   0.50557685  0.018565482            0   0.48701137    1.3644477    1.8700245  -0.98130474 
19650000   0.84590602 -0.00012442098   0.61636022 0.0070117713            0   0.60934844    1.2529983    1.8693585   -4.5009957 
19655000    0.9418818 -4.4482265e-05   0.47820594 0.0085932863            0   0.46961265    1.3951624    1.8733683  -0.40412362 
19660000   0.91314719 2.468774e-05   0.51782492  0.011446031            0   0.50637889    1.3525993    1.8704242    3.1344365 
19665000   0.90993731 -1.0311277e-05   0.51990636 0.0046185074            0   0.51528785    1.3478446     1.867751    1.3398136 
19670000   0.95348883 7.0659947e-05   0.49179457 0.0043981655            0    0.4873964    1.4123553    1.9041499    5.5219392 
19675000   0.87179245 0.00012076783   0.60015707  0.016553471            0    0.5836036    1.2913426    1.8914996    8.0748126 
19680000   0.93525706 -1.8614798e-05   0.51543604  0.039615376            0   0.47582067    1.3853495    1.9007856   0.94770789 
19685000   0.91349625 -0.00014166292   0.53935913   0.02155142            0   0.51780771    1.3531163    1.8924755   -5.3606659 
19690000   0.87269109 -0.00014284884    0.6094446 0.0023725001            0    0.6070721    1.2926737    1.9021183   -5.4117424 
19695000   0.87464549 -6.2164291e-05   0.55997132 0.0019529135            0   0.55801841    1.2955686      1.85554   -1.3272717 
19700000   0.90548084 6.4287748e-05   0.47016133  0.017779871            0   0.45238145    1.3412435    1.8114048    5.1029375 
19705000   0.89206628 9.3387738e-05   0.48421952  0.011707701            0   0.47251181    1.3213732    1.8055927    6.5870449 
19710000   0.83476489 7.9675524e-05   0.56372179 0.0020102012            0   0.56171159    1.2364955    1.8002173    5.8796041 
19715000    0.8871704 0.00011429906   0.49688961 0.0010652113            0    0.4958244    1.3141212    1.8110108    7.6631225 
19720000   0.90880842 6.3504428e-05   0.47846032  0.013268974            0   0.46519134    1.3461725    1.8246328    5.0760595 
19725000   0.85144355 2.3451311e-05    0.5736236  0.019307642            0   0.55431596    1.2612008    1.8348244    3.0355315 
19730000   0.84985774 5.2742883e-06   0.60042865  0.044778793            0   0.55564986    1.2588518    1.8592804     2.129324 
19735000   0.87987388 5.2314026e-06   0.56855667  0.049483035            0   0.51907364    1.3033132    1.8718699    2.1397177 
19740000   0.92988707 5.4784515e-05   0.47051839  0.030329743            0   0.44018865    1.3773952    1.8479136    4.6528808 
19745000    0.8515779 -1.0333603e-05   0.56816194  0.081925195            0   0.48623675    1.2613998    1.8295617    1.3004812 
19750000   0.87656993 -3.790029e-05   0.53884012  0.018641811            0   0.52019831    1.2984192    1.8372593  -0.10323553 
19755000    0.9468512 -4.0170374e-05    0.3976699  0.020108249            0   0.37756165    1.4025233    1.8001932  -0.25652989 
19760000   0.85218009 -7.924254e-05   0.51878996  0.022316981            0   0.49647298    1.2622918    1.7810817   -2.2761363 
19765000   0.85907619 -6.3565195e-05    0.4899592 0.0068304876            0   0.48312871    1.2725066    1.7624658   -1.4920722 
19770000   0.84658745 -1.7763603e-05   0.48611506 0.0040425146            0   0.48207254    1.2540077    1.7401227   0.83062625 
19775000    0.8966441 6.0033851e-06   0.41618381   0.01059646            0   0.40558735    1.3281541    1.7443379    2.0517112 
19780000   0.81087298 -2.6647447e-05   0.53274987  0.018902102            0   0.51384777    1.2011056    1.7338555   0.36950618 
19785000   0.88246632 7.7996465e-06   0.44107543    0.0113641            0   0.42971133    1.3071532    1.7482287    2.1475706 
19790000   0.83445059 0.00010520087   0.49188644  0.018173668            0   0.47371277    1.2360299    1.7279164    7.1142008 
19795000   0.76610022 6.5764427e-05   0.58750647  0.055866664            0   0.53163981     1.134786    1.7222924    5.0894311 
19800000   0.83995264 3.7863049e-05   0.49574287  0.043231801            0   0.45251107    1.2441798    1.7399227    3.6785108 
19805000   0.89710837 -4.9698585e-05   0.43476044  0.030803002            0   0.40395744    1.3288418    1.7636022  -0.78096535 
19810000    0.8272669 -0.00020605371   0.53915422   0.03104526            0   0.50810896    1.2253891    1.7645433   -8.7854065 
19815000   0.85489078 -9.8322734e-05   0.49815432 0.0028579301            0   0.49529639     1.266307    1.7644613   -3.2696627 
19820000   0.84024187 2.6486212e-05   0.53557492 0.0061680525            0   0.52940687    1.2446083    1.7801832    3.1362772 
19825000   0.88784992 6.5051012e-05   0.49436525  0.013274015            0   0.48109124    1.3151277    1.8094929    5.1401048 
19830000   0.84658647 5.5554054e-05   0.56888243  0.016756322            0   0.55212611    1.2540062    1.8228886    4.6672562 
19835000     0.915974 0.00011417143   0.46391548  0.011399549            0   0.45251593    1.3567865     1.820702    7.6662789 
19840000   0.82601339 4.4787445e-05   0.56377528  0.012648887            0   0.55112639    1.2235323    1.7873076    4.0804248 
19845000   0.78371082 -2.9319529e-05   0.62327503  0.019818249            0   0.60345678    1.1608717    1.7841467   0.28298682 
19850000   0.87252719 -7.1826241e-06    0.5057799  0.012824155            0   0.49295575    1.2924309    1.7982108    1.4304604 
19855000   0.86174985 -4.7087125e-05   0.54196496  0.015603436            0   0.52636153     1.276467    1.8184319   -0.5924289 
19860000   0.89311542 -2.0362787e-06   0.47275198  0.020450926            0   0.45230106    1.3229272    1.7956792    1.6914217 
19865000   0.88240753 4.7629209e-05   0.47926906 0.0082209315            0   0.47104813    1.3070661    1.7863352    4.2249507 
19870000   0.92620915 7.8851108e-05   0.43248304 0.0069707578            0   0.42551228    1.3719473    1.8044303    5.8416071 
19875000   0.83389868 1.9901557e-05   0.56568965  0.014557227            0   0.55113243    1.2352124    1.8009021    2.8198618 
19880000   0.90812638 -8.3301227e-06   0.46136065  0.016457703            0   0.44490294    1.3451622    1.8065228    1.3800206 
19885000   0.85292243 -2.2795549e-05   0.52788881  0.037383296            0   0.49050551    1.2633913    1.7912802   0.62414805 
19890000   0.80583535 -5.7313123e-05   0.58946289  0.052394234            0   0.53706865    1.1936436    1.7831065   -1.1513254 
19895000   0.89085524 -4.1165764e-05   0.45520664  0.030457431            0   0.42474921    1.3195793     1.774786  -0.33290114 
19900000   0.83862457 2.5674174e-05   0.52715707  0.026183832            0   0.50097324    1.2422126    1.7693697    3.0838874 
19905000   0.88387106 7.3560872e-05   0.47927682  0.016692937            0   0.46258388     1.309234    1.7885108    5.5548275 
19910000   0.88645346 1.6536946e-05   0.47126574  0.014855393            0   0.45641034    1.3130592    1.7843249    2.6310166 
19915000   0.94297497 6.1530297e-05    0.3565912  0.001447879            0   0.35514332    1.3967817    1.7533729    4.9037241 
19920000   0.86839067 2.784879e-05   0.48874553 3.6823413e-08            0   0.48874549    1.2863037    1.7750492    3.2009073 
19925000   0.89615714 -2.4267988e-05   0.42690024 0.0012969443            0   0.42560329    1.3274328     1.754333   0.51181204 
19930000   0.85284388 4.7180128e-05   0.49966169  0.015073903            0   0.48458779     1.263275    1.7629367    4.1785593 
19935000   0.84789243 -1.4792812e-06   0.48516746  0.015704004            0   0.46946346    1.2559407    1.7411081    1.6653689 
19940000   0.90398456 -4.0317879e-06   0.42695486 0.0043728155            0   0.42258204    1.3390271     1.765982    1.5595545 
19945000   0.88524498 8.6551079e-05   0.44751867 0.0086546136            0   0.43886406    1.3112691    1.7587878    6.1902031 
19950000   0.86065331 2.1058007e-05   0.47205408  0.011950221            0   0.46010386    1.2748427    1.7468968    2.8250668 
19955000   0.88827089 -5.5202182e-05   0.46024635 0.0076623662            0   0.45258398    1.3157513    1.7759976   -1.0503541 
19960000    0.8813809 -0.00013011875    0.4773052 0.0011353617            0   0.47616983    1.3055455    1.7828507   -4.8792293 
19965000   0.91065052 -5.1853777e-05     0.422643 0.0021786155            0   0.42046439    1.3489011    1.7715441  -0.88336929 
19970000   0.84331215 0.00017113185   0.50658606 0.0026849826            0   0.50390107    1.2491561    1.7557422    10.517693 
19975000   0.92636201 7.2790859e-05   0.38302517 0.0070316116            0   0.37599356    1.3721737    1.7551989    5.4820909 
19980000    0.8941796 -6.6909782e-05   0.43790079  0.015560662            0   0.42234013    1.3245035    1.7624043   -1.6633765 
19985000   0.80401762 -6.7727031e-05   0.57329846 0.0041062016            0   0.56919226    1.1909511    1.7642496   -1.7033744 
19990000   0.90079241 -8.4402455e-05    0.4096806 0.0025888753            0   0.40709172    1.3342988    1.7439793   -2.5774264 
19995000    0.8918754 -3.0177111e-05   0.42102222 0.0059985667            0   0.41502365    1.3210904    1.7421127   0.19704455 
20000000   0.88844112 7.1506433e-05   0.38528058  0.016599619            0   0.36868096    1.3160034     1.701284    5.3624133 
Loop time of 207 on 1 procs for 20000000 steps with 80 atoms

Performance: 83478.290 tau/day, 96618.392 timesteps/s
98.7% CPU use with 1 MPI tasks x no OpenMP threads

MPI task timing breakdown:
Section |  min time  |  avg time  |  max time  |%varavg| %total
---------------------------------------------------------------
Pair    | 9.7516     | 9.7516     | 9.7516     |   0.0 |  4.71
Bond    | 29.166     | 29.166     | 29.166     |   0.0 | 14.09
Neigh   | 23.261     | 23.261     | 23.261     |   0.0 | 11.24
Comm    | 55.677     | 55.677     | 55.677     |   0.0 | 26.90
Output  | 0.52214    | 0.52214    | 0.52214    |   0.0 |  0.25
Modify  | 81.523     | 81.523     | 81.523     |   0.0 | 39.38
Other   |            | 7.099      |            |       |  3.43

Nlocal:        80.0000 ave          80 max          80 min
Histogram: 1 0 0 0 0 0 0 0 0 0
Nghost:        0.00000 ave           0 max           0 min
Histogram: 1 0 0 0 0 0 0 0 0 0
Neighs:        33.0000 ave          33 max          33 min
Histogram: 1 0 0 0 0 0 0 0 0 0

Total # of neighbors = 33
Ave neighs/atom = 0.4125
Ave special neighs/atom = 5.8500000
Neighbor list builds = 4015
Dangerous builds = 0
write_restart restart.equil
System init for write_restart ...
WARNING: Communication cutoff 1.4200000000000002 is shorter than a bond length based estimate of 1.8. This may lead to errors. (../comm.cpp:667)
#--------------End of Input file ------------------
Total wall time: 0:03:27
