LAMMPS (29 Oct 2020)
###################### polyelectrolyte complexation ######################
clear

#Initialization
#------------------------------------
units				lj
dimension			3
atom_style			full
boundary			p p p

#Atom Definition
#-------------------------------------
read_restart			restart.equil
Reading restart file ...
  restart file = 29 Oct 2020, LAMMPS = 29 Oct 2020
  restoring atom style full from restart
  orthogonal box = (-80.000000 -80.000000 -80.000000) to (80.000000 80.000000 80.000000)
  1 by 1 by 1 MPI processor grid
  restoring pair style lj/cut from restart
  restoring bond style harmonic from restart
  60 atoms
  59 bonds
Finding 1-2 1-3 1-4 neighbors ...
  special bond factors lj:    0.0      1.0      1.0     
  special bond factors coul:  0.0      0.0      0.0     
     2 = max # of 1-2 neighbors
     2 = max # of 1-3 neighbors
     4 = max # of 1-4 neighbors
     6 = max # of special neighbors
  special bonds CPU = 0.000 seconds
  read_restart CPU = 0.003 seconds

#Force definition
#----------------------------------------------
#Bond definition
bond_style			harmonic
bond_coeff			1 5000 1
#Pair definition
special_bonds	lj 0 1 1
dielectric		80
pair_style		 lj/cut 1.12
pair_modify 		 shift yes
pair_coeff	1 1 1 1 1.12

#Timestep etc
#--------------------------------------------
timestep		0.001
run_style		verlet
velocity		all	create	1	7

#Fix
#---------------------------------------
group polymers type 1
60 atoms in group polymers
fix 1 all nve
fix 2 all langevin 1	1	1000	7

#Dump
#------------------------------------------------
compute  1 all gyration
variable  myRg2 equal c_1
variable  i equal step
fix  mythermofile all print 5000 "$i ${myRg2}" file radius_of_gyration.dat screen no

thermo_style		 custom step temp press pe evdwl ecoul ebond ke etotal enthalpy
thermo 	5000
dump	3 all custom 5000 dump.lammpstrj id mol type xu yu zu
run		2000000
Neighbor list info ...
  update every 1 steps, delay 10 steps, check yes
  max neighbors/atom: 2000, page size: 100000
  master list distance cutoff = 1.42
  ghost atom cutoff = 1.42
  binsize = 0.71, bins = 226 226 226
  1 neighbor lists, perpetual/occasional/extra = 1 0 0
  (1) pair lj/cut, perpetual
      attributes: half, newton on
      pair build: half/bin/newton
      stencil: half/bin/3d/newton
      bin: standard
WARNING: Communication cutoff 1.4200000000000002 is shorter than a bond length based estimate of 1.8. This may lead to errors. (../comm.cpp:667)
Per MPI rank memory allocation (min/avg/max) = 54.71 | 54.71 | 54.71 Mbytes
Step Temp Press PotEng E_vdwl E_coul E_bond KinEng TotEng Enthalpy 
 2000000            1 -0.00012130765   0.43871753 0.0060657727            0   0.43265176        1.475    1.9137175   -6.3675516 
 2005000   0.90821957 -7.2609656e-05   0.57789832            0            0   0.57789832    1.3396239    1.9175222    -3.039297 
 2010000   0.95060701 0.0001150684   0.50018369 4.4934418e-05            0   0.50013876    1.4021453     1.902329    9.7576651 
 2015000   0.84842227 -4.0165368e-05   0.66420569  0.016266382            0   0.64793931    1.2514228    1.9156285  -0.82632727 
 2020000    0.9725609 7.7221833e-05   0.47988599 0.0077221757            0   0.47216381    1.4345273    1.9144133    7.1860904 
 2025000   0.88780036 6.5922431e-05    0.5692344 0.0014549449            0   0.56777946    1.3095055    1.8787399    6.3790446 
 2030000    0.8930894 -3.5192758e-05   0.58361825 0.0059274895            0   0.57769076    1.3173069    1.9009251  -0.50156719 
 2035000   0.91197747 -0.0001197492   0.55020193            0            0   0.55020193    1.3451668    1.8953687   -6.2795103 
 2040000   0.94588582 8.8251937e-05   0.51370822 0.0071882767            0   0.50651995    1.3951816    1.9088898    7.9335554 
 2045000   0.94743595 -3.7136821e-05   0.50520127  0.033233052            0   0.47196822     1.397468    1.9026693  -0.63253767 
 2050000   0.97307612 -7.573739e-06   0.46290212  0.018080936            0   0.44482118    1.4352873    1.8981894    1.3811555 
 2055000   0.86428741 8.698816e-05    0.6101131 0.0069109101            0   0.60320219    1.2748239     1.884937    7.8233287 
 2060000   0.86992476 -8.5300667e-05   0.62110943  0.027239761            0   0.59386967     1.283139    1.9042485   -3.9189437 
 2065000   0.90211213 0.00013364134   0.56340957  0.004308299            0   0.55910127    1.3306154     1.894025    11.017274 
 2070000     1.010219 -3.1786584e-05   0.42182894            0            0   0.42182894     1.490073    1.9119019  -0.25806219 
 2075000   0.86393322 6.3678206e-05   0.62111143 0.00086580436            0   0.62024563    1.2743015    1.8954129    6.2425118 
 2080000   0.95313236 -7.0321427e-05   0.45384409 0.0022787216            0   0.45156536    1.4058702    1.8597143   -2.9408951 
 2085000   0.88314445 -5.8925463e-05   0.54515302 0.00067664428            0   0.54447638    1.3026381    1.8477911   -2.1748539 
 2090000   0.89242553 -6.8837362e-05   0.53664456   0.02958508            0   0.50705948    1.3163277    1.8529722    -2.846325 
 2095000   0.91443102 2.7784596e-05   0.51705527  0.010916796            0   0.50613847    1.3487857     1.865841    3.7626028 
 2100000   0.95422268 -7.8064138e-06   0.47462958 0.00084116521            0   0.47378842    1.4074785     1.882108    1.3491902 
 2105000   0.94557573 2.1403277e-06   0.47510913  0.011243019            0   0.46386611    1.3947242    1.8698333    2.0159464 
 2110000   0.93640406 -0.00010262091   0.49753107 0.0021527149            0   0.49537836     1.381196    1.8787271   -5.1268607 
 2115000    0.9192177 5.3197094e-05   0.50870821 0.0048381947            0   0.50387002    1.3558461    1.8645543    5.4961426 
 2120000   0.91898192 0.00013388828    0.5643867  0.031004702            0     0.533382    1.3554983     1.919885    11.059992 
 2125000   0.94318535 3.3686885e-05   0.51998042   0.01874335            0   0.50123707    1.3911984    1.9111788    4.2108702 
 2130000    0.9883694 -0.00011562107   0.46139577  0.002210515            0   0.45918526    1.4578449    1.9192406   -5.9738242 
 2135000   0.91944478 1.0527449e-05   0.55401343  0.017067477            0   0.53694595    1.3561811    1.9101945    2.6288683 
 2140000   0.96530636 -1.7568061e-05   0.50731712  0.011653308            0   0.49566382    1.4238269     1.931144   0.73183106 
 2145000   0.93502782 -4.2537789e-05   0.55975837 0.0012562246            0   0.55850215     1.379166    1.9389244  -0.96498866 
 2150000   0.93951303 -5.9054251e-05   0.56963727   0.02607901            0   0.54355826    1.3857817     1.955419   -2.0760179 
 2155000   0.96883607 -6.9307645e-05   0.52819111 0.00014568655            0   0.52804542    1.4290332    1.9572243   -2.7741776 
 2160000   0.95067842 6.0311669e-05   0.56314994 0.0040084912            0   0.55914145    1.4022507    1.9654006    6.0826772 
 2165000   0.96218967 5.8777039e-06    0.5319817  0.034277833            0   0.49770386    1.4192298    1.9512115    2.3524627 
 2170000   0.95412479 5.1381479e-05   0.56174213  0.010092375            0   0.55164975    1.4073341    1.9690762    5.4767185 
 2175000    1.0281236 -6.6871686e-05   0.46519351 0.0034773319            0   0.46171618    1.5164824    1.9816759   -2.5834312 
 2180000    1.0410062 4.3695133e-05   0.47489767  0.012223621            0   0.46267405    1.5354842    2.0103818    4.9933029 
 2185000    1.0297568 8.7093368e-05   0.52527852 0.0090378834            0   0.51624064    1.5188913    2.0441698    7.9897437 
 2190000   0.98829935 1.2394788e-05    0.5948923  0.022067534            0   0.57282477    1.4577415    2.0526338    2.8987847 
 2195000    1.0334088 4.0616039e-05   0.52857506 0.00026095853            0   0.52831411     1.524278     2.052853    4.8255746 
 2200000    1.0015743 -1.3891758e-05   0.55243323   0.01287875            0   0.53955448    1.4773221    2.0297553    1.0814113 
 2205000    1.0574675 1.4879511e-05   0.48644202  0.034139082            0   0.45230293    1.5597646    2.0462066    3.0619812 
 2210000   0.98060924 5.3749055e-05   0.59740207  0.030610252            0   0.56679182    1.4463986    2.0438007    5.7130695 
 2215000   0.96714571 1.5566057e-05   0.61607002            0            0   0.61607002    1.4265399    2.0426099    3.1052527 
 2220000    1.0166317 4.8744619e-06   0.53067078   0.01390117            0   0.51676961    1.4995318    2.0302026    2.3629658 
 2225000   0.99081703 3.9879023e-06   0.57659966 0.0049976677            0   0.57160199    1.4614551    2.0380548    2.3102956 
 2230000    1.0194734 -6.9670629e-05   0.52465426   0.01375578            0   0.51089848    1.5037233    2.0283775   -2.7278041 
 2235000    1.0147589 -6.7731095e-05   0.50963077  0.059027104            0   0.45060366    1.4967694    2.0064001   -2.6173759 
 2240000    1.0724395 5.2363853e-05     0.421541 0.0084036884            0   0.41313731    1.5818482    2.0033892    5.5780949 
 2245000    1.0140859 9.7885944e-05   0.48433131   0.01476657            0   0.46956474    1.4957767     1.980108    8.6624551 
 2250000    1.0309844 -0.0001494725   0.47720799   0.01036556            0   0.46684243     1.520702      1.99791   -8.2060792 
 2255000   0.98326319 -1.1974577e-05   0.53340071 0.0046362539            0   0.52876446    1.4503132    1.9837139    1.1662494 
 2260000   0.95070518 -7.4149027e-05   0.58936693   0.03346521            0   0.55590172    1.4022901    1.9916571   -3.0702498 
 2265000    1.0628505 -4.3815062e-06   0.40386928  0.014231916            0   0.38963736    1.5677045    1.9715738     1.672463 
 2270000   0.95479983 -6.90388e-06   0.55477748            0            0   0.55477748    1.4083297    1.9631072    1.4918023 
 2275000   0.99869815 7.6565985e-05   0.50963736   0.03493821            0   0.47469915    1.4730798    1.9827171    7.2096217 
 2280000    1.0718369 -5.3503752e-05   0.42250497  0.012582635            0   0.40992234    1.5809594    2.0034644   -1.6490584 
 2285000   0.95123909 5.754892e-05   0.55912403 0.0087829459            0   0.55034109    1.4030777    1.9622017    5.8908746 
 2290000   0.99508394 -3.5800344e-05   0.53091583  0.011602915            0   0.51931291    1.4677488    1.9986646  -0.44530552 
 2295000    1.0885547 5.6195868e-05   0.43843265  0.040293127            0   0.39813953    1.6056182    2.0440509    5.8803555 
 2300000    1.0623796 7.7983278e-06   0.46222959 0.0028583282            0   0.45937126    1.5670099    2.0292395    2.5616054 
 2305000     1.030648 1.1090214e-06   0.51202055 0.0059144726            0   0.50610608    1.5202059    2.0322264    2.1079356 
 2310000    1.0448506 0.00010558534   0.49052237  0.019063866            0    0.4714585    1.5411546     2.031677    9.2396363 
 2315000    1.0295687  4.63521e-05   0.49958932  0.034157623            0    0.4654317    1.5186138    2.0182031    5.1825064 
 2320000    1.0291789 -4.2999876e-05   0.54447189 0.0019046633            0   0.54256723    1.5180389    2.0625108  -0.87294737 
 2325000    1.0812746 -8.9999444e-05   0.44561123 0.0023852496            0   0.44322599      1.59488    2.0404912   -4.1034708 
 2330000    1.0673716 -2.8322209e-05   0.47427589  0.019610853            0   0.45466504    1.5743731     2.048649   0.11518619 
 2335000    1.0890419 1.1707625e-06   0.43543753   0.07562765            0   0.35980988    1.6063368    2.0417744    2.1216984 
 2340000   0.97344446 -7.7413273e-05   0.64335741  0.010711692            0   0.63264571    1.4358306     2.079188   -3.2055581 
 2345000     1.033111 8.8461694e-05   0.50312506  0.020256823            0   0.48286823    1.5238387    2.0269637    8.0659487 
 2350000    1.0348676 -7.4624683e-05   0.54327629 0.0034198851            0   0.53985641    1.5264297     2.069706   -3.0246724 
 2355000    1.1551523 0.0001168732     0.383779 0.0053770028            0     0.378402    1.7038496    2.0876286    10.066172 
 2360000    1.0381225 -5.9151098e-05   0.54275784  0.054556386            0   0.48820145    1.5312306    2.0739885   -1.9640598 
 2365000    1.0587204 -7.6362865e-05   0.49358007  0.042696529            0   0.45088354    1.5616126    2.0551926   -3.1578456 
 2370000   0.99722623 9.1113442e-05   0.58399772   0.05382324            0   0.53017448    1.4709087    2.0549064    8.2749174 
 2375000    1.1402698 -9.9798435e-05   0.38360006  0.019262435            0   0.36433762     1.681898     2.065498   -4.7474085 
 2380000    1.0875289   5.4656e-05   0.43407192  0.014378219            0    0.4196937    1.6041051     2.038177      5.76936 
 2385000    1.0807259 -2.6238004e-05   0.43035924  0.023596893            0   0.40676235    1.5940707    2.0244299   0.23324886 
 2390000    1.0567522 -0.00012375819   0.46892148 0.0020651766            0   0.46685631    1.5587096     2.027631   -6.4209279 
 2395000    1.0720012 -4.1277914e-05   0.48610936  0.014616044            0   0.47149332    1.5812017    2.0673111  -0.75059448 
 2400000    1.0549247 0.00013554725   0.52581058   0.09726339            0   0.42854719    1.5560139    2.0818245    11.335183 
 2405000    1.0920093 -4.6198471e-05   0.42020394 0.0095013035            0   0.41070264    1.6107138    2.0309177   -1.1228979 
 2410000    1.0743594 -3.1053724e-05   0.41330056 0.0072123423            0   0.40608822    1.5846801    1.9979807  -0.12195356 
 2415000    1.0329585 1.7036762e-05   0.42079259 0.00035065984            0   0.42044193    1.5236138    1.9444064    3.1074493 
 2420000   0.96534867 -6.1044815e-05   0.52995706  0.015509486            0   0.51444757    1.4238893    1.9538463   -2.2134797 
 2425000   0.97457066 5.2622822e-05    0.5143098 0.0027698953            0    0.5115399    1.4374917    1.9518015    5.5441862 
 2430000   0.94870379 -9.3714255e-05   0.51795216  0.036814065            0   0.48113809    1.3993381    1.9172903   -4.4802696 
 2435000    1.0196345 -4.3191396e-06   0.38227561  0.025477452            0   0.35679816    1.5039609    1.8862365    1.5913833 
 2440000   0.96535519 -0.0001082979   0.42852014  0.011153274            0   0.41736687    1.4238989     1.852419   -5.5407173 
 2445000    0.9894582 -5.0457596e-05   0.36596404            0            0   0.36596404    1.4594508    1.8254149    -1.619157 
 2450000   0.93795767 0.00013610092   0.45713637            0            0   0.45713637    1.3834876    1.8406239     11.13178 
 2455000   0.91590609 -1.4965913e-05    0.4913745 0.0093562418            0   0.48201826    1.3509615     1.842336     0.820663 
 2460000    1.0186525 6.7643271e-05   0.29872119  0.006984534            0   0.29173666    1.5025124    1.8012336    6.4190142 
 2465000    0.9268667 -0.00012778349   0.46659867  0.051058454            0   0.41554021    1.3671284    1.8337271    -6.889626 
 2470000   0.97483317 -2.7020148e-05   0.38925647 0.0082736491            0   0.38098282    1.4378789    1.8271354 -0.017440024 
 2475000   0.92295246 0.00014016769   0.42959288 0.0025984047            0   0.42699447    1.3613549    1.7909478    11.359728 
 2480000   0.88068912 -0.00013192864   0.51182873 0.0045231587            0   0.50730557    1.2990164    1.8108452   -7.1954831 
 2485000   0.96438856 7.5056818e-05   0.39467162   0.01892013            0   0.37575149    1.4224731    1.8171447    6.9410235 
 2490000   0.91687263 4.2495118e-05     0.457837   0.02433857            0   0.43349843    1.3523871    1.8102241    4.7112242 
 2495000    0.9454216 2.7918946e-05      0.45278 0.0091834741            0   0.44359653    1.3944969    1.8472769    3.7532102 
 2500000   0.87750191 -1.1595724e-05   0.52630076  0.015486509            0   0.51081425    1.2943153    1.8206161    1.0290146 
 2505000   0.89326768 -6.8399156e-05   0.48347102  0.040536069            0   0.44293495    1.3175698    1.8010408   -2.8683415 
 2510000   0.88901794 6.6673025e-05   0.44870022 0.00035561339            0    0.4483446    1.3113015    1.7600017    6.3115469 
 2515000   0.95277287 -7.2172257e-05   0.35413503 0.00013307766            0   0.35400195      1.40534     1.759475   -3.1674844 
 2520000   0.84421385 1.8565936e-05    0.5174531  0.036211908            0   0.48124119    1.2452154    1.7626685    3.0301031 
 2525000   0.89278626 3.6994104e-05   0.43668711 0.00013100097            0   0.43655611    1.3168597    1.7535468     4.279011 
 2530000   0.89120897 -4.5657106e-05   0.43258215  0.026823395            0   0.40575876    1.3145332    1.7471154    -1.369743 
 2535000   0.80050561 9.344748e-05   0.54274104  0.085065482            0   0.45767556    1.1807458    1.7234868    8.1028348 
 2540000   0.93420123 8.0565383e-06   0.35314812  0.012009452            0   0.34113867    1.3779468    1.7310949    2.2810879 
 2545000   0.88306218 0.00012603782   0.40299464     0.011055            0   0.39193964    1.3025167    1.7055114    10.309693 
 2550000   0.87280763 3.4853453e-05   0.40212255  0.010244437            0   0.39187811    1.2873912    1.6895138    4.0688428 
 2555000    0.8933154 8.2917101e-05   0.39311741 0.0005480822            0   0.39256932    1.3176402    1.7107576    7.3712318 
 2560000    0.8735363 6.8062051e-05    0.3978896 0.0095276687            0   0.38836193     1.288466    1.6863556     6.332725 
 2565000   0.83968049 -5.9433045e-05    0.4355984 0.0015495802            0   0.43404882    1.2385287    1.6741271   -2.3831687 
 2570000   0.82839779 8.2821477e-06   0.46812798  0.031813921            0   0.43631406    1.2218867    1.6900147    2.2554093 
 2575000   0.80863905 9.2893689e-07   0.50520499  0.020307605            0   0.48489739    1.1927426    1.6979476     1.761363 
 2580000    0.8520192 -3.4905204e-06   0.42802089   0.01884162            0   0.40917927    1.2567283    1.6847492     1.446463 
 2585000   0.84694178 -2.7246454e-05   0.44346768  0.009884759            0   0.43358292    1.2492391    1.6927068  -0.16731778 
 2590000   0.89021538 2.793928e-05   0.37103581  0.021963932            0   0.34907187    1.3130677    1.6841035     3.591425 
 2595000    0.8377975 3.6904336e-05   0.44125293 0.0038552187            0   0.43739771    1.2357513    1.6770042    4.1963403 
 2600000   0.82313322 -5.894679e-06   0.47644186  0.011219686            0   0.46522218    1.2141215    1.6905634    1.2881533 
 2605000   0.82199734 2.1382289e-05   0.49533059  0.033191455            0   0.46213914    1.2124461    1.7077767    3.1674743 
 2610000   0.91579207 7.5183321e-06   0.38145966 0.0018540849            0   0.37960558    1.3507933     1.732253    2.2455044 
 2615000   0.88656262 8.2711201e-05   0.42021308 0.0038743223            0   0.41633876    1.3076799    1.7278929    7.3743109 
 2620000   0.91366306 -2.0843497e-06   0.38615067  0.022982256            0   0.36316841     1.347653    1.7338037    1.5915121 
 2625000   0.92028381 4.671631e-05   0.36966697 0.0037751562            0   0.36589181    1.3574186    1.7270856    4.9162523 
 2630000   0.84756642 -1.8231893e-05   0.47616269 0.0064783769            0   0.46968431    1.2501605    1.7263232   0.48169262 
 2635000   0.85794896 2.2916173e-06   0.43784721  0.024141686            0   0.41370552    1.2654747    1.7033219     1.859763 
 2640000   0.82139849 5.7572173e-05   0.51675385  0.026982785            0   0.48977106    1.2115628    1.7283166     5.658577 
 2645000   0.85775816 -6.474851e-05   0.46425587  0.015938636            0   0.44831723    1.2651933    1.7294491   -2.6907158 
 2650000   0.81246225 0.00014132712   0.51053531  0.059378421            0   0.45115689    1.1983818    1.7089171    11.356848 
 2655000   0.90346544 3.5163367e-05   0.37058156 0.0028598941            0   0.36772167    1.3326115    1.7031931     4.103679 
 2660000     0.886087 7.791164e-05   0.41425841   0.00589177            0   0.40836664    1.3069783    1.7212367    7.0400047 
 2665000   0.89439562 1.5787954e-05   0.45145571  0.017716659            0   0.43373905    1.3192335    1.7706892    2.8484803 
 2670000   0.96739458 -3.0488949e-05   0.32514257 0.0044643882            0   0.32067819     1.426907    1.7520496  -0.32932936 
 2675000   0.89605363 1.2244206e-05   0.45510985 0.00048165547            0    0.4546282    1.3216791     1.776789    2.6126601 
 2680000   0.92610438 6.4276647e-06   0.41990148 0.0042184759            0   0.41568301     1.366004    1.7859054    2.2247007 
 2685000   0.87293876  7.85353e-06   0.48800119  0.011622077            0   0.47637911    1.2875847    1.7755859    2.3117202 
 2690000   0.86064105 6.9972707e-05   0.49154387  0.029600522            0   0.46194335    1.2694456    1.7609894    6.5377929 
 2695000   0.91491701 -1.8308576e-05   0.41404543  0.014384352            0   0.39966108    1.3495026     1.763548   0.51368255 
 2700000    0.9236044 -3.1037081e-05   0.39075976  0.003700408            0   0.38705936    1.3623165    1.7530763  -0.36572177 
 2705000   0.91464439 3.3361549e-05   0.40558709  0.023862523            0   0.38172456    1.3491005    1.7546876    4.0321693 
 2710000   0.95510996 1.0661382e-05   0.33404913  0.011959775            0   0.32208936    1.4087872    1.7428363    2.4706533 
 2715000   0.87899514 -1.6317741e-05   0.46517973 7.2686034e-05            0   0.46510705    1.2965178    1.7616976   0.64773974 
 2720000    0.9401643 1.1179788e-05   0.38925963  0.013169679            0   0.37608995    1.3867423     1.776002    2.5392089 
 2725000   0.93921085 2.6105111e-05   0.38040859 0.0036562338            0   0.37675236     1.385336    1.7657446    3.5478535 
 2730000   0.96484122 6.517706e-05   0.35992241  0.004985063            0   0.35493734    1.4231408    1.7830632    6.2324838 
 2735000    0.9320811 -4.0330091e-05   0.40463231            0            0   0.40463231    1.3748196    1.7794519  -0.97374894 
 2740000   0.92445812 4.6368429e-05   0.40244208 0.0088736578            0   0.39356842    1.3635757    1.7660178    4.9314359 
 2745000   0.90540841 8.0312702e-05   0.42076112 0.0038611792            0   0.41689994    1.3354774    1.7562385     7.238919 
 2750000   0.86841579 2.0720965e-05    0.4519484   0.02322403            0   0.42872437    1.2809133    1.7328617    3.1474129 
 2755000   0.81501756 7.8430211e-05    0.5434008 0.0076271934            0   0.53577361    1.2021509    1.7455517    7.0997207 
 2760000   0.84922441 1.8632781e-05   0.48612329  0.024145924            0   0.46197737     1.252606    1.7387293    3.0107271 
 2765000   0.92298337 1.3949854e-05   0.36721255 0.0011178314            0   0.36609472    1.3614005     1.728613    2.6809231 
 2770000   0.86637645 -5.9682076e-05   0.49201298   0.02512364            0   0.46688934    1.2779053    1.7699182   -2.3043781 
 2775000   0.86461762 2.8356494e-05   0.49691493  0.058837581            0   0.43807735     1.275311    1.7722259    3.7080292 
 2780000   0.88504359 4.1853903e-05   0.47564716   0.05256866            0    0.4230785    1.3054393    1.7810865    4.6383129 
 2785000   0.97707381 -2.4817365e-05   0.33744559  0.015440192            0    0.3220054    1.4411839    1.7786295  0.084430673 
 2790000   0.86047443 2.4013495e-05   0.48438686 0.0025622444            0   0.48182461    1.2691998    1.7535866    3.3929079 
 2795000   0.84880713 7.3644734e-05   0.48686128  0.018295427            0   0.46856585    1.2519905    1.7388518    6.7663323 
 2800000   0.93144657 6.581414e-05    0.3788348 0.0052447177            0   0.37359009    1.3738837    1.7527185    6.2456305 
 2805000   0.88948944 8.5538422e-05   0.45393223 0.0097862861            0   0.44414594    1.3119969    1.7659291    7.6053521 
 2810000    0.9348043 -1.6666717e-05   0.39936416  0.013633753            0    0.3857304    1.3788363    1.7782005   0.64041927 
 2815000   0.97639376 -4.227639e-05   0.33447585  0.018971471            0   0.31550438    1.4401808    1.7746566   -1.1114116 
 2820000   0.89247171 7.9627124e-05   0.47164385  0.013975399            0   0.45766845    1.3163958    1.7880396     7.223918 
 2825000   0.86911212 2.0459989e-05   0.51646813  0.032662843            0   0.48380529    1.2819404    1.7984085    3.1951438 
 2830000   0.99103621 4.5919555e-05   0.36214116 0.0061562458            0   0.35598491    1.4617784    1.8239196    4.9586946 
 2835000   0.97017792 9.1020736e-05   0.39175721 0.0085707337            0   0.38318648    1.4310124    1.8227696    8.0364519 
 2840000   0.99905974 2.4594546e-05   0.33231718 0.00079217811            0   0.33152501    1.4736131    1.8059303     3.484918 
 2845000   0.98520328 -6.1172393e-06   0.32722072  0.013971397            0   0.31324933    1.4531748    1.7803956     1.362792 
 2850000   0.96066386 2.4251866e-05   0.35331864  0.051199678            0   0.30211896    1.4169792    1.7702978    3.4258919 
 2855000   0.93791664 -5.2600198e-05   0.40806642 0.0097235847            0   0.39834284     1.383427    1.7914935   -1.7993467 
 2860000   0.98769476 -4.2904384e-06   0.33229239 0.0003702696            0   0.33192213    1.4568498    1.7891422    1.4962482 
 2865000    1.0144001 -6.7641719e-05   0.30170876    0.0149528            0   0.28675596    1.4962402     1.797949   -2.8197258 
 2870000   0.93509388 -1.0510785e-05   0.44336313  0.062105779            0   0.38125735    1.3792635    1.8226266    1.1050904 
 2875000     1.023121 -7.0201034e-05   0.33686749  0.025437682            0    0.3114298    1.5091035     1.845971   -2.9464196 
 2880000   0.92786649 1.5810094e-05   0.45129013  0.031646611            0   0.41964352    1.3686031    1.8198932    2.8991956 
 2885000   0.96358815 -2.5764186e-05   0.42426088  0.014571319            0   0.40968956    1.4212925    1.8455534  0.086718327 
 2890000   0.97073935 4.2535489e-05   0.40915517 0.0001713052            0   0.40898386    1.4318405    1.8409957    4.7447518 
 2895000   0.94761445 5.9451276e-05   0.44438569  0.041139336            0   0.40324636    1.3977313     1.842117    5.9006574 
 2900000   0.97945136 -5.5033221e-05   0.40367523 0.0053622616            0   0.39831297    1.4446908     1.848366   -1.9085686 
 2905000   0.97860932 -1.7221338e-05   0.42837995  0.018489466            0   0.40989048    1.4434487    1.8718287   0.69618535 
 2910000   0.99197077 -1.5243241e-05   0.39133094 0.0069017868            0   0.38442916    1.4631569    1.8544878   0.81388261 
 2915000    0.9755852 2.1079974e-05    0.4272563  0.012647535            0   0.41460877    1.4389882    1.8662445     3.305304 
 2920000   0.93401607 3.6845969e-05   0.44913757 0.0040819787            0   0.44505559    1.3776737    1.8268113    4.3421628 
 2925000   0.96878521 7.3282359e-05   0.41940271 0.0020423139            0   0.41736039    1.4289582    1.8483609    6.8511032 
 2930000    1.0382109 0.00013487203   0.35404893 0.0010930637            0   0.35295587    1.5313611      1.88541    11.092674 
 2935000   0.98292405 4.4809202e-05   0.45271106 0.00097189086            0   0.45173917     1.449813     1.902524    4.9614989 
 2940000    1.0538427 3.2918935e-05   0.34922921  0.027672993            0   0.32155622     1.554418    1.9036472    4.1509132 
 2945000   0.98530593 3.575976e-05   0.46811308            0            0   0.46811308    1.4533263    1.9214393    4.3626389 
 2950000    1.0213034 1.930409e-05   0.43289925  0.022297216            0   0.41060203    1.5064225    1.9393217    3.2571476 
 2955000   0.98068282 1.7057211e-05   0.50169085  0.033789571            0   0.46790128    1.4465072     1.948198    3.1126369 
 2960000    1.0344706 -9.7578289e-05   0.47852661  0.037437999            0   0.44108861    1.5258441    2.0043707   -4.6569738 
 2965000     1.069847 1.485135e-05   0.41881369  0.033908003            0   0.38490569    1.5780243     1.996838    3.0106901 
 2970000    1.0305234 -7.393033e-05   0.49288046   0.15037571            0   0.34250476     1.520022    2.0129025   -3.0340747 
 2975000    1.0455444 4.8506272e-05   0.44800148  0.019159644            0   0.42884183     1.542178    1.9901795     5.301541 
 2980000    1.0393055 -0.00010945144   0.45451737  0.062548957            0   0.39196842    1.5329755    1.9874929   -5.4843923 
 2985000   0.91954803 -8.7366868e-05   0.64635713  0.079043337            0    0.5673138    1.3563333    2.0026905   -3.9615544 
 2990000    1.0009805 6.4790592e-05    0.5466068   0.07499559            0   0.47161121    1.4764463    2.0230531    6.4460908 
 2995000    1.0139567 0.00012361806   0.55008454  0.073726094            0   0.47635844    1.4955862    2.0456707    10.484664 
 3000000     1.075935 -3.9478214e-05   0.46671761  0.017523911            0    0.4491937    1.5870041    2.0537217  -0.64132441 
 3005000    1.0687077 6.3346214e-05    0.4423231  0.022112049            0   0.42021105    1.5763439     2.018667    6.3431018 
 3010000    1.0428118 1.549844e-05   0.49152149  0.075480301            0   0.41604119    1.5381475     2.029669    3.0876958 
 3015000    1.0392074 -7.1373663e-05   0.49022133  0.010739904            0   0.47948143    1.5328309    2.0230523   -2.8493898 
 3020000    1.0013393 -1.3397443e-06   0.50731292  0.024193543            0   0.48311937    1.4769755    1.9842884    1.8928285 
 3025000    1.0658122 -2.8509383e-06    0.4264134 0.0049444404            0   0.42146896    1.5720729    1.9984863    1.8038623 
 3030000    1.0215594 1.0090141e-05   0.44963359 0.0043627031            0   0.44527089    1.5068001    1.9564337    2.6452541 
 3035000    1.0078412 -7.4465533e-05   0.49434313 0.0083392736            0   0.48600386    1.4865657    1.9809088   -3.1026049 
 3040000     1.035318 5.3027805e-05   0.44013296 0.00075383289            0   0.43937913    1.5270941     1.967227    5.5872585 
 3045000   0.92774518 -4.8828592e-05   0.61446945  0.029318183            0   0.58515127    1.3684241    1.9828936   -1.3504716 
 3050000   0.99005491 -6.358598e-05   0.47889442 0.0082006157            0    0.4706938     1.460331    1.9392254   -2.4015775 
 3055000   0.88736226 -2.7948054e-05   0.62050956  0.060563808            0   0.55994576    1.3088593    1.9293689  0.021448385 
 3060000    1.0520225 4.5873369e-05   0.37780429  0.023793209            0   0.35401108    1.5517332    1.9295375    5.0611595 
 3065000    1.0033718 -5.7860615e-05   0.45427672 0.0023105083            0   0.45196621    1.4799734    1.9342501   -2.0157012 
 3070000   0.96185791 9.8586977e-06   0.55309713  0.013747016            0   0.53935012    1.4187404    1.9718375     2.644858 
 3075000   0.99178295 -0.00010985209    0.5240487  0.021361323            0   0.50268737    1.4628798    1.9869285   -5.5123072 
 3080000    1.1390967 3.4081896e-06   0.32877747  0.015502598            0   0.31327487    1.6801677    2.0089452    2.2416109 
 3085000    1.0331711 -4.7306595e-05   0.49408641 0.0041351003            0   0.48995131    1.5239273    2.0180137   -1.2114498 
 3090000   0.95254563 -9.1171377e-05   0.65196942  0.033921676            0   0.61804775    1.4050048    2.0569742   -4.1669918 
 3095000    1.0919224 -6.9503429e-05   0.45633257  0.020900746            0   0.43543182    1.6105855    2.0669181   -2.6778493 
 3100000     1.138005 -4.7203638e-05   0.39861503 0.0094668757            0   0.38914816    1.6785573    2.0771723   -1.1452627 
 3105000    1.0907671 4.7011313e-05   0.51810281 0.0061119206            0   0.51199089    1.6088815    2.1269843    5.3362899 
 3110000    1.0781814 -7.403165e-05   0.50378522  0.014188591            0   0.48959663    1.5903175    2.0941027   -2.9597913 
 3115000    1.0949186 5.2027007e-05   0.50008597   0.03132227            0    0.4687637     1.615005    2.1150909    5.6668013 
 3120000    1.0191635 -6.7727924e-05   0.59949913  0.014153163            0   0.58534597    1.5032661    2.1027652   -2.5207944 
 3125000     1.045888 2.1836576e-05   0.53510477  0.029642785            0   0.50546199    1.5426848    2.0777895    3.5684998 
 3130000   0.99737547 -1.5744352e-05    0.5986057  0.069333525            0   0.52927218    1.4711288    2.0697345   0.99492007 
 3135000    1.0988555 2.0567359e-06   0.43680325  0.018901899            0   0.41790135    1.6208119    2.0576152    2.1980217 
 3140000    1.0004848 5.0346685e-05    0.5363013  0.061448526            0   0.47485277    1.4757151    2.0120164    5.4490168 
 3145000    1.0561055 -6.7498323e-05   0.47957388  0.028636276            0    0.4509376    1.5577556    2.0373295    -2.570556 
 3150000    1.0806976 8.8266732e-05   0.45885451  0.049186617            0   0.40966789     1.594029    2.0528835    8.0785591 
 3155000     1.081406 1.5281111e-05   0.45684723   0.04167432            0   0.41517291    1.5950739    2.0519211    3.0951117 
 3160000     1.062575 5.9958491e-05    0.4982882  0.015006969            0   0.48328123    1.5672981    2.0655863    6.1587526 
 3165000   0.97556635 -1.7872331e-05   0.62687608   0.02016863            0   0.60670745    1.4389604    2.0658364   0.84575196 
 3170000    1.0018752 -0.0001067458   0.56369658  0.028526903            0   0.53516968    1.4777659    2.0414625   -5.2457177 
 3175000    1.0185013 8.4657606e-05   0.51394519  0.065042336            0   0.44890286    1.5022894    2.0162346    7.7955272 
 3180000    1.0862555 2.0734531e-05   0.43744882   0.03777321            0   0.39967561    1.6022269    2.0396757     3.455153 
 3185000   0.94947353 -0.00010541856   0.60215271  0.043428942            0   0.55872377    1.4004735    2.0026262   -5.1939472 
 3190000    1.0332579 -5.8111575e-06   0.46987393  0.043081315            0   0.42679261    1.5240554    1.9939294     1.597221 
 3195000   0.91959198 -0.00017462824   0.61261104 0.0056150506            0   0.60699599    1.3563982    1.9690092   -9.9522785 
 3200000   0.96851635 3.5214858e-05   0.52221935  0.044281167            0   0.47793818    1.4285616     1.950781     4.354782 
 3205000   0.89763543 -4.2375107e-05   0.59451506  0.016239052            0   0.57827601    1.3240123    1.9185273  -0.97427996 
 3210000   0.92607174 -1.2184434e-05   0.52789919  0.010719736            0   0.51717946    1.3659558     1.893855    1.0620643 
 3215000    0.9765625 -1.6925502e-05   0.48238857  0.035818782            0   0.44656979    1.4404297    1.9228183   0.76737065 
 3220000   0.96822678 4.016172e-06   0.52770171  0.040362296            0   0.48733942    1.4281345    1.9558362    2.2300069 
 3225000   0.98128059 1.2692551e-05   0.51447145  0.027183412            0   0.48728803    1.4473889    1.9618603    2.8283385 
 3230000   0.97875906 -7.0417733e-05   0.50016307  0.029737436            0   0.47042563    1.4436696    1.9438327   -2.8633512 
 3235000    1.0182733 -4.3644173e-06   0.45345495  0.029098528            0   0.42435642    1.5019531     1.955408    1.6574638 
 3240000    1.0718018 6.5644446e-05   0.40970216  0.011591315            0   0.39811084    1.5809076    1.9906098    6.4719373 
 3245000   0.95501335 -0.00010214106   0.56594422  0.029884516            0    0.5360597    1.4086447    1.9745889   -4.9982405 
 3250000   0.93777772 9.4035766e-05   0.57359363    0.0708961            0   0.50269753    1.3832221    1.9568158    8.3763241 
 3255000    1.0499089 -5.7884106e-05    0.4488187  0.019832079            0   0.42898662    1.5486156    1.9974343   -1.9541206 
 3260000   0.97571519 2.3097649e-05   0.52493167  0.022875915            0   0.50205576    1.4391799    1.9641116    3.5409111 
 3265000    1.0039705 9.8045529e-05   0.47338507  0.010778316            0   0.46260675    1.4808564    1.9542415     8.647483 
 3270000   0.90306881 -7.9767872e-05   0.60025001  0.032909834            0   0.56734018    1.3320265    1.9322765   -3.5132102 
 3275000    1.0113059 -5.0223907e-05   0.44716449 0.0028769288            0   0.44428756    1.4916762    1.9388407    -1.489778 
 3280000   0.93893504 -3.2289176e-05   0.53005893  0.018666781            0   0.51139215    1.3849292    1.9149881  -0.28928631 
 3285000    1.0158097 0.00013815709    0.3998471  0.015145543            0   0.38470156    1.4983193    1.8981664    11.329691 
 3290000   0.97757443 7.2668757e-05   0.44714569  0.045133641            0   0.40201205    1.4419223     1.889068    6.8499218 
 3295000   0.98381293 -0.00011815109    0.4291856 0.0010528368            0   0.42813276    1.4511241    1.8803097   -6.1854717 
 3300000   0.90758805 -3.5148238e-05    0.5423782  0.027490832            0   0.51488737    1.3386924    1.8810706  -0.51838246 
 3305000   0.95597502 -2.2937404e-05   0.44449933 0.0076737168            0   0.43682561    1.4100632    1.8545625   0.28870234 
 3310000   0.88827793 -6.5183267e-05   0.55663041    0.0435963            0   0.51303411    1.3102099    1.8668404    -2.583004 
 3315000    1.0206282 2.0159966e-05   0.36202056 0.0036036256            0   0.35841693    1.5054266    1.8674471    3.2437008 
 3320000    0.8847271 -0.00013418576   0.53080917  0.039960289            0   0.49084888    1.3049725    1.8357816   -7.3246331 
 3325000   0.93441334 -6.8725509e-05   0.45675336  0.043141905            0   0.41361146    1.3782597     1.835013   -2.8566484 
 3330000   0.96999462 -9.7851585e-05   0.39120095  0.031625028            0   0.35957592    1.4307421     1.821943   -4.8580585 
 3335000   0.96877105 -3.5816958e-05   0.40059315  0.023821413            0   0.37677174    1.4289373    1.8295305   -0.6155739 
 3340000   0.95165011 7.2235169e-05   0.42736486  0.045171755            0    0.3821931    1.4036839    1.8310488     6.762303 
 3345000    0.8830638 -1.0561621e-05   0.52180563  0.051426166            0   0.47037947    1.3025191    1.8243247    1.1033181 
 3350000   0.92104059 -5.9748063e-05   0.45206359 0.0048633171            0   0.44720027    1.3585349    1.8105985   -2.2682026 
 3355000   0.94548299 1.4296456e-05   0.39682725 0.0059030504            0    0.3909242    1.3945874    1.7914147     2.767386 
 3360000   0.91241593 -1.4781587e-06   0.44059481  0.017538836            0   0.42305597    1.3458135    1.7864083    1.6854993 
 3365000   0.96990652 -3.0265588e-06   0.37906856  0.010883659            0    0.3681849    1.4306121    1.8096807    1.6030676 
 3370000    1.0212951 -4.9727142e-06   0.30890976            0            0   0.30890976    1.5064103      1.81532    1.4758494 
 3375000   0.88087993 -4.1306964e-05   0.50461005  0.012342331            0   0.49226771    1.2992979    1.8039079   -1.0159808 
 3380000   0.92460362 4.8998831e-06   0.41492369  0.026779897            0    0.3881438    1.3637903     1.778714    2.1132127 
 3385000   0.97423398 1.4601159e-06   0.33953766 0.00012263049            0   0.33941503    1.4369951    1.7765328      1.87621 
 3390000   0.90029675 -2.9760544e-05   0.46318523 0.0095520239            0    0.4536332    1.3279377    1.7911229  -0.24053019 
 3395000   0.99171172 1.1005466e-05   0.36616854  0.016175038            0    0.3499935    1.4627748    1.8289433    2.5802498 
 3400000   0.94698775 -5.0160193e-05   0.44594554  0.044256923            0   0.40168861    1.3968069    1.8427525   -1.5815167 
 3405000    0.9228232 0.00010234605   0.48825925  0.019011422            0   0.46924782    1.3611642    1.8494235    8.8362471 
 3410000   0.99519826 4.2623981e-05     0.358579  0.018328999            0      0.34025    1.4679174    1.8264964    4.7362935 
 3415000   0.90920044 -1.852068e-05   0.49499293  0.034355949            0   0.46063699    1.3410707    1.8360636   0.57171853 
 3420000    1.0097858 7.0301737e-05   0.34090026 0.0018923157            0   0.33900795    1.4894341    1.8303344    6.6295996 
 3425000    0.9039628 -6.6154449e-05   0.51935589 0.0046510879            0    0.5147048    1.3333451     1.852701   -2.6634427 
 3430000   0.99046054 -4.5473788e-05   0.39721034 0.0045490625            0   0.39266127    1.4609293    1.8581396   -1.2462043 
 3435000    1.0063839 2.9658308e-05   0.36277966 0.0041081558            0   0.35867151    1.4844163     1.847196    3.8718698 
 3440000   0.89085855 5.614296e-05   0.52660418 0.0085171282            0   0.51808706    1.3140164    1.8406206    5.6733133 
 3445000   0.98916069 -4.2314306e-06   0.38570928  0.027707439            0   0.35800184     1.459012    1.8447213    1.5558556 
 3450000   0.90854078 -3.9389712e-05     0.510349  0.039329737            0   0.47101926    1.3400976    1.8504466  -0.83855767 
 3455000   0.89121183 9.3204751e-05   0.51894747  0.029592426            0   0.48935504    1.3145374    1.8334849    8.1962626 
 3460000   0.91780454 6.5085103e-05   0.45146411  0.019511382            0   0.43195273    1.3537617    1.8052258    6.2483688 
 3465000   0.92540268 -3.3700651e-05   0.45749909 0.0018784563            0   0.45562064     1.364969     1.822468  -0.47816309 
 3470000   0.93809601 -3.4774581e-05   0.44411813 0.0010008713            0   0.44311726    1.3836916    1.8278097  -0.54613498 
 3475000   0.99925158 1.4882534e-05   0.39597738 0.0092896609            0   0.38668772    1.4738961    1.8698735    2.8858545 
 3480000   0.99707261 5.6981137e-05      0.40886  0.015050879            0   0.39380912    1.4706821    1.8795421    5.7694544 
 3485000   0.93492405 -3.2816228e-05   0.51916913  0.045679649            0   0.47348948     1.379013    1.8981821  -0.34207241 
 3490000   0.92528655 -7.867847e-05   0.54023133 0.0073853394            0   0.53284599    1.3647977     1.905029   -3.4660879 
 3495000   0.94134593 4.067061e-05   0.50320888 0.0096997547            0   0.49350912    1.3884852    1.8916941    4.6681411 
 3500000   0.90250287 6.8018928e-05   0.54839862  0.021580611            0   0.52681801    1.3311917    1.8795904    6.5230159 
 3505000   0.92993842 -3.0103439e-06   0.51150808   0.00815445            0   0.50335363    1.3716592    1.8831672    1.6776611 
 3510000    1.0188471 -3.1941528e-05   0.36039898 0.0082308183            0   0.35216816    1.5027995    1.8631985  -0.31734311 
 3515000   0.93100156 7.6693696e-06   0.49530631  0.017929662            0   0.47737665    1.3732273    1.8685336    2.3920959 
 3520000   0.94752378 -6.3503529e-05   0.46629833  0.014567566            0   0.45173077    1.3975976    1.8638959   -2.4712783 
 3525000   0.97128894 8.1048845e-05   0.42492996 0.0038929547            0     0.421037    1.4326512    1.8575811    7.3905157 
 3530000   0.99660201 -2.3286138e-06    0.4185513 0.0017608702            0   0.41679043     1.469988    1.8885393    1.7295726 
 3535000   0.97685543 8.0257764e-05   0.42940022 0.0027121465            0   0.42668808    1.4408618     1.870262     7.349192 
 3540000   0.96078777 -3.3447877e-05   0.43738453  0.044303859            0   0.39308067     1.417162    1.8545465   -0.4288286 
 3545000   0.89981181 9.5480273e-07   0.51354529  0.017702272            0   0.49584302    1.3272224    1.8407677    1.9059489 
 3550000   0.95237881 4.399217e-05   0.45213746  0.029075052            0   0.42306241    1.4047587    1.8568962     4.860095 
 3555000   0.97254618 -2.707745e-05   0.42720859   0.01334337            0   0.41386522    1.4345056    1.8617142  0.013226949 
 3560000    1.0031982 1.4895369e-05      0.39745 0.00065806156            0   0.39679194    1.4797173    1.8771673    2.8940245 
 3565000   0.92300664 -5.2740898e-06   0.51423271   0.01102921            0    0.5032035    1.3614348    1.8756675     1.515623 
 3570000   0.92803463 3.1563889e-05   0.49531974 0.0015676957            0   0.49375204    1.3688511    1.8641708    4.0189323 
 3575000   0.90469439 -5.6023389e-05   0.50201951  0.038370321            0   0.46364919    1.3344242    1.8364437   -1.9880863 
 3580000   0.97393929 2.0763053e-05    0.3750634 0.0052774311            0   0.36978597    1.4365605    1.8116239    3.2290483 
 3585000   0.91143854 -4.2303643e-05   0.51474884 0.0099929727            0   0.50475587    1.3443718    1.8591207    -1.028808 
 3590000   0.93851548 -2.9005391e-05   0.44516696  0.012480258            0    0.4326867    1.3843103    1.8294773  -0.15062406 
 3595000   0.92970399 -5.525766e-06   0.48515424 0.0044035523            0   0.48075069    1.3713134    1.8564676     1.479242 
 3600000     1.014254 -6.4387187e-06   0.40088528  0.003044081            0    0.3978412    1.4960247      1.89691    1.4573601 
 3605000   0.98018146 -7.2762468e-05   0.46641216  0.018311062            0    0.4481011    1.4457676    1.9121798   -3.0550713 
 3610000   0.90734932 -0.00014646722   0.55665147  0.020923215            0   0.53572826    1.3383402    1.8949917   -8.1038369 
 3615000   0.96938089 -8.7033033e-05   0.45466672 0.0016350797            0   0.45303164    1.4298368    1.8845035   -4.0569515 
 3620000   0.99147221 1.8152475e-05    0.4318776  0.019807517            0   0.41207008    1.4624215    1.8942991     3.133508 
 3625000   0.91952126 -4.8613265e-05   0.53777535  0.023185875            0   0.51458947    1.3562939    1.8940692   -1.4245963 
 3630000   0.99363811 1.4518117e-05   0.41299875            0            0   0.41299875    1.4656162     1.878615    2.8697184 
 3635000   0.88317238 -2.0529964e-05   0.55440325  0.034690278            0   0.51971297    1.3026793    1.8570825   0.45557028 
 3640000   0.92792885 3.5942871e-05   0.47344479  0.013603065            0   0.45984173    1.3686951    1.8421399    4.2958399 
 3645000    0.8914212 -5.4172145e-05   0.50593605  0.018302922            0   0.48763313    1.3148463    1.8207823   -1.8773694 
 3650000   0.93259611 2.8375757e-05   0.42501673 0.0027894547            0   0.42222728    1.3755793     1.800596    3.7377143 
 3655000   0.94522969 -7.047553e-05   0.42626494  0.014855079            0   0.41140986    1.3942138    1.8204787   -2.9906508 
 3660000   0.89650776 4.8635098e-05   0.48814572 0.0025191451            0   0.48562657    1.3223489    1.8104947    5.1306507 
 3665000   0.91564171 2.0109473e-05   0.47724928 0.0090082706            0   0.46824101    1.3505715    1.8278208    3.2006275 
 3670000   0.94271547 -3.4313035e-06   0.41809669 0.0046133377            0   0.41348335    1.3905053     1.808602    1.5743584 
 3675000   0.97933391 4.8410454e-05   0.36447382  0.031336127            0   0.33313769    1.4445175    1.8089913    5.1138117 
 3680000   0.86865487 0.00019782891    0.5077036  0.013896337            0   0.49380726    1.2812659    1.7889695     15.29409 
 3685000   0.97231916 -4.9636311e-05   0.35291015  0.022905711            0   0.33000444    1.4341708    1.7870809   -1.6014246 
 3690000   0.88517815 7.1847709e-05   0.42338611  0.045476303            0    0.3779098    1.3056378    1.7290239    6.6338275 
 3695000   0.94411202 2.4640185e-05    0.3570359  0.026928337            0   0.33010756    1.3925652    1.7496011    3.4317044 
 3700000   0.86601006 2.5143687e-05   0.45161216  0.016350738            0   0.43526142    1.2773648     1.728977    3.4454527 
 3705000   0.86292295 6.1005196e-05   0.43016403 0.0032243996            0   0.42693963    1.2728114    1.7029754    5.8675968 
 3710000    0.9103309 9.6641689e-05   0.36470864 0.0071218108            0   0.35758683    1.3427381    1.7074467    8.3048527 
 3715000   0.88733558 6.6666906e-06   0.36288315  0.016979762            0   0.34590339      1.30882    1.6717031    2.1268159 
 3720000   0.81940959 -7.0537102e-05   0.44461188  0.023920476            0   0.42069141    1.2086292     1.653241   -3.1620918 
 3725000   0.86908155 3.4824083e-05   0.37300942   0.04180473            0   0.33120469    1.2818953    1.6549047    4.0322288 
 3730000    0.8669028 -2.5030214e-05   0.38739655  0.041945923            0   0.34545062    1.2786816    1.6660782  -0.04265109 
 3735000   0.81845959 4.0353182e-05   0.46136092  0.027397679            0   0.43396324    1.2072279    1.6685888     4.423366 
 3740000   0.91474486 0.00014195663   0.32685506  0.027875461            0    0.2989796    1.3492487    1.6761037     11.36701 
 3745000   0.87672172 -4.7869856e-06   0.37972664  0.004299768            0   0.37542687    1.2931645    1.6728912    1.3460996 
 3750000   0.85928116 -1.9101526e-05   0.39078944  0.015625705            0   0.37516374    1.2674397    1.6582292   0.35423162 
 3755000     0.847504 -5.7279487e-06    0.3981468 5.9887019e-05            0   0.39808691    1.2500684    1.6482152    1.2571872 
 3760000   0.82593326 1.1478213e-05   0.45162427 0.0067083221            0   0.44491595    1.2182516    1.6698758    2.4534552 
 3765000   0.84007865 1.8278501e-05   0.41887752   0.01789718            0   0.40098034     1.239116    1.6579935    2.9058059 
 3770000   0.85111504 4.1784538e-05   0.42625783  0.032158905            0   0.39409893    1.2553947    1.6816525    4.5341437 
 3775000   0.76775752 -7.6226036e-05   0.56454301  0.081674954            0   0.48286806    1.1324423    1.6969854   -3.5067121 
 3780000   0.81787372 -3.5941005e-06   0.44110224   0.04847637            0   0.39262587    1.2063637     1.647466    1.4021087 
 3785000   0.84850726 9.1938899e-05   0.39410309  0.024930569            0   0.36917252    1.2515482    1.6456513    7.9220135 
 3790000    0.8494425 6.9635244e-05   0.40399022 0.0051961724            0   0.39879404    1.2529277    1.6569179    6.4106839 
 3795000    0.7992545 -0.00020657268    0.4760329 0.0060168671            0   0.47001604    1.1789004    1.6549333   -12.447095 
 3800000   0.87648252 -2.6646007e-05   0.40596361 0.0046535609            0   0.40131005    1.2928117    1.6987753  -0.12025876 
 3805000   0.88661474 -3.1414654e-05   0.37051299  0.023984684            0   0.34652831    1.3077567    1.6782697  -0.46630398 
 3810000   0.85846396 -1.8103869e-05   0.38753776            0            0   0.38753776    1.2662343    1.6537721   0.41788132 
 3815000   0.77667033 -1.1379852e-06   0.50158725 0.00041820599            0   0.50116904    1.1455887     1.647176    1.5694895 
 3820000   0.81210715 -1.1907861e-05   0.44292916  0.010117133            0   0.43281203     1.197858    1.6407872   0.82787727 
 3825000   0.83260454 -7.1214448e-05     0.411181  0.014354242            0   0.39682675    1.2280917    1.6392727   -3.2223003 
 3830000   0.80485698 5.5095674e-05   0.46610813  0.046262064            0   0.41984607    1.1871641    1.6532722    5.4144702 
 3835000   0.78164926 2.8796105e-05   0.52751729  0.016515989            0   0.51100131    1.1529327      1.68045    3.6462641 
 3840000   0.84602466 -1.2347099e-06   0.42804285 0.0037665297            0   0.42427632    1.2478864    1.6759292    1.5916397 
 3845000    0.8485841 8.5701212e-07   0.42626689 0.0056638692            0   0.42060302    1.2516616    1.6779284    1.7364338 
 3850000   0.79510117 -4.751038e-05   0.49614088 0.0035129926            0   0.49262789    1.1727742    1.6689151   -1.5744602 
 3855000   0.85136453 7.6548668e-05   0.45278591 0.0038203007            0   0.44896561    1.2557627    1.7085486     6.934271 
 3860000   0.82071351 -7.7114647e-05   0.51102738  0.039943913            0   0.47108347    1.2105524    1.7215798   -3.5427801 
 3865000   0.85158961 4.8961712e-05   0.48725267 0.0039137015            0   0.48333897    1.2560947    1.7433473    5.0858002 
 3870000   0.85162651 -0.00012579715   0.47381067  0.009614294            0   0.46419638    1.2561491    1.7299598   -6.8577926 
 3875000   0.90582443 -8.4082504e-05   0.43140756  0.012168635            0   0.41923893     1.336091    1.7674986   -3.9725337 
 3880000   0.87809168 0.00015947309   0.47824231  0.050689927            0   0.42755238    1.2951852    1.7734275    12.660124 
 3885000   0.90265844 -1.1702223e-06   0.42577904 0.0034551809            0   0.42232386    1.3314212    1.7572002    1.6773131 
 3890000   0.93956099 1.0395982e-05   0.41725307  0.033638487            0   0.38361458    1.3858525    1.8031055    2.5128045 
 3895000   0.88799695 3.8549138e-05   0.48816415  0.045420166            0   0.44274398    1.3097955    1.7979596    4.4295808 
 3900000   0.97414969 4.558735e-05   0.33022418 0.0065356445            0   0.32368853    1.4368708     1.767095    4.8791914 
 3905000   0.92005064 6.2366808e-05   0.41549797 0.0042849546            0   0.41121302    1.3570747    1.7725727    6.0301468 
 3910000   0.86355708 -1.2259616e-05   0.47659658  0.017191276            0   0.45940531    1.2737467    1.7503433   0.91342015 
 3915000   0.84151598 9.051158e-05     0.498784  0.013004351            0   0.48577965    1.2412361    1.7400201    7.9189439 
 3920000   0.90056626 6.807814e-05   0.41725338  0.019121058            0   0.39813232    1.3283352    1.7455886    6.3930563 
 3925000   0.89309231 4.162908e-05   0.40443035 0.0093985331            0   0.39503182    1.3173112    1.7217415      4.56362 
 3930000   0.93436767 -2.6754705e-06   0.35880927  0.021412465            0   0.33739681    1.3781923    1.7370016    1.5543561 
 3935000   0.84004749 -8.7162453e-05   0.47045598  0.013912346            0   0.45654364      1.23907     1.709526   -4.2407641 
 3940000   0.84626038 1.2380603e-05   0.47276759  0.025349891            0    0.4474177    1.2482341    1.7210016    2.5661842 
 3945000   0.93962113 -1.4555605e-05   0.34201157 0.0040885954            0   0.33792298    1.3859412    1.7279527   0.73429013 
 3950000   0.87277308 -3.5961063e-05    0.4324989  0.048768272            0   0.38373063    1.2873403    1.7198392  -0.73510271 
 3955000    0.8723519 4.4555062e-05   0.42611575   0.00851752            0   0.41759823    1.2867191    1.7128348    4.7544604 
 3960000   0.94672486 6.112131e-05    0.3000861  0.013682497            0    0.2864036    1.3964192    1.6965053    5.8690534 
 3965000   0.84560075 9.0315585e-06   0.45760974  0.022252267            0   0.43535748    1.2472611    1.7048709    2.3214252 
 3970000   0.87648437 -4.4780698e-05   0.40838074  0.006894555            0   0.40148619    1.2928144    1.7011952   -1.3558338 
 3975000   0.86977204 2.6581623e-06   0.42551622  0.030620781            0   0.39489544    1.2829138      1.70843    1.8898939 
 3980000   0.87488666 -2.9535927e-05   0.43268543 0.0059819006            0   0.42670353    1.2904578    1.7231433  -0.29317604 
 3985000    0.9005003 -1.1736261e-05   0.40354913  0.010599274            0   0.39294985    1.3282379    1.7317871   0.93059168 
 3990000   0.88459715 -4.4966937e-05   0.42184074  0.046045695            0   0.37579504    1.3047808    1.7266215   -1.3431214 
 3995000   0.90756712 5.6019554e-06   0.39899338  0.041335544            0   0.35765784    1.3386615    1.7376549    2.1200817 
 4000000   0.96767391 9.0499032e-05   0.33951743  0.011004406            0   0.32851303     1.427319    1.7668365    7.9449037 
Loop time of 202.135 on 1 procs for 2000000 steps with 60 atoms

Performance: 854873.439 tau/day, 9894.369 timesteps/s
99.7% CPU use with 1 MPI tasks x no OpenMP threads

MPI task timing breakdown:
Section |  min time  |  avg time  |  max time  |%varavg| %total
---------------------------------------------------------------
Pair    | 0.73529    | 0.73529    | 0.73529    |   0.0 |  0.36
Bond    | 1.8586     | 1.8586     | 1.8586     |   0.0 |  0.92
Neigh   | 170.58     | 170.58     | 170.58     |   0.0 | 84.39
Comm    | 24.177     | 24.177     | 24.177     |   0.0 | 11.96
Output  | 0.039275   | 0.039275   | 0.039275   |   0.0 |  0.02
Modify  | 4.138      | 4.138      | 4.138      |   0.0 |  2.05
Other   |            | 0.6084     |            |       |  0.30

Nlocal:        60.0000 ave          60 max          60 min
Histogram: 1 0 0 0 0 0 0 0 0 0
Nghost:        0.00000 ave           0 max           0 min
Histogram: 1 0 0 0 0 0 0 0 0 0
Neighs:        17.0000 ave          17 max          17 min
Histogram: 1 0 0 0 0 0 0 0 0 0

Total # of neighbors = 17
Ave neighs/atom = 0.28333333
Ave special neighs/atom = 5.8000000
Neighbor list builds = 37267
Dangerous builds = 0
write_restart restart.rerun.1
System init for write_restart ...
WARNING: Communication cutoff 1.4200000000000002 is shorter than a bond length based estimate of 1.8. This may lead to errors. (../comm.cpp:667)
#--------------End of Input file ------------------
Total wall time: 0:03:22
