LAMMPS (29 Oct 2020)
###################### polyelectrolyte complexation ######################
clear

#Initialization
#------------------------------------
units				lj
dimension			3
atom_style			full
boundary			p p p

#Atom Definition
#-------------------------------------
read_data			data.complexation
Reading data file ...
  orthogonal box = (-80.000000 -80.000000 -80.000000) to (80.000000 80.000000 80.000000)
  1 by 1 by 1 MPI processor grid
  reading atoms ...
  40 atoms
  scanning bonds ...
  1 = max bonds/atom
  reading bonds ...
  39 bonds
Finding 1-2 1-3 1-4 neighbors ...
  special bond factors lj:    0.0      0.0      0.0     
  special bond factors coul:  0.0      0.0      0.0     
     2 = max # of 1-2 neighbors
     2 = max # of 1-3 neighbors
     4 = max # of 1-4 neighbors
     6 = max # of special neighbors
  special bonds CPU = 0.000 seconds
  read_data CPU = 0.003 seconds

#Force definition
#----------------------------------------------
#Bond definition
bond_style			harmonic
bond_coeff			1 5000 1
#Pair definition
special_bonds	lj 0 1 1
Finding 1-2 1-3 1-4 neighbors ...
  special bond factors lj:    0.0      1.0      1.0     
  special bond factors coul:  0.0      0.0      0.0     
     2 = max # of 1-2 neighbors
     2 = max # of 1-3 neighbors
     4 = max # of 1-4 neighbors
     6 = max # of special neighbors
  special bonds CPU = 0.000 seconds
pair_style		 lj/cut 1.12
pair_modify 		 shift yes
pair_coeff	1 1 1 1 1.12

#Timestep etc
#--------------------------------------------
timestep		1e-05
run_style		verlet
velocity		all	create	1	10

#Fix
#---------------------------------------
group polymers type 1
40 atoms in group polymers
fix 1 all nve
fix 2 all langevin 1	1	10	10
fix 3 polymers recenter INIT INIT INIT units box

#Dump
#------------------------------------------------
compute  1 all gyration
variable  myRg2 equal c_1
variable  i equal step
fix  mythermofile all print 5000 "$i ${myRg2}" file radius_of_gyration.dat screen no

thermo_style		 custom step temp press pe evdwl ecoul ebond ke etotal enthalpy
thermo 	5000
dump	3 all custom 5000 dump.lammpstrj id mol type xu yu zu
run		20000000
Neighbor list info ...
  update every 1 steps, delay 10 steps, check yes
  max neighbors/atom: 2000, page size: 100000
  master list distance cutoff = 1.42
  ghost atom cutoff = 1.42
  binsize = 0.71, bins = 226 226 226
  1 neighbor lists, perpetual/occasional/extra = 1 0 0
  (1) pair lj/cut, perpetual
      attributes: half, newton on
      pair build: half/bin/newton
      stencil: half/bin/3d/newton
      bin: standard
WARNING: Communication cutoff 1.4200000000000002 is shorter than a bond length based estimate of 1.8. This may lead to errors. (../comm.cpp:667)
Per MPI rank memory allocation (min/avg/max) = 54.71 | 54.71 | 54.71 Mbytes
Step Temp Press PotEng E_vdwl E_coul E_bond KinEng TotEng Enthalpy 
       0            1 9.5214844e-06            0            0            0            0       1.4625       1.4625       2.4375 
    5000   0.80677291 -0.00012819697   0.26466669            0            0   0.26466669    1.1799054    1.4445721   -11.682798 
   10000   0.50912117 -0.00028749126   0.70815142            0            0   0.70815142   0.74458972    1.4527411   -27.986364 
   15000   0.72892907 -0.00011288503   0.42286747            0            0   0.42286747    1.0660588    1.4889262   -10.070501 
   20000   0.81695906 1.6628906e-05   0.30553214            0            0   0.30553214    1.1948026    1.5003348    3.2031348 
   25000   0.76178859 -0.00012274227   0.39054784            0            0   0.39054784    1.1141158    1.5046636   -11.064145 
   30000   0.74319391 -0.00013835429    0.3829433            0            0    0.3829433    1.0869211    1.4698644   -12.697615 
   35000   0.87770072 4.5248243e-05   0.21359432            0            0   0.21359432    1.2836373    1.4972316    6.1306517 
   40000   0.90445039 7.7611597e-05   0.23394217            0            0   0.23394217    1.3227587    1.5567009    9.5041284 
   45000   0.88691007 -6.5279816e-05   0.25839994            0            0   0.25839994     1.297106    1.5555059   -5.1291472 
   50000   0.78675338 -7.02485e-05   0.38793746            0            0   0.38793746    1.1506268    1.5385643   -5.6548822 
   55000   0.77735439 0.00011655995   0.40975909            0            0   0.40975909    1.1368808    1.5466399    13.482379 
   60000   0.84105213 8.0604117e-06    0.3198141            0            0    0.3198141    1.2300387    1.5498528     2.375239 
   65000    0.6578835 -0.00011303385   0.58551914            0            0   0.58551914   0.96215462    1.5476738   -10.026992 
   70000   0.75630857 7.2790706e-05   0.44109764            0            0   0.44109764    1.1061013    1.5471989    9.0009673 
   75000   0.83705895 5.3215063e-05   0.29152902            0            0   0.29152902    1.2241987    1.5157277    6.9649502 
   80000   0.78991129 -0.00011733462   0.41316046            0            0   0.41316046    1.1552453    1.5684057    -10.44666 
   85000   0.85273905 8.5635578e-05   0.33662401            0            0   0.33662401    1.2471309    1.5837549    10.352838 
   90000   0.90079013 2.904695e-05   0.24878642            0            0   0.24878642    1.3174056     1.566192    4.5405997 
   95000   0.79116356 -0.00011368264   0.40364388            0            0   0.40364388    1.1570767    1.5607206   -10.080382 
  100000   0.70198593 0.00015232665   0.53302023            0            0   0.53302023    1.0266544    1.5596747    17.157924 
  105000   0.75557288 -7.867501e-05   0.44951858            0            0   0.44951858    1.1050253    1.5545439   -6.5017771 
  110000   0.80407743 -1.9244359e-05   0.36290729            0            0   0.36290729    1.1759632    1.5388705  -0.43175185 
  115000   0.79176919 9.453657e-05   0.38427239            0            0   0.38427239    1.1579624    1.5422348     11.22278 
  120000   0.79406704 -0.00011246888   0.38480464            0            0   0.38480464     1.161323    1.5461277   -9.9706854 
  125000   0.87019988 2.2815482e-05   0.27799619            0            0   0.27799619    1.2726673    1.5506635    3.8869689 
  130000   0.81449507 7.5505469e-05   0.33643395            0            0   0.33643395     1.191199     1.527633    9.2593931 
  135000   0.70897934 -0.00012906563    0.4701177            0            0    0.4701177    1.0368823        1.507   -11.709321 
  140000   0.80398366 7.0875198e-05   0.34599208            0            0   0.34599208    1.1758261    1.5218182    8.7794384 
  145000   0.87583064 -2.8964786e-05   0.26019284            0            0   0.26019284    1.2809023    1.5410951    -1.424899 
  150000   0.86144691 -5.7614751e-05   0.31204684            0            0   0.31204684    1.2598661    1.5719129   -4.3278375 
  155000   0.82838422 0.00012386207   0.37066419            0            0   0.37066419    1.2115119    1.5821761    14.265652 
  160000   0.81868441 -0.00013050767   0.36324077            0            0   0.36324077     1.197326    1.5605667   -11.803419 
  165000   0.83923029 0.00014667632   0.36116593            0            0   0.36116593    1.2273743    1.5885402    16.608195 
  170000    0.8397342 -9.8783214e-05   0.39740621            0            0   0.39740621    1.2281113    1.6255175   -8.4898836 
  175000   0.80989361 0.0001023497   0.40442731            0            0   0.40442731    1.1844694    1.5888967    12.069506 
  180000   0.74894565 -8.3363995e-05    0.4746858            0            0    0.4746858     1.095333    1.5700188   -6.9664543 
  185000    0.7194625 0.00010007186   0.52096201            0            0   0.52096201    1.0522139    1.5731759    11.820534 
  190000   0.71783799 -5.4166935e-05   0.49204768            0            0   0.49204768    1.0498381    1.5418857   -4.0048085 
  195000   0.79203771 2.5114749e-05   0.38040211            0            0   0.38040211    1.1583552    1.5387573    4.1105076 
  200000   0.84403794 1.7223542e-05   0.30884674            0            0   0.30884674    1.2344055    1.5432522    3.3069429 
  205000   0.88114289 -2.0914863e-05   0.28675243            0            0   0.28675243    1.2886715    1.5754239  -0.56625812 
  210000   0.83842043 6.7650607e-05   0.38363915            0            0   0.38363915    1.2261899     1.609829    8.5372512 
  215000   0.77617071 -3.342262e-05   0.48335539            0            0   0.48335539    1.1351497     1.618505   -1.8039712 
  220000   0.75303636 1.9264184e-05   0.52049309            0            0   0.52049309    1.1013157    1.6218088    3.5944612 
  225000   0.74742428 -5.6218099e-05   0.55196285            0            0   0.55196285     1.093108    1.6450709   -4.1116624 
  230000   0.75108894 0.0001083968   0.55081256            0            0   0.55081256    1.0984676    1.6492801    12.749113 
  235000   0.72929369 -8.4002197e-05   0.55620112            0            0   0.55620112     1.066592    1.6227931   -6.9790319 
  240000   0.81554237 6.9120958e-05   0.41174585            0            0   0.41174585    1.1927307    1.6044766    8.6824626 
  245000    0.8664281 1.950776e-05   0.32349449            0            0   0.32349449    1.2671511    1.5906456    3.5882402 
  250000   0.89690864 -4.7348963e-05     0.292266            0            0     0.292266    1.3117289    1.6039949   -3.2445389 
  255000   0.89288865 5.5412081e-05    0.3293291            0            0    0.3293291    1.3058496    1.6351787    7.3093759 
  260000   0.80059391 -0.00011245011   0.47830029            0            0   0.47830029    1.1708686    1.6491689   -9.8657228 
  265000   0.83174269 3.7050394e-05   0.43676963            0            0   0.43676963    1.2164237    1.6531933    5.4471537 
  270000   0.83451061 1.5157117e-05   0.48518163            0            0   0.48518163    1.2204718    1.7056534    3.2577422 
  275000   0.86544057 -8.2457288e-05   0.45279502            0            0   0.45279502    1.2657068    1.7185019   -6.7251244 
  280000   0.87492068 0.00013013911   0.38706633            0            0   0.38706633    1.2795715    1.6666378    14.992882 
  285000   0.84753931 -0.00015065061   0.39568668            0            0   0.39568668    1.2395262    1.6352129   -13.791409 
  290000   0.76497964 9.1784264e-05    0.4777131            0            0    0.4777131    1.1187827    1.5964958    10.995205 
  295000   0.82310038 -2.9772023e-05   0.37983413            0            0   0.37983413    1.2037843    1.5836184   -1.4650368 
  300000   0.88041544 1.9232974e-06   0.29322654            0            0   0.29322654    1.2876076    1.5808341    1.7777798 
  305000   0.89429345 5.6941334e-05   0.28809596            0            0   0.28809596    1.3079042    1.5960001    7.4267927 
  310000   0.84842545 -2.7241381e-05   0.37156584            0            0   0.37156584    1.2408222    1.6123881   -1.1771293 
  315000   0.81101159 -1.5046935e-05   0.39383509 0.0093050221            0   0.38453006    1.1861044    1.5799395  0.039133361 
  320000   0.76806136 -1.1092551e-05   0.44954984  0.028164167            0   0.42138567    1.1232897    1.5728396   0.43696236 
  325000   0.78437652 0.00013185392    0.4141568  0.016182768            0   0.39797403    1.1471507    1.5613075    15.063149 
  330000   0.81460013 -6.696258e-05   0.38189283  0.002419125            0    0.3794737    1.1913527    1.5732455   -5.2837226 
  335000   0.76084106 1.594153e-05   0.48675704            0            0   0.48675704    1.1127301    1.5994871    3.2318997 
  340000    0.8901229 -5.25125e-05   0.30871523            0            0   0.30871523    1.3018047      1.61052     -3.76676 
  345000   0.74523079 1.7383724e-05   0.54239449            0            0   0.54239449       1.0899    1.6322945    3.4123879 
  350000   0.75901825 -4.2924892e-05   0.45720881            0            0   0.45720881    1.1100642     1.567273    -2.828236 
  355000   0.80456276 7.6624601e-05   0.38522205            0            0   0.38522205     1.176673    1.5618951    9.4082542 
  360000   0.85310503 -4.8225955e-05   0.35159232            0            0   0.35159232    1.2476661    1.5992584   -3.3390794 
  365000   0.71376944 4.3069472e-05   0.52863089            0            0   0.52863089    1.0438878    1.5725187    5.9828327 
  370000   0.81051042 1.2946731e-05   0.36753077 0.0033532458            0   0.36417752    1.1853715    1.5529023    2.8786475 
  375000   0.80297599 -3.7263841e-05   0.39807342 0.0081853148            0   0.38988811    1.1743524    1.5724258   -2.2433915 
  380000   0.70375025 4.6989505e-05   0.53923298 0.0032633827            0    0.5359696    1.0292347    1.5684677    6.3801931 
  385000   0.75105223 -7.8093228e-05   0.48537716 0.00027304169            0   0.48510412    1.0984139    1.5837911   -6.4129555 
  390000   0.81176853 9.0883511e-05   0.41523999 5.2053303e-05            0   0.41518793    1.1872115    1.6024515    10.908923 
  395000   0.83513484 -2.7517027e-05   0.39682714  0.001228727            0   0.39559841    1.2213847    1.6182118   -1.1995318 
  400000    0.7966115 6.0589951e-05   0.45469714 0.0025295304            0   0.45216761    1.1650443    1.6197415    7.8241524 
  405000   0.76648576 -7.1252799e-05   0.48259517 0.0019681936            0   0.48062697    1.1209854    1.6035806    -5.692706 
  410000   0.86045463 3.2099414e-05   0.33712756 5.5972355e-05            0   0.33707159    1.2584149    1.5955425    4.8825225 
  415000   0.77089352 -0.00010449056   0.43662912 0.0035343408            0   0.43309478    1.1274318    1.5640609    -9.135772 
  420000   0.74769936 9.5980751e-06   0.48129319  0.010631796            0    0.4706614    1.0935103    1.5748035    2.5576464 
  425000   0.80793378 -9.2029909e-05   0.36561728 0.0065847408            0   0.35903254    1.1816032    1.5472204   -7.8766422 
  430000   0.78676309 -1.0770169e-05   0.36382393 0.00032313989            0   0.36350079     1.150641    1.5144649   0.41159961 
  435000   0.72397944 2.595726e-05   0.45740892            0            0   0.45740892    1.0588199    1.5162289    4.1742523 
  440000   0.72310539 -7.1309516e-05   0.44108334            0            0   0.44108334    1.0575416     1.498625   -5.8034694 
  445000   0.75111277 1.0366676e-06   0.43871706 0.00043734248            0   0.43827972    1.0985024    1.5372195    1.6433743 
  450000   0.78999637 -4.9246385e-05   0.38551443 0.0020107507            0   0.38350368    1.1553697    1.5408841   -3.5019456 
  455000   0.72710021 3.2714961e-05   0.47937158 0.0031145586            0   0.47625702    1.0633841    1.5427556    4.8927677 
  460000   0.81398148 -3.7420666e-05   0.31696909  0.001379444            0   0.31558964    1.1904479     1.507417   -2.3244592 
  465000   0.68989172 1.0521967e-05   0.50930317 0.00012646631            0    0.5091767    1.0089666    1.5182698    2.5957192 
  470000   0.73326602 -7.0388805e-05   0.41213113            0            0   0.41213113    1.0724016    1.4845327   -5.7232809 
  475000   0.61449132 2.3039715e-05   0.58884531            0            0   0.58884531   0.89869356    1.4875389    3.8468056 
  480000     0.695003 -0.00010778445   0.43830043 0.0010864241            0   0.43721401    1.0164419    1.4547423    -9.582385 
  485000   0.67190427 0.00010872309   0.42459838 0.0022765256            0   0.42232185   0.98265999    1.4072584    12.540503 
  490000   0.63004155 4.4767771e-05   0.47515939  0.015219843            0   0.45993955   0.92143577    1.3965952    5.9808149 
  495000   0.74618469 1.9801655e-05   0.33189024 0.0010425492            0   0.33084769    1.0912951    1.4231854    3.4508748 
  500000   0.77314834 1.6375217e-05    0.2887225 4.7586994e-05            0   0.28867492    1.1307294     1.419452    3.0962742 
  505000   0.64445585 9.9533405e-05   0.47557261            0            0   0.47557261   0.94251669    1.4180893     11.61031 
  510000   0.73866127 -1.7601247e-05   0.32646924            0            0   0.32646924    1.0802921    1.4067614  -0.39560638 
  515000   0.71383954 2.1191598e-06    0.3439939 0.00028372105            0   0.34371018    1.0439903    1.3879842    1.6049862 
  520000   0.61477208 0.00012004329   0.49345485 0.0010890601            0   0.49236579   0.89910417     1.392559    13.684992 
  525000   0.63338405 -7.0286626e-05   0.48934529 0.0040086119            0   0.48533668   0.92632417    1.4156695   -5.7816811 
  530000   0.67947875 0.00010081589   0.44649003  0.011358431            0    0.4351316   0.99373767    1.4402277    11.763775 
  535000   0.77442398 3.4281472e-05   0.29834492  0.012832415            0   0.28551251    1.1325951      1.43094    4.9413627 
  540000   0.70144287 -1.4400083e-05   0.37640882 0.0047302249            0   0.37167859    1.0258602     1.402269 -0.072299532 
  545000   0.71486344 2.3567305e-05   0.33650037 0.0025537923            0   0.33394658    1.0454878    1.3819882    3.7952802 
  550000   0.71915706 -9.2044241e-05   0.34896152 0.0011916024            0   0.34776991    1.0517672    1.4007287   -8.0246016 
  555000   0.70491869 4.0685896e-05   0.39685241 0.0026185169            0   0.39423389    1.0309436     1.427796    5.5940317 
  560000   0.72121396 4.8092136e-06   0.39766633 0.0026143353            0     0.395052    1.0547754    1.4524418    1.9449052 
  565000   0.63649998 -3.412395e-05    0.5352499 0.0023716396            0   0.53287826   0.93088122    1.4661311   -2.0281614 
  570000   0.69908407 2.841562e-05   0.42922908 4.9836291e-05            0   0.42917924    1.0224105    1.4516395     4.361399 
  575000   0.78997916 -7.1671588e-05   0.29780219 5.5171448e-05            0   0.29774702    1.1553445    1.4531467   -5.8860239 
  580000   0.73892017 8.4774674e-05   0.36661199 0.00048614133            0   0.36612585    1.0806708    1.4472827    10.128209 
  585000   0.74660544 -3.4928082e-05   0.37914195 0.0097963236            0   0.36934563    1.0919105    1.4710524   -2.1055832 
  590000   0.77309416 -3.6365845e-05   0.29600799 0.0095324041            0   0.28647559    1.1306502    1.4266582   -2.2972043 
  595000   0.71371956 -5.388752e-06   0.39346231  0.012151588            0   0.38131072    1.0438149    1.4372772   0.88546897 
  600000   0.68578386 1.600876e-05    0.4242366  0.028411555            0   0.39582504    1.0029589    1.4271955    3.0664925 
  605000   0.66837065 9.3652867e-05   0.44723927  0.025270363            0   0.42196891   0.97749207    1.4247313    11.014785 
  610000   0.70893989 -0.00010856919   0.37665382 0.0070480619            0   0.36960576    1.0368246    1.4134784    -9.704007 
  615000   0.59163443 2.7520939e-05   0.57292215 0.0042141833            0   0.56870796   0.86526535    1.4381875    4.2563316 
  620000   0.73404404 -7.4923089e-05   0.39176277 0.0028250401            0   0.38893773    1.0735394    1.4653022   -6.2068221 
  625000   0.69807904 7.6125998e-05   0.46994447 0.0031988757            0    0.4667456    1.0209406    1.4908851    9.2861873 
  630000   0.73037754 -2.0842654e-05   0.43293565 0.0021107485            0    0.4308249    1.0681772    1.5011128  -0.63317499 
  635000   0.80838414 2.7296235e-05   0.34802695 0.00051233745            0   0.34751461    1.1822618    1.5302887    4.3254232 
  640000   0.75999505 -6.0443373e-05   0.42031429            0            0   0.42031429    1.1114928     1.531807   -4.6575943 
  645000   0.68197495 4.9190716e-05   0.50737038            0            0   0.50737038   0.99738837    1.5047588    6.5418881 
  650000   0.72721642 -6.7847901e-05   0.44283914            0            0   0.44283914     1.063554    1.5063932   -5.4412319 
  655000   0.76155204 1.6235615e-05   0.38742429            0            0   0.38742429    1.1137699    1.5011941    3.1637211 
  660000   0.87765221 3.253927e-05   0.20313805            0            0   0.20313805    1.2835664    1.4867044    4.8187256 
  665000   0.78414547 -1.6662166e-05   0.34869901            0            0   0.34869901    1.1468128    1.4955118  -0.21069402 
  670000   0.70000037 6.8707124e-05    0.4635359 0.0033772623            0   0.46015863    1.0237505    1.4872864     8.522896 
  675000   0.68261214 -7.5570934e-05   0.50246987  0.010930465            0    0.4915394   0.99832025    1.5007901   -6.2376735 
  680000   0.69081527 -1.852253e-05   0.48127402   0.01184635            0   0.46942767    1.0103173    1.4915914  -0.40511574 
  685000   0.83711851 -1.2149445e-05   0.25163217 0.0023312583            0   0.24930092    1.2242858     1.475918   0.23181483 
  690000   0.72956057 -5.0891182e-05   0.44982909 0.0012466668            0   0.44858242    1.0669823    1.5168114   -3.6944456 
  695000   0.75648543 1.7214916e-05   0.41411177 0.0019450303            0   0.41216674    1.1063599    1.5204717    3.2832791 
  700000   0.75513296 -5.1170884e-06   0.42336297 0.0025055502            0   0.42085742     1.104382    1.5277449    1.0037551 
  705000   0.87051728 7.1848652e-05   0.26129218 0.0046530347            0   0.25663915    1.2731315    1.5344237    8.8917257 
  710000   0.85014225 -5.1226229e-05   0.30737158 0.0091321757            0   0.29823941     1.243333    1.5507046   -3.6948612 
  715000   0.80681103 -9.0883191e-05   0.36287895 0.0050166057            0   0.35786235    1.1799611    1.5428401   -7.7635987 
  720000   0.78473413 -7.9097169e-05   0.46260444  0.010044559            0   0.45255988    1.1476737    1.6102781    -6.489272 
  725000   0.74959137 -0.0001015112   0.52976345 0.0077625376            0   0.52200091    1.0962774    1.6260408    -8.768706 
  730000   0.85197254 6.8728322e-05   0.38486901 0.0022261683            0   0.38264284    1.2460098    1.6308789     8.668659 
  735000   0.75831747 7.9197035e-06   0.53593503 0.0026900919            0   0.53324494    1.1090393    1.6449743     2.455952 
  740000   0.81934647 9.4130107e-05   0.44359508  0.015236854            0   0.42835823    1.1982942    1.6418893    11.280812 
  745000   0.91339368 -4.3827772e-05   0.33049422   0.03055475            0   0.29993947    1.3358382    1.6663325   -2.8216314 
  750000   0.86233047 -3.7821558e-05   0.42550895  0.021422311            0   0.40408664    1.2611583    1.6866673   -2.1862602 
  755000   0.96576823 -3.9929941e-05   0.32848627 0.0031376159            0   0.32534866     1.412436    1.7409223   -2.3479037 
  760000   0.84994309 2.8659825e-05   0.48954496 0.0023514924            0   0.48719347    1.2430418    1.7325867    4.6673528 
  765000   0.80335589 0.00011415787   0.51904059 0.0093151321            0   0.50972546     1.174908    1.6939486    13.383714 
  770000   0.85052381 -2.1670026e-05   0.40551652 0.0063731566            0   0.39914337    1.2438911    1.6494076  -0.56960305 
  775000   0.86949102 2.194574e-05   0.41990519 0.00093624397            0   0.41896894    1.2716306    1.6915358    3.9387796 
  780000   0.75635176 -2.9950523e-05   0.54384712 1.3991484e-05            0   0.54383313    1.1061644    1.6500116   -1.4169219 
  785000   0.84533907 4.7505516e-05   0.43695141 0.00090735063            0   0.43604406    1.2363084    1.6732598    6.5378247 
  790000   0.81485493 -0.00010862752   0.51681196 0.0062926985            0   0.51051927    1.1917253    1.7085373   -9.4149212 
  795000   0.82311313 -1.9130193e-05   0.50041869 0.0039145077            0   0.49650418     1.203803    1.7042216  -0.25471009 
  800000   0.85195659 3.4904562e-05   0.42928807 0.0055519781            0   0.42373609    1.2459865    1.6752746    5.2495017 
  805000   0.85612338 0.00010166868    0.3879036 0.0055283408            0   0.38237526    1.2520804     1.639984    12.050857 
  810000   0.81351397 -6.2584121e-05   0.45670151 0.0083416762            0   0.44835983    1.1897642    1.6464657   -4.7621483 
  815000   0.72364756 -5.9386616e-05   0.61173406 0.0098414841            0   0.60189257    1.0583346    1.6700686   -4.4111208 
  820000   0.77601282 -1.9793976e-06   0.51727378  0.013160635            0   0.50411314    1.1349187    1.6521925    1.4495022 
  825000   0.78837421 1.631595e-05   0.49671492  0.045106856            0   0.45160806    1.1529973    1.6497122    3.3204655 
  830000   0.87266058 1.6861211e-05   0.39038387  0.022132631            0   0.36825123    1.2762661      1.66665    3.3932379 
  835000   0.74778816 -2.4858396e-05   0.56298685 0.00079948919            0   0.56218736    1.0936402     1.656627  -0.88887272 
  840000   0.74832712 4.8431793e-05   0.57223114 0.0062291232            0   0.56600202    1.0944284    1.6666596    6.6260752 
  845000   0.84854465 -7.2241143e-05   0.40565415  0.014826317            0   0.39082783    1.2409966    1.6466507   -5.7508423 
  850000   0.79013511 -3.2157533e-05    0.4959232  0.016226867            0   0.47969633    1.1555726    1.6514958   -1.6414355 
  855000   0.84929089 4.3838852e-05   0.41185796  0.014282823            0   0.39757514    1.2420879    1.6539459    6.1430443 
  860000   0.66418039 -7.1093884e-06   0.65671571   0.01359511            0    0.6431206   0.97136382    1.6280795   0.90007816 
  865000   0.78551934 8.2915076e-05    0.4318084  0.018830942            0   0.41297746     1.148822    1.5806304    10.071134 
  870000   0.77615942 7.6170409e-05   0.45375465  0.010065146            0   0.44368951    1.1351331    1.5888878    9.3887377 
  875000   0.69538232 -5.2084413e-05   0.61828935 0.00044969842            0   0.61783966    1.0169966     1.635286   -3.6981579 
  880000   0.70580668 -4.2351261e-05   0.56040242 0.0043192686            0   0.55608315    1.0322423    1.5926447   -2.7441244 
  885000   0.79963463 2.4056866e-05   0.41270901  0.023938199            0   0.38877081    1.1694656    1.5821747    4.0455978 
  890000   0.76013221 -2.9387812e-05    0.4772734  0.025639813            0   0.45163359    1.1116934    1.5889668   -1.4203452 
  895000   0.71201892 1.5041712e-05   0.53746035 0.0052630379            0   0.53219731    1.0413277     1.578788    3.1190594 
  900000    0.7823487 -3.9049276e-05    0.4634118 0.0021777245            0   0.46123408     1.144185    1.6075968   -2.3910491 
  905000   0.83603088 -9.4664752e-05   0.37316924 0.0009866867            0   0.37218255    1.2226952    1.5958644   -8.0978062 
  910000   0.72534791 3.0670296e-05   0.52180183 0.00023843593            0    0.5215634    1.0608213    1.5826232    4.7232614 
  915000   0.74569204 6.0978789e-05   0.49971134 0.0090467734            0   0.49066456    1.0905746     1.590286    7.8345139 
  920000   0.79636393 2.2155854e-05   0.45147227  0.025010735            0   0.42646154    1.1646823    1.6161545    3.8849139 
  925000   0.78589494 -5.3795848e-05   0.51474178  0.017945997            0   0.49679579    1.1493714    1.6641131   -3.8445817 
  930000   0.75965457 -5.9698901e-05   0.56605036 0.0050641249            0   0.56098624    1.1109948    1.6770452   -4.4361223 
  935000   0.91337304 1.9026821e-05   0.36718469 0.00052649065            0    0.3666582    1.3358081    1.7029928    3.6513392 
  940000   0.74253316 -5.0264773e-05   0.60137875 0.00019161442            0   0.60118714    1.0859547    1.6873335   -3.4597792 
  945000   0.88175234 1.7742277e-08    0.4252113 0.00031833899            0   0.42489296    1.2895628    1.7147741    1.7165909 
  950000   0.84114963 6.1783481e-05   0.50128102 0.00055814622            0   0.50072287    1.2301813    1.7314623    8.0580909 
  955000   0.85538033 3.8159819e-05   0.48262035 0.0041210163            0   0.47849934    1.2509937    1.7336141    5.6411796 
  960000   0.86574117 0.0001190117   0.46841249    0.0117238            0   0.45668869    1.2661465    1.7345589    13.921357 
  965000   0.79832211 8.4508103e-05   0.56158175 0.0043969618            0   0.55718479    1.1675461    1.7291278    10.382758 
  970000   0.88167598 5.693838e-05   0.44262113 0.0045324712            0   0.43808866    1.2894511    1.7320722    7.5625623 
  975000   0.76717537 -2.1282977e-05   0.59759168  0.053916921            0   0.54367476     1.121994    1.7195857  -0.45979118 
  980000   0.85209389 -3.7868924e-06   0.47398697  0.034036831            0   0.43995013    1.2461873    1.7201743    1.3323965 
  985000    0.8528757 3.783093e-05   0.47343749   0.02402845            0   0.44940904    1.2473307    1.7207682    5.5946554 
  990000   0.80008231 -6.2924813e-05   0.54312488  0.022356563            0   0.52076832    1.1701204    1.7132453   -4.7302556 
  995000   0.89438695 4.6345952e-05   0.42055241  0.012305838            0   0.40824658    1.3080409    1.7285933    6.4744188 
 1000000   0.79589025 5.8404026e-05    0.5450393  0.005900252            0   0.53913905    1.1639895    1.7090288    7.6896011 
 1005000   0.89731223 -4.3147429e-05   0.39438397  0.018792075            0    0.3755919    1.3123191    1.7067031   -2.7115936 
 1010000   0.75421768 -6.1539791e-05   0.54498342  0.031475011            0   0.51350841    1.1030434    1.6480268   -4.6536478 
 1015000   0.77499146 -4.0101869e-05   0.54035225  0.023247665            0   0.51710458     1.133425    1.6737773   -2.4326541 
 1020000     0.825647 -3.9625645e-05   0.50601516 0.0056468172            0   0.50036834    1.2075087    1.7135239   -2.3441421 
 1025000    0.8646003 4.4653939e-05   0.47823174 0.00068293137            0    0.4775488    1.2644779    1.7427097     6.315273 
 1030000    0.9360408 5.9723846e-06    0.3717426 0.0012110155            0   0.37053158    1.3689597    1.7407023    2.3522745 
 1035000   0.88573602 1.8939105e-05   0.45518523            0            0   0.45518523    1.2953889    1.7505742    3.6899385 
 1040000    0.9641507 -2.1403429e-06   0.33134436            0            0   0.33134436    1.4100704    1.7414148    1.5222436 
 1045000   0.89097807 -8.3625115e-05    0.4680983            0            0    0.4680983    1.3030554    1.7711537   -6.7920581 
 1050000   0.83749909 6.4088028e-05   0.54587749            0            0   0.54587749    1.2248424    1.7707199    8.3333339 
 1055000    0.8691907 -1.6130884e-05   0.46734584 0.0097308333            0   0.45761501    1.2711914    1.7385372   0.08673474 
 1060000   0.86027117 3.0157653e-06    0.4594176  0.037964594            0   0.42145301    1.2581466    1.7175642    2.0263786 
 1065000   0.86700755 7.9342322e-05   0.44473619  0.014400523            0   0.43033566    1.2679985    1.7127347    9.8373885 
 1070000    0.7757605 -1.7865789e-05   0.57346255  0.033551056            0   0.53991149    1.1345497    1.7080123  -0.12144449 
 1075000   0.85942334 -1.422863e-05   0.40788281  0.015205052            0   0.39267776    1.2569066    1.6647895    0.2077777 
 1080000   0.81326146 9.4775207e-05   0.46915188 0.0068148354            0   0.46233705    1.1893949    1.6585468    11.363528 
 1085000   0.87371635 4.8690436e-05   0.38321009  0.013421101            0   0.36978899    1.2778102    1.6610203    6.6469209 
 1090000   0.73191378 1.7849273e-05   0.57977326  0.017425169            0   0.56234809    1.0704239    1.6501972    3.4779628 
 1095000   0.93595979 2.2193432e-05   0.32900509 0.0045843651            0   0.32442072    1.3688412    1.6978463    3.9704538 
 1100000   0.84507547 -3.8531734e-05   0.39628751 0.0010441542            0   0.39524336    1.2359229    1.6322104   -2.3134392 
 1105000   0.80404566 -6.5806352e-05   0.47945142 0.0049173282            0   0.47453409    1.1759168    1.6553682   -5.0832022 
 1110000   0.75498554 -7.4948617e-05   0.55349194 0.0038358394            0    0.5496561    1.1041663    1.6576583   -6.0170801 
 1115000   0.88279316 -5.9888665e-05   0.34071742 0.00095609201            0   0.33976133     1.291085    1.6318024   -4.5007968 
 1120000   0.81934668 -1.5814399e-05    0.4448006 0.0025894687            0   0.44221113    1.1982945    1.6430951  0.023700675 
 1125000   0.80930857 -4.895735e-05   0.47105583 0.0051181491            0   0.46593768    1.1836138    1.6546696    -3.358563 
 1130000   0.84776008 -5.4225676e-05   0.38847602 0.0052626733            0   0.38321335    1.2398491    1.6283251   -3.9243841 
 1135000   0.74439809 2.4689863e-06    0.5127973  0.065569359            0   0.44722794    1.0886822    1.6014795    1.8543037 
 1140000   0.81031339 -4.9812887e-05   0.39438625  0.052871799            0   0.34151445    1.1850833    1.5794696   -3.5213701 
 1145000   0.74790841 -7.1934834e-05   0.47587462  0.001973038            0   0.47390158    1.0938161    1.5696907   -5.7964364 
 1150000   0.80817917 2.8062949e-05   0.43191529 0.0019627924            0    0.4299525     1.181962    1.6138773    4.4875233 
 1155000   0.83093912 3.9846392e-05   0.39823998 0.0019952395            0   0.39624474    1.2152485    1.6134884     5.693759 
 1160000   0.80175337 -1.6207334e-05   0.43985011  0.030316353            0   0.40953375    1.1725643    1.6124144 -0.047216552 
 1165000   0.82477929 5.5923833e-06   0.42872896  0.030387743            0   0.39834122    1.2062397    1.6349687    2.2076287 
 1170000   0.80493171 3.4151912e-05   0.41431932 0.0057303644            0   0.40858895    1.1772126    1.5915319    5.0886877 
 1175000   0.87987486 -4.3786014e-05   0.32642226 2.9810352e-05            0   0.32639245     1.286817    1.6132392   -2.8704486 
 1180000   0.81864763 -9.7201209e-05   0.46740706 1.5351029e-05            0   0.46739171    1.1972722    1.6646792   -8.2887246 
 1185000   0.94417854 1.9213321e-06   0.30416364 0.0036722412            0   0.30049139    1.3808611    1.6850248    1.8817692 
 1190000   0.82972721 2.9170795e-05    0.4731434 0.0091236589            0   0.46401974     1.213476    1.6866194    4.6737089 
 1195000   0.94377178 -4.6692383e-05   0.32324802  0.014472307            0   0.30877571    1.3802662    1.7035142   -3.0777858 
 1200000    0.7888592 -4.9672256e-05   0.51966754  0.016409119            0   0.50325843    1.1537066    1.6733741   -3.4130648 
 1205000   0.80889648 -4.4307476e-05   0.47829763  0.012342179            0   0.46595545    1.1830111    1.6613087   -2.8757768 
 1210000   0.93854711 8.886189e-05   0.28964158 0.0022741666            0   0.28736742    1.3726252    1.6622667    10.761724 
 1215000   0.81178292 3.4367276e-05   0.48235242 6.1325272e-05            0   0.48229109    1.1872325    1.6695849     5.188794 
 1220000   0.83760412 -3.09106e-05   0.42198862            0            0   0.42198862     1.224996    1.6469846   -1.5182608 
 1225000   0.88774636 2.2331264e-05    0.3729095 0.00092139955            0    0.3719881    1.2983291    1.6712386      3.95796 
 1230000   0.94468463 2.0703091e-06   0.31973243 0.0026756522            0   0.31705677    1.3816013    1.7013337    1.9133334 
 1235000   0.88180912 2.087785e-06   0.42498437  0.033046306            0   0.39193807    1.2896458    1.7146302    1.9284194 
 1240000   0.79292383 -1.5038345e-05   0.53869495  0.034937652            0    0.5037573    1.1596511    1.6983461   0.15841952 
 1245000    0.8325592 -2.0167252e-05   0.46935713  0.013932861            0   0.45542427    1.2176178     1.686975  -0.37815162 
 1250000   0.93909164 1.369686e-05   0.31617189 0.0067669654            0   0.30940492    1.3734215    1.6895934    3.0921519 
 1255000   0.86486723 -1.2581384e-05    0.4289884  0.015294921            0   0.41369348    1.2648683    1.6938567     0.405523 
 1260000   0.91299989 -6.3223763e-05   0.36851413  0.025701788            0   0.34281234    1.3352623    1.7037765   -4.7703369 
 1265000   0.94385079 -3.5505851e-05   0.34131038  0.016634498            0   0.32467588    1.3803818    1.7216922    -1.914107 
 1270000   0.90732306 -6.5000874e-05    0.3803857 0.0095475363            0   0.37083816      1.32696    1.7073457   -4.9487438 
 1275000   0.83043664 -1.8064122e-05    0.5254936  0.013208677            0   0.51228492    1.2145136    1.7400072  -0.10975894 
 1280000   0.89662477 5.5418219e-05   0.40797292  0.052919641            0   0.35505328    1.3113137    1.7192866    7.3941123 
 1285000   0.90407788 -1.5811127e-05   0.39019001   0.05133254            0   0.33885747    1.3222139    1.7124039  0.093344559 
 1290000   0.91617391 3.6191812e-07   0.37339699   0.01572271            0   0.35767428    1.3399043    1.7133013    1.7503618 
 1295000   0.78929009 -3.1055225e-05   0.53016888  0.015848417            0   0.51432046    1.1543368    1.6845056   -1.4955494 
 1300000   0.88050309 3.0136221e-05   0.36820218  0.026036549            0   0.34216563    1.2877358    1.6559379     4.741887 
 1305000   0.83115541 4.6789717e-05   0.45693445  0.025342575            0   0.43159188    1.2155648    1.6724992    6.4637662 
 1310000    0.8720564 -7.1770002e-05   0.41664141  0.025275189            0   0.39136622    1.2753825    1.6920239   -5.6572243 
 1315000    0.9005788 -7.6818011e-05    0.3602669  0.018855736            0   0.34141116    1.3170965    1.6773634   -6.1888009 
 1320000   0.88924287 1.0968889e-05   0.38957598 0.0039999046            0   0.38557607    1.3005177    1.6900937    2.8133079 
 1325000   0.85448773 -1.2259246e-05    0.4409098 0.0074015615            0   0.43350824    1.2496883    1.6905981   0.43525132 
 1330000   0.97523541 -4.433956e-05   0.31083372  0.015836017            0    0.2949977    1.4262818    1.7371155   -2.8032554 
 1335000   0.86707347 -1.4018982e-05   0.48359357  0.026810734            0   0.45678283     1.268095    1.7516885    0.3161448 
 1340000   0.92551018 -0.00012494441   0.40302151  0.040136858            0   0.36288465    1.3535586    1.7565801   -11.037728 
 1345000   0.86475928 -0.0001175771   0.47750706  0.029680014            0   0.44782704    1.2647104    1.7422175   -10.297678 
 1350000   0.92411153 -7.3589828e-07   0.39072521  0.027015624            0   0.36370959    1.3515131    1.7422383    1.6668823 
 1355000   0.95522257 2.3427076e-05   0.33105979  0.039230206            0   0.29182958     1.397013    1.7280728    4.1270053 
 1360000   0.92428741 -1.5418622e-05   0.36851472  0.026472845            0   0.34204188    1.3517703    1.7202851   0.14141817 
 1365000   0.89148546 -4.6418161e-05   0.45263889  0.048552613            0   0.40408627    1.3037975    1.7564364   -2.9967833 
 1370000    0.9387886 -2.5018211e-05   0.39669837  0.010889458            0   0.38580892    1.3729783    1.7696767  -0.79218806 
 1375000   0.99967743 2.3540182e-06   0.28645481            0            0   0.28645481    1.4620282    1.7484831    1.9895345 
 1380000   0.91393471 -4.1901932e-05   0.46029461            0            0   0.46029461    1.3366295    1.7969241   -2.4938337 
 1385000   0.87488605 -6.8950063e-05   0.53385925            0            0   0.53385925    1.2795209    1.8133801   -5.2471064 
 1390000   0.92866718 3.7385185e-06   0.47668715 0.0030676986            0   0.47361945    1.3581758    1.8348629    2.2176872 
 1395000   0.97998915 4.5785981e-05   0.41973784  0.038379198            0   0.38135864    1.4332341     1.852972    6.5414565 
 1400000    1.0369385 2.1537051e-05   0.39222009  0.041812375            0   0.35040771    1.5165225    1.9087426    4.1141366 
 1405000   0.90959594 9.411337e-06   0.55799349  0.038429452            0   0.51956404    1.3302841    1.8882776    2.8519985 
 1410000   0.98296765 4.8670136e-05   0.42829675  0.044400088            0   0.38389666    1.4375902    1.8658869    6.8497089 
 1415000   0.85315617 8.5772429e-05   0.59762814  0.065236675            0   0.53239146    1.2477409     1.845369    10.628466 
 1420000   0.96460569 6.1148821e-05    0.3802411   0.03551367            0   0.34472743    1.4107358    1.7909769    8.0526162 
 1425000   0.89536385 3.3012743e-05   0.43560599 0.00074943579            0   0.43485656    1.3094696    1.7450756    5.1255805 
 1430000   0.94477401 2.2286633e-05   0.37259563 0.0017174502            0   0.37087818     1.381732    1.7543276    4.0364789 
 1435000   0.94518875 9.043343e-06   0.37213376  0.011521543            0   0.36061222    1.3823386    1.7544723    2.6805106 
 1440000   0.91630152 -5.580129e-05   0.45139529  0.055121315            0   0.39627397     1.340091    1.7914863   -3.9225658 
 1445000   0.83159132 -7.1870372e-05   0.59348337  0.039281375            0   0.55420199    1.2162023    1.8096857   -5.5498404 
 1450000    1.0282521 -2.0953462e-05    0.3757894  0.026903039            0   0.34888636    1.5038187    1.8796081  -0.26602637 
 1455000   0.88169975 -3.1657925e-05   0.57001516  0.056810106            0   0.51320505    1.2894859     1.859501   -1.3822705 
 1460000   0.97154416 -1.2177471e-05   0.47766586  0.029302628            0   0.44836324    1.4208833    1.8985492   0.65157621 
 1465000   0.91845663 6.4956048e-05    0.5823345  0.028641936            0   0.55369256    1.3432428    1.9255773    8.5770767 
 1470000    1.0155095 4.5345095e-06    0.4454446  0.026244723            0   0.41919987    1.4851827    1.9306273     2.394961 
 1475000   0.98686191 -5.4473735e-05   0.54884474 0.0089282246            0   0.53991651    1.4432855    1.9921303   -3.5859801 
 1480000    1.0253591 -1.5246819e-05   0.51463584 0.0054943894            0   0.50914145    1.4995876    2.0142235   0.45294916 
 1485000    1.0303401 -6.3607517e-05   0.51635329 0.0024055243            0   0.51394776    1.5068724    2.0232256   -4.4901841 
 1490000   0.96480643 -3.379532e-05    0.6046666  0.005876197            0    0.5987904    1.4110294     2.015696   -1.4449447 
 1495000    1.0494382 6.1595646e-05   0.47981558 0.0059915463            0   0.47382404    1.5348033    2.0146189    8.3220131 
 1500000    0.9580618 0.00011315162   0.58851933 0.0026617319            0    0.5858576    1.4011654    1.9896847     13.57641 
 1505000    1.0640775 5.4074446e-05   0.42151199 0.0068497703            0   0.41466222    1.5562133    1.9777253    7.5149486 
 1510000   0.97890002 -1.312468e-05   0.60363803  0.031197682            0   0.57244035    1.4316413    2.0352793   0.69131212 
 1515000   0.95679942 -1.5134385e-06   0.65491666  0.027706732            0   0.62720993    1.3993192    2.0542358    1.8992597 
 1520000   0.97993431 4.4939988e-05   0.62758388  0.055381316            0   0.57220256    1.4331539    2.0607378    6.6625926 
 1525000    1.0035304 6.0753193e-05   0.55150431  0.059947031            0   0.49155728    1.4676632    2.0191675    8.2402944 
 1530000   0.89728607 3.5643022e-05   0.72626108   0.03805315            0   0.68820793    1.3122809    2.0385419    5.6883874 
 1535000   0.98778263 4.3642199e-05   0.52903999 0.0074888621            0   0.52155113    1.4446321    1.9736721    6.4426333 
 1540000   0.95149553 8.0675177e-05    0.5534531  0.030061578            0   0.52339152    1.3915622    1.9450153    10.206153 
 1545000   0.97753662 1.8000379e-05   0.57207124  0.041825335            0   0.53024591    1.4296473    2.0017185    3.8449574 
 1550000    1.0525204 -3.366554e-05   0.48348505 0.0072099574            0   0.47627509    1.5393112    2.0227962   -1.4245551 
 1555000    1.0300039 1.2179946e-05   0.50843406 0.0061630101            0   0.50227105    1.5063807    2.0148148    3.2620412 
 1560000    1.0513025 -5.8928966e-07     0.464716  0.014075879            0   0.45064012    1.5375298    2.0022458    1.9419026 
 1565000    1.1013618 -2.1317423e-05   0.42515863  0.016264263            0   0.40889437    1.6107417    2.0359003  -0.14700377 
 1570000   0.96448523 -3.6119296e-05   0.66211932 0.0076930543            0   0.65442627    1.4105597     2.072679    -1.625937 
 1575000    1.0162192 -3.6892745e-05   0.56003108 0.00043373172            0   0.55959735    1.4862205    2.0462516   -1.7315655 
 1580000    1.1223051 -3.4229762e-05   0.39434523            0            0   0.39434523    1.6413711    2.0357164   -1.4694112 
 1585000   0.92924655 -3.1752142e-05   0.72977484            0            0   0.72977484    1.3590231    2.0887979   -1.1626214 
 1590000   0.91295801 2.001384e-06   0.76961123  0.037116979            0   0.73249425    1.3352011    2.1048123     2.309754 
 1595000    1.1236283  1.90612e-05   0.51471898  0.035697227            0   0.47902175    1.6433064    2.1580254    4.1098923 
 1600000    1.1435031 -2.1189774e-05   0.43950839 6.894488e-05            0   0.43943944    1.6723733    2.1118817 -0.057951131 
 1605000   0.97763352 -1.7599045e-05   0.67499891            0            0   0.67499891     1.429789    2.1047879   0.30264575 
 1610000    1.0435772 2.4333813e-05   0.56361464            0            0   0.56361464    1.5262316    2.0898463    4.5816287 
 1615000   0.99865909 2.4276965e-05   0.59737494 0.0032048106            0   0.59417013    1.4605389    2.0579139    4.5438751 
 1620000    1.0307124 3.423627e-05   0.53965925   0.00980573            0   0.52985352    1.5074169    2.0470762    5.5528702 
 1625000   0.91172674 3.4076123e-05   0.68747385 0.0016439637            0   0.68582989    1.3334004    2.0208742    5.5102692 
 1630000    1.0033676 3.0467636e-05   0.52060074 0.00081686675            0   0.51978388    1.4674252    1.9880259    5.1079119 
 1635000    0.9685645 -8.2319848e-06    0.5260484 0.0019661132            0   0.52408228    1.4165256     1.942574    1.0996187 
 1640000    1.0044707 -8.4438717e-06   0.46980612 0.0070280322            0   0.46277809    1.4690384    1.9388445     1.074192 
 1645000    0.8268563 2.9625651e-05    0.7387367  0.062237893            0   0.67649881    1.2092773     1.948014    4.9816807 
 1650000    0.9093331 -1.191783e-05   0.56159493  0.023933232            0   0.53766169    1.3298997    1.8914946   0.67110878 
 1655000   0.92754632 -3.9996933e-05   0.52396369  0.019148312            0   0.50481538    1.3565365    1.8805002   -2.2151857 
 1660000   0.83147706 -6.5154584e-05   0.65954043  0.013201907            0   0.64633853    1.2160352    1.8755756   -4.7962537 
 1665000   0.90144279 -4.2370478e-05   0.58248883  0.016570195            0   0.56591864    1.3183601    1.9008489   -2.4378881 
 1670000   0.98761247 3.0997531e-05   0.44778299  0.018757387            0    0.4290256    1.4443832    1.8921662    5.0663134 
 1675000   0.84483755 2.8972985e-05   0.63758127 0.0078705271            0   0.62971075    1.2355749    1.8731562    4.8399898 
 1680000   0.84352561 -4.2422738e-06   0.61540415 0.0024296347            0   0.61297452    1.2336562    1.8490604    1.4146515 
 1685000   0.93521199 -1.4211573e-05   0.47636124 0.00015639037            0   0.47620485    1.3677475    1.8441088   0.38884369 
 1690000   0.87615668 -3.4065183e-05   0.59944872 0.0011717816            0   0.59827693    1.2813791    1.8808279   -1.6074469 
 1695000    0.8202235 -4.8831009e-05   0.67122083  0.018338941            0   0.65288189    1.1995769    1.8707977   -3.1294976 
 1700000   0.90754123 -1.9515452e-05   0.57307413  0.035277242            0   0.53779689    1.3272791    1.9003532 -0.098029135 
 1705000   0.89662953 3.9255312e-05   0.59302903  0.018558003            0   0.57447102    1.3113207    1.9043497    5.9240937 
 1710000   0.97439895 1.7446284e-05   0.48167035 0.00026681301            0   0.48140353    1.4250585    1.9067288    3.6932283 
 1715000   0.87561789 -2.7460291e-05   0.64927009 0.0013752411            0   0.64789485    1.2805912    1.9298613   -0.8820725 
 1720000   0.90804009 -1.0503916e-05   0.58034312 0.0070177704            0   0.57332535    1.3280086    1.9083518   0.83275075 
 1725000   0.95033293 -3.8966009e-05   0.49117659  0.020983962            0   0.47019263    1.3898619    1.8810385   -2.1090808 
 1730000   0.91299101 -7.2729334e-05   0.53728976  0.033923607            0   0.50336615    1.3352494    1.8725391   -5.5749446 
 1735000    0.8186598 -6.8513721e-05   0.70121771 0.0075958287            0   0.69362188      1.19729    1.8985077   -5.1172973 
 1740000   0.83083493 1.0439387e-05   0.58957061            0            0   0.58957061    1.2150961    1.8046667    2.8736599 
 1745000    0.9571378 5.9209396e-05   0.42757129 0.00070158402            0   0.42686971     1.399814    1.8273853    7.8904275 
 1750000   0.85783633 2.2738669e-05    0.5862405  0.022828506            0     0.563412    1.2545856    1.8408261    4.1692658 
 1755000   0.79613084 -5.9225406e-05   0.68392691  0.020319759            0   0.66360715    1.1643414    1.8482683   -4.2164133 
 1760000   0.95840778 -3.0568778e-05     0.451254 0.00072083194            0   0.45053317    1.4016714    1.8529254   -1.2773175 
 1765000   0.80108428 -3.9648571e-06   0.64663853            0            0   0.64663853    1.1715858    1.8182243    1.4122229 
 1770000   0.79919729 -4.0530484e-05   0.61567894            0            0   0.61567894     1.168826     1.784505   -2.3658166 
 1775000   0.90098724 -7.9435145e-05   0.48664701            0            0   0.48664701    1.3176938    1.8043408    -6.329818 
 1780000   0.85968112 -5.6001638e-05    0.5251492            0            0    0.5251492    1.2572836    1.7824328   -3.9521349 
 1785000   0.85631563 6.078717e-06   0.51174426 0.00037822134            0   0.51136604    1.2523616    1.7641059    2.3865665 
 1790000    0.8789118 -8.0437104e-06   0.49574962 0.0021017746            0   0.49364785    1.2854085    1.7811581   0.95748218 
 1795000   0.87515704 -2.0911377e-06   0.47430236 0.0089510071            0   0.46535135    1.2799172    1.7542195     1.540087 
 1800000   0.85888712 8.2497314e-05   0.48576156  0.023977457            0   0.46178411    1.2561224     1.741884    10.189609 
 1805000   0.81870566 4.7752712e-05    0.5472862  0.022480315            0   0.52480589     1.197357    1.7446432     6.634521 
 1810000   0.85072827 -0.0001129848   0.49727581  0.046270746            0   0.45100507    1.2441901    1.7414659   -9.8281775 
 1815000   0.79796851 -7.1690577e-05   0.55553264 0.0051221613            0   0.55041048     1.167029    1.7225616   -5.6185535 
 1820000   0.78162234 -1.2168498e-05   0.56407204  0.008206863            0   0.55586517    1.1431227    1.7071947   0.46114051 
 1825000   0.81135433 -7.2945842e-05   0.51574058  0.014814787            0   0.50092579    1.1866057    1.7023463    -5.767308 
 1830000   0.83550685 -1.5968056e-06    0.4824379 0.0067483883            0   0.47568951    1.2219288    1.7043667    1.5408538 
 1835000    0.8702308 0.00010266628   0.41985813 0.00048629194            0   0.41937184    1.2727125    1.6925707    12.205597 
 1840000    0.8038173 5.842929e-05   0.47910659            0            0   0.47910659    1.1755828    1.6546894    7.6378487 
 1845000   0.90675234 9.7476731e-06   0.30633785            0            0   0.30633785    1.3261253    1.6324631    2.6306249 
 1850000   0.88544226 -2.4382161e-05   0.34803595            0            0   0.34803595    1.2949593    1.6429953  -0.85373804 
 1855000   0.80552802 -5.7969478e-05   0.47587917 0.0010090365            0   0.47487013    1.1780847    1.6539639   -4.2821107 
 1860000   0.79644075 -1.7375032e-05   0.47371703 0.0076989064            0   0.46601812    1.1647946    1.6385116  -0.14069164 
 1865000   0.73656227 2.0519333e-05   0.58736751 0.0093024429            0   0.57806507    1.0772223    1.6645898    3.7657695 
 1870000    0.8107011 2.3470718e-05   0.49923225   0.01033202            0   0.48890023    1.1856504    1.6848826    4.0882841 
 1875000   0.71303838 8.5104296e-07   0.63242601  0.023326291            0   0.60909972    1.0428186    1.6752446    1.7623914 
 1880000   0.85262719 3.8816644e-05   0.43053953  0.038307278            0   0.39223225    1.2469673    1.6775068    5.6523312 
 1885000   0.76622043 5.2725374e-05   0.54778286  0.028583714            0   0.51919915    1.1205974    1.6683802    7.0674585 
 1890000    0.7806436 8.9124456e-06   0.51009229  0.068500406            0   0.44159188    1.1416913    1.6517836     2.564418 
 1895000   0.82493984 -1.9573179e-05   0.45088397 0.0090943302            0   0.44178964    1.2064745    1.6573585  -0.34693505 
 1900000   0.78957623 -1.4494989e-05   0.51048017 0.0038487344            0   0.50663144    1.1547552    1.6652354   0.18094851 
 1905000   0.94239132 1.2721121e-05   0.27279561  0.015224967            0   0.25757064    1.3782473    1.6510429    2.9536857 
 1910000   0.69843664 4.2811213e-05   0.63343161   0.04000736            0   0.59342425    1.0214636    1.6548952    6.0387635 
 1915000   0.83691113 4.203528e-05   0.41718275  0.010732788            0   0.40644996    1.2239825    1.6411653    5.9455779 
 1920000   0.78332141 2.3016391e-05   0.48649901 0.0024151178            0   0.48408389    1.1456076    1.6321066     3.988985 
 1925000   0.76507936 1.6439932e-05   0.51715948  0.018991506            0   0.49816798    1.1189286     1.636088    3.3195371 
 1930000   0.80461925 3.7152526e-05   0.48839212  0.029703541            0   0.45868858    1.1767557    1.6651478    5.4695664 
 1935000    0.8278371 2.8183762e-05   0.43999844  0.054888266            0   0.38511017    1.2107118    1.6507102    4.5367275 
 1940000   0.78043537 -1.0844994e-05    0.5064952  0.083793501            0    0.4227017    1.1413867    1.6478819    0.5373545 
 1945000   0.90308689 5.7435311e-05   0.37224816   0.01411264            0   0.35813552    1.3207646    1.6930127    7.5743886 
 1950000   0.82899611 1.6332425e-05   0.46437769 0.0022777047            0   0.46209998    1.2124068    1.6767845    3.3492248 
 1955000   0.86613759 -1.164418e-05    0.4393648            0            0    0.4393648    1.2667262     1.706091     0.513727 
 1960000    0.8032512 7.5323138e-05   0.56241394            0            0   0.56241394    1.1747549    1.7371688    9.4502582 
 1965000   0.92095011 3.4775579e-05   0.35551137  4.49898e-05            0   0.35546638    1.3468895    1.7024009    5.2634201 
 1970000   0.86148126 -1.7110407e-05   0.40582701 0.0011745401            0   0.40465247    1.2599163    1.6657434  -0.08636227 
 1975000   0.83865879 -1.247867e-05   0.45049934 0.0056795172            0   0.44481982    1.2265385    1.6770378     0.399222 
 1980000   0.80679554 -3.2967715e-06   0.50689097  0.014515667            0   0.49237531    1.1799385    1.6868294      1.34924 
 1985000   0.82428512 -9.1433389e-06    0.4777244 0.0084293018            0    0.4692951     1.205517    1.6832414   0.74696349 
 1990000   0.94502949 -2.2702326e-05   0.36002947 0.00028642575            0   0.35974304    1.3821056    1.7421351  -0.58258312 
 1995000   0.86974628 -5.502409e-05   0.48946082 0.0080544981            0   0.48140632    1.2720039    1.7614648    -3.873002 
 2000000   0.87240827 -4.5683443e-05   0.50753504  0.016703138            0    0.4908319    1.2758971    1.7834321   -2.8945525 
 2005000   0.90382835 2.7728821e-05   0.50678192  0.023123044            0   0.48365888     1.321849    1.8286309    4.6680622 
 2010000   0.93104259 4.2608624e-05   0.50289141  0.038533899            0   0.46435751    1.3616498    1.8645412    6.2276643 
 2015000   0.93487213 3.5561079e-05   0.51361646  0.016398242            0   0.49721822    1.3672505    1.8808669    5.5223215 
 2020000    1.0046972 -3.1017213e-05    0.4882815  0.017337659            0   0.47094384    1.4693697    1.9576512   -1.2185114 
 2025000   0.99153104 -8.5615941e-06   0.54789319  0.021091286            0    0.5268019    1.4501141    1.9980073    1.1213001 
 2030000   0.92479695 0.00013603972   0.63211471  0.040407001            0   0.59170771    1.3525155    1.9846303    15.915098 
 2035000   0.97961338 4.7237081e-05   0.55130003  0.067397832            0    0.4839022    1.4326846    1.9839846    6.8210617 
 2040000    1.0045503 -7.9809365e-05   0.46353072  0.020825607            0   0.44270511    1.4691548    1.9326855   -6.2397935 
 2045000   0.97635984  3.14227e-05   0.46563794  0.010996959            0   0.45464098    1.4279263    1.8935642    5.1112487 
 2050000   0.96126431 -2.0765036e-06   0.50009053  0.014608855            0   0.48548168     1.405849    1.9059396    1.6933056 
 2055000     1.004374 5.4502482e-06   0.44124368 0.0032602493            0   0.43798343     1.468897    1.9101407    2.4682461 
 2060000   0.93979873 -2.6856832e-05   0.53448481            0            0   0.53448481    1.3744556    1.9089405  -0.84119912 
 2065000   0.94974073 -7.8052087e-05   0.53010743 0.00026965605            0   0.52983777    1.3889958    1.9191032   -6.0734305 
 2070000   0.96796885 2.8803062e-05   0.49150601  0.016958862            0   0.47454715    1.4156544    1.9071604     4.856594 
 2075000   0.88249755 -3.4110987e-05   0.60225531  0.039974317            0   0.56228099    1.2906527     1.892908   -1.6000571 
 2080000   0.92568475 -9.1864136e-05   0.54002833   0.04580932            0   0.49421901    1.3538139    1.8938423   -7.5130452 
 2085000   0.92812952 -2.6982901e-05   0.52408442  0.036626311            0   0.48745811    1.3573894    1.8814738  -0.88157522 
 2090000    0.9736506 -7.9377076e-06    0.4764874  0.012947109            0   0.46354029     1.423964    1.9004514    1.0876302 
 2095000   0.98607172 -5.6075429e-05   0.46366519  0.069376966            0   0.39428822    1.4421299    1.9057951   -3.8363289 
 2100000   0.83089432 -5.686703e-05   0.69139124  0.037830174            0   0.65356106    1.2151829    1.9065742   -3.9166097 
 2105000   0.92964837 3.1989245e-05   0.49650495  0.016352666            0   0.48015228    1.3596107    1.8561157    5.1318144 
 2110000   0.99916406 2.1547007e-05   0.35426529  0.013944283            0   0.34032101    1.4612774    1.8155427    4.0219562 
 2115000   0.86826407 2.1681494e-05    0.5579239  0.014147123            0   0.54377678    1.2698362    1.8277601     4.047945 
 2120000   0.90807108 -6.419205e-05   0.49966698 0.0083213143            0   0.49134566    1.3280539    1.8277209    -4.745545 
 2125000   0.89442258 -1.4736158e-05   0.50310005 0.0055229029            0   0.49757715     1.308093    1.8111931   0.30221051 
 2130000   0.90492248 -2.0627683e-05    0.4769958 0.0024868984            0   0.47450891    1.3234491    1.8004449  -0.31182976 
 2135000   0.93706302 -1.061389e-05   0.41847617            0            0   0.41847617    1.3704547    1.7889308   0.70206852 
 2140000   0.94704289 7.2779172e-05   0.41811606  0.002863007            0   0.41525305    1.3850502    1.8031663    9.2557535 
 2145000   0.82555314 4.6587871e-06   0.59927056  0.014001973            0   0.58526858    1.2073715     1.806642    2.2837018 
 2150000     0.927924 3.9611388e-05    0.4397222   0.01436565            0   0.42535655    1.3570888     1.796811    5.8530171 
 2155000   0.92764615 -5.6787972e-05   0.50368217 0.0039054771            0   0.49977669    1.3566825    1.8603647   -3.9547237 
 2160000   0.90676405 1.0582162e-05   0.53775585  0.017384495            0   0.52037135    1.3261424    1.8638983    2.9475116 
 2165000   0.88719828 -6.8627148e-06   0.56602244  0.014877829            0   0.55114461    1.2975275    1.8635499    1.1608079 
 2170000   0.96887969 0.00015153156   0.47646303 0.0024982715            0   0.47396476    1.4169866    1.8934496    17.410281 
 2175000   0.93689628 4.8781445e-05   0.54412289 0.00096071001            0   0.54316218    1.3702108    1.9143337    6.9095537 
 2180000   0.96118175 -1.9651793e-05   0.51535871 0.0012172082            0    0.5141415    1.4057283     1.921087 -0.091256583 
 2185000   0.93180852 2.0433276e-05   0.52659302  0.020885787            0   0.50570723      1.36277     1.889363    3.9817305 
 2190000   0.95873763 -6.4643023e-05   0.53512783  0.044089244            0   0.49103858    1.4021538    1.9372816    -4.682164 
 2195000    1.0095269 -4.3227714e-05   0.52359741  0.018302544            0   0.50529486    1.4764331    2.0000305   -2.4264874 
 2200000   0.98736708 2.1778348e-05   0.55544987 0.0063006163            0   0.54914926    1.4440244    1.9994742    4.2295771 
 2205000   0.95590998 1.300899e-06   0.56728001  0.013648304            0   0.55363171    1.3980183    1.9652984    2.0985104 
 2210000    0.8708098    8.751e-06   0.65655378  0.019374554            0   0.63717923    1.2735593    1.9301131    2.8262155 
 2215000   0.98184243 8.7976607e-06   0.51753712  0.014791125            0   0.50274599    1.4359446    1.9534817    2.8543621 
 2220000   0.88353659 4.018125e-06   0.64411197  0.020933143            0   0.62317883    1.2921723    1.9362842    2.3477402 
 2225000   0.95348367 2.6045635e-05   0.51365313  0.029364245            0   0.48428889    1.3944699     1.908123     4.575196 
 2230000    1.0314609 -3.5995335e-05   0.38232384  0.028831207            0   0.35349263    1.5085116    1.8908355   -1.7950868 
 2235000   0.96184698 -4.8477033e-05   0.50605847  0.014471759            0   0.49158671    1.4067012    1.9127597   -3.0512885 
 2240000   0.84043555 1.7089859e-05   0.66163606  0.012369149            0   0.64926691     1.229137     1.890773    3.6407746 
 2245000   0.93225215 5.7662043e-05   0.47838215  0.013202306            0   0.46517984    1.3634188    1.8418009    7.7463942 
 2250000   0.91797352 -2.5188131e-05   0.50498488 0.0029465112            0   0.50203837    1.3425363    1.8475212  -0.73174349 
 2255000   0.87828787 -0.00011826782   0.56455857 0.0023991851            0   0.56215939     1.284496    1.8490546    -10.26157 
 2260000    0.8289039 -0.00010102208   0.67995662  0.022488347            0   0.65746827     1.212272    1.8922286   -8.4524322 
 2265000   0.99366848 -2.2800618e-05    0.4291683  0.021091513            0   0.40807679    1.4532402    1.8824085  -0.45237484 
 2270000   0.93962395 1.2507185e-05   0.53998817 0.0032916993            0   0.53669647       1.3742    1.9141882    3.1949239 
 2275000    1.0464518 -1.0123255e-05   0.32932338 0.0010849808            0    0.3282384    1.5304358    1.8597591   0.82313785 
 2280000   0.92112329 -5.2753174e-05   0.50554021 0.0010975027            0   0.50444271    1.3471428     1.852683   -3.5492419 
 2285000   0.81282535 -2.6752925e-05    0.6313428 0.0013912567            0   0.62995155    1.1887571    1.8200999  -0.91939961 
 2290000   0.92455302 6.3066817e-05   0.44050159 0.0014459013            0   0.43905568    1.3521588    1.7926604    8.2507024 
 2295000   0.93950149 6.3307693e-05   0.39652822 0.0038033574            0   0.39272486    1.3740209    1.7705492    8.2532569 
 2300000   0.85275485 -1.2858394e-05   0.55911567  0.012082964            0   0.54703271     1.247154    1.8062696   0.48957008 
 2305000   0.86157126 -1.3923603e-05   0.54498437  0.012175463            0   0.53280891     1.260048    1.8050323   0.37925537 
 2310000    0.9018678 2.9348072e-05   0.46373925 0.0013347863            0   0.46240447    1.3189817    1.7827209    4.7879635 
 2315000   0.93038741 4.198156e-05   0.40531254            0            0   0.40531254    1.3606916    1.7660041    6.0649159 
 2320000   0.86478035 -1.4866367e-05   0.51896498 0.00054702361            0   0.51841796    1.2647413    1.7837062   0.26139026 
 2325000   0.97231834 1.312184e-06   0.34599238 0.0071016124            0   0.33889077    1.4220156     1.768008    1.9023756 
 2330000   0.88534173 6.7609836e-06   0.47019446  0.011699056            0    0.4584954    1.2948123    1.7650067    2.4573314 
 2335000   0.84646919 2.5326635e-05   0.52988906  0.012779299            0   0.51710976    1.2379612    1.7678503    4.3612977 
 2340000   0.88440205 -1.6114242e-05   0.43259563  0.028755597            0   0.40384004     1.293438    1.7260336  0.075935223 
 2345000   0.85847925 3.8748644e-05   0.46337798  0.060599678            0    0.4027783    1.2555259    1.7189039    5.6867651 
 2350000   0.84178003 7.1184124e-05   0.49212588  0.018910329            0   0.47321555    1.2311033    1.7232292    9.0124835 
 2355000   0.89118769 7.5289849e-05   0.44212298 0.00018239775            0   0.44194058     1.303362     1.745485    9.4551655 
 2360000   0.88564801 3.8092973e-06   0.46303694 0.0028871611            0   0.46014978    1.2952602    1.7582972    2.1483692 
 2365000   0.89475826 -3.4619169e-05   0.44276284 0.0029418783            0   0.43982096     1.308584    1.7513468   -1.7936561 
 2370000   0.94811782 -3.299668e-05   0.36559781 0.00038574863            0   0.36521206    1.3866223    1.7522201   -1.6266399 
 2375000   0.91840164 2.3799004e-05   0.44878027            0            0   0.44878027    1.3431624    1.7919427    4.2289606 
 2380000    0.9214404 -4.2082683e-05   0.43526737 0.00031397345            0   0.43495339    1.3476066     1.782874   -2.5263928 
 2385000     0.919845 -3.9917602e-05   0.49771424 0.0051281992            0   0.49258604    1.3452733    1.8429875   -2.2445749 
 2390000   0.97267334 3.7590797e-05   0.44257712 0.0087494364            0   0.43382768    1.4225348    1.8651119    5.7144095 
 2395000   0.94614479 -7.407144e-05    0.4412417  0.010651092            0   0.43059061    1.3837368    1.8249785    -5.759937 
 2400000   0.95209669 -7.0959604e-05   0.43367144  0.012301138            0    0.4213703    1.3924414    1.8261129   -5.4401506 
 2405000   0.92808015 -7.7988817e-06   0.48368842  0.005722721            0    0.4779657    1.3573172    1.8410056    1.0424002 
 2410000   0.94915475 -9.574831e-05   0.41100526 0.0020601917            0   0.40894507    1.3881388    1.7991441   -8.0054829 
 2415000   0.93557786 -4.4759213e-05   0.41930049  0.011656087            0    0.4076444    1.3682826    1.7875831   -2.7957603 
 2420000   0.99760606 1.905569e-05   0.34358706  0.034248957            0    0.3093381    1.4589989    1.8025859    3.7538886 
 2425000   0.96607437 3.1269244e-05    0.4480355  0.022778025            0   0.42525748    1.4128838    1.8609193    5.0628898 
 2430000   0.97595358 4.0325262e-05   0.42707852 0.0048241034            0   0.42225442    1.4273321    1.8544106    5.9837175 
 2435000   0.91232523 -6.487453e-05    0.5121608 0.00091295744            0   0.51124784    1.3342756    1.8464364   -4.7967154 
 2440000   0.94286024 -5.6869367e-05    0.4773372  0.002504491            0   0.47483271    1.3789331    1.8562703   -3.9671528 
 2445000   0.93562601 6.9938624e-05   0.43369832  0.027306412            0   0.40639191     1.368353    1.8020514    8.9637665 
 2450000   0.90793867 5.8236071e-06   0.48952306  0.014525018            0   0.47499805    1.3278603    1.8173834    2.4137207 
 2455000   0.97679296 3.0963264e-05   0.47310407            0            0   0.47310407    1.4285597    1.9016638     5.072302 
 2460000    1.0071559 -4.562196e-05   0.45056965            0            0   0.45056965    1.4729655    1.9235351   -2.7481536 
 2465000    1.1156062 -3.5427119e-05   0.26746749  0.005778022            0   0.26168947    1.6315741    1.8990416   -1.7286954 
 2470000    1.0702254 9.2345411e-05   0.32783126  0.025723222            0   0.30210804    1.5652046    1.8930358    11.349206 
 2475000    1.0550599 3.8774705e-05   0.37536864 0.0094824884            0   0.36588615    1.5430251    1.9183937    5.8889235 
 2480000     0.965192 1.3033992e-05   0.48317651            0            0   0.48317651    1.4115933    1.8947698    3.2294506 
 2485000    1.0715685 6.2401748e-05   0.38397197            0            0   0.38397197    1.5671689    1.9511408    8.3410799 
 2490000    1.0726465 -3.5979955e-06   0.36966719 0.0011218008            0   0.36854539    1.5687455    1.9384127    1.5699779 
 2495000    1.0548897 1.0749324e-05   0.39176143  0.050573112            0   0.34118832    1.5427761    1.9345376    3.0352684 
 2500000   0.95119784 2.4772558e-05   0.57773761  0.053779523            0   0.52395809    1.3911268    1.9688645    4.5055744 
 2505000    1.0912514 4.6402278e-05   0.40691361 0.0057935483            0   0.40112006    1.5959551    2.0028687     6.754462 
 2510000    1.1191632 -1.2674883e-05   0.35599242            0            0   0.35599242    1.6367761    1.9927686   0.69486054 
 2515000    1.1269253 -2.3764478e-05   0.33753401            0            0   0.33753401    1.6481283    1.9856623  -0.44782018 
 2520000     1.052265 2.2560536e-05   0.40511786            0            0   0.40511786    1.5389376    1.9440555    4.2542543 
 2525000    1.0197053 1.5178296e-06   0.42829015 0.00016445111            0    0.4281257    1.4913191    1.9196092     2.075035 
 2530000   0.98002196 3.1564587e-06   0.49708236 0.0097480824            0   0.48733428    1.4332821    1.9303645    2.2535859 
 2535000    1.0212952 2.3589484e-05    0.3854203  0.039805072            0   0.34561523    1.4936443    1.8790646    4.2946277 
 2540000   0.98727304 -4.0418237e-05   0.44143539  0.073486087            0    0.3679493    1.4438868    1.8853222   -2.2535053 
 2545000    1.0259069 -3.7561301e-05   0.33456104  0.013168522            0   0.32139252    1.5003888    1.8349498   -2.0113274 
 2550000    0.9183728 1.4357765e-05   0.50529513  0.042297948            0   0.46299718    1.3431202    1.8484154    3.3186504 
 2555000   0.91165602 2.698975e-05   0.54499634  0.052161524            0   0.49283482    1.3332969    1.8782933    4.6420437 
 2560000   0.99448055 1.3495515e-07   0.40792861  0.033068251            0   0.37486036    1.4544278    1.8623564    1.8761758 
 2565000   0.98740362 4.226055e-05    0.3810174  0.012480884            0   0.36853652    1.4440778    1.8250952    6.1525755 
 2570000   0.99730476 4.9177613e-05   0.41169815  0.011257635            0   0.40044051    1.4585582    1.8702564    6.9060439 
 2575000    1.0132051 5.7958822e-05   0.37489288 0.0032053766            0    0.3716875    1.4818124    1.8567053    7.7916887 
 2580000    1.0089382 -1.2833902e-05   0.37923633            0            0   0.37923633    1.4755722    1.8548085   0.54061699 
 2585000     1.011281 -3.4276021e-05   0.40572164            0            0   0.40572164    1.4789985    1.8847202   -1.6251444 
 2590000    1.0003097 -3.9050775e-06   0.41510602            0            0   0.41510602     1.462953     1.878059    1.4781791 
 2595000    1.0453886 1.7368359e-05   0.34748703 0.0001398669            0   0.34734716    1.5288808    1.8763678    3.6548878 
 2600000   0.98489776 7.066745e-05   0.40916297 0.0060953055            0   0.40306767     1.440413     1.849576    9.0859228 
 2605000    1.0024784 1.2095828e-05     0.378103  0.014273646            0   0.36382936    1.4661247    1.8442277    3.0828404 
 2610000    1.0324302 4.8850764e-05   0.35901545  0.014910165            0   0.34410529    1.5099291    1.8689446    6.8712628 
 2615000   0.95953374 -8.2497377e-05   0.44204958  0.019787677            0    0.4222619    1.4033181    1.8453677   -6.6023637 
 2620000    1.0404557 -7.5811789e-05   0.39040289 0.0021407709            0   0.38826212    1.5216664    1.9120693   -5.8510578 
 2625000    1.0390925 2.9904337e-05   0.35432041            0            0   0.35432041    1.5196727    1.8739932    4.9361973 
 2630000    1.0241027 -2.0522449e-05   0.35081342            0            0   0.35081342    1.4977502    1.8485637   -0.2529351 
 2635000   0.95378668 1.0042309e-05   0.40701966            0            0   0.40701966     1.394913    1.8019327    2.8302651 
 2640000   0.92950694 -5.8498085e-05   0.41597933            0            0   0.41597933    1.3594039    1.7753832   -4.2148206 
 2645000   0.93104599 -4.4087636e-05   0.44298411            0            0   0.44298411    1.3616548    1.8046389    -2.709935 
 2650000   0.98813413 -4.4871587e-06   0.38927847            0            0   0.38927847    1.4451462    1.8344246    1.3749396 
 2655000   0.97952607 -6.5622389e-05   0.38368962 0.0049192582            0   0.37877036    1.4325569    1.8162465   -4.9034861 
 2660000   0.95885863 -7.9912383e-05   0.40757381  0.043080547            0   0.36449326    1.4023307    1.8099046   -6.3731234 
 2665000    0.8824922 -5.4393727e-05   0.49294818  0.046541832            0   0.44640635    1.2906448     1.783593   -3.7863246 
 2670000    1.0260334 3.0015866e-05   0.28837435  0.031091272            0   0.25728308    1.5005738    1.7889481    4.8625728 
 2675000   0.88839122 -2.7290628e-05   0.47696808   0.01567177            0   0.46129631    1.2992722    1.7762402     -1.01832 
 2680000    1.0212508 2.7967711e-05    0.3360789   0.01587032            0   0.32020858    1.4935793    1.8296582    4.6935517 
 2685000   0.93237766 5.3379543e-05   0.45819947 0.0072776595            0   0.45092181    1.3636023    1.8218018     7.287867 
 2690000    1.0249672 6.5326921e-06    0.3564382 0.00016470831            0   0.35627349    1.4990145    1.8554527    2.5244004 
 2695000   0.97170179 5.0308662e-06   0.45302013            0            0   0.45302013    1.4211139     1.874134    2.3892947 
 2700000    1.0254973 3.6013321e-05   0.38529933            0            0   0.38529933    1.4997898    1.8850891    5.5728532 
 2705000     1.018238 1.9148842e-05   0.40155819            0            0   0.40155819     1.489173    1.8907312    3.8515726 
 2710000      1.04948 -2.9098963e-05   0.33796991 0.0037263673            0   0.33424354    1.5348645    1.8728344   -1.1068994 
 2715000   0.96171097 -3.5275684e-05   0.44725232  0.023602832            0   0.42364949    1.4065023    1.8537546   -1.7584754 
 2720000    1.0010139 -5.0538632e-05   0.39095548  0.012883509            0   0.37807197    1.4639828    1.8549383   -3.3202177 
 2725000    1.0317333 -1.1477204e-05   0.30513495 0.0016917587            0   0.30344319    1.5089099    1.8140448   0.63877917 
 2730000   0.98744306 3.5912417e-05   0.33793043 0.00010238269            0   0.33782805    1.4441355    1.7820659    5.4594974 
 2735000   0.96855646 6.0358447e-05   0.41234927 0.0028467029            0   0.40950257    1.4165138    1.8288631    8.0095681 
 2740000   0.97380476 2.9246749e-05   0.41322167 0.0090669506            0   0.40415472    1.4241895    1.8374111    4.8322782 
 2745000    0.9678006 -5.7364553e-05    0.4542818  0.022069547            0   0.43221225    1.4154084    1.8696902     -4.00444 
 2750000   0.93876749 -6.2430972e-05   0.50908543  0.048403185            0   0.46068224    1.3729474    1.8820329   -4.5108987 
 2755000    1.0156717 3.9492721e-05   0.39573584  0.013732093            0   0.38200375    1.4854199    1.8811557    5.9252104 
 2760000    1.0496205 6.9383497e-05   0.37352398  0.023279609            0   0.35024437      1.53507     1.908594    9.0134641 
 2765000    1.0577673 5.4909939e-06   0.34770434  0.046226918            0   0.30147743    1.5469846     1.894689    2.4569667 
 2770000    1.0428814 -7.0647164e-05    0.3691811   0.02269148            0   0.34648962     1.525214    1.8943951   -5.3398745 
 2775000    1.0110576 -5.905755e-05   0.39993889  0.015590095            0    0.3843488    1.4786717    1.8786106   -4.1688826 
 2780000    1.0094586 -3.5731742e-05   0.40896046 0.0022884266            0   0.40667203    1.4763332    1.8852937   -1.7736367 
 2785000    1.0459957 -2.6626318e-06   0.35740702            0            0   0.35740702    1.5297687    1.8871757    1.6145222 
 2790000    1.0296072 5.6294769e-05   0.33135861 0.00015227947            0   0.33120633    1.5058006    1.8371592    7.6017436 
 2795000   0.96000939 2.6165697e-05   0.41271894 0.0099770126            0   0.40274192    1.4040137    1.8167327    4.4961001 
 2800000     1.002639 -1.3398262e-05   0.36242702  0.020001608            0   0.34242541    1.4663595    1.8287865   0.45680448 
 2805000   0.96767342 -3.3179214e-05   0.39032354 0.0040868736            0   0.38623667    1.4152224    1.8055459   -1.5920056 
 2810000   0.94603796 1.6166858e-05   0.43073028 0.0084096623            0   0.42232061    1.3835805    1.8143108     3.469797 
 2815000   0.93775385 1.7011187e-05   0.40742741  0.032754125            0   0.37467329     1.371465    1.7788924     3.520838 
 2820000   0.96803001 -5.918721e-05   0.39876215  0.016658085            0   0.38210406    1.4157439     1.814506   -4.2462643 
 2825000   0.95724911 -4.4493267e-05   0.43281883  0.033366206            0   0.39945262    1.3999768    1.8327957   -2.7233148 
 2830000    1.0026183 -2.4645719e-05   0.37159794  0.019474142            0    0.3521238    1.4663293    1.8379272   -0.6857944 
 2835000    1.0162631 2.7051624e-05   0.33451688 0.0079379318            0   0.32657895    1.4862847    1.8208016    4.5908879 
 2840000    1.0261047 3.1408642e-05   0.34331761 0.00084553122            0   0.34247208    1.5006781    1.8439957    5.0602406 
 2845000    0.9916787 5.7048733e-06   0.41504788 0.00080538299            0    0.4142425    1.4503301     1.865378     2.449557 
 2850000   0.97254342 4.5495132e-05   0.45409541 0.0042264748            0   0.44986893    1.4223448    1.8764402    6.5351417 
 2855000    1.1169966 -3.5437943e-05   0.19955111 0.0090892115            0    0.1904619    1.6336075    1.8331586   -1.7956868 
 2860000    0.9529112 -0.00010803768   0.42525869 0.0099558442            0   0.41530285    1.3936326    1.8188913   -9.2441671 
 2865000    1.0183933 -1.4160601e-05   0.31614665  0.015889683            0   0.30025696    1.4894002    1.8055468   0.35550126 
 2870000   0.95630454 5.9151645e-05    0.4492577  0.021422459            0   0.42783524    1.3985954    1.8478531    7.9049815 
 2875000    1.0057081 5.7988586e-05   0.37890183  0.013900862            0   0.36500097    1.4708481      1.84975    7.7877812 
 2880000    1.0935581 2.9511054e-05   0.23752769  0.003836919            0   0.23369077    1.5993287    1.8368564    4.8587883 
 2885000    0.9604163 -2.0131535e-05   0.45009693 0.00054398101            0   0.44955295    1.4046088    1.8547058  -0.20676338 
 2890000    1.0523075 -1.185865e-05   0.29515231 0.0065792922            0   0.28857301    1.5389998    1.8341521   0.61982631 
 2895000   0.97612376 5.2659836e-05   0.42820064   0.05338584            0    0.3748148     1.427581    1.8557816    7.2481489 
 2900000    1.0840547 4.098013e-05   0.31226851  0.031960055            0   0.28030845    1.5854299    1.8976985    6.0940637 
 2905000    1.0968234 -1.7497052e-05   0.37805925 0.0080449047            0   0.37001435    1.6041042    1.9821635   0.19046528 
 2910000    1.0170577 -3.3448337e-06   0.48640477   0.01071367            0    0.4756911    1.4874468    1.9738516    1.6313406 
 2915000    1.0856297 4.1822458e-05   0.33986024  0.017227675            0   0.32263256    1.5877334    1.9275937    6.2102134 
 2920000    1.0636812 6.4189097e-05   0.39087914  0.014052104            0   0.37682704    1.5556337    1.9465129    8.5194764 
 2925000    1.1386576 2.2882596e-05   0.33257551  0.010266372            0   0.32230914    1.6652867    1.9978622    4.3410401 
 2930000    1.0760875 -9.269479e-06   0.46808495   0.01313075            0    0.4549542     1.573778    2.0418629    1.0926683 
 2935000    1.1027757 1.1352138e-05   0.41181431  0.048993846            0   0.36282047    1.6128094    2.0246237    3.1870826 
 2940000    1.0436387 3.6460079e-05    0.4621346  0.039434954            0   0.42269965    1.5263216    1.9884562    5.7219682 
 2945000    1.0432682 4.620942e-05    0.4807535  0.010905007            0    0.4698485    1.5257798    2.0065333    6.7383779 
 2950000     1.131129 7.892796e-06    0.3450981  0.039500762            0   0.30559734    1.6542762    1.9993743    2.8075966 
 2955000    1.0135498 -4.1141218e-05   0.49908878  0.030327973            0   0.46876081    1.4823166    1.9814054   -2.2314553 
 2960000    1.0501199 -5.9030976e-05   0.51875639 0.00013475488            0   0.51862163    1.5358003    2.0545567   -3.9902152 
 2965000     1.076235 -4.0841232e-05   0.48418419  0.010641165            0   0.47354302    1.5739936    2.0581778   -2.1239643 
 2970000    1.0511179 2.9340065e-05    0.4908911  0.044450211            0   0.44644089      1.53726    2.0281511    5.0325737 
 2975000    1.0485293 4.4513877e-05   0.48079916  0.023835173            0   0.45696398    1.5334741    2.0142733    6.5724943 
 2980000    1.1729343 -1.9609607e-05   0.33583223  0.017866179            0   0.31796605    1.7154164    2.0512486  0.043224903 
 2985000    1.0957283 -6.8773337e-05   0.44852333  0.015071387            0   0.43345194    1.6025026    2.0510259   -4.9913638 
 2990000    1.0555122 -5.0922361e-05   0.52002523 0.0016667989            0   0.51835843    1.5436865    2.0637118    -3.150738 
 2995000    1.0642672 -5.6462027e-05   0.44201311 0.00011699815            0   0.44189611    1.5564908    1.9985039   -3.7832076 
 3000000   0.98555924 -8.9779118e-05    0.5518426 0.0022032831            0   0.54963931    1.4413804     1.993223   -7.2001587 
 3005000    1.0609658 -2.2512728e-05   0.46396992  0.049077648            0   0.41489227    1.5516624    2.0156324  -0.28967097 
 3010000    1.0333615 3.3038787e-05   0.49547834  0.017823167            0   0.47765518    1.5112912    2.0067696    5.3899414 
 3015000    1.1018029 -5.6093455e-05   0.38380691  0.041678727            0   0.34212818    1.6113868    1.9951937   -3.7487761 
 3020000    1.1466033 -2.830461e-05   0.31956382  0.086727582            0   0.23283624    1.6769073    1.9964711  -0.90192092 
 3025000    1.0221203 8.4779385e-06   0.53199827   0.06152137            0    0.4704769     1.494851    2.0268492    2.8949901 
 3030000    1.0449044 -1.3066216e-05   0.50394189  0.008661918            0   0.49527997    1.5281727    2.0321146   0.69413405 
 3035000    1.1400109 -3.1437778e-05   0.35927011 0.0092744206            0   0.34999569    1.6672659     2.026536   -1.1926924 
 3040000    1.0446102 -8.8404014e-05   0.49337496  0.018189678            0   0.47518529    1.5277424    2.0211174   -7.0314537 
 3045000    1.0141865 -9.5262118e-06   0.54557783 0.0034568654            0   0.54212096    1.4832478    2.0288256    1.0533415 
 3050000    1.1808385 -6.7412275e-06   0.32449126 0.0010567783            0   0.32343448    1.7269764    2.0514676    1.3611659 
 3055000    1.1350906 -7.1773933e-06   0.37805587 0.0017809367            0   0.37627494    1.6600699    2.0381258    1.3031607 
 3060000   0.97999879 5.8278188e-05   0.53099162 0.0001342188            0    0.5308574    1.4332482    1.9642398    7.9319263 
 3065000    1.0654544 1.8794659e-05   0.42400273 0.0021267749            0   0.42187596    1.5582271    1.9822298    3.9068029 
 3070000    1.1085723 -8.9095727e-06   0.38756296 0.0073158107            0   0.38024715    1.6212869    2.0088499    1.0965096 
 3075000    1.1451754 8.096554e-06   0.35764045 0.0034559283            0   0.35418452     1.674819    2.0324594    2.8615466 
 3080000    1.0647414 -2.858147e-05   0.41463743 0.00041324601            0   0.41422419    1.5571842    1.9718217  -0.95492089 
 3085000    1.1425609 1.8798414e-06   0.27568508            0            0   0.27568508    1.6709953    1.9466804    2.1391762 
 3090000    1.0527155 5.9751852e-05   0.42637881 0.00035474111            0   0.42602407    1.5395964    1.9659752    8.0845649 
 3095000    1.0666024 1.0207995e-05   0.37477851  0.012745408            0    0.3620331     1.559906    1.9346846    2.9799833 
 3100000   0.97079911 -7.3527601e-05   0.51601592  0.035606806            0   0.48040912    1.4197937    1.9358096   -5.5934168 
 3105000   0.98581954 -6.2461857e-05   0.47857025  0.068493228            0   0.41007702    1.4417611    1.9203313   -4.4757628 
 3110000   0.98580589 -1.1104958e-05   0.49403277  0.082022601            0   0.41201017    1.4417411    1.9357739   0.79862617 
 3115000    0.9961672 1.2255142e-05   0.49316897  0.037811885            0   0.45535709    1.4568945    1.9500635    3.2049901 
 3120000    1.0996661 7.7143197e-05   0.36104972  0.021332696            0   0.33971702    1.6082617    1.9693114    9.8687748 
 3125000    1.1160558 6.7177484e-05   0.32203473 0.00037821129            0   0.32165652    1.6322315    1.9542663    8.8332407 
 3130000    1.0199601 3.0632336e-05   0.44056565  0.039363288            0   0.40120237    1.4916916    1.9322573    5.0690085 
 3135000    1.0110238 2.5672955e-06   0.45837722   0.07784747            0   0.38052975    1.4786223    1.9369995    2.1998906 
 3140000   0.97169269 -2.301115e-05   0.48217878  0.052110709            0   0.43006807    1.4211006    1.9032793  -0.45306241 
 3145000   0.96167766 -2.1132444e-06   0.48581516   0.11124453            0   0.37457064    1.4064536    1.8922687    1.6758725 
 3150000    1.0158605 -4.4898004e-05   0.44112979  0.028140285            0    0.4129895     1.485696    1.9268258   -2.6707298 
 3155000    1.1679967 -3.4761428e-06    0.2409305 0.0091662598            0   0.23176424    1.7081951    1.9491256    1.5931686 
 3160000    1.1082867 8.2971034e-05   0.33680837  0.001871306            0   0.33493706    1.6208693    1.9576777    10.453912 
 3165000    1.0156375 9.2361507e-05   0.48008462 0.0071958694            0   0.47288875    1.4853699    1.9654545    11.423273 
 3170000   0.96717538 2.7680394e-05   0.48624153  0.076093963            0   0.41014757     1.414494    1.9007355    4.7352078 
 3175000   0.98817864 -4.0068445e-05   0.45995276 0.0066174949            0   0.45333526    1.4452113     1.905164   -2.1978447 
 3180000    1.0380986 -5.0039248e-05   0.40190694            0            0   0.40190694    1.5182193    1.9201262   -3.2038928 
 3185000    1.0439485 -4.6350888e-05   0.37993707 0.00016223001            0   0.37977484    1.5267746    1.9067117   -2.8396192 
 3190000    1.0453962 -7.8622138e-05   0.33830102 0.0058481669            0   0.33245285    1.5288919    1.8671929    -6.183714 
 3195000    1.0454985 -3.8427438e-05   0.35249921  0.007691192            0   0.34480802    1.5290416    1.8815408   -2.0534289 
 3200000   0.95651164 5.4346684e-05   0.47369939 0.0044698314            0   0.46922956    1.3988983    1.8725977    7.4376981 
 3205000   0.96369815 -1.6131541e-05   0.47726224   0.10554056            0   0.37172167    1.4094085    1.8866708   0.23480095 
 3210000    1.0203703 -3.0135729e-05    0.3938296  0.052065031            0   0.34176457    1.4922916    1.8861212   -1.1997775 
 3215000     1.007065 2.9356097e-05    0.4188104 0.0059298979            0    0.4128805    1.4728325    1.8916429    4.8977073 
 3220000     1.015196 1.5840381e-07   0.30039769 0.0085366013            0   0.29186109    1.4847242    1.7851219    1.8013424 
 3225000   0.99812145 -1.3880138e-05   0.27897167 0.0037356508            0   0.27523602    1.4597526    1.7387243   0.31739819 
 3230000   0.98487619 3.8328201e-05   0.28901446  0.017562735            0   0.27145172    1.4403814    1.7293959    5.6542036 
 3235000    0.9272024 2.852718e-05   0.31783986  0.023066081            0   0.29477378    1.3560335    1.6738734    4.5950567 
 3240000   0.95000122 -1.8911375e-05   0.27781505 0.0037180724            0   0.27409697    1.3893768    1.6671918  -0.26933298 
 3245000   0.85732507 -5.8133758e-05   0.42117331 0.0020287705            0   0.41914453    1.2538379    1.6750112   -4.2778856 
 3250000    0.9131442 -2.2411125e-05    0.2955131 0.0011187839            0   0.29439431    1.3354734    1.6309865  -0.66391267 
 3255000   0.88489669 7.5374853e-05   0.31854854  0.026049632            0   0.29249891    1.2941614    1.6127099    9.3310949 
 3260000   0.81312358 5.5214649e-05   0.37725149  0.040902505            0   0.33634899    1.1891932    1.5664447    7.2204248 
 3265000   0.88988855 -2.9238107e-05   0.28507758 0.0042771745            0   0.28080041     1.301462    1.5865396   -1.4074426 
 3270000   0.78815072 -4.3806496e-05   0.38460031  0.032651725            0   0.35194859    1.1526704    1.5372707   -2.9485144 
 3275000   0.78497502 3.6399263e-05    0.3919346  0.052790235            0   0.33914436     1.148026    1.5399606    5.2672451 
 3280000   0.82838263 -5.0045186e-05   0.33440777  0.021171725            0   0.31323604    1.2115096    1.5459174   -3.5787097 
 3285000    0.8624091 -4.0268821e-05   0.31446041   0.01557782            0   0.29888259    1.2612733    1.5757337   -2.5477935 
 3290000   0.80995207 1.1591034e-05   0.34695388  0.038532958            0   0.30842092    1.1845549    1.5315088    2.7184307 
 3295000   0.84291325 2.0970589e-05   0.29860786  0.042663208            0   0.25594465    1.2327606    1.5313685    3.6787568 
 3300000   0.80760621 3.5527217e-05   0.35680566 0.0047884515            0   0.35201721    1.1811241    1.5379297    5.1759168 
 3305000   0.80980694 -2.2719505e-05   0.31245341 3.1241963e-07            0    0.3124531    1.1843426    1.4967961  -0.82968125 
 3310000   0.84327083 -7.0889957e-06   0.28303095            0            0   0.28303095    1.2332836    1.5163145   0.79040139 
 3315000   0.79848089 4.5882947e-05   0.35409637 0.0005608318            0   0.35353554    1.1677783    1.5218747    6.2202884 
 3320000   0.76629163 -2.713291e-05   0.32948566  0.041721672            0   0.28776399    1.1207015    1.4501872   -1.3282228 
 3325000   0.72262818 -3.481798e-05   0.38529827  0.042347463            0    0.3429508    1.0568437     1.442142   -2.1232191 
 3330000    0.7819255 1.2750821e-05   0.29865884 0.0039822805            0   0.29467656     1.143566    1.4422249     2.747909 
 3335000   0.80722659 7.9531427e-06   0.27348449 0.0079064727            0   0.26557802    1.1805689    1.4540534    2.2684552 
 3340000   0.75464526 6.2426916e-05   0.35831693  0.049456651            0   0.30886028    1.1036687    1.4619856    7.8545018 
 3345000   0.75843085 2.454144e-05   0.38413663   0.03780907            0   0.34632756    1.1092051    1.4933418    4.0063852 
 3350000   0.77330872 -6.4083422e-05    0.3697063  0.015185278            0   0.35452102     1.130964    1.5006703   -5.0614721 
 3355000    0.8115177 1.3640248e-05   0.30141549 0.0078892954            0    0.2935262    1.1868446    1.4882601    2.8850215 
 3360000   0.85682893 5.5571998e-05   0.24146845 0.0019674886            0   0.23950096    1.2531123    1.4945808    7.1851534 
 3365000   0.78664362 -1.0147565e-05   0.36166061 8.552976e-08            0   0.36166052    1.1504663    1.5121269    0.4730162 
 3370000   0.79887056 1.8663174e-06   0.30869421 1.617931e-05            0   0.30867803    1.1683482    1.4770424    1.6681533 
 3375000   0.74585012 1.6353969e-05   0.41573533  0.026446028            0    0.3892893    1.0908058    1.5065411    3.1811876 
 3380000   0.71877472 1.894835e-06   0.44557401   0.04901811            0    0.3965559     1.051208     1.496782    1.6908131 
 3385000   0.79311593 1.9452377e-05   0.32701144  0.039739749            0   0.28727169     1.159932    1.4869435    3.4788669 
 3390000   0.69715163 1.4051341e-05   0.46015826  0.056394446            0   0.40376381    1.0195843    1.4797425    2.9185999 
 3395000   0.77905951 3.4200103e-05   0.39083534    0.0112535            0   0.37958184    1.1393745    1.5302099    5.0323005 
 3400000   0.72637166 3.810027e-05   0.45544288  0.033314831            0   0.42212805    1.0623186    1.5177614    5.4192291 
 3405000   0.82975396 -1.4586233e-05   0.30047389   0.02599052            0   0.27448337    1.2135152    1.5139891  0.020358781 
 3410000   0.74147813 -2.0039532e-05   0.40677664 0.00037137172            0   0.40640527    1.0844118    1.4911884  -0.56085965 
 3415000   0.86353953 3.4221924e-05   0.25521314            0            0   0.25521314    1.2629266    1.5181397    5.0224647 
 3420000   0.81939795 2.1335881e-05   0.34161826 2.6546538e-08            0   0.34161823    1.1983695    1.5399878     3.724782 
 3425000    0.7956115 -3.771669e-05   0.40712629 0.0018930091            0   0.40523328    1.1635818    1.5707081    -2.291481 
 3430000   0.81992082 -4.8241772e-05   0.36398915  0.003899317            0   0.36008983    1.1991342    1.5631233   -3.3768341 
 3435000   0.90951681 -4.2045872e-06    0.2228663 0.0053210454            0   0.21754526    1.3301683    1.5530346    1.1224849 
 3440000   0.82584248 2.098164e-05   0.35576452 0.0028161321            0   0.35294839    1.2077946    1.5635592    3.7120791 
 3445000   0.87883819 4.3905704e-07   0.30285344 0.0008728541            0   0.30198058    1.2853009    1.5881543    1.6331137 
 3450000   0.83120382 -2.0854313e-05   0.37038255 0.0018377004            0   0.36854485    1.2156356    1.5860181  -0.54946352 
 3455000   0.82897346 -9.2644791e-06   0.34753572 0.0063887024            0   0.34114701    1.2123737    1.5599094   0.61122675 
 3460000   0.78512838 -2.3239737e-05   0.36899501   0.02407439            0   0.34492062    1.1482503    1.5172453  -0.86250382 
 3465000   0.79366767 -1.6300454e-05   0.36741664  0.016066128            0   0.35135051     1.160739    1.5281556  -0.14101087 
 3470000   0.81536494 -4.640726e-05   0.37931511 0.0025515981            0   0.37676351    1.1924712    1.5717863   -3.1803171 
 3475000   0.81637521 -7.0256486e-05   0.35663255  0.025769058            0   0.33086349    1.1939487    1.5505813   -5.6436829 
 3480000    0.8280115 4.716425e-06    0.3510631  0.016142956            0   0.33492015    1.2109668    1.5620299    2.0449918 
 3485000   0.82472644 3.281928e-05    0.3610621 0.0015298639            0   0.35953223    1.2061624    1.5672245    4.9279187 
 3490000   0.86248825 -2.1292822e-05   0.29920006 0.0021203364            0   0.29707972    1.2613891    1.5605891  -0.61979589 
 3495000   0.80578987 -3.3123621e-05   0.36227413 0.0025156536            0   0.35975848    1.1784677    1.5407418    -1.851117 
 3500000   0.84146755 -4.2513726e-05   0.34751316 0.0087785232            0   0.33873463    1.2306463    1.5781594   -2.7752461 
 3505000   0.88964389 -2.4097154e-05   0.29433465  0.019460993            0   0.27487366    1.3011042    1.5954388  -0.87210978 
 3510000   0.90264402 7.7813151e-06   0.27378766  0.044460462            0   0.22932719    1.3201169    1.5939045    2.3907112 
 3515000   0.84218374 8.9048629e-05   0.34228929  0.032055309            0   0.31023398    1.2316937     1.573983    10.692563 
 3520000   0.76197908 9.7376871e-05   0.44284044  0.006381476            0   0.43645897    1.1143944    1.5572349    11.528626 
 3525000   0.81751667 1.628052e-05   0.34228802 0.0027624183            0   0.33952561    1.1956181    1.5379062    3.2050314 
 3530000   0.82255668 -3.4416176e-05   0.33458946 0.0031926684            0   0.33139679    1.2029891    1.5375786   -1.9866378 
 3535000   0.85816471 -5.003142e-05   0.30437908  0.025874048            0   0.27850503    1.2550659     1.559445   -3.5637725 
 3540000   0.86602711 2.3279282e-06   0.30526638  0.028192464            0   0.27707392    1.2665646     1.571831    1.8102109 
 3545000   0.73610249 9.626496e-06   0.45511254  0.016071216            0   0.43904132    1.0765499    1.5316624    2.5174156 
 3550000   0.86004632 -2.223845e-06   0.27888971  0.033761528            0   0.24512818    1.2578177    1.5367075    1.3089857 
 3555000   0.81883572 1.1687214e-05   0.28218569  0.010166602            0   0.27201908    1.1975472    1.4797329    2.6765036 
 3560000   0.77334606 2.5051972e-05   0.37941909  0.016860498            0    0.3625586    1.1310186    1.5104377    4.0757597 
 3565000   0.74377741 -4.3748083e-06   0.42928468  0.038943517            0   0.39034117    1.0877745    1.5170591    1.0690788 
 3570000   0.81419104 1.1690796e-05   0.33242661   0.00758128            0   0.32484533    1.1907544     1.523181    2.7203185 
 3575000   0.83022247 3.5761354e-05   0.30763943  0.014451659            0   0.29318777    1.2142004    1.5218398    5.1838025 
 3580000   0.83228727 -1.3426092e-05   0.32629215  0.014272911            0   0.31201924    1.2172201    1.5435123   0.16868045 
 3585000   0.81885226 -4.5290266e-05   0.39542008 0.0028169623            0   0.39260311    1.1975714    1.5929915   -3.0447317 
 3590000    0.8760604 -5.1945507e-05   0.32770949 0.0069990351            0   0.32071046    1.2812383    1.6089478    -3.710272 
 3595000    0.8494092 -5.0888523e-06   0.35697479 0.0085891284            0   0.34838566     1.242261    1.5992357    1.0781373 
 3600000   0.85052689 0.0001375195   0.34055355 0.0015853067            0   0.33896824    1.2438956    1.5844491    15.666446 
 3605000   0.84366466 9.0930645e-05   0.32352942  0.008544774            0   0.31498465    1.2338596     1.557389    10.868687 
 3610000   0.78494197 -7.8467635e-05   0.40650803  0.060521812            0   0.34598622    1.1479776    1.5544857   -6.4806002 
 3615000   0.78521874 -8.7241174e-05   0.45222159  0.058879457            0   0.39334213    1.1483824     1.600604   -7.3328922 
 3620000   0.90489525 -5.0802563e-05   0.27454153  0.023366503            0   0.25117503    1.3234093    1.5979508   -3.6042316 
 3625000   0.78956579 2.9536681e-05   0.44646145  0.050052841            0   0.39640861      1.15474    1.6012014    4.6257575 
 3630000   0.81147478 2.7716858e-05   0.37105696 0.0089563995            0   0.36210056    1.1867819    1.5578388    4.3960451 
 3635000   0.77205413 -2.7128433e-05   0.44957645 0.00026188034            0   0.44931457    1.1291292    1.5787056    -1.199246 
 3640000   0.83481547 1.9140781e-05   0.33699347            0            0   0.33699347    1.2209176    1.5579111    3.5179271 
 3645000   0.75350859 -5.1852976e-05   0.44170332 0.0097544561            0   0.43194887    1.1020063    1.5437096   -3.7660351 
 3650000    0.7632666 -1.2576928e-05   0.39296025  0.054087682            0   0.33887256    1.1162774    1.5092376   0.22136022 
 3655000   0.80164022 -4.0883592e-06   0.37896044 0.0095999178            0   0.36936052    1.1723988    1.5513593    1.1327113 
 3660000   0.84829751 -6.7053363e-05   0.35124451  0.025475228            0   0.32576928    1.2406351    1.5918796   -5.2743847 
 3665000   0.80388693 2.5992511e-05   0.39412762  0.033925702            0   0.36020191    1.1756846    1.5698123    4.2314453 
 3670000   0.78075382 -2.0247844e-05    0.3979513  0.028279814            0   0.36967148    1.1418525    1.5398038  -0.53357545 
 3675000   0.79306181 -6.3031886e-05   0.36828879  0.010337797            0     0.357951    1.1598529    1.5281417   -4.9263234 
 3680000   0.83778375 -4.5104794e-05   0.32279309  0.030230987            0    0.2925621    1.2252587    1.5480518   -3.0706791 
 3685000   0.78686215 1.7268256e-05   0.35582802  0.012560096            0   0.34326793    1.1507859    1.5066139    3.2748833 
 3690000   0.83144264 3.8202837e-05    0.2970594 0.0017764071            0   0.29528299    1.2159849    1.5130443    5.4250148 
 3695000   0.78031676 -4.3938288e-05   0.37184615   0.01461924            0   0.35722691    1.1412133    1.5130594   -2.9862213 
 3700000   0.77168987 -5.7599304e-06   0.37424833   0.04682812            0   0.32742021    1.1285964    1.5028448   0.91302789 
 3705000   0.78004773 9.0247466e-05   0.32536382  0.037455811            0   0.28790801    1.1408198    1.4661836    10.707524 
 3710000   0.71211853 6.1690613e-05   0.42629054  0.038614269            0   0.38767627    1.0414734    1.4677639    7.7848827 
 3715000   0.76822978 -5.180604e-06   0.34235751  0.027506174            0   0.31485134     1.123536    1.4658936   0.93539971 
 3720000   0.84412201 -2.2484835e-05   0.26645701 0.0072461824            0   0.25921083    1.2345284    1.5009855   -0.8014617 
 3725000   0.74233111 -3.1199232e-05   0.41187874  0.018949613            0   0.39292912    1.0856592     1.497538   -1.6972634 
 3730000   0.76569532 -4.3044641e-05   0.38839526  0.030996505            0   0.35739875    1.1198294    1.5082247   -2.8995465 
 3735000   0.77305292 -5.6341043e-07   0.36325794  0.011061135            0    0.3521968    1.1305899    1.4938478    1.4361546 
 3740000   0.77632604 -5.2638566e-06   0.32457776  0.036270218            0   0.28830754    1.1353768    1.4599546   0.92093568 
 3745000   0.76457302 -1.0827746e-05   0.36185877  0.026190754            0   0.33566802     1.118188    1.4800468   0.37128565 
 3750000   0.78551947 3.7207723e-05   0.36757009  0.012751418            0   0.35481867    1.1488222    1.5163923    5.3264632 
 3755000    0.7975285 3.9891922e-05    0.3284293 0.0039897868            0   0.32443951    1.1663854    1.4948147    5.5797475 
 3760000   0.77179625 -1.7081425e-05    0.3419182   0.01252031            0   0.32939789     1.128752    1.4706702  -0.27846767 
 3765000   0.80436816 -6.8895581e-05   0.29856691    0.0293135            0   0.26925341    1.1763884    1.4749553   -5.5799521 
 3770000   0.80153016 -1.4606177e-05     0.351615  0.013957729            0   0.33765727    1.1722379    1.5238529  0.028180345 
 3775000   0.77036014 3.2896793e-08   0.36719621  0.047600508            0   0.31959571    1.1266517    1.4938479    1.4972166 
 3780000   0.77468746 -2.121516e-05   0.36050245  0.034224417            0   0.32627803    1.1329804    1.4934829  -0.67894957 
 3785000   0.81179674 -1.9473351e-05   0.31415985   0.02023543            0   0.29392442    1.1872527    1.5014126  -0.49265854 
 3790000   0.71996992 -2.3248386e-05   0.44311255  0.055274703            0   0.38783784     1.052956    1.4960686  -0.88456622 
 3795000   0.82688912 -3.0922232e-05   0.30805951  0.027865493            0   0.28019402    1.2093253    1.5173848   -1.6490517 
 3800000   0.77218706 -3.3732022e-05   0.40480945  0.019760035            0   0.38504941    1.1293236     1.534133    -1.920026 
 3805000   0.82657137 -1.7207908e-05    0.3250249  0.037133794            0    0.2878911    1.2088606    1.5338855   -0.2282042 
 3810000    0.8218187 -2.4165084e-06   0.30639448  0.027362499            0   0.27903198    1.2019099    1.5083043    1.2608539 
 3815000   0.89199544 -2.007588e-05   0.24110599 0.00059285916            0   0.24051313    1.3045433    1.5456493  -0.51012082 
 3820000   0.85057426 -2.2039516e-05   0.32826312 0.0023312984            0   0.32593182    1.2439649     1.572228  -0.68461851 
 3825000   0.84254011 3.9897377e-06   0.37988046 0.0081606197            0   0.37171984    1.2322149    1.6120954    2.0206445 
 3830000    0.8768852 1.8663124e-05   0.31829686  0.022652833            0   0.29564402    1.2824446    1.6007415    3.5118454 
 3835000   0.94640381 2.5123129e-05   0.24263366  0.024604346            0   0.21802932    1.3841156    1.6267492    4.1993577 
 3840000   0.88919007 2.7447187e-05   0.34300342  0.013715282            0   0.32928813    1.3004405    1.6434439    4.4540358 
 3845000   0.82751039 8.4746523e-06   0.41408607  0.036145151            0   0.37794092     1.210234      1.62432    2.4921244 
 3850000   0.86127446 1.294968e-05   0.43177433  0.064078856            0   0.36769548    1.2596139    1.6913882    3.0174355 
 3855000   0.95402941 -3.6388458e-05   0.32118626  0.020600535            0   0.30058573     1.395268    1.7164543   -2.0097239 
 3860000   0.89205565 -6.0065958e-05   0.42514086  0.026140081            0   0.39900078    1.3046314    1.7297722   -4.4209818 
 3865000   0.92029265 -3.6930288e-05   0.40772094  0.046087209            0   0.36163373     1.345928    1.7536489   -2.0280125 
 3870000   0.97906473 -6.5969392e-05   0.32560252  0.043239579            0   0.28236294    1.4318822    1.7574847   -4.9977811 
 3875000   0.91120528 -3.6037941e-05   0.45009603  0.048729464            0   0.40136657    1.3326377    1.7827338   -1.9075514 
 3880000    1.0356879 7.420597e-05   0.26512103  0.063325483            0   0.20179555    1.5146935    1.7798146    9.3785059 
 3885000   0.89880883 0.00013566321   0.47761064  0.027099779            0   0.45051086    1.3145079    1.7921186    15.684031 
 3890000    1.0097913 8.6265416e-05   0.31189333  0.043833264            0   0.26806006    1.4768197     1.788713    10.622292 
 3895000   0.99808669 -4.0971044e-06   0.31211085  0.054016272            0   0.25809457    1.4597018    1.7718126    1.3522691 
 3900000    1.0410541 1.4117802e-05   0.26424805  0.023811893            0   0.24043616    1.5225416    1.7867897    3.2324526 
 3905000   0.96821365 3.7671171e-05   0.37412034 0.0045397856            0   0.36958055    1.4160125    1.7901328    5.6476607 
 3910000   0.93094187 6.5736454e-06   0.41875716 0.0013984369            0   0.41735873    1.3615025    1.7802597    2.4534009 
 3915000    1.0250792 9.4223859e-06   0.27447622 0.0018924125            0   0.27258381    1.4991783    1.7736546    2.7385069 
 3920000   0.95576639 -3.6681833e-05   0.37453698  0.014428474            0   0.36010851    1.3978083    1.7723453   -1.9838744 
 3925000   0.88630883 -3.1156582e-05   0.44655909  0.077386641            0   0.36917245    1.2962267    1.7427858   -1.4476483 
 3930000   0.87088115 -5.0401044e-06   0.45099242  0.017647739            0   0.43334468    1.2736637    1.7246561    1.2085494 
 3935000   0.93041003 3.8814051e-05   0.40848536  0.001800077            0   0.40668528    1.3607247      1.76921    5.7437689 
 3940000   0.96594784 -8.8545509e-06   0.35183743 0.0034130984            0   0.34842433    1.4126987    1.7645361   0.85783013 
 3945000   0.94876535 -3.7335164e-05   0.41249633  0.046550669            0   0.36594566    1.3875693    1.8000656   -2.0230552 
 3950000   0.97289551 5.4693506e-05   0.40020073    0.0263696            0   0.37383113    1.4228597    1.8230604    7.4236754 
 3955000    1.0317665   2.3407e-05   0.30962239  0.002068737            0   0.30755365    1.5089586     1.818581    4.2154578 
 3960000   0.96844281 -1.5063299e-06   0.42547062 0.0040447904            0   0.42142583    1.4163476    1.8418182    1.6875701 
 3965000   0.99663467 2.5887332e-05   0.35707931 0.0059689794            0   0.35111033    1.4575782    1.8146575    4.4655203 
 3970000   0.95605221 1.1470912e-06   0.41377192 0.0056286373            0   0.40814329    1.3982264    1.8119983    1.9294604 
 3975000   0.97019017 1.4099212e-05   0.43239132  0.018348592            0   0.41404272    1.4189031    1.8512944    3.2950538 
 3980000    1.0591561 1.7501838e-05   0.27755747 0.0079489613            0   0.26960851    1.5490158    1.8265732    3.6187614 
 3985000   0.96035376 -1.662265e-05   0.43256684 0.00010577524            0   0.43246107    1.4045174    1.8370842   0.13492489 
 3990000   0.96253063 1.1936921e-05   0.39405867 0.00052813359            0   0.39353054     1.407701    1.8017597    3.0241004 
 3995000    1.0026352 7.6229827e-05   0.34497915 0.0080408014            0   0.33693835     1.466354    1.8113332    9.6172675 
 4000000   0.98843554 7.0777935e-05   0.40261138  0.017140398            0   0.38547099     1.445587    1.8481984    9.0958589 
 4005000    0.9651908 -3.104996e-05   0.41195874   0.01990085            0   0.39205789    1.4115915    1.8235503   -1.3559656 
 4010000   0.99665667 -8.639953e-05   0.35509597   0.01019707            0    0.3448989    1.4576104    1.8127063   -7.0346055 
 4015000    0.9340038 -3.1353152e-05   0.44717248 0.0049937499            0   0.44217873    1.3659806     1.813153   -1.3974097 
 4020000   0.92671167 6.430505e-05   0.45517516  0.007389498            0   0.44778566    1.3553158     1.810491    8.3953281 
 4025000   0.89158993 7.0628552e-05   0.49291514 0.0068762604            0   0.48603888    1.3039503    1.7968654    9.0292291 
 4030000    1.0130733 -1.1239831e-05   0.32328557 0.0044086686            0    0.3188769    1.4816198    1.8049053    0.6539466 
 4035000   0.97385704 -6.3981896e-05   0.35759015 0.0023496796            0   0.35524047    1.4242659    1.7818561   -4.7698901 
 4040000   0.94344965 -2.7548418e-05   0.39214196 0.0010086239            0   0.39113334    1.3797951    1.7719371   -1.0490209 
 4045000   0.98875814 -1.1075561e-05   0.32986454 0.0023044293            0   0.32756011    1.4460588    1.7759233   0.64178585 
 4050000   0.98117087 -1.4956108e-06   0.33120174  0.011030091            0   0.32017164    1.4349624    1.7661641    1.6130136 
 4055000    1.0125439 4.5752035e-05   0.31601109  0.010877164            0   0.30513392    1.4808455    1.7968566     6.481865 
 4060000   0.90755173 7.2541111e-05   0.44979603  0.036832871            0   0.41296316    1.3272944    1.7770904    9.2053002 
 4065000   0.91330452 8.1605374e-05   0.43529607  0.023048737            0   0.41224733    1.3357079    1.7710039    10.127394 
 4070000   0.94862682 2.5017575e-05   0.34750397  0.011768799            0   0.33573518    1.3873667    1.7348707    4.2966704 
 4075000   0.91445112 -3.2737849e-05   0.39824943  0.048015327            0   0.35023411    1.3373848    1.7356342   -1.6167215 
 4080000   0.98555873 2.5475786e-05   0.32711584  0.064808757            0   0.26230708    1.4413796    1.7684955    4.3772159 
 4085000   0.89579996 7.0240916e-05   0.44637371   0.07512838            0   0.37124533    1.3101074    1.7564812    8.9491509 
 4090000   0.96127983 2.5254583e-05   0.34652417  0.033559892            0   0.31296427    1.4058718    1.7523959    4.3384652 
 4095000   0.98511543 -3.754285e-05   0.33860384 0.0020331798            0   0.33657066    1.4407313    1.7793352   -2.0650527 
 4100000   0.93143303 -3.5602487e-05   0.43866376 0.0071810107            0   0.43148275    1.3622208    1.8008846   -1.8448101 
 4105000    1.0431867 -2.7269306e-05   0.26738067  0.037492152            0   0.22988852    1.5256606    1.7930413  -0.99933562 
 4110000   0.94937959 -1.6535991e-05   0.43553239  0.030626239            0   0.40490615    1.3884677        1.824   0.13071457 
 4115000    1.0298436 4.2871366e-05   0.34710514  0.008074818            0   0.33903032    1.5061462    1.8532514    6.2432792 
 4120000    0.9584596 4.0939721e-05    0.4143869 0.0022359374            0   0.41215096    1.4017472    1.8161341    6.0083615 
 4125000    1.0318069 2.8655127e-05   0.29944588            0            0   0.29944588    1.5090176    1.8084635    4.7427485 
 4130000    1.0251851 -1.4085675e-05   0.30586925 2.2585208e-05            0   0.30584667    1.4993332    1.8052025   0.36282933 
 4135000   0.99605279 -5.6873448e-05   0.38149356   0.01228909            0   0.36920447    1.4567272    1.8382208   -3.9856203 
 4140000   0.97873121 -1.4467927e-05    0.3419011  0.022458207            0   0.31944289    1.4313944    1.7732955   0.29177975 
 4145000   0.89229714 4.0387126e-06   0.48510673 0.0095938005            0   0.47551293    1.3049846    1.7900913    2.2036555 
 4150000   0.91704773 -3.2613553e-05   0.46623769  0.006362681            0   0.45987501    1.3411823      1.80742   -1.5322078 
 4155000   0.95666856 -8.6088309e-05   0.41706229 0.0028545804            0   0.41420771    1.3991278    1.8161901   -6.9992528 
 4160000   0.93860773 -6.0856432e-05   0.43022002  0.011390089            0   0.41882993    1.3727138    1.8029338   -4.4287648 
 4165000   0.84518717 -2.913675e-05   0.57467895   0.10342834            0   0.47125061    1.2360862    1.8107652    -1.172838 
 4170000   0.98420171 -2.6590563e-05   0.38272572  0.014483438            0   0.36824228     1.439395    1.8221207  -0.90075288 
 4175000   0.89280258 8.0166271e-06   0.47280005 0.0055179688            0   0.46728208    1.3057238    1.7785238    2.5994264 
 4180000   0.90432983 -2.8170824e-06   0.44899391  0.000475134            0   0.44851877    1.3225824    1.7715763     1.483107 
 4185000   0.99516089 2.151443e-05   0.34323829 0.00014007526            0   0.34309822    1.4554228    1.7986611    4.0017387 
 4190000    0.9133702 -3.8059345e-05   0.42161321 0.0039778563            0   0.41763536    1.3358039    1.7574171   -2.1398598 
 4195000   0.98574465 -8.4093499e-05   0.32784909 0.0099359897            0    0.3179131    1.4416516    1.7695006   -6.8416736 
 4200000   0.90502509 3.2323721e-05   0.42264262 0.0079614506            0   0.41468117    1.3235992    1.7462418    5.0561908 
 4205000   0.94393408 -1.8942457e-06   0.37208645  0.038967128            0   0.33311932    1.3805036      1.75259    1.5586193 
 4210000   0.89605578 -6.9522282e-05   0.43748413  0.079166351            0   0.35831778    1.3104816    1.7479657    -5.371116 
 4215000   0.92456044 -5.1349504e-05   0.40649979  0.033504563            0   0.37299523    1.3521696    1.7586694   -3.4995198 
 4220000    0.9663867 2.5129942e-05   0.34076041  0.008855433            0   0.33190497    1.4133406     1.754101     4.327407 
 4225000   0.96810474 7.9308935e-05   0.33914396 0.00017692282            0   0.33896704    1.4158532    1.7549971    9.8762321 
 4230000   0.94892719 2.0000142e-05   0.38395272 0.0012786324            0   0.38267409     1.387806    1.7717587    3.8197733 
 4235000   0.98754671 2.5618889e-05   0.36008704 0.0066888441            0   0.35339819    1.4442871    1.8043741    4.4277483 
 4240000     1.034504 1.3471391e-06   0.30428997 0.0045319011            0   0.29975807    1.5129621    1.8172521    1.9551992 
 4245000   0.99051353 -2.8726468e-05   0.39009979 0.0046257798            0   0.38547401     1.448626    1.8387258   -1.1028645 
 4250000   0.92872067 -2.563963e-05   0.47588171  0.033583769            0   0.44229794     1.358254    1.8341357  -0.79136242 
 4255000    1.0268365 -1.2092717e-05   0.33790415  0.042537669            0   0.29536648    1.5017484    1.8396526   0.60135839 
 4260000    1.0185679 -4.798629e-06   0.33830236  0.061485957            0    0.2768164    1.4896556    1.8279579    1.3365783 
 4265000   0.95077764 1.1383321e-05   0.47193355  0.043390336            0   0.42854322    1.3905123    1.8624459    3.0280979 
 4270000   0.96468601 4.0127633e-06   0.49307124  0.044507483            0   0.44856376    1.4108533    1.9039245    2.3148315 
 4275000    1.0143274 -7.4858693e-05   0.49630369  0.044787632            0   0.45151605    1.4834539    1.9797576   -5.6857726 
 4280000    1.0905125 -9.9538323e-05   0.40049484  0.014619711            0   0.38587513    1.5948745    1.9953693    -8.197355 
 4285000    1.0587784 2.8729403e-06   0.44489633  0.018472528            0    0.4264238    1.5484634    1.9933598    2.2875488 
 4290000    1.0077957 7.0655659e-05   0.47405386  0.014026845            0   0.46002702    1.4739013    1.9479551    9.1830946 
 4295000    1.0563612 -6.5732638e-06   0.43657837 0.0059278253            0   0.43065054    1.5449283    1.9815066    1.3084044 
 4300000     1.051477 -8.8490852e-05   0.47763488  0.010669004            0   0.46696587     1.537785    2.0154199   -7.0460433 
 4305000    1.0881436 -9.5770477e-05   0.45381582  0.036074976            0   0.41774085      1.59141    2.0452258    -7.761671 
 4310000   0.97544589 -1.1321387e-05    0.6011568  0.059653589            0   0.54150322    1.4265896    2.0277464   0.86843642 
 4315000    1.0829223 -1.0741892e-06   0.39994245 0.0061850387            0   0.39375741    1.5837739    1.9837164    1.8737194 
 4320000     1.107612 -2.7716166e-05   0.36068794 0.00036873157            0    0.3603192    1.6198826    1.9805705  -0.85756489 
 4325000    1.0946015 6.036083e-05   0.38183284  0.075412977            0   0.30641986    1.6008548    1.9826876    8.1636366 
 4330000   0.95829988 0.00011132145   0.57219384   0.11516734            0    0.4570265    1.4015136    1.9737074    13.373024 
 4335000    1.0417407 5.8793941e-05   0.49294169 0.0026786598            0   0.49026303    1.5235457    2.0164874     8.036987 
 4340000    1.0755464 -1.4031869e-05   0.45266556 0.00068534302            0   0.45198022    1.5729866    2.0256521   0.58878876 
 4345000    1.1250201 -1.7352994e-05   0.35787932            0            0   0.35787932     1.645342    2.0032213   0.22627466 
 4350000   0.96831285 3.3847073e-05   0.60021703 0.00011683992            0   0.60010019    1.4161575    2.0163746    5.4823149 
 4355000    1.0536007 2.096952e-05   0.49391012 0.0021680547            0   0.49174207    1.5408911    2.0348012      4.18208 
 4360000    1.1181093 -9.3304376e-05    0.4685638 0.0041144152            0   0.46444939    1.6352348    2.1037987   -7.4505694 
 4365000    1.1488465 -9.4586055e-05   0.42309791 0.0079877696            0   0.41511014     1.680188    2.1032859   -7.5823261 
 4370000    1.1696037 9.6996844e-06   0.38719538  0.026093538            0   0.36110185    1.7105455    2.0977409    3.0909885 
 4375000    1.0966138 3.4325421e-05   0.51933002   0.01072799            0   0.50860203    1.6037977    2.1231277    5.6380508 
 4380000    1.0447451 1.6456442e-05   0.59324886 0.0076576345            0   0.58559123    1.5279397    2.1211885    3.8063282 
 4385000    1.1515809 9.304904e-06    0.4167391  0.010290944            0   0.40644816    1.6841871    2.1009262    3.0537484 
 4390000   0.98957042 -5.3536896e-05    0.7086922  0.048514323            0   0.66017788    1.4472467    2.1559389   -3.3262392 
 4395000    1.0911594 -3.4017887e-05   0.54516567  0.022510494            0   0.52265517    1.5958207    2.1409863   -1.3424453 
 4400000     1.100916 4.4328254e-05   0.58351146 0.0040432277            0   0.57946823    1.6100896    2.1936011    6.7328143 
 4405000    1.1180676 2.5012482e-05   0.56619072  0.020669869            0   0.54552085    1.6351739    2.2013646    4.7626428 
 4410000   0.98417219 -1.1226723e-05   0.76812671  0.098850017            0   0.66927669    1.4393518    2.2074785    1.0578621 
 4415000     1.206817 7.6340585e-05   0.41708737  0.027590441            0   0.38949693    1.7649698    2.1820572    9.9993331 
 4420000    1.1889633 1.078246e-05   0.41820897 0.0032054234            0   0.41500354    1.7388588    2.1570678    3.2611917 
 4425000   0.99652817 -0.00011625999   0.67917592   0.05143139            0   0.62774453    1.4574225    2.1365984   -9.7684249 
 4430000    1.1299095 2.4735045e-06   0.47042309  0.025422239            0   0.44500086    1.6524927    2.1229158    2.3762026 
 4435000     1.135228 0.00010848335   0.46388299 0.0061109532            0   0.45777204     1.660271     2.124154    13.232849 
 4440000    1.0027522 6.7368009e-05    0.6137652 0.0049056347            0   0.60885957    1.4665251    2.0802903    8.9787744 
 4445000    1.0524619 -2.2607809e-05   0.51309808  0.014931057            0   0.49816702    1.5392255    2.0523236  -0.26271606 
 4450000    1.0766329 -5.1158616e-05   0.48899613  0.032878844            0   0.45611729    1.5745756    2.0635718   -3.1750705 
 4455000    1.1553794 -4.0295083e-05   0.46218323  0.019892269            0   0.44229096    1.6897424    2.1519256   -1.9742909 
 4460000    1.0586203 -7.8852654e-05   0.65543717 0.0060328689            0    0.6494043    1.5482321    2.2036693   -5.8708424 
 4465000    1.1287192 2.5775642e-05   0.54886756   0.04978525            0   0.49908231    1.6507518    2.1996194    4.8390451 
 4470000    1.0394639 6.5691406e-05   0.66326355   0.10778923            0   0.55547432    1.5202159    2.1834795    8.9102794 
 4475000    1.1467953 -6.0771385e-05   0.52601326   0.01185001            0   0.51416325    1.6771881    2.2032014   -4.0197884 
 4480000    1.2643772 -4.492095e-05   0.34856326  0.029604173            0   0.31895908    1.8491517    2.1977149   -2.4021904 
 4485000    1.1683907 6.2740821e-06   0.50174371  0.036510908            0    0.4652328    1.7087714    2.2105151    2.8529811 
 4490000     1.181967 -1.4559042e-05   0.44350195 0.0044927766            0   0.43900918    1.7286267    2.1721287   0.68128279 
 4495000    1.0767495 2.9548043e-05   0.60733044  0.021083977            0   0.58624646    1.5747462    2.1820766    5.2077962 
 4500000    1.1074934 -4.7475837e-05   0.55501556  0.023583069            0   0.53143249    1.6197091    2.1747247    -2.686801 
 4505000    1.1765373 6.6898308e-06   0.44013606   0.01008401            0   0.43005205    1.7206859    2.1608219    2.8458606 
 4510000    1.1480536 -1.6452345e-05   0.46630682  0.019503565            0   0.44680325    1.6790285    2.1453353   0.46061518 
 4515000    1.0615339 -1.1625205e-06   0.62075576 0.0039277036            0   0.61682806    1.5524934    2.1732491     2.054207 
 4520000    1.1061359 -2.0010981e-05   0.59156585            0            0   0.59156585    1.6177238    2.2092897   0.16016527 
 4525000    1.2835023 -3.1253888e-05   0.38199188            0            0   0.38199188    1.8771221     2.259114  -0.94128408 
 4530000    1.2799829 1.3691086e-05   0.42271595            0            0   0.42271595     1.871975     2.294691    3.6966581 
 4535000    1.2931337 -5.4885489e-06   0.42295377            0            0   0.42295377    1.8912081    2.3141619    1.7521345 
 4540000    1.1270233 3.0950997e-05   0.66642715 0.00011655974            0   0.66631059    1.6482715    2.3146987    5.4840807 
 4545000    1.2653406 -3.9233861e-05   0.42614112 0.0095009122            0   0.41664021    1.8505607    2.2767018   -1.7408456 
 4550000    1.2887429 -4.9092001e-05   0.45898762  0.031552352            0   0.42743527    1.8847865    2.3437741   -2.6832467 
 4555000    1.3155928 -3.8781976e-05   0.44418923  0.054245428            0    0.3899438    1.9240544    2.3682437   -1.6030307 
 4560000     1.180616 4.2609667e-05   0.63284212  0.042364206            0   0.59047791    1.7266509     2.359493    6.7227229 
 4565000    1.2518417 0.00011641868   0.55286517  0.019736987            0   0.53312818    1.8308185    2.3836837    14.304957 
 4570000    1.2678146 2.5580143e-06   0.54159773  0.029085702            0   0.51251203    1.8541789    2.3957766    2.6577173 
 4575000    1.2484408 1.6333802e-05   0.60989057   0.11471007            0   0.49518049    1.8258447    2.4357353    4.1083166 
 4580000    1.2847692 -2.0669804e-05   0.59066641  0.032974861            0   0.55769155     1.878975    2.4696414   0.35305351 
 4585000    1.2069671 -4.4199873e-05   0.77487356 0.00021964007            0   0.77465392    1.7651894     2.540063    -1.986004 
 4590000    1.3132424 1.3914429e-05    0.6581356   0.02127854            0   0.63685706     1.920617    2.5787526    4.0035902 
 4595000    1.3793992 2.0202128e-06   0.54060592   0.03634486            0   0.50426106    2.0173713    2.5579772     2.764847 
 4600000    1.3994133 2.5573986e-05   0.51334237  0.023255285            0   0.49008709    2.0466419    2.5599843    5.1787605 
 4605000    1.2126745 -1.6860668e-05   0.78077873  0.023977921            0   0.75680081    1.7735365    2.5543152   0.82778282 
 4610000    1.3264948 0.00010790509   0.58867689  0.067835962            0   0.52084092    1.9399987    2.5286756    13.578157 
 4615000    1.2939214 6.1146809e-06   0.62253759  0.072703805            0   0.54983378      1.89236    2.5148976    3.1410409 
 4620000    1.2978562 1.341562e-05   0.63828935  0.071510771            0   0.56677858    1.8981147    2.5364041    3.9101635 
 4625000    1.2887793 6.5278307e-05   0.67984325  0.052017102            0   0.62782615    1.8848397     2.564683    9.2491816 
 4630000    1.3745397 -1.9608429e-05   0.52988715  0.015083469            0   0.51480368    2.0102642    2.5401514   0.53224832 
 4635000    1.3067493 2.7309816e-05   0.60123333  0.012232077            0   0.58900126    1.9111208    2.5123541    5.3088792 
 4640000    1.3231998 -2.9476243e-06   0.59217849  0.059368855            0   0.53280963    1.9351798    2.5273582    2.2255215 
 4645000    1.3526399 2.7597832e-05   0.54188846  0.023419813            0   0.51846864    1.9782359    2.5201243    5.3461424 
 4650000     1.168902 -5.7956686e-05   0.77782145  0.010869686            0   0.76695177    1.7095191    2.4873406   -3.4474241 
 4655000    1.4153212 4.0001239e-05   0.43436285   0.10545459            0   0.32890826    2.0699073    2.5042702     6.600397 
 4660000    1.2593252 4.7133857e-05   0.65531859  0.066846027            0   0.58847257    1.8417631    2.4970817    7.3235886 
 4665000    1.3163737 -2.5457178e-05   0.57297979  0.019260612            0   0.55371918    1.9251965    2.4981763  -0.10863871 
 4670000     1.185962 -3.6039239e-07   0.75463122  0.011076553            0   0.74355466    1.7344695    2.4891007    2.4521965 
 4675000    1.2051796 -9.4478458e-05   0.71724467  0.001904437            0   0.71534023    1.7625751    2.4798198   -7.1947743 
 4680000    1.3722475 -4.3187769e-05   0.47430012  0.010593299            0   0.46370682    2.0069119    2.4812121   -1.9412154 
 4685000    1.3290784 1.7995438e-05   0.55501536 0.0050489004            0   0.54996646    1.9437771    2.4987925    4.3415254 
 4690000      1.25852 -2.8485891e-05   0.67537221 0.0030714499            0   0.67230076    1.8405855    2.5159577  -0.40099751 
 4695000    1.4016801 5.0633653e-05   0.47656144   0.01273189            0   0.46382955    2.0499571    2.5265186    7.7114046 
 4700000    1.4064047 0.00011516311   0.50166244  0.044090506            0   0.45757193    2.0568668    2.5585293    14.351232 
 4705000    1.1744582 4.3732645e-05   0.73934084   0.02750327            0   0.71183757    1.7176451    2.4569859    6.9352088 
 4710000    1.2518935 -1.2417352e-05   0.60682441  0.059017835            0   0.54780658    1.8308943    2.4377187    1.1661819 
 4715000    1.3037833 -5.043257e-06   0.55567431  0.019225046            0   0.53644927    1.9067831    2.4624574    1.9460279 
 4720000    1.2288917 -2.2228629e-05   0.65924593  0.023480084            0   0.63576585    1.7972542    2.4565001   0.18028854 
 4725000    1.2507733 9.1653468e-05   0.63653567  0.054184651            0   0.58235102     1.829256    2.4657916    11.851107 
 4730000    1.3228384 5.7254859e-05   0.51850696  0.036178582            0   0.48232838    1.9346512    2.4531581    8.3160557 
 4735000    1.2771041 2.5539786e-05    0.5762803  0.033108601            0    0.5431717    1.8677648    2.4440451    5.0593192 
 4740000    1.2543895 7.0709346e-05   0.59022146  0.018425208            0   0.57179625    1.8345447    2.4247661    9.6654032 
 4745000    1.2416401 -2.5445968e-05   0.61164588  0.010495255            0   0.60115062    1.8158986    2.4275445  -0.17812258 
 4750000    1.2945514 8.9202045e-06   0.49492748 0.0047999081            0   0.49012757    1.8932814    2.3882089    3.3016379 
 4755000     1.288842 7.4357285e-05   0.52927746 0.00042420552            0   0.52885325    1.8849314    2.4142088    10.028395 
 4760000    1.2321057 -3.6998635e-06   0.60225164            0            0   0.60225164    1.8019546    2.4042062    2.0253402 
 4765000     1.174592 3.2473446e-05   0.65704168 0.00042532079            0   0.65661636    1.7178409    2.3748825    5.7001634 
 4770000    1.2162373 1.6676361e-05   0.60000361  0.004828513            0    0.5951751     1.778747    2.3787506      4.08641 
 4775000     1.285401 -7.1240472e-05   0.51481599  0.013306626            0   0.50150936    1.8798989    2.3947149   -4.9003094 
 4780000    1.3066848 -9.5681186e-05    0.4492438  0.012037079            0   0.43720672    1.9110265    2.3602703   -7.4374831 
 4785000    1.1871919 -3.596732e-05   0.63049138  0.014712763            0   0.61577862    1.7362681    2.3667595   -1.3162941 
 4790000      1.19204 2.9168424e-05     0.637653  0.013681984            0   0.62397101    1.7433585    2.3810115    5.3678582 
 4795000    1.2431099 3.2192107e-05   0.54051288  0.061239071            0   0.47927381    1.8180482    2.3585611    5.6550328 
 4800000    1.2731678 1.6767762e-05    0.4831309  0.038585895            0   0.44454501     1.862008    2.3451389    4.0621577 
 4805000    1.1605629 1.4507441e-05   0.64258307 0.0008718494            0   0.64171122    1.6973233    2.3399064    3.8254683 
 4810000    1.2041369 2.0882323e-05   0.57981635 0.0016652412            0   0.57815111    1.7610503    2.3408666    4.4792165 
 4815000    1.2187581 7.2403431e-06   0.57092538  0.072147471            0   0.49877791    1.7824337    2.3533591    3.0947702 
 4820000    1.2957105 -4.6114318e-05   0.47755465  0.023964121            0   0.45359052    1.8949767    2.3725313   -2.3495749 
 4825000    1.2943068 2.3643572e-06   0.46995307   0.02290626            0   0.44704681    1.8929237    2.3628767    2.6049869 
 4830000    1.1417748 9.9906773e-06   0.68131766  0.033235893            0   0.64808177    1.6698457    2.3511633    3.3742087 
 4835000    1.2074933 -4.4784433e-05   0.58408176  0.022041006            0   0.56204076    1.7659589    2.3500407   -2.2358852 
 4840000    1.2979372 -4.5725077e-05    0.4855868 0.0078598803            0   0.47772692    1.8982332      2.38382   -2.2984279 
 4845000    1.3539064 2.5950168e-05   0.43789816 0.0041499852            0   0.43374818    1.9800881    2.4179863    5.0752835 
 4850000    1.2281228 3.7074253e-05   0.64943103  0.022484695            0   0.62694633    1.7961295    2.4455606     6.241964 
 4855000    1.3984013 -4.179923e-05   0.46191797  0.060832269            0    0.4010857    2.0451619    2.5070799   -1.7731612 
 4860000    1.2038586 -2.9234984e-05   0.70125708  0.020928529            0   0.68032855    1.7606432    2.4619003  -0.53176204 
 4865000    1.2191546 0.00011352901   0.67867334 0.0039618055            0   0.67471154    1.7830136    2.4616869    14.087057 
 4870000    1.2068792 6.8040177e-05   0.67427712 0.0029525584            0   0.67132456    1.7650609     2.439338    9.4066521 
 4875000    1.3400316 -2.4477283e-05   0.46981566 0.0011166347            0   0.46869903    1.9597961    2.4296118 -0.076861929 
 4880000    1.1891985 -3.5712649e-05   0.70377622  0.045941727            0   0.65783449    1.7392029    2.4429791   -1.2139962 
 4885000    1.3449394 -0.00010319191   0.46593519  0.053435642            0   0.41249955    1.9669739     2.432909   -8.1339422 
 4890000    1.1645367 -9.2890556e-05   0.72344652  0.098072781            0   0.62537374     1.703135    2.4265815   -7.0854115 
 4895000    1.2101084 -6.0382253e-05   0.59668988  0.035151642            0   0.56153824    1.7697836    2.3664735   -3.8166692 
 4900000    1.4052499 3.4922734e-05   0.32421008  0.029850531            0   0.29435955    2.0551779     2.379388     5.955476 
 4905000    1.0554131 1.9345023e-05   0.79051024   0.10204615            0   0.68846409    1.5435416    2.3340519    4.3149822 
 4910000    1.0800034 -1.6844148e-05   0.77477861  0.091508989            0   0.68326962    1.5795049    2.3542835   0.62944281 
 4915000    1.2535439 9.5680873e-05   0.54987827  0.036845211            0   0.51303306     1.833308    2.3831863    12.180908 
 4920000     1.312245 1.5409638e-05   0.48969521 0.0032344106            0    0.4864608    1.9191584    2.4088536    3.9868005 
 4925000     1.262281 3.8590574e-06   0.48895804 0.0073984511            0   0.48155959    1.8460859    2.3350439    2.7302114 
 4930000    1.2478943 -2.1712273e-06   0.50080918  0.038478949            0   0.46233023    1.8250454    2.3258545    2.1035209 
 4935000    1.2459183 2.2077248e-05   0.53955712  0.035234049            0   0.50432308    1.8221555    2.3617126    4.6224228 
 4940000    1.1997846 0.00010031479   0.62415717   0.02272877            0    0.6014284     1.754685    2.3788422    12.651077 
 4945000   0.97772053 3.952332e-06   0.88898344   0.01881331            0   0.87017013    1.4299163    2.3188997    2.7236185 
 4950000    1.1729368 -6.3086099e-05   0.57946972  0.016223091            0   0.56324663    1.7154201    2.2948898   -4.1651267 
 4955000    1.3475519 2.4164367e-05   0.30439816  0.026845243            0   0.27755292    1.9707946    2.2751928     4.749624 
 4960000    1.1701139 4.9164925e-05   0.48975157 0.0038900798            0   0.48586149    1.7112915    2.2010431    7.2355314 
 4965000   0.96550044 2.7736506e-06   0.79588015  0.012762679            0   0.78311747    1.4120444    2.2079245    2.4919464 
 4970000    1.1443812 1.8953193e-05   0.52538604  0.047968904            0   0.47741713    1.6736575    2.1990435    4.1398505 
 4975000    1.1033326 -3.2072915e-05   0.54538363  0.042882362            0   0.50250127    1.6136239    2.1590075   -1.1252589 
 4980000    1.0629821 -2.7674283e-05   0.59685742  0.047438839            0   0.54941858    1.5546113    2.1514687   -0.6823779 
 4985000    1.0370015 -3.5856601e-05   0.65724566  0.099845157            0    0.5574005    1.5166146    2.1738603   -1.4978556 
 4990000    1.1343545 2.4483703e-05   0.50453035  0.068311934            0   0.43621841    1.6589935    2.1635239     4.670655 
 4995000    1.0818264 7.4141357e-05   0.66024384  0.063425759            0   0.59681808    1.5821711     2.242415    9.8344899 
 5000000    1.1314684 2.1613889e-06   0.58832641  0.026174041            0   0.56215237    1.6547726     2.243099    2.4644252 
 5005000    1.2598157 -1.3268937e-05   0.41942575  0.027174689            0   0.39225106    1.8424804    2.2619062   0.90316702 
 5010000    1.1349199 -1.1270507e-05   0.64976422  0.034037573            0   0.61572664    1.6598204    2.3095846    1.1554847 
 5015000    1.1934162 1.8782017e-05   0.54753584  0.069337303            0   0.47819853    1.7453712     2.292907    4.2161855 
 5020000     1.199845 0.00010186498   0.54900159   0.05976752            0   0.48923407    1.7547733    2.3037749    12.734749 
 5025000    1.1520506 9.1082219e-05   0.66903181 0.0096052893            0   0.65942653     1.684874    2.3539058    11.680725 
 5030000    1.2179945 3.9002025e-05   0.57487598  0.024027816            0   0.55084816     1.781317     2.356193    6.3500003 
 5035000     1.179913 -2.7025214e-05   0.60523315  0.026588188            0   0.57864496    1.7256227    2.3308559  -0.43652603 
 5040000    1.3878063 -4.5253732e-05   0.25980672 0.0021706663            0   0.25763605    2.0296668    2.2894735   -2.3445087 
 5045000    1.2231842 4.5118136e-05   0.51950213 0.00082689596            0   0.51867523    1.7889069    2.3084091    6.9285062 
 5050000    1.2276824 7.357572e-05   0.53962853 0.00042567857            0   0.53920285    1.7954855     2.335114    9.8692678 
 5055000    1.2168459 -4.1397492e-05   0.59250214 0.00019547463            0   0.59230666    1.7796372    2.3721393   -1.8669638 
 5060000    1.3115292 2.7435601e-05   0.46323561 0.00089616169            0   0.46233945    1.9181115    2.3813471    5.1907526 
 5065000    1.2066672 1.791096e-05   0.63537704  0.020913894            0   0.61446314    1.7647507    2.4001278    4.2342101 
 5070000    1.1809121 1.5211341e-05   0.66720547  0.056801632            0   0.61040383    1.7270839    2.3942894    3.9519307 
 5075000    1.2464238 -3.2532424e-05   0.55277462  0.064644511            0   0.48813011    1.8228948    2.3756694   -0.9556508 
 5080000    1.3237452 -1.9027672e-05    0.4184662  0.039702263            0   0.37876393    1.9359773    2.3544435   0.40600988 
 5085000    1.2975321 -0.000108094   0.45486693    0.0301952            0   0.42467173    1.8976406    2.3525076   -8.7163182 
 5090000     1.250068 2.0093079e-05   0.55384429  0.013818331            0   0.54002596    1.8282244    2.3820687       4.4396 
 5095000    1.2714075 2.3441462e-05   0.53002368  0.005981514            0   0.52404216    1.8594335    2.3894572    4.7898629 
 5100000    1.2453056 2.2727147e-05   0.56182774  0.034860935            0    0.5269668    1.8212595    2.3830872    4.7103471 
 5105000    1.2680968 -1.1787389e-05   0.56687041  0.024525744            0   0.54234466    1.8545916     2.421462    1.2144333 
 5110000    1.3061742 -4.958656e-05   0.50353818  0.032266513            0   0.47127167    1.9102798     2.413818   -2.6638458 
 5115000    1.2565248 0.00012385381   0.55616187  0.068072709            0   0.48808916    1.8376675    2.3938294    15.076459 
 5120000    1.3781911 1.7714967e-05   0.40530464  0.033242826            0   0.37206182    2.0156045    2.4209091    4.2349218 
 5125000    1.2450762 -5.5922779e-05   0.58395584  0.020491359            0   0.56346448    1.8209239    2.4048798   -3.3216128 
 5130000     1.288316 0.00011003777   0.48252664  0.020972919            0   0.46155372    1.8841621    2.3666888    13.634556 
 5135000    1.2632844 -2.0425594e-05   0.51214578  0.012152767            0   0.49999302    1.8475534    2.3596992   0.26811837 
 5140000     1.314999 -2.7464676e-05   0.44832766 0.0082044923            0   0.44012316     1.923186    2.3715137  -0.44086917 
 5145000    1.2425933 3.2507547e-05   0.56201424  0.054913018            0   0.50710122    1.8172927    2.3793069    5.7080798 
 5150000    1.2195819 -8.7229479e-05   0.61590101  0.033168403            0   0.58273261    1.7836385    2.3995395   -6.5327592 
 5155000    1.4041957 -3.159864e-05   0.42095073 0.0014152258            0    0.4195355    2.0536362     2.474587  -0.76111374 
 5160000    1.2804227 6.1340387e-05   0.57414303 7.2812361e-05            0   0.57407022    1.8726182    2.4467612    8.7280169 
 5165000    1.2686579 -9.4459566e-05   0.55999375 0.00010443913            0   0.55988931    1.8554122     2.415406   -7.2572536 
 5170000     1.327474 -8.5398511e-05   0.49439486 2.8226428e-05            0   0.49436664    1.9414308    2.4358257   -6.3089819 
 5175000    1.2951881 0.00012415933   0.59243995            0            0   0.59243995    1.8942126    2.4866525    15.200568 
 5180000    1.4159174 8.4946702e-05   0.43179743 0.00096400716            0   0.43083342    2.0707792    2.5025766    11.201119 
 5185000    1.3855892 -4.5721034e-05   0.47926176  0.039396432            0   0.43986532    2.0264242     2.505686   -2.1761479 
 5190000    1.2356062 -1.573697e-05   0.73597255  0.054759694            0   0.68121286    1.8070741    2.5430467   0.93158092 
 5195000    1.4433293 -1.1405431e-05   0.42301274 0.0021454317            0   0.42086731    2.1108691    2.5338819    1.3659657 
 5200000    1.4384492 -1.2356451e-05   0.42697615 5.3599142e-05            0   0.42692255     2.103732    2.5307082    1.2654076 
 5205000    1.3000629 3.0132059e-05   0.65099756  0.012207096            0   0.63879046    1.9013419    2.5523395    5.6378624 
 5210000    1.2450103 -1.525099e-05    0.7604404   0.17140283            0   0.58903757    1.8208276     2.581268    1.0195666 
 5215000    1.2935554 -0.00013485405   0.59774868  0.037992719            0   0.55975597    1.8918247    2.4895734   -11.319481 
 5220000     1.327536 9.7369377e-06   0.50355284   0.01022871            0   0.49332413    1.9415214    2.4450742    3.4421366 
 5225000    1.2716785 3.4849829e-05   0.55774442  0.066069829            0    0.4916746    1.8598299    2.4175743    5.9861968 
 5230000    1.2640751 -0.00010521429   0.58088516  0.012851543            0   0.56803362    1.8487099    2.4295951   -8.3443485 
 5235000    1.3347107 -1.0615526e-05   0.45723684 0.0027976658            0   0.45443917    1.9520144    2.4092513    1.3222214 
 5240000    1.2767261 2.3024992e-05   0.56470361   0.04807223            0   0.51663138    1.8672119    2.4319156    4.7896747 
 5245000    1.3168616 -0.00010137714   0.54491131  0.098894787            0   0.44601653    1.9259101    2.4708214   -7.9101978 
 5250000     1.341237 -6.0523957e-05    0.5148623  0.053039072            0   0.46182323    1.9615591    2.4764214   -3.7212318 
 5255000    1.4160085 6.4669541e-05   0.43616888 0.0062674728            0    0.4299014    2.0709124    2.5070813    9.1292423 
 5260000       1.3962 1.5316572e-05   0.50257204 0.0046887213            0   0.49788331    2.0419426    2.5445146    4.1129316 
 5265000    1.3595992 4.0548134e-06   0.58609256 0.0055966666            0   0.58049589    1.9884138    2.5745063    2.9897192 
 5270000    1.4561657 3.2020531e-05   0.42364334  0.024831225            0   0.39881211    2.1296423    2.5532856     5.832188 
 5275000    1.4072287 4.3476262e-05   0.46146484  0.037565333            0   0.42389951     2.058072    2.5195368    6.9715061 
 5280000     1.400175 5.2758915e-05   0.50223264  0.042964626            0   0.45926802     2.047756    2.5499886    7.9525015 
 5285000    1.3025644 -5.000938e-05   0.63537321   0.11059788            0   0.52477533    1.9050005    2.5403737   -2.5805868 
 5290000    1.4585968 -5.9857986e-05    0.3913624  0.046052037            0   0.34531036    2.1331978    2.5245602   -3.6048976 
 5295000     1.293855 4.8625586e-08   0.60365794 0.0035964524            0   0.60006148     1.892263    2.4959209    2.5009002 
 5300000     1.454943 -1.3707138e-05   0.38111387  0.016394824            0   0.36471905    2.1278542     2.508968    1.1053571 
 5305000    1.3317258 -3.1328153e-05   0.58828477  0.014905552            0   0.57337922    1.9476489    2.5359337  -0.67206913 
 5310000    1.4081545 -4.6239706e-05    0.5232885 0.0043551476            0   0.51893335    2.0594259    2.5827144   -2.1522315 
 5315000    1.3953421 -0.00011345605   0.54756889 0.0050320833            0   0.54253681    2.0406878    2.5882567   -9.0296432 
 5320000     1.402862 -6.3974715e-05   0.53183953  0.015827595            0   0.51601194    2.0516857    2.5835252   -3.9674856 
 5325000    1.4673205 8.5991011e-05   0.41245063  0.028323963            0   0.38412666    2.1459562    2.5584068    11.363886 
 5330000    1.3928163 4.987694e-05   0.47102813  0.045095113            0   0.42593302    2.0369938    2.5080219    7.6154206 
 5335000    1.2993991 -1.9287141e-05   0.65319515    0.0330406            0   0.62015455    1.9003711    2.5535663   0.57856301 
 5340000    1.3012033 3.7301489e-05   0.65247969   0.08973271            0   0.56274698    1.9030098    2.5554894    6.3751619 
 5345000    1.4478471 2.3341646e-05   0.40628082  0.016312608            0   0.38996821    2.1174764    2.5237572    4.9139417 
 5350000    1.3855282 -1.3030436e-05   0.51420385  0.046909127            0   0.46729472    2.0263351    2.5405389    1.2062223 
 5355000    1.1898731 -2.2757211e-06   0.75867373   0.17045049            0   0.58822325    1.7401894    2.4988631    2.2658293 
 5360000    1.3413634 -1.6362685e-05   0.56728322  0.033640791            0   0.53364243     1.961744    2.5290272   0.85348821 
 5365000    1.3930639 -5.9148744e-06   0.56496486  0.017358888            0   0.54760597     2.037356    2.6023208    1.9966377 
 5370000    1.2906483 -4.0475309e-07   0.71385799   0.23484745            0   0.47901054    1.8875731    2.6014311    2.5599844 
 5375000    1.4295458 -2.3655047e-05   0.53546155   0.11198052            0   0.42348103    2.0907107    2.6261723   0.20389545 
 5380000    1.3175093 5.8265125e-06   0.72338892  0.061963047            0   0.66142588    1.9268574    2.6502463    3.2468812 
 5385000     1.482028 5.5250762e-05   0.45574145 0.0029400383            0   0.45280141     2.167466    2.6232075    8.2808855 
 5390000    1.4603037 -2.6407495e-06    0.4897535 0.00030896929            0   0.48944453    2.1356942    2.6254477    2.3550349 
 5395000    1.3835003 -5.3551807e-05   0.59493149  0.044912471            0   0.55001902    2.0233692    2.6183007   -2.8654044 
 5400000    1.2681502 3.5238674e-05   0.69681118  0.023687987            0   0.67312319    1.8546696    2.5514808     6.159921 
 5405000    1.3482224 -3.0435845e-05   0.59560788  0.010165563            0   0.58544232    1.9717752    2.5673831  -0.54924741 
 5410000    1.4435502 -6.7782312e-05   0.49060821  0.025956906            0    0.4646513    2.1111921    2.6018003   -4.3391084 
 5415000    1.3997506 8.2268955e-06    0.4894996  0.057258355            0   0.43224124    2.0471352    2.5366348    3.3790689 
 5420000    1.3075908 -5.0382273e-06   0.56911814  0.060841526            0   0.50827661    1.9123515    2.4814697    1.9655552 
 5425000    1.3188342 -7.3863198e-05    0.5504875 0.0086719794            0   0.54181552    1.9287951    2.4792826   -5.0843089 
 5430000    1.4618082 -9.0950542e-06   0.34513619 0.00027837564            0   0.34485782    2.1378945    2.4830307    1.5516972 
 5435000    1.1757117 1.6131113e-05   0.75944404 0.0066379854            0   0.75280606    1.7194783    2.4789224    4.1307483 
 5440000    1.1973124 2.8552703e-05   0.73210906   0.10949912            0   0.62260994    1.7510694    2.4831785    5.4069753 
 5445000    1.3436692 -5.6926156e-05   0.54616561  0.026589093            0   0.51957652    1.9651163    2.5112819   -3.3179565 
 5450000    1.4303561 -9.4281896e-05   0.41649373  0.026444193            0   0.39004953    2.0918958    2.5083895   -7.1460766 
 5455000    1.4269112 -5.3063291e-05   0.37541808  0.019805577            0    0.3556125    2.0868576    2.4622757   -2.9714053 
 5460000    1.3529297 3.4194226e-05   0.44259431 0.0081441495            0   0.43445016    1.9786596    2.4212539    5.9227427 
 5465000    1.2298261 8.1287504e-05   0.60191186  0.017363695            0   0.58454817    1.7986207    2.4005326    10.724373 
 5470000    1.1454046 1.5642661e-05    0.7299142  0.011694197            0   0.71822001    1.6751542    2.4050684    4.0068769 
 5475000    1.1880068 7.8744414e-05   0.65635786 0.0039505511            0   0.65240731    1.7374599    2.3938178    10.457246 
 5480000    1.2384845 0.00010259942   0.58037705 0.0085746548            0    0.5718024    1.8112836    2.3916607    12.897841 
 5485000    1.2142927 -3.5296887e-05   0.57522363  0.067461443            0   0.50776218     1.775903    2.3511266   -1.2632746 
 5490000    1.0701973 -3.2320508e-05   0.77210291  0.080290489            0   0.69181242    1.5651635    2.3372664  -0.97235355 
 5495000    1.1773896 -1.5068738e-05   0.61112034  0.013057602            0   0.59806274    1.7219323    2.3330526   0.79001389 
 5500000    1.2316584 -4.9859779e-06   0.61174509  0.023533241            0   0.58821185    1.8013005    2.4130456    1.9024814 
 5505000    1.3528314 -1.943831e-05   0.42565329  0.053471419            0   0.37218187    1.9785159    2.4041692   0.41368621 
 5510000    1.3342775 -2.9185082e-05   0.43831635  0.019995312            0   0.41832104    1.9513808    2.3896972  -0.59885522 
 5515000    1.1831133 -2.7861951e-05   0.66067036   0.01410345            0   0.64656691    1.7303032    2.3909735   -0.4620903 
 5520000    1.3113025 -3.7526389e-05   0.46678741 0.0035929042            0    0.4631945    1.9177798    2.3845672    -1.458135 
 5525000    1.2280164 2.9458281e-05   0.57629909  0.027109618            0   0.54918947     1.795974    2.3722731    5.3888011 
 5530000    1.1565161 6.1446855e-05   0.63961622  0.056367835            0   0.58324838    1.6914048     2.331021     8.623179 
 5535000    1.1565372 -2.1928745e-05   0.62208161  0.050346202            0   0.57173541    1.6914357    2.3135173  0.068013785 
 5540000    1.2362746 -3.4355185e-05   0.50362999  0.068849019            0   0.43478097    1.8080516    2.3116816   -1.2062894 
 5545000    1.1393771 -6.9637456e-06    0.6643596   0.10936239            0   0.55499721     1.666339    2.3306986    1.6176111 
 5550000    1.1972547 -3.1591395e-05   0.58408717  0.091606542            0   0.49248063     1.750985    2.3350721  -0.89988669 
 5555000    1.1198892 -2.2533773e-05   0.64348714  0.021005038            0    0.6224821     1.637838    2.2813251  -0.02613325 
 5560000    1.1105621 -2.7827098e-05   0.61419463   0.03219769            0   0.58199694     1.624197    2.2383917  -0.61110313 
 5565000    1.2603276 1.2401662e-05   0.37546495  0.021059555            0   0.35440539    1.8432291     2.218694    3.4886242 
 5570000    1.1701977 -3.2844198e-05   0.54987446 0.0072673317            0   0.54260713    1.7114141    2.2612886   -1.1019573 
 5575000     1.244186 -3.3745891e-07   0.48800215  0.028591567            0   0.45941058     1.819622    2.3076242    2.2730684 
 5580000    1.2328308 -3.3059869e-05   0.50318379  0.016554986            0    0.4866288    1.8030151    2.3061989   -1.0791317 
 5585000    1.1840201 -4.7767197e-05   0.57321762 0.0052655796            0   0.56795204    1.7316294     2.304847   -2.5865139 
 5590000    1.1228569 4.9797638e-05    0.6458116  0.052246843            0   0.59356476    1.6421783    2.2879899     7.387268 
 5595000    1.1487262 -2.3929732e-05   0.63966321  0.078932637            0   0.56073057     1.680012    2.3196753   -0.1307293 
 5600000    1.0866072 -9.0147392e-05   0.70560185   0.05282877            0   0.65277308     1.589163    2.2947648   -6.9363281 
 5605000    1.2201675 -2.698005e-05   0.51259069  0.026920731            0   0.48566996     1.784495    2.2970857  -0.46567142 
 5610000      1.12277 5.2840639e-05   0.60328373  0.021804006            0   0.58147972    1.6420512    2.2453349    7.6562163 
 5615000    1.1608088 1.7962474e-05   0.53349639 0.0030162611            0   0.53048013    1.6976828    2.2311792    4.0705366 
 5620000    1.1182195 -7.8929162e-05   0.57139147 0.0041213791            0   0.56727009    1.6353961    2.2067875   -5.8755587 
 5625000   0.99256976 -6.359387e-05   0.65757547 0.0039140128            0   0.65366146    1.4516333    2.1092088   -4.4028036 
 5630000    1.1542057 7.0134056e-06   0.44914573 0.0001774268            0    0.4489683    1.6880259    2.1371716    2.8553443 
 5635000    1.1134122  1.58082e-05   0.52766769  0.010402129            0   0.51726556    1.6283654    2.1560331    3.7747927 
 5640000    1.2148722 3.6292266e-05   0.36749716  0.048229049            0   0.31926812    1.7767506    2.1442478    5.8605758 
 5645000   0.99116117 3.8381347e-05   0.67363184  0.032695269            0   0.64093657    1.4495732    2.1232051    6.0534549 
 5650000    1.0489989 1.6572737e-06   0.60829401  0.035682845            0   0.57261116     1.534161     2.142455    2.3121598 
 5655000     1.162686 -1.9289414e-05   0.46377038  0.018592141            0   0.44517824    1.7004282    2.1641986   0.18896265 
 5660000    1.1322656 -6.2680997e-05   0.50814936  0.025138298            0   0.48301107    1.6559385    2.1640878   -4.2544463 
 5665000    1.0274669 -4.3087121e-05   0.69359977   0.07747462            0   0.61612515    1.5026703    2.1962701   -2.2158511 
 5670000     1.086665 -5.214502e-06   0.65488103 0.0032386607            0   0.65164237    1.5892476    2.2441286    1.7101636 
 5675000    1.1820046 -3.4794885e-05   0.48167223 0.0039569755            0   0.47771526    1.7286817    2.2103539   -1.3526423 
 5680000    1.2361117 -3.0826687e-05    0.3922767  0.046911026            0   0.34536568    1.8078133      2.20009  -0.95656273 
 5685000    1.0612595 2.7697852e-05   0.66938323   0.10153143            0    0.5678518    1.5520921    2.2214753    5.0577353 
 5690000    1.1258899 7.3101284e-05   0.55907342   0.03073601            0   0.52833741     1.646614    2.2056875    9.6912589 
 5695000    1.1017796 2.5609393e-05   0.60662209  0.021524123            0   0.58509797    1.6113527    2.2179748    4.8403766 
 5700000    1.1174761 -1.330625e-05   0.61334362  0.046205076            0   0.56713854    1.6343088    2.2476524   0.88509247 
 5705000    1.0567647 7.9124795e-06   0.68980511  0.077938505            0   0.61186661    1.5455184    2.2353235    3.0455614 
 5710000    1.1126351 6.4098194e-05   0.58359901  0.053414734            0   0.53018428    1.6272288    2.2108278    8.7744829 
 5715000    1.0586267 8.711919e-05   0.64005867 0.0070791644            0   0.63297951    1.5482416    2.1883002    11.109305 
 5720000    1.1723682 3.2860035e-05   0.52429499  0.014613518            0   0.50968147    1.7145885    2.2388835     5.603751 
 5725000    1.2277161 -5.7245616e-05   0.47975753  0.013876433            0   0.46588109    1.7955348    2.2752923   -3.5866588 
 5730000    1.2763276 -7.1806723e-05   0.46687003 0.0092040733            0   0.45766595    1.8666291    2.3334991   -5.0195093 
 5735000    1.1550988 -5.9282895e-05   0.60276184  0.024621947            0   0.57813989     1.689332    2.2920939   -3.7784746 
 5740000    1.0498422 -5.1923684e-05   0.75646404   0.08749848            0   0.66896556    1.5353942    2.2918583    -3.025127 
 5745000    1.1008443 -3.5360464e-05   0.65964333  0.010792903            0   0.64885043    1.6099848    2.2696282   -1.3512833 
 5750000    1.1560629 7.1969541e-07   0.56954026 0.0011768467            0   0.56836341    1.6907421    2.2602823    2.3339791 
 5755000     1.102802 1.3994626e-05   0.69096937  0.048338274            0   0.64263109     1.612848    2.3038173     3.736867 
 5760000     1.156433 -2.9154942e-05   0.63281877  0.028316249            0   0.60450252    1.6912832     2.324102  -0.66136412 
 5765000    1.1590398 -3.3367667e-05   0.62380039            0            0   0.62380039    1.6950958    2.3188961    -1.097953 
 5770000    1.1713717 -5.8698376e-05   0.58224077 0.0011378808            0   0.58110289    1.7131312    2.2953719   -3.7153417 
 5775000    1.1717806 -0.00013533092   0.63816006  0.024827207            0   0.61333285    1.7137291    2.3518892   -11.505997 
 5780000    1.1898903 -8.2934464e-05   0.68568939  0.049781995            0    0.6359074    1.7402146     2.425904   -6.0665851 
 5785000    1.3037523 3.7293883e-05   0.55038966 0.0096127351            0   0.54077693    1.9067378    2.4571274     6.276021 
 5790000    1.2443589 -2.1356478e-05   0.62338007            0            0   0.62338007    1.8198749     2.443255   0.25635164 
 5795000    1.1257577 -6.4981324e-05   0.86519607            0            0   0.86519607    1.6464206    2.5116167   -4.1424709 
 5800000    1.3781792 3.6571603e-06   0.54717578            0            0   0.54717578    2.0155871    2.5627629    2.9372561 
 5805000    1.3952483 -9.8694856e-06   0.52986464            0            0   0.52986464    2.0405506    2.5704153    1.5597799 
 5810000    1.2525552 -5.9678144e-05   0.69361953            0            0   0.69361953    1.8318619    2.5254815   -3.5855605 
 5815000    1.3877622 7.3862619e-06   0.51308566 0.0074024536            0   0.50568321    2.0296023    2.5426879    3.2990411 
 5820000    1.3244727 2.4697327e-05   0.59656094  0.038066782            0   0.55849416    1.9370413    2.5336022    5.0626085 
 5825000    1.2683077 1.8404182e-05   0.68065432  0.018088569            0   0.66256575    1.8549001    2.5355544    4.4201426 
 5830000    1.1684507 1.1748479e-05   0.83341436  0.026440429            0   0.80697393    1.7088591    2.5422735    3.7453177 
 5835000    1.1273211 -6.3627971e-06   0.87770707  0.066821804            0   0.81088526    1.6487071    2.5264142    1.8748638 
 5840000    1.4245378 6.8789645e-05   0.48905671  0.022863824            0   0.46619289    2.0833866    2.5724433    9.6165029 
 5845000    1.2219102 5.3929102e-06   0.78937434  0.018725789            0   0.77064855    1.7870437     2.576418     3.128652 
 5850000    1.2088236 -1.2517517e-05    0.7410198  0.034965074            0   0.70605472    1.7679045    2.5089243    1.2271306 
 5855000    1.2396797 5.787429e-05   0.68602459  0.040375215            0   0.64564937    1.8130315    2.4990561    8.4253833 
 5860000    1.2657664 2.1758714e-05   0.67628308   0.01889969            0   0.65738339    1.8511833    2.5274664    4.7555587 
 5865000    1.4412467 -5.6258775e-05   0.44673241  0.024731712            0    0.4220007    2.1078234    2.5545558   -3.2063428 
 5870000     1.279209 -8.8379722e-05   0.68671084  0.030685825            0   0.65602502    1.8708432     2.557554   -6.4925295 
 5875000     1.331543 -6.1568235e-05   0.58362822 0.0096449351            0   0.57398328    1.9473816    2.5310099   -3.7735774 
 5880000    1.1935529 -9.060632e-07   0.73702235 0.0064313237            0   0.73059103    1.7455711    2.4825934    2.3898126 
 5885000    1.1811261 9.7617622e-05   0.74374195  0.003332665            0   0.74040929     1.727397    2.4711389    12.467183 
 5890000     1.369333 0.00010917722   0.50526637 0.0020255182            0   0.50324085    2.0026495    2.5079158    13.687663 
 5895000    1.2183474 6.7224139e-05   0.72471243  0.023780776            0   0.70093166    1.7818331    2.5065455    9.3902974 
 5900000    1.2427149 -1.0235378e-05   0.70753128  0.031677044            0   0.67585424    1.8174705    2.5250018    1.4768991 
 5905000     1.268506 -0.00010478271   0.67772198     0.021466            0   0.65625598    1.8551901    2.5329121    -8.196837 
 5910000    1.1718388 -7.1980602e-05   0.80217273 0.0029505225            0   0.79922221    1.7138142    2.5159869   -4.8548267 
 5915000    1.1840405 -1.9346059e-05    0.7991929 0.0081506275            0   0.79104227    1.7316592    2.5308521   0.54981574 
 5920000    1.2063426 9.9891746e-06    0.7515179  0.017518355            0   0.73399954     1.764276    2.5157939    3.5386854 
 5925000    1.2297481 5.058453e-05   0.68455938  0.015506413            0   0.66905296    1.7985066     2.483066    7.6629218 
 5930000     1.134521 3.4868804e-05   0.81051948  0.035667293            0   0.77485219     1.659237    2.4697565    6.0403221 
 5935000    1.1763202 -0.00010184621   0.71833824  0.028499332            0   0.68983891    1.7203683    2.4387066   -7.9903449 
 5940000    1.2021828 -0.00011510947   0.68919874  0.015192767            0   0.67400598    1.7581923     2.447391    -9.339819 
 5945000    1.2960273 -6.7519594e-05   0.54380457  0.019603492            0   0.52420108      1.89544    2.4392446   -4.4747619 
 5950000    1.2101465 2.3229198e-05   0.65741207  0.031188283            0   0.62622379    1.7698393    2.4272514    4.8059212 
 5955000    1.1569658 5.0420985e-05   0.74594029 0.0055829902            0    0.7403573    1.6920624    2.4380027    7.6011116 
 5960000    1.1104799 5.6048391e-05   0.81488043 0.0011049236            0    0.8137755    1.6240768    2.4389573    8.1783125 
 5965000    1.1462139 5.7434871e-05    0.7266316 0.0025758073            0   0.72405579    1.6763378    2.4029694    8.2843002 
 5970000    1.1039599 -3.6154827e-05   0.77999706  0.040636549            0   0.73936051    1.6145413    2.3945384   -1.3077159 
 5975000    1.0368491 -5.4320813e-05   0.88799174  0.069295515            0   0.81869623    1.5163919    2.4043836   -3.1580677 
 5980000    1.2248238 -1.8809154e-05   0.63108896 0.0099758155            0   0.62111314    1.7913049    2.4223938   0.49633643 
 5985000    1.1554923 1.6045699e-05   0.73115888 0.0071580818            0    0.7240008    1.6899075    2.4210664     4.064146 
 5990000    1.1582762 2.9353316e-05    0.7206624 0.0019793846            0   0.71868301     1.693979    2.4146414     5.420421 
 5995000    1.2587438 -2.1030918e-06    0.5547216  0.010649022            0   0.54407257    1.8409128    2.3956344    2.1802778 
 6000000    1.1427193 -5.0487256e-05   0.76123462   0.01193234            0   0.74930228    1.6712269    2.4324615   -2.7374334 
 6005000    1.2202711 2.9853035e-06   0.62097143  0.002792612            0   0.61817882    1.7846465    2.4056179     2.711313 
 6010000    1.2036915 6.228304e-05   0.63258039            0            0   0.63258039    1.7603988    2.3929792    8.7707625 
 6015000    1.2670114 6.9747891e-06   0.51455989 0.00010024136            0   0.51445965    1.8530042    2.3675641    3.0817825 
 6020000    1.2185028 -6.5565306e-05   0.61672794            0            0   0.61672794    1.7820604    2.3987883    -4.315099 
 6025000    1.1364004 5.2428766e-06   0.74905594            0            0   0.74905594    1.6619855    2.4110415     2.947912 
 6030000    1.1570473 8.4892402e-05   0.71307865            0            0   0.71307865    1.6921817    2.4052603    11.098242 
 6035000    1.3384453 6.1392322e-05   0.47407181 0.0057458523            0   0.46832596    1.9574762     2.431548    8.7181218 
 6040000    1.3046045 1.2565042e-05   0.53025668  0.012855361            0   0.51740132     1.907984    2.4382407     3.724901 
 6045000    1.3245841 -2.1674845e-05   0.55919038 0.0063932954            0   0.55279708    1.9372042    2.4963946   0.27689042 
 6050000    1.1193861 3.364712e-06   0.83989233  0.017023886            0   0.82286844    1.6371021    2.4769945     2.821541 
 6055000    1.2606445 -4.0226166e-05   0.64596867   0.01230875            0   0.63365992    1.8436926    2.4896613   -1.6294981 
 6060000    1.2938183 -1.7546442e-05   0.61963448  0.043762993            0   0.57587149    1.8922092    2.5118437   0.71508801 
 6065000    1.3358559 -6.948717e-05   0.61252229  0.098433789            0   0.51408851    1.9536892    2.5662115   -4.5492748 
 6070000      1.32604 -2.3374545e-05   0.63713208 0.00012356645            0   0.63700851    1.9393334    2.5764655   0.18291207 
 6075000    1.3728314 -4.685362e-05   0.59790533 0.0042892223            0   0.59361611    2.0077659    2.6056712   -2.1921395 
 6080000    1.2969894 -5.5472519e-05   0.74757173  0.028478229            0    0.7190935     1.896847    2.6444187   -3.0359672 
 6085000    1.3091826 -4.2209426e-05   0.70257873  0.061590792            0   0.64098794    1.9146795    2.6172583   -1.7049869 
 6090000    1.1925418 -2.8951744e-05   0.93462878   0.20735299            0   0.72727578    1.7440924    2.6787212  -0.28593742 
 6095000    1.1984155 -2.2215419e-05   0.91427798   0.10449044            0   0.80978754    1.7526827    2.6669607    0.3921017 
 6100000    1.2914496 -8.730251e-05   0.76139427  0.010471761            0   0.75092251     1.888745    2.6501393   -6.2896378 
 6105000    1.4023423 -4.9519302e-05   0.58195239  0.020137147            0   0.56181525    2.0509256     2.632878   -2.4378985 
 6110000    1.2552164 1.8449772e-05   0.78846812  0.039253064            0   0.74921505    1.8357539    2.6242221    4.5134787 
 6115000    1.2712814 7.2403192e-05   0.78950229  0.054157357            0   0.73534494     1.859249    2.6487513    10.062838 
 6120000    1.3185482 1.6466491e-05   0.71768496  0.094637774            0   0.62304719    1.9283767    2.6460616    4.3322304 
 6125000    1.3683531 3.0150462e-05   0.69357306  0.043452201            0   0.65012086    2.0012165    2.6947895    5.7821969 
 6130000    1.2807483 8.6870324e-05   0.82363321  0.024190061            0   0.79944314    1.8730944    2.6967276    11.592249 
 6135000    1.3918091 4.470601e-06   0.64494276 0.0061959432            0   0.63874682    2.0355208    2.6804636    3.1382532 
 6140000    1.2828409 -8.0055269e-05   0.79421292  0.020508664            0   0.77370426    1.8761548    2.6703677   -5.5272919 
 6145000    1.2961222 -4.2923591e-05   0.74004231  0.032457586            0   0.70758472    1.8955787     2.635621   -1.7597547 
 6150000    1.3470496 -4.6648893e-06   0.68919312  0.030449592            0   0.65874353      1.97006    2.6592531    2.1815685 
 6155000     1.278864 -2.5846048e-05   0.83919343 0.0079278646            0   0.83126557    1.8703387    2.7095321  0.062896808 
 6160000    1.4462559 7.7099997e-05   0.60338071 0.0096107365            0   0.59376997    2.1151493      2.71853     10.61357 
 6165000    1.2904715 5.4511896e-05   0.82863131  0.030616251            0   0.79801506    1.8873146    2.7159459     8.297964 
 6170000    1.3400914 -4.9551463e-05   0.69556133  0.029687945            0   0.66587338    1.9598837     2.655445   -2.4186248 
 6175000    1.4084454 -1.3500493e-05   0.62490348  0.017622381            0    0.6072811    2.0598514    2.6847549    1.3023043 
 6180000    1.1720115 -7.7988511e-05   0.97124658 0.0070252843            0   0.96422129    1.7140669    2.6853134   -5.3007101 
 6185000    1.3782941 -8.9820628e-06   0.61671277 0.0023366639            0   0.61437611    2.0157552     2.632468    1.7127047 
 6190000    1.2984788 7.278114e-05     0.723764 0.0084023672            0   0.71536163    1.8990253    2.6227893    10.075578 
 6195000    1.2836926 3.7439872e-05   0.67313177  0.045795919            0   0.62733585    1.8774005    2.5505323    6.3843752 
 6200000    1.2644107 3.1920002e-05   0.72389805  0.019580546            0   0.70431751    1.8492006    2.5730987    5.8417068 
 6205000    1.3824573 -6.6223914e-05   0.53747062 0.00074728433            0   0.53672333    2.0218438    2.5593144   -4.2220144 
 6210000    1.1344959 -8.3344613e-05   0.84529227 0.0047320179            0   0.84056025    1.6592003    2.5044925   -6.0299958 
 6215000    1.2350247 -2.0860237e-05   0.73447016 0.0057609343            0   0.72870923    1.8062236    2.5406938   0.40460545 
 6220000    1.1792435 -0.00011180794   0.78517518 0.0084010286            0   0.77677415    1.7246436    2.5098187   -8.9393146 
 6225000    1.0721747 -4.0518945e-06   0.98820164 0.0074419313            0   0.98075971    1.5680555    2.5562572    2.1413432 
 6230000    1.3271722 -6.2584804e-07   0.64172411 0.0095645071            0   0.63215961    1.9409894    2.5827135    2.5186267 
 6235000    1.3086719 -1.0332046e-05    0.7175807  0.077928375            0   0.63965232    1.9139327    2.6315134    1.5735119 
 6240000    1.1958435 0.00010790439   0.88903423  0.039025401            0   0.85000883    1.7489212    2.6379554    13.687365 
 6245000    1.1652361 0.00014764733   0.91391381    0.0273604            0   0.88655341    1.7041578    2.6180716    17.737158 
 6250000    1.1440401 7.4171868e-05   0.95302922 0.0044975664            0   0.94853165    1.6731587    2.6261879    10.221387 
 6255000    1.3441359 -2.063769e-05   0.65180083 0.00032421023            0   0.65147662    1.9657988    2.6175996   0.50430016 
 6260000    1.1624416 -3.822476e-05   0.88269919  0.023320526            0   0.85937867    1.7000709    2.5827701   -1.3314453 
 6265000    1.1551762 4.6126395e-06   0.87485529  0.026030231            0   0.84882506    1.6894453    2.5643005    3.0366348 
 6270000    1.1357702 3.7810491e-06   0.87060563 0.0039613508            0   0.86664428    1.6610639    2.5316696     2.918849 
 6275000    1.2406819 -2.2690163e-05   0.76680832 0.0059944685            0   0.76081385    1.8144973    2.5813056   0.25783294 
 6280000    1.2705856 -2.9720781e-05   0.73695034  0.027198503            0   0.70975183    1.8582314    2.5951818  -0.44822619 
 6285000    1.1928674 -8.1765094e-06   0.84984049  0.014635045            0   0.83520544    1.7445686    2.5944091    1.7571345 
 6290000    1.2589109 4.047494e-05   0.74540126 0.0018068839            0   0.74359437    1.8411571    2.5865584    6.7311922 
 6295000    1.1760727 3.6469966e-05   0.91751494  0.041248679            0   0.87626626    1.7200063    2.6375212    6.3720458 
 6300000    1.2966343 -3.2662433e-06   0.74831016  0.048545068            0   0.69976509    1.8963276    2.6446378    2.3101745 
 6305000    1.2515562 -1.0662999e-05   0.80763871  0.024165801            0   0.78347291     1.830401    2.6380397    1.5461487 
 6310000    1.2343547 -2.7740464e-05   0.86252518 0.0068508694            0   0.85567431    1.8052438     2.667769  -0.17285452 
 6315000    1.2801098 -9.0418158e-06   0.75896533 0.0073756704            0   0.75158966    1.8721605    2.6311259    1.7052439 
 6320000    1.2864853 -5.3456044e-05     0.731784  0.039345908            0   0.69243809    1.8814848    2.6132688   -2.8606301 
 6325000    1.1755535 -8.2896218e-05   0.89648441  0.088309162            0   0.80817525     1.719247    2.6157314   -5.8728414 
 6330000    1.2727159 -1.2409647e-05   0.79901121  0.043895286            0   0.75511593    1.8613471    2.6603583    1.3896104 
 6335000    1.2641309 7.1026525e-05   0.79543074  0.026860303            0   0.76857043    1.8487915    2.6442222    9.9173383 
 6340000    1.3115974 8.1274724e-05   0.72272559  0.037383252            0   0.68534234    1.9182111    2.6409367    10.963468 
 6345000    1.3044413 6.3199814e-05   0.78180398  0.038443583            0    0.7433604    1.9077454    2.6895494    9.1612103 
 6350000    1.2689794 1.9946106e-05   0.81319457  0.019342891            0   0.79385168    1.8558824     2.669077    4.7115582 
 6355000    1.2343569 -1.7641498e-05   0.84837248  0.052392819            0   0.79597966    1.8052469    2.6536194   0.84713004 
 6360000    1.3216309 -2.1232075e-05   0.70486492  0.037584304            0   0.66728062    1.9328852    2.6377502   0.46358572 
 6365000    1.2712612 -3.4556239e-05   0.75771981 0.0026427876            0   0.75507702    1.8592195    2.6169393  -0.92161961 
 6370000    1.2544874 -1.4191733e-05   0.71257747            0            0   0.71257747    1.8346879    2.5472653    1.0940319 
 6375000    1.2360061 -1.0068012e-05    0.7303499 5.5435804e-05            0   0.73029447    1.8076589    2.5380088    1.5070443 
 6380000    1.2244993 2.4885464e-05   0.76451394 0.0012836739            0   0.76323027    1.7908302    2.5553441    5.1036156 
 6385000    1.2456739 1.1084045e-05   0.68450303 0.0029919321            0    0.6815111     1.821798    2.5063011    3.6413072 
 6390000    1.1841186 -9.0661124e-06   0.77422936 0.0090625408            0   0.76516682    1.7317734    2.5060028    1.5776329 
 6395000      1.22701 -8.413294e-05   0.62062283  0.032517365            0   0.58810546    1.7945022     2.415125   -6.2000881 
 6400000    1.1238058 -6.3976904e-05   0.81295729  0.025580295            0     0.787377     1.643566    2.4565233   -4.0947117 
 6405000    1.0873277 -4.3887872e-05   0.89480373  0.017037942            0   0.87776579    1.5902168    2.4850205   -2.0090975 
 6410000    1.0369983 -0.00014769897   0.96738125 0.0062469532            0    0.9611343      1.51661    2.4839912   -12.640383 
 6415000    1.1635857 -7.9002244e-06   0.77071408  0.020475753            0   0.75023833    1.7017441    2.4724581    1.6634752 
 6420000     1.083185 -1.4444302e-05    0.9241242  0.062342206            0   0.86178199    1.5841581    2.5082823    1.0291857 
 6425000    1.2192197 -3.9547408e-05   0.71610966  0.018984429            0   0.69712523    1.7831088    2.4992184   -1.5504361 
 6430000   0.96190293  3.67363e-05    1.0938095  0.052489834            0    1.0413196     1.406783    2.5005925    6.2623896 
 6435000    1.1959734 4.2132475e-05   0.75762265  0.048530853            0    0.7090918    1.7491111    2.5067337    6.8210992 
 6440000    1.1460234 -7.2149197e-05   0.82566974  0.055446616            0   0.77022313    1.6760593     2.501729   -4.8863487 
 6445000    1.2651657 -0.00010918826   0.64180859 0.0080762165            0   0.63373237    1.8503048    2.4921134   -8.6887643 
 6450000    1.0946272 -4.3812538e-05   0.89292789 0.0040391554            0   0.88888874    1.6008922    2.4938201   -1.9925837 
 6455000    1.1679517 1.3311031e-05   0.76402712 0.0043629287            0   0.75966419    1.7081294    2.4721565    3.8352061 
 6460000     1.189358 3.7742861e-07   0.71263711 0.0094460964            0   0.70319101    1.7394361    2.4520732    2.4907218 
 6465000    1.1738391 -1.89175e-05   0.72308685  0.022048776            0   0.70103808    1.7167397    2.4398265   0.50267457 
 6470000     1.127616 -6.2912212e-05    0.7841983  0.017256513            0   0.76694179    1.6491384    2.4333367   -4.0088738 
 6475000    1.1395599 1.5007315e-05   0.78756398  0.012683612            0   0.77488037    1.6666064    2.4541704    3.9909195 
 6480000    1.0940306 8.3131679e-05   0.92964976 0.0024419161            0   0.92720785    1.6000198    2.5296696    11.042353 
 6485000    1.2341459 5.0843419e-05    0.7052107            0            0    0.7052107    1.8049384    2.5101491    7.7165152 
 6490000    1.1245747 -6.1039479e-05   0.87827129            0            0   0.87827129    1.6446904    2.5229617   -3.7274809 
 6495000    1.0991732 -5.1359357e-05    0.8976087 0.0049017421            0   0.89270696    1.6075408    2.5051495   -2.7540487 
 6500000     1.320696 0.00011395277   0.55122312  0.036564235            0   0.51465888     1.931518    2.4827411    14.151504 
 6505000    1.1964594 8.4795636e-05   0.71539694  0.020143501            0   0.69525344    1.7498219    2.4652188    11.148292 
 6510000    1.2593295 9.9196474e-06   0.61245799 0.0054669351            0   0.60699106    1.8417694    2.4542274    3.4699993 
 6515000    1.2584426 -1.6115557e-05   0.61043194  0.025086415            0   0.58534553    1.8404723    2.4509042   0.80067123 
 6520000     1.221827 -6.608351e-05   0.65063785  0.023772777            0   0.62686507     1.786922    2.4375599   -4.3293915 
 6525000    1.2090748 -0.00010153986    0.6595583 0.0031096344            0   0.65644867     1.768272    2.4278303   -7.9698516 
 6530000    1.1491068 -0.00015097831   0.75549068 0.00082958161            0    0.7546611    1.6805687    2.4360594    -13.02412 
 6535000    1.1466126 -6.6943511e-05   0.78831381            0            0   0.78831381    1.6769209    2.4652347   -4.3897808 
 6540000     1.244843 0.00010909521   0.69750058            0            0   0.69750058    1.8205829    2.5180835    13.689433 
 6545000    1.2085142 0.00013448839   0.76465012 3.9679604e-05            0   0.76461044     1.767452    2.5321021    16.303713 
 6550000     1.381519 8.3102591e-05   0.50376896 0.0022779279            0   0.50149103    2.0204715    2.5242405    11.033946 
 6555000      1.14468 1.0013556e-05   0.82031634 0.0052438827            0   0.81507246    1.6740944    2.4944108    3.5197989 
 6560000    1.1314925 -7.0153085e-05   0.80249705  0.011766419            0   0.79073063    1.6548078    2.4573048    -4.726371 
 6565000    1.0732296 -7.3841543e-05   0.86041771  0.023157735            0   0.83725997    1.5695983     2.430016   -5.1313579 
 6570000    1.0658467 -4.371022e-05   0.83941805  0.019465199            0   0.81995285    1.5588008    2.3982189   -2.0777077 
 6575000    1.2179133 6.2005448e-05   0.58376448 0.0087586435            0   0.57500584    1.7811983    2.3649628    8.7143207 
 6580000    1.2458906 9.1936808e-05   0.53542073  0.015981118            0   0.51943961    1.8221151    2.3575358    11.771865 
 6585000    1.0510352 2.1237148e-05   0.73649132  0.015549036            0   0.72094229    1.5371391    2.2736304    4.4483143 
 6590000    1.0120037 8.0118974e-05   0.81533801  0.085275087            0   0.73006292    1.4800554    2.2953934    10.499576 
 6595000    1.2311443 9.9835188e-05   0.52222238   0.02144219            0   0.50078019    1.8005485    2.3227709    12.545894 
 6600000    1.2121331 8.9021618e-06   0.55954029 0.0029748902            0    0.5565654    1.7727446    2.3322849    3.2438663 
 6605000    1.2333494 6.6839542e-05   0.55381654            0            0   0.55381654    1.8037735      2.35759    9.2019591 
 6610000    1.2153987 1.743998e-05   0.60072885            0            0   0.60072885    1.7775206    2.3782494    4.1641034 
 6615000    1.1145913 -0.00014346699   0.73913423  0.004117706            0   0.73501652    1.6300898    2.3692241   -12.321796 
 6620000    1.1905805 -6.4803607e-05   0.62990275 0.0054702929            0   0.62443245     1.741224    2.3711267   -4.2647627 
 6625000    1.2800864 2.423849e-05   0.48129524  0.013246197            0   0.46804904    1.8721263    2.3534215    4.8354429 
 6630000    1.1007809 -1.7082316e-05   0.71141087  0.017186916            0   0.69422396    1.6098921    2.3213029   0.57207384 
 6635000    1.2240168 3.493992e-06   0.50812372 0.0041320503            0   0.50399167    1.7901246    2.2982483    2.6560331 
 6640000    1.1000896 -6.980494e-05   0.71080947            0            0   0.71080947     1.608881    2.3196905   -4.8283354 
 6645000    1.0705568 -7.4501724e-05   0.72527122 0.00088352305            0    0.7243877    1.5656894    2.2909606   -5.3380159 
 6650000    1.0698882 2.3587376e-05   0.72102236 0.0038291342            0   0.71719323    1.5647115    2.2857339    4.7010811 
 6655000    1.1179495 6.8839391e-06   0.64006977  0.011817108            0   0.62825266    1.6350011    2.2750709    2.9799862 
 6660000    1.1239029 1.6312074e-05   0.62048862  0.019948798            0   0.60053982    1.6437079    2.2641966    3.9345529 
 6665000    1.1819858 2.770636e-06   0.50643485 0.0064855888            0   0.49994926    1.7286542    2.2350891    2.5188022 
 6670000    1.0227865 -2.0456677e-05   0.69326309 0.0011811812            0   0.69208191    1.4958253    2.1890884  0.094324628 
 6675000   0.98486944 4.9270781e-05   0.74194397   0.10394758            0   0.63799638    1.4403716    2.1823155    7.2276435 
 6680000    1.0670891 7.2219981e-07   0.62127509  0.048621867            0   0.57265322    1.5606178    2.1818929    2.2558462 
 6685000    1.1166267 1.7779361e-05   0.52615281  0.022727013            0    0.5034258    1.6330665    2.1592194    3.9798259 
 6690000    1.0026694 -3.8990999e-05    0.7082381  0.014659937            0   0.69357817     1.466404    2.1746421   -1.8180363 
 6695000    1.1724707 -0.0001007649   0.49218888 0.0050702021            0   0.48711868    1.7147384    2.2069273    -8.111398 
 6700000     1.210761 -1.9757834e-05   0.44029287 0.0014445544            0   0.43884831    1.7707379    2.2110308   0.18782864 
 6705000   0.97512008 0.00012294878   0.77489475 0.0015953274            0   0.77329943    1.4261131    2.2010079    14.790963 
 6710000    1.1259505 2.6107626e-05   0.51680528 0.0043539829            0    0.5124513    1.6467026    2.1635078    4.8369287 
 6715000    1.0636754 -3.678307e-05   0.60273219  0.013951118            0   0.58878107    1.5556252    2.1583574   -1.6082289 
 6720000    1.1076157 9.4748262e-05   0.51604499  0.052026697            0    0.4640183     1.619888     2.135933    11.838155 
 6725000    1.0993436 3.651437e-05   0.53125062  0.012716268            0   0.51853436      1.60779    2.1390406    5.8781121 
 6730000   0.96652744 -0.00015814165   0.70092983  0.021447109            0   0.67948273    1.4135464    2.1144762   -14.079228 
 6735000     1.046821 -0.00010077862   0.62914066  0.033017514            0   0.59612315    1.5309758    2.1601164   -8.1596147 
 6740000    1.0962521 4.9800071e-05   0.55382009  0.033757252            0   0.52006284    1.6032687    2.1570887     7.256616 
 6745000   0.98124402 3.0807658e-05   0.72303144  0.065327374            0   0.65770407    1.4350694    2.1581008     5.312805 
 6750000    1.0269889 2.2520936e-05    0.6386161  0.027722404            0   0.61089369    1.5019712    2.1405873    4.4467312 
 6755000     1.025545 -2.2859052e-05   0.64713832 0.0015734754            0   0.64556485    1.4998595    2.1469979  -0.19376911 
 6760000   0.98104043 -9.4592033e-05   0.71209952 0.0033271668            0   0.70877235    1.4347716    2.1468711   -7.5393531 
 6765000    1.0617561 -5.2942383e-05   0.62596692 0.0059866524            0   0.61998026    1.5528183    2.1787852   -3.2425149 
 6770000    1.2285597  5.31092e-06    0.4243953 0.0031308341            0   0.42126447    1.7967686    2.2211639    2.7650021 
 6775000       1.0771 4.0779988e-05   0.65536007   0.01123806            0   0.64412201    1.5752588    2.2306188    6.4064896 
 6780000     1.115242 1.6568944e-05   0.63134731  0.035556071            0   0.59579124    1.6310414    2.2623887    3.9590485 
 6785000     1.156882 -6.0943942e-06   0.55581652  0.029515552            0   0.52630097    1.6919399    2.2477565    1.6236905 
 6790000    1.0466423 3.0217345e-05   0.74333176  0.010522837            0   0.73280892    1.5307144    2.2740462    5.3683023 
 6795000    1.2234845 -4.2092867e-05   0.51468151 0.0081737321            0   0.50650778     1.789346    2.3040275   -2.0062821 
 6800000     1.136596 3.5861335e-05   0.60204736  0.027178354            0   0.57486901    1.6622716     2.264319    5.9365198 
 6805000    1.1137027 5.2123198e-05   0.62910784  0.035569063            0   0.59353878    1.6287902    2.2578981    7.5953136 
 6810000    1.2034261 -2.6760383e-05    0.4378046  0.010605045            0   0.42719956    1.7600107    2.1978153  -0.54244792 
 6815000    1.0682776 -3.3935662e-05   0.66776689 0.0018516753            0   0.66591521     1.562356    2.2301229   -1.2448888 
 6820000    1.1060728 2.8657814e-05   0.59990617 0.0010754149            0   0.59883075    1.6176315    2.2175377    5.1520978 
 6825000    1.0680776 8.9242135e-06   0.62264666   0.01489157            0   0.60775509    1.5620636    2.1847102    3.0985497 
 6830000    0.9789044 -4.7375535e-05   0.76822179  0.017629505            0   0.75059229    1.4316477    2.1998695   -2.6513853 
 6835000    1.2641687 2.9107972e-05   0.35328239 0.0036805345            0   0.34960186    1.8488468    2.2021292    5.1827855 
 6840000     1.139479 -2.7765596e-05   0.49662394 0.0013652133            0   0.49525872    1.6664881     2.163112  -0.68008501 
 6845000    1.0276881 -3.1165836e-05   0.64541836 0.0060362498            0   0.63938211    1.5029938    2.1484122   -1.0429694 
 6850000      1.08336 -9.305664e-05   0.54605464  0.014227882            0   0.53182676     1.584414    2.1304686   -7.3985314 
 6855000    1.0856336 -5.5622694e-05   0.53753237 0.0085294655            0   0.52900291    1.5877391    2.1252715   -3.5704924 
 6860000     1.001954 5.4480963e-05    0.6153863 0.00089629068            0   0.61449001    1.4653578    2.0807441    7.6595947 
 6865000    1.1127287 -2.8121536e-05   0.48259494            0            0   0.48259494    1.6273658    2.1099607   -0.7696846 
 6870000   0.98669564 -3.8551605e-05   0.61794086            0            0   0.61794086    1.4430424    2.0609832   -1.8867012 
 6875000   0.99623987 9.8678379e-06   0.61927496 0.0017680822            0   0.61750688    1.4570008    2.0762758    3.0867424 
 6880000    1.0569399 5.1800331e-05   0.53595457 0.0086503393            0   0.52730423    1.5457745    2.0817291     7.386083 
 6885000   0.97595303 -1.8828314e-05   0.63251911  0.020320618            0   0.61219849    1.4273313    2.0598504   0.13183102 
 6890000    1.0571617 -5.9949875e-05   0.52211672   0.07083312            0    0.4512836     1.546099    2.0682157   -4.0706515 
 6895000   0.99534397 -2.2873543e-05   0.59761702  0.025724596            0   0.57189243    1.4556906    2.0533076  -0.28894324 
 6900000   0.97168675 4.5276507e-05   0.61013195 0.00028566419            0   0.60984629    1.4210919    2.0312238    6.6675382 
 6905000    1.0299311 6.1310206e-05    0.5260534            0            0    0.5260534    1.5062742    2.0323276    8.3104926 
 6910000    1.0315301 -5.4597494e-05   0.53235112            0            0   0.53235112    1.5086127    2.0409639   -3.5498195 
 6915000    1.1099713 -3.2973259e-05   0.37862254            0            0   0.37862254     1.623333    2.0019555   -1.3745062 
 6920000    0.8777446 3.7400409e-05   0.71473724 0.00013022098            0   0.71460702    1.2837015    1.9984387    5.8282406 
 6925000     1.006535 -2.9386161e-05   0.55355795 0.0010887771            0   0.55246917    1.4720574    2.0256154  -0.98352753 
 6930000    1.0203345 -8.2774777e-05   0.51633406 0.0084422688            0    0.5078918    1.4922392    2.0085732   -6.4675639 
 6935000    1.0512081 7.4714503e-05    0.4359892  0.011745899            0    0.4242433    1.5373919    1.9733811    9.6241462 
 6940000   0.90573101 0.0001763882   0.59087392  0.018964526            0   0.57190939    1.3246316    1.9155055    19.977657 
 6945000   0.89892562 5.1219269e-05   0.56452244  0.040197856            0   0.52432459    1.3146787    1.8792012    7.1240543 
 6950000    0.9054931 -1.33866e-05    0.5573166 0.0035657298            0   0.55375087    1.3242837    1.8816003   0.51081244 
 6955000   0.96575664 1.8332091e-05   0.44440455            0            0   0.44440455    1.4124191    1.8568236    3.7340297 
 6960000   0.94847075 7.3055681e-05   0.48767268  0.019878076            0    0.4677946    1.3871385    1.8748112    9.3557128 
 6965000   0.97276573 8.7771162e-05   0.45367048   0.05657339            0   0.39709709    1.4226699    1.8763404    10.864107 
 6970000   0.86677901 -2.9828208e-05   0.55186969  0.013036983            0   0.53883271    1.2676643     1.819534   -1.2348745 
 6975000   0.88601108 -0.00010421919   0.55628304  0.019126049            0   0.53715699    1.2957912    1.8520742   -8.8199709 
 6980000   0.98050247 -5.0493568e-07   0.42257852  0.014756731            0   0.40782179    1.4339849    1.8565634     1.804858 
 6985000   0.86431843 7.4039999e-05   0.58012985  0.003592948            0    0.5765369    1.2640657    1.8441956    9.4258915 
 6990000   0.92662258 5.3100179e-05   0.47841269 0.0088957849            0    0.4695169    1.3551855    1.8335982    7.2710566 
 6995000   0.79910116 -8.6683219e-06   0.64182921  0.083748772            0   0.55808044    1.1686854    1.8105147   0.92287849 
 7000000   0.82849658 -3.3580541e-05    0.5880742  0.071816737            0   0.51625746    1.2116762    1.7997504   -1.6388969 
 7005000   0.98126895 7.3381249e-05   0.43190675 0.0087161244            0   0.42319062    1.4351058    1.8670126    9.3812525 
 7010000    1.0065488 7.1683539e-05   0.40061002  0.004218963            0   0.39639105    1.4720776    1.8726876     9.213082 
 7015000   0.94760758 -0.00010756635   0.51770043  0.027857269            0   0.48984316    1.3858761    1.9035765   -9.1112177 
 7020000   0.85163959 -9.1641427e-05   0.66018996  0.039350419            0   0.62083954    1.2455229    1.9057129   -7.4783693 
 7025000    0.8835191 -4.5718117e-05   0.59470204 0.0098012471            0    0.5849008    1.2921467    1.8868487   -2.7946864 
 7030000   0.89291134 -1.5402398e-05   0.52918999  0.010667017            0   0.51852297    1.3058828    1.8350728   0.25786726 
 7035000   0.98159343 -2.187882e-05   0.42675743  0.005373181            0   0.42138425    1.4355804    1.8623378  -0.37805336 
 7040000   0.97055344 -1.7024776e-05   0.46851407 0.0011672896            0   0.46734678    1.4194344    1.8879485   0.14461144 
 7045000   0.82974133 -3.116914e-05   0.66111634    0.0007467            0   0.66036964    1.2134967     1.874613   -1.3171069 
 7050000   0.85520705 -3.0048171e-05   0.60870036 0.0030412609            0   0.60565909    1.2507403    1.8594407    -1.217492 
 7055000   0.98921496 2.9584268e-05   0.43440973 0.0020674389            0   0.43234229    1.4467269    1.8811366    4.9105656 
 7060000    0.9567759 2.1146171e-05   0.45169378 0.0021948943            0   0.44949888    1.3992848    1.8509785    4.0163465 
 7065000    1.0250499 2.8742885e-05   0.35817296  0.020975444            0   0.33719752    1.4991355    1.8573085    4.8005799 
 7070000   0.90330451 5.5199811e-05   0.51287897  0.037221518            0   0.47565745    1.3210828    1.8339618    7.4864224 
 7075000    1.0236452 1.1903792e-05   0.33068104  0.021342794            0   0.30933825    1.4970811    1.8277622    3.0467105 
 7080000    0.9342095 -8.0011128e-05   0.49239577  0.025757866            0   0.46663791    1.3662814    1.8586772   -6.3344623 
 7085000   0.92176925 -1.1387004e-05   0.54233707  0.063815247            0   0.47852182    1.3480875    1.8904246   0.72439533 
 7090000   0.87241372 3.8444014e-05    0.6595022  0.014229081            0   0.64527312    1.2759051    1.9354073    5.8720743 
 7095000    0.8922107 1.104907e-05   0.62428958  0.000712053            0   0.62357753    1.3048581    1.9291477    3.0605725 
 7100000   0.91027952 1.0665347e-06   0.59847806 1.2741488e-05            0   0.59846532    1.3312838    1.9297619     2.038975 
 7105000    0.9386305 3.474593e-05   0.52521441            0            0   0.52521441    1.3727471    1.8979615    5.4559448 
 7110000    0.9234945 1.295795e-06   0.55071535            0            0   0.55071535    1.3506107    1.9013261    2.0340155 
 7115000   0.88524795 -7.1378953e-05   0.63417131            0            0   0.63417131    1.2946751    1.9288464   -5.3803584 
 7120000   0.85785774 -5.3519971e-05   0.60763165 0.0016390086            0   0.60599264     1.254617    1.8622486   -3.6181964 
 7125000   0.87400864 4.2562355e-05   0.59791522  0.019615574            0   0.57829964    1.2782376    1.8761529     6.234538 
 7130000   0.87230382 0.00010164304   0.56579717  0.029666373            0    0.5361308    1.2757443    1.8415415    12.249788 
 7135000   0.95283319 5.0457553e-05   0.41835203  0.014538328            0    0.4038137    1.3935185    1.8118706     6.978724 
 7140000   0.82985173 -3.3350697e-05   0.59046875 0.0055392675            0   0.58492948    1.2136582    1.8041269   -1.6109845 
 7145000   0.75104746 -3.5207813e-05   0.64973693 0.00049962229            0   0.64923731    1.0984069    1.7481438   -1.8571362 
 7150000    0.8852774 -4.314824e-05   0.44516334 0.0086382613            0   0.43652508    1.2947182    1.7398815   -2.6784983 
 7155000   0.94417716 4.7467379e-05    0.3599926  0.018586736            0   0.34140586    1.3808591    1.7408517    6.6015113 
 7160000   0.80442309 7.9998628e-05   0.56795698 0.0087712611            0   0.55918572    1.1764688    1.7444257    9.9362852 
 7165000   0.88126357 -1.9483592e-05   0.46125887 5.9941283e-05            0   0.46119893     1.288848    1.7501068  -0.24501299 
 7170000   0.82385982 -2.715791e-05   0.57862151 0.0015534439            0   0.57706807     1.204895    1.7835165  -0.99745346 
 7175000   0.87893918 5.9187338e-05   0.49660726  0.037872535            0   0.45873472    1.2854485    1.7820558    7.8428392 
 7180000   0.87349683 6.1151466e-05   0.52667212  0.035988511            0   0.49068361    1.2774891    1.8041612    8.0660714 
 7185000   0.87779442 4.6398554e-05   0.50647399  0.014656228            0   0.49181777    1.2837743    1.7902483    6.5414603 
 7190000   0.87603834 9.7043403e-06    0.4821404 0.0043361781            0   0.47780422    1.2812061    1.7633465    2.7570709 
 7195000   0.83552264 -3.8921562e-05   0.56994508  0.005300966            0   0.56464412    1.2219519    1.7918969    -2.193671 
 7200000   0.84634627 -9.8419407e-06   0.55121368 0.0075138522            0   0.54369983    1.2377814    1.7889951   0.78118037 
 7205000   0.85715177 2.8547823e-05   0.54119479 0.0043457062            0   0.53684908    1.2535845    1.7947793    4.7180764 
 7210000   0.82370184 -7.060523e-06   0.62361564 0.00035251963            0   0.62326312    1.2046639    1.8282796     1.105282 
 7215000   0.87237729 -1.9283283e-05   0.52600653 0.0032187142            0   0.52278782    1.2758518    1.8018583  -0.17274987 
 7220000   0.90143094 4.6521608e-05   0.45137414  0.010325304            0   0.44104884    1.3183427    1.7697169    6.5335295 
 7225000   0.71696066 3.9790274e-05   0.70563948  0.048982892            0   0.65665659     1.048555    1.7541944    5.8287185 
 7230000   0.75168463 5.8375696e-06    0.6889345    0.0603566            0    0.6285779    1.0993388    1.7882733    2.3860404 
 7235000   0.92554341 2.9726801e-05   0.42831132 0.0062677827            0   0.42204354    1.3536072    1.7819186     4.825943 
 7240000   0.90220946 -1.7621867e-05   0.46274247  0.014453553            0   0.44828892    1.3194813    1.7822238 -0.022255423 
 7245000   0.82333783 -4.0094145e-05   0.51610785  0.012512385            0   0.50359547    1.2041316    1.7202394    -2.385401 
 7250000   0.78842014 4.3704112e-05   0.55027033 0.0035382531            0   0.54673208    1.1530645    1.7033348    6.1786359 
 7255000   0.83448154 0.0001067638   0.48406426  0.002854592            0   0.48120967    1.2204292    1.7044935    12.637106 
 7260000   0.83548089 5.4497749e-05   0.42207759 0.0030251236            0   0.41905247    1.2218908    1.6439684    7.2245379 
 7265000   0.87403199 -5.7073099e-05   0.38304705 0.0070708086            0   0.37597625    1.2782718    1.6613188   -4.1829665 
 7270000   0.82423062 -4.435454e-05   0.46358911  0.013012584            0   0.45057652    1.2054373    1.6690264   -2.8728785 
 7275000   0.79113585 3.8916641e-05   0.51922395  0.045505486            0   0.47371846    1.1570362    1.6762601    5.6613242 
 7280000   0.83055241 4.8853004e-05   0.46535685  0.042093862            0   0.42326299    1.2146829    1.6800398    6.6825874 
 7285000   0.87311763 -1.5809037e-05   0.40626013 0.0084326257            0   0.39782751    1.2769345    1.6831947  0.064349273 
 7290000   0.84866138 -6.4773996e-05   0.42965418 0.00030445012            0   0.42934973    1.2411673    1.6708214   -4.9620358 
 7295000   0.90271119 1.2346873e-05   0.35624104 0.0027698113            0   0.35347123    1.3202151    1.6764562    2.9407759 
 7300000   0.81199374 5.901115e-05   0.52001031  0.047370584            0   0.47263973    1.1875408    1.7075512    7.7502929 
 7305000   0.76434574 -5.0050258e-06   0.59522231  0.050263753            0   0.54495856    1.1178556     1.713078    1.2005633 
 7310000   0.85240525 2.3385008e-05   0.45517679  0.055794883            0   0.39938191    1.2466427    1.7018195    4.0964443 
 7315000   0.88468527 -1.9706093e-05   0.37391416  0.012918305            0   0.36099586    1.2938522    1.6677664  -0.35013756 
 7320000   0.81903035 -2.2219934e-05   0.45887238 4.7575739e-05            0    0.4588248    1.1978319    1.6567043  -0.61861702 
 7325000   0.75353667 -2.8757717e-05   0.53056792 0.00026418465            0   0.53030373    1.1020474    1.6326153   -1.3121749 
 7330000   0.72905824 -9.5679833e-05   0.54725008 0.00068931958            0   0.54656077    1.0662477    1.6134978   -8.1841172 
 7335000   0.89053392 -1.0697154e-05   0.34277918 0.0083543871            0   0.33442479    1.3024059     1.645185   0.54979642 
 7340000   0.85961878 7.3232073e-05   0.39481456  0.038606067            0   0.35620849    1.2571925     1.652007    9.1509713 
 7345000   0.70236892 6.0438881e-05   0.59994622  0.023511657            0   0.57643456    1.0272146    1.6271608    7.8161022 
 7350000   0.79170785 5.233702e-05   0.49018847   0.01259804            0   0.47759043    1.1578727    1.6480612     7.007372 
 7355000   0.81681186 4.1254481e-05   0.46388268  0.011674779            0    0.4522079    1.1945873      1.65847    5.8829289 
 7360000   0.87467077 1.3010094e-05   0.39424277  0.011298005            0   0.38294477     1.279206    1.6734488    3.0056824 
 7365000   0.87819348 1.8234066e-05    0.3526368 0.0096170793            0   0.34301972     1.284358    1.6369948    3.5041631 
 7370000   0.74930176 1.3767305e-05   0.55909662  0.007393141            0   0.55170348    1.0958538    1.6549505    3.0647225 
 7375000   0.80888217 -4.3829978e-05   0.46997588 0.0034119631            0   0.46656392    1.1829902    1.6529661   -2.8352237 
 7380000   0.77579911 -1.3200078e-05   0.49731676  0.017703683            0   0.47961308    1.1346062     1.631923   0.28023495 
 7385000   0.79337893 -9.4513774e-06    0.4865618  0.050649075            0   0.43591273    1.1603167    1.6468785   0.67905744 
 7390000   0.85438994 -2.3684336e-05   0.41796524  0.033624956            0   0.38434028    1.2495453    1.6675105  -0.75776544 
 7395000   0.89654997 1.3763881e-05   0.37556713  0.016650957            0   0.35891617    1.3112043    1.6867715    3.0961929 
 7400000   0.85124592 1.5403385e-05   0.45998611  0.023387762            0   0.43659835    1.2449472    1.7049333    3.2822399 
 7405000   0.82060623 -1.6114895e-05   0.50796668 0.0086466626            0   0.49932002    1.2001366    1.7081033  0.057938077 
 7410000    0.8254589 1.4853642e-05   0.49711066  0.010944112            0   0.48616655    1.2072336    1.7043443    3.2253572 
 7415000   0.76226079 9.6146336e-05    0.5662317  0.030692624            0   0.53553908    1.1148064    1.6810381    11.526423 
 7420000   0.85537674 1.7991787e-05   0.41920594 0.0078344168            0   0.41137152    1.2509885    1.6701944    3.5125534 
 7425000   0.81344004 -2.3200373e-05    0.4507745 0.00021570199            0    0.4505588    1.1896561    1.6404306  -0.73528759 
 7430000   0.89005841 -4.1520848e-05    0.3354039 0.0041391967            0   0.33126471    1.3017104    1.6371143   -2.6146205 
 7435000   0.82514029 -2.3282992e-05   0.44610454 0.0080845528            0   0.43801999    1.2067677    1.6528722  -0.73130616 
 7440000   0.82728028 -5.7645054e-05   0.45773405  0.035152496            0   0.42258156    1.2098974    1.6676315    -4.235222 
 7445000   0.85062607 2.5156117e-05   0.42481445  0.035373054            0   0.38944139    1.2440406    1.6688551    4.2448415 
 7450000    0.8070903 3.558189e-05   0.45589313 0.00022329342            0   0.45566984    1.1803696    1.6362627    5.2798482 
 7455000   0.87605984 4.9199559e-05   0.36545216 3.3348646e-05            0   0.36541881    1.2812375    1.6466897    6.6847245 
 7460000   0.83102858 -7.6279602e-06   0.44877415            0            0   0.44877415    1.2153793    1.6641535   0.88305033 
 7465000    0.8009395 -1.1431838e-05   0.48421273            0            0   0.48421273     1.171374    1.6555867   0.48496651 
 7470000   0.84969029 5.8782775e-06   0.41215142            0            0   0.41215142     1.242672    1.6548235    2.2567591 
 7475000   0.85244902 5.348214e-07   0.41245268 0.00077818854            0    0.4116745    1.2467067    1.6591594    1.7139251 
 7480000   0.81102288 3.0345493e-05   0.48751782 0.0021440256            0    0.4853738     1.186121    1.6736388    4.7810173 
 7485000   0.83673643 4.6192785e-05   0.44124352 0.0027564589            0   0.43848706     1.223727    1.6649706    6.3951117 
 7490000   0.81329815 4.5719818e-05    0.4746905  0.025291343            0   0.44939915    1.1894485     1.664139    6.3458484 
 7495000     0.829563 3.9584709e-05   0.46926137  0.044029995            0   0.42523138    1.2132359    1.6824973    5.7359715 
 7500000   0.76620393 -3.1930057e-06   0.56968038  0.049937776            0    0.5197426    1.1205733    1.6902536    1.3632898 
 7505000   0.81884441 1.5872807e-05   0.50188334  0.014959508            0   0.48692384    1.1975599    1.6994433    3.3248187 
 7510000   0.89727623 4.7949692e-05   0.38923909 0.0078680822            0   0.38137101    1.3122665    1.7015056    6.6115541 
 7515000   0.92522977 2.2189654e-05   0.38712917 0.0049419109            0   0.38218725    1.3531485    1.7402777    4.0124983 
 7520000   0.84868657 -1.3742732e-05   0.48389479 0.0015620714            0   0.48233272    1.2412041    1.7250989   0.31784312 
 7525000   0.89817694 -3.9114882e-05   0.42282793 0.0037913864            0   0.41903654    1.3135838    1.7364117   -2.2689522 
 7530000   0.90885138 3.4270578e-05   0.40320995  0.018183286            0   0.38502667    1.3291951    1.7324051    5.2417123 
 7535000   0.81079253 8.6685613e-05   0.50704527 0.0094194893            0   0.49762578    1.1857841    1.6928293    10.569436 
 7540000   0.74586429 0.00010289897   0.59252768 0.0037581509            0   0.58876953    1.0908265    1.6833542    12.220209 
 7545000   0.85635198 -4.0959422e-05   0.45217568  0.013069764            0   0.43910591    1.2524148    1.7045905   -2.4896544 
 7550000   0.95499916 3.7431815e-05   0.32025656  0.011708536            0   0.30854803    1.3966863    1.7169428    5.5499606 
 7555000   0.82372391 7.7625368e-05   0.51247966 0.0018110439            0   0.51066862    1.2046962    1.7171759    9.6660136 
 7560000   0.91594696 1.5744763e-05    0.4082848 0.00084563164            0   0.40743917    1.3395724    1.7478572     3.360121 
 7565000   0.95784236 4.580026e-07   0.33984912  0.024480214            0    0.3153689    1.4008444    1.7406936     1.787593 
 7570000   0.89078007 -5.0560386e-05    0.4402723  0.029150584            0   0.41112171    1.3027659    1.7430382   -3.4343454 
 7575000   0.84830185 8.262407e-06   0.49215567  0.013513859            0   0.47864182    1.2406415    1.7327971    2.5788676 
 7580000   0.92106482 -4.94612e-06   0.38177082  0.014750673            0   0.36702014    1.3470573    1.7288281    1.2223454 
 7585000   0.86927446 -2.7668978e-05   0.48299198 0.0075593007            0   0.47543268    1.2713139    1.7543059   -1.0789975 
 7590000   0.89879732 3.9706785e-05    0.4175896 0.0050751658            0   0.41251443    1.3144911    1.7320807    5.7980554 
 7595000   0.88925014 -1.5507034e-06    0.4718262 0.0039959914            0   0.46783021    1.3005283    1.7723545    1.6135625 
 7600000   0.91487672 -6.0641757e-05   0.49726483 0.0044972929            0   0.49276754    1.3380072     1.835272   -4.3744439 
 7605000   0.93755159 1.9852446e-07   0.46592026 0.0040401867            0   0.46188007    1.3711692    1.8370895    1.8574184 
 7610000   0.95826796 -2.2141334e-05   0.44393133  0.027782398            0   0.41614893    1.4014669    1.8453982   -0.4218744 
 7615000   0.88565485 -2.7000577e-05   0.54220412  0.061916091            0   0.48028802    1.2952702    1.8374743  -0.92738472 
 7620000   0.99213667 1.3925173e-05   0.36973836    0.0216827            0   0.34805566    1.4509999    1.8207382     3.246676 
 7625000   0.91042004 -3.0888197e-05   0.49799448  0.032116101            0   0.46587838    1.3314893    1.8294838   -1.3334676 
 7630000   0.93105602 3.5869449e-05   0.44173538  0.034176303            0   0.40755908    1.3616694    1.8034048    5.4764364 
 7635000   0.91718684 2.6480811e-05   0.49351705 0.0037114538            0   0.48980559    1.3413857    1.8349028    4.5465378 
 7640000   0.92567155 5.4682635e-05    0.4992368            0            0    0.4992368    1.3537946    1.8530314    7.4525333 
 7645000    0.9367588 -6.3407409e-06   0.44785787            0            0   0.44785787    1.3700097    1.8178676    1.1685758 
 7650000   0.90185419 -1.0209868e-05    0.4994852 6.2674823e-05            0   0.49942252    1.3189618     1.818447   0.77295652 
 7655000   0.92750817 2.7302136e-05   0.45369181 0.0018535122            0    0.4518383    1.3564807    1.8101725    4.6059112 
 7660000   0.93197137 -1.3256468e-05   0.47938637 0.0060796425            0   0.47330672    1.3630081    1.8423945   0.48493218 
 7665000   0.90229668 -2.004733e-05    0.5238527  0.017468924            0   0.50638378    1.3196089    1.8434616  -0.20938496 
 7670000   0.88958313 2.0555199e-05   0.55882498  0.011635912            0   0.54718907    1.3010153    1.8598403    3.9646927 
 7675000   0.93731667 6.9709512e-05   0.49701647 0.0028088995            0   0.49420757    1.3708256    1.8678421    9.0060961 
 7680000   0.94298191 -1.8115729e-07   0.44970183 0.0082691525            0   0.44143268     1.379111    1.8288129    1.8102624 
 7685000   0.93139301 -2.598568e-05    0.4381171  0.025647835            0   0.41246926    1.3621623    1.8002794  -0.86065421 
 7690000   0.93205007 2.3141353e-05    0.4663603  0.032972538            0   0.43338776    1.3631232    1.8294835    4.1991581 
 7695000   0.94048444 -3.6475757e-06   0.45795785  0.013441165            0   0.44451669    1.3754585    1.8334163    1.4599046 
 7700000    0.9878481 -4.4614753e-05   0.34715186 0.0021887075            0   0.34496315    1.4447279    1.7918797    -2.776671 
 7705000   0.89405297 -3.793244e-05   0.48119171 0.0013083157            0    0.4798834    1.3075525    1.7887442   -2.0955376 
 7710000   0.93663794 -3.0602717e-05   0.47898071  0.050807983            0   0.42817272     1.369833    1.8488137   -1.2849045 
 7715000   0.88735846 1.8008909e-05   0.52107272  0.021478256            0   0.49959446    1.2977617    1.8188345    3.6629467 
 7720000   0.97322667 5.9828215e-05   0.41644055            0            0   0.41644055     1.423344    1.8397846    7.9661938 
 7725000   0.91458347 3.7809461e-05    0.5108848            0            0    0.5108848    1.3375783    1.8484631    5.7201519 
 7730000   0.91144544 5.2226465e-05   0.55261674            0            0   0.55261674     1.332989    1.8856057    7.2335957 
 7735000   0.95197919 4.4953674e-05   0.46605168 0.00087123251            0   0.46518045    1.3922696    1.8583213    6.4615775 
 7740000   0.90798932 3.0394501e-05   0.47850606  0.028766595            0   0.44973946    1.3279344    1.8064404    4.9188374 
 7745000     0.909116 2.446738e-05   0.47765932  0.038181701            0   0.43947762    1.3295822    1.8072415    4.3127011 
 7750000   0.87893527 3.0277128e-05   0.51071985 0.0074031387            0   0.50331671    1.2854428    1.7961627    4.8965406 
 7755000   0.91521325 5.4374003e-05   0.50149128 0.0014208799            0    0.5000704    1.3384994    1.8399907    7.4078885 
 7760000   0.94766353  4.79007e-06   0.45907714  0.011674868            0   0.44740227    1.3859579    1.8450351    2.3355382 
 7765000   0.94882728 -2.5177895e-05   0.46564858 0.0065551071            0   0.45909348    1.3876599    1.8533085  -0.72490794 
 7770000   0.97362894 -5.0097263e-05   0.41056212  0.063027363            0   0.34753476    1.4239323    1.8344944   -3.2954653 
 7775000   0.85598631 4.9407837e-05   0.60615663  0.026610259            0   0.57954637      1.25188    1.8580366    6.9173991 
 7780000   0.94362078 9.390727e-05   0.51286916  0.021319821            0   0.49154934    1.3800454    1.8929146    11.509019 
 7785000    0.9403763 0.00011476837   0.50731784  0.032523112            0   0.47479472    1.3753003    1.8826182    13.634899 
 7790000    1.0123252 1.5227631e-05   0.37029267  0.012972783            0   0.35731988    1.4805255    1.8508182    3.4101276 
 7795000   0.97626864 -1.2989081e-06   0.44020808  0.010821953            0   0.42938613    1.4277929     1.868001    1.7349928 
 7800000   0.91048748 -3.5299266e-05   0.53306107  0.001320634            0   0.53174044    1.3315879     1.864649   -1.7499959 
 7805000   0.86829429 -5.5659789e-05    0.5719003  0.035889358            0   0.53601094    1.2698804    1.8417807   -3.8577817 
 7810000   0.89538959 -8.9488908e-06   0.49591339    0.1181811            0   0.37773229    1.3095073    1.8054207   0.88905425 
 7815000   0.95421268 -6.1667752e-06   0.40110727 0.0064376133            0   0.39466966     1.395536    1.7966433    1.1651655 
 7820000   0.90636759 7.3887219e-05   0.47035626 8.0787978e-06            0   0.47034818    1.3255626    1.7959189    9.3619701 
 7825000    1.0281701 6.5060006e-05   0.25567447 0.0064405739            0    0.2492339    1.5036987    1.7593732    8.4215179 
 7830000   0.82945351 -2.8158652e-05   0.53006644  0.029430589            0   0.50063585    1.2130758    1.7431422   -1.1403037 
 7835000   0.96621481 3.4918436e-06   0.36220996  0.027397865            0   0.33481209    1.4130892    1.7752991    2.1328639 
 7840000   0.93810877 6.5471847e-05   0.44371532  0.017735864            0   0.42597946    1.3719841    1.8156994    8.5200165 
 7845000   0.87124185 5.4605695e-05   0.52721223  0.052729511            0   0.47448272    1.2741912    1.8014034    7.3930266 
 7850000   0.99789162 2.037281e-05   0.34697437  0.030608333            0   0.31636604    1.4594165    1.8063909    3.8925666 
 7855000   0.96497427 4.1974924e-06   0.39236927  0.022996535            0   0.36937273    1.4112749    1.8036441    2.2334674 
 7860000   0.93848413 -5.7520126e-05   0.42245763  0.036003942            0   0.38645369     1.372533    1.7949907   -4.0950703 
 7865000     0.899496 -3.2428039e-06   0.49823385  0.056191581            0   0.44204227    1.3155129    1.8137467    1.4816836 
 7870000   0.87744919 3.2980211e-05   0.51722624  0.018576288            0   0.49864995    1.2832694    1.8004957    5.1776693 
 7875000   0.92000032 -3.1026232e-05   0.45354015 0.0041609006            0   0.44937925    1.3455005    1.7990406   -1.3780456 
 7880000   0.93369237 -1.1801982e-05    0.4162525   0.02702237            0   0.38923013    1.3655251    1.7817776   0.57325458 
 7885000   0.89652231 -1.6779395e-05   0.46496477  0.026549842            0   0.43841493    1.3111639    1.7761286  0.057918615 
 7890000   0.88684264 -8.6876841e-06   0.49760107    0.0299182            0   0.46768287    1.2970074    1.7946084   0.90498958 
 7895000   0.92915138 -4.0396264e-06    0.4584618  0.029551518            0   0.42891028    1.3588839    1.8173457    1.4036879 
 7900000   0.97840901 -1.7456588e-05   0.38791032  0.065125172            0   0.32278515    1.4309232    1.8188335  0.031278892 
 7905000   0.97176629 1.7306135e-05   0.41126254  0.023002259            0   0.38826028    1.4212082    1.8324707     3.604619 
 7910000   0.95040941 -6.8667473e-06   0.39107351 0.0057772228            0   0.38529629    1.3899738    1.7810473    1.0778923 
 7915000   0.97705081 -3.9749116e-05    0.3793072 0.0053621637            0   0.37394503    1.4289368     1.808244   -2.2620654 
 7920000   0.97700495 3.9760157e-05   0.38920178 0.0053257014            0   0.38387608    1.4288697    1.8180715    5.8895116 
 7925000   0.88189007 2.0919236e-05   0.52405964 0.0055127449            0   0.51854689    1.2897642    1.8138239    3.9559537 
 7930000   0.98630943 -0.00011174317   0.39359997 0.0092815508            0   0.38431841    1.4424775    1.8360775    -9.606423 
 7935000   0.86561583 -6.0817907e-05   0.54244999  0.041078764            0   0.50137123    1.2659632    1.8084131   -4.4193405 
 7940000   0.87789371 2.2304629e-05   0.51712775  0.050547677            0   0.46658007    1.2839196    1.8010473    4.0850413 
 7945000   0.97437567 8.6756585e-06    0.3936709   0.02875203            0   0.36491887    1.4250244    1.8186953    2.7070828 
 7950000   0.95101083 2.6076955e-05   0.45974911  0.014807745            0   0.44494137    1.3908533    1.8506025    4.5208827 
 7955000    0.9586575 6.3968119e-05    0.4158231  0.012073238            0   0.40374986    1.4020366    1.8178597    8.3681951 
 7960000   0.85381658 2.6027209e-05   0.53321453 0.0098114095            0   0.52340312    1.2487067    1.7819213    4.4471075 
 7965000   0.97761164 -3.0320556e-05   0.33349172 0.0042382605            0   0.32925346     1.429757    1.7632487   -1.3415762 
 7970000   0.97772019 -6.1808787e-05   0.34804257 0.0077396925            0   0.34030287    1.4299158    1.7779583   -4.5512615 
 7975000   0.96769713 -2.7814854e-05   0.34896051 0.0023047274            0   0.34665578     1.415257    1.7642176   -1.0840235 
 7980000   0.97629057 2.0138331e-05   0.35122159            0            0   0.35122159     1.427825    1.7790465    3.8412116 
 7985000   0.95871389 2.0270863e-05   0.34618367 0.0010047471            0   0.34517892    1.4021191    1.7483027    3.8240391 
 7990000   0.89476434 3.7974677e-05   0.44282276 0.0029536936            0   0.43986907    1.3085928    1.7514156    5.6400225 
 7995000   0.91242153 3.9881766e-05   0.43095784 0.0044287704            0   0.42652907    1.3344165    1.7653743    5.8492671 
 8000000   0.89280658 -2.6770506e-05   0.45173268 0.0026798253            0   0.44905286    1.3057296    1.7574623  -0.98383746 
 8005000   0.90945678 -2.9934314e-06   0.41052027 0.00045510597            0   0.41006516    1.3300805    1.7406008    1.4340734 
 8010000   0.89819463 7.9196943e-05   0.45448935 0.0044987433            0    0.4499906    1.3136096     1.768099    9.8778659 
 8015000   0.93401104 3.4262497e-05   0.44194614  0.010244117            0   0.43170202    1.3659911    1.8079373     5.316417 
 8020000   0.90527272 4.1211897e-07   0.47710222 0.0068343684            0   0.47026785    1.3239614    1.8010636    1.8432646 
 8025000   0.94022305 4.0647952e-07   0.46623823  0.012467302            0   0.45377092    1.3750762    1.8413144    1.8829379 
 8030000   0.98824995 2.5726271e-05   0.42178481  0.014160849            0   0.40762396    1.4453155    1.8671004    4.5014705 
 8035000   0.98577197 1.8547148e-05   0.43950504 0.0067711998            0   0.43273384    1.4416915    1.8811965    3.7804245 
 8040000    1.0174107 1.4878409e-06   0.42381796 0.0029058718            0   0.42091209    1.4879632    1.9117812    2.0641361 
 8045000    1.0130442 -2.4961377e-07   0.44509529  0.004536469            0   0.44055882    1.4815772    1.9266725     1.901112 
 8050000    1.1843711 3.4433637e-05     0.189597  0.015222851            0   0.17437415    1.7321427    1.9217397    5.4477441 
 8055000   0.97031912 -2.084598e-05   0.49534845  0.058377321            0   0.43697113    1.4190917    1.9144402  -0.22018819 
 8060000    0.9548344 -4.3552685e-05   0.53569977  0.026273585            0   0.50942619    1.3964453    1.9321451   -2.5276499 
 8065000   0.99234709 3.5278451e-05   0.49248332  0.090196424            0    0.4022869    1.4513076    1.9437909    5.5563044 
 8070000    1.0296755 2.5668949e-05   0.44862974  0.049620867            0   0.39900887    1.5059004    1.9545301    4.5830305 
 8075000    1.0222861 -6.7336167e-06   0.41403751  0.017822537            0   0.39621497    1.4950935     1.909131    1.2196086 
 8080000    1.0082119 -7.7906306e-06   0.44117888 0.0050029657            0   0.43617592    1.4745099    1.9156887    1.1179282 
 8085000    1.0325777 -3.6889162e-06   0.40233867 0.0018720635            0    0.4004666    1.5101449    1.9124836    1.5347386 
 8090000    1.0153685 -3.2666802e-06   0.42476622   0.03604849            0   0.38871773    1.4849764    1.9097426    1.5752345 
 8095000    1.0144491 -1.0691242e-05   0.38340229  0.053080843            0   0.33032145    1.4836318    1.8670341   0.77225095 
 8100000     1.007868 -6.8969057e-06   0.40573879  0.019980675            0   0.38575812    1.4740069    1.8797457    1.1735026 
 8105000    1.0256812 1.3822716e-06   0.36338936 0.0095480386            0   0.35384132    1.5000588    1.8634482    2.0049928 
 8110000    1.0133204 -1.4018149e-05   0.37721016 0.0028672659            0    0.3743429    1.4819811    1.8591913   0.42373289 
 8115000    1.0719223 5.5072422e-05   0.32060126 0.00074325785            0     0.319858    1.5676864    1.8882876    7.5277036 
 8120000   0.99586786 4.7200236e-05   0.50097203 0.0028098643            0   0.49816217    1.4564568    1.9574288     6.790733 
 8125000    1.0850872 -4.3978001e-05   0.38976072   0.01287695            0   0.37688377    1.5869401    1.9767008   -2.5266466 
 8130000    1.0014676 -3.8564455e-05   0.51234553  0.013970066            0   0.49837546    1.4646463    1.9769919   -1.9720083 
 8135000    1.0687605 -3.1625544e-05   0.41208197  0.052225659            0   0.35985631    1.5630622    1.9751442   -1.2633115 
 8140000    1.0577711 3.1692807e-06    0.4372399  0.032579562            0   0.40466034    1.5469902    1.9842301    2.3087644 
 8145000     1.094834 6.458635e-05   0.38584648 0.0060658136            0   0.37978067    1.6011948    1.9870412    8.6006835 
 8150000    1.0468696 6.3949454e-05   0.47619646  0.014556176            0   0.46164028    1.5310467    2.0072432    8.5556672 
 8155000    1.0523714 2.4370709e-05   0.47215341  0.021477083            0   0.45067633    1.5390931    2.0112466    4.5068071 
 8160000    1.1077515 -1.8207627e-05   0.37869911  0.040418243            0   0.33828087    1.6200866    1.9987857   0.13432472 
 8165000    1.0455309 -1.6458695e-05   0.45146224   0.04535502            0   0.40610722     1.529089    1.9805512   0.29518083 
 8170000    1.0589044 -7.1873937e-06   0.45470856  0.052724441            0   0.40198412    1.5486476    2.0033562    1.2673671 
 8175000      1.05058 6.216155e-06   0.46642374  0.027504542            0    0.4389192    1.5364733     2.002897    2.6394313 
 8180000    1.0765926 -6.4774504e-08   0.43209215 0.0047503677            0   0.42734178    1.5745166    2.0066088    1.9999759 
 8185000    1.1357896 -2.5276975e-05   0.39813924 0.0026755891            0   0.39546366    1.6610923    2.0592315  -0.52913069 
 8190000    1.0011635 -1.5528995e-05   0.59763315 0.0010680065            0   0.59656514    1.4642016    2.0618348   0.47166568 
 8195000     1.099252 2.9703593e-05   0.45079775 0.0013255456            0   0.44947221    1.6076561    2.0584538    5.1001017 
 8200000    1.1942675 2.2663286e-05   0.33211301 0.0031540419            0   0.32895897    1.7466163    2.0787293    4.3994498 
 8205000    1.1282607 -2.3407043e-05   0.47910198 0.0066373483            0   0.47246463    1.6500813    2.1291833  -0.26769796 
 8210000    1.0610621 -2.1062481e-05   0.57179896  0.012796584            0   0.55900237    1.5518033    2.1236023 -0.033195755 
 8215000    1.1696708 -2.616236e-05   0.46713218  0.018740609            0   0.44839158    1.7106436    2.1777758  -0.50124985 
 8220000    1.1034064 -1.4978289e-05   0.53823834 0.0053496197            0   0.53288872    1.6137319    2.1519702   0.61819345 
 8225000    1.1421102 1.8746582e-05   0.47337192 1.5561777e-05            0   0.47335636    1.6703361     2.143708     4.063358 
 8230000    1.0913727 -8.198749e-06   0.50812741 0.00017124102            0   0.50795617    1.5961326      2.10426    1.2647081 
 8235000    1.1126573 -2.0765033e-05   0.42601814 0.00044172176            0   0.42557642    1.6272613    2.0532794 -0.073059989 
 8240000    1.0963375 3.724611e-05   0.49471938 0.0067071549            0   0.48801223    1.6033937     2.098113    5.9121147 
 8245000    1.0650007 5.7631924e-05   0.56565549  0.025836092            0    0.5398194    1.5575636     2.123219    8.0247281 
 8250000    1.0658778 2.5688316e-05    0.5412881 0.0096699144            0   0.53161818    1.5588463    2.1001344     4.730618 
 8255000     1.200631 4.8794154e-05   0.35114484 0.0055739062            0   0.34557094    1.7559228    2.1070677     7.103589 
 8260000    1.1437727 2.774626e-05    0.4786129  0.022205354            0   0.45640754    1.6727675    2.1513804    4.9925974 
 8265000    1.1976246 -6.8601788e-06   0.42182674  0.013888209            0   0.40793853    1.7515259    2.1733527    1.4708704 
 8270000    1.1382655 -2.1060089e-05   0.48414437  0.014450761            0   0.46969361    1.6647132    2.1488576 -0.0076954716 
 8275000    1.1121332 -4.6408251e-05   0.53629966 0.0035454063            0   0.53275425    1.6264948    2.1627945   -2.5894105 
 8280000    1.1360586 -2.5001054e-05   0.52497185  0.011086827            0   0.51388503    1.6614858    2.1864576  -0.37365036 
 8285000    1.1288778 -5.2054184e-05   0.55011008  0.055229254            0   0.49488082    1.6509838    2.2010939   -3.1292546 
 8290000    1.2047551 -8.9886673e-05   0.44684781  0.026887533            0   0.41996028    1.7619543    2.2088022   -6.9955931 
 8295000    1.1371485 -4.9046204e-05   0.47971454  0.038305147            0   0.44140939    1.6630797    2.1427943    -2.879537 
 8300000    1.1074756 -2.0724038e-05   0.50892308  0.010563687            0   0.49835939    1.6196831    2.1286061 0.0064646257 
 8305000    1.1508947 1.1102498e-05   0.46764126 0.0033883726            0   0.46425289    1.6831835    2.1508248    3.2877205 
 8310000    1.1926534 1.7648948e-05   0.40484072 0.0026838604            0   0.40215686    1.7442556    2.1490963    3.9563486 
 8315000     1.139158 4.675228e-05   0.48131056   0.02304693            0   0.45826363    1.6660185    2.1473291    6.9347625 
 8320000    1.2198129 3.8656808e-05   0.44001336  0.020400048            0   0.41961331    1.7839764    2.2239898     6.182447 
 8325000    1.1395357 -9.4239612e-06   0.46305613  0.025114676            0   0.43794146    1.6665709     2.129627    1.1646134 
 8330000    1.0812431 -6.4736759e-05   0.53981138  0.023388485            0   0.51642289    1.5813181    2.1211294   -4.5079147 
 8335000    1.1660963 -7.1582418e-05   0.38640792  0.014773183            0   0.37163474    1.7054158    2.0918237   -5.2382159 
 8340000    1.1248354 -3.1088716e-05   0.44882371  0.057697862            0   0.39112584    1.6450718    2.0938955    -1.089589 
 8345000     1.080631 3.2701626e-05   0.48275486  0.064698803            0   0.41805605    1.5804229    2.0631777    5.4118242 
 8350000    1.1446625 5.0508509e-05   0.39341171  0.018703152            0   0.37470856    1.6740689    2.0674806    7.2395519 
 8355000    1.0826408 6.2699224e-05   0.49077104  0.067207987            0   0.42356305    1.5833622    2.0741332    8.4945337 
 8360000    1.0469512 6.6035904e-05   0.52356335  0.045168555            0    0.4783948    1.5311661    2.0547295    8.8168061 
 8365000     1.081722 2.6225843e-05    0.4523384 0.0063526253            0   0.44598577    1.5820185    2.0343569    4.7198832 
 8370000     1.072928 -6.52103e-06   0.44724577  0.076023623            0   0.37122215    1.5691572     2.016403    1.3486495 
 8375000    1.0076959 -4.1738018e-05   0.55558854   0.05794576            0   0.49764278    1.4737552    2.0293438   -2.2446293 
 8380000    1.1766948 -4.3921347e-05   0.32767027  0.013309303            0   0.31436096    1.7209161    2.0485864   -2.4489595 
 8385000    1.1325811 9.1110214e-06   0.38608579  0.003548004            0   0.38253779    1.6563999    2.0424857    2.9754542 
 8390000    1.0786103 4.6590238e-05   0.43726512 0.0031045266            0   0.43416059    1.5774675    2.0147327     6.785573 
 8395000    1.0415473 5.8744657e-06   0.48740885   0.01982169            0   0.46758716    1.5232629    2.0106717     2.612217 
 8400000     1.025493 -2.9451846e-05   0.53301659  0.012547423            0   0.52046917    1.4997835    2.0328001  -0.98306897 
 8405000    1.0778015 4.6967057e-05   0.45539732 0.00056901413            0   0.45482831    1.5762847     2.031682    6.8411086 
 8410000     1.093918 6.3496246e-05   0.46085486            0            0   0.46085486    1.5998551    2.0607099    8.5627256 
 8415000    1.1223517 -2.270896e-05   0.38228282 0.0047822337            0   0.37750059    1.6414394    2.0237222   -0.3016753 
 8420000    1.0597755 9.8725621e-06   0.46559759   0.11686298            0   0.34873461    1.5499216    2.0155192    3.0264696 
 8425000    1.0391267 4.1897714e-05   0.50393654   0.11155828            0   0.39237826    1.5197228    2.0236594    6.3139853 
 8430000    1.1173004 -1.0654811e-05   0.42208327   0.01009117            0    0.4119921    1.6340518    2.0561351   0.96508247 
 8435000    1.0452922 -3.7971262e-06   0.51568406  0.018214988            0   0.49746907    1.5287399    2.0444239    1.6555982 
 8440000    1.1124987 4.2290872e-05   0.39938651  0.073825517            0   0.32556099    1.6270294    2.0264159    6.3570013 
 8445000     1.117082 -3.1523088e-05   0.39423351  0.019486439            0   0.37474707    1.6337325     2.027966   -1.1999982 
 8450000    1.1411586 -1.0061982e-05   0.38997128 0.0046838596            0   0.38528742    1.6689445    2.0589157    1.0285688 
 8455000    1.1046214 3.4277278e-05   0.41789279  0.042472176            0   0.37542062    1.6155087    2.0334015    5.5433948 
 8460000    1.0936599 1.3242693e-05   0.45806818   0.23077447            0   0.22729371    1.5994777    2.0575459    3.4135977 
 8465000    1.0651857 -6.0519654e-05   0.48098906  0.050765404            0   0.43022366    1.5578342    2.0388232   -4.1583893 
 8470000    1.0891399 -3.6932203e-05   0.42420658  0.055867161            0   0.36833942    1.5928671    2.0170737   -1.7647839 
 8475000    1.0911113 2.5751744e-05   0.44807041  0.010381776            0   0.43768864    1.5957503    2.0438207    4.6807993 
 8480000    1.0791074 8.7537165e-05    0.5037427 0.0083934652            0   0.49534924    1.5781946    2.0819373    11.045743 
 8485000    1.1268896 0.00010519483   0.37917865 0.0023507126            0   0.37682794     1.648076    2.0272547    12.799205 
 8490000    1.0657007 2.9928199e-05   0.44821152 0.0020467587            0   0.44616476    1.5585873    2.0067988    5.0714464 
 8495000    1.0458636 -4.1183803e-05    0.4782206 0.0048064578            0   0.47341414    1.5295755    2.0077961   -2.2094253 
 8500000     1.107281 -3.5707729e-05   0.39131353  0.011716836            0   0.37959669    1.6193984    2.0107119   -1.6457595 
 8505000    1.0296876 -2.0476765e-05   0.49034396   0.01625446            0    0.4740895    1.5059182    1.9962621  -0.10055864 
 8510000    1.0642324 -4.1877731e-05   0.41880553  0.032803053            0   0.38600247    1.5564399    1.9752454   -2.3130342 
 8515000    1.0273212 -1.3078425e-05   0.48201852  0.017071154            0   0.46494736    1.5024573    1.9844758   0.64524503 
 8520000    1.1095533 7.8032011e-06   0.38428238  0.006472378            0      0.37781    1.6227217    2.0070041    2.8060519 
 8525000    1.1088191 -3.6312686e-05    0.3877409  0.085203879            0   0.30253702     1.621648    2.0093889   -1.7090301 
 8530000    1.0774329 -3.9457503e-05   0.44517987  0.025419408            0   0.41976046    1.5757456    2.0209255   -2.0195229 
 8535000    1.1360291 -1.7016997e-05   0.40411274            0            0   0.40411274    1.6614425    2.0655553   0.32301478 
 8540000    1.1489951 5.247721e-05     0.357593  0.011085505            0    0.3465075    1.6804054    2.0379984    7.4116647 
 8545000    1.1175325 5.4372374e-05   0.43353781  0.034989297            0   0.39854851    1.6343913    2.0679291    7.6356602 
 8550000    1.0864285 8.8137229e-05    0.5283452  0.018145652            0   0.51019954    1.5889017    2.1172469    11.142499 
 8555000    1.0592917 0.00010596144   0.57842184  0.037196258            0   0.54122558    1.5492142     2.127636    12.978087 
 8560000    1.1900095 2.2759232e-05   0.42804785  0.016783189            0   0.41126467     1.740389    2.1684368    4.4989822 
 8565000    1.1595094 -2.36007e-05    0.5243393  0.027938434            0   0.49640086    1.6957824    2.2201217  -0.19658995 
 8570000    1.2199774 -0.00010540111   0.40949042 0.0011432181            0    0.4083472     1.784217    2.1937074   -8.5993664 
 8575000    1.1422567 -5.3780798e-05   0.47851935 0.0045976704            0   0.47392168    1.6705504    2.1490698    -3.358084 
 8580000    1.0914726 1.598932e-05   0.55361165  0.016063062            0   0.53754858    1.5962787    2.1498903    3.7871967 
 8585000    1.1247834 2.9310581e-05   0.50123593 0.0053962091            0   0.49583972    1.6449957    2.1462317    5.1476351 
 8590000    1.0694497 1.4295863e-06    0.5533535            0            0    0.5533535    1.5640702    2.1174237    2.2638133 
 8595000    1.0461571 4.8651407e-05   0.55813261            0            0   0.55813261    1.5300048    2.0881374    7.0700415 
 8600000    1.0708726 4.8697097e-05   0.52317325 2.6136385e-05            0   0.52314712    1.5661512    2.0893244    7.0759072 
 8605000    1.0025639 4.2167467e-06    0.6003401  0.049675723            0   0.55066438    1.4662497    2.0665898    2.4983846 
 8610000    1.0935813 1.5611872e-05   0.47747097  0.029956733            0   0.44751424    1.5993627    2.0768337    3.6754894 
 8615000    1.0949068 2.9671196e-05   0.50198616  0.005455122            0   0.49653104    1.6013013    2.1032874    5.1416179 
 8620000    1.0513352 -1.4093243e-05   0.56406603  0.039659485            0   0.52440655    1.5375777    2.1016438   0.65849563 
 8625000    1.1007732 1.7380074e-05   0.51479299  0.031809713            0   0.48298328    1.6098808    2.1246738    3.9043934 
 8630000    1.1374074 1.9391137e-05   0.53718319  0.019036776            0   0.51814641    1.6634583    2.2006415    4.1862939 
 8635000    1.1297771 9.958307e-06   0.57229368  0.011653161            0   0.56064052     1.652299    2.2245927    3.2443233 
 8640000    1.1522434 1.8526255e-05   0.56735262  0.043570155            0   0.52378246    1.6851559    2.2525085     4.149597 
 8645000    1.1424506 -2.8435107e-07   0.54387081  0.082194532            0   0.46167627    1.6708339    2.2147048    2.1855872 
 8650000    1.1199768 2.9363623e-05   0.61522656  0.037981836            0   0.57724472     1.637966    2.2531926    5.2600276 
 8655000    1.1001863 4.2553152e-05   0.61483025   0.04599331            0   0.56883694    1.6090224    2.2238527    6.5812955 
 8660000    1.1946061 2.5850753e-05   0.48106928 0.0039311857            0    0.4771381    1.7471114    2.2281807    4.8752978 
 8665000    1.1655689 1.0639153e-06   0.52114031 0.0025068872            0   0.51863342    1.7046446    2.2257849    2.3347298 
 8670000    1.1227615 -1.6320039e-05   0.61922123 0.0044151239            0    0.6148061    1.6420387    2.2612599   0.59008791 
 8675000    1.2289585 -1.3081102e-05   0.49993115 0.0048128353            0   0.49511831    1.7973519     2.297283    0.9577782 
 8680000    1.2559366 -1.5826209e-05   0.46814337 0.00073596005            0   0.46740741    1.8368072    2.3049506   0.68434677 
 8685000    1.2359463 -4.2567119e-05   0.44481263 2.8907809e-06            0   0.44480974    1.8075715    2.2523841   -2.1064888 
 8690000    1.1958741 -2.441273e-05   0.52617525 0.0017051892            0   0.52447006    1.7489659    2.2751412  -0.22472234 
 8695000    1.2089119 7.9917703e-05   0.50672668  0.012368709            0   0.49435797    1.7680337    2.2747604    10.458333 
 8700000    1.2497041 6.1783146e-05   0.43974352 0.0088366498            0   0.43090687    1.8276923    2.2674358      8.59403 
 8705000    1.2119215 -1.9878833e-05   0.50579655 0.0008999449            0   0.50489661    1.7724352    2.2782317    0.2426392 
 8710000    1.1726074 -6.9747432e-05   0.57718893            0            0   0.57718893    1.7149384    2.2921273   -4.8500098 
 8715000    1.2511352 2.3963139e-05   0.46821139 6.4469597e-05            0   0.46814692    1.8297853    2.2979967    4.7518221 
 8720000    1.1357355 6.8315776e-05   0.61292182 0.0011899793            0   0.61173184    1.6610132     2.273935    9.2694704 
 8725000    1.2594291 2.3488331e-05   0.44397089  0.013220834            0   0.43075006    1.8419151     2.285886    4.6910911 
 8730000    1.1561141 -1.6105342e-05   0.55673939  0.018953755            0   0.53778563    1.6908168    2.2475562    0.5983692 
 8735000    1.2184825 -2.7457031e-05   0.46043164  0.001294114            0   0.45913752    1.7820306    2.2424623  -0.56913765 
 8740000    1.1559366 4.4449874e-05   0.53593989 8.2932994e-05            0   0.53585696    1.6905573    2.2264972    6.7781643 
 8745000    1.1252245 6.4043928e-05   0.61961807 0.0046704082            0   0.61494766    1.6456409     2.265259    8.8233572 
 8750000    1.1906749 5.8550639e-05   0.50358198  0.027072151            0   0.47650983    1.7413621    2.2449441    8.2405295 
 8755000    1.1390234 3.8346821e-05   0.59973958  0.024295819            0   0.57544376    1.6658217    2.2655613    6.1922757 
 8760000    1.2296944 -1.0176332e-05   0.48492286 0.0039940437            0   0.48092882    1.7984281     2.283351    1.2412945 
 8765000    1.0775258 -3.795288e-05   0.69867791  0.028874093            0   0.66980382    1.5758814    2.2745593   -1.6118156 
 8770000    1.1383739 1.9781668e-05   0.56647288  0.029760273            0   0.53671261    1.6648718    2.2313447    4.2569874 
 8775000    1.1983694 4.2846563e-05   0.52463561  0.036511878            0   0.48812373    1.7526152    2.2772508    6.6647389 
 8780000    1.1764476 -1.9273713e-05   0.47299459  0.031926925            0   0.44106766    1.7205546    2.1935491   0.21992097 
 8785000    1.1774029 -4.4409463e-05    0.4729299 0.0055895945            0   0.46734031    1.7219518    2.1948817   -2.3526473 
 8790000    1.2148427 -4.4249521e-05   0.43769238 0.0023083428            0   0.43538404    1.7767074    2.2143998   -2.3167512 
 8795000     1.103591 -6.6926541e-05   0.57144114 0.00014621534            0   0.57129493    1.6140019     2.185443   -4.6678348 
 8800000    1.0251443 -3.0959873e-05   0.68046762            0            0   0.68046762    1.4992736    2.1797412  -0.99054987 
 8805000    1.1321049 2.284458e-05   0.47601635            0            0   0.47601635    1.6557034    2.1317198    4.4710047 
 8810000    1.1153465 -1.4215098e-05   0.44758028  0.011905164            0   0.43567512    1.6311943    2.0787746   0.62314854 
 8815000    1.0200576 2.3240602e-05   0.58992524  0.034772016            0   0.55515322    1.4918342    2.0817594     4.461597 
 8820000    1.0821174 5.2649721e-06   0.51203713  0.019365323            0    0.4926718    1.5825968    2.0946339     2.633767 
 8825000     1.027349 -6.1334536e-05   0.63859291  0.028468813            0   0.61012409    1.5024979    2.1410908   -4.1395657 
 8830000    1.0761449 1.3962176e-05   0.58009944  0.020707539            0    0.5593919     1.573862    2.1539614    3.5836882 
 8835000    0.9989212 4.1800676e-05   0.69341131  0.058126973            0   0.63528434    1.4609223    2.1543336    6.4347228 
 8840000    1.0325498 9.1113044e-05   0.61242802  0.059094564            0   0.55333346    1.5101041    2.1225321    11.452508 
 8845000    1.1094401 1.2974369e-05   0.52461853  0.091444693            0   0.43317383    1.6225561    2.1471746    3.4757501 
 8850000    1.1091539 -6.874056e-05   0.51729336 0.0053824551            0   0.51191091    1.6221375    2.1394309   -4.8996025 
 8855000    1.0776812 -9.1194242e-05   0.60302416 0.0052170276            0   0.59780713    1.5761088    2.1791329   -7.1591575 
 8860000    1.1335577 -0.00014267156   0.54274358 0.0024839776            0    0.5402596    1.6578282    2.2005717   -12.408996 
 8865000    1.0734737 -5.5931815e-05   0.61513134 0.0055208975            0   0.60961044    1.5699553    2.1850867   -3.5423311 
 8870000    1.1457039 4.9638301e-05   0.48055666 0.0026626342            0   0.47789402     1.675592    2.1561486    7.2391106 
 8875000    1.0104121 1.7748189e-05   0.72340771 0.0062739196            0   0.71713379    1.4777277    2.2011354      4.01855 
 8880000    1.0863747 -1.1175023e-05   0.58307664  0.067542306            0   0.51553434    1.5888229    2.1718996    1.0275772 
 8885000    1.1209932 3.8877557e-05   0.57259198  0.027041158            0   0.54555082    1.6394525    2.2120445    6.1931063 
 8890000    1.1073975 9.1948192e-05   0.57511654  0.021071969            0   0.55404457    1.6195688    2.1946854     11.61018 
 8895000    1.1135264 4.1422082e-05   0.55820528  0.015813298            0   0.54239198    1.6285324    2.1867377    6.4283588 
 8900000     1.270419 -4.9417708e-05    0.3134415 0.0041165906            0   0.30932491    1.8579877    2.1714292   -2.8889441 
 8905000    1.0878187 -4.1369681e-05   0.57984972  0.019359699            0   0.56049002    1.5909349    2.1707846   -2.0654707 
 8910000    1.0576103 -8.1417854e-06   0.59307814  0.091478117            0   0.50160002     1.546755    2.1398332    1.3061143 
 8915000    1.1364466 -2.85193e-05   0.47900569  0.091730201            0   0.38727549    1.6620532    2.1410589  -0.77931746 
 8920000    1.0369144 -1.3010722e-05   0.65734786  0.084613059            0    0.5727348    1.5164873    2.1738352   0.84153728 
 8925000    1.1252699 8.2958965e-05   0.48933663  0.011696271            0   0.47764036    1.6457073    2.1350439    10.630042 
 8930000    1.0570528 5.8697169e-05   0.53689663   0.01989934            0   0.51699728    1.5459398    2.0828364    8.0934265 
 8935000    1.0026696 -6.1941368e-05   0.58232038  0.006041583            0   0.57627879    1.4664042    2.0487246   -4.2940715 
 8940000    1.0715839 -3.9220252e-05   0.46150731  0.021680023            0   0.43982729    1.5671915    2.0286988    -1.987455 
 8945000    1.1260129 2.2318743e-05   0.41428948  0.011203493            0   0.40308598    1.6467938    2.0610833    4.3465225 
 8950000   0.99368255 3.3844321e-05   0.57380745 0.0005026337            0   0.57330482    1.4532607    2.0270682    5.4927267 
 8955000    1.1592745 7.3691156e-05   0.35354382 0.00037296541            0   0.35317085     1.695439    2.0489828    9.5949572 
 8960000    1.1567544 1.3636998e-05   0.38944791            0            0   0.38944791    1.6917534    2.0812013    3.4776298 
 8965000    1.2054259 -2.0653381e-05   0.39101747            0            0   0.39101747    1.7629353    2.1539528  0.039046632 
 8970000    1.1250032 3.3133496e-05    0.5309248            0            0    0.5309248    1.6453172     2.176242     5.569112 
 8975000    1.1679106 -1.0441231e-05   0.49325276            0            0   0.49325276    1.7080693    2.2013221      1.13214 
 8980000    1.1612264 -5.6674198e-05   0.50846802            0            0   0.50846802    1.6982936    2.2067616   -3.5966763 
 8985000    1.2077026 -4.4717512e-05   0.45480575 0.00094262158            0   0.45386313    1.7662651    2.2210709   -2.3580024 
 8990000    1.0943137 -7.8590017e-06   0.65530231    0.1262984            0   0.52900391    1.6004338    2.2557361    1.4509744 
 8995000     1.164936 4.1516122e-05   0.55686683  0.099063037            0   0.45780379    1.7037188    2.2605857    6.5118365 
 9000000    1.1016065 1.8779605e-05   0.61241919 0.0061361378            0   0.60628305    1.6110995    2.2235187    4.1465502 
 9005000    1.1585498 -1.841265e-05   0.48480877  0.014332173            0    0.4704766    1.6943792    2.1791879   0.29373253 
 9010000    1.1697014 -3.9179722e-06   0.50457305  0.044566258            0    0.4600068    1.7106884    2.2152614    1.8140611 
 9015000    1.1975525 -2.1983052e-05   0.50445239  0.030129874            0   0.47432252    1.7514205    2.2558729 0.0048083571 
 9020000    1.1739021 -7.3262037e-05   0.52225292 0.0051069131            0   0.51714601    1.7168319    2.2390848   -5.2629478 
 9025000      1.13077 -4.5838548e-05   0.56347084 0.0029905221            0   0.56048032    1.6537511     2.217222   -2.4766453 
 9030000    1.1429737 -2.1216695e-05   0.47686709 0.00099280148            0   0.47587428    1.6715991    2.1484661 -0.024123431 
 9035000    1.1787482 4.6989869e-05   0.46492986 0.0044697384            0   0.46046012    1.7239193    2.1888492    7.0006117 
 9040000     1.132324 8.0594788e-05   0.55561199 0.0078005728            0   0.54781142    1.6560238    2.2116358    10.464542 
 9045000    1.1465815 -3.0012585e-05   0.49648425   0.00867632            0   0.48780793    1.6768755    2.1733597  -0.89992899 
 9050000    1.2486949 4.7391262e-05    0.3285408  0.026244191            0   0.30229661    1.8262164    2.1547572    7.0076224 
 9055000    1.2100767 3.7200761e-05   0.38617538   0.06736393            0   0.31881145    1.7697372    2.1559125    5.9652705 
 9060000    1.1010982 -3.3209882e-05   0.52332095  0.014767663            0   0.50855329    1.6103561     2.133677   -1.2670149 
 9065000     1.103471 3.489949e-05    0.5160141  0.015338665            0   0.50067543    1.6138263    2.1298404    5.7035482 
 9070000    1.0286886 -5.8285216e-05   0.62548576   0.10052706            0   0.52495871    1.5044571    2.1299429   -3.8384633 
 9075000     1.117576 -1.0387513e-05   0.51796013  0.049513604            0   0.46844652    1.6344549     2.152415    1.0887337 
 9080000    1.1278798 1.8036084e-05   0.47074894  0.016724614            0   0.45402433    1.6495243    2.1202732    3.9671683 
 9085000    1.0359243 -4.3699274e-05   0.54599811   0.12749666            0   0.41850145    1.5150394    2.0610375   -2.4137682 
 9090000    1.0606839 1.9973223e-05   0.52287885  0.076910888            0   0.44596796    1.5512502    2.0741291    4.1193871 
 9095000    1.1132105 -2.814577e-05   0.44881355 0.0035371936            0   0.44527636    1.6280704    2.0768839  -0.80524288 
 9100000    1.1030243 2.2054272e-05   0.46213647  0.013660242            0   0.44847623     1.613173    2.0753095     4.333667 
 9105000    1.0712891 -4.3795704e-05   0.51294667  0.047508851            0   0.46543782    1.5667604     2.079707    -2.404973 
 9110000     1.036688 -5.1119331e-05   0.62412309    0.0277999            0   0.59632319    1.5161562    2.1402793   -3.0943402 
 9115000     1.098564 -2.5827366e-05   0.56720899  0.078437682            0   0.48877131    1.6066499    2.1738589   -0.4708634 
 9120000    1.1279295 -6.7730435e-05   0.49951134 0.0075814313            0   0.49192991    1.6495968    2.1491082   -4.7864884 
 9125000    1.0917977 1.8628396e-05   0.51543858 0.0043598282            0   0.51107875    1.5967541    2.1121927    4.0197404 
 9130000    1.2225006 3.0224227e-06   0.33554918 0.0047712138            0   0.33077797    1.7879071    2.1234563    2.4329523 
 9135000    1.1687978 -4.9029054e-05   0.42398843 0.00042338801            0   0.42356504    1.7093667    2.1333552   -2.8872199 
 9140000    1.0635671 -4.3982434e-05   0.63762354 0.0010197987            0   0.63660374    1.5554669    2.1930904   -2.3107108 
 9145000    1.1459646 -5.0417009e-05   0.52779564  0.023999799            0   0.50379584    1.6759732    2.2037689   -2.9589329 
 9150000    1.2567238 6.6604017e-05   0.39594637  0.029748815            0   0.36619756    1.8379586     2.233905    9.0541563 
 9155000      1.17188 3.7443167e-05   0.47761022 0.0029475795            0   0.47466264    1.7138744    2.1914846     6.025665 
 9160000    1.0990473 -7.5167964e-05   0.57985592 0.0036429464            0   0.57621297    1.6073566    2.1872125    -5.509987 
 9165000    1.1659459 6.4271628e-05   0.46402734  0.019789345            0     0.444238    1.7051959    2.1692233     8.750638 
 9170000    1.2319209 4.9304214e-05   0.42484132  0.013061149            0   0.41178017    1.8016844    2.2265257    7.2752772 
 9175000    1.0239788 -2.6471929e-05   0.67157515   0.12151572            0   0.55005943     1.497569    2.1691442  -0.54158132 
 9180000    1.1338432 6.8639979e-05   0.54898571  0.087816739            0   0.46116897    1.6582457    2.2072314    9.2359653 
 9185000    1.1711164 -2.5727494e-05   0.48740292  0.022340564            0   0.46506235    1.7127577    2.2001606   -0.4343348 
 9190000    1.1020382 3.5633814e-05   0.59364398  0.055554145            0   0.53808984    1.6117308    2.2053748    5.8542774 
 9195000    1.1285776 0.00013070689   0.53171912  0.035157604            0   0.49656152    1.6505448    2.1822639     15.56665 
 9200000     1.063774 1.8667868e-05    0.6274086  0.050721099            0    0.5766875    1.5557694     2.183178    4.0947678 
 9205000     1.169721 1.8256567e-05   0.42495472   0.03289751            0   0.39205721     1.710717    2.1356717    4.0051442 
 9210000    1.0913184 -5.4943083e-07   0.52800987  0.053010457            0   0.47499941    1.5960532     2.124063    2.0678013 
 9215000     1.025089 -1.682415e-05   0.53256735   0.10022642            0   0.43234093    1.4991927    2.0317601   0.30896714 
 9220000    1.1757217 5.0583822e-05    0.3307064  0.011166425            0   0.31953998    1.7194929    2.0501993    7.2299827 
 9225000    1.1461442 1.1337113e-06   0.41620738 0.00058474015            0   0.41562264     1.676236    2.0924433    2.2085354 
 9230000    1.0589458 4.6318908e-05   0.52256794 5.1150699e-05            0   0.52251678    1.5487083    2.0712762    6.8143324 
 9235000    1.1284635 4.3887057e-05   0.34732193 1.3480278e-05            0   0.34730845    1.6503779    1.9976998    6.4917345 
 9240000    1.1461882 -7.2579181e-05   0.34118756 0.0003708246            0   0.34081673    1.6763002    2.0174878   -5.4146204 
 9245000    1.0417093 -2.5355561e-05   0.52204539   0.03964516            0   0.48240023    1.5234999    2.0455453  -0.55086415 
 9250000   0.95691581 -9.0742916e-06   0.63285304   0.08653201            0   0.54632103    1.3994894    2.0323424     1.103135 
 9255000    1.1021764 4.4105545e-05   0.44733238   0.01607641            0   0.43125597    1.6119329    2.0592653    6.5756731 
 9260000     1.169778 3.0263189e-05   0.33100242            0            0   0.33100242    1.7108004    2.0418028    5.1407533 
 9265000    1.0439443 -4.1587955e-06    0.5021122            0            0    0.5021122    1.5267685    2.0288807      1.60302 
 9270000    1.1378131 7.0637045e-05   0.44052402            0            0   0.44052402    1.6640517    2.1045757    9.3378091 
 9275000    1.2150444 1.0487906e-05   0.33247785 0.0034546328            0   0.32902322    1.7770024    2.1094803    3.1834418 
 9280000    1.0977549 -1.0132579e-05     0.483772   0.06162735            0   0.42214465    1.6054665    2.0892385    1.0516624 
 9285000    1.1167196 2.3302919e-05    0.4408906  0.054912009            0   0.38597859    1.6332025     2.074093    4.4603119 
 9290000    1.1855676 -2.8688651e-05   0.38434897  0.031006471            0    0.3533425    1.7338927    2.1182416  -0.81947625 
 9295000    1.1118059 -1.8668911e-05   0.51701354  0.051403161            0   0.46561038    1.6260161    2.1430297   0.23133316 
 9300000    1.1994574 -1.754406e-05   0.35226659  0.058216396            0   0.29405019    1.7542065    2.1064731    0.3099613 
 9305000   0.98809559 -4.0882804e-05   0.59494675  0.021235524            0   0.57371122    1.4450898    2.0400365   -2.1463626 
 9310000    1.1392247 2.9404899e-05   0.39831091   0.05677019            0   0.34154072    1.6661162    2.0644271    5.0754887 
 9315000    1.1266456 1.9266264e-05   0.41093956  0.018781858            0    0.3921577    1.6477192    2.0586588    4.0315242 
 9320000    1.1075656 -2.0280649e-06    0.4742216  0.022884935            0   0.45133666    1.6198146    2.0940362    1.8863624 
 9325000    1.0677398 1.2525353e-05   0.54519005   0.02914115            0    0.5160489    1.5615694    2.1067595    3.3893557 
 9330000    1.1596494 -1.31991e-06   0.37961597 0.0043698578            0   0.37524611    1.6959872    2.0756032    1.9404444 
 9335000    1.1271366 1.8511565e-05   0.42980807            0            0   0.42980807    1.6484373    2.0782454    3.9738297 
 9340000    1.1154735 -2.0242584e-05   0.46261622 0.0070086941            0   0.45560753      1.63138    2.0939962  0.021155663 
 9345000    1.2192757 4.0820367e-05   0.33948861  0.021342919            0   0.31814569    1.7831907    2.1226793    6.3026848 
 9350000    1.1981486 3.3813014e-05   0.33964949 0.0088278504            0   0.33082163    1.7522923    2.0919418    5.5543944 
 9355000    1.0906706 -5.4091698e-05   0.49577605 6.0041091e-06            0   0.49577005    1.5951058    2.0908818   -3.4481081 
 9360000    1.0757808 2.4175735e-05   0.51640174 0.00054215136            0   0.51585959    1.5733295    2.0897312    4.5653265 
 9365000    1.1944188 -3.4671839e-05   0.39525695    0.0434078            0   0.35184915    1.7468375    2.1420944   -1.4083019 
 9370000    1.0237235 -0.00012192848   0.63753538   0.12095317            0   0.51658221    1.4971956     2.134731   -10.350745 
 9375000    1.1229054 3.5559274e-05   0.53603802  0.089418753            0   0.44661927    1.6422492    2.1782872    5.8195568 
 9380000    1.2397735 3.8732768e-05   0.35235348  0.018258078            0    0.3340954    1.8131687    2.1655222    6.1317576 
 9385000     1.181824 -8.1826633e-05    0.4557662  0.014191976            0   0.44157422    1.7284175    2.1841837   -6.1948635 
 9390000    1.2191532 -2.338008e-05   0.39116087 0.0046220195            0   0.38653885    1.7830115    2.1741724  -0.21994779 
 9395000    1.1380686 6.1603314e-05   0.50326722 0.0029631326            0   0.50030408    1.6644253    2.1676926     8.475872 
 9400000    1.2494666 7.3828219e-06   0.33843768            0            0   0.33843768    1.8273449    2.1657826    2.9217835 
 9405000     1.144662 -4.509533e-05   0.47924187  0.020901274            0    0.4583406    1.6740682    2.1533101   -2.4644517 
 9410000    1.1371644 1.146953e-06   0.52569658  0.069617401            0   0.45607918     1.663103    2.1887995    2.3062475 
 9415000    1.2276186 -7.6333314e-05   0.41861514  0.081406225            0   0.33720891    1.7953922    2.2140073   -5.6025241 
 9420000    1.1030414 -6.8569227e-06   0.55846094  0.056516714            0   0.50194422    1.6131981     2.171659    1.4695101 
 9425000    1.2096612 4.5107909e-05   0.42378778  0.025878458            0   0.39790932    1.7691295    2.1929173    6.8119672 
 9430000    1.3259462 -3.841031e-05   0.30190917  0.017102519            0   0.28480665    1.9391964    2.2411056   -1.6921102 
 9435000    1.2006474 -5.1706176e-05   0.49739118 0.0051268031            0   0.49226438    1.7559469     2.253338   -3.0413744 
 9440000    1.0589815 -4.8050724e-05   0.69495716  0.060645766            0   0.63431139    1.5487604    2.2437176   -2.6766765 
 9445000    1.2448433 -4.7337349e-05   0.41389452  0.011198235            0   0.40269629    1.8205833    2.2344778   -2.6128667 
 9450000    1.3133761 -9.0664283e-06   0.30330553            0            0   0.30330553    1.9208125    2.2241181    1.2957158 
 9455000    1.2132369 6.4272516e-05   0.44824058            0            0   0.44824058     1.774359    2.2225996    8.8041052 
 9460000     1.090417 9.192919e-05   0.57433768 8.8503221e-05            0   0.57424917    1.5947348    2.1690725    11.582622 
 9465000    1.1809631 5.2738787e-05   0.40879291 0.0047191135            0    0.4040738    1.7271586    2.1359515    7.5364032 
 9470000    1.1328638 -4.1853907e-05   0.45838361  0.010314558            0   0.44806905    1.6568133    2.1151969   -2.1706431 
 9475000    1.0851523 -3.2949363e-05   0.47727891 0.0057380581            0   0.47154085    1.5870353    2.0643142   -1.3097006 
 9480000     1.148965 5.3760402e-05   0.38933384 0.0079294773            0   0.38140436    1.6803612    2.0696951    7.5747602 
 9485000    1.1171312 -2.6930888e-05   0.40702353  0.013415722            0    0.3936078    1.6338043    2.0408279  -0.71689509 
 9490000    1.0224534 -7.3672887e-05   0.52198069  0.090468203            0   0.43151248    1.4953381    2.0173188   -5.5267848 
 9495000    1.0764391 1.5036845e-05   0.47284753  0.044017277            0   0.42883025    1.5742921    2.0471396    3.5869126 
 9500000    1.0364705 -1.5679921e-05   0.51831901 0.0016038743            0   0.51671514    1.5158381    2.0341571   0.42853324 
 9505000    1.1649624 1.1066095e-05   0.35797747            0            0   0.35797747    1.7037576     2.061735    3.1949032 
 9510000    1.0425555 2.8314121e-05   0.48385194            0            0   0.48385194    1.5247375    2.0085894    4.9079554 
 9515000    1.0503258 5.7783647e-06   0.42921154 0.0055780285            0   0.42363351    1.5361014     1.965313    2.5570175 
 9520000   0.99265535 -3.8795809e-05   0.47611187  0.018405461            0   0.45770641    1.4517585    1.9278703   -2.0448205 
 9525000     1.080906 -6.5524753e-05    0.3774579  0.010045252            0   0.36741265     1.580825    1.9582829   -4.7514518 
 9530000    1.0073037 -1.5214218e-05   0.47193998 0.0055432768            0    0.4663967    1.4731817    1.9451217   0.38718576 
 9535000    1.0144373 7.9472703e-05   0.46153006 0.0097994391            0   0.45173062    1.4836146    1.9451446    10.083149 
 9540000   0.97466097 9.7708774e-05   0.51379075 0.0057131657            0   0.50807758    1.4254417    1.9392324    11.944611 
 9545000     1.039476 -4.228982e-05    0.4264367  0.022582763            0   0.40385394    1.5202337    1.9466704   -2.3838072 
 9550000   0.96388357 -6.1798749e-05   0.48650767  0.034673782            0   0.45183388    1.4096797    1.8961874   -4.4320045 
 9555000    1.0113315 -6.1661917e-05   0.44590154 0.0092665429            0     0.436635    1.4790723    1.9249738   -4.3892065 
 9560000   0.94916385 -0.00010628147   0.53821661  0.082889166            0   0.45532744    1.3881521    1.9263687   -8.9568543 
 9565000    1.0594291 -3.4510588e-05   0.35003435  0.054710146            0    0.2953242     1.549415    1.8994494   -1.6344349 
 9570000    1.0102669 8.3878341e-06   0.40086513 0.0026209881            0   0.39824414    1.4775154    1.8783805    2.7372947 
 9575000    1.0448749 4.8701284e-06   0.38669697  0.069761686            0   0.31693529    1.5281295    1.9148265    2.4135277 
 9580000   0.90968255 -8.6088135e-06   0.60556604   0.13536875            0   0.47019729    1.3304107    1.9359768    1.0544343 
 9585000    1.0571902 -7.799574e-07   0.41765932  0.086606071            0   0.33105325    1.5461407       1.9638    1.8839323 
 9590000   0.96982673 3.1569942e-05   0.54317035  0.063159853            0   0.48001049    1.4183716    1.9615419     5.194304 
 9595000     1.076637 -7.9020367e-06   0.35376847 0.0059833146            0   0.34778515    1.5745816    1.9283501    1.1191815 
 9600000    1.0041034 -1.3220331e-05   0.46849177   0.02751614            0   0.44097563    1.4685012     1.936993   0.58323114 
 9605000   0.99629069 4.411819e-05   0.50924864  0.021793706            0   0.48745493    1.4570751    1.9663238    6.4840264 
 9610000    1.1114214 6.7967581e-05   0.35937315 0.0023784272            0   0.35699472    1.6254539     1.984827    8.9447073 
 9615000    1.0290779 1.6292366e-05   0.49161504  0.019747683            0   0.47186735    1.5050264    1.9966415    3.6649797 
 9620000    1.0954139 2.4700264e-05   0.41205053   0.04555936            0   0.36649117    1.6020428    2.0140933    4.5434003 
 9625000    1.0913323 1.5858985e-05   0.39227027  0.031781737            0   0.36048853    1.5960735    1.9883438    3.6123039 
 9630000    1.1104433 -1.3833913e-05   0.38609903  0.011331727            0    0.3747673    1.6240233    2.0101223    0.5935296 
 9635000    1.1049424 1.9006107e-05   0.42148111  0.025726305            0    0.3957548    1.6159782    2.0374593    3.9836847 
 9640000    1.0910528 0.00010477964   0.46737697  0.068711437            0   0.39866553    1.5956647    2.0630417    12.792477 
 9645000    1.0817782 4.2365454e-06   0.49080903  0.044734308            0   0.44607472    1.5821007    2.0729097    2.5067319 
 9650000    1.1592092 -1.638046e-05   0.34271031  0.035071316            0     0.307639    1.6953435    2.0380538   0.36069468 
 9655000    1.0866333 2.5319301e-05   0.43817798  0.062283785            0   0.37589419    1.5892013    2.0273792    4.6200756 
 9660000    1.0084177 -3.5780426e-05   0.54905484   0.12508219            0   0.42397265    1.4748108    2.0238657   -1.6400499 
 9665000    1.0383326 3.3309718e-05   0.52226262 0.0055434147            0    0.5167192    1.5185614     2.040824    5.4517391 
 9670000    1.1128021 9.8716584e-05   0.41934998  0.021362777            0    0.3979872     1.627473     2.046823    12.155401 
 9675000    1.1212563 7.8084917e-05   0.43217387  0.050541784            0   0.38163209    1.6398374    2.0720113    10.067907 
 9680000    1.1444902 -6.3371179e-06   0.38538267  0.042949568            0    0.3424331    1.6738169    2.0591995    1.4102787 
 9685000    1.1130449 5.1290236e-05   0.43905474  0.020476317            0   0.41857842    1.6278281    2.0668829     7.319003 
 9690000     1.058722 -1.8931029e-05    0.5260919 0.0038503708            0   0.52224153    1.5483809    2.0744728   0.13593545 
 9695000    1.1270306 -6.4049293e-05   0.47009136  0.001541984            0   0.46854937    1.6482823    2.1183737    -4.440274 
 9700000    1.1607238 -7.0140539e-05    0.3995436  0.008109026            0   0.39143457    1.6975586    2.0971022   -5.0852889 
 9705000    1.1635576 -9.8541409e-06   0.42728973  0.040248247            0   0.38704148    1.7017029    2.1289927    1.1199286 
 9710000    1.1174716 9.4559818e-05   0.49778973   0.04903294            0   0.44875679    1.6343023     2.132092    11.815017 
 9715000    1.0256343 -2.8115218e-05   0.66636649  0.088539813            0   0.57782668    1.4999902    2.1663567  -0.71264161 
 9720000    1.1336858 -3.5748215e-05   0.51375584  0.057242895            0   0.45651295    1.6580155    2.1717713   -1.4888459 
 9725000    1.1516767 4.8663751e-05   0.49426643  0.023565622            0   0.47070081    1.6843272    2.1785936    7.1617618 
 9730000    1.1459915 4.1812733e-05   0.52680555   0.12899421            0   0.39781135    1.6760126    2.2028181     6.484442 
 9735000    1.1511829 8.2219467e-05   0.52144675  0.065505139            0   0.45594161     1.683605    2.2050518    10.624325 
 9740000    1.1357053 0.00013084994   0.52232117 0.0091961473            0   0.51312502     1.660969    2.1832902    15.582324 
 9745000    1.1492329 9.3779113e-05   0.46587484  0.011439868            0   0.45443497    1.6807531    2.1466279    11.749609 
 9750000     1.176834 -1.6880532e-05   0.42158021 0.0028228669            0   0.41875734    1.7211197    2.1426999   0.41413341 
 9755000    1.1741104 -0.00010612781    0.4069055 0.00015204534            0   0.40675345    1.7171365     2.124042   -8.7434459 
 9760000    1.0761695 2.0265348e-05    0.5277069   0.01408524            0   0.51362166    1.5738979    2.1016048    4.1767764 
 9765000    1.1420382 5.8550863e-05    0.3866368  0.046516601            0    0.3401202    1.6702309    2.0568677    8.0524761 
 9770000   0.97795879 -4.0932262e-05   0.60695263   0.15503837            0   0.45191426    1.4302647    2.0372174   -2.1542462 
 9775000    1.0761849 3.8048009e-05   0.48337052 0.0026586289            0   0.48071189    1.5739204     2.057291    5.9534071 
 9780000     1.134538 -3.7036084e-05    0.3945551            0            0    0.3945551    1.6592618    2.0538169   -1.7386781 
 9785000    1.1511673 -6.2010324e-05   0.36534779 0.00038130157            0   0.36496648    1.6835822      2.04893   -4.3009273 
 9790000    1.0664544 -5.3562963e-05   0.48423954 0.0032741457            0   0.48096539    1.5596895     2.043929   -3.4409184 
 9795000    1.1148294 3.9396051e-05   0.42881611 0.0059299993            0   0.42288611     1.630438    2.0592541    6.0934097 
 9800000    1.0527465 -1.4245926e-06   0.45882966 0.0041708067            0   0.45465886    1.5396418    1.9984714    1.8525932 
 9805000    1.0747593 -3.4275254e-05   0.46406221  0.014596613            0   0.44946559    1.5718355    2.0358977   -1.4738883 
 9810000    1.0895716 -3.7008218e-05   0.48087057   0.10532138            0    0.3755492    1.5934985     2.074369   -1.7152725 
 9815000    1.0932485 4.4135199e-06   0.48612559  0.033531822            0   0.45259377    1.5988759    2.0850015    2.5369459 
 9820000    1.1258728 -3.9669552e-05   0.49078945  0.016585375            0   0.47420408     1.646589    2.1373785   -1.9247836 
 9825000    1.1666794 1.2219536e-05   0.43553703 0.0019974729            0   0.43353956    1.7062686    2.1418056    3.3930861 
 9830000    1.0921988 -4.4033453e-05   0.54359494  0.007268155            0   0.53632679    1.5973407    2.1409357   -2.3680899 
 9835000    1.1438955 -4.2024481e-05   0.47492185  0.012300022            0   0.46262183    1.6729472    2.1478691   -2.1554378 
 9840000    1.0980041 2.8115618e-05   0.50004555 0.0020760926            0   0.49796945    1.6058309    2.1058765    4.9849158 
 9845000    1.0987099 7.6019845e-05    0.4941977            0            0    0.4941977    1.6068632    2.1010609    9.8854931 
 9850000    1.1668637 6.7987059e-05   0.34821941            0            0   0.34821941    1.7065381    2.0547575    9.0166324 
 9855000    1.1864368 -1.1067407e-05   0.36928193 0.00021088841            0   0.36907104    1.7351638    2.1044458   0.97114331 
 9860000    1.1670388 -4.4627264e-05   0.38025161 0.0011148083            0    0.3791368    1.7067942    2.0870459    -2.482786 
 9865000    1.1655808 2.1981986e-05   0.40130303 0.0026809436            0   0.39862208    1.7046619    2.1059649    4.3569204 
 9870000    1.1194626 1.0582995e-05   0.42711046 0.0044947338            0   0.42261572    1.6372141    2.0643245    3.1480232 
 9875000    1.1311829 -4.9782964e-05   0.43595559  0.013196634            0   0.42275895     1.654355    2.0903106   -3.0074649 
 9880000    1.1218773 -3.8404702e-05   0.40449392  0.049768499            0   0.35472542    1.6407455    2.0452394   -1.8874021 
 9885000    0.9848277 3.4657674e-05   0.57609387   0.08709384            0   0.48900003    1.4403105    2.0164044    5.5653502 
 9890000    1.0473809 6.2840736e-05    0.5005815  0.039078246            0   0.46150325    1.5317945     2.032376    8.4672674 
 9895000    1.1549694 2.8805115e-05   0.33869349 1.7827193e-05            0   0.33867567    1.6891427    2.0278362      4.97748 
 9900000    1.0285739 4.2459281e-05   0.56896212 0.0017905793            0   0.56717154    1.5042893    2.0732514    6.4210818 
 9905000    1.0012966 3.1228025e-05   0.55639284   0.01325492            0   0.54313792    1.4643963    2.0207892    5.2185389 
 9910000    1.0848309 2.7990631e-05   0.44236824  0.024651908            0   0.41771633    1.5865653    2.0289335    4.8951741 
 9915000    1.0202507 8.2825042e-05    0.5222188  0.025355969            0   0.49686283    1.4921167    2.0143355     10.49562 
 9920000    1.0469814 5.4758464e-05   0.46176455  0.013566741            0   0.44819781    1.5312103    1.9929748    7.6002415 
 9925000    1.0927032 1.1643768e-05   0.36985248 0.0058596401            0   0.36399284    1.5980784    1.9679308    3.1602527 
 9930000    1.0825623 1.8493908e-05   0.41547159  0.022426866            0   0.39304473    1.5832474     1.998719    3.8924952 
 9935000    1.0220297 1.2422258e-05   0.52062205  0.093530061            0   0.42709199    1.4947184    2.0153405    3.2873797 
 9940000    1.0087178 1.870418e-05   0.54288021  0.047970994            0   0.49490922    1.4752498      2.01813    3.9334381 
 9945000    1.0218013 6.8974056e-05   0.52133409  0.086442749            0   0.43489134    1.4943844    2.0157185    9.0786618 
 9950000    1.0654035 2.6756917e-05   0.43301345  0.063284534            0   0.36972892    1.5581526     1.991166    4.7310744 
 9955000    1.0146765 -4.1432229e-05   0.47869022  0.021974459            0   0.45671576    1.4839644    1.9626546   -2.2800056 
 9960000    1.0541437 1.1227751e-06   0.41883166   0.01833485            0   0.40049681    1.5416851    1.9605168    2.0754889 
 9965000    1.0983007 5.9319517e-05    0.3410573  0.039152338            0   0.30190496    1.6062648    1.9473221    8.0216406 
 9970000    1.0316188 5.4266153e-05    0.4677584  0.042415035            0   0.42534336    1.5087425    1.9765009     7.533355 
 9975000    1.0169542 1.0175024e-05   0.44939738  0.033807133            0   0.41559025    1.4872955    1.9366928    2.9786153 
 9980000    1.0273138 -2.5557077e-05   0.37708469 0.0092165484            0   0.36786814    1.5024465    1.8795312  -0.73751347 
 9985000     0.928109 -6.5886136e-05   0.50843928 0.0022064191            0   0.50623286    1.3573594    1.8657987   -4.8809417 
 9990000   0.97591869 -3.0705297e-05   0.45103146  0.040011496            0   0.41101996    1.4272811    1.8783125   -1.2659098 
 9995000   0.97850916 2.043524e-05   0.46948962  0.043201965            0   0.42628766    1.4310696    1.9005593    3.9931278 
10000000    1.0036208 1.7338201e-05    0.4359511  0.053687509            0    0.3822636    1.4677954    1.9037465    3.6791783 
10005000   0.98131091 2.4625877e-05   0.48295793  0.018921764            0   0.46403617    1.4351672    1.9181251    4.4398149 
10010000   0.96288445 6.4540289e-05   0.49558087  0.027408021            0   0.46817285    1.4082185    1.9037994     8.512725 
10015000   0.92609204 3.8843902e-05     0.521669  0.080767981            0   0.44090102    1.3544096    1.8760786    5.8536942 
10020000   0.99954607 -4.6300678e-05   0.43951822 0.0046192734            0   0.43489895    1.4618361    1.9013543   -2.8398351 
10025000    1.1499251 -3.3936243e-05   0.19851385 0.0023853736            0   0.19612848    1.6817655    1.8802794    -1.594792 
10030000   0.96561299 7.026214e-05   0.41538928 0.0014709935            0   0.41391829     1.412209    1.8275983    9.0224414 
10035000   0.95983489 2.8017547e-05   0.38901694 0.00095875886            0   0.38805818    1.4037585    1.7927755    4.6617723 
10040000   0.98856966 -5.2575218e-05   0.37362736  0.024474945            0   0.34915242    1.4457831    1.8194105   -3.5642918 
10045000   0.92699573 3.3556636e-05    0.4856894   0.07343323            0   0.41225617    1.3557313    1.8414207    5.2776202 
10050000     1.005144 2.7921993e-05    0.4247622  0.042743735            0   0.38201846    1.4700232    1.8947854    4.7539975 
10055000    1.0056576 -4.6325064e-05   0.43391403  0.022267729            0    0.4116463    1.4707743    1.9046883   -2.8389982 
10060000   0.96675099 -4.4859251e-05   0.49551287 0.0013007417            0   0.49421213    1.4138733    1.9093862   -2.6842012 
10065000   0.93078863 -2.6992828e-05   0.54000015 0.0018084338            0   0.53819171    1.3612784    1.9012785  -0.86278709 
10070000   0.97074471  9.14722e-06   0.49858014 0.0059718516            0   0.49260828    1.4197141    1.9182943    2.8549696 
10075000   0.98905258 1.4178169e-05   0.46293387  0.047074026            0   0.41585984    1.4464894    1.9094233    3.3612677 
10080000   0.94423213 1.4834108e-05   0.53585565   0.02973726            0   0.50611839    1.3809395    1.9167951    3.4358078 
10085000   0.93385818 -1.4882002e-05   0.52360925 0.00073499746            0   0.52287425    1.3657676    1.8893768   0.36545985 
10090000   0.97650628 -7.6370127e-05   0.46014786            0            0   0.46014786    1.4281404    1.8882883   -5.9320127 
10095000    1.0340213 -4.9080932e-05   0.39301639 8.7828025e-05            0   0.39292856    1.5122562    1.9052726   -3.1206149 
10100000    1.0346875 5.8906637e-05   0.38630613  0.013849465            0   0.37245666    1.5132304    1.8995366    7.9315762 
10105000   0.95077599 -1.4870818e-05   0.50303896  0.034065235            0   0.46897373    1.3905099    1.8935488   0.37077704 
10110000    1.0413316 -2.1805137e-05   0.42408657  0.029640027            0   0.39444654    1.5229475     1.947034  -0.28581196 
10115000   0.98172149 -2.7175033e-06   0.55024797  0.037168734            0   0.51307923    1.4357677    1.9860156    1.7077433 
10120000   0.99417491 -2.5934703e-05   0.53861623 0.0075638697            0   0.53105236    1.4539808     1.992597   -0.6631166 
10125000    1.1017856 2.8306651e-05     0.353736            0            0     0.353736    1.6113614    1.9650974    4.8636985 
10130000    1.0454377 -3.4900287e-06   0.42469942  0.032049387            0   0.39265003    1.5289526     1.953652    1.5962731 
10135000   0.95578373 -3.1018467e-05   0.55015595  0.041716922            0   0.50843903    1.3978337    1.9479897   -1.2283014 
10140000   0.94148744 2.1949423e-05   0.59497033 0.0022515029            0   0.59271883    1.3769254    1.9718957    4.2195166 
10145000    1.0303121 4.4353232e-05   0.46973728 0.0037591318            0   0.46597814    1.5068314    1.9765687    6.5183397 
10150000   0.94392995 2.1243712e-05   0.60579041  0.026080162            0   0.57971025    1.3804975     1.986288    4.1616441 
10155000    1.0410381 3.0177645e-05   0.45560146  0.043800989            0   0.41180047    1.5225183    1.9781197    5.0683106 
10160000    1.0051308 -1.0109152e-05   0.53786449  0.031541928            0   0.50632256    1.4700038    2.0078683    0.9726911 
10165000    1.0087247 -1.9213811e-05   0.57814881   0.04016077            0   0.53798804    1.4752598    2.0534086  0.085914399 
10170000     1.121757 -2.4719783e-05   0.44146184  0.020903268            0   0.42055857    1.6405696    2.0820314   -0.4492743 
10175000   0.92441932 -4.1450171e-05   0.72670731 0.0048313217            0   0.72187599    1.3519633    2.0786706    -2.165827 
10180000    1.1541093 -4.4838535e-05    0.4087955 0.0047405753            0   0.40405492    1.6878848    2.0966803   -2.4947857 
10185000    1.0290908 -6.8268033e-05    0.5686163 0.0014428948            0   0.56717341    1.5050453    2.0736616    -4.916985 
10190000     1.012418 -8.6522306e-06   0.64969096 0.0013096333            0   0.64838132    1.4806613    2.1303523    1.2443638 
10195000    1.0959242 3.9239333e-05      0.56511 0.0035999022            0    0.5615101    1.6027891    2.1678991    6.1860068 
10200000    1.0490358 -1.0658833e-05   0.61162947  0.019435248            0   0.59219422    1.5342149    2.1458443    1.0543798 
10205000   0.97032415 -8.6798272e-06   0.69553077  0.011867422            0   0.68366335    1.4190991    2.1146298    1.2258155 
10210000    1.1564075 3.5344061e-05   0.43945588 0.0064862994            0   0.43296959     1.691246    2.1307019    5.7499337 
10215000    1.0672164 1.9143032e-05   0.57873337  0.059449268            0    0.5192841     1.560804    2.1395374    4.0997839 
10220000    1.1038341 -4.897914e-05   0.52745458  0.091891707            0   0.43556287    1.6143574     2.141812   -2.8736519 
10225000    1.0598999 -3.6411166e-05   0.59272581  0.064490077            0   0.52823574    1.5501036    2.1428294    -1.585674 
10230000    1.1545959 7.1571193e-06   0.50200222   0.03950631            0   0.46249591    1.6885965    2.1905987    2.9234877 
10235000     1.121973 2.5187746e-05   0.55273669 0.0044884056            0   0.54824828    1.6408856    2.1936222    4.7728474 
10240000     1.164865 -1.6321272e-06   0.46269365   0.02028084            0   0.44241281     1.703615    2.1663087    1.9991789 
10245000    1.1079435 -2.7247504e-05   0.57163339   0.02820223            0   0.54343116    1.6203674    2.1920008  -0.59814358 
10250000    1.0162085 -8.0800701e-06   0.75807571 0.0034270456            0   0.75464867    1.4862049    2.2442806    1.4168815 
10255000    1.0773325 -3.327454e-05   0.61244688  0.010468243            0   0.60197864    1.5755987    2.1880456   -1.2192673 
10260000    1.1223737 2.6248157e-05   0.52527708  0.074863731            0   0.45041334    1.6414715    2.1667486    4.8545598 
10265000    1.0905487 -1.2677683e-05   0.54263874  0.023523234            0   0.51911551    1.5949274    2.1375662   0.83937146 
10270000    1.2344677 -6.7197208e-05   0.34695762            0            0   0.34695762     1.805409    2.1523666   -4.7286275 
10275000    1.1114552 3.333281e-05   0.56524216            0            0   0.56524216    1.6255032    2.1907454    5.6040251 
10280000    1.2279805 5.2752592e-05   0.39946896  0.012179191            0   0.38728977    1.7959215    2.1953905     7.597256 
10285000    1.0791442 -3.5295691e-05   0.59879649  0.039173311            0   0.55962318    1.5782484    2.1770449   -1.4372338 
10290000   0.99578981 3.1495096e-05      0.72003  0.069637112            0   0.65039289    1.4563426    2.1763726    5.4014705 
10295000     1.228204 4.0386586e-05   0.37928208 0.0064459823            0    0.3728361    1.7962484    2.1755304    6.3111168 
10300000    1.1372538 -1.4953095e-05   0.52308566            0            0   0.52308566    1.6632336    2.1863193   0.65512234 
10305000    1.1534018 -1.7023732e-05   0.51128202            0            0   0.51128202    1.6868501    2.1981321   0.45490196 
10310000    1.1139013 -1.4525639e-05   0.58904828            0            0   0.58904828    1.6290806    2.2181289   0.73070342 
10315000    1.1197583 -7.792093e-06    0.6088283            0            0    0.6088283    1.6376465    2.2464748    1.4485645 
10320000    1.1525561 -1.2879126e-05   0.59828161 0.0051341313            0   0.59314748    1.6856133    2.2838949   0.96507246 
10325000    1.0435387 -4.3779759e-05    0.7540529  0.025777357            0   0.72827555    1.5261754    2.2802283    -2.202819 
10330000    1.0520375 -6.561494e-05    0.7650801  0.079225558            0   0.68585454    1.5386049     2.303685   -4.4152849 
10335000    1.2198776 -2.4551039e-05   0.50173158  0.033716315            0   0.46801527     1.784071    2.2858026  -0.22822384 
10340000    1.2425136 -4.3240286e-05   0.45309106 0.0014940164            0   0.45159704    1.8171762    2.2702673    -2.157538 
10345000    1.1147097 -5.8009084e-05   0.65438913 3.6176342e-05            0   0.65435295    1.6302629     2.284652   -3.6554782 
10350000    1.0544071 2.7055238e-05   0.69975163 0.0042798089            0   0.69547182    1.5420703     2.241822    5.0122783 
10355000    1.0962525 4.7328638e-05   0.65591451  0.014627005            0   0.64128751    1.6032693    2.2591838    7.1056363 
10360000    1.1979431 -4.0689263e-06   0.55860711  0.026045407            0    0.5325617    1.7519918    2.3105989    1.8939408 
10365000    1.1959637 -1.7999712e-05   0.56222951   0.03193582            0   0.53029369    1.7490969    2.3113264   0.46815598 
10370000    1.2147654 1.320528e-05   0.50977364  0.022125778            0   0.48764786    1.7765944     2.286368    3.6385887 
10375000    1.1408508 -3.4868552e-05   0.57744446  0.017982515            0   0.55946194    1.6684942    2.2459387    -1.324601 
10380000    1.1602028 2.1319404e-06   0.58802735   0.01028381            0   0.57774354    1.6967966     2.284824    2.5031347 
10385000    1.2582164 -2.6444253e-05    0.4534741  0.010494486            0   0.44297962    1.8401415    2.2936156  -0.41427598 
10390000    1.1917976 6.0651492e-05    0.5501083  0.050344491            0   0.49976381    1.7430041    2.2931124    8.5038252 
10395000    1.1469514 6.7803029e-05   0.58324409  0.035260907            0   0.54798318    1.6774164    2.2606605    9.2036907 
10400000    1.1837951 -5.8625144e-05   0.53033892  0.025831702            0   0.50450722    1.7313004    2.2616393   -3.7415755 
10405000    1.1611201 -1.0561513e-06   0.54011527  0.041802476            0   0.49831279    1.6981381    2.2382534    2.1301035 
10410000    1.2883074 2.1466872e-05   0.39269395  0.021102193            0   0.37159176    1.8841496    2.2768436    4.4750513 
10415000    1.2138926 2.5319547e-05   0.54011194 0.0060312822            0   0.53408066    1.7753179    2.3154298    4.9081514 
10420000    1.2031365 2.0269225e-05   0.59550251 2.1657323e-05            0   0.59548086    1.7595871    2.3550896    4.4306582 
10425000    1.2184487 -3.3134166e-05   0.58402039            0            0   0.58402039    1.7819812    2.3660016    -1.026937 
10430000    1.1620757 3.8452615e-05    0.6791501  0.002981556            0   0.67616855    1.6995356    2.3786857    6.3162335 
10435000    1.1215218 1.081805e-05   0.72179662  0.020404769            0   0.70139185    1.6402256    2.3620222    3.4697905 
10440000    1.2118278 -2.4834809e-05   0.60246372  0.020418852            0   0.58204486    1.7722981    2.3747618   -0.1683226 
10445000    1.3328662 -7.2208004e-05   0.44991069 0.0037789197            0   0.44613177    1.9493168    2.3992275   -4.9948721 
10450000    1.3112013 -8.222934e-05   0.48906214 0.00028836583            0   0.48877378     1.917632    2.4066941   -6.0135903 
10455000    1.1779378 -6.9783006e-05   0.73668087 4.2168944e-05            0    0.7366387    1.7227341    2.4594149   -4.6863649 
10460000    1.2582823 -7.7581609e-05    0.6067253            0            0    0.6067253    1.8402378    2.4469631   -5.4973936 
10465000    1.2932832 -5.8512936e-05   0.57807147            0            0   0.57807147    1.8914266    2.4694981   -3.5222265 
10470000    1.3281001 1.5507437e-05   0.54230228            0            0   0.54230228    1.9423465    2.4846487    4.0726103 
10475000     1.343198 4.3584777e-05   0.50749528            0            0   0.50749528    1.9644271    2.4719224    6.9350035 
10480000    1.2643692 4.5266143e-05   0.59812987 0.00077202316            0   0.59735785      1.84914    2.4472699    7.0825229 
10485000    1.3286543 4.7637614e-05   0.54072528  0.040950779            0    0.4997745     1.943157    2.4838822    7.3619739 
10490000    1.3206752 3.7617186e-05   0.54776452   0.10681525            0   0.44094927    1.9314875    2.4792521    6.3312519 
10495000    1.2711287 -4.3223596e-06   0.57429642 0.0063691583            0   0.56792726    1.8590257    2.4333221    1.9907124 
10500000    1.2569841 -1.5864798e-05   0.61089586            0            0   0.61089586    1.8383392    2.4492351   0.82467972 
10505000    1.3403991 -2.9733442e-05   0.51782925            0            0   0.51782925    1.9603337    2.4781629  -0.56654152 
10510000    1.4013987 3.1352246e-05   0.44122966  0.006838953            0   0.43439071    2.0495456    2.4907753    5.7012452 
10515000    1.2475159 1.837659e-05   0.64140203  0.055481787            0   0.58592025     1.824492    2.4658941    4.3476569 
10520000    1.1691142 -5.760483e-05   0.75535592  0.075252992            0   0.68010293    1.7098295    2.4651855   -3.4335491 
10525000    1.2781187 1.3330261e-05   0.62086541  0.023793545            0   0.59707186    1.8692486     2.490114    3.8551328 
10530000    1.3166538 -3.6149287e-05    0.5596743  0.020482321            0   0.53919198    1.9256062    2.4852805   -1.2164065 
10535000    1.3140253 6.2876902e-06    0.5382476  0.029176069            0   0.50907153     1.921762    2.4600096    3.1038691 
10540000    1.3310507 9.9305395e-05   0.47796463  0.093161993            0   0.38480264    1.9466617    2.4246263    12.593499 
10545000    1.1992665 -2.4766177e-06    0.6383285  0.060313168            0   0.57801533    1.7539273    2.3922558    2.1386501 
10550000    1.1018741 1.5139971e-05   0.76458148  0.014844016            0   0.74973746    1.6114909    2.3760724    3.9264054 
10555000    1.2843524 6.5225038e-05   0.47027325  0.049840432            0   0.42043281    1.8783653    2.3486386    9.0276824 
10560000    1.1243491 1.5074835e-05   0.68770604  0.023973939            0    0.6637321    1.6443606    2.3320666    3.8757297 
10565000    1.1101267 -1.6077885e-06   0.66558352 0.0018903277            0   0.66369319    1.6235604    2.2891439    2.1245063 
10570000    1.3188051 -5.0534707e-05   0.34796635 0.00046485078            0    0.3475015    1.9287524    2.2767188   -2.8980352 
10575000    1.1396939 -8.8122285e-05   0.63249544 0.0030619302            0   0.62943351    1.6668023    2.2992978   -6.7244242 
10580000     1.033489 -2.8792566e-05   0.73093774  0.042348526            0   0.68858921    1.5114777    2.2424154   -0.7059433 
10585000    1.0837995 2.0545667e-05   0.69968616  0.032403362            0    0.6672828    1.5850568    2.2847429    4.3886193 
10590000    1.1643914 -2.6133333e-05   0.54850994  0.075014419            0   0.47349552    1.7029224    2.2514324  -0.42462096 
10595000     1.235823 -3.9684221e-05   0.48091727     0.043098            0   0.43781927    1.8073911    2.2883083   -1.7753558 
10600000    1.1543375 6.945651e-06   0.60746505 0.0019001745            0   0.60556488    1.6882186    2.2956836    3.0069183 
10605000    1.0796071 1.085256e-05   0.69996967  0.028285507            0   0.67168416    1.5789254    2.2788951    3.3901972 
10610000    1.1016838 -1.1128339e-05   0.65352443  0.062695613            0   0.59082882    1.6112125    2.2647369     1.125195 
10615000     1.196273 2.5698479e-05   0.47863822   0.02229597            0   0.45634225    1.7495493    2.2281875    4.8597117 
10620000    1.1746988 2.8063219e-05   0.50764752  0.013845552            0   0.49380197    1.7179971    2.2256446    5.0993182 
10625000    1.1852767 1.6048711e-05   0.46620337  0.044092048            0   0.42211132    1.7334672    2.1996706    3.8430586 
10630000    1.1471675 -7.0118321e-06   0.57250046  0.031208074            0   0.54129239    1.6777325    2.2502329    1.5322213 
10635000    1.1001982 2.3761866e-05   0.66397226   0.07343578            0   0.59053648    1.6090399    2.2730122    4.7062273 
10640000    1.2222369 3.9275686e-05   0.45464888  0.039875216            0   0.41477366    1.7875215    2.2421704    6.2640006 
10645000    1.0858714 4.9330486e-06   0.61647654  0.016344602            0   0.60013194    1.5880869    2.2045634    2.7097076 
10650000    1.1497502 -6.1220274e-07   0.55469706  0.023635777            0   0.53106128    1.6815096    2.2362067    2.1735171 
10655000    1.1933649 3.5918234e-05   0.51754637   0.02298511            0   0.49456126    1.7452962    2.2628426    5.9408697 
10660000    1.0985245 2.109278e-05   0.65802049  0.079068313            0   0.57895218    1.6065921    2.2646126    4.4245133 
10665000     1.161694 1.9413359e-05   0.60091015  0.041538046            0    0.5593721    1.6989775    2.2998876    4.2878156 
10670000     1.105288 6.4297744e-05     0.687581  0.017223789            0   0.67035722    1.6164837    2.3040647    8.8881537 
10675000    1.2456131 5.5399024e-05   0.50809511  0.030452145            0   0.47764297    1.8217091    2.3298042    8.0026643 
10680000    1.2588902 4.1110459e-05   0.49604065  0.053792221            0   0.44224843    1.8411269    2.3371676    6.5468785 
10685000    1.2505431 4.9964236e-05   0.52076173  0.031321669            0   0.48944006    1.8289193    2.3496811    7.4660188 
10690000    1.2207433 -5.1642707e-05   0.54114593 0.0061430026            0   0.53500293     1.785337     2.326483   -2.9617303 
10695000    1.1217064 -0.00014834685   0.72206728 0.0015751001            0   0.72049218    1.6404956    2.3625629   -12.828155 
10700000    1.2980321 5.7074972e-06   0.52095912  0.015767561            0   0.50519156     1.898372    2.4193311    3.0037788 
10705000    1.1729541 5.8480707e-05   0.66827436  0.060487894            0   0.60778647    1.7154453    2.3837197    8.3721441 
10710000    1.2458476 8.320301e-06   0.60026087  0.048992601            0   0.55126826    1.8220521    2.4223129    3.2743118 
10715000    1.1955886 -8.5140578e-05   0.68928689   0.03399835            0   0.65528854    1.7485484    2.4378353   -6.2805599 
10720000    1.2087634 -3.0639771e-05   0.64575753 0.00075521809            0   0.64500231    1.7678165     2.413574  -0.72393855 
10725000     1.276696 -3.4363025e-05   0.57500551            0            0   0.57500551    1.8671678    2.4421733   -1.0766004 
10730000     1.350557 -4.0590048e-05   0.50505014  0.024613473            0   0.48043667    1.9751896    2.4802397   -1.6761812 
10735000    1.2868079 1.5355566e-05   0.62494837  0.046516843            0   0.57843152    1.8819565    2.5069049    4.0793148 
10740000     1.237322 -4.6802225e-06   0.70225405  0.041070644            0    0.6611834    1.8095834    2.5118375    2.0325827 
10745000    1.4286791 -2.4719602e-05   0.49799214   0.02566948            0   0.47232266    2.0894431    2.5874353  0.056148062 
10750000    1.3760006 -0.00010093986   0.59015723  0.016564088            0   0.57359314    2.0124009    2.6025581   -7.7336837 
10755000    1.3227795 -0.00013276481   0.69036082 0.0032728854            0   0.68708794    1.9345651    2.6249259    -10.97019 
10760000     1.464619 -5.4526444e-05   0.49191553            0            0   0.49191553    2.1420053    2.6339208   -2.9495871 
10765000    1.3583178 -2.8718055e-05   0.59396077 0.0011052621            0   0.59285551    1.9865397    2.5805005  -0.36022833 
10770000    1.4106537 -4.8813977e-05   0.51810801  0.003448151            0   0.51465986    2.0630811    2.5811891   -2.4173622 
10775000    1.2721612 -2.419227e-05   0.71731254  0.083829678            0   0.63348286    1.8605358    2.5778483   0.10055988 
10780000    1.4017898 2.8779812e-05   0.60122121  0.044042214            0     0.557179    2.0501176    2.6513388    5.5983916 
10785000    1.3871239 1.7219745e-05   0.60827257   0.04208835            0   0.56618422    2.0286688    2.6369413    4.4002432 
10790000    1.3483972 -3.6404401e-05   0.71075902   0.14952116            0   0.56123786    1.9720309    2.6827899   -1.0450207 
10795000    1.3845104 -4.2418627e-06    0.6298781  0.052361467            0   0.57751663    2.0248464    2.6547245    2.2203578 
10800000    1.3857196 4.7474265e-05   0.59864966  0.038301506            0   0.56034815    2.0266149    2.6252646    7.4866293 
10805000    1.2816999 2.9433473e-05   0.76024356  0.062783867            0   0.69745969    1.8744861    2.6347296    5.6487173 
10810000    1.4451734 3.8397645e-05   0.53729863  0.047197051            0   0.49010158    2.1135661    2.6508648    6.5827836 
10815000    1.4383149 3.8207045e-05   0.55782941   0.11401368            0   0.44381573    2.1035356     2.661365    6.5737664 
10820000    1.3474036 -6.8053147e-05   0.65180602  0.036348611            0   0.61545741    1.9705778    2.6223838   -4.3462584 
10825000    1.4141261 -6.8816916e-05   0.53864495  0.015213664            0   0.52343129    2.0681594    2.6068043   -4.4400479 
10830000    1.3718021 -7.5001246e-06   0.62348098  0.049053645            0   0.57442733    2.0062606    2.6297415    1.8617288 
10835000    1.3962793 4.8429098e-05   0.57993523  0.030925882            0   0.54900935    2.0420585    2.6219937    7.5811333 
10840000    1.4435236 -7.2189742e-05    0.5181289  0.060760017            0   0.45736889    2.1111532    2.6292821   -4.7629474 
10845000     1.222694 -0.00012951714   0.88558408   0.16034318            0   0.72524089      1.78819    2.6737741   -10.588781 
10850000    1.3251856 -2.4933879e-05   0.77196066   0.13130419            0   0.64065647    1.9380839    2.7100446   0.15681543 
10855000    1.4731324 -4.5694525e-05   0.53147454  0.015548101            0   0.51592644    2.1544561    2.6859306   -1.9931888 
10860000    1.2893505 9.976169e-06   0.74901334 0.00046535999            0   0.74854798     1.885675    2.6346884    3.6562481 
10865000    1.3884255 7.4951817e-05   0.58155163            0            0   0.58155163    2.0305724     2.612124     10.28719 
10870000    1.3744863 5.4663297e-05   0.59477035  0.070633331            0   0.52413702    2.0101862    2.6049566    8.2024782 
10875000    1.2935702 1.0317206e-05   0.73421104  0.052498346            0   0.68171269    1.8918464    2.6260575    3.6825393 
10880000    1.2933477 -2.731416e-05   0.73380146  0.016298973            0   0.71750249     1.891521    2.6253224  -0.17164756 
10885000    1.4036335 -5.7836711e-05   0.52293728  0.041874206            0   0.48106307    2.0528141    2.5757513   -3.3467279 
10890000    1.2603919 -1.5606833e-05    0.7039253  0.058897314            0   0.64502799    1.8433231    2.5472485   0.94910873 
10895000    1.2561749 4.1916514e-05   0.72154296   0.04959059            0   0.67195237    1.8371558    2.5586988    6.8509498 
10900000    1.2075344 2.8385305e-06   0.75488341  0.095834594            0   0.65904882     1.766019    2.5209024    2.8115679 
10905000    1.4052692 -4.3627658e-05   0.50943557  0.029353949            0   0.48008162    2.0552061    2.5646417   -1.9028305 
10910000    1.3481325 -5.3650058e-05   0.60398091  0.023255059            0   0.58072585    1.9716438    2.5756247   -2.9181413 
10915000    1.3850246 -3.9004222e-05   0.55718776  0.011396073            0   0.54579168    2.0255985    2.5827863   -1.4112461 
10920000    1.3885306 1.6463323e-06   0.56503961 0.00028231759            0   0.56475729     2.030726    2.5957656      2.76435 
10925000    1.3999844 3.9131498e-05    0.5254801 0.00022768367            0   0.52525241    2.0474771    2.5729572    6.5800226 
10930000    1.3259797 -3.9847075e-05   0.61022545 0.0091516895            0   0.60107376    1.9392453    2.5494708   -1.5308697 
10935000    1.2114918 -0.00011218223   0.79162601  0.010645937            0   0.78098008    1.7718068    2.5634328   -8.9240274 
10940000    1.3310502 6.9952542e-06   0.61951998 0.0043921832            0    0.6151278    1.9466609    2.5661808    3.2824949 
10945000    1.3438465 -2.7206168e-06   0.58835833            0            0   0.58835833    1.9653756    2.5537339    2.2751427 
10950000     1.380266 -8.5838463e-05   0.52741156            0            0   0.52741156    2.0186391    2.5460506    -6.243808 
10955000    1.2765993 -3.6639381e-05   0.66281949   0.04008073            0   0.62273876    1.8670265     2.529846   -1.2220266 
10960000    1.3347574 2.3974954e-05     0.560124  0.033884076            0   0.52623993    1.9520827    2.5122067     4.967242 
10965000    1.2040862 7.7157931e-05   0.74863368  0.038057815            0   0.71057587    1.7609761    2.5096098    10.410582 
10970000     1.341984 2.1899301e-05    0.5847909  0.017714288            0   0.56707661    1.9626515    2.5474424    4.7899308 
10975000    1.2095868 -6.4923553e-05   0.74594768  0.038779497            0   0.70716818    1.7690207    2.5149684   -4.1332034 
10980000    1.3412465 -4.5329552e-06   0.55611772  0.010758256            0   0.54535947     1.961573    2.5176907    2.0535161 
10985000    1.2709679 -3.8019153e-06   0.61600629 0.0010486739            0   0.61495762    1.8587905    2.4747968    2.0854807 
10990000    1.2103282 -1.931968e-05   0.65786811 0.00026748089            0   0.65760063     1.770105    2.4279731   0.44963787 
10995000    1.2459423 1.9816162e-05   0.56863685  0.010947537            0   0.55768931    1.8221906    2.3908274    4.4200024 
11000000    1.1226794 8.7721105e-05   0.76471101  0.042361201            0   0.72234981    1.6419187    2.4066297    11.389271 
11005000    1.0668744 -8.2068583e-06   0.80228641  0.027841292            0   0.77444512    1.5603038    2.3625902    1.5222079 
11010000    1.2142379 -3.2520775e-05   0.56758444 0.0087046156            0   0.55887982    1.7758229    2.3434073  -0.98672006 
11015000    1.1941425 7.4177494e-06   0.58727645  0.041463251            0    0.5458132    1.7464334    2.3337098    3.0932874 
11020000     1.034355 1.4676646e-05   0.84108606  0.042914874            0   0.79817119    1.5127442    2.3538302    3.8567188 
11025000    1.3315737 1.2939519e-05   0.42678883 0.0052311891            0   0.42155764    1.9474265    2.3742154    3.6992221 
11030000    1.0427323 -3.4075708e-05   0.81674277 0.0042024377            0   0.81254033     1.524996    2.3417387   -1.1476138 
11035000    1.0653951 -2.717735e-05   0.75309423 0.0020950481            0   0.75099918    1.5581403    2.3112346  -0.47172604 
11040000    1.2071509 7.3347164e-05   0.51140566  0.017457199            0   0.49394847    1.7654582    2.2768639    9.7876135 
11045000    1.1593081 1.2394977e-05   0.64180417  0.039366408            0   0.60243776    1.6954881    2.3372923    3.6065379 
11050000    1.2697729 -8.8687217e-06   0.46490759  0.024066726            0   0.44084086    1.8570429    2.3219505    1.4137934 
11055000    1.1854414 4.8804618e-06   0.59240376 0.00053498732            0   0.59186878     1.733708    2.3261118    2.8258711 
11060000    1.0786761 -5.2568425e-05   0.70583656            0            0   0.70583656    1.5775637    2.2834003   -3.0996064 
11065000    1.2057609 -5.2591158e-05   0.50500728            0            0   0.50500728    1.7634252    2.2684325   -3.1169021 
11070000    1.0602769 -7.380799e-05   0.73021313 0.0010718097            0   0.72914132    1.5506549     2.280868   -5.2770702 
11075000    1.0839795 -2.8895286e-05   0.69312747  0.015985285            0   0.67714219      1.58532    2.2784475  -0.68042981 
11080000    1.1601343 -8.9725652e-06    0.5917303  0.018375758            0   0.57335455    1.6966965    2.2884268    1.3696361 
11085000    1.1582155 -0.00010038444   0.61055298 0.0024802626            0   0.60807271    1.6938901    2.3044431   -7.9749232 
11090000     1.116854 -7.1388955e-05   0.64502036 0.00053844961            0   0.64448191     1.633399    2.2784193   -5.0318097 
11095000    1.1562554 1.8477022e-05   0.58632197 0.0054485745            0   0.58087339    1.6910235    2.2773455    4.1693925 
11100000    1.0397165 -3.450092e-05   0.76661976  0.035449532            0   0.73117023    1.5205853    2.2872051   -1.2456891 
11105000    1.1448945 -1.4555108e-05   0.61052226  0.040715972            0   0.56980629    1.6744082    2.2849304    0.7944874 
11110000    1.1323598 -2.4563313e-06   0.62784025 0.0059119904            0   0.62192826    1.6560762    2.2839164    2.0323881 
11115000    1.0605791 -2.6712548e-05    0.7514163 0.0043457057            0   0.74707059    1.5510969    2.3025132  -0.43285164 
11120000    1.1081224 0.00016172765   0.68245161  0.022639613            0     0.659812     1.620629    2.3030806    18.863992 
11125000    1.1295265 9.7206633e-05   0.61885148  0.076678014            0   0.54217347    1.6519325     2.270784    12.224743 
11130000    1.0889756 -4.4583485e-05   0.65738854  0.036476777            0   0.62091176    1.5926268    2.2500153   -2.3153336 
11135000    1.0922964 -2.9851531e-05   0.64931639 0.0033396317            0   0.64597676    1.5974835    2.2467998  -0.80999689 
11140000    1.0627381 -5.1646219e-05   0.69082911  0.013906402            0   0.67692271    1.5542545    2.2450836   -3.0434892 
11145000    1.1556541 5.472624e-05   0.54801091  0.016770836            0   0.53124007    1.6901441     2.238155    7.8421221 
11150000    1.1451789 1.1709922e-05   0.51256392  0.007971734            0   0.50459218    1.6748241     2.187388     3.386484 
11155000    1.1678596 -6.6795119e-05   0.45099907 0.0016840699            0     0.449315    1.7079946    2.1589937   -4.6808265 
11160000    1.1350351 2.6137217e-05   0.50817293 0.00085875411            0   0.50731417    1.6599888    2.1681617    4.8446128 
11165000    1.0797642 2.6580349e-05   0.62029528 0.00041836518            0   0.61987691    1.5791552    2.1994505    4.9212782 
11170000    1.0920277 2.1483527e-05   0.59526163 0.00077935465            0   0.59448228    1.5970904    2.1923521    4.3922652 
11175000    1.1033233 -6.0539012e-06   0.58191518 0.0021113585            0   0.57980382    1.6136103    2.1955255     1.575606 
11180000    1.1108249 8.9474715e-06   0.53973134 0.0050821772            0   0.53464916    1.6245813    2.1643127    3.0805338 
11185000    1.1434592 -7.0188382e-05   0.47005127  0.010957011            0   0.45909426    1.6723091    2.1423604     -5.04493 
11190000    1.0809729 -2.9936876e-05   0.52139995 0.0089632267            0   0.51243672    1.5809229    2.1023228  -0.96321328 
11195000    1.0717618 5.2456862e-05   0.54490191 0.00012547814            0   0.54477643    1.5674516    2.1123535    7.4839361 
11200000    1.0018519 -2.277674e-05   0.67834495 0.0056939638            0   0.67265099    1.4652084    2.1435533  -0.18878485 
11205000    1.1052562 -2.0293749e-05   0.52576357  0.017109904            0   0.50865366    1.6164373    2.1422008  0.064120897 
11210000   0.97137293 3.114314e-05   0.73072427  0.013726869            0    0.7169974    1.4206329    2.1513572    5.3404147 
11215000    1.1282275 -3.2382812e-05   0.50931198 0.0066769606            0   0.50263501    1.6500327    2.1593446   -1.1566553 
11220000    1.1065408 -6.4194779e-05   0.55486903 0.0053824926            0   0.54948653    1.6183159    2.1731849   -4.4003605 
11225000    1.0920126 -7.8788787e-06   0.54945903 0.0011981039            0   0.54826092    1.5970684    2.1465274    1.3397302 
11230000    1.1070181 5.8105021e-06   0.52222296  0.016266631            0   0.50595633    1.6190139    2.1412369    2.7362323 
11235000    1.0187897 7.9965179e-05   0.65218302  0.026233917            0   0.62594911      1.48998     2.142163    10.330597 
11240000    1.0438457 -4.1103198e-05   0.61573175  0.010265329            0   0.60546642    1.5266243    2.1423561   -2.0666114 
11245000    1.0804214 -8.3162968e-05     0.560955  0.066529463            0   0.49442553    1.5801163    2.1410713   -6.3748166 
11250000    1.0711233 -4.0478421e-05   0.57287279    0.0124103            0   0.56046249    1.5665178    2.1393906   -2.0055997 
11255000     1.092792 -6.8658263e-05   0.53356677 0.0025135418            0   0.53105323    1.5982082     2.131775   -4.8988311 
11260000    1.2241819 -5.5961188e-06   0.35147032 0.0046923452            0   0.34677797    1.7903661    2.1418364    1.5687938 
11265000    1.0668483 1.2642929e-05   0.60620112  0.022537652            0   0.58366347    1.5602656    2.1664667    3.4611026 
11270000    1.0612137 3.3483566e-05   0.62603649  0.016519812            0   0.60951667    1.5520251    2.1780616    5.6067788 
11275000    1.2774523 1.4604152e-05   0.40568386            0            0   0.40568386    1.8682739    2.2739578    3.7694229 
11280000    1.0417991 -0.0001059231   0.74557037            0            0   0.74557037    1.5236312    2.2692016   -8.5773243 
11285000    1.1503751 -9.5937213e-05    0.5630189            0            0    0.5630189    1.6824235    2.2454424   -7.5785282 
11290000    1.0978288 5.8125072e-05   0.57301869   0.01400869            0      0.55901    1.6055747    2.1785934    8.1306007 
11295000   0.96926562 8.9341509e-05   0.75929439  0.097128618            0   0.66216577     1.417551    2.1768454    11.325416 
11300000    1.1591045 -3.5287321e-05   0.46976892   0.01234874            0   0.45742018    1.6951903    2.1649592   -1.4484625 
11305000    1.1101008 -7.228539e-05   0.53013415  0.014759628            0   0.51537452    1.6235224    2.1536566   -5.2483673 
11310000    1.0554554 -1.6634576e-05   0.61314409  0.078905601            0   0.53423849    1.5436036    2.1567477   0.45336707 
11315000    1.1426842 1.3562934e-05   0.48845698   0.04030473            0   0.44815225    1.6711757    2.1596327    3.5484771 
11320000    1.0731818 -1.6465203e-05   0.61186705 0.0017223866            0   0.61014467    1.5695284    2.1813955   0.49535869 
11325000    1.0376143 -3.4321979e-05    0.6559089  0.018434109            0   0.63747479    1.5175109    2.1734198   -1.3411508 
11330000    1.2320464 3.3117522e-05   0.39892732  0.027761025            0    0.3711663    1.8018679    2.2007952    5.5920294 
11335000    1.1076033 2.5591838e-05    0.5969043  0.002498837            0   0.59440546    1.6198698    2.2167741    4.8373783 
11340000    1.2543529 -4.0452353e-05   0.46226794  0.032554606            0   0.42971333     1.834491     2.296759    -1.845562 
11345000    1.1760819 -3.0002291e-06   0.56393042  0.040036186            0   0.52389424    1.7200197    2.2839501    1.9767267 
11350000    1.2022395 7.5258304e-05   0.50014398  0.034093988            0   0.46604999    1.7582752    2.2584192    9.9648695 
11355000    1.2953337 4.4750554e-05   0.33920708 0.0056472872            0    0.3335598    1.8944255    2.2336326    6.8160893 
11360000    1.0525559 -8.6473762e-05   0.70170301 0.00017171591            0    0.7015313     1.539363     2.241066   -6.6138472 
11365000    1.1899378 -1.3780753e-05   0.47499035  0.003370934            0   0.47161942    1.7402841    2.2152744   0.80412537 
11370000    1.1585416 4.9261582e-05   0.48311089 0.0045260953            0    0.4785848    1.6943671     2.177478     7.221864 
11375000    1.1125911 -4.2257828e-06   0.56543045   0.04485875            0    0.5205717    1.6271645    2.1925949    1.7598748 
11380000    1.0437373 -2.5490538e-05   0.58504592  0.093513735            0   0.49153219    1.5264658    2.1115117  -0.49871941 
11385000    1.0583172 3.3637427e-07    0.5253525  0.030056323            0   0.49529618    1.5477889    2.0731414    2.1075861 
11390000    1.0176123 2.7629899e-05   0.59704669  0.030376558            0   0.56667013     1.488258    2.0853047    4.9146064 
11395000   0.96040964 2.7744061e-05   0.68655372  0.080808344            0   0.60574537    1.4045991    2.0911528    4.9321446 
11400000   0.99639664 5.6787871e-05   0.62936862  0.035086795            0   0.59428183    1.4572301    2.0865987    7.9016767 
11405000    1.0554584 5.3837503e-05   0.57405074 0.0098704221            0   0.56418031    1.5436079    2.1176587     7.630619 
11410000    1.1086106 9.8131493e-06   0.48451272  0.030716625            0    0.4537961    1.6213429    2.1058557    3.1107221 
11415000     1.104405 4.5799581e-06   0.46677923 0.0078369338            0    0.4589423    1.6151923    2.0819715    2.5509592 
11420000    1.0213307 -2.6649495e-05   0.58057003 0.0087544657            0   0.57181557    1.4936962    2.0742662  -0.65464208 
11425000     1.016786 -0.0001351497   0.59663257 0.0099063094            0   0.58672626    1.4870495    2.0836821   -11.755648 
11430000     1.115236 -7.2985108e-05   0.47016186  0.002068381            0   0.46809348    1.6310327    2.1011945   -5.3724805 
11435000    1.0242365 2.4536416e-05   0.60831523 0.00012612415            0   0.60818911    1.4979459    2.1062611    4.6187902 
11440000    1.1576121 -8.0241425e-05    0.4062425            0            0    0.4062425    1.6930077    2.0992502   -6.1174717 
11445000    1.1124153 -2.5864628e-05   0.50154717 0.0011209953            0   0.50042617    1.6269074    2.1284546  -0.52008332 
11450000    1.1688555 8.7239419e-05   0.45189305  0.018561492            0   0.43333156    1.7094511    2.1613442    11.094661 
11455000    1.1821741 5.9083828e-05   0.44677546  0.072833306            0   0.37394215    1.7289296     2.175705     8.225889 
11460000    1.2033918 1.5883427e-05   0.45642105  0.042588603            0   0.41383245    1.7599605    2.2163816    3.8428445 
11465000    1.2030983 -3.613779e-05   0.42622718  0.057666168            0   0.36856101    1.7595312    2.1857584   -1.5147513 
11470000    1.0225383 -2.6820661e-05   0.73748603  0.081235547            0   0.65625048    1.4954622    2.2329482  -0.51348746 
11475000     1.218016 5.1484207e-06   0.43564067 0.0096149973            0   0.42602567    1.7813484    2.2169891    2.7441874 
11480000    1.1147799 2.4108882e-06   0.57782832 6.2453168e-05            0   0.57776586    1.6303657     2.208194    2.4550689 
11485000    1.0444852 -3.8902059e-05   0.66237696 0.0094505987            0   0.65292636    1.5275596    2.1899366   -1.7936343 
11490000    1.0912426 -1.9737256e-05   0.57518831  0.055110147            0   0.52007816    1.5959423    2.1711306   0.15003562 
11495000    1.1343461 -1.8502368e-05   0.51526432    0.1091537            0   0.40611062    1.6589811    2.1742455   0.27960297 
11500000    1.1231595 -2.3827893e-05   0.52946136  0.047075655            0    0.4823857    1.6426207    2.1720821   -0.2678942 
11505000    1.1038931 7.8727762e-06   0.47512011  0.028574878            0   0.44654523    1.6144436    2.0895637     2.895736 
11510000    1.0719671 0.00010462809   0.51484988 0.0048072249            0   0.51004265    1.5677519    2.0826017    12.796518 
11515000   0.99275085 0.00015115182   0.62607598 0.0074941133            0   0.61858186    1.4518981    2.0779741    17.555921 
11520000    1.0097441 9.4964628e-05   0.59024863 0.0022129291            0    0.5880357    1.4767508    2.0669994    11.791377 
11525000     1.091863 5.5939848e-05   0.48657846 2.6679558e-05            0   0.48655178    1.5968497    2.0834281    7.8116686 
11530000    1.1358635 1.2501243e-06   0.39020536 0.0096767244            0   0.38052863    1.6612004    2.0514058    2.1794185 
11535000    1.1013599 -6.1162203e-05   0.43886199   0.03666932            0   0.40219267    1.6107389    2.0496009   -4.2134087 
11540000   0.97247888 -1.416179e-05   0.62301134  0.044415336            0   0.57859601    1.4222504    2.0452617   0.59509438 
11545000    1.0345284 -5.7431786e-06   0.55093043  0.059263851            0   0.49166658    1.5129978    2.0639282    1.4758267 
11550000     1.111208 -8.5120747e-05    0.4258866  0.017387991            0   0.40849861    1.6251416    2.0510282   -6.6653363 
11555000    1.0345072 -4.9346108e-05   0.53678962  0.012245066            0   0.52454456    1.5129667    2.0497563   -3.0032851 
11560000    1.0311447 5.5171339e-05   0.50132996  0.018728346            0   0.48260162    1.5080492    2.0093792    7.6589242 
11565000    0.9501795 8.826556e-05   0.62516793 0.0090094666            0   0.61615846    1.3896375    2.0148055    11.053199 
11570000    1.0238197 8.3338055e-05   0.53290175 0.0064926786            0   0.52640907    1.4973363     2.030238    10.564055 
11575000    1.0408557 4.7925979e-05   0.51167791 0.0063361599            0   0.50534175    1.5222515    2.0339294    6.9415497 
11580000     1.119932 2.1992441e-05   0.43351122  0.002720955            0   0.43079027    1.6379006    2.0714118    4.3234377 
11585000    1.1111106 -4.7594938e-05   0.47225449 0.0091680321            0   0.46308645    1.6249993    2.0972537   -2.7764679 
11590000    1.0500252 -7.3873181e-05   0.57649288  0.042302848            0   0.53419003    1.5356619    2.1121548   -5.4524589 
11595000    1.1153941 -2.1139025e-05   0.50595424  0.049411082            0   0.45654316    1.6312638    2.1372181 -0.027418071 
11600000    1.1130847 3.6018811e-05    0.5048067  0.095654595            0   0.40915211    1.6278864    2.1326931    5.8210193 
11605000    1.0619341 5.1966272e-05   0.55577749  0.086424306            0   0.46935319    1.5530787    2.1088562    7.4302024 
11610000    1.0221928 3.2312265e-05   0.60214839  0.015407153            0   0.58674124     1.494957    2.0971054    5.4058814 
11615000    1.1035276 6.4732933e-05   0.45465627 0.0060274948            0   0.44862877    1.6139091    2.0685654    8.6972178 
11620000     1.033222 3.0765095e-05   0.53650033   0.02501116            0   0.51148917    1.5110872    2.0475875    5.1979332 
11625000    1.0314317 4.5707485e-06   0.51029979  0.030623215            0   0.47967657    1.5084689    2.0187686    2.4868133 
11630000    1.0792698 5.9360365e-05   0.43761038 0.0070782203            0   0.43053216     1.578432    2.0160424    8.0945438 
11635000    1.0339884 9.3983132e-05   0.46949645            0            0   0.46949645     1.512208    1.9817045    11.605577 
11640000   0.99903092 9.4676088e-06   0.49842284  0.022036283            0   0.47638655    1.4610827    1.9595056    2.9289887 
11645000   0.93481165 -5.5444445e-05   0.57753271   0.05694081            0    0.5205919     1.367162    1.9446948   -3.7328164 
11650000   0.97436002 1.5386044e-05   0.51227403  0.019356019            0   0.49291801    1.4250015    1.9372756    3.5128065 
11655000   0.98921636 -1.406489e-05   0.49531314 0.0039490438            0   0.49136409    1.4467289    1.9420421   0.50179732 
11660000    1.0082576 -8.9262516e-05   0.45669271 0.0067729049            0   0.44991981    1.4745767    1.9312694   -7.2092122 
11665000   0.96587863 -8.0345765e-05   0.48607079 0.0033156672            0   0.48275512    1.4125975    1.8986683    -6.328738 
11670000    1.0093189 -2.4990497e-05   0.41902931 0.00065441174            0    0.4183749    1.4761289    1.8951582  -0.66386863 
11675000    1.0148136 3.7557091e-05   0.43861857 0.0099187345            0   0.42869983    1.4841649    1.9227835    5.7686296 
11680000     1.016074 -1.954055e-05   0.44919141 0.0088137934            0   0.44037761    1.4860082    1.9351996 -0.065752701 
11685000    1.0417249 1.5033382e-05   0.40673441 0.0045710538            0   0.40216335    1.5235227    1.9302571    3.4696755 
11690000    1.0342348 5.8583017e-06    0.4106932 0.0054044175            0   0.40528879    1.5125684    1.9232616    2.5231517 
11695000    1.0093716 -0.00010229797   0.43471199 0.0074291104            0   0.42728288    1.4762059    1.9109179   -8.5643946 
11700000    1.0655027 1.7534601e-05   0.36346181 0.00075435454            0   0.36270746    1.5582977    1.9217595    3.7173026 
11705000   0.97533453 4.6568777e-05   0.50140636 0.0014051749            0   0.50000119    1.4264267    1.9278331    6.6964759 
11710000    1.0386058 -6.1339177e-05   0.43225966  0.010862926            0   0.42139673     1.518961    1.9512207   -4.3299111 
11715000    1.0344534 8.6737702e-06   0.45852491  0.012562527            0   0.44596238    1.5128881     1.971413    2.8596071 
11720000    1.0873684 3.1145382e-07   0.35332659 0.0016680459            0   0.35165855    1.5902763    1.9436029    1.9754958 
11725000    1.0031132 2.2514151e-05   0.47200092  0.015075852            0   0.45692507     1.467053    1.9390539     4.244503 
11730000    1.0195596 -7.7135854e-06   0.45730367  0.080389593            0   0.37691407    1.4911059    1.9484096    1.1585384 
11735000    1.0535727 2.1000567e-05   0.43200492  0.025261301            0   0.40674362    1.5408501    1.9728551    4.1233131 
11740000   0.99891793 9.3381672e-05   0.51939903 0.0023712187            0   0.51702781    1.4609175    1.9803165      11.5426 
11745000    1.0266697 -3.8927497e-06   0.49121138  0.073814361            0   0.41739702    1.5015044    1.9927158    1.5940982 
11750000    1.1764407 2.3087035e-05   0.31935002   0.04272305            0   0.27662697    1.7205445    2.0398946     4.404007 
11755000    1.0370885 7.6586063e-05   0.52750186  0.058187139            0   0.46931472    1.5167419    2.0442437    9.8866566 
11760000    1.0689204 4.2449436e-06   0.47532863  0.035821441            0   0.43950719    1.5632961    2.0386247    2.4733069 
11765000    1.1109823 1.7823713e-05    0.3824032 0.0012929949            0   0.38111021    1.6248116    2.0072148    3.8323631 
11770000    1.0955117 4.1644451e-05   0.46315204            0            0   0.46315204    1.6021859    2.0653379    6.3297296 
11775000    1.1689301 2.9218123e-05    0.3499327 0.00029907292            0   0.34963363    1.7095602    2.0594929    5.0514287 
11780000    1.1513016 3.3015404e-05    0.3788697 0.0037864249            0   0.37508327    1.6837786    2.0626483    5.4434257 
11785000    1.1432092 -3.8571111e-05   0.41350194 0.0072330571            0   0.40626888    1.6719435    2.0854454   -1.8642364 
11790000    1.0911156 2.4545316e-06    0.4676154  0.006446904            0    0.4611685    1.5957565    2.0633719    2.3147159 
11795000    1.1318706 2.313243e-05    0.3880871 0.0034649145            0   0.38462219    1.6553607    2.0434478    4.4122087 
11800000    1.1318881 2.4128222e-05   0.39984774 8.5467663e-05            0   0.39976227    1.6553864    2.0552341     4.525964 
11805000    1.1430048 2.6489297e-05   0.37561416            0            0   0.37561416    1.6716446    2.0472587    4.7597628 
11810000    1.0209262 2.2210609e-05   0.56738597            0            0   0.56738597    1.4931046    2.0604906     4.334857 
11815000    1.0667237 3.3218947e-05    0.4697369            0            0    0.4697369    1.5600834    2.0298203    5.4314405 
11820000    1.1574338 1.1831937e-05   0.35054145            0            0   0.35054145     1.692747    2.0432884    3.2548787 
11825000    1.0528339 -9.244125e-06   0.51382696            0            0   0.51382696    1.5397695    2.0535965    1.1069981 
11830000    1.1046281 -2.2248998e-05   0.41516526 0.00094599352            0   0.41421927    1.6155185    2.0306838  -0.24761357 
11835000    1.1159892 -2.1291184e-05     0.409107  0.013278221            0   0.39582878    1.6321342    2.0412412  -0.13897604 
11840000    1.0295566 4.6804029e-05   0.54939665  0.038020392            0   0.51137625    1.5057265    2.0551231    6.8478556 
11845000    1.1312243 -6.4902112e-05    0.3787882  0.012648431            0   0.36613977    1.6544156    2.0332038   -4.6127725 
11850000    1.0647843 -2.2196087e-05   0.43561634            0            0   0.43561634     1.557247    1.9928633  -0.28001596 
11855000   0.99620544 -2.8973173e-05   0.58275897            0            0   0.58275897    1.4569505    2.0397094  -0.92714353 
11860000      1.04654 -6.4965693e-05   0.50410568 0.00045883661            0   0.50364684    1.5305647    2.0346704   -4.6178166 
11865000   0.98121217 -3.6091063e-05   0.58718192  0.020134058            0   0.56704787    1.4350228    2.0222047   -1.6735201 
11870000   0.90271158 6.7947261e-06   0.68371729  0.085389678            0   0.59832762    1.3202157     2.003933    2.6997129 
11875000    1.0475849 4.5045112e-05   0.47169395  0.020331272            0   0.45136268    1.5320929    2.0037868    6.6164063 
11880000    1.0876571 -1.3650758e-06   0.43677779 0.00063573897            0   0.43614205    1.5906985    2.0274763    1.8876926 
11885000    1.0578153 -2.1469098e-05   0.47540098            0            0   0.47540098    1.5470549    2.0224559  -0.17597974 
11890000    1.1809068 -1.4923409e-05   0.32475873 4.3492641e-06            0   0.32475438    1.7270762    2.0518349   0.52367786 
11895000    1.1060015 4.068858e-05   0.44773405 0.0057081877            0   0.44202586    1.6175272    2.0652612    6.2317718 
11900000    1.0857372 -8.4410892e-07   0.46284516  0.011684878            0   0.45116028    1.5878906    2.0507358     1.964299 
11905000    1.0357503 -5.8139795e-05    0.5120631 0.0047548366            0   0.50730827    1.5147848    2.0268479   -3.9266671 
11910000    1.0218572 -3.5744646e-05   0.51731414 0.00021183054            0   0.51710231    1.4944661    2.0117803   -1.6484715 
11915000    1.0269422 -1.567346e-05    0.4870639            0            0    0.4870639     1.501903    1.9889669   0.38400466 
11920000    1.0368455 7.5796887e-05   0.45491064 0.0035377869            0   0.45137285    1.5163866    1.9712972    9.7328984 
11925000   0.95577223 4.2101513e-05    0.5646106  0.010768631            0   0.55384197    1.3978169    1.9624275    6.2736224 
11930000    1.0568666 3.4932705e-05   0.42433455 0.0067316598            0   0.41760289    1.5456674     1.970002    5.5471109 
11935000    1.0912698 3.8545767e-05   0.38310285 0.00048608183            0   0.38261677     1.595982    1.9790849    5.9261714 
11940000    1.0706265 -1.7558583e-05   0.39070427            0            0   0.39070427    1.5657912    1.9564955   0.15849657 
11945000    1.0712505 -6.2446373e-05   0.40572525            0            0   0.40572525    1.5667039    1.9724292   -4.4220794 
11950000    1.0651565 -3.3019658e-07   0.42561157 0.0014219256            0   0.42418964    1.5577914     1.983403    1.9495909 
11955000    1.0803355 8.8467993e-05   0.41058243 0.0092842939            0   0.40129814    1.5799907    1.9905731    11.049696 
11960000   0.99805318 7.8215325e-05    0.4917842  0.041965775            0   0.44981842    1.4596528     1.951437    9.9606862 
11965000   0.93427269 1.569825e-05   0.57172319  0.076753625            0   0.49496956    1.3663738     1.938097    3.5455978 
11970000    1.0738323 5.8665982e-05   0.36535045 0.0064741792            0   0.35887627    1.5704797    1.9358302    7.9432267 
11975000    1.0069296 1.1198801e-05   0.43881787 0.0075632903            0   0.43125458    1.4726346    1.9114525    3.0582097 
11980000    1.0402495 -7.4646917e-05    0.3681714 0.0058889561            0   0.36228245    1.5213648    1.8895362    -5.754308 
11985000    1.0787349 -3.3807398e-06   0.30253953 0.0016474993            0   0.30089203    1.5776498    1.8801893    1.5340016 
11990000   0.97361771 9.3663813e-05   0.49598284 0.0024376914            0   0.49354514    1.4239159    1.9198987    11.511073 
11995000   0.99565459 3.5214099e-05   0.47881764  0.018792891            0   0.46002475    1.4561448    1.9349625    5.5408862 
12000000    1.0123316 -5.9683655e-05   0.48736081   0.02078649            0   0.46657432     1.480535    1.9678958   -4.1437105 
12005000    1.0005385 -3.7155677e-06   0.51173907  0.078312494            0   0.43342658    1.4632875    1.9750266    1.5945525 
12010000    1.1232551 3.4843231e-05   0.35526718 0.0058198953            0   0.34944729    1.6427606    1.9980278    5.5659747 
12015000    1.0971306 3.0647878e-05   0.38690672            0            0   0.38690672    1.6045536    1.9914603     5.129803 
12020000    1.0948256 -6.0882318e-05   0.41641803            0            0   0.41641803    1.6011824    2.0176004    -4.216749 
12025000    1.0700304 -6.3610654e-05   0.44146901 0.00054558201            0   0.44092343    1.5649195    2.0063885   -4.5073425 
12030000    1.0550082 -3.8080001e-05   0.46582912   0.02538134            0   0.44044778    1.5429494    2.0087785   -1.8906136 
12035000    1.0893088 -3.6612336e-05   0.41364078  0.035068655            0   0.37857213    1.5931141    2.0067549   -1.7423483 
12040000    1.0808317 -3.0674076e-05   0.41026704  0.032854228            0   0.37741281    1.5807164    1.9909835    -1.150042 
12045000   0.98414169 -8.1592994e-05   0.57942059  0.032076595            0   0.54734399    1.4393072    2.0187278   -6.3363948 
12050000    1.0146933 -2.3139038e-05    0.4989088   0.09858384            0   0.40032496     1.483989    1.9828978  -0.38653965 
12055000    1.0377335 -3.1134737e-05   0.42107974  0.036065557            0   0.38501418    1.5176853     1.938765   -1.2494321 
12060000    1.0857774 -7.9594675e-05   0.38166695  0.019715803            0   0.36195115    1.5879494    1.9696163   -6.1808784 
12065000   0.99999497 -5.0937494e-05   0.51076385 0.0069094515            0    0.5038544    1.4624926    1.9732565   -3.2427429 
12070000    1.0869222 -2.2635414e-06   0.35361475 0.0043956903            0   0.34921906    1.5896237    1.9432384    1.7114518 
12075000   0.99242448 -1.2722278e-06   0.54715937 0.0022502099            0   0.54490916    1.4514208    1.9985802     1.868304 
12080000    1.1062827 4.5083687e-05   0.39318511 0.0084973141            0   0.38468779    1.6179385    2.0111236    6.6276932 
12085000    1.1382652 7.2047546e-05   0.35924563  0.041210025            0   0.31803561    1.6647128    2.0239584    9.4016271 
12090000    1.1459538 1.4614748e-05   0.40837004  0.037161818            0   0.37120822    1.6759574    2.0843274    3.5808776 
12095000    1.0845501 -4.9306234e-05   0.49867516  0.002825981            0   0.49584918    1.5861545    2.0848297   -2.9641287 
12100000    1.0558462 -6.5116757e-05   0.56803571            0            0   0.56803571     1.544175    2.1122107   -4.5557452 
12105000     1.117498 -9.0068028e-05   0.48935158 0.0029090977            0   0.48644248    1.6343408    2.1236923   -7.0992737 
12110000       1.1248 -2.1662106e-05    0.4523149  0.026893789            0   0.42542111    1.6450199    2.0973348  -0.12086481 
12115000    1.0927467 5.9989155e-05   0.50660573  0.024547137            0    0.4820586    1.5981421    2.1047478    8.2476372 
12120000     1.160123 1.8487282e-05   0.37545177  0.046894014            0   0.32855775    1.6966799    2.0721316    3.9652293 
12125000    1.0805203 -5.014496e-05   0.48603766   0.08807687            0   0.39796079    1.5802609    2.0662986   -3.0685453 
12130000    1.1435117 -4.5902278e-05   0.39944193   0.01348723            0    0.3859547    1.6723859    2.0718278   -2.6285655 
12135000    1.1153676 -3.2097221e-05   0.46133568   0.04993443            0   0.41140125    1.6312251    2.0925608   -1.1941946 
12140000    1.1030982 -5.602458e-05   0.49996848  0.023800434            0   0.47616804    1.6132811    2.1132496   -3.6236674 
12145000    1.1440613 -3.1200181e-05   0.44134113            0            0   0.44134113    1.6731897    2.1145308   -1.0803677 
12150000    1.1759826 -6.2129997e-06   0.39381234 0.00028873809            0   0.39352361    1.7198746    2.1136869    1.4774757 
12155000    1.1109549 4.3175358e-07   0.45178308  0.037541869            0   0.41424121    1.6247715    2.0765546    2.1207662 
12160000    1.0384738 -6.6422717e-05   0.53085895  0.042902494            0   0.48795646    1.5187679    2.0496268   -4.7520594 
12165000    1.1042839 -1.188839e-05   0.35755924 0.0073631721            0   0.35019606    1.6150153    1.9725745   0.75520333 
12170000    1.0929426 6.8027446e-05   0.42057948  0.002445889            0   0.41813359    1.5984285     2.019008    8.9850185 
12175000    1.1619372 1.3601968e-05   0.27898193 0.0033302236            0   0.27565171    1.6993332    1.9783151    3.3711566 
12180000    1.0571893 3.3426257e-06   0.43702356 0.0014783024            0   0.43554526    1.5461393    1.9831628    2.3254477 
12185000    1.0935628 -2.5287982e-06   0.34494479 0.00023480062            0   0.34470999    1.5993356    1.9442804    1.6853314 
12190000    1.0105754 -1.3992244e-05   0.46536737 2.751933e-05            0   0.46533985    1.4779665    1.9433338   0.51052807 
12195000    1.0527584 1.7535776e-05   0.41759849 0.0061136703            0   0.41148482    1.5396592    1.9572577    3.7529211 
12200000   0.97412334 -2.7337377e-05   0.51457706  0.013338467            0    0.5012386    1.4246554    1.9392325  -0.86011499 
12205000    1.0190118 -5.2296913e-05   0.44885775  0.088172313            0   0.36068544    1.4903048    1.9391625   -3.4160414 
12210000    1.0474581 -3.0113541e-05   0.40007619  0.040768791            0    0.3593074    1.5319074    1.9319836    -1.151643 
12215000      1.01702 -3.3876566e-05   0.43164012  0.020237059            0   0.41140306    1.4873918    1.9190319   -1.5499285 
12220000    0.9806535 -7.1227956e-05   0.49684025  0.063738808            0   0.43310144    1.4342057     1.931046   -5.3626967 
12225000    1.1068578 -5.1147769e-05   0.33321172  0.024754341            0   0.30845738    1.6187795    1.9519913   -3.2855403 
12230000    1.0366351 -4.1234573e-05   0.43889556 0.00045656855            0   0.43843899    1.5160788    1.9549744   -2.2674459 
12235000    1.0156154 7.0419793e-06   0.44958942 0.0062537921            0   0.44333563    1.4853376     1.934927    2.6560257 
12240000   0.99471565 4.0217411e-05   0.46501734  0.018896733            0   0.44612061    1.4547716     1.919789    6.0380518 
12245000     0.939452 0.00010680951   0.55255324 0.0076250896            0   0.54492815    1.3739485    1.9265018    12.863795 
12250000    1.0220101 6.1986806e-05   0.46683254 0.0071228288            0   0.45970971    1.4946898    1.9615223    8.3089712 
12255000    1.0377456 -9.9025805e-07   0.42510687  0.021313028            0   0.40379384    1.5177029    1.9428098    1.8414074 
12260000    1.1076504 1.3252759e-05   0.33189074  0.015928439            0    0.3159623    1.6199388    1.9518295     3.308912 
12265000     1.003383 4.1161497e-05   0.47714059  0.028428611            0   0.44871198    1.4674476    1.9445882    6.1595255 
12270000    1.0713024 1.6052945e-05   0.42303587  0.020109334            0   0.40292653    1.5667797    1.9898156    3.6336371 
12275000    1.0636073 -8.456783e-05    0.4092534 0.0084681462            0   0.40078525    1.5555256     1.964779   -6.6949667 
12280000    1.0845405 -8.6503174e-05   0.32584438 0.0016860507            0   0.32415833    1.5861405    1.9119849   -6.9459401 
12285000     1.031182 -8.5995428e-06   0.43215088 0.0037252164            0   0.42842567    1.5081037    1.9402546    1.0596614 
12290000    1.0379639 3.1157091e-05   0.44462473  0.010549833            0    0.4340749    1.5180223     1.962647    5.1531331 
12295000    1.0530647 3.7347629e-05   0.44160333  0.026175525            0    0.4154278    1.5401071    1.9817104    5.8061076 
12300000   0.97493437 4.7910854e-06   0.57057225  0.030718415            0   0.53985383    1.4258415    1.9964138    2.4870209 
12305000    1.0110152 1.6862121e-05   0.46436556   0.04672719            0   0.41763837    1.4786097    1.9429752    3.6696564 
12310000    1.0090277 4.2107812e-05    0.4758348  0.033586545            0   0.44224826    1.4757031    1.9515379    6.2633778 
12315000   0.96338802 -1.9945314e-05   0.55268998  0.016996587            0   0.53569339     1.408955     1.961645 -0.080755192 
12320000   0.96402484 2.525526e-06   0.51256366  0.052393358            0    0.4601703    1.4098863      1.92245    2.1810638 
12325000    1.0246619 6.6796008e-05   0.41315561  0.011999082            0   0.40115652    1.4985681    1.9117237    8.7516349 
12330000   0.97851758 6.5375821e-05   0.46720956 0.0030892701            0   0.46412029     1.431082    1.8982915    8.5927756 
12335000   0.94910584 2.9939865e-05   0.50933816  0.027374551            0   0.48196361    1.3880673    1.8974055    4.9632476 
12340000    0.9614639 -3.8010599e-05   0.51667135  0.048548301            0   0.46812305     1.406141    1.9228123    -1.969473 
12345000    1.0220933 -0.00011060718    0.4217327 0.0089617203            0   0.41277098    1.4948114    1.9165441   -9.4096309 
12350000    1.0018755 -5.9191106e-05   0.46364368  0.050005151            0   0.41363853    1.4652429    1.9288866   -4.1322827 
12355000    1.0627305 -1.4212183e-05   0.39410464  0.068314728            0   0.32578992    1.5542434     1.948348   0.49302045 
12360000    1.1373231 4.6907323e-05   0.32761513  0.018988373            0   0.30862676     1.663335    1.9909501      6.79426 
12365000    1.0403684 6.2838385e-05   0.47572786 0.0083474945            0   0.46738037    1.5215388    1.9972667    8.4319173 
12370000   0.97807995 -3.2274343e-06   0.50514935    0.0188802            0   0.48626915    1.4304419    1.9355913     1.605102 
12375000    1.0489661 -3.0248129e-06   0.41706594  0.023820423            0   0.39324552     1.534113    1.9511789    1.6414381 
12380000   0.99652123 -6.4860555e-06   0.52228817  0.007966041            0   0.51432213    1.4574123    1.9797005    1.3155284 
12385000    1.0563147 2.885276e-05   0.39507498 0.0047480011            0   0.39032698    1.5448603    1.9399352    4.8944578 
12390000    1.0593679 5.2719784e-05   0.37301501  0.024499233            0   0.34851578    1.5493255    1.9223405    7.3208464 
12395000   0.94853184 -9.5680429e-06   0.53076826  0.019146434            0   0.51162183    1.3872278    1.9179961   0.93822848 
12400000   0.96149292 -3.8790728e-05   0.53023186  0.025608627            0   0.50462323    1.4061834    1.9364153   -2.0357553 
12405000   0.94152232 -1.5524345e-05    0.5724259  0.052503813            0   0.51992208    1.3769764    1.9494023   0.35970934 
12410000   0.97098333 1.6054651e-05   0.54125975  0.019619073            0   0.52164068    1.4200631    1.9613229    3.6053192 
12415000    1.0359472 1.0383705e-06   0.39524943 0.0094265324            0    0.3858229    1.5150727    1.9103222    2.0166513 
12420000   0.91688402 -4.3474663e-05   0.60242164  0.008145537            0    0.5942761    1.3409429    1.9433645   -2.5084409 
12425000    1.0187738 -1.7689685e-05   0.38331123 0.0032786655            0   0.38003256    1.4899567    1.8732679  0.061844239 
12430000    1.0573767 2.9149866e-05   0.36279539  0.082898637            0   0.27989675    1.5464134    1.9092088    4.8941551 
12435000   0.87370971 1.2330473e-05   0.64865889  0.081684416            0   0.56697447    1.2778005    1.9264593    3.1890998 
12440000   0.95198611 -2.6357876e-05   0.54077209  0.029301641            0   0.51147045    1.3922797    1.9330518  -0.76599477 
12445000    1.0173309 -1.5128256e-05   0.46983552 0.0038433741            0   0.46599215    1.4878465     1.957682   0.40854854 
12450000   0.96741756 6.2426124e-05   0.51969844  0.015108175            0   0.50459026    1.4148482    1.9345466    8.3269817 
12455000   0.97975625 2.2248974e-05   0.51261021  0.015335569            0   0.49727464    1.4328935    1.9455037    4.2237986 
12460000    1.0128448 -1.8527925e-05   0.47062938  0.016007464            0   0.45462192    1.4812856    1.9519149  0.054655385 
12465000    1.0785193 -6.4586567e-06   0.35938256 0.0087395108            0   0.35064305    1.5773345    1.9367171    1.2753506 
12470000    1.0090661 1.5025349e-06   0.41459373 0.0073369269            0    0.4072568    1.4757592    1.8903529    2.0442125 
12475000   0.88583219 1.8002905e-05   0.65611842  0.060333496            0   0.59578492    1.2955296     1.951648    3.7951454 
12480000   0.87272957 1.1737082e-05   0.62546932  0.051383478            0   0.57408584     1.276367    1.9018363    3.1037135 
12485000    1.0043127 -5.542154e-06   0.45689996  0.012122781            0   0.44477718    1.4688074    1.9257074    1.3581908 
12490000   0.96770577 -1.0257119e-05    0.5021554  0.031960331            0   0.47019507    1.4152697    1.9174251   0.86709607 
12495000   0.90217065 -2.1843043e-05   0.61978023  0.026723134            0    0.5930571    1.3194246    1.9392048  -0.29752282 
12500000   0.97177274 -3.2321699e-05   0.48924529  0.001034523            0   0.48821077    1.4212176    1.9104629   -1.3992791 
12505000   0.93134968 -4.680934e-05    0.5246183 0.0002238133            0   0.52439449    1.3620989    1.8867172   -2.9065592 
12510000   0.97411874 -5.1076015e-05   0.50115821 0.0016133866            0   0.49954482    1.4246487    1.9258069   -3.3043771 
12515000    1.0043158 1.6519622e-05   0.47370309  0.015488857            0   0.45821424    1.4688118    1.9425149    3.6341242 
12520000   0.87129106 5.2478694e-05   0.70363839  0.082516784            0    0.6211216    1.2742632    1.9779016    7.3517198 
12525000   0.96817077 2.1725176e-06   0.57956378   0.11229186            0   0.46727192    1.4159498    1.9955135    2.2179793 
12530000   0.98402524 -6.4389073e-05   0.55480948  0.031358836            0   0.52345064    1.4391369    1.9939464   -4.5994947 
12535000    1.0975357 -4.0588002e-05   0.37467581  0.037880722            0   0.33679509    1.6051459    1.9798218   -2.1763896 
12540000   0.98762801 6.1790968e-05   0.55104701  0.043324894            0   0.50772211     1.444406     1.995453    8.3228481 
12545000   0.99646277 4.5375361e-05   0.55683064    0.0651155            0   0.49171514    1.4573268    2.0141574    6.6605944 
12550000    0.9378552 -7.6770852e-05   0.58888605  0.075558906            0   0.51332714    1.3716132    1.9604993    -5.900836 
12555000   0.96064756 -8.2897004e-05   0.55021171  0.033497492            0   0.51671422    1.4049471    1.9551588   -6.5334945 
12560000    1.0288282 -0.00010997641   0.47626621 0.0082233114            0    0.4680429    1.5046613    1.9809275   -9.2806571 
12565000   0.97284139 -8.8843309e-05   0.55513592  0.015959922            0   0.53917599    1.4227805    1.9779164   -7.1196384 
12570000    1.0443953 3.4794131e-05   0.44815423   0.01663517            0   0.43151906    1.5274282    1.9755824    5.5385014 
12575000    1.0434144 -4.014578e-05   0.45726471  0.021212863            0   0.43605185    1.5259935    1.9832583   -2.1276697 
12580000   0.91937342 -5.7626104e-05    0.5810025  0.070303769            0   0.51069873    1.3445836    1.9255861   -3.9753269 
12585000   0.99149648 8.1514242e-06   0.49923716  0.042619716            0   0.45661745    1.4500636    1.9493008    2.7840066 
12590000    1.0491767 3.2018078e-05   0.42561589            0            0   0.42561589    1.5344209    1.9600368    5.2386881 
12595000    0.9483547 1.6024541e-05   0.59800625            0            0   0.59800625    1.3869687     1.984975     3.625888 
12600000    1.0434919 -5.45141e-06    0.4581818 0.00093300021            0    0.4572488    1.5261068    1.9842886    1.4260643 
12605000    1.0817444 -1.0437331e-05   0.38515209 0.0083581991            0   0.37679389    1.5820512    1.9672032   0.89842051 
12610000    1.0166967 -2.5262636e-05   0.52158278 0.0057088844            0   0.51587389    1.4869189    2.0085016  -0.57839228 
12615000   0.97169828 -5.6473453e-05   0.59592542 0.0049594615            0   0.59096596    1.4211087    2.0170342   -3.7658474 
12620000    1.1181729 -9.8115798e-05   0.39804002   0.01070016            0   0.38733986    1.6353278    2.0333679   -8.0136899 
12625000    1.0439957 -4.9461725e-05   0.46355691  0.022136926            0   0.44141999    1.5268436    1.9904006     -3.07448 
12630000    1.0371121 2.606354e-05   0.44792543 0.0098389793            0   0.43808645    1.5167764    1.9647018    4.6336083 
12635000   0.94032178 -2.6294975e-05   0.61597665 0.00088216894            0   0.61509448    1.3752206    1.9911972  -0.70140818 
12640000    0.9978876 -5.5013213e-05   0.57326411 0.0053558794            0   0.56790823    1.4594106    2.0326747   -3.6006783 
12645000     1.044968 2.2729405e-05    0.5146358  0.053042473            0   0.46159333    1.5282657    2.0429015    4.3703926 
12650000    1.0009269 -2.476406e-07   0.56033504  0.051715308            0   0.50861974    1.4638555    2.0241906    1.9988322 
12655000    1.0172266 -4.3412544e-06   0.53432789  0.010345575            0   0.52398232    1.4876938    2.0220217    1.5774773 
12660000    1.0256991 -7.4920841e-05   0.48399695  0.010519162            0   0.47347778     1.500085     1.984082   -5.6878121 
12665000    1.1492735 -1.3718939e-05    0.3764524 0.0038962104            0   0.37255619    1.6808125    2.0572649   0.65244554 
12670000    1.0464343 3.755502e-05   0.51757267  0.001732838            0   0.51583983    1.5304101    2.0479828    5.8936168 
12675000    1.1064121 -4.3043911e-05   0.42189606 0.00068407903            0   0.42121198    1.6181277    2.0400238   -2.3676726 
12680000     1.092411 -4.949125e-05   0.44349487 0.00064139293            0   0.44285347    1.5976511     2.041146    -3.026758 
12685000    1.0237018 3.3528015e-05   0.50884429   0.01837526            0   0.49046903    1.4971639    2.0060082    5.4392769 
12690000    1.0762703 8.1294744e-05   0.40980004  0.036654797            0   0.37314524    1.5740453    1.9838453    10.308427 
12695000    1.0487306 4.0422912e-05   0.46249433  0.014430871            0   0.44806346    1.5337684    1.9962628     6.135569 
12700000    1.0248022 2.9636365e-05   0.51370103 0.0036944703            0   0.51000655    1.4987732    2.0124742    5.0472379 
12705000    1.0612338 1.7942548e-05   0.46423876 0.0036511677            0    0.4605876    1.5520544    2.0162932    3.8536101 
12710000    1.1092807 -1.9984383e-05   0.35650989 0.0032138532            0   0.35329603    1.6223231     1.978833 -0.067567818 
12715000     1.074403 -4.4423759e-05   0.42810603 8.3809868e-05            0   0.42802222    1.5713144    1.9994205   -2.5495724 
12720000    1.0372416 -5.7715207e-05   0.48473844            0            0   0.48473844    1.5169658    2.0017043    -3.908333 
12725000    1.1085836 -1.3859825e-05    0.4058723            0            0    0.4058723    1.6213035    2.0271758   0.60792973 
12730000    1.0709896 4.6404753e-05   0.50564968            0            0   0.50564968    1.5663223    2.0719719    6.8238187 
12735000    1.0936891 -1.6416272e-05   0.42423372            0            0   0.42423372    1.5995203     2.023754   0.34272772 
12740000    1.0827124 -5.5147329e-05   0.42202217 0.0001553282            0   0.42186684    1.5834669     2.005489   -3.6415975 
12745000    1.1123451 3.8927232e-05   0.41986437 0.0050677247            0   0.41479664    1.6268047    2.0466691    6.0328176 
12750000    1.0738683 9.2656792e-05   0.45600902  0.014228055            0   0.44178096    1.5705324    2.0265414    11.514597 
12755000    1.0791603 0.00013555584   0.45811848  0.018001808            0   0.44011667    1.5782719    2.0363904    15.917308 
12760000    1.0578974 3.3772963e-05   0.51334152   0.06342685            0   0.44991467    1.5471749    2.0605164    5.5188679 
12765000    1.0482844 -3.2103162e-06   0.50442344  0.051235203            0   0.45318824    1.5331159    2.0375394     1.708803 
12770000    1.1085854 4.9424209e-05   0.39707561  0.025782813            0    0.3712928    1.6213062    2.0183818    7.0794208 
12775000   0.98316018 -1.0488054e-05   0.53265347  0.039437636            0   0.49321583    1.4378718    1.9705252   0.89654855 
12780000    1.0037868 4.9374807e-05   0.52380454  0.035055906            0   0.48874863    1.4680382    1.9918427    7.0478229 
12785000    1.0810584 -1.3033767e-05    0.4395278  0.015108982            0   0.42441882    1.5810479    2.0205757     0.685918 
12790000   0.99678388 -9.1495243e-05   0.61650626   0.10472926            0     0.511777    1.4577964    2.0743027   -7.2948102 
12795000    1.0779977 -5.9216053e-05     0.523799  0.022844259            0   0.50095474    1.5765717    2.1003706   -3.9633532 
12800000    1.1081907 -3.4798417e-05   0.44420072            0            0   0.44420072    1.6207289    2.0649296   -1.4984283 
12805000    1.0695767 -6.3968143e-05   0.47788187            0            0   0.47788187     1.564256    2.0421378      -4.5082 
12810000    1.0270569 -6.6665307e-05   0.52977377            0            0   0.52977377    1.5020707    2.0318445    -4.794683 
12815000    1.0360704 -3.5126105e-05   0.52089136            0            0   0.52089136    1.5152529    2.0361443   -1.5607689 
12820000    1.0191173 -3.2253526e-05   0.57689195 0.0034648198            0   0.57342713     1.490459    2.0673509   -1.2354101 
12825000     1.034998 -3.7083817e-05   0.54390113  0.024133851            0   0.51976727    1.5136846    2.0575857   -1.7397972 
12830000     1.066555 -7.6244294e-06   0.47662954  0.038645104            0   0.43798444    1.5598367    2.0364662    1.2557247 
12835000   0.97708087 3.9089585e-06   0.59658444  0.036520825            0   0.56006362    1.4289808    2.0255652    2.4258426 
12840000     1.098059 -2.0774694e-05   0.39573979  0.032132288            0    0.3636075    1.6059112     2.001651  -0.12567764 
12845000   0.97436903 -6.2936654e-05   0.58556429  0.037520945            0   0.54804335    1.4250147     2.010579   -4.4341343 
12850000   0.98578446 -2.0909092e-05   0.57222733  0.030290036            0    0.5419373    1.4417098    2.0139371  -0.12715393 
12855000   0.96902857 2.8089999e-05   0.58696943  0.078336134            0    0.5086333    1.4172043    2.0041737    4.8805896 
12860000    1.0522594 7.7100648e-05   0.47039457  0.030142438            0   0.44025213    1.5389294     2.009324    9.9044303 
12865000   0.98072794 2.4747337e-05   0.56120257 0.0052658454            0   0.55593672    1.4343146    1.9955172    4.5296445 
12870000    1.1140067 -1.4376663e-05   0.33275964 0.0030809883            0   0.32967865    1.6292348    1.9619944   0.48982415 
12875000   0.95174288 -3.3220252e-05   0.54775969  0.014430752            0   0.53332893     1.391924    1.9396836   -1.4620701 
12880000      1.05252 4.8968731e-05   0.38575508    0.0215274            0   0.36422768    1.5393106    1.9250656    6.9394637 
12885000    1.0019907 8.409356e-05   0.43950717 0.0076857952            0   0.43182137    1.4654114    1.9049186    10.516099 
12890000   0.94992458 3.5167028e-06   0.49513422  0.063601095            0   0.43153313    1.3892647    1.8843989    2.2445093 
12895000    1.0180291 -5.7460612e-05   0.40296023  0.017893209            0   0.38506703    1.4888676    1.8918278   -3.9921389 
12900000      1.03613 -7.1685911e-08   0.34539107  0.016897886            0   0.32849318    1.5153401    1.8607311    1.8533905 
12905000   0.92214952 8.8130857e-05   0.52138321  0.037396153            0   0.48398706    1.3486437    1.8700269    10.894627 
12910000    1.0367433 2.0393586e-05   0.34022246  0.021435471            0   0.31878699     1.516237    1.8564595    3.9447627 
12915000   0.94830481 -6.9301726e-05   0.44122303 0.0061660365            0     0.435057    1.3868958    1.8281188   -5.2683779 
12920000   0.97509537 -6.004606e-05   0.34660203 0.0069204867            0   0.33968154     1.426077     1.772679   -4.3760375 
12925000   0.96248826 2.7897891e-05   0.35195073  0.022333263            0   0.32961747    1.4076391    1.7595898    4.6163338 
12930000   0.88315383 7.5386689e-05   0.51192997  0.021585921            0   0.49034405    1.2916125    1.8035425    9.5231394 
12935000   0.96762745 -2.1112273e-06   0.41700849  0.020990884            0   0.39601761    1.4151551    1.8321636     1.615974 
12940000   0.96276685 -4.5028483e-05   0.43174487  0.025907915            0   0.40583695    1.4080465    1.8397914   -2.7711253 
12945000   0.96747103 1.1002602e-05   0.42381838  0.019460096            0   0.40435828    1.4149264    1.8387448    2.9654112 
12950000    1.0145738 3.663114e-05   0.37558714  0.016419509            0   0.35916763    1.4838141    1.8594013      5.61043 
12955000   0.96980908 1.9041268e-05   0.44439604  0.021634012            0   0.42276203    1.4183458    1.8627418    3.8125677 
12960000    1.0169511 1.5064324e-05   0.37242162  0.022374749            0   0.35004687    1.4872909    1.8597125    3.4022994 
12965000   0.93101071 -1.7662452e-05    0.5184061  0.043506804            0    0.4748993    1.3616032    1.8800093  0.071374194 
12970000   0.94981582 -1.4804265e-05   0.49956088  0.058024206            0   0.44153668    1.3891056    1.8886665   0.37270977 
12975000    1.0055964 2.0636761e-05   0.37801587  0.063726372            0    0.3142895    1.4706847    1.8487006    3.9619049 
12980000   0.98137455 3.1334217e-05   0.40475049  0.013661137            0   0.39108935    1.4352603    1.8400108    5.0486346 
12985000    0.9427932 1.7308296e-05   0.40989412  0.049523628            0   0.36037049    1.3788351    1.7887292    3.5610987 
12990000   0.94078163 4.4464013e-06   0.38687245  0.027503657            0   0.35936879    1.3758931    1.7627656    2.2180771 
12995000   0.93278622 -2.2212206e-05   0.39940903  0.038755516            0   0.36065351    1.3641999    1.7636089  -0.51092104 
13000000   0.89490616 1.0396097e-05   0.42469056  0.065178374            0   0.35951219    1.3088003    1.7334908    2.7980512 
13005000   0.95741072 2.5043512e-06   0.34869475  0.001628043            0   0.34706671    1.4002132    1.7489079    2.0053535 
13010000   0.89126261 -3.2255026e-06   0.42213891 0.00016409003            0   0.42197482    1.3034716    1.7256105     1.395319 
13015000   0.94099074 -1.0403962e-05   0.37543209   0.01204511            0   0.36338698     1.376199    1.7516311   0.68626535 
13020000    0.9404357 -5.8851059e-06   0.39635476   0.02617265            0   0.37018211    1.3753872     1.771742    1.1691071 
13025000   0.89761551 1.8604296e-06   0.48390708  0.013709905            0   0.47019718    1.3127627    1.7966698    1.9871778 
13030000     1.003563 2.9478283e-05    0.3348795 0.0028453825            0   0.33203412    1.4677109    1.8025904    4.8211666 
13035000   0.97287746 4.2407116e-05   0.36157331  0.010239098            0   0.35133421    1.4228333    1.7844066    6.1268952 
13040000   0.97975454 -1.156196e-06   0.34874247  0.027137078            0   0.32160539     1.432891    1.7816335     1.663239 
13045000   0.93513302 -6.2152848e-05   0.41564791 0.0064629337            0   0.40918498     1.367632    1.7832799   -4.5811717 
13050000   0.99642628 -1.0637669e-06   0.36865602  0.007515523            0   0.36114049    1.4572734    1.8259294    1.7169997 
13055000    1.0345199 2.3015593e-05   0.32863629  0.015361457            0   0.31327483    1.5129854    1.8416217    4.1984184 
13060000    1.0678192 6.4606423e-06   0.28043664  0.017678658            0   0.26275798    1.5616856    1.8421222     2.503692 
13065000   0.99786856 5.2415951e-05    0.3943283 0.0066849349            0   0.38764337    1.4593828    1.8537111    7.2211045 
13070000    1.0673874 6.8341222e-05   0.25641687 0.0018087647            0   0.25460811    1.5610541    1.8174709     8.815612 
13075000    0.9701131 2.297692e-05   0.39250879 0.00011950234            0   0.39238929    1.4187904    1.8112992    4.1641358 
13080000    1.0052871 -7.534993e-06   0.32821269 0.0010904907            0    0.3271222    1.4702324    1.7984451    1.0268618 
13085000   0.94208553 -2.4376072e-05    0.4237476 0.00091400405            0    0.4228336    1.3778001    1.8015477   -0.6945621 
13090000    1.0460951 9.4287927e-06   0.27441551 0.00016081554            0    0.2742547     1.529914    1.8043295    2.7698379 
13095000   0.98149949 6.9172369e-05   0.35804999            0            0   0.35804999     1.435443     1.793493    8.8767435 
13100000    1.0282612 -3.0501158e-05   0.29437509  0.011428402            0   0.28294668     1.503832    1.7982071   -1.3251114 
13105000   0.89736041 -0.00010077935   0.52827515   0.10936414            0   0.41891101    1.3123896    1.8406647   -8.4791405 
13110000    1.0133176 -7.0479347e-06   0.37303279  0.052941103            0   0.32009169     1.481977    1.8550098    1.1333013 
13115000    1.0205244 2.8434116e-05   0.30688443 0.0019905618            0   0.30489386     1.492517    1.7994014    4.7110548 
13120000   0.92309257 2.7432441e-05   0.39841722            0            0   0.39841722    1.3500229    1.7484401    4.5575221 
13125000   0.95298447 1.5626558e-05   0.32622855 0.0023462941            0   0.32388226    1.3937398    1.7199683    3.3201279 
13130000   0.92172273 5.4510108e-05    0.4323359  0.044003253            0   0.38833265    1.3480195    1.7803554    7.3621905 
13135000   0.84296573 3.4611765e-05    0.5438581  0.083966523            0   0.45989158    1.2328374    1.7766955    5.3209403 
13140000   0.87985426 -3.5933362e-05   0.45059626  0.051481516            0   0.39911474    1.2867869    1.7373831   -1.9421932 
13145000    0.9526737 -1.9290925e-05   0.38189699  0.077414777            0   0.30448222    1.3932853    1.7751823  -0.20020846 
13150000    1.0036118 4.5179137e-05    0.3151076  0.038488262            0   0.27661933    1.4677822    1.7828898    6.4092335 
13155000   0.97129125 2.8157634e-05   0.32809138 0.0097968726            0    0.3182945    1.4205135    1.7486048    4.6319466 
13160000   0.96281473 -1.1541122e-05   0.34140214  0.016460815            0   0.32494132    1.4081165    1.7495187   0.56770779 
13165000   0.87902756 1.350758e-05   0.44170416 0.0044469412            0   0.43725722    1.2855778     1.727282    3.1104582 
13170000   0.92721597 4.7933769e-05   0.36732961  0.012957906            0   0.35437171    1.3560534     1.723383    6.6318009 
13175000   0.89183548 3.5620501e-05   0.42693442  0.012797837            0   0.41413658    1.3043094    1.7312438    5.3787831 
13180000    1.0393809 -4.4868074e-05   0.28007635 0.00076502146            0   0.27931133    1.5200946     1.800171   -2.7943199 
13185000    1.0320577 -4.9830186e-05   0.29722461            0            0   0.29722461    1.5093844     1.806609   -3.2960021 
13190000   0.99515945 -9.8653466e-06   0.35019717            0            0   0.35019717    1.4554207    1.8056179   0.79540638 
13195000   0.96647837 -8.4316976e-06    0.4006778            0            0    0.4006778    1.4134746    1.8141524   0.95074657 
13200000    1.0055042 2.7433207e-05   0.36893213 0.0013710794            0   0.36756105    1.4705498     1.839482    4.6486423 
13205000   0.89879498 1.2115154e-05   0.51511492  0.026841554            0   0.48827336    1.3144877    1.8296026    3.0701943 
13210000   0.99371934 4.7042517e-05   0.36912184  0.036301848            0      0.33282    1.4533145    1.8224364    6.6395902 
13215000   0.99872888 -4.4104113e-05   0.39858164 0.0082396073            0   0.39034203     1.460641    1.8592226   -2.6570385 
13220000   0.98256217 -3.9223392e-05   0.43806701   0.02284321            0    0.4152238    1.4369972    1.8750642   -2.1414112 
13225000    1.0097115 3.7481826e-05   0.43242776 0.0085513207            0   0.42387644    1.4767031    1.9091309    5.7472698 
13230000    1.0603116 6.6244081e-06   0.34995532            0            0   0.34995532    1.5507057     1.900661    2.5790004 
13235000    1.0135612 -7.5478569e-05   0.44547915 0.0023412283            0   0.44313792    1.4823333    1.9278124   -5.8011931 
13240000    1.0011351 -9.4484366e-05   0.45756874  0.032563632            0   0.42500511      1.46416    1.9217288   -7.7534703 
13245000   0.96731903 -5.7105366e-05   0.55347404  0.045348765            0   0.50812527    1.4147041    1.9681781   -3.8794113 
13250000    1.1367122 -2.1344111e-05   0.27869626  0.043697609            0   0.23499865    1.6624416    1.9411378  -0.24449909 
13255000    0.9981853 -8.6103939e-06    0.4484366  0.060713939            0   0.38772266     1.459846    1.9082826    1.0265783 
13260000   0.94767983 -3.0439302e-05   0.48261969 0.0015931861            0   0.48102651    1.3859818    1.8686014    -1.248383 
13265000     1.078899 3.3728259e-05    0.3127114            0            0    0.3127114    1.5778898    1.8906012    5.3443749 
13270000     1.007336 9.4846402e-05   0.37896021            0            0   0.37896021     1.473229    1.8521892    11.564461 
13275000    1.1059841 6.6429693e-05   0.22508077 0.0021511103            0   0.22292966    1.6175017    1.8425825     8.644983 
13280000    1.0255443 1.3172536e-06   0.32539639  0.015801676            0   0.30959471    1.4998585    1.8252549    1.9601416 
13285000   0.87169339 -2.4137699e-05   0.52518425  0.027768275            0   0.49741598    1.2748516    1.8000358  -0.67166453 
13290000    0.9899291 1.9172228e-05     0.383733  0.056300689            0   0.32743231    1.4477713    1.8315043    3.7947404 
13295000     1.031319 7.0323031e-05   0.34802679  0.084030307            0   0.26399649     1.508304    1.8563308    9.0574092 
13300000   0.90793755 -2.2572999e-05   0.52180334  0.089895766            0   0.43190757    1.3278587     1.849662  -0.46181308 
13305000   0.98244551 -5.6714921e-05   0.46245726  0.063682983            0   0.39877428    1.4368266    1.8992838   -3.9083241 
13310000   0.99061862 -5.4020525e-06   0.45328918  0.022652799            0   0.43063638    1.4487797    1.9020689    1.3488987 
13315000    1.0699193 -2.673339e-05   0.32984675  0.019212571            0   0.31063418    1.5647569    1.8946037  -0.84289543 
13320000    1.0236769 1.6296579e-05   0.38014982 0.0085480776            0   0.37160174    1.4971275    1.8772773    3.5460471 
13325000    1.1166952 -4.7538262e-05   0.24629678  0.017009511            0   0.22928727    1.6331667    1.8794634   -2.9884546 
13330000    1.0037355 -6.4627241e-05   0.40081551  0.035080223            0   0.36573529    1.4679632    1.8687787   -4.7490508 
13335000    1.0146788 -5.7295978e-06    0.4078817   0.07686226            0   0.33101944    1.4839677    1.8918494    1.3051386 
13340000   0.96398435 -3.9346086e-05   0.45153361   0.12411942            0   0.32741419    1.4098271    1.8613607   -2.1676785 
13345000   0.89306541 -9.5787477e-05   0.53156064  0.042400814            0   0.48915982    1.3061082    1.8376688   -7.9709688 
13350000   0.91564967 -6.4316469e-05   0.45937706  0.021974271            0   0.43740279    1.3391376    1.7985147   -4.7874917 
13355000   0.96918674 9.3630388e-06   0.40693676  0.025035837            0   0.38190092    1.4174356    1.8243724    2.7831475 
13360000   0.95882642 4.9533938e-06   0.44972542  0.031962422            0     0.417763    1.4022836    1.8520091    2.3592366 
13365000    1.0831321 7.1763904e-05   0.27594833  0.038781106            0   0.23716722    1.5840807     1.860029    9.2086528 
13370000    1.0709312 3.9525666e-05   0.30748411 9.6432056e-05            0   0.30738768    1.5662369     1.873721    5.9211492 
13375000    1.0897541 -5.6163116e-05   0.28875085 0.00025098276            0   0.28849987    1.5937654    1.8825162   -3.8685869 
13380000   0.99131381 -4.2140926e-05   0.40222943 0.0079835328            0   0.39424589    1.4497965    1.8520259   -2.4632049 
13385000   0.96469301 5.8116912e-06   0.41550492  0.014555627            0   0.40094929    1.4108635    1.8263684    2.4214856 
13390000   0.97808464 5.7212714e-05   0.39140051  0.025609318            0   0.36579119    1.4304488    1.8218493    7.6804312 
13395000   0.85679554 5.064577e-05   0.59406982  0.062259587            0   0.53181023    1.2530635    1.8471333    7.0332601 
13400000   0.93548108 -2.8178089e-06   0.47570292  0.024903426            0   0.45079949    1.3681411     1.843844    1.5553004 
13405000    1.0164308 4.3960796e-06   0.35989376 0.0051918374            0   0.35470192    1.4865301    1.8464239    2.2965824 
13410000   0.99100936 -3.4569914e-05   0.38640511  0.010767542            0   0.37563757    1.4493512    1.8357563   -1.7042029 
13415000   0.92693804 -0.00011708494   0.47163675  0.015608541            0    0.4560282    1.3556469    1.8272836   -10.162214 
13420000   0.92883849 -8.6361259e-05   0.46460212  0.010083135            0   0.45451898    1.3584263    1.8230284   -7.0203645 
13425000   0.94086524 -8.3130616e-06   0.40186353  0.029367168            0   0.37249636    1.3760154    1.7778789   0.92662143 
13430000   0.90838393 5.8185771e-05   0.45033664  0.045728812            0   0.40460782    1.3285115    1.7788481    7.7370711 
13435000   0.94539142 2.9433889e-05   0.44387578  0.010385362            0   0.43349042    1.3826349    1.8265107    4.8405409 
13440000   0.95196362 -6.9861854e-06   0.47553802 0.0040957755            0   0.47144224    1.3922468    1.8677848    1.1523994 
13445000    1.0300336 4.3371453e-05   0.40799234  0.013032602            0   0.39495973    1.5064242    1.9144165    6.3556534 
13450000   0.98732298 4.6569821e-05   0.46187485 0.0076646649            0   0.45421019    1.4439599    1.9058347    6.6745844 
13455000   0.96953808 -4.373995e-05   0.49122367 0.00082673491            0   0.49039694    1.4179494    1.9091731   -2.5697978 
13460000    1.0231305 -9.9691937e-05    0.3815866 0.0046889084            0   0.37689769    1.4963284     1.877915   -8.3305394 
13465000    1.0227562 -4.8729884e-05   0.37817547 0.0090372213            0   0.36913825     1.495781    1.8739564   -3.1159837 
13470000   0.90790549 -1.8278556e-05   0.48911874 0.0051652567            0   0.48395348    1.3278118    1.8169305  -0.05479363 
13475000   0.87356218 6.3474228e-06   0.56078277 0.0013956082            0   0.55938716    1.2775847    1.8383675    2.4883435 
13480000   0.99832166 -2.460792e-05   0.36485069  0.011637402            0   0.35321328    1.4600454    1.8248961  -0.69495488 
13485000    0.9546591 -9.7708439e-05   0.44414768  0.019665676            0   0.42448201    1.3961889    1.8403366   -8.1650076 
13490000   0.98054093 -2.0743216e-05   0.38279026 0.0061945335            0   0.37659572    1.4340411    1.8168314  -0.30727393 
13495000   0.95535024 7.5340769e-07   0.39831734 0.0015032208            0   0.39681412    1.3971997    1.7955171     1.872666 
13500000   0.98388296 8.934713e-06   0.35888805 0.0086569326            0   0.35023111    1.4389288    1.7978169    2.7127315 
13505000   0.93022645 5.408792e-05   0.46207093  0.022917074            0   0.43915385    1.3604562    1.8225271    7.3611302 
13510000   0.95919144 9.1882906e-05   0.39964396 0.0089548464            0   0.39068912    1.4028175    1.8024614    11.211271 
13515000   0.91190531 3.7875717e-05    0.4870549 0.00024097054            0   0.48681393    1.3336615    1.8207164    5.6991899 
13520000   0.96788464 -6.485066e-05   0.45388521            0            0   0.45388521    1.4155313    1.8694165   -4.7712911 
13525000   0.94468986 -5.9784097e-05   0.50488522            0            0   0.50488522    1.3816089    1.8864941   -4.2353974 
13530000    1.0200225 3.7700754e-06   0.40401443 0.00036519132            0   0.40364924    1.4917829    1.8957974    2.2818531 
13535000   0.98904399 1.743515e-05   0.46705269 0.0066353725            0   0.46041732    1.4464768    1.9135295    3.6988889 
13540000    1.0372502 -1.0142504e-05   0.41602864  0.021743094            0   0.39428554    1.5169784    1.9330071   0.89441462 
13545000    1.0446884 -2.1757478e-05   0.42756483  0.019681632            0    0.4078832    1.5278567    1.9554216  -0.27254417 
13550000   0.93649655 1.7454375e-06   0.52424776  0.019236935            0   0.50501083    1.3696262     1.893874    2.0726068 
13555000   0.94398855 -5.1193885e-05   0.52549754  0.042737875            0   0.48275967    1.3805833    1.9060808    -3.336173 
13560000   0.95886416 -5.9714811e-05   0.56151663  0.024928804            0   0.53658783    1.4023388    1.9638555   -4.1509412 
13565000    1.0301741 -2.1032246e-05   0.46750557 0.0062763515            0   0.46122922    1.5066296    1.9741352   -0.1795668 
13570000    1.0698664 1.1164248e-05   0.38243113 0.0038499149            0   0.37858121    1.5646797    1.9471108    3.0903298 
13575000     1.039988 8.1220944e-06   0.40144777 0.00019210078            0   0.40125567    1.5209825    1.9224302    2.7541327 
13580000   0.88765985 2.1542665e-05     0.632184            0            0     0.632184    1.2982025    1.9303865    4.1363555 
13585000   0.99460442 -1.691078e-05   0.49454435 9.8443681e-05            0   0.49444591     1.454609    1.9491533   0.21748947 
13590000   0.95254715 -6.2997332e-06   0.53296739 0.0065086207            0   0.52645877    1.3931002    1.9260676    1.2809749 
13595000    1.0341871 5.5272619e-05   0.43014161  0.010349842            0   0.41979177    1.5124986    1.9426402    7.6025564 
13600000    1.0474228 1.971448e-05   0.48276725 0.0044818358            0   0.47828542    1.5318558     2.014623    4.0333858 
13605000   0.95451297 -3.1205366e-05   0.57368363 0.0010167253            0   0.57266691    1.3959752    1.9696589   -1.2257706 
13610000     1.062129 -4.9432411e-05   0.40270999 0.0012033785            0   0.40150662    1.5533637    1.9560737   -3.1058052 
13615000   0.99033925 3.1868183e-05   0.51913228 0.00063823534            0   0.51849405    1.4483712    1.9675034    5.2308054 
13620000    1.0312476 -4.4788767e-05   0.48716991 0.00087374922            0   0.48629616    1.5081996    1.9953695   -2.5910002 
13625000    1.0039653 -4.4194858e-05   0.51668622 0.0099033731            0   0.50678284    1.4682993    1.9849855   -2.5405679 
13630000    1.1053874 -8.3802765e-06     0.374855  0.013441415            0   0.36141359    1.6166291    1.9914841    1.1333438 
13635000   0.99476623 -0.00010729978   0.58705151  0.034110472            0   0.55294103    1.4548456    2.0418971   -8.9456009 
13640000    1.0499478 -7.3608807e-06   0.56723931   0.11971167            0   0.44752764    1.5355486     2.102788    1.3490338 
13645000    1.1070334 7.888722e-05   0.49405744  0.049628639            0    0.4444288    1.6190364    2.1130938    10.191145 
13650000    1.0145387 4.4560646e-05   0.64685549  0.010440872            0   0.63641462    1.4837628    2.1306183    6.6936284 
13655000    1.0799088 2.3659026e-05   0.56044681 2.6495899e-05            0   0.56042031    1.5793667    2.1398135    4.5624977 
13660000    1.1107167 2.8773723e-05   0.55699314 0.0020961013            0   0.55489704    1.6244231    2.1814163    5.1278455 
13665000    1.0185685 2.6805747e-05   0.65899087  0.025798968            0   0.63319191    1.4896564    2.1486473    4.8935557 
13670000    1.1925981 2.8205493e-05   0.41424155  0.012544737            0   0.40169681    1.7441748    2.1584163    5.0466588 
13675000    1.0800591 5.3695079e-05   0.52450944 8.0777929e-06            0   0.52450136    1.5795864    2.1040959     7.602472 
13680000    1.1089005 4.4675633e-05   0.47307749 0.0060437055            0   0.46703378    1.6217669    2.0948444    6.6696293 
13685000     1.030487 -6.3677932e-05   0.56123313  0.028856225            0   0.53237691    1.5070873    2.0683204   -4.4522999 
13690000   0.99258426 -7.0738389e-05   0.62916211  0.043753675            0   0.58540843    1.4516545    2.0808166   -5.1627944 
13695000    1.1196486 6.6494743e-05   0.44400785  0.021271227            0   0.42273663    1.6374861    2.0814939    8.8905556 
13700000    1.0683478 0.00011758853   0.56350245  0.010145881            0   0.55335657    1.5624587    2.1259611    14.167027 
13705000   0.99720688 -1.8267528e-05   0.66617397  0.057761228            0   0.60841274    1.4584151     2.124589   0.25399415 
13710000    1.0830645 -3.2595631e-05   0.57608571   0.04421513            0   0.53187058    1.5839819    2.1600676    -1.177725 
13715000    1.0856785 9.0835723e-05   0.55323353  0.041717125            0   0.51151641    1.5878049    2.1410384    11.442616 
13720000    1.0737585 7.3505373e-05   0.58031226 0.0074753747            0   0.57283689    1.5703719    2.1506841    9.6776343 
13725000    1.0987672 -6.0178593e-05   0.52903317 0.00043619623            0   0.52859697    1.6069471    2.1359802   -4.0263077 
13730000      1.22284 -5.3526473e-05   0.33190299 0.00019088337            0   0.33171211    1.7884035    2.1203065   -3.3608044 
13735000     1.168387 -2.3803141e-05   0.42290589 0.0006602408            0   0.42224565     1.708766    2.1316719  -0.30576976 
13740000    1.1154604 -3.4974317e-05   0.50401266 0.0041656889            0   0.49984697    1.6313608    2.1353735   -1.4459965 
13745000    1.0577185 4.4867751e-05   0.57617206  0.019465372            0   0.55670669    1.5469132    2.1230853     6.717543 
13750000    1.1427094 1.9526948e-05   0.48611761  0.013098405            0    0.4730192    1.6712125    2.1573301    4.1568896 
13755000    1.1677102 -3.5715896e-05   0.50302056  0.037105218            0   0.46591534    1.7077762    2.2107967   -1.4465111 
13760000    1.1388292 -6.7171624e-05   0.55642677   0.06409033            0   0.49233644    1.6655377    2.2219645   -4.6564098 
13765000    1.1193773 -3.7600771e-05   0.54401987  0.033379362            0   0.51064051    1.6370893    2.1811092   -1.6692098 
13770000   0.99571949 -8.2297397e-06   0.72177319 0.0065659083            0   0.71520728    1.4562398    2.1780129    1.3352876 
13775000    1.1345628 4.8293327e-07    0.5341026            0            0    0.5341026    1.6592981    2.1934007     2.242853 
13780000    1.1503198 -6.7795652e-06   0.52151811            0            0   0.52151811    1.6823428    2.2038609    1.5096334 
13785000    1.1517024 3.2648938e-05   0.50233131            0            0   0.50233131    1.6843647     2.186696    5.5299472 
13790000    1.1728297 1.6936141e-05   0.47713591            0            0   0.47713591    1.7152634    2.1923993    3.9266602 
13795000    1.0667873 -3.8444311e-05   0.66832705 0.0047939671            0   0.66353309    1.5601765    2.2285035   -1.7081939 
13800000    1.0745273 -3.7089339e-05     0.679426  0.017054313            0   0.66237169    1.5714961    2.2509221   -1.5470262 
13805000    1.2733799 -2.940155e-06   0.40117642 0.0043385245            0   0.39683789    1.8623181    2.2634946    1.9624227 
13810000    1.2028594 -2.6871288e-05   0.50356981 0.00068543252            0   0.50288437    1.7591819    2.2627517  -0.48886819 
13815000    1.2074192 -6.4700601e-05   0.53339531 0.0063376468            0   0.52705766    1.7658506    2.2992459   -4.3260956 
13820000    1.1166507 -1.8105363e-05   0.69567253  0.014735694            0   0.68093684    1.6331017    2.3287742    0.4747851 
13825000   0.98972728 3.5172817e-05   0.84913092  0.078105415            0   0.77102551    1.4474761    2.2966071    5.8983035 
13830000    1.3431406 1.5854501e-05   0.34447843  0.018420922            0   0.32605751    1.9643432    2.3088216    3.9323225 
13835000    1.1443804 2.9557178e-05   0.57289342            0            0   0.57289342    1.6736563    2.2465497    5.2732047 
13840000    1.1425606 2.5895181e-06   0.56593842    0.0118808            0   0.55405762    1.6709949    2.2369333       2.5021 
13845000    1.0844005 -2.5200777e-05   0.62345958  0.054665289            0   0.56879429    1.5859357    2.2093953  -0.37116435 
13850000    1.1067804 -3.328112e-05   0.56918702   0.01209177            0   0.55709525    1.6186664    2.1878534   -1.2201333 
13855000    1.0140523 -3.9328816e-05   0.71150173  0.026118584            0   0.68538315    1.4830514    2.1945532   -1.8327176 
13860000    1.2016052 -5.3501083e-05   0.44287043  0.016676935            0    0.4261935    1.7573477    2.2002181   -3.2782928 
13865000    1.1233821 -1.9853185e-05   0.52879578 0.00043893851            0   0.52835684    1.6429464    2.1717421   0.13877603 
13870000    1.0098266 5.2648237e-05   0.69692041 0.00046995292            0   0.69645046    1.4768714    2.1737918    7.5649712 
13875000     1.033179 -9.9283018e-06    0.6666266  0.012678784            0   0.65394781    1.5110244     2.177651    1.1609928 
13880000    1.1410966 -2.1327105e-05   0.48780125  0.027892661            0   0.45990859    1.6688537     2.156655 -0.027240588 
13885000    1.1226407 9.2816634e-06   0.48888053  0.015238994            0   0.47364154     1.641862    2.1307426    3.0811849 
13890000   0.98095788 3.7653101e-05   0.69889193  0.029392633            0    0.6694993    1.4346509    2.1335428    5.9892204 
13895000   0.98798855 3.2533334e-05    0.6301154  0.030652222            0   0.59946318    1.4449333    2.0750487    5.4064621 
13900000    1.1119003 -1.9593767e-06   0.45715597  0.028282154            0   0.42887382    1.6261542    2.0833102      1.88267 
13905000    1.0533375 -4.9011586e-05   0.51989255  0.010499456            0   0.50939309    1.5405061    2.0603987   -2.9583877 
13910000   0.99605183 -1.1828717e-05   0.59975695 0.0022575483            0    0.5974994    1.4567258    2.0564828   0.84522209 
13915000    1.0187332 6.2253834e-05   0.57106809 4.2195394e-06            0   0.57106387    1.4898974    2.0609655    8.4357581 
13920000    1.0685438 4.2381673e-05    0.5237793 0.00031469233            0    0.5234646    1.5627454    2.0865247     6.426408 
13925000    1.0817552 3.3765093e-05    0.5336392  0.002811401            0    0.5308278    1.5820669    2.1157061    5.5732517 
13930000    1.0011779 2.2167293e-05   0.66409242   0.06271826            0   0.60137416    1.4642227    2.1283152    4.3982459 
13935000    1.0912829 -4.1840025e-05   0.55914431  0.047615998            0   0.51152831    1.5960013    2.1551456    -2.129273 
13940000    1.0989939 1.3474822e-05   0.53313836 0.0088813133            0   0.52425704    1.6072786    2.1404169    3.5202387 
13945000    1.2133503 3.0247407e-05   0.40554302   0.01096203            0   0.39458099    1.7745248    2.1800678    5.2774023 
13950000    1.1612833 2.0099571e-05   0.51310423 0.0045663801            0   0.50853785    1.6983768     2.211481    4.2696771 
13955000    1.1720638 5.4297236e-05   0.50304677  0.050560709            0   0.45248606    1.7141433    2.2171901    7.7772271 
13960000     1.015775 4.2026192e-05    0.7095193  0.087193387            0   0.62232591    1.4855709    2.1950902    6.4985722 
13965000    1.1475246 3.0257113e-05   0.46633623  0.014630613            0   0.45170562    1.6782547    2.1445909    5.2429194 
13970000    1.0700521 -1.2914248e-06   0.53179917 0.0046230033            0   0.52717617    1.5649512    2.0967504    1.9645085 
13975000    1.0204757 -3.9864042e-05   0.57571526  0.018297497            0   0.55741776    1.4924458     2.068161   -2.0139169 
13980000    1.0035303 -9.1190231e-05    0.6595955  0.012833286            0   0.64676222    1.4676631    2.1272586    -7.210621 
13985000    1.1191208 -1.8258859e-07   0.53892883 0.0044278585            0   0.53450097    1.6367141    2.1756429    2.1569459 
13990000    1.0748327 3.4941763e-05   0.58138565 4.1168135e-05            0   0.58134448    1.5719428    2.1533284     5.731365 
13995000    1.1224053 2.4186847e-05   0.47843367 0.0045222686            0    0.4739114    1.6415178    2.1199514    4.5966846 
14000000    1.1584409 -5.6449607e-07   0.44892667  0.014899266            0   0.43402741    1.6942198    2.1431465    2.0853421 
14005000    1.0896647 -2.3629019e-05   0.55475581 0.0084451733            0   0.54631064    1.5936347    2.1483905  -0.27122103 
14010000     1.129804 -4.1893978e-05   0.53578893 0.0007754559            0   0.53501347    1.6523384    2.1881273    -2.101816 
14015000    1.0947797 1.4526785e-06   0.56982768 0.00044362036            0   0.56938406    1.6011153     2.170943    2.3196973 
14020000    1.1402973 7.1829475e-05   0.51060566 0.0065317358            0   0.50407392    1.6676849    2.1782905    9.5336287 
14025000    1.1527142 3.8516656e-07    0.5112308 0.0051592094            0   0.50607159    1.6858445    2.1970753    2.2365163 
14030000    1.1375625 -4.3956194e-05    0.5575298 0.0026391205            0   0.55489068    1.6636852     2.221215   -2.2798994 
14035000    1.2131491 -6.2010039e-05   0.45343277 0.00046534107            0   0.45296743    1.7742306    2.2276634   -4.1221646 
14040000    1.2195057 -1.0966956e-05   0.41850223 0.0012260838            0   0.41727614     1.783527    2.2020293     1.079013 
14045000    1.1317519 -1.5587865e-05   0.57568013  0.048112881            0   0.52756725    1.6551871    2.2308672    0.6346699 
14050000    1.1280041 -7.5517648e-07   0.59027095  0.024353217            0   0.56591773     1.649706    2.2399769    2.1626469 
14055000    1.2345124 2.8685746e-05   0.42976182 1.5406259e-06            0   0.42976027    1.8054744    2.2352362    5.1726566 
14060000    1.1070973 2.563528e-05   0.61326303 0.0033376281            0    0.6099254    1.6191297    2.2323928    4.8574455 
14065000    1.3324833 1.4259752e-05   0.27492167  0.012376085            0   0.26254559    1.9487568    2.2236785    3.6838771 
14070000    1.1645621 -3.3941541e-05   0.53758439 0.0074797392            0   0.53010465     1.703172    2.2407564   -1.2348574 
14075000    1.1729316 6.4781518e-05    0.5286785 0.0058301979            0    0.5228483    1.7154124     2.244091    8.8777184 
14080000    1.1998588 4.321574e-05   0.49607538 0.0099079936            0   0.48616738    1.7547935    2.2508689    6.6761606 
14085000    1.1718009 -7.549265e-05   0.55468965  0.014496538            0   0.54019312    1.7137589    2.2684485   -5.4619988 
14090000    1.1880707 -7.3537293e-05    0.5424777  0.021943959            0   0.52053374    1.7375534    2.2800311   -5.2501877 
14095000    1.1744726 -5.1729246e-05   0.57147931  0.027961426            0   0.54351789    1.7176661    2.2891454   -3.0079293 
14100000    1.0939973 -4.3113875e-05   0.66669069  0.030158887            0    0.6365318     1.599971    2.2666617   -2.1481991 
14105000    1.1413509 -0.00010517276    0.5759912  0.035260175            0   0.54073102    1.6692257    2.2452169   -8.5244738 
14110000    1.0962105 -5.7611804e-05   0.67508295  0.063053099            0   0.61202985    1.6032079    2.2782908   -3.6211579 
14115000    1.0880499 0.00013547823     0.666012  0.015859092            0   0.65015291    1.5912729    2.2572849    16.130256 
14120000    1.0623518 9.9270897e-05   0.64113186  0.010246609            0   0.63088525    1.5536895    2.1948214    12.360161 
14125000    1.0348738 -3.1258654e-05   0.68173857  0.041290318            0   0.64044825     1.513503    2.1952416   -1.0056446 
14130000    1.1213332 -3.8677481e-05   0.56232819  0.035187963            0   0.52714023    1.6399498     2.202278   -1.7582961 
14135000    1.1280331 -6.0413052e-05   0.54893119  0.063177267            0   0.48575392    1.6497484    2.1986796   -3.9876169 
14140000    1.0983104 -8.3364325e-05   0.60775478  0.081681011            0   0.52607377     1.606279    2.2140338   -6.3224731 
14145000     1.100339  -4.5414e-05   0.64078336  0.019462404            0   0.62132095    1.6092458    2.2500291   -2.4003644 
14150000    1.1307306 -2.7415656e-05   0.58975206  0.012334266            0   0.57741779    1.6536934    2.2434455  -0.56391766 
14155000    1.1505353 -2.7802031e-05   0.51488427  0.016892989            0   0.49799128    1.6826579    2.1975422   -0.6493858 
14160000    1.0752573 3.7757065e-05   0.64860048   0.02526608            0    0.6233344    1.5725638    2.2211643    6.0874878 
14165000    1.1551401 7.5801134e-05   0.49732849 0.0021876771            0   0.49514081    1.6893923    2.1867208     9.948757 
14170000    1.1397036 7.8008622e-05   0.49399452            0            0   0.49399452    1.6668165     2.160811    10.148894 
14175000    1.0253729 8.0155947e-07   0.65302345 6.1089547e-06            0   0.65301735    1.4996079    2.1526313     2.234711 
14180000    1.1522744 -8.5128831e-06   0.47421323 0.0048456981            0   0.46936753    1.6852013    2.1594145    1.2876953 
14185000    1.1227913 3.6330498e-05   0.48829956 0.0080765753            0   0.48022298    1.6420823    2.1303818    5.8506249 
14190000    1.1527445 5.4745107e-06   0.47666439 0.0021801017            0   0.47448428    1.6858889    2.1625533    2.7231432 
14195000     1.017105 6.7183773e-06   0.62797354  0.010272787            0   0.61770075    1.4875161    2.1154897    2.8034515 
14200000    1.0129239 9.464358e-05   0.58399896   0.02334929            0   0.56064967    1.4814012    2.0654001    11.756903 
14205000    1.0845215 8.4715533e-05   0.50474521  0.018846565            0   0.48589865    1.5861126    2.0908579    10.765728 
14210000    1.1638931 -2.717306e-05   0.41116835  0.011751203            0   0.39941715    1.7021936     2.113362  -0.66915941 
14215000    1.0754753 -2.1083291e-05   0.56056261  0.026397808            0    0.5341648    1.5728826    2.1334452 -0.025483786 
14220000   0.98354285 -1.7727503e-05   0.69771512  0.036212746            0   0.66150238    1.4384314    2.1361465   0.32085025 
14225000    1.0693639 1.9753343e-05    0.5906014  0.019080158            0   0.57152124    1.5639447    2.1545461    4.1772884 
14230000    1.0397605 -4.3548246e-05   0.66338076 0.0011039422            0   0.66227682    1.5206497    2.1840305   -2.2753099 
14235000    1.1124573 -0.00013465754   0.55834436            0            0   0.55834436    1.6269689    2.1853132   -11.603619 
14240000    1.2350688 6.3472754e-06   0.39933638            0            0   0.39933638    1.8062881    2.2056245    2.8555855 
14245000    1.0605701 0.00010808343   0.62002488            0            0   0.62002488    1.5510838    2.1711087    13.238851 
14250000    1.0530429 5.5368129e-05   0.61280675            0            0   0.61280675    1.5400752     2.152882    7.8225783 
14255000    1.0254765 -2.8787957e-06   0.70125403            0            0   0.70125403    1.4997594    2.2010134    1.9062248 
14260000     1.063492 -2.7656043e-06   0.59898101 0.00063666079            0   0.59834435    1.5553571    2.1543381    1.8711402 
14265000   0.99844509 2.2015478e-06   0.71843511  0.041209281            0   0.67722583    1.4602259    2.1786611    2.4040996 
14270000    1.0741679 6.1264209e-06   0.64511344  0.063591227            0   0.58152222    1.5709706     2.216084    2.8434295 
14275000    1.2062918 4.0862758e-05   0.45533607   0.01338845            0   0.44194762    1.7642017    2.2195378    6.4038841 
14280000    1.1175747 2.6688111e-05   0.59356708  0.034081185            0   0.55948589     1.634453    2.2280201    4.9608826 
14285000    1.1795573 3.0504666e-05   0.53592418  0.043373987            0   0.49255019    1.7251025    2.2610267    5.3847045 
14290000    1.1561609 0.00010950953   0.58402509   0.01688058            0   0.56714451    1.6908852    2.2749103    13.488686 
14295000    1.1376215 6.4835628e-05   0.60953914  0.024580131            0   0.58495901    1.6637715    2.2733106    8.9124789 
14300000   0.99315744 -2.6944339e-05   0.79386014  0.055395449            0   0.73846469    1.4524928    2.2463529  -0.51274744 
14305000    1.2107787 7.0477466e-05   0.49706604  0.010739335            0   0.48632671    1.7707639    2.2678299    9.4847224 
14310000    1.1234965 6.4650111e-05   0.56972403 0.0046388819            0   0.56508515    1.6431136    2.2128377     8.833009 
14315000    1.0338313 -7.5631091e-05   0.71449942  0.022557044            0   0.69194238    1.5119782    2.2264777   -5.5181461 
14320000    1.1450457 -4.6769252e-06   0.57346728   0.03025761            0   0.54320967    1.6746294    2.2480967    1.7691795 
14325000    1.2184738 1.9886022e-05   0.51944308  0.009344548            0   0.51009853    1.7820179     2.301461    4.3377896 
14330000    1.1166277 -1.6974606e-05   0.64767505 0.0095419212            0   0.63813313     1.633068     2.280743   0.54254343 
14335000    1.1128597 -3.3598035e-05   0.66389062  0.018010289            0   0.64588034    1.6275573    2.2914479   -1.1489909 
14340000    1.2015672 1.9437064e-05   0.49416456  0.013860565            0   0.48030399     1.757292    2.2514566    4.2418119 
14345000    1.1329899 -6.826984e-05    0.5639615 0.0096606175            0   0.55430088    1.6569977    2.2209592   -4.7698724 
14350000    1.0393651 1.5747625e-05   0.70398315 0.0014174964            0   0.70256566    1.5200714    2.2240546    3.8366113 
14355000   0.97355929 2.4662756e-05   0.82218694 0.0022595991            0   0.81992734    1.4238305    2.2460174    4.7714836 
14360000    1.1845339 8.5238132e-06   0.48755662 0.0040988369            0   0.48345779    1.7323809    2.2199375     3.092776 
14365000    1.0659081 -2.6453548e-05   0.67335507 0.0024595215            0   0.67089555    1.5588905    2.2322456   -0.4765977 
14370000    1.0258863 -3.9826295e-06   0.69277886  0.016767258            0    0.6760116    1.5003588    2.1931376    1.7853164 
14375000    1.1751502 4.8841055e-05   0.47361639   0.10389589            0    0.3697205    1.7186572    2.1922736    7.1935977 
14380000    1.0376882 -4.0614561e-05   0.66281515  0.033771906            0   0.62904324     1.517619    2.1804342   -1.9784969 
14385000    1.0333519 2.7087166e-05   0.65956061 0.00020588267            0   0.65935473    1.5112772    2.1708378    4.9445636 
14390000    1.0462982 3.3719056e-05   0.60339595  0.006564563            0   0.59683139    1.5302111     2.133607    5.5864384 
14395000    1.1637847 -7.6169119e-06   0.40779352  0.025102873            0   0.38269065    1.7020351    2.1098286    1.3298568 
14400000    1.0252934 -0.00011283986   0.59850909  0.010844632            0   0.58766445    1.4994916    2.0980007   -9.4568006 
14405000    1.0827558 -8.1754442e-05   0.51118017  0.020035372            0   0.49114479    1.5835303    2.0947105   -6.2769444 
14410000   0.94958013 2.9340459e-05   0.73312714  0.027853507            0   0.70527363    1.3887609    2.1218881    5.1263511 
14415000    1.1091961 -5.7562644e-06   0.50139781  0.020718903            0   0.48067891    1.6221992     2.123597    1.5341556 
14420000   0.92281954 -7.8917959e-05   0.78773919 0.0066272011            0   0.78111198    1.3496236    2.1373628   -5.9438362 
14425000    1.1005994 -2.8700728e-05    0.5436896  0.014929893            0   0.52875971    1.6096266    2.1533162  -0.78563832 
14430000   0.94180006 -1.0450444e-05   0.76221792  0.099659317            0   0.66255861    1.3773826    2.1396005    1.0694751 
14435000   0.93793629 -0.00011666309   0.79820525  0.044496925            0   0.75370832    1.3717318    2.1699371   -9.7763633 
14440000    1.0583964 -9.6108735e-05    0.6040759 0.0090212143            0   0.59505469    1.5479047    2.1519806   -7.6895539 
14445000   0.91079789 -2.6024893e-05   0.82226155 0.0073731782            0   0.81488837    1.3320419    2.1543035  -0.51064561 
14450000    1.0453158 -4.5552356e-05   0.60206218 0.00034630507            0   0.60171587    1.5287744    2.1308366   -2.5337247 
14455000    1.0499216 3.3943345e-05   0.57594269 0.0026721032            0   0.57327059    1.5355104    2.1114531    5.5872516 
14460000    1.0058305 7.6735374e-05   0.64034864  0.017596975            0   0.62275166    1.4710271    2.1113757    9.9690781 
14465000    1.0672962 -1.4523296e-05   0.54524878  0.031767963            0   0.51348082    1.5609207    2.1061695   0.61898397 
14470000   0.95215033 -5.4999826e-06   0.75723186  0.040870717            0   0.71636115    1.3925199    2.1497517    1.5865535 
14475000   0.96340961 1.9887571e-05   0.68415108  0.018108307            0   0.66604278    1.4089866    2.0931376    4.1296249 
14480000    1.0873001 6.9956397e-05    0.5143209 0.0010519261            0   0.51326898    1.5901764    2.1044973    9.2680324 
14485000    1.0666081 5.1438658e-05   0.52527779 0.0037519364            0   0.52152585    1.5599143    2.0851921    7.3525107 
14490000   0.99631795 1.6631232e-06   0.60714767  0.016160377            0    0.5909873     1.457115    2.0642627    2.2345665 
14495000       1.0929 -5.6572841e-05   0.52696206  0.013016284            0   0.51394577    1.5983662    2.1253283   -3.6677306 
14500000    1.0793272 -6.3921452e-05   0.56548444 0.0073683197            0   0.55811612    1.5785161    2.1440005   -4.4015562 
14505000    1.0442474 -4.5429912e-05   0.62886374 0.0025174392            0    0.6263463    1.5272118    2.1560755   -2.4959474 
14510000   0.87770915 -2.8861405e-06   0.85882466  0.007863554            0    0.8509611    1.2836496    2.1424743    1.8469335 
14515000   0.94508421 5.2660392e-06   0.72791154  0.036139912            0   0.69177163    1.3821857    2.1100972    2.6493396 
14520000    1.0062151 -0.00012530628   0.63878023  0.017832211            0   0.62094802    1.4715896    2.1103698   -10.720994 
14525000    1.1023097 -0.00011498924   0.49505543 0.0021210589            0   0.49293437    1.6121279    2.1071833   -9.6677146 
14530000    0.8809751 2.2056055e-05   0.83365026  0.015360891            0   0.81828937    1.2884261    2.1220763    4.3806164 
14535000    1.0729504 8.8640689e-05   0.56617475  0.026243367            0   0.53993138    1.5691899    2.1353647    11.212171 
14540000   0.96770832 3.6922556e-05    0.7155842  0.052096699            0    0.6634875    1.4152734    2.1308576    5.9117273 
14545000    1.0097771 -3.4779873e-05   0.62449075 0.0057970911            0   0.61869365     1.476799    2.1012897   -1.4601693 
14550000   0.94787219 -7.66326e-05   0.73002953 0.00081419262            0   0.72921534    1.3862631    2.1162926   -5.7308856 
14555000   0.95797667 -5.9965094e-05   0.67966363 0.0010978438            0   0.67856579    1.4010409    2.0807045   -4.0597211 
14560000    1.0446288 -3.0032535e-05   0.55139275            0            0   0.55139275    1.5277696    2.0791623  -0.99616922 
14565000   0.95469053 1.4102523e-05   0.71265484            0            0   0.71265484    1.3962349    2.1088897    3.5529881 
14570000    1.0430105 7.7354287e-05   0.58747896 0.00079404738            0   0.58668491    1.5254028    2.1128818    10.033961 
14575000   0.99945412 6.7159775e-06   0.68664384 0.00027745456            0   0.68636639    1.4617016    2.1483455    2.8360616 
14580000    1.0188376 -3.2497522e-05   0.68648553  0.031320112            0   0.65516542    1.4900499    2.1765355   -1.1512108 
14585000    1.0124464 1.6379362e-05   0.70690655   0.05509593            0   0.65181062    1.4807028    2.1876094     3.864856 
14590000   0.99896391 -6.0529921e-05   0.73357366  0.018955404            0   0.71461826    1.4609847    2.1945584   -4.0037055 
14595000    1.1244363 2.8680238e-05   0.49398997  0.024758254            0   0.46923172     1.644488     2.138478    5.0753344 
14600000    1.1067013 4.452769e-05   0.51493117 0.0066753117            0   0.50825585    1.6185506    2.1334818    6.6931173 
14605000   0.87991348 -1.1082906e-05   0.81337813  0.002170323            0   0.81120781    1.2868735    2.1002516   0.96536201 
14610000    1.0488772 -5.6480628e-05   0.56828601 0.0085186247            0   0.55976739     1.533983     2.102269   -3.6813474 
14615000   0.93147321 -1.9736322e-05   0.72083195  0.015149098            0   0.70568286    1.3622796    2.0831115  0.062112163 
14620000   0.91900334 7.2717566e-05   0.70761949  0.049001705            0   0.65861779    1.3440424    2.0516619    9.4979406 
14625000   0.99964322 -2.2604221e-05   0.56412308   0.10853079            0   0.45559229    1.4619782    2.0261013  -0.28857092 
14630000   0.88377916 -4.4898996e-05   0.72831566 0.0060156898            0   0.72229997     1.292527    2.0208427   -2.5768145 
14635000   0.93823054 4.1834012e-05   0.64818869 6.5057624e-05            0   0.64812363    1.3721622    2.0203508    6.3041537 
14640000    1.0025597 -3.6931141e-05   0.52126228 0.00018393144            0   0.52107835    1.4662435    1.9875058    -1.794243 
14645000   0.94168635 -5.8526743e-05   0.60316887 0.0057407656            0    0.5974281    1.3772163    1.9803852   -4.0127533 
14650000   0.93181915 8.3918631e-05    0.6190776  0.007930996            0    0.6111466    1.3627855    1.9818631    10.575131 
14655000   0.91899553 7.8112707e-05   0.57407766  0.012880308            0   0.56119735     1.344031    1.9181086    9.9168498 
14660000   0.91747914 -5.9791915e-05   0.59554136  0.066349721            0   0.52919164    1.3418132    1.9373546   -4.1853375 
14665000   0.87226127 -0.00010445636   0.67394954  0.034602505            0   0.63934704    1.2756821    1.9496317   -8.7466992 
14670000   0.88873003 -3.1957369e-06   0.65344633  0.061063657            0   0.59238268    1.2997677     1.953214    1.6259705 
14675000   0.89255752 6.6270602e-05   0.61408841  0.028734003            0    0.5853544    1.3053654    1.9194538    8.7055635 
14680000   0.93839252 5.5999951e-05   0.56444262  0.070609379            0   0.49383324    1.3723991    1.9368417    7.6712367 
14685000   0.88776555 7.3941431e-05   0.65815693  0.036325414            0   0.62183151    1.2983571     1.956514    9.5281165 
14690000   0.86495281 5.4161057e-05   0.66993514 0.0068465651            0   0.66308858    1.2649935    1.9349286    7.4810208 
14695000   0.84788655 2.7180253e-06   0.62135573  0.019066513            0   0.60228922    1.2400341    1.8613898    2.1397156 
14700000   0.86724615 -1.1291019e-05   0.56648726  0.012453025            0   0.55403424    1.2683475    1.8348348   0.67863437 
14705000     0.915878 -8.0378498e-06   0.53616192 0.0066322885            0   0.52952963    1.3394716    1.8756335    1.0525577 
14710000   0.81762218 6.5250758e-06   0.71828944  0.020497699            0   0.69779174    1.1957724    1.9140619    2.5822296 
14715000   0.99598774 5.0286209e-05   0.44076443  0.012877598            0   0.42788683    1.4566321    1.8973965    7.0467043 
14720000   0.95158798 7.9648228e-05   0.49892388  0.010715709            0   0.48820817    1.3916974    1.8906213      10.0466 
14725000   0.74172839 0.00010799964   0.79320301 0.0096834172            0   0.78351959    1.0847778    1.8779808    12.937144 
14730000   0.84943648 4.9154753e-05    0.6507485  0.010666871            0   0.64008163    1.2423009    1.8930494    6.9264961 
14735000   0.78161924 -2.4964249e-07   0.73846766  0.046826114            0   0.69164155    1.1431181    1.8815858    1.8560224 
14740000   0.90950994 3.0636373e-05   0.58281203   0.05167971            0   0.53113232    1.3301583    1.9129703    5.0501349 
14745000    0.9836142 2.837734e-05   0.48213513  0.024640109            0   0.45749502    1.4385358    1.9206709    4.8265105 
14750000   0.79489392 -1.0118177e-05   0.77932002  0.006807742            0   0.77251228    1.1625324    1.9418524   0.90575101 
14755000   0.91606974 1.3995118e-05    0.6510869 0.0043631798            0   0.64672372     1.339752    1.9908389    3.4239389 
14760000    1.1155448 6.4131573e-05   0.41037921 0.0041197077            0   0.40625951    1.6314843    2.0418635    8.6089366 
14765000   0.82982911 -3.5172514e-05   0.87815213  0.022873111            0   0.85527902    1.2136251    2.0917772   -1.5098882 
14770000     0.850868 -5.858943e-05   0.84403958  0.080216935            0   0.76382264    1.2443944     2.088434   -3.9111236 
14775000    1.0049435 3.4961129e-05   0.63700196  0.025365173            0   0.61163679    1.4697299    2.1067319    5.6867514 
14780000   0.90806548 8.2525936e-05   0.78488479  0.028492159            0   0.75639263    1.3280458    2.1129306    10.563586 
14785000   0.99597522 7.3837458e-05   0.68864455   0.03832942            0   0.65031513    1.4566138    2.1452583    9.7062141 
14790000   0.97610232 -9.7286647e-06   0.72223678  0.024568769            0   0.69766801    1.4275496    2.1497864    1.1535712 
14795000   0.93882245 -1.9160452e-05   0.80057606  0.098256221            0   0.70231983    1.3730278    2.1736039   0.21157358 
14800000   0.88729037 -3.0481249e-05   0.87616735   0.11871637            0   0.75745099    1.2976622    2.1738295  -0.94745039 
14805000    1.0437734 2.4287173e-05   0.62184884  0.029423417            0   0.59242542    1.5265186    2.1483675     4.635374 
14810000    1.0238266 7.4262073e-05   0.64555452  0.040582455            0   0.60497207    1.4973464    2.1429009    9.7473372 
14815000   0.96455489 -7.4054031e-06   0.74180046  0.048725469            0   0.69307499    1.4106615     2.152462    1.3941487 
14820000   0.97613005 -5.4184664e-05   0.68106363  0.016095972            0   0.66496766    1.4275902    2.1086538   -3.4398558 
14825000   0.96464517 4.1867278e-06   0.74818191            0            0   0.74818191    1.4107936    2.1589755    2.5876964 
14830000    1.0960886 3.6401208e-05    0.5641621            0            0    0.5641621    1.6030296    2.1671917    5.8946754 
14835000    1.1295122 1.1832382e-05   0.47236215            0            0   0.47236215    1.6519116    2.1242738    3.3359097 
14840000   0.88214165 -1.23911e-05   0.80822562            0            0   0.80822562    1.2901322    2.0983578   0.82950914 
14845000   0.91198868 5.0514845e-06   0.74830891            0            0   0.74830891    1.3337834    2.0820924    2.5993644 
14850000   0.85413872 5.5134643e-05   0.83644336            0            0   0.83644336    1.2491779    2.0856212    7.7314086 
14855000   0.97066913 5.5961498e-05   0.63876318            0            0   0.63876318    1.4196036    2.0583668    7.7888241 
14860000    1.0160433 -3.8732701e-05   0.61259555 0.0024434112            0   0.61015214    1.4859634    2.0985589   -1.8676697 
14865000     1.079253 -5.1387221e-05   0.55865999 0.0092133875            0    0.5494466    1.5784075    2.1370675    -3.124984 
14870000   0.95725291 -3.7947228e-05    0.7385298 0.0038818911            0   0.73464791    1.3999824    2.1385122   -1.7472839 
14875000   0.95835419 -6.7230636e-05   0.70285938 0.00053621998            0   0.70232316     1.401593    2.1044524   -4.7799648 
14880000    0.9298219 -2.4221129e-05    0.7366704 4.0481092e-05            0   0.73662992    1.3598645    2.0965349  -0.38370868 
14885000    1.0776394 1.089845e-05   0.51510863 0.0066143665            0   0.50849426    1.5760476    2.0911563    3.2071575 
14890000   0.92919664 4.4959274e-05   0.71677731  0.085823264            0   0.63095405    1.3589501    2.0757274    6.6795571 
14895000     1.010164 7.4342608e-06   0.64210284  0.023066514            0   0.61903633    1.4773649    2.1194677     2.880736 
14900000     1.039042 -3.9510413e-05   0.64757777  0.015806396            0   0.63177138     1.519599    2.1671768   -1.8786895 
14905000    1.0763118 -3.8662756e-05   0.59587431  0.009433055            0   0.58644125     1.574106    2.1699803   -1.7890859 
14910000    1.1505784 8.6293333e-06   0.49094286  0.019928284            0   0.47101458    1.6827209    2.1736638    3.0573075 
14915000   0.83782544 0.00019467138   0.94415507  0.056176138            0   0.88797894    1.2253197    2.1694748    22.103824 
14920000    1.0473793 0.00012803959   0.67693745  0.042105492            0   0.63483195    1.5317922    2.2087296    15.319984 
14925000    1.0871167 -6.2742802e-05   0.65398796  0.011060203            0   0.64292776    1.5899082    2.2438961   -4.1809668 
14930000     1.070517 -2.9746843e-05   0.64569177  0.033896369            0    0.6117954    1.5656311    2.2113229  -0.83475389 
14935000    1.0151917 -2.1205838e-05    0.7248413 0.0090350661            0   0.71580623    1.4847178    2.2095591  0.038081334 
14940000    1.0362812 3.4738913e-06   0.73365894 0.0010617812            0   0.73259715    1.5155612    2.2492202    2.6049467 
14945000    1.1254519 8.0395451e-05   0.62430564 0.00066298297            0   0.62364266    1.6459734     2.270279    10.502773 
14950000    1.1157101 2.2246849e-05    0.6713169 0.0060545677            0   0.66526233     1.631726    2.3030429    4.5811203 
14955000    1.0396036 3.6426839e-05    0.7931605  0.021725683            0   0.77143482    1.5204202    2.3135807     6.043689 
14960000    1.0634318 0.00010945895   0.82986253  0.010514765            0   0.81934776     1.555269    2.3851315    13.593728 
14965000    1.1795918 4.6462207e-05   0.66456463 0.0017053927            0   0.66285924     1.725153    2.3897176    7.1474476 
14970000     1.151702 -5.8958777e-06   0.65900587  0.011841435            0   0.64716444    1.6843642    2.3433701    1.7396322 
14975000    1.0687517 3.6460803e-05   0.79356801  0.045665107            0    0.7479029    1.5630494    2.3566174    6.0902036 
14980000    1.2017596 6.1451139e-06   0.57784259  0.005812777            0   0.57202982    1.7575734     2.335416    2.9646757 
14985000    1.1101633 2.6703954e-05   0.68904099  0.013010863            0   0.67603013    1.6236139    2.3126549    5.0471397 
14990000    1.1505327 8.3284986e-05   0.62960823  0.040615061            0   0.58899317    1.6826541    2.3122624    10.840645 
14995000    1.0877642 6.8160369e-05   0.70115575  0.006359717            0   0.69479604    1.5908552    2.2920109    9.2716327 
15000000    1.0719182 3.4157565e-05   0.71810187 0.0059423744            0    0.7121595    1.5676804    2.2857823    5.7835169 
15005000    1.2161993 5.4324646e-05   0.51186685   0.02791792            0   0.48394893    1.7786915    2.2905583     7.853402 
15010000    1.0206633 3.7691612e-05   0.73439321   0.06363284            0   0.67076037      1.49272    2.2271132    6.0867343 
15015000    1.0908893 -2.4773452e-06   0.61182916  0.055198487            0   0.55663068    1.5954256    2.2072548    1.9535746 
15020000    1.1089656 -3.5402919e-05    0.5642658  0.024609352            0   0.53965645    1.6218622     2.186128   -1.4391309 
15025000    1.1057222 -1.400084e-05   0.51883551 0.0075829734            0   0.51125254    1.6171186    2.1359542   0.70226811 
15030000    1.1273899 -3.0479069e-06   0.49375514  0.028686274            0   0.46506886    1.6488078    2.1425629    1.8304572 
15035000    1.1141256 -2.2369811e-06   0.51560296  0.009920446            0   0.50568252    1.6294087    2.1450116    1.9159448 
15040000   0.90931655 7.8196368e-06   0.75512777   0.01848796            0   0.73663981    1.3298754    2.0850032     2.885734 
15045000   0.97897388 -3.6458506e-05     0.640845  0.029833406            0    0.6110116    1.4317493    2.0725943   -1.6607567 
15050000   0.98394479 -2.9731197e-05   0.67818215  0.022177442            0   0.65600471    1.4390193    2.1172014  -0.92727312 
15055000    1.1080407 9.0368349e-05   0.53000527  0.033021906            0   0.49698336    1.6205095    2.1505147    11.404234 
15060000   0.98862654 9.7726684e-05   0.71782982   0.01948836            0   0.69834146    1.4458663    2.1636961    12.170909 
15065000    1.0804578 1.1758124e-05   0.60705042  0.011303238            0   0.59574718    1.5801695    2.1872199    3.3912518 
15070000    1.0596069 -4.3760733e-05     0.627285 0.0047804174            0   0.62250458     1.549675      2.17696    -2.304139 
15075000    1.1024636 -5.5933801e-05   0.50583424 0.0054393726            0   0.50039486     1.612353    2.1181872    -3.609434 
15080000   0.97373564 -6.8591965e-05   0.67511782 0.0058037243            0   0.66931409    1.4240884    2.0992062    -4.924611 
15085000    1.0760846 -8.1183647e-05   0.55008103 0.0037246029            0   0.54635642    1.5737737    2.1238548   -6.1893507 
15090000    1.0064017 -6.9010072e-05   0.62585355  0.045833137            0   0.58002041    1.4718625     2.097716   -4.9689153 
15095000   0.96071158 -7.6158277e-05   0.66180921  0.063369999            0   0.59843921    1.4050407    2.0668499   -5.7317577 
15100000   0.96653558 -0.00013620698   0.67717161  0.025418035            0   0.65175358    1.4135583    2.0907299   -11.856865 
15105000    1.0347248 -0.00012878615    0.5649337   0.02241229            0   0.54252141     1.513285    2.0782187   -11.109483 
15110000    1.0625247 -2.3178306e-05   0.51137091  0.054171327            0   0.45719958    1.5539424    2.0653133  -0.30814521 
15115000    1.0242472 8.2270742e-05   0.60113489  0.099415031            0   0.50171986    1.4979615    2.0990964     10.52362 
15120000   0.97353927 0.00011373457   0.70123088  0.034241419            0   0.66698946    1.4238012    2.1250321    13.771452 
15125000    1.0586761 9.0849214e-05   0.61747356 0.0061608776            0   0.61131269    1.5483138    2.1657874    11.468747 
15130000    1.0620889 7.3860366e-05   0.61427137  0.015152014            0   0.59911936     1.553305    2.1675763    9.7308778 
15135000    1.1085143 -5.9258958e-06   0.55446859  0.012193822            0   0.54227477    1.6212022    2.1756708     1.568859 
15140000   0.98181475 -9.38585e-05    0.7645967 0.0027780444            0   0.76181866    1.4359041    2.2005008   -7.4106096 
15145000    1.1450238 -2.2189475e-05   0.62746052 0.0068883579            0   0.62057216    1.6745974    2.3020579   0.02985561 
15150000     1.161773 4.6431989e-05   0.55413634 0.0070417044            0   0.54709463     1.699093    2.2532293     7.007865 
15155000    1.2028715  3.23888e-05   0.49749103  0.013430998            0   0.48406003    1.7591996    2.2566906    5.5733038 
15160000    1.1783866 4.0596115e-06   0.57971148  0.034204042            0   0.54550744    1.7233905    2.3031019    2.7188062 
15165000    1.1887083 -5.1519708e-06   0.58276634  0.042942947            0   0.53982339     1.738486    2.3212523    1.7936905 
15170000    1.0712022 1.9231174e-05   0.79047133   0.01020306            0   0.78026827    1.5666333    2.3571046    4.3263768 
15175000    1.2541227 2.3023494e-05   0.51377725  0.065365285            0   0.44841197    1.8341545    2.3479317    4.7055375 
15180000    1.2075686 1.0853906e-05   0.53478019  0.038780839            0   0.49599935    1.7660691    2.3008492    3.4122892 
15185000    1.1393425 3.7354847e-05   0.58982562  0.026161371            0   0.56366425    1.6662883     2.256114    6.0812503 
15190000    1.2011967 -2.8759792e-05   0.47516478  0.012736777            0     0.462428    1.7567502     2.231915  -0.71308772 
15195000    1.1092623 -8.1799419e-05   0.57326663  0.019655858            0   0.55361077    1.6222961    2.1955627   -6.1806978 
15200000     1.143518 -5.9940949e-05   0.48400335 0.0069035407            0   0.47709981    1.6723951    2.1563984   -3.9815547 
15205000    1.1076148 -1.5323579e-05   0.49302457 0.0063938512            0   0.48663072    1.6198866    2.1129112    0.5437767 
15210000    1.0660841 -2.5027583e-05   0.54336873  0.008168682            0   0.53520005     1.559148    2.1025168  -0.46030774 
15215000    1.2257793 3.7649937e-05    0.3407241 0.0028168284            0   0.33790727    1.7927022    2.1334263    5.9887799 
15220000    1.0288875 5.7975441e-05   0.63088237 4.0620876e-06            0   0.63087831     1.504748    2.1356304    8.0723155 
15225000    1.0698341 -1.0878929e-05   0.58294387            0            0   0.58294387    1.5646324    2.1475762    1.0335739 
15230000    1.1304879 4.218583e-05   0.51193009            0            0   0.51193009    1.6533386    2.1652687    6.4850977 
15235000    1.0525708 4.8454713e-05   0.61409159 0.0061131081            0   0.60797848    1.5393848    2.1534764     7.115239 
15240000    1.0713688 -3.1642382e-05   0.60046208  0.060126447            0   0.54033563    1.5668769     2.167339   -1.0728409 
15245000    1.1637671 4.0439654e-06   0.50121596  0.062326301            0   0.43888966    1.7020094    2.2032254    2.6173275 
15250000    1.0945018 5.5171524e-05   0.59879462  0.021117053            0   0.57767757    1.6007089    2.1995035    7.8490676 
15255000     1.098872 5.9288775e-06   0.58591914 0.00026349308            0   0.58565565    1.6071004    2.1930195    2.8001365 
15260000    1.2232211 7.210702e-05   0.44321796  0.004783262            0    0.4384347    1.7889609    2.2321789    9.6159377 
15265000    1.1307464 8.1236941e-05   0.64144887  0.009099031            0   0.63234984    1.6537166    2.2951655    10.613828 
15270000    1.2257278 5.8661741e-06   0.55737284  0.010707694            0   0.54666515     1.792627    2.3499998     2.950696 
15275000    1.0653857 0.00010968331   0.79510866  0.022589089            0   0.77251958    1.5581266    2.3532352    13.584806 
15280000    1.0805084 3.9381711e-05    0.7404549  0.044981221            0   0.69547368    1.5802436    2.3206985    6.3533857 
15285000    1.1063176 4.2406084e-05   0.69241559  0.038406563            0   0.65400903    1.6179895    2.3104051    6.6527881 
15290000    1.1773896 1.2014998e-05   0.55209599 0.0052895813            0   0.54680641    1.7219324    2.2740283    3.5043642 
15295000    1.1337487 -8.8503379e-05   0.61201857 0.0030541425            0   0.60896442    1.6581075     2.270126     -6.79262 
15300000    1.0686149 -3.306091e-05   0.68375425  0.012185974            0   0.67156827    1.5628493    2.2466035   -1.1388337 
15305000    1.0726426 -4.2108214e-05   0.67075479   0.13887573            0   0.53187905    1.5687398    2.2394946   -2.0723865 
15310000    1.2260644 1.0024618e-05   0.42987284  0.024865919            0   0.40500692    1.7931192     2.222992    3.2495129 
15315000    1.1055822 3.746114e-05   0.58968499 0.0031367333            0   0.58654826     1.616914     2.206599    6.0426198 
15320000   0.96001474 -5.4131574e-05   0.75114034  0.012104725            0   0.73903561    1.4040216    2.1551619   -3.3879112 
15325000    1.0974223 -3.3718671e-06   0.55745619  0.016351845            0   0.54110435    1.6049802    2.1624364    1.8171572 
15330000    1.1388102 5.7454425e-05   0.49857142   0.01792725            0   0.48064417    1.6655099    2.1640813    8.0474145 
15335000   0.95233132 -1.908312e-05   0.75105417  0.086664771            0    0.6643894    1.3927846    2.1438387   0.18972724 
15340000    1.1744789 -1.0053206e-06   0.45220472  0.064865886            0   0.38733884    1.7176754    2.1698802    2.0669353 
15345000   0.99399792 9.4953844e-05   0.73042078   0.06623452            0   0.66418626     1.453722    2.1841427    11.907416 
15350000    1.0708585 2.4822846e-05   0.60208153  0.059519846            0   0.54256168    1.5661306    2.1682121    4.7100715 
15355000    1.0022235 -2.0385133e-05   0.68239955   0.06433287            0   0.61806668    1.4657518    2.1481514  0.060713811 
15360000    1.1038713 1.0057678e-05   0.56384398  0.017338567            0   0.54650542    1.6144117    2.1782557    3.2081619 
15365000    1.0163459 5.266764e-05   0.65800381  0.064300481            0   0.59370333    1.4864059    2.1444097     7.537576 
15370000   0.96452319 0.00010474461   0.70997381  0.054363161            0   0.65561065    1.4106152     2.120589    12.846437 
15375000    1.0635868 7.2354159e-05   0.56375389  0.031312723            0   0.53244117    1.5554957    2.1192496    9.5283155 
15380000    1.1260806 -4.2137642e-05   0.49357503  0.021270442            0   0.47230459    1.6468928    2.1404679   -2.1744266 
15385000   0.96938161 -6.5432493e-05   0.73848536  0.006567368            0   0.73191799    1.4177206     2.156206   -4.5440814 
15390000    1.1312592 -6.2925967e-05   0.52940727  0.043977506            0   0.48542977    1.6544665    2.1838738   -4.2597452 
15395000    1.0185059 -4.1071088e-05   0.66405254  0.072807403            0   0.59124514    1.4895648    2.1536174    -2.052062 
15400000   0.97915786 5.4959174e-05   0.72510296  0.040422337            0   0.68468062    1.4320184    2.1571213    7.7849407 
15405000   0.95459827 3.719543e-05    0.7465684   0.11570437            0   0.63086403       1.3961    2.1426684    5.9514804 
15410000    1.0418981 1.7977383e-05   0.66104778  0.044446381            0   0.61660139    1.5237759    2.1848237    4.0257077 
15415000    1.0716327 0.00011570639   0.61395867 6.031247e-06            0   0.61395264    1.5672628    2.1812215    14.029556 
15420000   0.96110376 0.00013527661   0.78403022  0.022792496            0   0.76123772    1.4056142    2.1896445    16.041969 
15425000    1.0169822 7.495461e-05    0.7094295   0.10113167            0   0.60829783    1.4873365     2.196766    9.8721181 
15430000    1.0797083 2.4430187e-05   0.56320675  0.030950667            0   0.53225609    1.5790734    2.1422802    4.6439314 
15435000    1.0196191 -2.5194416e-05   0.64303542 0.0036440444            0   0.63939137    1.4911929    2.1342283  -0.44567991 
15440000    1.0053277 -3.3669837e-05   0.64537629 7.7937002e-05            0   0.64529835    1.4702918     2.115668   -1.3321233 
15445000    1.1142286  4.34194e-07   0.51247204 0.0096155346            0   0.50285651    1.6295594    2.1420314    2.1864929 
15450000    0.9789211 1.9497703e-05   0.69775662 0.0098948907            0   0.68786173    1.4316721    2.1294287    4.1259935 
15455000    1.0604239 3.0754687e-09    0.5401506 5.6382752e-05            0   0.54009422      1.55087    2.0910206    2.0913355 
15460000    1.0575305 -7.6721014e-05   0.55761216            0            0   0.55761216    1.5466383    2.1042505   -5.7519813 
15465000   0.89044803 -9.7693889e-05   0.72887016 3.0847905e-06            0   0.72886707    1.3022802    2.0311504   -7.9727039 
15470000    1.0716918 -9.4540843e-06    0.4833063            0            0    0.4833063    1.5673492    2.0506555    1.0825573 
15475000   0.88466097 3.2641291e-05   0.73512686 0.0011863636            0    0.7339405    1.2938167    2.0289435    5.3714118 
15480000    1.0191838 8.3046939e-06   0.56818881 0.0062632966            0   0.56192552    1.4905563    2.0587451    2.9091457 
15485000    1.0801292 7.3189724e-05   0.45854805  0.003129971            0   0.45541808     1.579689    2.0382371    9.5328648 
15490000   0.94340329 0.00014538002    0.6609246 0.00052571493            0   0.66039889    1.3797273    2.0406519    16.927566 
15495000   0.98551837 3.4867663e-05   0.57400239  0.001291097            0   0.57271129    1.4413206     2.015323    5.5857717 
15500000    1.0966435 -3.2395098e-05   0.43635077 0.0071789892            0   0.42917178    1.6038411    2.0401919   -1.2770661 
15505000   0.98776961 -7.0480875e-05   0.59091363 0.0084306982            0   0.58248293     1.444613    2.0355267   -5.1817149 
15510000   0.92753957 -5.9562099e-05   0.68141632   0.00886756            0   0.67254876    1.3565266    2.0379429    -4.061216 
15515000   0.98577832 4.0557539e-05   0.59592349  0.011245999            0   0.58467749    1.4417008    2.0376243    6.1907163 
15520000    1.0044044 7.7626069e-05   0.57962209  0.010257414            0   0.56936468    1.4689414    2.0485635     9.997473 
15525000    1.0718122 3.4353646e-05   0.48309415  0.006758652            0    0.4763355    1.5675254    2.0506196    5.5684329 
15530000   0.95676283 -5.9203106e-06   0.61354191 0.0069663092            0    0.6065756    1.3992656    2.0128075    1.4065677 
15535000   0.96959142 -1.7641536e-05   0.58539804 0.0025372894            0   0.58286075    1.4180275    2.0034255   0.19693221 
15540000     0.980868 2.7015216e-05   0.54978114  0.014798217            0   0.53498292    1.4345195    1.9843006    4.7506587 
15545000   0.97478799 6.689782e-05    0.5642209  0.061260085            0   0.50296081    1.4256274    1.9898483    8.8401851 
15550000   0.89978077 -4.938117e-06   0.66128817  0.052704645            0   0.60858352    1.3159294    1.9772175    1.4715544 
15555000   0.91033839 -8.2345621e-05    0.6288463   0.01824856            0   0.61059774    1.3313699    1.9602162   -6.4719754 
15560000    1.0450036 -2.4405236e-05   0.42844979 0.0031915205            0   0.42525827    1.5283178    1.9567675  -0.54232862 
15565000   0.94938327 -5.8568783e-07   0.58961694 0.0087117107            0   0.58090523     1.388473      1.97809    1.9181155 
15570000    0.9816693 2.5234897e-05   0.54698958   0.04576556            0   0.50122402    1.4356914    1.9826809    4.5667344 
15575000   0.89795644 3.8555146e-05    0.6378272  0.028180872            0   0.60964633    1.3132613    1.9510885    5.8991354 
15580000   0.96895171 -4.1282783e-06   0.51903855  0.047099831            0   0.47193871    1.4170919    1.9361304    1.5133947 
15585000   0.87719356 -4.5118409e-06   0.65865247  0.012840575            0    0.6458119    1.2828956    1.9415481    1.4795355 
15590000    1.0107025 3.1995358e-05   0.49806603 0.0016133452            0   0.49645269    1.4781524    1.9762184    5.2525431 
15595000    1.0214139 1.6211937e-06   0.48808044 0.0088577163            0   0.47922273    1.4938179    1.9818983    2.1479086 
15600000    0.9617262 -0.0001204793    0.5595237  0.015293762            0   0.54422994    1.4065246    1.9660483   -10.371032 
15605000   0.92009974 -0.00013269454   0.55846592  0.019923707            0   0.53854221    1.3456459    1.9041118   -11.683809 
15610000   0.86264047 -1.9805357e-05   0.62812617   0.03492677            0    0.5931994    1.2616117    1.8897379  -0.13833067 
15615000     0.938031 7.0206723e-06   0.53620426   0.02082449            0   0.51537977    1.3718703    1.9080746    2.6269914 
15620000   0.97885682 1.904047e-05   0.46947748  0.007521917            0   0.46195556    1.4315781    1.9010556    3.8507997 
15625000   0.91136338 -2.8591033e-06   0.56357996 0.0079694686            0    0.5556105    1.3328689    1.8964489    1.6036767 
15630000   0.95412789 2.5274005e-05   0.48728697  0.010355397            0   0.47693157     1.395412     1.882699    4.4707571 
15635000   0.85278575 -5.2875228e-05   0.65369679  0.013042345            0   0.64065444    1.2471992    1.9008959   -3.5135274 
15640000   0.97126686 -8.1482026e-06    0.5018709  0.014694904            0     0.487176    1.4204778    1.9223487    1.0879727 
15645000   0.99292467 -5.9304275e-05   0.45778728 0.0078486349            0   0.44993864    1.4521523    1.9099396   -4.1628181 
15650000   0.90015282 -0.00010007494   0.61486057 0.0010983202            0   0.61376225    1.3164735    1.9313341   -8.3163401 
15655000   0.82489855 -6.8197553e-05   0.71576101            0            0   0.71576101    1.2064141    1.9221751   -5.0612543 
15660000   0.98257627 -3.2731677e-05   0.48772782            0            0   0.48772782    1.4370178    1.9247456   -1.4269781 
15665000    1.0554787 5.1897604e-05   0.36766174 0.0027879921            0   0.36487375    1.5436376    1.9112993    7.2256139 
15670000   0.86153315 8.8458687e-05     0.674563  0.017332683            0   0.65723031    1.2599922    1.9345552    10.992725 
15675000   0.91571124 3.0302969e-05   0.60971664  0.025592361            0   0.58412428    1.3392277    1.9489443    5.0519684 
15680000     1.036116 -4.3169527e-05   0.46352035  0.026637886            0   0.43688246    1.5153197      1.97884   -2.4417195 
15685000   0.99897215 -5.2951337e-05   0.51924062 0.0094690708            0   0.50977155    1.4609968    1.9802374   -3.4419795 
15690000   0.91524012 9.4859079e-06   0.61912169 0.0068810735            0   0.61224062    1.3385387    1.9576604    2.9290173 
15695000   0.79409002 -3.7242999e-05   0.80911541 0.0089015339            0   0.80021388    1.1613567    1.9704721    -1.843211 
15700000    1.0443126 -5.6877176e-05   0.47052405 0.0040071984            0   0.46651685    1.5273071    1.9978312   -3.8263916 
15705000    1.0101733 -5.6865988e-05   0.51013013  0.012972579            0   0.49715755    1.4773785    1.9875086   -3.8355686 
15710000   0.88206374 -4.5715247e-05   0.72086245  0.010577251            0    0.7102852    1.2900182    2.0108807   -2.6703606 
15715000   0.98271789 7.0815638e-05   0.53629754 0.0031430916            0   0.53315445    1.4372249    1.9735225    9.2250438 
15720000   0.89813222 0.0001548139   0.66854955            0            0   0.66854955    1.3135184    1.9820679    17.835011 
15725000   0.94071595 8.415445e-05   0.57548503            0            0   0.57548503    1.3757971    1.9512821    10.568698 
15730000    1.0548226 -8.9098479e-05    0.3921816 0.00085086258            0   0.39133074     1.542678    1.9348596   -7.1888246 
15735000    0.8023481 -0.0001672534   0.79695803  0.039732218            0   0.75722581    1.1734341    1.9703921   -15.156356 
15740000   0.88369677 -0.00011257422   0.67680017   0.07870745            0   0.59809272    1.2924065    1.9692067   -9.5583939 
15745000    1.0169969 6.332198e-05     0.471545  0.012436205            0   0.45910879    1.4873579    1.9589029    8.4430736 
15750000   0.94141722 9.8560464e-05   0.60234579  0.016980005            0   0.58536578    1.3768227    1.9791685     12.07176 
15755000   0.89302224 1.5582908e-05   0.64068975  0.026497682            0   0.61419207     1.306045    1.9467348    3.5424246 
15760000    1.0137226 4.6052195e-05   0.47609683 0.0051478376            0   0.47094899    1.4825694    1.9586662    6.6744109 
15765000   0.93609474 2.4385014e-05   0.55675076            0            0   0.55675076    1.3690386    1.9257893    4.4228148 
15770000   0.94674361 -6.6560283e-06   0.52944076            0            0   0.52944076    1.3846125    1.9140533     1.232476 
15775000   0.94991002 3.2002653e-05   0.52286023            0            0   0.52286023    1.3892434    1.9121036    5.1891753 
15780000   0.95939204 -8.1323791e-06   0.51041379 3.2454844e-05            0   0.51038134    1.4031109    1.9135247     1.080769 
15785000   0.93030001  -1.6402e-05   0.55994923 0.0015330606            0   0.55841617    1.3605638     1.920513   0.24094821 
15790000   0.89027052 2.6744133e-05   0.55620902 0.0059786923            0   0.55023033    1.3020206    1.8582297    4.5968289 
15795000    1.0129292 3.1287326e-05   0.38334934 0.0035306387            0    0.3798187     1.481409    1.8647583    5.0685806 
15800000   0.89572218 -9.8743003e-06   0.57435286 0.0073686458            0   0.56698422    1.3099937    1.8843466   0.87321821 
15805000   0.97319283 4.8466116e-06   0.49516808  0.024139378            0   0.47102871    1.4232945    1.9184626    2.4147556 
15810000     1.005275 4.3147132e-05   0.45582593 0.0086314049            0   0.44719453    1.4702146    1.9260406    6.3443069 
15815000   0.86420376 1.3109406e-05    0.6793504  0.015156827            0   0.66419357     1.263898    1.9432484    3.2856516 
15820000   0.91434811 3.3125748e-05   0.60603632  0.033274243            0   0.57276207    1.3372341    1.9432704     5.335347 
15825000   0.83640588 2.0838427e-05   0.69522292  0.048243845            0   0.64697907    1.2232436    1.9184665    4.0523215 
15830000   0.79762848 -8.3146817e-05   0.76445288  0.074541374            0    0.6899115    1.1665316    1.9309845   -6.5832496 
15835000   0.87059482 -5.1535461e-05   0.64639624  0.005393077            0   0.64100316    1.2732449    1.9196412   -3.3575901 
15840000   0.90458986 5.8086758e-05   0.56364589 0.0048940606            0   0.55875183    1.3229627    1.8866086    7.8346926 
15845000    1.0002455 8.465401e-05   0.47267645  0.045040632            0   0.42763582     1.462859    1.9355355    10.604106 
15850000   0.98639973 4.6725934e-05    0.5320587  0.033293027            0   0.49876567    1.4426096    1.9746683    6.7594039 
15855000   0.98698454 2.7000408e-06   0.59357061 0.0051250832            0   0.58844553    1.4434649    2.0370355    2.3135197 
15860000      1.05724 1.5146819e-05   0.47144648 0.0020708724            0   0.46937561    1.5462135      2.01766    3.5686943 
15865000    0.9499158 3.7655221e-05     0.564393 0.0024306217            0   0.56196238    1.3892519    1.9536449    5.8095395 
15870000   0.87342429 7.2434001e-05   0.69527992 0.0045317216            0   0.69074819     1.277383    1.9726629    9.3899047 
15875000   0.92520667 -2.336759e-05   0.60298362  0.012272649            0   0.59071097    1.3531148    1.9560984  -0.43674286 
15880000    0.9173051 -4.6163198e-05   0.62585012  0.016224647            0   0.60962547    1.3415587    1.9674088   -2.7597027 
15885000   0.86884222  7.72967e-05   0.67233966  0.028658278            0   0.64368138    1.2706818    1.9430214    9.8582035 
15890000   0.86886503 -8.0566689e-07   0.67613032   0.03794237            0   0.63818795    1.2707151    1.9468454    1.8643451 
15895000   0.99713824 5.7003953e-05    0.4856303  0.023734505            0    0.4618958    1.4583147     1.943945    7.7811498 
15900000   0.90187262 0.00012054113   0.62266111 0.0083117522            0   0.61434936    1.3189887    1.9416498    14.285061 
15905000   0.92825582 1.5384979e-06   0.56705263 0.0044245705            0   0.56262806    1.3575741    1.9246268    2.0821689 
15910000   0.97456263 -3.2064441e-05   0.51018059  0.002107536            0   0.50807306    1.4252978    1.9354784   -1.3479203 
15915000   0.93611008 -2.9149022e-06   0.56549519 0.00095900803            0   0.56453618     1.369061    1.9345562    1.6360702 
15920000   0.94024646 -4.8843234e-05   0.56862582 0.0020336169            0    0.5665922    1.3751105    1.9437363   -3.0578109 
15925000   0.98959588 -8.3218433e-05    0.5001023 0.00050788896            0   0.49959441     1.447284    1.9473863   -6.5741813 
15930000   0.97621843 -2.6560992e-05   0.50725791            0            0   0.50725791    1.4277194    1.9349774  -0.78486826 
15935000   0.91650917 2.0857628e-05   0.61973884 0.00050356641            0   0.61923528    1.3403947    1.9601335    4.0959546 
15940000    1.0155335 7.9411855e-06   0.49776369 0.0023381998            0   0.49542549    1.4852178    1.9829814    2.7961588 
15945000   0.88683174 -2.4213558e-05   0.64376304 0.0056580296            0   0.63810501    1.2969914    1.9407545  -0.53871385 
15950000   0.93422177 -1.8898053e-05   0.55387323 0.0035133548            0   0.55035988    1.3662993    1.9201726 -0.014988003 
15955000   0.90680035 8.4298044e-05   0.58019003 0.00079821718            0   0.57939181    1.3261955    1.9063855    10.538505 
15960000    0.8781343 7.3745114e-05    0.6033136            0            0    0.6033136    1.2842714     1.887585    9.4390847 
15965000   0.80184988 -1.3807038e-05   0.72146098 0.0007968572            0   0.72066413    1.1727054    1.8941664   0.48032572 
15970000     1.068112 1.0774955e-05   0.33965941  0.004507736            0   0.33515167    1.5621138    1.9017732    3.0051286 
15975000   0.91873029 2.8443288e-05   0.58365219  0.026747238            0   0.55690495     1.343643    1.9272952     4.839888 
15980000    0.8949501 -1.81976e-05   0.62987652  0.045653976            0   0.58422254    1.3088645     1.938741  0.075306769 
15985000   0.83616054 -5.8040203e-05   0.69196961 0.0032531574            0   0.68871646    1.2228848    1.9148544   -4.0284624 
15990000   0.91581264 9.034941e-05   0.57794913 0.00070841815            0   0.57724071     1.339376    1.9173251    11.169105 
15995000   0.96824995 6.8059976e-05   0.50738273            0            0   0.50738273    1.4160655    1.9234483    8.8927898 
16000000     1.014969 1.0036853e-05   0.43224764 0.00031188104            0   0.43193576    1.4843922    1.9166398    2.9444136 
16005000   0.91584524 6.3390985e-05   0.58285534  0.013824166            0   0.56903118    1.3394237     1.922279    8.4135158 
16010000   0.95614125 2.1746902e-05   0.54139987  0.027577252            0   0.51382261    1.3983566    1.9397565    4.1666392 
16015000    1.0397502 -1.1221667e-05   0.39728995  0.012562969            0   0.38472698    1.5206346    1.9179245   0.76882584 
16020000   0.86607489 6.0313727e-06   0.63469347 0.0099230115            0   0.62477046    1.2666345     1.901328    2.5189406 
16025000   0.95027418 -4.0792108e-05   0.49923252  0.014889486            0   0.48434304     1.389776    1.8890085   -2.2881033 
16030000   0.89363657 1.7780704e-05   0.57373382  0.044301273            0   0.52943255    1.3069435    1.8806773    3.7014214 
16035000   0.90648403 6.9127094e-05   0.56990762  0.033210445            0   0.53669717    1.3257329    1.8956405    8.9742549 
16040000   0.88468619  4.50386e-05   0.62860152  0.022816834            0   0.60578469    1.2938535    1.9224551    6.5344077 
16045000   0.94216928 4.9594862e-05   0.58548606  0.042395932            0   0.54309012    1.3779226    1.9634086    7.0419225 
16050000   0.89009322 -6.0519572e-05   0.63897056  0.061730231            0   0.57724033    1.3017613    1.9407319   -4.2564722 
16055000     1.006775 -5.6099238e-05   0.48625118 0.0069498181            0   0.47930136    1.4724084    1.9586596   -3.7859024 
16060000    1.0027894   0.00013318   0.45110954 0.0027945512            0   0.44831499    1.4665795     1.917689    15.555321 
16065000   0.92808806 0.00012097515   0.53309205 0.0035840739            0   0.52950798    1.3573288    1.8904208    14.278276 
16070000    1.0245888 4.0620091e-05   0.40579131 0.0051658067            0    0.4006255    1.4984611    1.9042524    6.0637498 
16075000   0.91657567 -2.7994887e-06    0.5839161  0.016987052            0   0.56692905    1.3404919     1.924408    1.6377404 
16080000   0.95668381 -9.2315102e-05   0.52143622 0.0080956049            0   0.51334061    1.3991501    1.9205863   -7.5324802 
16085000   0.90031159 -2.3992024e-05   0.63062296  0.003638755            0   0.62698421    1.3167057    1.9473287  -0.50945458 
16090000   0.97906465 -9.7935901e-06   0.55071106 0.0019734822            0   0.54873758    1.4318821    1.9825931   0.97972949 
16095000   0.90474997 -8.895957e-05   0.64575156  0.042273144            0   0.60347842    1.3231968    1.9689484   -7.1405116 
16100000    1.0521176 -5.5932483e-05   0.42623413  0.020964436            0    0.4052697     1.538722    1.9649561   -3.7625302 
16105000    1.0001918 2.6084522e-06   0.51605159  0.050410125            0   0.46564147    1.4627805    1.9788321    2.2459376 
16110000   0.97318676 -1.8811059e-05    0.4973631  0.053984783            0   0.44337832    1.4232856    1.9206487 -0.0056037303 
16115000   0.90986115 -7.9857965e-05   0.57595761  0.020248254            0   0.55570936    1.3306719    1.9066295   -6.2708261 
16120000   0.82180031 -4.7513261e-05   0.69771612  0.063267126            0     0.634449     1.201883    1.8995991   -2.9657588 
16125000   0.87033249 -5.7446632e-06   0.65929673 0.0069797483            0   0.65231698    1.2728613     1.932158    1.3439045 
16130000    0.9230132 5.0636745e-05   0.60137685  0.010541465            0   0.59083538    1.3499068    1.9512837    7.1364864 
16135000   0.89799113 -4.5208489e-05   0.62580068   0.02813133            0   0.59766935     1.313312    1.9391127   -2.6902366 
16140000    0.9938459 1.6037789e-05   0.53733788  0.052763198            0   0.48457468    1.4534996    1.9908375    3.6331071 
16145000   0.91397178 -3.7603824e-06    0.6209484  0.042358707            0    0.5785897    1.3366837    1.9576321     1.572569 
16150000   0.95906281 -0.00010821969   0.55112258 0.0056942549            0   0.54542833    1.4026294    1.9537519   -9.1279446 
16155000    1.0655163 1.5090376e-05   0.38223581  0.010763835            0   0.37147198    1.5583176    1.9405534    3.4858079 
16160000    1.0292694 8.6664375e-05   0.39873212  0.025176335            0   0.37355579    1.5053065    1.9040386    10.778471 
16165000   0.93522743 -2.4737897e-06   0.57279993   0.02988161            0   0.54291832    1.3677701      1.94057     1.687254 
16170000    1.0149695 1.3828888e-05    0.5239797 0.0088463621            0   0.51513334    1.4843929    2.0083726    3.4244506 
16175000   0.99005603 6.3061534e-06   0.58742199 0.00030655685            0   0.58711544    1.4479569    2.0353789     2.681129 
16180000    1.1078536 -1.3815126e-05   0.37820855 0.0085992477            0    0.3696093     1.620236    1.9984445   0.58377559 
16185000    1.0142345 2.5354519e-05   0.53016795  0.060856585            0   0.46931137    1.4833179    2.0134859    4.6097886 
16190000     1.054476 1.844076e-05   0.47408459   0.06080327            0   0.41328132    1.5421711    2.0162557    3.9045895 
16195000    1.0033426 6.0089965e-06   0.57677345  0.074075213            0   0.50269824    1.4673886     2.044162    2.6594833 
16200000    1.0351009 -1.2942981e-05   0.51984278   0.05022551            0   0.46961727    1.5138351    2.0336779   0.70831665 
16205000    1.0261591 -2.6868592e-06   0.53970006 0.0031748288            0   0.53652523    1.5007577    2.0404578    1.7653234 
16210000   0.92116138 4.0510466e-05   0.68231506 0.0005148654            0    0.6818002    1.3471985    2.0295136    6.1777853 
16215000    1.1419295 5.5777244e-05   0.35621832 0.0042813137            0   0.35193701    1.6700719    2.0262903      7.73788 
16220000    1.0277912 2.5408519e-05   0.51608596  0.018473346            0   0.49761261    1.5031446    2.0192306    4.6210629 
16225000    1.0299449 4.5914881e-05   0.56463318    0.0568782            0   0.50775498    1.5062944    2.0709276    6.7726114 
16230000   0.97081276 3.5276717e-05   0.63459317   0.02594767            0    0.6086455    1.4198137    2.0544068    5.6667426 
16235000    1.0223302 1.0966523e-05   0.56483702 0.0070305996            0   0.55780642    1.4951579    2.0599949    3.1829669 
16240000     1.005453 4.9295025e-05   0.58953369  0.069619027            0   0.51991466     1.470475    2.0600087    7.1078192 
16245000    1.1060908 -1.1326384e-05   0.46648533  0.051788389            0   0.41469695    1.6176578    2.0841432   0.92432143 
16250000    1.0479966 -5.1908497e-06   0.53102414 0.0068238738            0   0.52420027     1.532695    2.0637192    1.5321762 
16255000    1.1323988 5.9256627e-05    0.4483178 0.0019545711            0   0.44636322    1.6561332     2.104451    8.1723295 
16260000    1.0637881 4.1655341e-05   0.53118057 0.0058315923            0   0.52534897    1.5557901    2.0869706    6.3524776 
16265000   0.99122594 3.5367968e-07   0.58254912  0.020769291            0   0.56177983    1.4496679    2.0322171    2.0684339 
16270000    1.0604866 5.9291879e-05   0.52913308   0.05149907            0   0.47763401    1.5509616    2.0800947    8.1515831 
16275000    1.0274144 -3.6102546e-05   0.57868442  0.027471428            0   0.55121299    1.5025935     2.081278   -1.6156228 
16280000   0.98801867 -5.7788967e-05   0.66996794    0.0488384            0   0.62112954    1.4449773    2.1149452   -3.8026449 
16285000    1.0017514 2.2391974e-05   0.63431334  0.046302678            0   0.58801066    1.4650614    2.0993748    4.3923129 
16290000    1.0818208 4.1159879e-06   0.52492654  0.011080937            0    0.5138456     1.582163    2.1070895    2.5285667 
16295000    1.1417645 -1.0241275e-06   0.45022639 0.0058147673            0   0.44441163    1.6698306     2.120057    2.0151863 
16300000    1.0134936 7.7941449e-06   0.66176485 0.0075799442            0   0.65418491    1.4822344    2.1439992    2.9421196 
16305000     1.069463 2.2698914e-06    0.5879125 0.0037046084            0   0.58420789    1.5640896    2.1520021     2.384439 
16310000    1.1096146 6.9820026e-05   0.56123422 0.0059005082            0   0.55533371    1.6228114    2.1840456    9.3336163 
16315000     1.072747 6.0244774e-05   0.56832226 0.0063820574            0   0.56194021    1.5688925    2.1372147    8.3062796 
16320000    1.2030483 3.0975191e-05   0.36821394  0.017884788            0   0.35032915    1.7594581     2.127672    5.2995316 
16325000     1.053191 4.176386e-05   0.60395669  0.043801507            0   0.56015518    1.5402919    2.1442486    6.4208678 
16330000    1.0775788 4.962706e-05   0.58282419 0.0062325031            0   0.57659169     1.575959    2.1587832    7.2405941 
16335000    1.1564411 3.1127089e-05   0.48611626 0.0029955234            0   0.48312074    1.6912951    2.1774114    5.3648252 
16340000    1.0335908 -1.0118121e-05   0.59191649 0.0070658619            0   0.58485063    1.5116265     2.103543    1.0674475 
16345000    1.0312545 5.8121973e-05   0.61309741  0.067238456            0   0.54585895    1.5082098    2.1213072    8.0729972 
16350000    1.0504709 7.6371441e-05   0.60871348  0.032815904            0   0.57589757    1.5363136    2.1450271    9.9654627 
16355000    1.1212912 3.0903523e-05     0.527871  0.038687676            0   0.48918332    1.6398883    2.1677593    5.3322801 
16360000    1.0370889 3.6331455e-11   0.63961979  0.051677647            0   0.58794214    1.5167426    2.1563624    2.1563661 
16365000   0.97878295 -5.9565302e-05   0.72809617  0.086109357            0   0.64198682    1.4314701    2.1595662   -3.9399207 
16370000    1.0431976 -3.9308122e-05   0.68212463   0.14815754            0   0.53396709    1.5256765    2.2078011   -1.8173505 
16375000    1.1526318 4.4074014e-05   0.49258898  0.039140773            0   0.45344821    1.6857241    2.1783131    6.6914921 
16380000    1.0246582 3.3691925e-05   0.63921751 0.0094396055            0    0.6297779    1.4985627    2.1377802    5.5878333 
16385000    1.0610058 -5.3147268e-05   0.59803134  0.025232645            0   0.57279869     1.551721    2.1497524   -3.2925278 
16390000    1.0703597 -5.6425163e-05   0.54362606  0.018775053            0   0.52485101     1.565401    2.1090271   -3.6689095 
16395000    1.1614625 -1.2151683e-06   0.44723386  0.003494853            0     0.443739     1.698639    2.1458728    2.0214396 
16400000    1.0570452 -5.6861068e-05   0.58135199 1.0922507e-05            0   0.58134107    1.5459286    2.1272806   -3.6952928 
16405000     1.083926 -2.4259944e-05   0.55565236            0            0   0.55565236    1.5852417    2.1408941  -0.34332415 
16410000    1.1319419 5.1344401e-05   0.48128375 4.3650149e-05            0    0.4812401    1.6554651    2.1367488    7.3944155 
16415000     1.108396 3.1707279e-05   0.50776743            0            0   0.50776743    1.6210292    2.1287966    5.3756219 
16420000    1.0377355 -6.8832419e-05   0.63545562            0            0   0.63545562    1.5176882    2.1531438   -4.8952959 
16425000    1.0859669 -7.0075527e-05   0.58368026            0            0   0.58368026    1.5882265    2.1719068   -5.0038272 
16430000    1.1338745 2.7555043e-05   0.52610644  0.011808375            0   0.51429807    1.6582914    2.1843978    5.0060343 
16435000    1.1774471 1.7564616e-05   0.49455474  0.027007157            0   0.46754759    1.7220163    2.2165711    4.0151878 
16440000     1.138176 -2.7559398e-05   0.59509049 0.0045894234            0   0.59050107    1.6645824    2.2596729  -0.56240939 
16445000    1.1456073 -4.6761559e-05     0.593646 0.0054588169            0   0.58818718    1.6754507    2.2690967    -2.519287 
16450000    1.0645708 -6.7045407e-05   0.64982965 0.0075248136            0   0.64230483    1.5569348    2.2067645   -4.6586852 
16455000    1.0958052 -4.9752908e-05   0.59465284 0.0037152185            0   0.59093762     1.602615    2.1972679   -2.8974299 
16460000    1.1461889 -5.9604335e-05   0.52296704 0.0049319937            0   0.51803504    1.6763013    2.1992683   -3.9042156 
16465000     1.144249 -6.8696016e-05   0.52128467 0.0087927648            0    0.5124919    1.6734642    2.1947488   -4.8397232 
16470000    1.0962033 -3.0038031e-05   0.56263828 0.0058132955            0   0.55682499    1.6031973    2.1658355  -0.91005887 
16475000    1.1263928 5.3061595e-05   0.51646044 0.0025035859            0   0.51395685    1.6473494    2.1638099    7.5973172 
16480000    1.0813514 2.3055761e-05   0.58954367  0.012180837            0   0.57736283    1.5814764    2.1710201    4.5319299 
16485000    1.1032528 -3.2642059e-05    0.5822175  0.015775752            0   0.56644174    1.6135072    2.1957247   -1.1468222 
16490000    1.1500833 -5.3722836e-07   0.51434963 0.0017136289            0     0.512636    1.6819968    2.1963465    2.1413343 
16495000     1.111207 6.0742124e-05   0.53170727   0.00103728            0   0.53066999    1.6251403    2.1568476    8.3768411 
16500000     1.099914 8.1068163e-05    0.5433592  0.012999322            0   0.53035987    1.6086242    2.1519834    10.453363 
16505000    1.1079796 4.2941221e-05   0.53809137  0.033889972            0    0.5042014    1.6204201    2.1585115    6.5556925 
16510000    1.0759852 -1.1649361e-05   0.56803897  0.031212592            0   0.53682638    1.5736283    2.1416673    0.9487727 
16515000    1.1510319 2.1617271e-05   0.46921421  0.047322046            0   0.42189216    1.6833842    2.1525984     4.366207 
16520000    1.0866761 8.5210319e-05   0.55321104 0.0071020111            0   0.54610903    1.5892638    2.1424749    10.868011 
16525000    1.1222748 5.2881174e-05   0.50591368 0.0075375078            0   0.49837618    1.6413269    2.1472406    7.5622727 
16530000   0.94575544 1.8523156e-05   0.78754861 0.0089925802            0   0.77855603    1.3831673    2.1707159    4.0674871 
16535000    1.1689889 2.9075652e-05   0.44893783 0.00089264867            0   0.44804518    1.7096463    2.1585842     5.135931 
16540000    1.1104481 8.5468445e-06   0.54951767            0            0   0.54951767    1.6240304    2.1735481     3.048745 
16545000    1.1129314 -4.6395999e-05   0.59173035            0            0   0.59173035    1.6276622    2.2193926   -2.5315577 
16550000     1.136148 2.4427291e-06   0.49619109  0.011740059            0   0.48445103    1.6616164    2.1578075    2.4079429 
16555000    1.1202205 1.929175e-05   0.50116741  0.030496201            0   0.47067121    1.6383225    2.1394899    4.1149651 
16560000   0.95448303 -7.2469485e-05   0.74078538  0.013417391            0   0.72736799    1.3959314    2.1367168   -5.2841584 
16565000    1.1553613 -5.470173e-05   0.47490291  0.012063591            0   0.46283932    1.6897159    2.1646188   -3.4368383 
16570000    1.0430903 -5.9576796e-05   0.61604812  0.009811544            0   0.60623657    1.5255195    2.1415676   -3.9590963 
16575000    1.1120584 -5.9391643e-05   0.55323142  0.027481376            0   0.52575004    1.6263854    2.1796168   -3.9020874 
16580000    1.0753899 -2.6860299e-05   0.57691531  0.041982404            0   0.53493291    1.5727578    2.1496731  -0.60082154 
16585000   0.96295434 -1.2748222e-05   0.72113672  0.050317002            0   0.67081972    1.4083207    2.1294574   0.82403951 
16590000    1.1177645 2.696701e-05   0.48275915   0.02173256            0   0.46102659    1.6347306    2.1174898    4.8789116 
16595000     1.027919 4.9205281e-05   0.65924485  0.052072459            0   0.60717239    1.5033315    2.1625764    7.2011972 
16600000   0.95838084 5.3768017e-05   0.79389812  0.031360286            0   0.76253783     1.401632    2.1955301     7.701375 
16605000    1.1722384 8.1097948e-05   0.51615332   0.11894516            0   0.39720816    1.7143987     2.230552    10.534982 
16610000    1.1460279 7.0953281e-05   0.59437026  0.069423471            0   0.52494679    1.6760658    2.2704361    9.5360521 
16615000    1.0540496 8.7111236e-05   0.73423501  0.068717124            0   0.66551789    1.5415476    2.2757826    11.195973 
16620000    1.1417949 0.00010375536   0.60114162  0.033442561            0   0.56769906     1.669875    2.2710167    12.895565 
16625000    1.2043184 7.0291176e-06   0.50169937 0.0087693889            0   0.49292998    1.7613157     2.263015    2.9827967 
16630000    1.1224186 -4.0676068e-05   0.65486199 0.0051660461            0   0.64969594    1.6415373    2.2963993   -1.8688301 
16635000    1.1758666 -1.2980848e-05   0.53671335  0.038493756            0    0.4982196     1.719705    2.2564183   0.92717949 
16640000    1.0341751 1.1997623e-05   0.79037144   0.08604463            0   0.70432681     1.512481    2.3028525    3.5314091 
16645000    1.2229334 3.9299981e-05   0.51940587  0.072402608            0   0.44700326      1.78854    2.3079459    6.3322639 
16650000    1.0674427 5.9434672e-05    0.8024187  0.011825578            0   0.79059312     1.561135    2.3635537     8.449664 
16655000    1.1221211 6.7233443e-05   0.73201681  0.053610506            0   0.67840631    1.6411021    2.3731189    9.2578235 
16660000    1.1028717 1.881726e-05   0.75293613  0.034021511            0   0.71891462    1.6129499    2.3658861    4.2927735 
16665000    1.1144905 1.8392268e-05   0.72992083  0.015939012            0   0.71398181    1.6299424    2.3598632    4.2432314 
16670000     1.207898 -5.7201725e-05   0.57042815 0.0081861412            0   0.56224201    1.7665508     2.336979   -3.5204777 
16675000    1.1858362 -8.2440834e-05   0.64778513 0.0065072131            0   0.64127792    1.7342855    2.3820706   -6.0598708 
16680000    1.2153322 -5.712699e-05   0.66306614  0.039687509            0   0.62337863    1.7774233    2.4404895   -3.4093143 
16685000    1.1044569 -0.00011796582    0.8223077   0.03594664            0   0.78636106    1.6152683     2.437576   -9.6421237 
16690000    1.2780221 -6.5327296e-05   0.57416078  0.014079299            0   0.56008148    1.8691073    2.4432681    -4.246247 
16695000    1.3641039 -1.8704785e-05    0.5101232  0.010441733            0   0.49968147     1.995002    2.5051252   0.58975524 
16700000    1.1196628 -8.1973391e-06   0.79050446   0.12197196            0    0.6685325    1.6375069    2.4280113    1.5886038 
16705000    1.2212886 -1.5190699e-06   0.66007463  0.041977102            0   0.61809753    1.7861345    2.4462092    2.2906564 
16710000    1.1760325 3.7644874e-05   0.70569278 0.0067009269            0   0.69899185    1.7199476    2.4256403    6.2804754 
16715000    1.2432683 6.4662055e-05   0.59422665 0.0011068508            0    0.5931198    1.8182799    2.4125066     9.033901 
16720000    1.3134419 1.9426091e-05   0.50480155 0.0055527104            0   0.49924884    1.9209088    2.4257104    4.4149421 
16725000    1.3591811 -5.2711146e-05   0.42240028 0.0027819782            0    0.4196183    1.9878023    2.4102026   -2.9874188 
16730000    1.3020732 -3.6835801e-05   0.49097738            0            0   0.49097738    1.9042821    2.3952594   -1.3767266 
16735000    1.2301736 6.2576767e-06   0.59276048 0.0032487338            0   0.58951174    1.7991289    2.3918894    3.0326755 
16740000    1.2780783 2.7731532e-05   0.45253698  0.029942839            0   0.42259414    1.8691895    2.3217265    5.1614354 
16745000    1.2151105 3.7522297e-05   0.58302621  0.073948489            0   0.50907772    1.7770991    2.3601253    6.2024085 
16750000    1.1343073 1.2166689e-05   0.67793594  0.048702222            0   0.62923371    1.6589244    2.3368603    3.5827292 
16755000    1.0631367 -9.1530458e-05   0.75049941  0.025326392            0   0.72517301    1.5548374    2.3053368   -7.0673821 
16760000     1.105778 -5.3008823e-05   0.72236974  0.075104966            0   0.64726478    1.6172003      2.33957   -3.0885335 
16765000    1.1627992 -4.947592e-06   0.61896842  0.017565771            0   0.60140265    1.7005938    2.3195622    1.8129288 
16770000    1.3143412 -3.3111703e-05   0.41238661 0.0069984511            0   0.40538816    1.9222241    2.3346107   -1.0560276 
16775000    1.3141011 -4.619748e-05   0.44946669 0.0030044922            0    0.4464622    1.9218728    2.3713395   -2.3592825 
16780000    1.2583615 -4.7312069e-07   0.46656208 0.0011310728            0   0.46543101    1.8403537    2.3069158    2.2584682 
16785000    1.2147911 -2.0308677e-05   0.50344464 0.00032502677            0   0.50311962     1.776632    2.2800766   0.20046812 
16790000    1.2262999 -7.2017486e-05   0.46898444 9.5381086e-05            0   0.46888906    1.7934636     2.262448   -5.1121426 
16795000    1.2728259 3.4259688e-05   0.34210657   0.02149038            0   0.32061619    1.8615079    2.2036145    5.7118065 
16800000      1.22399 5.5690587e-05   0.44516411  0.061674154            0   0.38348995    1.7900853    2.2352494    7.9379655 
16805000    1.2212585 -4.3155273e-05   0.47935471 0.0083047534            0   0.47104995    1.7860905    2.2654452   -2.1536548 
16810000    1.2957165 -6.7408313e-05    0.3707464 0.0060779509            0   0.36466845    1.8949854    2.2657318   -4.6368795 
16815000    1.2594619 -5.4201632e-05   0.42601642  0.031792726            0    0.3942237     1.841963    2.2679795   -3.2822676 
16820000     1.182691 -3.0924394e-05   0.55673197  0.026957111            0   0.52977486    1.7296856    2.2864175  -0.88024046 
16825000     1.279322 3.3795288e-05   0.38429559 0.0026221745            0   0.38167342    1.8710084     2.255304    5.7159415 
16830000    1.1539041 -0.00011618779   0.55617136  0.025127297            0   0.53104406    1.6875848    2.2437561    -9.653874 
16835000    1.1994572 -9.221342e-05   0.50473674  0.055299503            0   0.44943724    1.7542061    2.2589429   -7.1837113 
16840000    1.2391372 6.9831479e-05   0.44875401 0.0064810012            0   0.44227301    1.8122381    2.2609921    9.4117356 
16845000    1.2867931 8.8709436e-05   0.43533952 0.0034788462            0   0.43186068    1.8819349    2.3172744    11.401121 
16850000    1.3119573 -4.0944033e-05   0.44071862 0.0013710772            0   0.43934755    1.9187376    2.3594562   -1.8332128 
16855000    1.1924585 -6.4263847e-05     0.607381 0.0043049537            0   0.60307605    1.7439705    2.3513515   -4.2292664 
16860000    1.2655084 -4.158962e-06   0.45609519  0.011614854            0   0.44448034     1.850806    2.3069012    1.8810235 
16865000    1.1700853 -7.5411059e-06   0.60558588  0.011895715            0   0.59369017    1.7112497    2.3168356    1.5446263 
16870000    1.2057274 2.9730746e-06    0.5334803 0.0054522293            0   0.52802807    1.7633763    2.2968566    2.6012994 
16875000    1.1456621 3.7958557e-05   0.63349168 0.0013295322            0   0.63216215    1.6755308    2.3090224    6.1959787 
16880000    1.2204401 9.2031117e-05   0.55347866 0.0028154649            0   0.55066319    1.7848937    2.3383723    11.762359 
16885000    1.1286247 0.00013635494   0.65761377  0.011512704            0   0.64610106    1.6506136    2.3082274    16.270973 
16890000    1.1026327 7.2980593e-05   0.67905937  0.051662313            0   0.62739706    1.6126003    2.2916596    9.7648724 
16895000    1.0614539  3.56887e-06   0.74608596   0.16071665            0   0.58536931    1.5523764    2.2984623    2.6639146 
16900000    1.1948105 2.5261045e-05   0.58413343  0.075156477            0   0.50897696    1.7474104    2.3315438    4.9182748 
16905000     1.113414 7.616181e-06    0.7041497  0.038842723            0   0.66530698    1.6283679    2.3325176    3.1124146 
16910000    1.1790571 1.0615519e-05   0.61301691 0.0085419413            0   0.60447497    1.7243709    2.3373879     3.424417 
16915000    1.1770838 2.7030026e-05   0.62621143 0.0019760881            0   0.62423534     1.721485    2.3476965    5.1155711 
16920000    1.1321469 8.5733517e-05   0.70850972 0.0054496845            0   0.70306004    1.6557648    2.3642745    11.143387 
16925000    1.1589427 8.5363259e-05   0.69505972  0.023701352            0   0.67135836    1.6949537    2.3900134    11.131211 
16930000    1.3067862 -2.3751048e-05   0.49265977  0.027515029            0   0.46514474    1.9111748    2.4038345 -0.028272781 
16935000    1.2478154 -3.0756223e-05   0.57522577  0.012836173            0   0.56238959      1.82493    2.4001558  -0.74928141 
16940000    1.2300274 -4.6283925e-05   0.63626796  0.046478881            0   0.58978908     1.798915     2.435183    -2.304291 
16945000    1.3053306 -7.3720107e-05   0.59024595  0.014255041            0   0.57599091    1.9090461     2.499292    -5.049647 
16950000    1.3003602 -7.2620792e-06    0.6242359  0.001152987            0   0.62308292    1.9017768    2.5260127    1.7823758 
16955000    1.2523019 3.5523012e-05   0.69422792  0.002913764            0   0.69131415    1.8314915    2.5257195    6.1632759 
16960000    1.3023239 4.2699413e-05   0.63458587  0.014528439            0   0.62005743    1.9046487    2.5392346    6.9116545 
16965000    1.3328312 3.2613316e-05    0.5700432  0.092020266            0   0.47802294    1.9492656    2.5193088    5.8589124 
16970000    1.2462073 -1.186228e-05   0.64709923  0.049667642            0   0.59743158    1.8225781    2.4696774    1.2549799 
16975000    1.2041811 -5.1462378e-05   0.70787101  0.023548169            0   0.68432284    1.7611149    2.4689859   -2.8007616 
16980000    1.1751754 1.2877021e-05   0.74171525 0.0074505877            0   0.73426467    1.7186941    2.4604093    3.7790163 
16985000    1.1946839 4.7180516e-05   0.68465824  0.014209413            0   0.67044882    1.7472251    2.4318834    7.2631682 
16990000    1.4129992 1.9702587e-05   0.37630483  0.026015116            0   0.35028971    2.0665114    2.4428162    4.4603611 
16995000      1.22989 -4.4365655e-05   0.62177448  0.036440057            0   0.58533442    1.7987141    2.4204885   -2.1225545 
17000000     1.175626 -2.5930906e-05   0.73064549   0.01874385            0   0.71190164     1.719353    2.4499985   -0.2053263 
17005000    1.2639023 -2.2925152e-05   0.58812047  0.016062842            0   0.57205762    1.8484571    2.4365775   0.08904193 
17010000    1.2618329 2.6741988e-05   0.57229386  0.034051274            0   0.53824258    1.8454306    2.4177244     5.156104 
17015000    1.3283816 6.2175603e-05   0.45017604  0.044189312            0   0.40598673    1.9427582    2.3929342    8.7597159 
17020000    1.1409766 9.5130289e-06   0.70106651  0.048256985            0   0.65280953    1.6686783    2.3697448     3.343879 
17025000     1.183606 -2.107958e-05   0.65870569  0.042641928            0   0.61606376    1.7310238    2.3897295   0.23118057 
17030000    1.2543534 2.7960588e-06   0.55973287  0.057251173            0   0.50248169    1.8344919    2.3942248    2.6805412 
17035000    1.3409827 2.810587e-05   0.46943604 0.0056515971            0   0.46378444    1.9611871    2.4306232    5.3086643 
17040000    1.2961194 7.9531171e-06   0.54975972 0.00015635732            0   0.54960336    1.8955746    2.4453343    3.2597335 
17045000    1.4058705 1.7143657e-05   0.39336839 2.9801862e-06            0   0.39336541    2.0560857     2.449454    4.2049645 
17050000    1.1974683 -3.0212189e-05   0.65852901 0.0079502562            0   0.65057876    1.7512974    2.4098264  -0.68390175 
17055000     1.221232 -8.6939927e-05   0.59135164  0.051090983            0   0.54026066    1.7860519    2.3774035    -6.525245 
17060000    1.1056369 -5.728688e-05    0.7401252  0.060514502            0    0.6796107     1.616994    2.3571192   -3.5090573 
17065000     1.216848 -3.640008e-06   0.56864944  0.011076524            0   0.55757291    1.7796402    2.3482896    1.9755528 
17070000    1.2975922 3.7164835e-05   0.43480935  0.018102602            0   0.41670675    1.8977286    2.3325379    6.1382171 
17075000    1.1606822 3.5090908e-05   0.62297203  0.057948674            0   0.56502335    1.6974978    2.3204698    5.9137788 
17080000    1.1037459 -5.89263e-05   0.68300382  0.051881263            0   0.63112255    1.6142283    2.2972322    -3.736821 
17085000    1.1326278 -3.3230263e-05   0.64502493  0.037986662            0   0.60703827    1.6564681     2.301493   -1.1012859 
17090000    1.1725921 -4.7019211e-06   0.63061692    0.0109497            0   0.61966722    1.7149159    2.3455328    1.8640561 
17095000    1.1119222 -0.00012229002   0.70084769  0.019653245            0   0.68119444    1.6261862    2.3270339   -10.195465 
17100000     1.158277 -8.648864e-05    0.6437795 0.0030504281            0   0.64072908    1.6939801    2.3377596   -6.5186771 
17105000    1.2436956 1.6805509e-05   0.52237014 0.0038705295            0   0.51849961    1.8189048     2.341275    4.0621591 
17110000    1.1498047 9.0321232e-07   0.63356103  0.042938384            0   0.59062265    1.6815894    2.3151504    2.4076394 
17115000    1.1533043 6.1320367e-05    0.6457798  0.057602655            0   0.58817714    1.6867076    2.3324874     8.611693 
17120000    1.0742492 7.5112411e-05   0.69412324   0.02227775            0   0.67184549    1.5710895    2.2652127    9.9567237 
17125000    1.1449002 3.8647355e-05   0.60630304  0.023690937            0    0.5826121    1.6744166    2.2807196    6.2382088 
17130000    1.1909352 7.0986326e-05   0.56651895  0.011572495            0   0.55494645    1.7417427    2.3082617    9.5772615 
17135000    1.2066526 -1.0620671e-06    0.5943514  0.024284777            0   0.57006662    1.7647295    2.3590809    2.2503252 
17140000    1.1537996 -6.7850111e-06   0.70228725  0.051239854            0    0.6510474    1.6874319    2.3897192    1.6949341 
17145000    1.1928196 -2.771016e-05   0.64869919  0.017098603            0   0.63160059    1.7444987    2.3931979  -0.44432247 
17150000    1.1122562 -3.7346632e-05    0.7464224 0.0019129484            0   0.74450945    1.6266747    2.3730971    -1.451198 
17155000    1.1817062 -2.7455607e-05   0.61459656  0.004822323            0   0.60977424    1.7282453    2.3428419  -0.46861234 
17160000    1.1349764 -4.4662809e-05   0.71944105 0.0094843526            0    0.7099567     1.659903    2.3793441   -2.1941276 
17165000    1.2090487 -1.7678731e-05   0.59390204 0.0043679925            0   0.58953405    1.7682338    2.3621358   0.55183375 
17170000    1.2781609 4.1232464e-05   0.54373046 0.00025136005            0    0.5434791    1.8693104    2.4130408    6.6352451 
17175000    1.3394712 7.0422725e-05   0.49889759            0            0   0.49889759    1.9589766    2.4578742    9.6691613 
17180000    1.2687873 -1.6350041e-06   0.62030869 0.00065097822            0   0.61965771    1.8556014    2.4759101    2.3084857 
17185000    1.1890058 -0.00010294098   0.76681683 0.0069325963            0   0.75988423     1.738921    2.5057378   -8.0354182 
17190000    1.3265255 -6.8526296e-05   0.59031762  0.008184324            0   0.58213329    1.9400436    2.5303612   -4.4867315 
17195000    1.2720488 1.3503334e-05    0.6396461 0.0033213911            0   0.63632471    1.8603714    2.5000175     3.882759 
17200000    1.3520907 -1.5449649e-05    0.5237928            0            0    0.5237928    1.9774327    2.5012255   0.91918152 
17205000    1.2821544 -1.3617238e-05   0.58525124            0            0   0.58525124    1.8751508    2.4604021    1.0659969 
17210000    1.2239501 -1.4397065e-06   0.66333301 0.0078708722            0   0.65546214     1.790027      2.45336    2.3059341 
17215000    1.2695003 -3.3817536e-05   0.54813772  0.023573746            0   0.52456398    1.8566442    2.4047819   -1.0581338 
17220000    1.3085243 -1.8161308e-05   0.50760204  0.020134463            0   0.48746757    1.9137168    2.4213188   0.56160081 
17225000    1.3398785 -1.2463758e-05    0.4856239 0.0033630287            0   0.48226087    1.9595723    2.4451962    1.1689074 
17230000     1.333243 -3.4634178e-05   0.47109994   0.02439368            0   0.44670626    1.9498679    2.4209678    -1.125572 
17235000    1.2930803 -7.3342817e-05   0.55330747  0.081148434            0   0.47215904    1.8911299    2.4444374   -5.0658671 
17240000    1.2507355 4.8059047e-05   0.62452555  0.034024508            0   0.59050104    1.8292007    2.4537262    7.3749726 
17245000    1.1709531 0.00010313606   0.74963383   0.12510782            0   0.62452601    1.7125188    2.4621527    13.023285 
17250000    1.2209758 0.00012683016   0.67015868  0.049018573            0   0.62114011    1.7856771    2.4558358    15.443244 
17255000    1.2413849 3.1761626e-05    0.6489683 0.0035453446            0   0.64542296    1.8155255    2.4644938    5.7168843 
17260000    1.3001643 -5.4264509e-05   0.55772194  0.023022488            0   0.53469945    1.9014903    2.4592122   -3.0974735 
17265000    1.3464086 5.1515618e-06   0.43108152  0.021079003            0   0.41000252    1.9691226    2.4002041     2.927724 
17270000    1.1611663 -5.598059e-06   0.67870999  0.010759167            0   0.66795082    1.6982058    2.3769158    1.8036745 
17275000     1.203259 3.3476238e-05   0.62249427 0.0086405254            0   0.61385375    1.7597663    2.3822606    5.8102274 
17280000    1.2710194 4.0061642e-06   0.53224817  0.041846355            0   0.49040181    1.8588658     2.391114    2.8013452 
17285000    1.1418316 1.1638732e-05   0.69615585  0.044484582            0   0.65167127    1.6699287    2.3660846    3.5578907 
17290000    1.2347524 5.8672555e-05   0.60036999 0.0078858356            0   0.59248416    1.8058254    2.4061954     8.414265 
17295000    1.1647297 -6.8138058e-05   0.70535869  0.055388923            0   0.64996976    1.7034171    2.4087758   -4.5685613 
17300000    1.3206947 -2.3434348e-05   0.49131779  0.035456285            0   0.45586151     1.931516    2.4228338  0.023156543 
17305000    1.3402428 -3.327058e-05   0.49969472  0.022664897            0   0.47702982     1.960105    2.4597997  -0.94710766 
17310000    1.2143038 1.7730645e-06    0.7411563   0.12538811            0   0.61576819    1.7759193    2.5170756    2.6986374 
17315000    1.3800194 2.9585705e-07   0.49426879  0.047903743            0   0.44636504    2.0182784    2.5125472     2.542843 
17320000    1.3756068 -0.00010743588   0.53044001  0.032248189            0   0.49819182    2.0118249    2.5422649    -8.459169 
17325000    1.2253111 -4.6051964e-05   0.79624729  0.039941908            0   0.75630538    1.7920174    2.5882647   -2.1274564 
17330000    1.4556458 -3.3365439e-05   0.50644237  0.026248059            0   0.48019432     2.128882    2.6353244  -0.78129657 
17335000    1.3090645 -9.3166708e-06   0.70411574  0.010641718            0   0.69347402    1.9145068    2.6186225    1.6645954 
17340000    1.3559559 -5.1422874e-05    0.6000022  0.016566944            0   0.58343525    1.9830856    2.5830878   -2.6826145 
17345000    1.3032801 -2.333981e-05   0.69878156  0.011449198            0   0.68733236    1.9060472    2.6048287   0.21483217 
17350000    1.4722073 8.9384028e-05   0.48160028  0.012343407            0   0.46925687    2.1531032    2.6347035    11.787628 
17355000    1.4101142 1.7516976e-05    0.5627119   0.05651654            0   0.50619536     2.062292    2.6250039    4.4187423 
17360000    1.3318904 1.9212519e-05   0.63793692  0.071226099            0   0.56671082    1.9478897    2.5858267    4.5531886 
17365000    1.3300082 8.0933555e-05   0.59293939   0.02932499            0    0.5636144     1.945137    2.5380764    10.825672 
17370000    1.2484285 2.0736072e-06   0.64705433  0.015233835            0    0.6318205    1.8258267     2.472881    2.6852184 
17375000    1.2670397 -2.9828689e-07   0.60224878 0.0072158858            0   0.59503289    1.8530455    2.4552943    2.4247497 
17380000    1.2886175 -5.1042905e-05   0.55513428 0.00072183682            0   0.55441244    1.8846031    2.4397374   -2.7870561 
17385000    1.2318781 -0.00010262671   0.63003579  0.014414588            0    0.6156212    1.8016217    2.4316575   -8.0773181 
17390000    1.2731163 -5.8378979e-05   0.56113583  0.083319297            0   0.47781653    1.8619326    2.4230684    -3.554939 
17395000     1.190903 -5.5300809e-06   0.66001769  0.038835051            0   0.62118264    1.7416956    2.4017133     1.835433 
17400000    1.2415506 7.138526e-06    0.5736536 0.0020571799            0   0.57159642    1.8157677    2.3894213    3.1204064 
17405000    1.2837972 1.2028147e-05   0.48108128  0.022171023            0   0.45891026    1.8775534    2.3586347    3.5903169 
17410000    1.2641237 -6.4511292e-05   0.52791443  0.041750354            0   0.48616408    1.8487809    2.3766953    -4.229261 
17415000    1.2316602 -8.3090649e-05   0.55849269  0.016496869            0   0.54199582    1.8013031    2.3597957   -6.1486867 
17420000     1.177117 -6.6927263e-05   0.64283045  0.081018922            0   0.56181152    1.7215336     2.364364   -4.4889877 
17425000    1.2026404 -6.3729415e-05   0.57869027  0.050939457            0   0.52775081    1.7588616    2.3375519   -4.1883402 
17430000    1.2190849 -2.9881382e-05   0.53460044 0.0061577625            0   0.52844268    1.7829116    2.3175121  -0.74234148 
17435000     1.200356 -1.3883648e-06   0.55023637  0.015311895            0   0.53492447    1.7555207    2.3057571    2.1635885 
17440000    1.1517022 -2.394191e-05   0.60851679  0.013423078            0   0.59509372    1.6843644    2.2928812  -0.15877034 
17445000    1.1907351 -4.2310258e-05    0.5586241   0.07202723            0   0.48659687    1.7414501    2.3000742   -2.0324962 
17450000    1.0594397 -4.7275434e-05   0.71568917  0.098441462            0   0.61724771    1.5494306    2.2651198   -2.5758847 
17455000    1.1477312 -3.8832511e-05   0.55467947  0.043936665            0    0.5107428    1.6785569    2.2332363   -1.7432128 
17460000    1.1643722 -2.7139562e-05   0.56195008  0.018309769            0   0.54364031    1.7028943    2.2648444  -0.51424681 
17465000    1.2432774 9.297096e-06   0.40834626  0.031295237            0   0.37705102    1.8182931    2.2266394     3.178662 
17470000    1.1869441 -1.644183e-05   0.46368189  0.019300097            0    0.4443818    1.7359057    2.1995876   0.51594423 
17475000     1.146922 -4.4331586e-05   0.46995784  0.036183406            0   0.43377443    1.6773735    2.1473313    -2.392223 
17480000    1.1311567 -5.2033536e-05   0.53034355  0.039833558            0   0.49050999    1.6543167    2.1846603   -3.1435738 
17485000    1.2160497 -9.0656823e-06   0.40141483 0.0047408354            0   0.39667399    1.7784727    2.1798875    1.2515616 
17490000    1.0817604 -3.4511205e-05   0.64767768 0.0010047094            0   0.64667297    1.5820745    2.2297522   -1.3041952 
17495000    1.1134425 -4.6550632e-05   0.58160364 0.00078046183            0   0.58082318    1.6284096    2.2100133   -2.5567715 
17500000     1.076724 1.8901993e-05   0.60316179  0.063400025            0   0.53976176    1.5747088    2.1778706    4.1134347 
17505000    1.1678159 6.8624679e-05   0.44833588  0.031063484            0    0.4172724    1.7079307    2.1562666    9.1834337 
17510000    1.2597461 4.6613189e-06   0.35921263            0            0   0.35921263    1.8423787    2.2015913    2.6789104 
17515000    1.1509601 -4.9122047e-05   0.45159058 0.0049998988            0   0.44659068    1.6832791    2.1348697   -2.8952279 
17520000   0.97728586 -6.9987093e-05   0.71712298  0.044333589            0   0.67278939    1.4292806    2.1464035   -5.0202748 
17525000    1.1383099 -4.3693043e-05   0.50970113 0.0099273089            0   0.49977382    1.6647783    2.1744794   -2.2996882 
17530000    1.2334566 -4.3518252e-05    0.3253965            0            0    0.3253965    1.8039303    2.1293268   -2.3269422 
17535000    1.1592747 -1.1634121e-05    0.4688585            0            0    0.4688585    1.6954392    2.1642977   0.97296365 
17540000    1.1063291 -1.8743105e-05   0.53690948 0.0014943489            0   0.53541513    1.6180064    2.1549158   0.23562192 
17545000    1.1031738 -4.3141365e-05   0.50203429  0.030446514            0   0.47158777    1.6133917     2.115426   -2.3022498 
17550000    1.0501258 -3.7368832e-06   0.59972971  0.088297782            0   0.51143193     1.535809    2.1355387    1.7528819 
17555000    1.1048197 -1.0546299e-05    0.5620182  0.026566027            0   0.53545217    1.6157987    2.1778169    1.0978759 
17560000     1.230674 -4.4496426e-05   0.33931431  0.031648828            0   0.30766548    1.7998607     2.139175    -2.417259 
17565000    1.1488992 -7.9432192e-05   0.54287494  0.040397162            0   0.50247778    1.6802651    2.2231401   -5.9107163 
17570000    1.1326776 9.0411413e-07   0.54212626 0.0062625762            0   0.53586368    1.6565409    2.1986672    2.2912485 
17575000    1.2012269 6.5735543e-05   0.41026082  0.025636951            0   0.38462387    1.7567944    2.1670552    8.8983748 
17580000    1.0754318 1.1134139e-05   0.59457671   0.11368687            0   0.48088984     1.572819    2.1673957    3.3075315 
17585000    1.1372035 -1.9831928e-05   0.47136221  0.014651484            0   0.45671073    1.6631601    2.1345223   0.10373281 
17590000    1.0328639 -4.475486e-05   0.60283578 0.0013625697            0   0.60147321    1.5105635    2.1133993   -2.4694984 
17595000    1.1487018 -2.1584579e-05   0.44472167 0.0028743537            0   0.44184731    1.6799764    2.1246981 -0.085562829 
17600000    1.1550441 -2.3332384e-05   0.43189177 0.0018798118            0   0.43001196     1.689252    2.1211438  -0.26809227 
17605000    1.0773521 -1.9961814e-05   0.55158771 0.00096087926            0   0.55062683    1.5756275    2.1272152  0.083125467 
17610000    1.0597219 -2.3672087e-05   0.63766877 0.0048418932            0   0.63282687    1.5498433    2.1875121  -0.23650963 
17615000    1.1561028 -9.4334091e-06   0.49586025  0.030802099            0   0.46505815    1.6908003    2.1866605    1.2206795 
17620000     1.047983 -5.3143991e-05   0.66490611  0.070807599            0   0.59409851    1.5326751    2.1975813   -3.2443634 
17625000    1.1539308 4.525368e-05   0.51239254  0.030069445            0    0.4823231    1.6876238    2.2000164    6.8339932 
17630000    1.1797152 4.8318242e-05   0.44707751  0.030911915            0    0.4161656    1.7253334     2.172411    7.1201989 
17635000    1.0994434 -0.00011039251   0.56246073  0.013467259            0   0.54899347     1.607936    2.1703968   -9.1337964 
17640000    1.0338658 3.5418703e-05    0.6216858 0.0013241571            0   0.62036164    1.5120288    2.1337146    5.7605898 
17645000   0.95066279 5.289242e-05   0.70379106  0.015367648            0   0.68842342    1.3903443    2.0941354    7.5103192 
17650000   0.95760754 -1.0321012e-05   0.69059489  0.070288817            0   0.62030607     1.400501    2.0910959    1.0342243 
17655000    1.0515501 1.558585e-05    0.5538541  0.056522989            0   0.49733111     1.537892    2.0917461    3.6877371 
17660000    1.0911662 2.1459741e-05    0.5088606 0.0036922382            0   0.50516836    1.5958305    2.1046911    4.3021686 
17665000    1.0275123 -6.4267454e-05   0.60956486   0.05039409            0   0.55917077    1.5027367    2.1123015   -4.4686857 
17670000    1.1758589 -2.0348277e-05   0.42295559  0.051536963            0   0.37141863    1.7196936    2.1426492  0.058985586 
17675000    1.1751372 9.6346074e-06    0.3831605   0.01304841            0   0.37011209    1.7186382    2.1017987    3.0883825 
17680000   0.96068704 3.5450924e-06   0.76094661  0.015071711            0    0.7458749    1.4050048    2.1659514    2.5289689 
17685000    1.0608036 8.2521477e-05   0.61480762  0.014429976            0   0.60037765    1.5514253    2.1662329    10.616432 
17690000    1.1286396 -2.2469144e-05     0.471286  0.026472941            0   0.44481305    1.6506354    2.1219214  -0.17891897 
17695000    1.1014943 -7.3753818e-05   0.49868721   0.04594289            0   0.45274432    1.6109354    2.1096226   -5.4427684 
17700000   0.99145137 -4.0501827e-05   0.65277118  0.038588078            0    0.6141831    1.4499976    2.1027688   -2.0446183 
17705000    1.1182084 -9.7705189e-06    0.4457963 0.0051595275            0   0.44063677    1.6353797     2.081176    1.0806749 
17710000    1.0579017 8.6877329e-05    0.5846683 0.0010562576            0   0.58361204    1.5471813    2.1318496    11.028088 
17715000    1.0541806 8.5961801e-06     0.561941  0.025701522            0   0.53623948    1.5417391    2.1036801     2.983929 
17720000    1.0398317 4.0221877e-05   0.60698701  0.093363249            0   0.51362376    1.5207538    2.1277408     6.246461 
17725000    1.0544592 0.00010566515   0.57338964  0.023328828            0   0.55006081    1.5421466    2.1155363    12.935648 
17730000   0.98052642 8.6789333e-06   0.68381243 0.00044680007            0   0.68336563    1.4340199    2.1178323    3.0065551 
17735000    1.1236306 -7.2270092e-06   0.48516158 7.9010244e-05            0   0.48508257    1.6433098    2.1284714    1.3884256 
17740000    1.0602211 -2.6707517e-05   0.56823491 0.0054970204            0   0.56273789    1.5505733    2.1188082  -0.61604151 
17745000    1.0335031 -4.00241e-05   0.60361445  0.045975833            0   0.55763862    1.5114983    2.1151128   -1.9833551 
17750000    1.0594348 5.3999084e-06   0.53724349  0.023641327            0   0.51360216    1.5494234    2.0866669    2.6396175 
17755000    0.9494738 0.00011064263   0.66283291 0.0071360866            0   0.65569683    1.3886054    2.0514383    13.381244 
17760000    1.0234924 7.7867788e-06   0.58681638   0.03024189            0   0.55657449    1.4968576     2.083674    2.8810402 
17765000    1.0986842 -9.2263057e-05   0.50506164  0.050658101            0   0.45440354    1.6068256    2.1118873   -7.3358497 
17770000     1.037641 2.0469415e-05    0.6138575  0.026993773            0   0.58686373      1.51755    2.1314075    4.2274756 
17775000    1.0825004 2.5236367e-05   0.54992608  0.014878263            0   0.53504782    1.5831569    2.1330829    4.7172869 
17780000    1.1788704 5.0062991e-05   0.42030419 0.0036263857            0   0.41667781     1.724098    2.1444022    7.2708524 
17785000    1.0130086 6.275684e-05    0.6373575 0.0091207033            0   0.62823679    1.4815251    2.1188826    8.5451831 
17790000    1.0501523 2.9358143e-05   0.59547659  0.042735806            0   0.55274079    1.5358477    2.1313243    5.1375981 
17795000    1.1538361 6.4598189e-05   0.43896376 0.0042069384            0   0.43475683    1.6874853     2.126449    8.7413036 
17800000    1.1511628 0.00010282142   0.47235925 0.0010083458            0   0.47135091    1.6835756    2.1559348    12.684848 
17805000    1.1239103 1.2418337e-05   0.46727583 0.0028285317            0    0.4644473    1.6437188    2.1109947    3.3826323 
17810000    1.0186971 -4.4433882e-05   0.61863141  0.015614419            0     0.603017    1.4898445    2.1084759   -2.4415536 
17815000    1.1397747 -4.0670639e-05   0.45269802  0.036478206            0   0.41621981    1.6669205    2.1196185   -2.0450549 
17820000    1.0074094 -1.9143427e-05   0.60725636  0.022608349            0   0.58464801    1.4733362    2.0805926   0.12030566 
17825000    1.0472819 8.1699769e-05   0.57966986   0.10074163            0   0.47892823    1.5316497    2.1113196    10.477376 
17830000    1.0695069 3.1628944e-05   0.51618408  0.086940396            0   0.42924368    1.5641538    2.0803378    5.3191417 
17835000    1.0364873 -7.3479668e-05   0.59799609  0.049354532            0   0.54864156    1.5158627    2.1138588   -5.4104592 
17840000        1.093 1.3459233e-05    0.5007096  0.016101848            0   0.48460775    1.5985125    2.0992221    3.4774476 
17845000   0.97069958 7.6218585e-05    0.6857237  0.046882203            0    0.6388415    1.4196481    2.1053718     9.910155 
17850000    1.0893722 -4.3709086e-05   0.50913705  0.024361896            0   0.48477516    1.5932068    2.1023439   -2.3734665 
17855000   0.98974606 -0.00013046603   0.65192978 0.0038689605            0   0.64806082    1.4475036    2.0994334   -11.260288 
17860000    1.1118163 -1.8837796e-05   0.46934816 0.0012441398            0   0.46810402    1.6260314    2.0953796   0.16638928 
17865000    1.1460926 4.8446536e-05   0.42926293            0            0   0.42926293    1.6761604    2.1054234    7.0663487 
17870000    1.0602741 5.7733172e-05   0.56755158            0            0   0.56755158    1.5506509    2.1182025    8.0300793 
17875000     1.032112 -3.2218297e-05   0.65122485 0.0016421544            0    0.6495827    1.5094638    2.1606887    -1.138465 
17880000    1.0849998 -1.2549678e-05   0.59335813  0.025903947            0   0.56745419    1.5868122    2.1801703   0.89508334 
17885000     1.099744 2.2751538e-05    0.5623784  0.016781435            0   0.54559697    1.6083755    2.1707539    4.5005114 
17890000    1.1634764 -4.0449965e-06   0.48656464 0.0004271931            0   0.48613744    1.7015843    2.1881489    1.7739413 
17895000    1.0799932 -3.3951691e-05   0.61222039 0.0018585701            0   0.61036182      1.57949    2.1917104   -1.2849428 
17900000    1.1644092 2.780315e-05   0.55072005  0.041636842            0   0.50908321    1.7029485    2.2536685    5.1007111 
17905000    1.0580357 1.8597577e-06   0.69390507  0.060327855            0   0.63357721    1.5473773    2.2412823    2.4317215 
17910000    1.1328546 3.0970178e-05    0.6576807  0.033383545            0   0.62429716    1.6567998    2.3144805    5.4858267 
17915000    1.2029706 5.7164159e-05   0.56334469  0.053605576            0   0.50973911    1.7593445    2.3226892    8.1762991 
17920000    1.1921524 -2.5777071e-05   0.54014617 0.0043925109            0   0.53575366    1.7435229     2.283669  -0.35590302 
17925000     1.076592 -9.5250841e-05   0.67571696 0.00083239293            0   0.67488457    1.5745159    2.2502328   -7.5034533 
17930000    1.2041176 -2.1470626e-05   0.46155907 0.00075246123            0    0.4608066     1.761022     2.222581  0.023988902 
17935000    1.1632746 2.2415554e-05   0.53785471 0.0026750419            0   0.53517967    1.7012891    2.2391438    4.5344965 
17940000    1.1669414 -5.7383078e-05    0.5361548  0.020662277            0   0.51549252    1.7066518    2.2428066   -3.6332206 
17945000    1.2022485 3.6322386e-07   0.53200656  0.038854203            0   0.49315235    1.7582884     2.290295    2.3274891 
17950000    1.1210035 7.3137074e-05   0.64330819  0.018937953            0   0.62437024    1.6394676    2.2827758    9.7720122 
17955000    1.1470232 5.3456377e-05   0.58695194  0.010804042            0    0.5761479    1.6775214    2.2644734    7.7384064 
17960000     1.149646 -2.7586343e-05   0.54929313  0.048168909            0   0.50112422    1.6813572    2.2306504  -0.59419118 
17965000    1.0575975 -0.00010823086   0.66369801  0.073041248            0   0.59065676    1.5467364    2.2104344   -8.8724052 
17970000    1.1220039 -9.6404857e-05   0.57176927  0.056368951            0   0.51540031    1.6409307       2.2127   -7.6591574 
17975000   0.97501981 -4.5528804e-05   0.76047436 0.0085278071            0   0.75194656    1.4259665    2.1864408   -2.4757087 
17980000    1.0295844 -2.4732633e-05   0.66746955 0.0034457763            0   0.66402378    1.5057672    2.1732367  -0.35938486 
17985000    1.1627326 -8.3228517e-05    0.5019597 0.0010332914            0   0.50092641    1.7004964    2.2024561    -6.320144 
17990000    1.1045047 -9.0193524e-05   0.57882979  0.010712731            0   0.56811706    1.6153381    2.1941679   -7.0416489 
17995000    1.2216712 -1.1005722e-06   0.42840919  0.016297976            0   0.41211122    1.7866941    2.2151033    2.1024047 
18000000    1.1660576 4.5814755e-05   0.52235405 0.0083427248            0   0.51401132    1.7053592    2.2277132    6.9191441 
18005000    1.2003018 4.7673704e-05   0.45742077  0.085496274            0    0.3719245    1.7554414    2.2128622    7.0946495 
18010000   0.91704418 -8.9945704e-06   0.85129552  0.073119366            0   0.77817615    1.3411771    2.1924726    1.2714286 
18015000    1.0837083 -4.4923621e-05   0.59998739  0.016832813            0   0.58315458    1.5849234    2.1849108    -2.415268 
18020000     1.164479 4.7013181e-05   0.46451675 0.0059846943            0   0.45853206    1.7030506    2.1675673    6.9817171 
18025000    1.0979967 9.3989559e-05   0.57336388  0.041885048            0   0.53147883    1.6058202     2.179184    11.803715 
18030000    1.0451586 -9.5626037e-06   0.60999272  0.028118883            0   0.58187384    1.5285444    2.1385371    1.1593265 
18035000    1.1140911 -8.1084316e-06   0.51259279 0.0045858997            0   0.50800689    1.6293582     2.141951    1.3116476 
18040000    1.0104245 2.5051292e-05   0.62328832  0.010523789            0   0.61276453    1.4777458    2.1010341    4.6662864 
18045000    1.0300155 4.5888811e-05   0.54741927 0.0096978526            0   0.53772142    1.5063977    2.0538169    6.7528312 
18050000    1.0844715 1.9725725e-05    0.4843815  0.050748413            0   0.43363309    1.5860396    2.0704211    4.0903354 
18055000    1.0474627 -2.9211219e-05   0.53664937  0.047166882            0   0.48948249    1.5319142    2.0685636  -0.92266525 
18060000    1.1747948 -7.3909361e-06   0.34105492  0.015512802            0   0.32554212    1.7181374    2.0591923    1.3023605 
18065000   0.99225427 -5.0188271e-05   0.59500102 0.0079393319            0   0.58706169    1.4511719    2.0461729   -3.0931061 
18070000     1.052276 -1.5299118e-05   0.50463194  0.042138223            0   0.46249371    1.5389537    2.0435857   0.47695602 
18075000   0.97368004 2.9336329e-05    0.6104346    0.0274062            0    0.5830284    1.4240071    2.0344417    5.0384817 
18080000    1.0595025 -5.664315e-05   0.46894509 0.00065743773            0   0.46828765    1.5495225    2.0184675    -3.781791 
18085000   0.99440835 -8.6050482e-05   0.52628429            0            0   0.52628429    1.4543222    1.9806065   -6.8309628 
18090000   0.94666041 -2.3943989e-05   0.55194096  0.034293689            0   0.51764727    1.3844908    1.9364318  -0.51543267 
18095000   0.97398188 3.1148232e-05    0.5365816  0.083267587            0   0.45331402    1.4244485    1.9610301     5.150609 
18100000    1.0268966 3.6109645e-05   0.51259179 0.00014640418            0   0.51244538    1.5018363    2.0144281    5.7120557 
18105000    1.0541114 2.2667148e-05   0.46516294  0.018877491            0   0.44628545    1.5416379    2.0068009    4.3279168 
18110000    1.0458003 -2.1520767e-05   0.50341568  0.033458878            0   0.46995681    1.5294829    2.0328986  -0.17082791 
18115000    1.0329965 -4.2937092e-07   0.51835649 0.0055637363            0   0.51279276    1.5107574    2.0291139    1.9851463 
18120000   0.96696731 -2.3125601e-05   0.59055643 0.0049097642            0   0.58564666    1.4141897    2.0047461   -0.3633154 
18125000   0.99085547 -7.0370328e-05   0.50261015 0.0016660874            0   0.50094406    1.4491261    1.9517363   -5.2541853 
18130000    1.0408416 2.7630956e-05   0.44574511 0.0033964993            0   0.44234861    1.5222309     1.967976    4.7973859 
18135000    1.0167037 0.00011015358   0.54960148 0.0094941497            0   0.54010733    1.4869292    2.0365307    13.316258 
18140000    1.0362908 9.0794154e-05   0.53010924 0.0099390344            0   0.52017021    1.5155753    2.0456846    11.343006 
18145000   0.99887698 3.4627373e-05    0.5593757  0.012402294            0    0.5469734    1.4608576    2.0202333    5.5660763 
18150000    1.0717993 -2.8161767e-05   0.44966957  0.011047765            0    0.4386218    1.5675064     2.017176  -0.86658899 
18155000    1.0363361 2.6425596e-05   0.54323505  0.046388401            0   0.49684665    1.5156416    2.0588767    4.7648577 
18160000   0.99671404 7.1310359e-05   0.61856229  0.039685133            0   0.57887716    1.4576943    2.0762566    9.3784373 
18165000    1.1034319 3.5634612e-05    0.4413405  0.018253866            0   0.42308663    1.6137692    2.0551097    5.7040939 
18170000    1.0608862 -5.5309521e-05   0.49543007  0.011124511            0   0.48430556    1.5515461    2.0469762   -3.6167188 
18175000   0.97739235 -7.9748373e-05   0.62415607  0.048483217            0   0.57567286    1.4294363    2.0535924    -6.112641 
18180000   0.96314296 4.6655437e-05   0.65675468  0.019360672            0   0.63739401    1.4085966    2.0653513     6.842868 
18185000    1.1066995 3.6837625e-05    0.4609958   0.02583295            0   0.43516285    1.6185481    2.0795439    5.8517167 
18190000     1.058243 -2.0189653e-05   0.55599509  0.011448621            0   0.54454647    1.5476804    2.1036755  0.036255031 
18195000    1.0787442 -1.7848126e-05   0.56067803  0.010474851            0   0.55020318    1.5776633    2.1383413   0.31069323 
18200000     1.153985 9.8422579e-06   0.45957905  0.016969179            0   0.44260987     1.687703    2.1472821    3.1551293 
18205000    1.0318715 1.0294828e-06   0.59778357 0.0096571647            0    0.5881264     1.509112    2.1068956    2.2123146 
18210000    1.0573377 -5.3193299e-05   0.54987465  0.019900457            0   0.52997419    1.5463564     2.096231   -3.3507628 
18215000    1.1276624 2.5467543e-05    0.4788314 0.0051358544            0   0.47369554    1.6492062    2.1280376     4.735914 
18220000    1.0121185 -3.0491497e-05   0.63640201            0            0   0.63640201    1.4802234    2.1166254    -1.005704 
18225000    1.1298473 1.2089586e-05    0.4814196            0            0    0.4814196    1.6524016    2.1338212    3.3717948 
18230000    1.1947621 5.4724997e-05   0.42334518 0.0011519151            0   0.42219327    1.7473395    2.1706847    7.7745244 
18235000    1.0491533 3.2012499e-05   0.62308601  0.017321623            0   0.60576439    1.5343867    2.1574728    5.4355526 
18240000    1.1236032 2.2604258e-06   0.51984313 0.0067962536            0   0.51304687    1.6432697    2.1631129    2.3945805 
18245000    1.0709868 -3.6190971e-05   0.63042377 0.0036093003            0   0.62681447    1.5663181    2.1967419   -1.5092136 
18250000    1.0942691 -7.575521e-05   0.62768153  0.057677299            0   0.57000423    1.6003685    2.2280501   -5.5292834 
18255000    1.1626191 -9.7787506e-06   0.50261735  0.050662368            0   0.45195499    1.7003305    2.2029478    1.2016038 
18260000    1.1440794 7.3262152e-05   0.50098584  0.035927697            0   0.46505814    1.6732162     2.174202    9.6762464 
18265000    1.0752194 4.5546676e-05   0.58477871  0.029150009            0   0.55562871    1.5725083     2.157287    6.8212667 
18270000    1.0886685 2.0778463e-05   0.56279905  0.037598573            0   0.52520047    1.5921776    2.1549767    4.2826913 
18275000      1.12179 4.931994e-05   0.52970495 0.0074143451            0    0.5222906    1.6406179    2.1703228    7.2206847 
18280000    1.1651787 9.3738124e-07   0.46832202 0.0013854834            0   0.46693654    1.7040738    2.1723958    2.2683837 
18285000     1.157556 1.7157716e-05   0.48118607  0.074471891            0   0.40671418    1.6929257    2.1741118    3.9310619 
18290000    1.1728527 8.6560483e-05   0.45537337  0.030609535            0   0.42476383    1.7152971    2.1706705    11.034464 
18295000      1.08716 -1.1179608e-05   0.57747275  0.041598592            0   0.53587415    1.5899715    2.1674442    1.0226523 
18300000     1.161234 -6.9613809e-05   0.49050735  0.012828387            0   0.47767897    1.6983047     2.188812    -4.939642 
18305000    1.0775896 1.0780088e-05   0.59188101  0.076926968            0   0.51495404    1.5759748    2.1678558    3.2717368 
18310000      1.14315 6.7707436e-06    0.4890525  0.078606997            0    0.4104455    1.6718568    2.1609093    2.8542335 
18315000    1.1490097 -1.0580136e-05   0.47104494  0.032509604            0   0.43853533    1.6804267    2.1514716    1.0680656 
18320000    1.0825819 3.7968959e-05   0.54928198  0.042235828            0   0.50704615     1.583276     2.132558    6.0205793 
18325000      1.17348 6.6438922e-05    0.4102105  0.020632473            0   0.38957803    1.7162144    2.1264249    8.9297706 
18330000    1.1202375 -3.1946191e-05   0.43146779 0.0093015209            0   0.42216627    1.6383474    2.0698152   -1.2014747 
18335000    1.0294688 -0.00013568455   0.59686944 0.00078794091            0   0.59608149    1.5055981    2.1024675   -11.791631 
18340000    1.1686771 -4.9746786e-05   0.43495233  0.025121511            0   0.40983082    1.7091902    2.1441426   -2.9499283 
18345000    1.1065702 5.9412065e-05   0.49683233  0.036426873            0   0.46040546     1.618359    2.1151913    8.1989868 
18350000    1.1992204 3.3014637e-05   0.33588167  0.022935103            0   0.31294657    1.7538598    2.0897415    5.4704404 
18355000   0.99840145  -5.3644e-05   0.62331005  0.038060081            0   0.58524997    1.4601621    2.0834722   -3.4096734 
18360000   0.99124222 3.1410444e-06    0.6052409  0.093033382            0   0.51220752    1.4496918    2.0549327    2.3765756 
18365000    1.1424371 6.8321418e-06   0.40088224  0.023165711            0   0.37771653    1.6708143    2.0716965    2.7713078 
18370000   0.90621963 -3.4538039e-05   0.73966462  0.016547602            0   0.72311702    1.3253462    2.0650108   -1.4716844 
18375000    1.0161375 3.0100199e-05   0.58223228  0.041861987            0   0.54037029    1.4861011    2.0683333    5.1505937 
18380000    1.0258805 4.7703197e-05   0.56938688  0.027687337            0   0.54169955    1.5003502    2.0697371    6.9545445 
18385000    1.0605518 -2.6597909e-05   0.52519322    0.1084527            0   0.41674052     1.551057    2.0762503  -0.64737563 
18390000   0.99098504 -6.451904e-05   0.66678552  0.023494975            0   0.64329054    1.4493156    2.1161011   -4.4906485 
18395000    1.1306622 9.9507102e-06   0.52702766 0.0006544155            0   0.52637324    1.6535935    2.1806211    3.1995739 
18400000     1.137333 4.6311879e-05   0.48604633 0.00055199947            0   0.48549433    1.6633495    2.1493959    6.8917323 
18405000    1.1068933 -2.9741219e-05   0.52868475 0.00044075202            0     0.528244    1.6188315    2.1475163  -0.89798452 
18410000    1.1283235 -0.00013731499   0.50169767 0.0040075712            0    0.4976901    1.6501731    2.1518708   -11.909184 
18415000    1.0026081 -8.7908438e-05    0.6879222  0.067144957            0   0.62077724    1.4663143    2.1542365   -6.8475876 
18420000    1.0451658 2.5374062e-05   0.61824168  0.069697949            0   0.54854374     1.528555    2.1467967    4.7451007 
18425000    1.1572479 1.7843866e-05   0.43827321  0.011027326            0   0.42724589    1.6924751    2.1307483    3.9579602 
18430000    1.0353668 -2.6373962e-05   0.56778332 0.0037887718            0   0.56399455    1.5142239    2.0820072  -0.61868647 
18435000    1.0235565 -1.5050841e-06   0.59755477  0.044507079            0   0.55304769    1.4969514    2.0945062    1.9403856 
18440000    1.0685968 -4.9257619e-05   0.52413333  0.066945372            0   0.45718795    1.5628228    2.0869561   -2.9570241 
18445000    1.0013399 -9.4556702e-05   0.61116065  0.048428567            0   0.56273208    1.4644596    2.0756202   -7.6069861 
18450000    1.1000564 -4.1211603e-05   0.41425224  0.014407167            0   0.39984508    1.6088325    2.0230847   -2.1969834 
18455000   0.89992846 4.0781496e-06   0.68154365  0.010855259            0   0.67068839    1.3161454     1.997689    2.4152915 
18460000    1.0135931 -2.7844612e-05   0.49569564  0.041835798            0   0.45385984    1.4823799    1.9780755  -0.87321275 
18465000   0.97736374 -1.7838316e-05    0.5477809  0.045217576            0   0.50256332    1.4293945    1.9771754   0.15053176 
18470000   0.97760449 1.2037351e-05   0.54479053 0.0075307291            0    0.5372598    1.4297466    1.9745371    3.2071618 
18475000    1.0049083 -3.2346584e-05   0.48090834  0.037934959            0   0.44297339    1.4696784    1.9505868   -1.3617034 
18480000   0.92583608 -7.472739e-05   0.59673563  0.073846368            0   0.52288926    1.3540353    1.9507709   -5.7013139 
18485000   0.90357806 -3.1980183e-05   0.62694879  0.016628037            0   0.61032076    1.3214829    1.9484317   -1.3263391 
18490000   0.99604952 2.9643511e-05   0.47397636 0.00050959766            0   0.47346676    1.4567224    1.9306988    4.9661944 
18495000    1.0296087 -7.6272886e-05   0.44575801  0.041786118            0   0.40397189    1.5058028    1.9515608   -5.8587827 
18500000    0.9120466 -4.7301467e-05     0.623863  0.084351562            0   0.53951144    1.3338682    1.9577312    -2.885939 
18505000    1.0222803 5.6922365e-05   0.51828312  0.039764475            0   0.47851865    1.4950849     2.013368    7.8422182 
18510000   0.98946722 6.3211968e-05   0.54268398  0.064322641            0   0.47836134    1.4470958    1.9897798    8.4626853 
18515000   0.96284615 4.0834876e-05   0.58856357   0.04155273            0   0.54701084    1.4081625    1.9967261    6.1782174 
18520000    1.0225301 -4.0742416e-05   0.47521368  0.013193315            0   0.46202036    1.4954503    1.9706639   -2.2013595 
18525000   0.88912844 -1.6869087e-06    0.6623357  0.068221395            0   0.59411431    1.3003503     1.962686    1.7899466 
18530000   0.95696812 3.7648186e-05   0.57778955  0.041346088            0   0.53644346    1.3995659    1.9773554    5.8325297 
18535000     1.087437 -3.5881402e-05   0.40529467 0.0063814212            0   0.39891325    1.5903766    1.9956713   -1.6785843 
18540000   0.96800029 -7.0152502e-05   0.55888358  0.033267394            0   0.52561618    1.4157004     1.974584   -5.2090322 
18545000    1.0096682 -7.5354385e-05   0.47886919  0.037369575            0   0.44149962    1.4766398     1.955509     -5.76078 
18550000    1.0634241 -7.7166184e-06   0.42463189 0.0038909994            0   0.42074089    1.5552578    1.9798896    1.1897079 
18555000   0.99170695 5.541537e-05   0.50016206 0.00034548548            0   0.49981657    1.4503714    1.9505335    7.6250674 
18560000    1.0067846 3.2731818e-05   0.47194486 0.00023994173            0   0.47170492    1.4724225    1.9443673    5.2961055 
18565000    1.0005613 1.3069124e-05   0.47057847 0.0094334519            0   0.46114502    1.4633209    1.9338994    3.2721777 
18570000   0.93639643 7.1193364e-05   0.52795649  0.058933697            0   0.46902279    1.3694798    1.8974363    9.1876368 
18575000   0.98767919 8.0348228e-05   0.44880852  0.062889732            0   0.38591878    1.4444808    1.8932893    10.120948 
18580000   0.87000396 7.6515695e-05   0.59935338   0.10867358            0   0.49067979    1.2723808    1.8717342    9.7069414 
18585000   0.93782237 2.866257e-05   0.49947692  0.068166359            0   0.43131057    1.3715652    1.8710421    4.8060893 
18590000   0.97431614 -5.8794166e-05   0.44407309  0.015218382            0   0.42885471    1.4249373    1.8690104   -4.1515121 
18595000   0.94151366 -8.4466205e-05   0.44956849  0.059998134            0   0.38957036    1.3769637    1.8265322   -6.8228072 
18600000   0.92511345 -4.2092613e-06   0.42975301  0.017367562            0   0.41238545    1.3529784    1.7827314    1.3517031 
18605000    1.0139174 4.6422611e-05   0.30187604 0.0083828205            0   0.29349322    1.4828542    1.7847303    6.5384057 
18610000   0.91118362 -2.6648013e-05   0.45609836  0.014636795            0   0.44146156     1.332606    1.7887044  -0.94005211 
18615000    0.8005168 -2.7943283e-05   0.57768239  0.071751712            0   0.50593068    1.1707558    1.7484382   -1.1129539 
18620000   0.90383207 -8.5164128e-05   0.39835633  0.026568082            0   0.37178824    1.3218544    1.7202107    -7.000596 
18625000   0.89480833 -9.1615918e-05   0.42692525            0            0   0.42692525    1.3086572    1.7355824   -7.6458876 
18630000   0.84422046 1.0299194e-05   0.48282915            0            0   0.48282915    1.2346724    1.7175016     2.772139 
18635000    0.8869342 2.0563517e-05   0.44031218 0.00062219155            0   0.43968999    1.2971413    1.7374534    3.8431576 
18640000   0.87995693 -1.7985481e-05   0.47544204  0.022097417            0   0.45334462     1.286937     1.762379 -0.079334209 
18645000   0.91138079 -3.7817024e-05    0.4235159  0.031248144            0   0.39226775    1.3328944    1.7564103    -2.116053 
18650000   0.95074894 -1.2053001e-05   0.39936794  0.018809957            0   0.38055798    1.3904703    1.7898383   0.55561099 
18655000   0.99884948 -3.1916402e-05   0.33851977 0.0050316601            0   0.33348811    1.4608174    1.7993371   -1.4689024 
18660000   0.90678075 -6.0099082e-05   0.47755337  0.015091369            0     0.462462    1.3261668    1.8037202   -4.3504258 
18665000   0.86532554 1.1311896e-05   0.51663073  0.080152275            0   0.43647846    1.2655386    1.7821693    2.9405075 
18670000   0.93040913 5.1973364e-05   0.49284093     0.020515            0   0.47232592    1.3607233    1.8535643    7.1756368 
18675000   0.99691619 2.1241214e-05   0.40199438  0.011189204            0   0.39080518    1.4579899    1.8599843    4.0350846 
18680000   0.96520308 6.5676639e-06   0.43409591    0.0163316            0   0.41776432    1.4116095    1.8457054    2.5182342 
18685000   0.91927653 -4.7135313e-06   0.48486378  0.026533372            0   0.45833041    1.3444419    1.8293057    1.3466401 
18690000   0.90120714 -2.0800776e-05   0.49653055  0.039739493            0   0.45679105    1.3180154     1.814546  -0.31545351 
18695000   0.95027883 4.8695213e-05   0.40909742  0.014684145            0   0.39441327    1.3897828    1.7988802      6.78527 
18700000   0.90359149 9.1112957e-05   0.48906015 0.0039786376            0   0.48508151    1.3215026    1.8105627     11.14053 
18705000   0.93986241 5.962816e-05   0.46837691 0.0028561419            0   0.46552076    1.3745488    1.8429257    7.9488492 
18710000   0.95053131 7.0318523e-05   0.43505447   0.01784466            0   0.41720981     1.390152    1.8252065    9.0258233 
18715000   0.89929483 -2.3006747e-06    0.5282425  0.065707166            0   0.46253534    1.3152187    1.8434612    1.6078721 
18720000   0.89950298 -1.5135609e-05   0.51049131  0.041933074            0   0.46855823    1.3155231    1.8260144   0.27612806 
18725000   0.93504609 -8.7285447e-05   0.44402163  0.032339004            0   0.41168262    1.3675049    1.8115265   -7.1265032 
18730000   0.93130768 -7.706331e-05   0.46911483  0.014064574            0   0.45505026    1.3620375    1.8311523   -6.0601306 
18735000   0.90734487 -7.1643815e-05   0.48829027 1.7958303e-06            0   0.48828847    1.3269919    1.8152821   -5.5210445 
18740000   0.94488865 -5.4263502e-05   0.44341075            0            0   0.44341075    1.3818996    1.8253104   -3.7312723 
18745000   0.92293917 6.0391046e-05   0.44281157  0.021251296            0   0.42156027    1.3497985    1.7926101    7.9766532 
18750000   0.90767038 4.7822648e-05   0.44749788  0.055998423            0   0.39149946    1.3274679    1.7749658     6.672005 
18755000   0.96428963 -3.7574197e-06   0.37699498 0.0035219069            0   0.37347307    1.4102736    1.7872686    1.4025088 
18760000   0.96328018 -7.6368304e-05   0.39773792  0.040564861            0   0.35717305    1.4087973    1.8065352   -6.0135792 
18765000   0.85863706 -2.2311462e-05   0.59416486   0.15761387            0     0.436551    1.2557567    1.8499216  -0.43477218 
18770000   0.90784128 2.8860032e-05   0.48528199  0.092634706            0   0.39264728    1.3277179    1.8129999    4.7682672 
18775000   0.95850446 -2.9129928e-05   0.43948016 0.0083628079            0   0.43111735    1.4018128    1.8412929   -1.1416117 
18780000   0.97024574 3.109655e-06   0.40153723  0.011657546            0   0.38987968    1.4189844    1.8205216    2.1389503 
18785000   0.88554452 7.5324194e-06   0.53693296  0.015276477            0   0.52165648    1.2951089    1.8320418    2.6033616 
18790000   0.93701607 3.1382821e-06   0.44643524 0.0096565603            0   0.43677868     1.370386    1.8168213    2.1381813 
18795000    1.0278518 1.359236e-05   0.36956758 0.00038273227            0   0.36918485    1.5032332    1.8728008    3.2646585 
18800000    1.1102227 -5.7251744e-06   0.25405742            0            0   0.25405742    1.6237007    1.8777581    1.2915002 
18805000   0.91951767 -1.3876469e-05   0.51655066            0            0   0.51655066    1.3447946    1.8613453   0.44039478 
18810000   0.95700744 -2.4030416e-05    0.4393485 9.3926335e-05            0   0.43925457    1.3996234    1.8389719  -0.62174274 
18815000    0.9236365 -4.846741e-05   0.43090635 6.3326915e-05            0   0.43084303    1.3508184    1.7817247   -3.1813381 
18820000   0.92771337 -8.5249862e-05   0.42643558 0.00093661256            0   0.42549897    1.3567808    1.7832164   -6.9463695 
18825000   0.94961504 -4.2911579e-05   0.36006481  0.025405425            0   0.33465939     1.388812    1.7488768   -2.6452689 
18830000   0.90743403 -4.8442953e-05   0.40605466  0.054322438            0   0.35173222    1.3271223    1.7331769   -3.2273814 
18835000   0.95969453 -7.9691897e-06   0.30798468  0.012619073            0    0.2953656    1.4035533    1.7115379    0.8954929 
18840000   0.94825421 1.4920166e-05   0.35863201  0.017043586            0   0.34158842    1.3868218    1.7454538    3.2732788 
18845000   0.89354866 -2.4151358e-05   0.42155038  0.044383009            0   0.37716737    1.3068149    1.7283653  -0.74473378 
18850000   0.85635848 -7.6777777e-05   0.47063586  0.023174863            0   0.44746099    1.2524243    1.7230601   -6.1389843 
18855000   0.89804105 -2.4496926e-05    0.3690077  0.043122342            0   0.32588535     1.313385    1.6823927  -0.82609253 
18860000    0.8827665 5.2873828e-05   0.38926848  0.033586448            0   0.35568203     1.291046    1.6803145    7.0945944 
18865000   0.86038978 6.1190911e-05     0.422745  0.022393358            0   0.40035164      1.25832    1.6810651    7.9470143 
18870000   0.88944661 4.826965e-05   0.33549965  0.040048199            0   0.29545145    1.3008157    1.6363153    6.5791274 
18875000   0.79332307 -8.4472179e-06   0.45991092  0.037028214            0   0.42288271     1.160235    1.6201459    0.7551508 
18880000   0.82266223 -3.444324e-05   0.43128677   0.03865348            0   0.39263329    1.2031435    1.6344303   -1.8925575 
18885000    0.8938653 5.4026628e-05   0.30620974 0.0052849645            0   0.30092478     1.307278    1.6134877    7.1458145 
18890000   0.82201958 7.1667702e-05   0.44152364  0.018598527            0   0.42292511    1.2022036    1.6437273       8.9825 
18895000   0.90417247 -3.3453782e-05   0.32294124  0.024435373            0   0.29850587    1.3223522    1.6452935   -1.7803738 
18900000   0.88500422 -2.0384214e-05   0.39081773  0.069837845            0   0.32097988    1.2943187    1.6851364  -0.40220716 
18905000   0.79104177 6.1977434e-05   0.49515908  0.075627919            0   0.41953116    1.1568986    1.6520577     7.998547 
18910000   0.94153451 4.8138162e-06   0.32538205  0.025232491            0   0.30014956    1.3769942    1.7023763    2.1953111 
18915000   0.90345151 -6.0693677e-05   0.41813925   0.02033475            0    0.3978045    1.3212978    1.7394371   -4.4755955 
18920000   0.86998873 -2.5829694e-05   0.45548185  0.084824122            0   0.37065773    1.2723585    1.7278404   -0.9171203 
18925000    0.9522778 -2.7858317e-05   0.32718989  0.022880164            0   0.30430972    1.3927063    1.7198962   -1.1327954 
18930000   0.92123973 -5.1938019e-06   0.34779946            0            0   0.34779946    1.3473131    1.6951126    1.1632673 
18935000   0.97360765 5.2660771e-05   0.31556077            0            0   0.31556077    1.4239012     1.739462    7.1319249 
18940000   0.91887824 1.7518117e-05   0.37407229 0.00025987191            0   0.37381242    1.3438594    1.7179317    3.5117869 
18945000   0.87798384 -4.3580903e-06   0.44341361 0.0030963424            0   0.44031727    1.2840514     1.727465    1.2811965 
18950000    1.0107565 -3.004754e-05   0.25212702  0.001440159            0   0.25068686    1.4782314    1.7303584   -1.3465097 
18955000   0.94447089 -5.3939097e-05   0.35263553            0            0   0.35263553    1.3812887    1.7339242   -3.7894393 
18960000    0.9063373 -6.9827852e-06   0.45458688 0.00098427734            0    0.4536026    1.3255183    1.7801052     1.065068 
18965000   0.99020211 2.0733333e-05   0.37115644 0.0071845114            0   0.36397193    1.4481706     1.819327    3.9424204 
18970000    1.0323561 -8.5665172e-06   0.34853339 0.0066973053            0   0.34183608    1.5098207    1.8583541   0.98114276 
18975000   0.94270723 -3.5307645e-05   0.45971985  0.005709651            0    0.4540102    1.3787093    1.8384292   -1.7770737 
18980000    1.0099182 3.1602932e-05   0.36120323 0.00068986032            0   0.36051337    1.4770053    1.8382086    5.0743488 
18985000    1.0016563 7.3702648e-05   0.41215697            0            0   0.41215697    1.4649224    1.8770794    9.4242305 
18990000    1.0158985 3.0815126e-05   0.38459567  0.015729038            0   0.36886664    1.4857516    1.8703473    5.0258162 
18995000   0.94268229 2.6936477e-05   0.50722402  0.036852752            0   0.47037127    1.3786729    1.8858969    4.6441921 
19000000   0.99208776 1.9506023e-05   0.44671785  0.056734525            0   0.38998332    1.4509284    1.8976462    3.8950629 
19005000   0.95444903 2.8038317e-06   0.49526249  0.039600346            0   0.45566215    1.3958817    1.8911442    2.1782566 
19010000    1.0130204 -1.6492667e-05   0.40174277 0.00079664152            0   0.40094613    1.4815423    1.8832851   0.19443598 
19015000    1.0005623 1.4912645e-05    0.4657415  0.011395037            0   0.45434646    1.4633223    1.9290638    3.4561186 
19020000    1.0133248 4.6226713e-06   0.45072072  0.021629233            0   0.42909149    1.4819876    1.9327083    2.4060698 
19025000    1.0223634 2.1044045e-05   0.48144258  0.018833067            0   0.46260952    1.4952065    1.9766491    4.1315593 
19030000   0.98180995 6.5134538e-05   0.52397359  0.027780718            0   0.49619287    1.4358971    1.9598706    8.6296474 
19035000   0.99760736 1.3250308e-05   0.45100376  0.014085097            0   0.43691866    1.4590008    1.9100045    3.2668361 
19040000   0.97162696 -9.0417491e-05   0.52006465 0.00029098554            0   0.51977366    1.4210044    1.9410691    -7.317682 
19045000     1.098897 -7.6206207e-05   0.39320251 0.00084959625            0   0.39235291    1.6071368    2.0003393   -5.8031763 
19050000     1.004947 1.9700531e-05   0.51635282  0.014814154            0   0.50153867     1.469735    1.9860878    4.0034222 
19055000    1.0064637 -2.4078346e-05   0.48968245   0.10865699            0   0.38102546    1.4719531    1.9616355  -0.50398711 
19060000   0.94711832 -0.00010580198   0.56153759  0.067828327            0   0.49370926    1.3851605    1.9466981    -8.887425 
19065000   0.93917213 -2.2278194e-05   0.57461268  0.025461766            0   0.54915091    1.3735392    1.9481519   -0.3331352 
19070000    1.0533877 1.9166774e-05   0.41316341 0.0018444488            0   0.41131896    1.5405795    1.9537429    3.9164206 
19075000    1.1159352 2.2624374e-05    0.3176854 0.0035263718            0   0.31415903    1.6320552    1.9497406    4.2664765 
19080000     1.008373 -1.8723251e-05   0.49984329   0.01941244            0   0.48043085    1.4747455    1.9745888  0.057327888 
19085000    1.0009731 -1.8841571e-05   0.52988271  0.023452652            0   0.50643006    1.4639231    1.9938058  0.064428935 
19090000    1.0335965 2.0916148e-05   0.49231707  0.031609373            0    0.4607077    1.5116349     2.003952    4.1457655 
19095000    1.0972745 9.0912832e-05   0.35484431  0.024633867            0   0.33021045     1.604764    1.9596083    11.269082 
19100000    1.0524003 6.3582352e-05    0.3827574  0.011663144            0   0.37109426    1.5391354    1.9218929    8.4327257 
19105000    1.0287642 -4.7279464e-06   0.41074576  0.031034151            0   0.37971161    1.5045677    1.9153134    1.4311717 
19110000   0.98566044 1.9820076e-06   0.44815482  0.056951094            0   0.39120373    1.4415284    1.8896832    2.0926408 
19115000    1.0217287 1.2226884e-05   0.40001094 0.0034666657            0   0.39654427    1.4942782    1.8942891    3.1463221 
19120000    1.1307951 -9.8847382e-06   0.26056674 0.0091833838            0   0.25138336    1.6537878    1.9143545   0.90215731 
19125000    1.0445854 -1.7650867e-05   0.37860155 0.0091931897            0   0.36940836    1.5277062    1.9063078  0.098859018 
19130000   0.99745817 -5.9651442e-06   0.47452447 0.0013489643            0    0.4731755    1.4587826     1.933307    1.3224763 
19135000   0.96030038 -3.9516326e-06   0.49013303 0.0040897489            0   0.48604328    1.4044393    1.8945723    1.4899252 
19140000    1.0324741 9.6449523e-06   0.34106159  0.011786795            0   0.32927479    1.5099934     1.851055    2.8386981 
19145000    1.0267718 -4.6208415e-05   0.38812645  0.005352089            0   0.38277436    1.5016538    1.8897802   -2.8419615 
19150000    1.0342026 -8.4380589e-05   0.38168678 0.0019984877            0    0.3796883    1.5125213     1.894208   -6.7463642 
19155000   0.99419326 -4.1309348e-05   0.43926908 0.0011142855            0   0.43815479    1.4540076    1.8932767   -2.3368005 
19160000    1.0337488 -3.5674554e-05   0.34922906 1.7968183e-05            0    0.3492111    1.5118577    1.8610867   -1.7919876 
19165000   0.99401931 -2.0365178e-05   0.42850056 0.0053065086            0   0.42319405    1.4537532    1.8822538  -0.20314041 
19170000    1.0659375 6.8834558e-06   0.33042166  0.026318904            0   0.30410275    1.5589335    1.8893552    2.5942211 
19175000    1.0013046  3.14369e-05   0.39579415   0.01010556            0   0.38568859     1.464408    1.8602022    5.0793408 
19180000    1.0344089 2.6133222e-05   0.33069644 0.0081178621            0   0.32257858    1.5128231    1.8435195    4.5195615 
19185000   0.96688485 -1.7971691e-05   0.45004607  0.068478924            0   0.38156715    1.4140691    1.8641152  0.023814028 
19190000   0.91372897 -6.4900283e-05   0.50852863  0.049329524            0   0.45919911    1.3363286    1.8448572   -4.8009317 
19195000    1.0877888 -5.4675994e-05   0.25062207 0.0077081645            0   0.24291391    1.5908912    1.8415132   -3.7573085 
19200000    0.9256352 6.3516746e-05   0.42896861  0.025197856            0   0.40377076    1.3537415    1.7827101    8.2868249 
19205000   0.95156178 2.1181117e-06   0.38955494  0.079213886            0   0.31034105    1.3916591     1.781214    1.9981087 
19210000   0.96428713 -8.3741057e-05   0.41685491  0.019027332            0   0.39782757    1.4102699    1.8271248   -6.7479594 
19215000    1.0420421 -2.1341731e-05   0.27318897 0.0053949087            0   0.26779406    1.5239866    1.7971756  -0.38821769 
19220000   0.96872312 2.261755e-05   0.38579033  0.015585746            0   0.37020458    1.4167576    1.8025479     4.118585 
19225000   0.91428706 5.7476767e-05   0.48377689  0.019647181            0   0.46412971    1.3371448    1.8209217    7.7065427 
19230000   0.92340208 1.4707521e-05   0.42876132   0.01049496            0   0.41826636    1.3504755    1.7792369     3.285287 
19235000   0.93614026 3.5485773e-05   0.37894266 0.0028279841            0   0.37611468    1.3691051    1.7480478    5.3817909 
19240000   0.93140996 -7.3936248e-06   0.36681068 0.00012015021            0   0.36669053    1.3621871    1.7289977   0.97189056 
19245000   0.97097621 4.7293541e-05   0.31910177            0            0   0.31910177    1.4200527    1.7391545    6.5820131 
19250000   0.92983326 -8.3378251e-06   0.38197255            0            0   0.38197255    1.3598811    1.7418537    0.8880604 
19255000   0.92867088 -9.8336893e-06   0.38133012            0            0   0.38133012    1.3581812    1.7395113    0.7325415 
19260000   0.89365614 2.4201398e-05    0.4194582  0.018295211            0   0.40116299    1.3069721    1.7264303    4.2046534 
19265000   0.85933197 2.8556246e-05   0.51406978  0.047549156            0   0.46652062     1.256773    1.7708428    4.6950024 
19270000    0.8851346 6.3322554e-05   0.44264617  0.031995997            0   0.41065018    1.2945094    1.7371555     8.221385 
19275000   0.86888692 1.614996e-05   0.47246195  0.077271545            0    0.3951904    1.2707471    1.7432091     3.396965 
19280000   0.82716348 5.4403971e-05    0.4987324  0.051681313            0   0.44705109    1.2097266     1.708459    7.2794256 
19285000   0.91510073 -1.4176665e-05   0.41590789  0.018088041            0   0.39781985    1.3383348    1.7542427    0.3025522 
19290000   0.90371795 -6.773395e-05   0.39209206  0.035099247            0   0.35699281    1.3216875    1.7137796   -5.2221769 
19295000     0.908708 5.2327465e-05   0.41122774  0.066899979            0   0.34432776    1.3289855    1.7402132    7.0985456 
19300000   0.97513932 5.473132e-05    0.3099825  0.017484577            0   0.29249793    1.4261413    1.7361238    7.3406109 
19305000   0.98473769 -8.233688e-06   0.27359721            0            0   0.27359721    1.4401789    1.7137761   0.87064642 
19310000   0.90232262 -2.6976251e-05   0.41419702            0            0   0.41419702    1.3196468    1.7338438   -1.0285243 
19315000   0.97095471 1.2688814e-05   0.29538501 0.00015444314            0   0.29523057    1.4200213    1.7154063    3.0147408 
19320000   0.86206911 -7.0494102e-05   0.49847097  0.024847481            0   0.47362349    1.2607761     1.759247    -5.459349 
19325000   0.89070957 -5.7374771e-05    0.4454891  0.098240411            0   0.34724869    1.3026627    1.7481518   -4.1270247 
19330000   0.87908131 4.9972942e-05   0.43151635  0.024323947            0    0.4071924    1.2856564    1.7171728     6.834402 
19335000   0.94280397 -3.3447477e-05   0.31236753 0.0012911457            0   0.31107639    1.3788508    1.6912183   -1.7338033 
19340000    0.9312004 -6.7462493e-05   0.30497639 0.0013201086            0   0.30365628    1.3618806     1.666857   -5.2413023 
19345000   0.89396683 -9.4576243e-05   0.33884066 0.0034957526            0    0.3353449    1.3074265    1.6462671   -8.0383401 
19350000    0.8922811 -7.0314422e-06   0.31475185 0.0097915426            0   0.30496031    1.3049611     1.619713   0.89969328 
19355000   0.95676716 1.2796323e-05   0.22982607 0.0061980723            0     0.223628     1.399272    1.6290981    2.9394415 
19360000   0.85363242 -3.7972939e-05   0.38340939 0.00021979892            0   0.38318959    1.2484374    1.6318468   -2.2565821 
19365000    0.8909507 -4.1437506e-05    0.3382412            0            0    0.3382412    1.3030154    1.6412566    -2.601944 
19370000   0.92753884 -4.2758658e-05   0.31423675 0.0002280305            0   0.31400872    1.3565256    1.6707623   -2.7077243 
19375000   0.86631638 -7.6860822e-06   0.40969976  0.033100833            0   0.37659892    1.2669877    1.6766875   0.88963265 
19380000   0.90774585 5.4425694e-05   0.39876121  0.038449133            0   0.36031208    1.3275783    1.7263395    7.2995306 
19385000    1.0295888 4.7362118e-05   0.22458265  0.018274201            0   0.20630845    1.5057737    1.7303563    6.5802372 
19390000   0.87333465 2.3206684e-05   0.44730467  0.088118019            0   0.35918665    1.2772519    1.7245566    4.1009211 
19395000   0.91154771 2.7379109e-05   0.39428022  0.050010751            0   0.34426946    1.3331385    1.7274187    4.5310395 
19400000   0.96479792 4.3571593e-05   0.33549255 0.0042592491            0    0.3312333     1.411017    1.7465095    6.2082406 
19405000    1.0010258 1.7351231e-05    0.2669228  0.029787509            0   0.23713529    1.4640002     1.730923    3.5076891 
19410000   0.93546835 -1.6770269e-05   0.40242313   0.10540736            0   0.29701578    1.3681225    1.7705456  0.053270082 
19415000   0.86251653 -7.2021908e-05   0.49562782  0.047449457            0   0.44817836    1.2614304    1.7570582   -5.6179852 
19420000   0.92702765 -1.69974e-05    0.4107666  0.028921137            0   0.38184546    1.3557779    1.7665445   0.02601081 
19425000   0.96101591 5.4546255e-05   0.38241902  0.025202097            0   0.35721693    1.4054858    1.7879048    7.3734413 
19430000   0.93972198 1.8701036e-05    0.3985368  0.037143153            0   0.36139365    1.3743434    1.7728802    3.6878663 
19435000   0.97932111 -3.07985e-05   0.32077989 0.0027484402            0   0.31803145    1.4322571     1.753037   -1.4007294 
19440000   0.92382967 -4.3867013e-05   0.40998522  0.033145728            0    0.3768395    1.3511009    1.7610861   -2.7308961 
19445000   0.98311821 4.6188054e-05   0.31352055  0.025068614            0   0.28845193    1.4378104    1.7513309    6.4809877 
19450000   0.92457517 7.6394543e-05   0.40230639 0.0006953939            0     0.401611    1.3521912    1.7544976    9.5772988 
19455000   0.90237895 3.9112373e-05   0.39466318  0.001173124            0   0.39349006    1.3197292    1.7143924    5.7194994 
19460000   0.90618525 3.4128283e-06   0.35675018  0.022513206            0   0.33423698    1.3252959    1.6820461    2.0315197 
19465000   0.87462799 1.5509075e-05   0.42175364  0.054540139            0    0.3672135    1.2791434    1.7008971    3.2890263 
19470000   0.84951131 6.0521537e-05   0.40143659  0.044714276            0   0.35672232    1.2424103    1.6438469    7.8412523 
19475000   0.89682902 4.9726668e-05   0.31293311  0.012165382            0   0.30076773    1.3116124    1.6245455    6.7165564 
19480000   0.81268201 -4.4448132e-05   0.43078363  0.049635835            0   0.38114779    1.1885474    1.6193311   -2.9321576 
19485000   0.86019166 -2.0819645e-05   0.34357728  0.023977484            0   0.31959979    1.2580303    1.6016076  -0.53032406 
19490000   0.85249907 1.8505416e-05   0.35160515 0.0087396014            0   0.34286555    1.2467799     1.598385    3.4933396 
19495000   0.93041151 -6.0309016e-05   0.28332654  0.010799372            0   0.27252716    1.3607268    1.6440534   -4.5315899 
19500000   0.93176794 -7.384992e-05   0.24888983 0.0065978747            0   0.24229195    1.3627106    1.6116004   -5.9506314 
19505000   0.90234954 2.5932682e-05   0.26673336  0.014142431            0   0.25259093    1.3196862    1.5864196    4.2419262 
19510000   0.83232955 3.9055326e-05   0.35717749  0.028183802            0   0.32899368     1.217282    1.5744595    5.5737248 
19515000   0.91909097 -1.4459648e-05   0.29399912 0.0070785124            0    0.2869206    1.3441705    1.6381697   0.15750167 
19520000   0.90403755 -3.8947208e-05   0.31425964  0.043081656            0   0.27117798    1.3221549    1.6364145   -2.3517796 
19525000   0.87754968 -4.6298371e-05   0.33428584  0.017612172            0   0.31667367    1.2834164    1.6177022    -3.123251 
19530000   0.89258956 1.5526235e-05   0.34814217 0.0053900836            0   0.34275208    1.3054122    1.6535544    3.2434408 
19535000   0.98285013 2.0867261e-07   0.23240135 0.0050083378            0   0.22739301    1.4374183    1.6698197    1.6911877 
19540000   0.88651554 -3.1062016e-05   0.37083445  0.025794305            0   0.34504015     1.296529    1.6673634    -1.513387 
19545000   0.86836668 1.2825203e-05   0.38847423  0.026383305            0   0.36209092    1.2699863    1.6584605    2.9717612 
19550000   0.86433156 4.0654348e-05   0.38026089  0.012143153            0   0.36811773    1.2640849    1.6443458     5.807351 
19555000    0.8978013 2.2971741e-05   0.34965797   0.05646176            0   0.29319621    1.3130344    1.6626924    4.0149986 
19560000   0.90500261 1.9552466e-05   0.30375623  0.010445371            0   0.29331085    1.3235663    1.6273225    3.6294951 
19565000   0.84627896 2.893491e-05   0.38453524            0            0   0.38453524     1.237683    1.6222182     4.585153 
19570000   0.85401756 -2.6137196e-06   0.36416299            0            0   0.36416299    1.2490007    1.6131637    1.3455188 
19575000   0.89406318 -4.156172e-05   0.33101627            0            0   0.33101627    1.3075674    1.6385837   -2.6173365 
19580000   0.85739785 -2.969134e-05   0.37617123 0.0010533288            0   0.37511791    1.2539444    1.6301156   -1.4102776 
19585000   0.84509732 -1.1293046e-05   0.42992335  0.071195066            0   0.35872828    1.2359548    1.6658782   0.50947031 
19590000   0.91480884 -3.892943e-05   0.36404431  0.052157584            0   0.31188673    1.3379079    1.7019522   -2.2844214 
19595000   0.88635318 -3.4537111e-05   0.35243215   0.01087618            0   0.34155597    1.2962915    1.6487237   -1.8878764 
19600000   0.85036099 3.1215111e-05   0.36616557 0.0033184361            0   0.36284714     1.243653    1.6098185    4.8062459 
19605000   0.90052495 6.8440856e-05   0.24762974 0.0032387514            0   0.24439099    1.3170177    1.5646475    8.5729911 
19610000   0.87973292 2.5910898e-06   0.29906574 0.0043874039            0   0.29467834    1.2866094    1.5856751    1.8510027 
19615000   0.80584924 -5.1182236e-05   0.38118708   0.02796439            0   0.35322269    1.1785545    1.5597416   -3.6813194 
19620000    0.8010232 -5.9869436e-05   0.36422892  0.038960284            0   0.32526864    1.1714964    1.5357254   -4.5949049 
19625000   0.86694716 -4.0495025e-05   0.26961683  0.016506338            0   0.25311049    1.2679102    1.5375271   -2.6091635 
19630000   0.88538287 -3.2326875e-05   0.22322661 0.0034718758            0   0.21975473    1.2948724     1.518099    -1.792173 
19635000   0.81094496 -3.8274659e-05   0.33362785            0            0   0.33362785     1.186007    1.5196349   -2.3996902 
19640000   0.85176382 -2.4448637e-05   0.31031487 0.00074458208            0   0.30957029    1.2457046    1.5560195    -0.947521 
19645000    0.9017602 3.7249975e-05   0.19816265 0.0049015736            0   0.19326108    1.3188243    1.5169869    5.3313844 
19650000   0.79369763 3.1507297e-05    0.3234303   0.01487228            0   0.30855802    1.1607828    1.4842131    4.7105603 
19655000    0.7880689 7.1475628e-06   0.30652607   0.03183975            0   0.27468632    1.1525508    1.4590768    2.1909873 
19660000   0.81467374 3.1887643e-05   0.27371978  0.035732769            0   0.23798701    1.1914603    1.4651801    4.7304747 
19665000   0.79914292 -2.363598e-05   0.29902926  0.010613951            0   0.28841531    1.1687465    1.4677758  -0.95254853 
19670000    0.8143466 -3.7228497e-05   0.28181048  0.036918595            0   0.24489188    1.1909819    1.4727924   -2.3394057 
19675000   0.75336642 2.3025538e-05   0.39595512  0.040036973            0   0.35591814    1.1017984    1.4977535    3.8555686 
19680000   0.81621357 6.4040427e-05   0.35486227  0.064323834            0   0.29053844    1.1937123    1.5485746    8.1063144 
19685000   0.82964672 5.0899546e-05   0.35733003  0.053377002            0   0.30395303    1.2133583    1.5706884    6.7828018 
19690000   0.89885268 -2.7517894e-06   0.24314393   0.01904975            0   0.22409418     1.314572     1.557716    1.2759327 
19695000   0.82726769 -6.6591282e-05   0.37269141  0.046304337            0   0.32638707     1.209879    1.5825704   -5.2363768 
19700000   0.87717467 -1.3421309e-05   0.31423129  0.055492977            0   0.25873831     1.282868    1.5970992   0.22275716 
19705000   0.88861769 7.1473005e-05   0.25828508 0.0076712559            0   0.25061382    1.2996034    1.5578885    8.8767242 
19710000   0.84517242 7.7876832e-05   0.27706505 0.0080358331            0   0.26902921    1.2360647    1.5131297    9.4877174 
19715000   0.88548115 1.3380377e-05   0.21888035  0.012364267            0   0.20651609    1.2950162    1.5138965    2.8840471 
19720000   0.83399635 -4.7927834e-05   0.30906196 0.0054513399            0   0.30361062    1.2197197    1.5287816   -3.3790286 
19725000   0.82691428 -5.2311117e-07   0.30263514  0.001905538            0    0.3007296    1.2093621    1.5119973    1.4584307 
19730000   0.78765846 9.9847199e-06   0.35112275 0.0033080529            0    0.3478147    1.1519505    1.5030733    2.5255086 
19735000   0.80035002 -7.0820615e-05   0.32928278 0.0060469663            0   0.32323582    1.1705119    1.4997947   -5.7522363 
19740000   0.89367611 -3.3397037e-05   0.18241528 0.0065170595            0   0.17589823    1.3070013    1.4894166   -1.9304399 
19745000    0.9006801 2.4677834e-05   0.18852983 0.0056473065            0   0.18288252    1.3172446    1.5057745    4.0327847 
19750000   0.89420962 1.7462111e-06   0.23593558 0.0095112065            0   0.22642437    1.3077816    1.5437171    1.7225292 
19755000   0.90139979 -2.3718851e-05   0.20764757  0.017250071            0    0.1903975    1.3182972    1.5259448  -0.90286553 
19760000   0.86368909 -1.1399524e-05   0.26612044  0.019776384            0   0.24634406    1.2631453    1.5292657    0.3619545 
19765000   0.92524234 4.6009732e-05   0.21602618 0.0063566492            0   0.20966953    1.3531669    1.5691931    6.2805896 
19770000   0.85937003 4.3941253e-05   0.33944674 0.0052236299            0   0.33422311    1.2568287    1.5962754    6.0958597 
19775000   0.90248017 2.4953486e-05   0.29868011  0.016680609            0    0.2819995    1.3198772    1.6185574    4.1737943 
19780000     0.937487 1.2980639e-05   0.25393526  0.013265035            0   0.24067022    1.3710747      1.62501    2.9542275 
19785000   0.97592983 -7.3256976e-07   0.23146987 0.00089162854            0   0.23057824    1.4272974    1.6587672    1.5837521 
19790000   0.95948961 -2.1619969e-05   0.27580979 0.00028308832            0    0.2755267    1.4032536    1.6790633  -0.53482147 
19795000   0.93672011 -4.4789367e-05   0.29793361 0.0012956744            0   0.29663794    1.3699532    1.6678868   -2.9185445 
19800000   0.94876157 -3.6877647e-05   0.27847808  0.026872878            0   0.25160521    1.3875638    1.6660419   -2.1102292 
19805000   0.94529386 -2.2884614e-05   0.30911626  0.029092499            0   0.28002376    1.3824923    1.6916085   -0.6517759 
19810000   0.97970944 -3.4190325e-05   0.26780014  0.014836051            0   0.25296408    1.4328251    1.7006252   -1.8004641 
19815000   0.96824688 4.4200817e-06   0.32716546  0.020414797            0   0.30675066    1.4160611    1.7432265    2.1958429 
19820000   0.96029713 4.7929324e-05   0.31121477  0.079355129            0   0.23185964    1.4044346    1.7156493    6.6236121 
19825000   0.96892183 2.4221337e-05   0.29806838  0.043183953            0   0.25488442    1.4170482    1.7151166    4.1953815 
19830000   0.96500186 -1.2300139e-05   0.29833898  0.010193733            0   0.28814525    1.4113152    1.7096542   0.45012001 
19835000   0.96319338 -3.7428998e-05   0.30020928  0.009933166            0   0.29027611    1.4086703    1.7088796   -2.1238498 
19840000    1.0480559 3.7623061e-06   0.17401292  0.012210481            0   0.16180244    1.5327817    1.7067946    2.0920548 
19845000    1.0088511 2.9063813e-05   0.20498429  0.011389796            0   0.19359449    1.4754447     1.680429    4.6565634 
19850000    1.0389308 -1.6713181e-05   0.19914765  0.013454456            0    0.1856932    1.5194363    1.7185839 0.0071541586 
19855000    1.0046578 -1.349986e-05   0.24421502   0.03961989            0   0.20459513    1.4693121    1.7135271   0.33114147 
19860000   0.93516593 2.732194e-05   0.32834901  0.038982582            0   0.28936643    1.3676802    1.6960292    4.4937958 
19865000   0.98276837 -1.09077e-05   0.28306321  0.025271541            0   0.25779167    1.4372987    1.7203619   0.60341347 
19870000    1.0026201 -1.0032184e-05   0.28992097  0.023484737            0   0.26643623    1.4663319    1.7562528   0.72895721 
19875000    1.0225288 2.062162e-05   0.27054787 0.0060054732            0   0.26454239    1.4954484    1.7659962    3.8776502 
19880000    1.0394395 3.4838046e-05   0.26211123  0.024927279            0   0.23718395    1.5201803    1.7822915    5.3497075 
19885000   0.99773602 3.4403745e-05   0.31512481  0.028223011            0    0.2869018    1.4591889    1.7743137    5.2972573 
19890000    1.0094317 1.1028539e-05   0.31800248  0.044992435            0   0.27301005    1.4762939    1.7942964    2.9236188 
19895000   0.93402475 -4.2992788e-05   0.38416763  0.025119941            0   0.35904769    1.3660112    1.7501788   -2.6522827 
19900000    1.0314396 -2.4630033e-05   0.25915413  0.007619211            0   0.25153492    1.5084804    1.7676345  -0.75448088 
19905000    1.0483636 2.8392335e-05   0.20609724            0            0   0.20609724    1.5332317     1.739329     4.646704 
19910000   0.98035305 5.1428154e-05   0.30519728 0.00099929105            0   0.30419799    1.4337663    1.7389636    7.0052066 
19915000    1.0274912 -7.620739e-06   0.23961722  0.015632551            0   0.22398467    1.5027058    1.7423231   0.96195939 
19920000    1.0484162 -3.0167868e-05   0.20320791 0.0091053676            0   0.19410254    1.5333088    1.7365167    -1.352673 
19925000    1.0189132 -2.4409644e-05   0.25668614 0.0012226878            0   0.25546345    1.4901605    1.7468467  -0.75270093 
19930000   0.92102529 -8.8931661e-06   0.39072888  0.073726778            0    0.3170021    1.3469995    1.7377284   0.82706815 
19935000    1.0508264 1.5565473e-06   0.20642723  0.023379988            0   0.18304724    1.5368337    1.7432609    1.9026514 
19940000    1.0192676 -4.3973657e-05   0.23445021 0.0039098015            0   0.23054041    1.4906789    1.7251291   -2.7777733 
19945000    1.0012809 1.1097064e-05   0.26379985  0.033896111            0   0.22990374    1.4643733    1.7281731    2.8645125 
19950000    0.9323005 2.5070535e-05   0.29039827  0.050086083            0   0.24031218    1.3634895    1.6538878    4.2211105 
19955000   0.99451396 1.4433461e-05   0.24031644  0.027706039            0    0.2126104    1.4544767    1.6947931    3.1727795 
19960000   0.92237096 8.8627514e-06   0.32018644  0.018064982            0   0.30212146    1.3489675     1.669154    2.5766997 
19965000   0.95504515 -4.7247514e-05    0.3195798 0.0075950548            0   0.31198475    1.3967535    1.7163333   -3.1218121 
19970000   0.99350367 -2.8178856e-05   0.29878713  0.010668251            0   0.28811888    1.4529991    1.7517862   -1.1337286 
19975000   0.95956197 -5.3560361e-06   0.32607697  0.005972089            0   0.32010488    1.4033594    1.7294364    1.1809783 
19980000   0.95743564 -2.2983984e-05   0.30454997 0.0006968577            0   0.30385312    1.4002496    1.7047996  -0.64876036 
19985000   0.93880723 -2.7042116e-05   0.34637018  0.010920765            0   0.33544942    1.3730056    1.7193758   -1.0497369 
19990000   0.90605655 -4.1749735e-05    0.3763007  0.018077831            0   0.35822286    1.3251077    1.7014084   -2.5737644 
19995000    0.9632718 -7.8519697e-05   0.30867561  0.028610156            0   0.28006546     1.408785    1.7174606   -6.3229564 
20000000    1.0319309 4.5683574e-06   0.23112677  0.011090294            0   0.22003648     1.509199    1.7403257    2.2081255 
Loop time of 129.088 on 1 procs for 20000000 steps with 40 atoms

Performance: 133862.191 tau/day, 154933.092 timesteps/s
99.4% CPU use with 1 MPI tasks x no OpenMP threads

MPI task timing breakdown:
Section |  min time  |  avg time  |  max time  |%varavg| %total
---------------------------------------------------------------
Pair    | 4.8931     | 4.8931     | 4.8931     |   0.0 |  3.79
Bond    | 13.131     | 13.131     | 13.131     |   0.0 | 10.17
Neigh   | 18.945     | 18.945     | 18.945     |   0.0 | 14.68
Comm    | 47.714     | 47.714     | 47.714     |   0.0 | 36.96
Output  | 0.32307    | 0.32307    | 0.32307    |   0.0 |  0.25
Modify  | 38.961     | 38.961     | 38.961     |   0.0 | 30.18
Other   |            | 5.121      |            |       |  3.97

Nlocal:        40.0000 ave          40 max          40 min
Histogram: 1 0 0 0 0 0 0 0 0 0
Nghost:        0.00000 ave           0 max           0 min
Histogram: 1 0 0 0 0 0 0 0 0 0
Neighs:        13.0000 ave          13 max          13 min
Histogram: 1 0 0 0 0 0 0 0 0 0

Total # of neighbors = 13
Ave neighs/atom = 0.325
Ave special neighs/atom = 5.7000000
Neighbor list builds = 3727
Dangerous builds = 0
write_restart restart.equil
System init for write_restart ...
WARNING: Communication cutoff 1.4200000000000002 is shorter than a bond length based estimate of 1.8. This may lead to errors. (../comm.cpp:667)
#--------------End of Input file ------------------
Total wall time: 0:02:09
