LAMMPS (29 Oct 2020)
###################### polyelectrolyte complexation ######################
clear

#Initialization
#------------------------------------
units				lj
dimension			3
atom_style			full
boundary			p p p

#Atom Definition
#-------------------------------------
read_restart			restart.equil
Reading restart file ...
  restart file = 29 Oct 2020, LAMMPS = 29 Oct 2020
  restoring atom style full from restart
  orthogonal box = (-80.000000 -80.000000 -80.000000) to (80.000000 80.000000 80.000000)
  1 by 1 by 1 MPI processor grid
  restoring pair style lj/cut from restart
  restoring bond style harmonic from restart
  60 atoms
  59 bonds
Finding 1-2 1-3 1-4 neighbors ...
  special bond factors lj:    0.0      1.0      1.0     
  special bond factors coul:  0.0      0.0      0.0     
     2 = max # of 1-2 neighbors
     2 = max # of 1-3 neighbors
     4 = max # of 1-4 neighbors
     6 = max # of special neighbors
  special bonds CPU = 0.000 seconds
  read_restart CPU = 0.002 seconds

#Force definition
#----------------------------------------------
#Bond definition
bond_style			harmonic
bond_coeff			1 5000 1
#Pair definition
special_bonds	lj 0 1 1
dielectric		80
pair_style		 lj/cut 1.12
pair_modify 		 shift yes
pair_coeff	1 1 1 1 1.12

#Timestep etc
#--------------------------------------------
timestep		0.001
run_style		verlet
velocity		all	create	1	3

#Fix
#---------------------------------------
group polymers type 1
60 atoms in group polymers
fix 1 all nve
fix 2 all langevin 1	1	1	3

#Dump
#------------------------------------------------
compute  1 all gyration
variable  myRg2 equal c_1
variable  i equal step
fix  mythermofile all print 5000 "$i ${myRg2}" file radius_of_gyration.dat screen no

thermo_style		 custom step temp press pe evdwl ecoul ebond ke etotal enthalpy
thermo 	5000
dump	3 all custom 5000 dump.lammpstrj id mol type xu yu zu
run		2000000
Neighbor list info ...
  update every 1 steps, delay 10 steps, check yes
  max neighbors/atom: 2000, page size: 100000
  master list distance cutoff = 1.42
  ghost atom cutoff = 1.42
  binsize = 0.71, bins = 226 226 226
  1 neighbor lists, perpetual/occasional/extra = 1 0 0
  (1) pair lj/cut, perpetual
      attributes: half, newton on
      pair build: half/bin/newton
      stencil: half/bin/3d/newton
      bin: standard
WARNING: Communication cutoff 1.4200000000000002 is shorter than a bond length based estimate of 1.8. This may lead to errors. (../comm.cpp:667)
Per MPI rank memory allocation (min/avg/max) = 54.71 | 54.71 | 54.71 Mbytes
Step Temp Press PotEng E_vdwl E_coul E_bond KinEng TotEng Enthalpy 
 2000000            1 -0.00012130765   0.43871753 0.0060657727            0   0.43265176        1.475    1.9137175   -6.3675516 
 2005000    1.0195478 -0.000109518   0.53998575 0.00055200231            0   0.53943375     1.503833    2.0438187   -5.4326102 
 2010000    1.1042902 1.1705319e-05   0.43856129            0            0   0.43856129     1.628828    2.0673893    2.8664724 
 2015000    1.1072031 2.8258326e-05    0.5032469  0.028509858            0   0.47473704    1.6331246    2.1363715    4.0654732 
 2020000    1.1771954 6.419833e-06     0.427012   0.01073859            0   0.41627341    1.7363633    2.1633753    2.6016359 
 2025000    1.1897693 -3.9577235e-05   0.48486213 0.0059093274            0    0.4789528    1.7549098    2.2397719    -0.462034 
 2030000    1.0722948 8.2450752e-05    0.3720911  0.020545074            0   0.35154602    1.5816348    1.9537259    7.5823639 
 2035000    1.0066699 -0.00014604997   0.43856446 1.3587913e-05            0   0.43855087     1.484838    1.9234025   -8.0469423 
 2040000    1.0037198 3.1018021e-05   0.53929643 0.0061534048            0   0.53314303    1.4804867    2.0197831      4.13728 
 2045000     1.028512 6.9143083e-05   0.48978604 0.0069151849            0   0.48287086    1.5170553    2.0068413    6.7270091 
 2050000     1.020545 -8.609656e-05   0.42374707 0.0047178267            0   0.41902924    1.5053038    1.9290509   -3.9484743 
 2055000    1.0807786 -8.4947888e-05   0.47575282  0.030041929            0   0.44571089    1.5941484    2.0699013   -3.7292079 
 2060000   0.87482783 6.0440439e-05    0.6359788  0.012169952            0   0.62380885     1.290371    1.9263498    6.0524172 
 2065000     1.029068 -1.5296055e-05   0.68451333 0.0093178577            0   0.67519548    1.5178753    2.2023886    1.1581779 
 2070000   0.84627062 -3.6589732e-05   0.57526193  0.072596629            0    0.5026653    1.2482492    1.8235111  -0.67434799 
 2075000    1.1377074 -0.0001084392   0.60795522   0.01967788            0   0.58827734    1.6781184    2.2860736   -5.1167093 
 2080000    1.2682486 -4.153544e-05   0.49199487 0.0074932495            0   0.48450162    1.8706667    2.3626616  -0.47282443 
 2085000   0.87588249 -2.6741458e-05    0.4778195 0.0073963682            0   0.47042313    1.2919267    1.7697462  -0.05580405 
 2090000    1.1501824 -2.9622075e-05   0.47127449  0.017220156            0   0.45405433     1.696519    2.1677935   0.14559313 
 2095000    1.0048009 1.4725302e-05   0.51983883  0.012034171            0   0.50780466    1.4820813    2.0019201    3.0071674 
 2100000   0.93372052 2.7723855e-05   0.35131593 0.00068325279            0   0.35063268    1.3772378    1.7285537    3.6211689 
 2105000    0.9797874 -9.6716813e-05   0.54740238  0.019726094            0   0.52767628    1.4451864    1.9925888   -4.6099456 
 2110000    1.0116765 -6.0433414e-05   0.49402236   0.01138425            0   0.48263811    1.4922229    1.9862452   -2.1393425 
 2115000    1.0738009 6.4495252e-05   0.37437033            0            0   0.37437033    1.5838563    1.9582267    6.3611025 
 2120000    1.0613378 -5.8876193e-05    0.3597576  0.012320993            0   0.34743661    1.5654732    1.9252308   -2.0940506 
 2125000    1.0725528 -7.5591031e-05   0.49098485  0.016073439            0   0.47491141    1.5820154    2.0730003   -3.0873474 
 2130000   0.95580629 8.9706313e-05   0.38042104  0.011224692            0   0.36919634    1.4098143    1.7902353    7.9141863 
 2135000   0.74474309 -7.3066683e-06   0.49902625  0.010163713            0   0.48886254    1.0984961    1.5975223    1.0987204 
 2140000    1.1647347 -3.6820158e-05   0.55894228   0.01406784            0   0.54487444    1.7179838     2.276926  -0.23666341 
 2145000    1.1201807 -2.0604578e-05   0.60055953  0.033302312            0   0.56725721    1.6522665     2.252826   0.84622018 
 2150000   0.86589057 -4.8092494e-05   0.66106182  0.061141544            0   0.59992027    1.2771886    1.9382504   -1.3448638 
 2155000    1.1605239 -5.6546022e-05   0.52222011 0.00068113522            0   0.52153897    1.7117728    2.2339929   -1.6262155 
 2160000   0.96805465 -5.2687219e-06   0.47454878   0.02852499            0   0.44602379    1.4278806    1.9024294    1.5427513 
 2165000    1.1024534 3.5637446e-05   0.50204591  0.057310686            0   0.44473522    1.6261188    2.1281647    4.5610143 
 2170000    1.1320733 2.0323864e-05   0.49610003 0.0038353146            0   0.49226471    1.6698081    2.1659081    3.5533506 
 2175000    1.1253381 -7.1986502e-05   0.43101446  0.045491027            0   0.38552343    1.6598737    2.0908881   -2.8233904 
 2180000   0.93886401 0.00011068917   0.55815463 0.0044471973            0   0.55370744    1.3848244    1.9429791    9.4993597 
 2185000   0.86114982 8.0319561e-05   0.64695535 0.00058534589            0   0.64637001     1.270196    1.9171513    7.4003001 
 2190000   0.89437781 1.1789446e-05   0.39556852  0.012809631            0   0.38275889    1.3192073    1.7147758    2.5196019 
 2195000    0.8769625 3.9880005e-05   0.50789575 0.0056230195            0   0.50227273    1.2935197    1.8014154    4.5238904 
 2200000   0.74387241 -5.5314028e-05   0.52812711  0.069670205            0   0.45845691    1.0972118    1.6253389   -2.1507654 
 2205000    1.0372163 -7.4103757e-05   0.47046382 0.0080873744            0   0.46237644     1.529894    2.0003578   -3.0584587 
 2210000    1.0620477 8.052497e-05   0.55885688  0.041420146            0   0.51743673    1.5665203    2.1253772    7.6225485 
 2215000    1.1919933 2.7670843e-05   0.40409746  0.013102656            0   0.39099481    1.7581901    2.1622876    4.0512838 
 2220000    1.0204181 -3.5410948e-05   0.64714629 0.0043715575            0   0.64277473    1.5051167     2.152263  -0.26512439 
 2225000    0.9032272 6.8212405e-05   0.56321881  0.041582328            0   0.52163648    1.3322601    1.8954789    6.5521125 
 2230000    0.9782578 9.3796918e-05   0.53477002  0.014511036            0   0.52025898    1.4429303    1.9777003    8.3809032 
 2235000   0.99915827 1.5248236e-05   0.56387138 0.0029452342            0   0.56092615    1.4737584    2.0376298    3.0785761 
 2240000    1.0962781 5.1598276e-05   0.65816075 0.00036205651            0   0.65779869    1.6170102     2.275171    5.7976133 
 2245000    1.1310598 1.5921315e-05   0.43737482 0.0051091517            0   0.43226567    1.6683132     2.105688    3.1925831 
 2250000    1.2829321 -3.3853142e-07   0.44435103            0            0   0.44435103    1.8923248    2.3366758    2.3135654 
 2255000    0.8165299 3.2050052e-05   0.37223594 0.0004274559            0   0.37180849    1.2043816    1.5766175    3.7645678 
 2260000    1.0932084 -2.482897e-05   0.54667567  0.005337765            0   0.54133791    1.6124824     2.159158   0.46416701 
 2265000   0.99143335 9.1774424e-05   0.38286762 0.0030179354            0   0.37984968    1.4623642    1.8452318    8.1103658 
 2270000    0.8316692 3.4274876e-06   0.47361078  0.022897805            0   0.45071298    1.2267121    1.7003229     1.934306 
 2275000    1.1886831 -4.4320528e-05   0.42819577  0.030019441            0   0.39817633    1.7533076    2.1815034  -0.84411135 
 2280000    1.0617831 3.0246839e-05   0.55388442  0.039399256            0   0.51448517      1.56613    2.1200145    4.1848654 
 2285000   0.99602234 -1.092718e-05   0.59348443  0.036960392            0   0.55652403    1.4691329    2.0626174    1.3166552 
 2290000    1.0587777 -3.3646772e-05     0.589782  0.031728736            0   0.55805327    1.5616971    2.1514791  -0.14547385 
 2295000    1.1490371 -7.5920725e-06   0.49048906   0.03854841            0   0.45194065    1.6948298    2.1853188    1.6670334 
 2300000    0.9487043 -1.3201812e-05   0.44403494 0.0048699035            0   0.43916503    1.3993388    1.8433738   0.94213009 
 2305000   0.99944915 2.2032173e-05   0.56283049  0.044013675            0   0.51881682    1.4741875     2.037018     3.541081 
 2310000    1.1809877 -1.1851646e-05   0.49087199   0.02271488            0   0.46815711    1.7419569    2.2328289    1.4237565 
 2315000    1.1866657 -4.7588294e-05   0.50406531 0.0026374848            0   0.50142783    1.7503318    2.2543972  -0.99429702 
 2320000    1.0284025 8.8874495e-05   0.69569504  0.013371395            0   0.68232364    1.5168937    2.2125887    8.2797542 
 2325000    1.1464824 -3.2612167e-07   0.44639261  0.011069027            0   0.43532358    1.6910615    2.1374541    2.1151908 
 2330000    1.2697678 1.9775859e-05   0.52401347  0.028671084            0   0.49534238    1.8729075    2.3969209    3.7469529 
 2335000    1.0104313 -7.1754944e-05   0.64908895 0.0064526876            0   0.64263626    1.4903861     2.139475   -2.7589958 
 2340000    1.0322585 2.2754942e-05   0.52545417 0.0034576573            0   0.52199652    1.5225813    2.0480355    3.6014396 
 2345000    1.0186748 3.0492421e-05   0.42832642  0.033754626            0   0.39457179    1.5025454    1.9308718    4.0124877 
 2350000   0.98461181 9.428542e-07   0.32727837 0.0024082323            0   0.32487014    1.4523024    1.7795808    1.8439463 
 2355000   0.84715204 6.8490256e-05   0.38024421  0.011340899            0   0.36890331    1.2495493    1.6297935    6.3053949 
 2360000    1.0107907 -8.9749907e-05   0.45063665  0.018540251            0    0.4320964    1.4909162    1.9415529   -4.1853741 
 2365000   0.89278325 2.8995917e-05   0.48081323  0.016632523            0    0.4641807    1.3168553    1.7976685    3.7771231 
 2370000    1.1741815 5.036133e-05   0.48676727 0.0077326805            0   0.47903459    1.7319177     2.218685    5.6566851 
 2375000    1.0629404 -5.2545668e-06   0.71340386  0.012233939            0   0.70116993    1.5678371     2.281241    1.9225292 
 2380000   0.88277863 8.2401386e-05   0.64851666  0.011914854            0    0.6366018    1.3020985    1.9506151    7.5758831 
 2385000   0.97924407 7.9170058e-05   0.67591906  0.061731239            0   0.61418783     1.444385    2.1203041      7.52498 
 2390000   0.90552526 4.9786712e-05   0.51279062  0.027091784            0   0.48569884    1.3356498    1.8484404    5.2472132 
 2395000     1.029938 -1.8603848e-05   0.54251637  0.025516515            0   0.51699986    1.5191585    2.0616749   0.79165224 
 2400000     1.113584 2.9567417e-05    0.4890333  0.030333293            0   0.45870001    1.6425364    2.1315697    4.1500387 
 2405000    1.0113371 -5.6100423e-05   0.40230997  0.026061183            0   0.37624879    1.4917223    1.8940322   -1.9357566 
 2410000    0.9206872 -0.00013307377   0.68377128 0.0090604501            0   0.67471083    1.3580136    2.0417849   -7.0427181 
 2415000   0.91484863 -6.8257594e-05   0.75235748  0.013633877            0    0.7387236    1.3494017    2.1017592   -2.5579592 
 2420000    1.0194737 -8.5639197e-06   0.40703424  0.019848978            0   0.38718526    1.5037237     1.910758    1.3261277 
 2425000    1.1946547 1.6880938e-05   0.62651571  0.011994472            0   0.61452124    1.7621157    2.3886314    3.5410368 
 2430000   0.91867857 3.1822377e-05   0.37118113 0.0038036266            0   0.36737751    1.3550509     1.726232    3.8986396 
 2435000   0.87522125 0.00015960225    0.5385266 3.2195353e-05            0    0.5384944    1.2909513    1.8294779    12.724991 
 2440000   0.93587861 1.4152461e-05    0.4457021  0.014618484            0   0.43108362     1.380421    1.8261231    2.7922644 
 2445000   0.82231402 -4.8074172e-05   0.59191608 0.0063668277            0   0.58554925    1.2129132    1.8048293   -1.4770342 
 2450000   0.95218104 -5.2785653e-05   0.66685616 0.0030309999            0   0.66382516     1.404467    2.0713232   -1.5321774 
 2455000    0.9585604 -9.7915521e-05   0.43777093  0.014088394            0   0.42368254    1.4138766    1.8516475   -4.8327187 
 2460000    1.2006572 -8.8480629e-05    0.6547609  0.049048401            0    0.6057125    1.7709693    2.4257302   -3.6145473 
 2465000    1.2031161 4.6270946e-05   0.48619657 0.0047566849            0   0.48143988    1.7745963    2.2607928    5.4195561 
 2470000   0.95364762 -3.732916e-05   0.41434845 0.0015959006            0   0.41275255    1.4066302    1.8209787  -0.72735862 
 2475000   0.95446962 8.3176593e-05   0.49263577  0.016292938            0   0.47634283    1.4078427    1.9004785    7.5786672 
 2480000   0.93233182 -0.0001317312   0.49119034 0.0023623503            0   0.48882799    1.3751894    1.8663798   -7.1264699 
 2485000    1.1211507 -0.00012272686   0.51079804  0.030669588            0   0.48012845    1.6536973    2.1644953   -6.2136585 
 2490000   0.95862783 -4.6077223e-05   0.46941797 0.00096851331            0   0.46844946     1.413976     1.883394   -1.2621444 
 2495000    1.0405634 -3.1888238e-05   0.55502373 0.0027680019            0   0.55225573     1.534831    2.0898548 -0.087048963 
 2500000    0.8134901 1.8001151e-05   0.55224545  0.019668449            0     0.532577    1.1998979    1.7521434     2.981022 
 2505000    0.9732204 1.0608073e-05   0.41020384  0.067176087            0   0.34302775    1.4355001    1.8457039    2.5698817 
 2510000    1.0708572 5.4546603e-05   0.45298468    0.0481324            0   0.40485228    1.5795143     2.032499    5.7562137 
 2515000   0.91796247 5.7638694e-05   0.71967865  0.024909051            0    0.6947696    1.3539946    2.0736733    6.0084748 
 2520000    1.1238561 -5.7280648e-05   0.63072525 0.00058657679            0   0.63013867    1.6576878     2.288413   -1.6219459 
 2525000    1.2687733 0.0001093202   0.60701258 0.00014262567            0   0.60686995    1.8714407    2.4784532    9.9413788 
 2530000    1.0358472 4.7217835e-05   0.52009947  0.023558139            0   0.49654133    1.5278746     2.047974    5.2713782 
 2535000   0.81146628 5.3666934e-05   0.54976397  0.032018905            0   0.51774507    1.1969128    1.7466767    5.4103394 
 2540000     1.065426 -0.00012110219   0.50125916  0.016029655            0    0.4852295    1.5715034    2.0727626   -6.1944801 
 2545000    1.0884445 3.1375995e-06    0.4575705 0.0091647113            0   0.44840579    1.6054556    2.0630261    2.2772196 
 2550000    1.0146258 3.4539394e-07   0.49310961  0.017320433            0   0.47578918    1.4965731    1.9896827    2.0132616 
 2555000    1.2079669 -2.7360242e-05   0.45344078  0.032659663            0   0.42078111    1.7817512     2.235192   0.36739948 
 2560000    1.2906608 -3.6494637e-05   0.54123103  0.028508484            0   0.51272255    1.9037247    2.4449558 -0.046411481 
 2565000   0.93980832 3.371345e-05   0.57240962  0.013984442            0   0.55842518    1.3862173    1.9586269    4.2601318 
 2570000    1.0320977 -8.0742848e-05   0.66516847  0.022811609            0   0.64235686    1.5223441    2.1875125   -3.3245325 
 2575000   0.89383567 2.8597399e-05   0.80051634  0.022433447            0    0.7780829    1.3184076     2.118924     4.071173 
 2580000     1.102151 2.1223788e-05   0.36490628  0.025446058            0   0.33946022    1.6256727     1.990579    3.4394562 
 2585000    1.1533477 -8.361071e-06   0.48095008  0.030349726            0   0.45060035    1.7011878    2.1821379    1.6113554 
 2590000    1.1472606 1.1507761e-05   0.60011131 0.0046634436            0   0.59544786    1.6922093    2.2923206    3.0779171 
 2595000    1.0797884 -3.8485714e-05   0.33709344 0.0083300849            0   0.32876336    1.5926879    1.9297814  -0.69751003 
 2600000      1.04471 -4.4971347e-05   0.39048168  0.016141806            0   0.37433988    1.5409472    1.9314289    -1.138615 
 2605000   0.99498974 7.9265581e-05   0.62146397 0.0031426794            0   0.61832129    1.4676099    2.0890738    7.5002708 
 2610000    1.1325111 -1.8577558e-05   0.44475516 0.0022756092            0   0.44247955    1.6704539    2.1152091    0.8469811 
 2615000   0.87825514 -4.4883425e-05   0.54849644 0.0012412502            0   0.54725519    1.2954263    1.8439228   -1.2201191 
 2620000   0.89688973 -3.7638196e-05   0.49460162 0.0018842132            0   0.49271741    1.3229123     1.817514  -0.75192021 
 2625000    1.0136017 -1.1230202e-05   0.37515274  0.017634858            0   0.35751789    1.4950626    1.8702153    1.1035668 
 2630000   0.91466315 -0.00011521337   0.54789853  0.020088663            0   0.52780987    1.3491281    1.8970267   -5.9682058 
 2635000   0.98862313 1.3658069e-05   0.44680674  0.020918587            0   0.42588815    1.4582191    1.9050259    2.8374167 
 2640000    1.0600332 6.3952276e-05   0.54344183  0.065150158            0   0.47829167     1.563549    2.1069908    6.4727995 
 2645000    1.0264004 -2.858537e-06   0.40344643  0.011682911            0   0.39176352    1.5139406     1.917387    1.7222442 
 2650000   0.99796082 -2.4562482e-05   0.48572434 0.0066044192            0   0.47911992    1.4719922    1.9577165   0.28091778 
 2655000    1.1326633 -7.3763501e-05   0.51783181 0.0032741399            0   0.51455767    1.6706783    2.1885102   -2.8470782 
 2660000    1.0093443 1.3936648e-05    0.4204297  0.017010841            0   0.40341886    1.4887829    1.9092126    2.8606211 
 2665000    1.1576111 -9.4140318e-05   0.51623062  0.031498243            0   0.48473237    1.7074763     2.223707   -4.2029388 
 2670000    1.0243994 -4.5674592e-05   0.53199384    0.0024509            0   0.52954294    1.5109891     2.042983   -1.0750692 
 2675000    1.1351751 -0.00010217286   0.55294834  0.007766109            0   0.54518223    1.6743833    2.2273316    -4.747669 
 2680000   0.91492575 -8.6830501e-06   0.60977708  0.061524496            0   0.54825258    1.3495155    1.9592926    1.3665297 
 2685000    1.0301567 7.7775381e-05   0.46829644  0.031268629            0   0.43702781    1.5194812    1.9877776    7.2972436 
 2690000    1.0791904 1.2804587e-05   0.44727864            0            0   0.44727864    1.5918058    2.0390844    2.9132109 
 2695000   0.89683435 7.8840075e-05    0.4440842 0.0077226254            0   0.43636158    1.3228307    1.7669149     7.149064 
 2700000   0.95038611 8.6764948e-05   0.56892846  0.011806801            0   0.55712166    1.4018195     1.970748    7.8939017 
 2705000   0.86105632 7.4651993e-05   0.56295843   0.01667632            0   0.54628211    1.2700581    1.8330165    6.9292592 
 2710000   0.89282531 8.0479056e-05   0.57336094  0.020647267            0   0.55271367    1.3169173    1.8902783    7.3843152 
 2715000   0.79227091 3.9570311e-06   0.54895035 5.6686254e-05            0   0.54889366    1.1685996    1.7175499    1.9876833 
 2720000    0.8035559 6.3872874e-05   0.42861799 0.0048900928            0    0.4237279     1.185245    1.6138629    5.9742511 
 2725000   0.90001284 -6.4309888e-05   0.48407578  0.026488562            0   0.45758722    1.3275189    1.8115947    -2.578627 
 2730000    1.1829949 1.9421868e-05   0.57081434  0.047914799            0   0.52289955    1.7449175    2.3157318     3.641598 
 2735000   0.89879695 -3.1454749e-05   0.55800167  0.032376449            0   0.52562522    1.3257255    1.8837272   -0.2635837 
 2740000   0.90527208 1.6552105e-05   0.42815853 0.0066986569            0   0.42145987    1.3352763    1.7634349    2.8933919 
 2745000    1.0200127 0.00012470595   0.58582957  0.014207667            0    0.5716219    1.5045188    2.0903484    10.603608 
 2750000    1.0662721 -5.7056961e-05   0.47061113 0.0028023565            0   0.46780877    1.5727514    2.0433625    -1.851726 
 2755000    0.8947595 2.1821747e-05   0.32015289  0.018993988            0    0.3011589    1.3197703    1.6399232    3.1296211 
 2760000    1.2243188 5.2611871e-05   0.64643538   0.11959277            0   0.52684261    1.8058702    2.4523055    6.0439426 
 2765000    1.1048435 -6.836684e-05   0.36544426  0.011801571            0   0.35364269    1.6296442    1.9950885   -2.6720878 
 2770000     1.047712 -0.00010754296   0.63834107   0.07909588            0   0.55924519    1.5453752    2.1837162    -5.157883 
 2775000    1.0320021 -3.1882816e-05   0.43892305 0.0022644077            0   0.43665865    1.5222031    1.9611261  -0.21540744 
 2780000    0.7860454 -7.1217674e-05    0.6873757  0.014039787            0   0.67333591     1.159417    1.8467927   -3.0150006 
 2785000     1.061092 7.2747923e-05   0.42232004  0.029006195            0   0.39331384    1.5651107    1.9874308     6.953689 
 2790000   0.90564125 3.0081263e-05   0.48149863  0.013883801            0   0.46761482    1.3358208    1.8173195     3.870867 
 2795000   0.90554922 4.6211844e-05   0.46690257  0.048597705            0   0.41830486    1.3356851    1.8025877    4.9573162 
 2800000     1.078768 2.1561415e-05   0.40031397 0.0042883601            0   0.39602561    1.5911828    1.9914968    3.4634228 
 2805000   0.84221417 6.6337227e-05   0.55278083  0.027435416            0   0.52534542    1.2422659    1.7950467    6.3236681 
 2810000   0.92527213 7.7833199e-06   0.36790018  0.002343714            0   0.36555647    1.3647764    1.7326766    2.2640179 
 2815000    1.0198365 -1.6338343e-05   0.46081239 0.0036196815            0   0.45719271    1.5042588    1.9650712   0.84970698 
 2820000    1.0302458 3.0621005e-05   0.40908317  0.012414105            0   0.39666907    1.5196126    1.9286957    4.0190897 
 2825000   0.84328968 -6.0684881e-05   0.70187045  0.045561158            0    0.6563093    1.2438523    1.9457227   -2.1970318 
 2830000    1.0718974 -8.0370145e-05   0.46733909 0.0046907752            0   0.46264831    1.5810487    2.0483877   -3.4382141 
 2835000     1.144834 0.00012298185   0.47809245 7.6851245e-05            0    0.4780156    1.6886301    2.1667225    10.562284 
 2840000   0.88998258 -0.00010354772   0.46827971  0.024453609            0    0.4438261    1.3127243     1.781004   -5.2878537 
 2845000   0.96937446 -6.647105e-05   0.52464127  0.014411821            0   0.51022945    1.4298273    1.9544686   -2.5832884 
 2850000   0.95605198 -1.8665025e-05   0.31465766            0            0   0.31465766    1.4101767    1.7248343   0.45063533 
 2855000    1.0165881 1.6765485e-05   0.56144989  0.014711738            0   0.54673815    1.4994675    2.0609174    3.2054411 
 2860000    1.0401586 0.00010741289   0.61113238 0.0026256301            0   0.60850675    1.5342339    2.1453663    9.4780863 
 2865000    1.0800539 0.00011249954   0.49447904  0.031540037            0     0.462939    1.5930795    2.0875586    9.7675271 
 2870000     1.095225 4.499054e-05   0.57535658  0.021776458            0   0.55358013    1.6154569    2.1908135    5.2621677 
 2875000   0.86553917 -2.0255623e-05     0.682039  0.016828711            0   0.66521029    1.2766703    1.9587093   0.57592539 
 2880000    1.1096559 -6.1593037e-05   0.51145672   0.12036646            0   0.39109026    1.6367425    2.1481992   -2.0565521 
 2885000   0.90024786 9.2534147e-05   0.59307642  0.047385494            0   0.54569093    1.3278656     1.920942    8.2379398 
 2890000    1.0662726 8.2739411e-05   0.49852576  0.005638023            0   0.49288773    1.5727522    2.0712779    7.7196217 
 2895000     1.011644 -6.7748426e-05     0.511568 0.0081372046            0    0.5034308    1.4921749    2.0037429   -2.6212164 
 2900000    1.0011934 9.2332766e-05   0.54055197  0.021788958            0   0.51876302    1.4767603    2.0173123    8.3205625 
 2905000   0.89418104 -2.5488735e-05   0.41325444   0.02137144            0     0.391883     1.318917    1.7321715 -0.0078594926 
 2910000   0.86692137 -6.1540843e-05   0.42558007 0.0051117147            0   0.42046835     1.278709    1.7042891   -2.4968991 
 2915000    1.3467789 9.7890326e-05   0.37514309  0.017617201            0   0.35752589    1.9864988    2.3616419    9.0442882 
 2920000    1.0158264 -2.5382496e-06   0.54372723  0.080090623            0   0.46363661     1.498344    2.0420712    1.8687934 
 2925000    1.0944412 2.1623463e-05   0.44398306  0.038547861            0   0.40543519    1.6143008    2.0582838    3.5344455 
 2930000    1.0068184 -7.5563367e-05   0.55680266 0.0075873935            0   0.54921527    1.4850572    2.0418599   -3.1165993 
 2935000    1.0950342 -3.1854163e-05   0.49470015  0.022368911            0   0.47233123    1.6151755    2.1098756 -0.064701907 
 2940000    1.1101733 3.8511723e-05   0.45031385  0.043152021            0   0.40716183    1.6375056    2.0878194    4.7168863 
 2945000    1.1691349 -5.1143296e-05   0.39038723  0.007571318            0   0.38281591     1.724474    2.1148612   -1.3765211 
 2950000    1.1896664 -3.0038698e-05   0.54534584  0.021262822            0   0.52408302    1.7547579    2.3001037    0.2494619 
 2955000   0.93660209 2.1344632e-06   0.69469545   0.03447275            0    0.6602227    1.3814881    2.0761835    2.2218962 
 2960000   0.94666935 -6.339331e-05   0.67102293  0.021619046            0   0.64940388    1.3963373    2.0673602   -2.2602897 
 2965000    0.9643373 7.3955863e-06   0.48389268  0.013572818            0   0.47031986    1.4223975    1.9062902    2.4111622 
 2970000    1.0893205 9.1230692e-05    0.5995261 0.0050628755            0   0.59446323    1.6067477    2.2062738     8.434289 
 2975000   0.99546958 6.901416e-05   0.42709982  0.013197975            0   0.41390185    1.4683176    1.8954175    6.6067841 
 2980000   0.99585212 -1.8771071e-05   0.68927546  0.032788498            0   0.65648696    1.4688819    2.1581573   0.87671889 
 2985000   0.83594055 -2.8775292e-05    0.5340859  0.011858102            0    0.5222278    1.2330123    1.7670982  -0.19729506 
 2990000   0.87719375 6.5519518e-05   0.43580253  0.051192353            0   0.38461018    1.2938608    1.7296633    6.2024624 
 2995000    1.0971411 2.4607668e-05   0.65783153  0.018194181            0   0.63963735    1.6182831    2.2761146    3.9559981 
 3000000    1.0231594 8.1782031e-05   0.57654149 0.0040328468            0   0.57250864    1.5091601    2.0857016    7.6686882 
 3005000   0.91744493 4.8687877e-06   0.49918624  0.011037881            0   0.48814835    1.3532313    1.8524175    2.1847934 
 3010000    1.0077889 7.8905341e-05    0.5174185  0.022912452            0   0.49450605    1.4864887    2.0039072    7.3905118 
 3015000     1.237662 4.7295591e-05   0.43938547 3.9414793e-05            0   0.43934605    1.8255514    2.2649369    5.4936492 
 3020000    1.0388443 -7.6531178e-05   0.45425032 0.0057698803            0   0.44848044    1.5322954    1.9865457   -3.2379827 
 3025000   0.99464636 2.0670908e-05   0.46975914  0.010415731            0   0.45934341    1.4671034    1.9368625    3.3479965 
 3030000   0.96926295 3.259411e-05   0.44077996  0.009752979            0   0.43102698    1.4296629    1.8704428    4.0955341 
 3035000    1.0104455  0.000122205   0.47765446  0.013893618            0   0.46376085    1.4904072    1.9680616     10.31059 
 3040000    1.0814184 -6.599783e-05   0.53794517 0.0095746752            0    0.5283705    1.5950921    2.1330373   -2.3724145 
 3045000    1.0262019 5.6147235e-05    0.5475945  0.037638465            0   0.50995604    1.5136479    2.0612424    5.8942269 
 3050000    1.0021762 -0.00012570016   0.44268613 0.0088629741            0   0.43382315    1.4782099     1.920896   -6.6602347 
 3055000     1.006361 4.9808852e-06   0.44363263 0.0011875541            0   0.44244508    1.4843825    1.9280151    2.2680435 
 3060000   0.99180936 -4.080969e-05   0.46032439  0.011048156            0   0.44927624    1.4629188    1.9232432  -0.86269832 
 3065000    1.2790354 -2.5485184e-05   0.47824528 0.0063308467            0   0.47191444    1.8865772    2.3648225   0.62503389 
 3070000    1.0480096 -6.7437326e-05   0.34061417  0.036182314            0   0.30443185    1.5458142    1.8864283   -2.7172931 
 3075000    1.1203978 -1.79015e-05   0.45023234 0.0052701497            0   0.44496219    1.6525867    2.1028191   0.88074334 
 3080000   0.91504555 -1.0355796e-05   0.53299775 0.0017307239            0   0.53126702    1.3496922    1.8826899    1.1757343 
 3085000   0.90672337 4.2625243e-05   0.38319558 0.00021070109            0   0.38298488     1.337417    1.7206125    4.6304958 
 3090000    1.1053681 0.00010388076   0.43538678 0.0070528948            0   0.42833389    1.6304179    2.0658047     9.157398 
 3095000    1.0037251 3.8374954e-05   0.58504165  0.040069233            0   0.54497241    1.4804945    2.0655361    4.6852663 
 3100000    1.0214554 9.8332141e-06   0.55110039  0.014750627            0   0.53634977    1.5066468    2.0577472    2.7290279 
 3105000   0.85019098 -3.1793501e-05    0.5708774  0.016935605            0   0.55394179    1.2540317    1.8249091  -0.34552726 
 3110000    1.1948182 -2.6291785e-05   0.35402304 0.0044054645            0   0.34961758    1.7623569    2.1163799   0.32152739 
 3115000    1.0619889 -9.5827946e-06   0.50018677  0.011348284            0   0.48883849    1.5664337    2.0666205     1.412435 
 3120000   0.80956504 -8.6686925e-06   0.57923696  0.027478859            0    0.5517581    1.1941084    1.7733454    1.1815627 
 3125000    0.8957676 -0.00011306379   0.46615706  0.017387546            0   0.44876951    1.3212572    1.7874143   -5.9310735 
 3130000   0.88500308 5.9186138e-05   0.45639762 0.0096849995            0   0.44671262    1.3053795    1.7617772    5.8022175 
 3135000   0.96849987 7.1362412e-05   0.47481522  0.015865935            0   0.45894928    1.4285373    1.9033525    6.7750265 
 3140000    1.0637109 -3.796099e-05   0.44758436  0.008425689            0   0.43915867    1.5689736    2.0165579  -0.57491233 
 3145000    1.0148002 5.8182647e-05   0.47499348 0.0043390475            0   0.47065444    1.4968303    1.9718238    5.9437591 
 3150000    1.0239857 -5.6839508e-05   0.57358736 0.0071933705            0   0.56639399    1.5103789    2.0839663   -1.7962775 
 3155000    0.9039622 1.8035167e-05    0.5408669  0.016122815            0   0.52474409    1.3333442    1.8742111    3.1054119 
 3160000    1.0590691 4.7423346e-05    0.5047653  0.048090417            0   0.45667488     1.562127    2.0668923     5.304326 
 3165000    1.0290778 -4.5919506e-05   0.48976908            0            0   0.48976908    1.5178898    2.0076589   -1.1271127 
 3170000    1.0800026 -4.1744249e-05   0.52630855   0.04031723            0   0.48599132    1.5930038    2.1193123  -0.73042838 
 3175000    1.0856991 5.0705803e-05   0.60672443  0.034439666            0   0.57228476    1.6014062    2.2081307    5.6696468 
 3180000    1.0515887 -9.534554e-06   0.52126793  0.010313523            0   0.51095441    1.5510933    2.0723612     1.421469 
 3185000    1.0978758 3.826975e-05   0.47395026  0.033891652            0   0.44005861    1.6193668     2.093317    4.7058653 
 3190000   0.99501077 0.00010590624   0.48675459 0.0016769788            0   0.48507762    1.4676409    1.9543955    9.1842617 
 3195000    1.1203198 1.5129536e-05   0.39643811  0.042466427            0   0.35397169    1.6524717    2.0489098    3.0817527 
 3200000   0.99556332 -3.9192048e-06   0.51074376 0.0049185614            0    0.5058252    1.4684559    1.9791997    1.7116486 
 3205000     1.079323 3.0607455e-05   0.64495456  0.038950497            0   0.60600406    1.5920015     2.236956    4.3264249 
 3210000    1.0716447 2.0904511e-05   0.40570438 0.0028269763            0    0.4028774    1.5806759    1.9863802    3.4134616 
 3215000    0.9746355 5.7217868e-05   0.64840069  0.015192116            0   0.63320858    1.4375874    2.0859881    5.9920612 
 3220000   0.98059344 4.7444869e-05   0.41269104  0.001724962            0   0.41096608    1.4463753    1.8590664    5.0979694 
 3225000    1.1475037 7.0059048e-05   0.48023471  0.030280453            0   0.44995426     1.692568    2.1728027    6.9555004 
 3230000   0.95085009 9.7328615e-05   0.37630333 0.0072728908            0   0.36903044    1.4025039    1.7788072    8.4231074 
 3235000    1.2682413 -1.9136463e-06   0.40730374 0.0040802711            0   0.40322347     1.870656    2.2779597    2.1473214 
 3240000    1.1132866 -3.1333587e-08   0.42274777 0.0054224485            0   0.41732533    1.6420978    2.0648455    2.0627065 
 3245000   0.93649537 4.1107263e-05    0.5959902  0.008726081            0   0.58726412    1.3813307    1.9773209    4.7835767 
 3250000    1.1848872 -3.6125119e-05   0.35007054  0.023229712            0   0.32684082    1.7477086    2.0977792  -0.36836231 
 3255000    1.1157207 -5.1024273e-05   0.54913556 0.0093931512            0   0.53974241    1.6456881    2.1948236   -1.2884334 
 3260000    1.0063784 3.4195853e-05   0.45497907  0.078262782            0   0.37671629    1.4844081    1.9393872    4.2738241 
 3265000    1.1826817 8.1944535e-05   0.55248274   0.03774054            0    0.5147422    1.7444556    2.2969383    7.8910186 
 3270000   0.99673657 -9.3952957e-06   0.65764377  0.017889147            0   0.63975462    1.4701864    2.1278302    1.4864447 
 3275000    1.2277597 -0.00012674233   0.50540912  0.021196424            0    0.4842127    1.8109456    2.3163547   -6.3359215 
 3280000    1.0497267 -9.603258e-05   0.62142096   0.01046927            0   0.61095169    1.5483469    2.1697679   -4.3860562 
 3285000    1.0622667 3.9962461e-05   0.59196971  0.030935265            0   0.56103445    1.5668433     2.158813     4.886917 
 3290000   0.94034722 -8.6497954e-05   0.76711097  0.012747604            0   0.75436336    1.3870121    2.1541231   -3.7508039 
 3295000     1.255894 4.8979317e-05   0.47711664  0.026938207            0   0.45017844    1.8524436    2.3295603    5.6732149 
 3300000   0.90750463 6.2078381e-05   0.54084623  0.003922736            0   0.53692349    1.3385693    1.8794156    6.1172997 
 3305000    1.0089113 2.7177145e-05   0.65901749 0.0097913398            0   0.64922615    1.4881441    2.1471616    4.0024547 
 3310000    0.8263138 -1.3505097e-05   0.36744518 0.00039055942            0   0.36705462    1.2188129     1.586258   0.66431007 
 3315000   0.86387366 0.00012788182   0.63126643  0.023769817            0   0.60749661    1.2742136    1.9054801    10.635545 
 3320000    1.1094177 1.8479723e-06   0.46347063  0.018087944            0   0.44538269     1.636391    2.0998617    2.2260166 
 3325000    1.0396542 -3.9576235e-05   0.36723896 0.0014752544            0    0.3657637    1.5334899    1.9007288  -0.80100879 
 3330000   0.88380992 -2.9055006e-05    0.6395933  0.021335362            0   0.61825794    1.3036196    1.9432129  -0.04027547 
 3335000     1.022675 -4.1500765e-05   0.33600542 0.0088965133            0   0.32710891    1.5084457    1.8444511   -0.9886678 
 3340000    1.1279545 1.5978495e-05   0.60468291  0.067301328            0   0.53738158    1.6637329    2.2684158    3.3592144 
 3345000    0.9271445 -3.5701661e-05   0.55869357  0.022691294            0   0.53600228    1.3675381    1.9262317  -0.51100168 
 3350000   0.98289338 -4.8577149e-05   0.69930767 0.0090164896            0   0.69029118    1.4497677    2.1490754   -1.1671246 
 3355000     1.015245 2.4688914e-05    0.4283285            0            0    0.4283285    1.4974863    1.9258148    3.6112447 
 3360000    1.1233917 8.0192416e-05   0.56192333  0.028626812            0   0.53329652    1.6570028    2.2189261    7.6933951 
 3365000    1.0000134 1.7284429e-05   0.56945819  0.017437818            0   0.55202037    1.4750198     2.044478    3.2244284 
 3370000   0.86770611 -0.00020172382   0.50132403 6.9014232e-05            0   0.50125502    1.2798665    1.7811905   -11.989822 
 3375000    1.1072853 -4.7070824e-05     0.642141   0.04797363            0   0.59416737    1.6332459    2.2753869  -0.93798141 
 3380000   0.97236157 -5.6144179e-05   0.42267784  0.024939811            0   0.39773803    1.4342333    1.8569112   -1.9758648 
 3385000    1.0046063 7.2441262e-05   0.50298811 0.00082849683            0   0.50215962    1.4817943    1.9847824    6.9301059 
 3390000   0.84404942 6.5545917e-05   0.54683871  0.037363617            0   0.50947509    1.2449729    1.7918116    6.2664129 
 3395000   0.85945934 8.5120045e-06   0.45469119  0.012880871            0   0.44181032    1.2677025    1.7223937    2.3034799 
 3400000     1.194943 -5.5963823e-05   0.52730923  0.052318746            0   0.47499048    1.7625409    2.2898502   -1.5306135 
 3405000     1.055505 0.00012415936    0.5173618            0            0    0.5173618    1.5568698    2.0742316    10.550178 
 3410000    1.1125958 1.1018137e-05   0.49574186  0.045661034            0   0.45008083    1.6410788    2.1368207    2.8889922 
 3415000   0.92493814 8.0639924e-06   0.56452697 0.0063071923            0   0.55821977    1.3642838    1.9288107    2.4793126 
 3420000    1.0385372 0.00014241111   0.70687757  0.005380021            0   0.70149755    1.5318424      2.23872    11.960652 
 3425000    1.1912007 -3.5121135e-05   0.52443805 0.0002332212            0   0.52420483     1.757021     2.281459  -0.11614382 
 3430000    1.1711179 -0.0001200142   0.42529761  0.010896746            0   0.41440086    1.7273989    2.1526965   -6.0402729 
 3435000     1.143641 0.00010975336   0.60671691 0.0026640608            0   0.60405285    1.6868705    2.2935874    9.7860836 
 3440000    1.0162223 -0.0001159846   0.50898151  0.010741357            0   0.49824015    1.4989279    2.0079095   -5.9099729 
 3445000    1.1438577 -2.1501315e-05   0.50824897 0.0052715614            0   0.50297741    1.6871901    2.1954391     0.727616 
 3450000    1.1309946 7.7869083e-05    0.4443988  0.012476832            0   0.43192197     1.668217    2.1126158    7.4284785 
 3455000    1.0346827 1.3808127e-05   0.60749659  0.065433529            0   0.54206306    1.5261569    2.1336535    3.0762883 
 3460000   0.90770012 -2.517511e-05   0.50255432  0.050929979            0   0.45162434    1.3388577     1.841412   0.12279118 
 3465000   0.94417245 8.3574262e-05   0.30903574 0.0017853438            0   0.30725039    1.3926544    1.7016901    7.4070264 
 3470000   0.97006578 9.9066951e-06   0.59076126 0.0020710298            0   0.58869023     1.430847    2.0216083    2.6979053 
 3475000    1.0071657 4.2389953e-05   0.44631653  0.057199344            0   0.38911718    1.4855693    1.9318859    4.8257067 
 3480000    1.0852829 5.8559314e-05   0.57400212  0.049364661            0   0.52463746    1.6007922    2.1747944    6.1724435 
 3485000   0.99253004 2.7275657e-05   0.43406827  0.027124482            0   0.40694378    1.4639818    1.8980501    3.7600683 
 3490000   0.97727801 6.471728e-05   0.39094323 0.0064508436            0   0.38449239    1.4414851    1.8324283    6.2504613 
 3495000    1.0429807 -2.9060563e-05   0.47345066 0.0033012412            0   0.47014942    1.5383966    2.0118472  0.027979467 
 3500000   0.91785647 -6.1294293e-05   0.58637629 0.0084338661            0   0.57794242    1.3538383    1.9402146   -2.2441425 
 3505000   0.81763168 1.0978081e-05   0.38067204  0.004298807            0   0.37637323    1.2060067    1.5866788    2.3361158 
 3510000   0.87272263 -3.2513688e-05   0.46941858  0.011877666            0   0.45754092    1.2872659    1.7566845  -0.46291666 
 3515000   0.96402729 -1.9831577e-05   0.38159568  0.029174756            0   0.35242092    1.4219403    1.8035359   0.44970031 
 3520000    1.0081971 5.5330914e-06   0.37769539 0.00037370698            0   0.37732169    1.4870908    1.8647862    2.2425119 
 3525000    1.1021763 -5.9474864e-05   0.36983956  0.017411209            0   0.35242835      1.62571    1.9955496   -2.0646011 
 3530000    1.0545437 9.0381935e-05   0.56076572  0.011096128            0   0.54966959    1.5554519    2.1162176    8.2862911 
 3535000      1.05217 -4.0210846e-06    0.5809836 0.0002551046            0    0.5807285    1.5519507    2.1329343    1.8584283 
 3540000   0.96709028 -7.6951437e-05   0.41382476  0.013192074            0   0.40063269    1.4264582    1.8402829   -3.4129352 
 3545000   0.83500445 -6.8930318e-05   0.48458048            0            0   0.48458048    1.2316316     1.716212    -2.989431 
 3550000   0.86569047 -2.7840138e-05   0.40219667  0.006447494            0   0.39574918    1.2768934    1.6790901  -0.22146328 
 3555000   0.98682536 5.016564e-05   0.32966792  0.018712227            0   0.31095569    1.4555674    1.7852353    5.2098763 
 3560000    1.0509129 -5.6152264e-05   0.64479522 0.0048560307            0   0.63993919    1.5500965    2.1948917   -1.6384362 
 3565000    0.8927204 2.6057377e-05   0.55427192  0.063408623            0    0.4908633    1.3167626    1.8710345    3.6498848 
 3570000    1.0311834 1.5113557e-05   0.46113939  0.012631604            0   0.44850778    1.5209955    1.9821349    3.0138871 
 3575000   0.88643388 -8.2265461e-05   0.53086123  0.010396221            0   0.52046501      1.30749    1.8383512   -3.7776376 
 3580000   0.93529721 7.464111e-05   0.45596305 0.0085813634            0   0.44738168    1.3795634    1.8355264    6.9310262 
 3585000   0.95096018 1.9511851e-05   0.46239634 0.0096600148            0   0.45273633    1.4026663    1.8650626    3.1970716 
 3590000   0.86143032 -2.3790891e-05   0.48426534 0.0038049508            0   0.48046039    1.2706097    1.7548751   0.13075026 
 3595000   0.95307024 3.8627845e-05   0.50308874 0.0081528332            0   0.49493591    1.4057786    1.9088673    4.5458615 
 3600000   0.95814321 -1.9507413e-05   0.36707446 0.0028485567            0    0.3642259    1.4132612    1.7803357   0.44862962 
 3605000    0.9430291 2.9078167e-05   0.51662583 0.0040629708            0   0.51256286    1.3909679    1.9075937    3.8926633 
 3610000    1.0842074 -2.2001847e-05   0.49258397  0.025568251            0   0.46701571    1.5992059    2.0917899   0.58979709 
 3615000   0.96461254 -0.00010248788   0.51996636  0.025465152            0   0.49450121    1.4228035    1.9427698   -5.0537358 
 3620000   0.93823613 0.00010577608   0.34277614 0.0098729924            0   0.33290315    1.3838983    1.7266744     8.947655 
 3625000    1.0121223 2.0859135e-05   0.41197269  0.072215588            0    0.3397571    1.4928803     1.904853    3.3288366 
 3630000    1.0988334 -1.0934962e-05   0.53108205  0.065391523            0   0.46569052    1.6207792    2.1518613    1.4053679 
 3635000   0.83494383 -7.4282147e-06   0.48851255 0.0079296508            0    0.4805829    1.2315422    1.7200547    1.2129552 
 3640000   0.88641517 -7.2561698e-05   0.49229655  0.034042938            0   0.45825361    1.3074624    1.7997589   -3.1537863 
 3645000   0.99874155 9.5418631e-05   0.43974439 0.0042595941            0    0.4354848    1.4731438    1.9128882    8.4268001 
 3650000   0.87373808 2.8186417e-05   0.33767569 0.0053242931            0   0.33235139    1.2887637    1.6264394    3.5506321 
 3655000   0.86875808 3.831874e-05   0.62282679 0.0067114642            0   0.61611533    1.2814182     1.904245    4.5201376 
 3660000   0.86369307 5.3011891e-05    0.3704751  0.044869396            0   0.32560571    1.2739473    1.6444224    5.2633675 
 3665000   0.89717146 7.4732414e-05   0.49351027  0.017733014            0   0.47577726    1.3233279    1.8168382     6.918571 
 3670000    1.0808704 -1.5939757e-05   0.37669653  0.017209097            0   0.35948744    1.5942838    1.9709803   0.88282626 
 3675000   0.96809814 -1.3172422e-05   0.56213818  0.023860683            0   0.53827749    1.4279448    1.9900829    1.0908456 
 3680000    1.1078461 -5.3933025e-06   0.44729028  0.034729518            0   0.41256076     1.634073    2.0813633    1.7131805 
 3685000    1.0275531 2.4955178e-05   0.59463901 0.0066052487            0   0.58803376    1.5156409    2.1102799    3.8138867 
 3690000   0.92781155 4.5026261e-05   0.47186181  0.011307713            0    0.4605541     1.368522    1.8403839    4.9141766 
 3695000    1.1903486 1.0447048e-05   0.48282666  0.043180226            0   0.43964643    1.7557642    2.2385909     2.951776 
 3700000   0.96713123 -2.0044165e-05    0.5173598  0.016543292            0   0.50081651    1.4265186    1.9438784   0.57553003 
 3705000    1.0802048 -7.4692084e-06   0.31824423 0.0045805793            0   0.31366365    1.5933021    1.9115463    1.4016483 
 3710000   0.98562492 -0.00013390515   0.44191904  0.011451171            0   0.43046787    1.4537968    1.8957158   -7.2455426 
 3715000   0.93345625 -3.4277691e-05   0.36868795  0.010775112            0   0.35791284     1.376848    1.7455359  -0.59448781 
 3720000    1.0819972 -8.8581264e-05   0.50677713 0.0045013176            0   0.50227581    1.5959459     2.102723   -3.9444246 
 3725000   0.80421774 1.1874431e-05    0.5031082  0.011677957            0   0.49143024    1.1862212    1.6893294    2.4999572 
 3730000    1.2690039 -5.908357e-05    0.5480637  0.016511571            0   0.53155213    1.8717807    2.4198444   -1.6135939 
 3735000   0.98850405 -0.00010399533   0.37107544  0.011130004            0   0.35994544    1.4580435    1.8291189   -5.2702956 
 3740000    1.0692691 -6.9393901e-05     0.512895 0.0087892352            0   0.50410577    1.5771719    2.0900669   -2.6472234 
 3745000    1.0411942 -3.8325341e-05   0.50702341  0.011335346            0   0.49568806    1.5357615    2.0427849  -0.57355839 
 3750000   0.86103914 -7.9832535e-05   0.55122544  0.033132335            0   0.51809311    1.2700327    1.8212582   -3.6286429 
 3755000    1.0528883 8.094138e-06   0.41888047  0.014908243            0   0.40397223    1.5530102    1.9718907    2.5244505 
 3760000   0.89508851 9.8510586e-05   0.46400945            0            0   0.46400945    1.3202556     1.784265    8.5092543 
 3765000    1.0312618 4.3070453e-05   0.49030074  0.013879381            0   0.47642136    1.5211111    2.0114119    4.9516882 
 3770000    1.0840931 2.0001587e-05   0.54899998 6.5386834e-05            0   0.54893459    1.5990373    2.1480373    3.5134789 
 3775000   0.90900973 1.2358432e-06   0.37659688 0.0013413034            0   0.37525557    1.3407894    1.7173862    1.8017531 
 3780000   0.88251622 2.8836886e-06    0.3196422 0.0038411707            0   0.31580103    1.3017114    1.6213536    1.8182134 
 3785000    1.1232848 5.6240601e-05   0.54091386  0.010908398            0   0.53000547    1.6568451     2.197759    6.0371173 
 3790000    1.1760068 -2.012404e-06   0.42817072  0.015402545            0   0.41276818      1.73461    2.1627807    2.0254006 
 3795000    1.1653143 4.2823859e-05   0.50826582  0.061089622            0    0.4471762    1.7188386    2.2271045    5.1505466 
 3800000    1.0290393 -4.9951091e-05   0.52899556 0.0016250283            0   0.52737054     1.517833    2.0468286   -1.3631659 
 3805000    1.1267012 4.5612028e-05   0.38612134 0.0083333149            0   0.37778803    1.6618842    2.0480055    5.1617866 
 3810000    1.1070601 -1.9305477e-05   0.44131195  0.012575522            0   0.42873643    1.6329136    2.0742256   0.75630504 
 3815000    1.1507111 -1.6133739e-05   0.42951664  0.021312759            0   0.40820388    1.6972989    2.1268156     1.025419 
 3820000    1.0208358 -1.1611545e-05   0.43228022  0.018121327            0    0.4141589    1.5057327     1.938013    1.1453315 
 3825000    1.0004786 -2.4506681e-06   0.46755571  0.010832347            0   0.45672337     1.475706    1.9432617    1.7759628 
 3830000   0.97175321 7.7099276e-05   0.49737571 0.00013515371            0   0.49724055     1.433336    1.9307117    7.1940222 
 3835000   0.91891147 -6.6605036e-05   0.54131707  0.024998054            0   0.51631902    1.3553944    1.8967115   -2.6501923 
 3840000   0.95309589 -5.9022316e-05   0.42459045            0            0   0.42459045    1.4058164    1.8304069   -2.1988499 
 3845000    1.0417879 7.848304e-05   0.54464623  0.035403818            0   0.50924241    1.5366372    2.0812834     7.439059 
 3850000   0.98872337 0.00010864596   0.49596409  0.064735025            0   0.43122907     1.458367    1.9543311    9.3712283 
 3855000   0.85280282 -1.4111692e-05   0.49843241  0.011040216            0   0.48739219    1.2578842    1.7563166   0.79295837 
 3860000    1.0142505 5.5247499e-05   0.45811221   0.05527439            0   0.40283782    1.4960195    1.9541317    5.7256943 
 3865000     1.117132 -6.4350392e-05   0.56177208  0.010922157            0   0.55084992    1.6477697    2.2095418    -2.183445 
 3870000     1.131663 -3.69962e-05   0.44137064            0            0   0.44137064    1.6692029    2.1105735  -0.41503371 
 3875000   0.89123957 0.00012755029   0.70685288  0.033658599            0   0.67319428    1.3145784    2.0214312    10.728865 
 3880000   0.88844006 -5.198445e-05   0.50286705  0.025384839            0   0.47748221    1.3104491    1.8133161    -1.735489 
 3885000   0.86235508 3.5829419e-05   0.44818251 0.0061056824            0   0.44207682    1.2719737    1.7201562    4.1661112 
 3890000    1.0751557 -6.7793695e-05   0.54986733 0.0054809024            0   0.54438643    1.5858546     2.135722   -2.4923276 
 3895000    1.0405995 9.5850635e-05   0.50159592  0.034341606            0   0.46725432    1.5348843    2.0364802    8.5798835 
 3900000   0.95098275 4.7809755e-05   0.72912129  0.057886814            0   0.67123447    1.4026996    2.1318208    5.3956335 
 3905000    1.1111951 0.0001156511   0.49703218 0.0085955551            0   0.48843662    1.6390127    2.1360449     10.03116 
 3910000   0.99276245 -6.8796367e-05   0.45083803  0.029771708            0   0.42106632    1.4643246    1.9151626    -2.781336 
 3915000    1.0014027 3.1645569e-05   0.48614077 0.0062999314            0   0.47984084     1.477069    1.9632098    4.1235473 
 3920000   0.88440275 -1.0439224e-05   0.65359118  0.018432475            0   0.63515871    1.3044941    1.9580852    1.2454342 
 3925000   0.99233549 3.2900695e-05    0.5141143  0.031488371            0   0.48262593    1.4636949    1.9778092    4.2238299 
 3930000   0.82812349 -1.1242316e-06   0.60597492            0            0   0.60597492    1.2214822    1.8274571    1.7507095 
 3935000   0.80496283 6.6765118e-05   0.39410553 0.0011070734            0   0.39299846    1.1873202    1.5814257    6.1392578 
 3940000    1.1049438 -5.0717577e-05   0.62020428  0.048317601            0   0.57188668    1.6297921    2.2499964   -1.2123235 
 3945000     1.214669 2.3927549e-05   0.56120451  0.011743071            0   0.54946144    1.7916368    2.3528413    3.9862953 
 3950000    1.0899514 -1.1855198e-05   0.57304282 0.0033775421            0   0.56966528    1.6076784    2.1807212    1.3714064 
 3955000    1.0536057 -0.00011470109   0.66874377  0.016660045            0   0.65208373    1.5540684    2.2228122    -5.607449 
 3960000   0.97709298 8.6463662e-06    0.6124273  0.027581454            0   0.58484585    1.4412121    2.0536394     2.643898 
 3965000   0.84340423 7.9048525e-05   0.59199036 0.0002701206            0   0.59172024    1.2440212    1.8360116    7.2323909 
 3970000    1.1564362 6.2916967e-05   0.34448193  0.063243596            0   0.28123833    1.7057434    2.0502253     6.345357 
 3975000     1.012199 3.4892553e-05   0.61706717  0.012355096            0   0.60471207    1.4929935    2.1100607    4.4920589 
 3980000    1.1208826 4.9937153e-05   0.65973746  0.061165131            0   0.59857233    1.6533019    2.3130393    5.7220823 
 3985000    1.0036376 2.7467759e-05    0.6947333  0.074797074            0   0.61993623    1.4803655    2.1750988    4.0502311 
 3990000   0.94548576 -7.8874824e-05   0.46903967  0.016689655            0   0.45235002    1.3945915    1.8636312   -3.5208901 
 3995000    1.1017836 -6.9281487e-05    0.5640269  0.034425313            0   0.52960158    1.6251308    2.1891577   -2.5404585 
 4000000   0.91687841 -4.3350366e-05    0.5789817   0.02790208            0   0.55107962    1.3523957    1.9313774   -1.0280076 
Loop time of 221.572 on 1 procs for 2000000 steps with 60 atoms

Performance: 779881.636 tau/day, 9026.408 timesteps/s
98.1% CPU use with 1 MPI tasks x no OpenMP threads

MPI task timing breakdown:
Section |  min time  |  avg time  |  max time  |%varavg| %total
---------------------------------------------------------------
Pair    | 0.78242    | 0.78242    | 0.78242    |   0.0 |  0.35
Bond    | 1.9456     | 1.9456     | 1.9456     |   0.0 |  0.88
Neigh   | 187.7      | 187.7      | 187.7      |   0.0 | 84.71
Comm    | 25.927     | 25.927     | 25.927     |   0.0 | 11.70
Output  | 0.041988   | 0.041988   | 0.041988   |   0.0 |  0.02
Modify  | 4.5065     | 4.5065     | 4.5065     |   0.0 |  2.03
Other   |            | 0.6678     |            |       |  0.30

Nlocal:        60.0000 ave          60 max          60 min
Histogram: 1 0 0 0 0 0 0 0 0 0
Nghost:        0.00000 ave           0 max           0 min
Histogram: 1 0 0 0 0 0 0 0 0 0
Neighs:        28.0000 ave          28 max          28 min
Histogram: 1 0 0 0 0 0 0 0 0 0

Total # of neighbors = 28
Ave neighs/atom = 0.46666667
Ave special neighs/atom = 5.8000000
Neighbor list builds = 37841
Dangerous builds = 0
write_restart restart.rerun.1
System init for write_restart ...
WARNING: Communication cutoff 1.4200000000000002 is shorter than a bond length based estimate of 1.8. This may lead to errors. (../comm.cpp:667)
#--------------End of Input file ------------------
Total wall time: 0:03:41
